patch_n	x	y	stress_yy
0	 0.000000000000000e+00	 0.000000000000000e+00	 1.100558523076923e+01
0	 0.000000000000000e+00	 6.250000000000000e-01	 1.088489667076923e+01
0	 0.000000000000000e+00	 1.250000000000000e+00	 1.075931000615385e+01
0	 0.000000000000000e+00	 1.875000000000000e+00	 1.062882523692308e+01
0	 0.000000000000000e+00	 2.500000000000000e+00	 1.049344236307692e+01
0	 0.000000000000000e+00	 3.125000000000000e+00	 1.035316138461538e+01
0	 0.000000000000000e+00	 3.750000000000000e+00	 1.020798230153846e+01
0	 0.000000000000000e+00	 4.375000000000000e+00	 1.005790511384615e+01
0	 0.000000000000000e+00	 5.000000000000000e+00	 9.902929821538461e+00
0	 0.000000000000000e+00	 5.624999999999999e+00	 9.743056424615380e+00
0	 0.000000000000000e+00	 6.250000000000000e+00	 9.578284923076923e+00
0	 6.250000000000000e-01	 0.000000000000000e+00	 1.083911853538461e+01
0	 6.250000000000001e-01	 6.250000000000001e-01	 1.074090194707692e+01
0	 6.250000000000000e-01	 1.250000000000000e+00	 1.063858859107692e+01
0	 6.249999999999999e-01	 1.875000000000000e+00	 1.053217846738461e+01
0	 6.249999999999999e-01	 2.500000000000000e+00	 1.042167157600000e+01
0	 6.250000000000000e-01	 3.125000000000000e+00	 1.030706791692308e+01
0	 6.249999999999999e-01	 3.749999999999999e+00	 1.018836749015384e+01
0	 6.250000000000000e-01	 4.375000000000001e+00	 1.006557029569231e+01
0	 6.250000000000000e-01	 4.999999999999999e+00	 9.938676333538462e+00
0	 6.250000000000000e-01	 5.624999999999999e+00	 9.807685603692308e+00
0	 6.250000000000000e-01	 6.250000000000000e+00	 9.672598106153842e+00
0	 1.250000000000000e+00	 0.000000000000000e+00	 1.068980343384615e+01
0	 1.250000000000000e+00	 6.250000000000001e-01	 1.061123726369231e+01
0	 1.250000000000000e+00	 1.249999999999999e+00	 1.052937566276923e+01
0	 1.250000000000000e+00	 1.875000000000000e+00	 1.044421863107692e+01
0	 1.250000000000000e+00	 2.500000000000001e+00	 1.035576616861538e+01
0	 1.250000000000000e+00	 3.125000000000000e+00	 1.026401827538461e+01
0	 1.250000000000000e+00	 3.749999999999999e+00	 1.016897495138461e+01
0	 1.250000000000000e+00	 4.375000000000001e+00	 1.007063619661539e+01
0	 1.250000000000000e+00	 4.999999999999999e+00	 9.969002011076922e+00
0	 1.250000000000000e+00	 5.624999999999999e+00	 9.864072394769231e+00
0	 1.250000000000000e+00	 6.250000000000000e+00	 9.755847347692304e+00
0	 1.875000000000000e+00	 0.000000000000000e+00	 1.055763992615384e+01
0	 1.875000000000000e+00	 6.249999999999999e-01	 1.049590262061538e+01
0	 1.875000000000001e+00	 1.250000000000000e+00	 1.043167122123076e+01
0	 1.875000000000000e+00	 1.875000000000000e+00	 1.036494572800000e+01
0	 1.875000000000000e+00	 2.500000000000000e+00	 1.029572614092308e+01
0	 1.875000000000000e+00	 3.125000000000000e+00	 1.022401246000000e+01
0	 1.875000000000000e+00	 3.750000000000000e+00	 1.014980468523077e+01
0	 1.875000000000000e+00	 4.375000000000001e+00	 1.007310281661538e+01
0	 1.875000000000000e+00	 4.999999999999998e+00	 9.993906854153845e+00
0	 1.875000000000000e+00	 5.624999999999999e+00	 9.912216797846153e+00
0	 1.875000000000000e+00	 6.250000000000001e+00	 9.828032647692307e+00
0	 2.500000000000000e+00	 0.000000000000000e+00	 1.044262801230769e+01
0	 2.500000000000000e+00	 6.250000000000000e-01	 1.039489801784615e+01
0	 2.500000000000000e+00	 1.250000000000000e+00	 1.034547526646153e+01
0	 2.500000000000000e+00	 1.875000000000000e+00	 1.029435975815385e+01
0	 2.500000000000000e+00	 2.500000000000000e+00	 1.024155149292307e+01
0	 2.500000000000000e+00	 3.125000000000000e+00	 1.018705047076923e+01
0	 2.500000000000001e+00	 3.750000000000001e+00	 1.013085669169231e+01
0	 2.500000000000000e+00	 4.375000000000000e+00	 1.007297015569231e+01
0	 2.500000000000000e+00	 5.000000000000000e+00	 1.001339086276923e+01
0	 2.500000000000000e+00	 5.624999999999998e+00	 9.952118812923075e+00
0	 2.500000000000000e+00	 6.250000000000000e+00	 9.889154006153841e+00
0	 3.125000000000000e+00	 0.000000000000000e+00	 1.034476769230769e+01
0	 3.125000000000000e+00	 6.250000000000000e-01	 1.030822345538461e+01
0	 3.125000000000000e+00	 1.250000000000000e+00	 1.027078779846154e+01
0	 3.125000000000000e+00	 1.875000000000000e+00	 1.023246072153846e+01
0	 3.125000000000000e+00	 2.500000000000000e+00	 1.019324222461538e+01
0	 3.125000000000000e+00	 3.125000000000000e+00	 1.015313230769230e+01
0	 3.125000000000000e+00	 3.750000000000000e+00	 1.011213097076923e+01
0	 3.125000000000000e+00	 4.375000000000000e+00	 1.007023821384615e+01
0	 3.125000000000000e+00	 5.000000000000000e+00	 1.002745403692308e+01
0	 3.125000000000000e+00	 5.625000000000000e+00	 9.983778439999996e+00
0	 3.125000000000000e+00	 6.250000000000000e+00	 9.939211423076921e+00
0	 3.750000000000000e+00	 0.000000000000000e+00	 1.026405896615385e+01
0	 3.749999999999999e+00	 6.249999999999999e-01	 1.023587893323077e+01
0	 3.749999999999999e+00	 1.250000000000000e+00	 1.020760881723077e+01
0	 3.750000000000000e+00	 1.875000000000000e+00	 1.017924861815384e+01
0	 3.750000000000001e+00	 2.500000000000001e+00	 1.015079833600000e+01
0	 3.750000000000000e+00	 3.125000000000000e+00	 1.012225797076923e+01
0	 3.749999999999999e+00	 3.749999999999999e+00	 1.009362752246154e+01
0	 3.750000000000000e+00	 4.374999999999999e+00	 1.006490699107692e+01
0	 3.749999999999999e+00	 4.999999999999999e+00	 1.003609637661538e+01
0	 3.750000000000000e+00	 5.624999999999999e+00	 1.000719567907692e+01
0	 3.750000000000000e+00	 6.250000000000001e+00	 9.978204898461534e+00
0	 4.375000000000000e+00	 0.000000000000000e+00	 1.020050183384615e+01
0	 4.374999999999999e+00	 6.249999999999999e-01	 1.017786445138461e+01
0	 4.375000000000000e+00	 1.250000000000000e+00	 1.015593832276923e+01
0	 4.375000000000001e+00	 1.875000000000000e+00	 1.013472344800000e+01
0	 4.375000000000000e+00	 2.500000000000000e+00	 1.011421982707692e+01
0	 4.375000000000000e+00	 3.125000000000000e+00	 1.009442746000000e+01
0	 4.374999999999999e+00	 3.750000000000000e+00	 1.007534634676923e+01
0	 4.375000000000000e+00	 4.375000000000000e+00	 1.005697648738462e+01
0	 4.374999999999999e+00	 4.999999999999999e+00	 1.003931788184615e+01
0	 4.375000000000000e+00	 5.625000000000000e+00	 1.002237053015384e+01
0	 4.375000000000000e+00	 6.250000000000000e+00	 1.000613443230769e+01
0	 5.000000000000000e+00	 0.000000000000000e+00	 1.015409629538461e+01
0	 4.999999999999998e+00	 6.250000000000000e-01	 1.013418000984615e+01
0	 4.999999999999999e+00	 1.250000000000000e+00	 1.011577631507692e+01
0	 4.999999999999999e+00	 1.875000000000000e+00	 1.009888521107692e+01
0	 4.999999999999999e+00	 2.500000000000000e+00	 1.008350669784615e+01
0	 5.000000000000000e+00	 3.125000000000000e+00	 1.006964077538461e+01
0	 4.999999999999998e+00	 3.750000000000000e+00	 1.005728744369230e+01
0	 4.999999999999999e+00	 4.374999999999999e+00	 1.004644670276923e+01
0	 5.000000000000000e+00	 5.000000000000000e+00	 1.003711855261538e+01
0	 5.000000000000000e+00	 5.624999999999999e+00	 1.002930299323077e+01
0	 5.000000000000000e+00	 6.250000000000001e+00	 1.002300002461539e+01
0	 5.624999999999999e+00	 0.000000000000000e+00	 1.012484235076923e+01
0	 5.624999999999999e+00	 6.250000000000000e-01	 1.010482560861538e+01
0	 5.625000000000000e+00	 1.250000000000000e+00	 1.008712279415384e+01
0	 5.624999999999999e+00	 1.875000000000000e+00	 1.007173390738462e+01
0	 5.624999999999999e+00	 2.500000000000000e+00	 1.005865894830769e+01
0	 5.625000000000000e+00	 3.125000000000000e+00	 1.004789791692307e+01
0	 5.625000000000001e+00	 3.750000000000000e+00	 1.003945081323077e+01
0	 5.625000000000000e+00	 4.375000000000000e+00	 1.003331763723077e+01
0	 5.624999999999999e+00	 4.999999999999999e+00	 1.002949838892307e+01
0	 5.624999999999999e+00	 5.624999999999999e+00	 1.002799306830769e+01
0	 5.625000000000000e+00	 6.250000000000000e+00	 1.002880167538461e+01
0	 6.250000000000000e+00	 0.000000000000000e+00	 1.011274000000000e+01
0	 6.250000000000000e+00	 6.250000000000000e-01	 1.008980124769231e+01
0	 6.250000000000000e+00	 1.250000000000000e+00	 1.006997776000000e+01
0	 6.250000000000000e+00	 1.875000000000000e+00	 1.005326953692308e+01
0	 6.250000000000000e+00	 2.500000000000000e+00	 1.003967657846154e+01
0	 6.250000000000000e+00	 3.125000000000000e+00	 1.002919888461538e+01
0	 6.250000000000000e+00	 3.750000000000000e+00	 1.002183645538461e+01
0	 6.250000000000000e+00	 4.375000000000000e+00	 1.001758929076923e+01
0	 6.250000000000001e+00	 5.000000000000000e+00	 1.001645739076923e+01
0	 6.250000000000000e+00	 5.624999999999999e+00	 1.001844075538461e+01
0	 6.250000000000000e+00	 6.250000000000000e+00	 1.002353938461538e+01
0	 0.000000000000000e+00	 6.250000000000000e+00	 9.578284923076923e+00
0	 0.000000000000000e+00	 6.875000000000001e+00	 9.624014990769229e+00
0	 0.000000000000000e+00	 7.500000000000003e+00	 9.670066547692304e+00
0	 0.000000000000000e+00	 8.125000000000004e+00	 9.716439593846152e+00
0	 0.000000000000000e+00	 8.750000000000002e+00	 9.763134129230767e+00
0	 0.000000000000000e+00	 9.375000000000004e+00	 9.810150153846152e+00
0	 0.000000000000000e+00	 1.000000000000000e+01	 9.857487667692300e+00
0	 0.000000000000000e+00	 1.062500000000000e+01	 9.905146670769227e+00
0	 0.000000000000000e+00	 1.125000000000001e+01	 9.953127163076918e+00
0	 0.000000000000000e+00	 1.187500000000001e+01	 1.000142914461538e+01
0	 0.000000000000000e+00	 1.250000000000000e+01	 1.005005261538461e+01
0	 6.250000000000000e-01	 6.250000000000000e+00	 9.672598106153842e+00
0	 6.250000000000001e-01	 6.875000000000000e+00	 9.707328727384615e+00
0	 6.250000000000001e-01	 7.500000000000002e+00	 9.742286499384612e+00
0	 6.250000000000000e-01	 8.125000000000002e+00	 9.777471422153843e+00
0	 6.249999999999999e-01	 8.750000000000002e+00	 9.812883495692304e+00
0	 6.249999999999998e-01	 9.375000000000000e+00	 9.848522719999995e+00
0	 6.249999999999999e-01	 1.000000000000001e+01	 9.884389095076916e+00
0	 6.250000000000000e-01	 1.062500000000000e+01	 9.920482620923075e+00
0	 6.250000000000000e-01	 1.125000000000001e+01	 9.956803297538457e+00
0	 6.250000000000000e-01	 1.187500000000000e+01	 9.993351124923075e+00
0	 6.250000000000000e-01	 1.250000000000000e+01	 1.003012610307692e+01
0	 1.250000000000000e+00	 6.250000000000000e+00	 9.755847347692304e+00
0	 1.250000000000000e+00	 6.875000000000000e+00	 9.780962872615381e+00
0	 1.250000000000000e+00	 7.500000000000000e+00	 9.806211209846154e+00
0	 1.250000000000000e+00	 8.125000000000004e+00	 9.831592359384612e+00
0	 1.250000000000000e+00	 8.750000000000004e+00	 9.857106321230763e+00
0	 1.250000000000000e+00	 9.375000000000004e+00	 9.882753095384611e+00
0	 1.250000000000000e+00	 1.000000000000001e+01	 9.908532681846154e+00
0	 1.250000000000000e+00	 1.062500000000000e+01	 9.934445080615381e+00
0	 1.250000000000000e+00	 1.125000000000000e+01	 9.960490291692302e+00
0	 1.250000000000000e+00	 1.187500000000001e+01	 9.986668315076919e+00
0	 1.250000000000000e+00	 1.250000000000000e+01	 1.001297915076922e+01
0	 1.875000000000000e+00	 6.250000000000001e+00	 9.828032647692307e+00
0	 1.875000000000000e+00	 6.875000000000000e+00	 9.844917426461537e+00
0	 1.875000000000000e+00	 7.500000000000000e+00	 9.861840679076920e+00
0	 1.875000000000000e+00	 8.125000000000000e+00	 9.878802405538464e+00
0	 1.875000000000001e+00	 8.750000000000004e+00	 9.895802605846153e+00
0	 1.875000000000000e+00	 9.375000000000004e+00	 9.912841279999999e+00
0	 1.875000000000000e+00	 1.000000000000001e+01	 9.929918427999993e+00
0	 1.875000000000000e+00	 1.062500000000000e+01	 9.947034049846145e+00
0	 1.875000000000000e+00	 1.125000000000000e+01	 9.964188145538460e+00
0	 1.875000000000000e+00	 1.187500000000000e+01	 9.981380715076916e+00
0	 1.875000000000000e+00	 1.250000000000000e+01	 9.998611758461536e+00
0	 2.500000000000000e+00	 6.250000000000000e+00	 9.889154006153841e+00
0	 2.500000000000000e+00	 6.875000000000001e+00	 9.899192388923078e+00
0	 2.500000000000000e+00	 7.500000000000003e+00	 9.909174907076922e+00
0	 2.500000000000000e+00	 8.125000000000002e+00	 9.919101560615383e+00
0	 2.500000000000000e+00	 8.750000000000002e+00	 9.928972349538459e+00
0	 2.500000000000000e+00	 9.375000000000002e+00	 9.938787273846149e+00
0	 2.500000000000000e+00	 1.000000000000000e+01	 9.948546333538463e+00
0	 2.500000000000001e+00	 1.062500000000001e+01	 9.958249528615385e+00
0	 2.500000000000000e+00	 1.125000000000001e+01	 9.967896859076921e+00
0	 2.500000000000000e+00	 1.187500000000001e+01	 9.977488324923073e+00
0	 2.500000000000000e+00	 1.250000000000000e+01	 9.987023926153846e+00
0	 3.125000000000000e+00	 6.250000000000000e+00	 9.939211423076921e+00
0	 3.125000000000000e+00	 6.875000000000000e+00	 9.943787760000003e+00
0	 3.125000000000000e+00	 7.500000000000002e+00	 9.948213893846150e+00
0	 3.125000000000000e+00	 8.125000000000004e+00	 9.952489824615384e+00
0	 3.125000000000000e+00	 8.750000000000002e+00	 9.956615552307692e+00
0	 3.125000000000000e+00	 9.375000000000002e+00	 9.960591076923077e+00
0	 3.125000000000000e+00	 1.000000000000000e+01	 9.964416398461536e+00
0	 3.124999999999999e+00	 1.062500000000000e+01	 9.968091516923074e+00
0	 3.125000000000000e+00	 1.125000000000001e+01	 9.971616432307689e+00
0	 3.125000000000000e+00	 1.187500000000001e+01	 9.974991144615384e+00
0	 3.125000000000000e+00	 1.250000000000000e+01	 9.978215653846149e+00
0	 3.750000000000000e+00	 6.250000000000001e+00	 9.978204898461534e+00
0	 3.750000000000000e+00	 6.875000000000001e+00	 9.978703539692306e+00
0	 3.750000000000000e+00	 7.500000000000001e+00	 9.978957639384612e+00
0	 3.750000000000000e+00	 8.125000000000004e+00	 9.978967197538459e+00
0	 3.750000000000000e+00	 8.750000000000002e+00	 9.978732214153844e+00
0	 3.750000000000000e+00	 9.375000000000002e+00	 9.978252689230770e+00
0	 3.750000000000000e+00	 1.000000000000000e+01	 9.977528622769228e+00
0	 3.750000000000000e+00	 1.062500000000001e+01	 9.976560014769229e+00
0	 3.750000000000001e+00	 1.125000000000001e+01	 9.975346865230772e+00
0	 3.750000000000000e+00	 1.187500000000001e+01	 9.973889174153847e+00
0	 3.750000000000000e+00	 1.250000000000000e+01	 9.972186941538459e+00
0	 4.375000000000000e+00	 6.250000000000000e+00	 1.000613443230769e+01
0	 4.374999999999999e+00	 6.874999999999999e+00	 1.000393972800000e+01
0	 4.375000000000000e+00	 7.500000000000004e+00	 1.000140614369231e+01
0	 4.374999999999999e+00	 8.125000000000002e+00	 9.998533679384613e+00
0	 4.374999999999999e+00	 8.750000000000002e+00	 9.995322335076922e+00
0	 4.375000000000001e+00	 9.375000000000004e+00	 9.991772110769229e+00
0	 4.375000000000000e+00	 1.000000000000001e+01	 9.987883006461537e+00
0	 4.375000000000000e+00	 1.062500000000000e+01	 9.983655022153844e+00
0	 4.374999999999999e+00	 1.125000000000000e+01	 9.979088157846149e+00
0	 4.374999999999999e+00	 1.187500000000001e+01	 9.974182413538454e+00
0	 4.375000000000000e+00	 1.250000000000000e+01	 9.968937789230765e+00
0	 5.000000000000000e+00	 6.250000000000001e+00	 1.002300002461539e+01
0	 4.999999999999999e+00	 6.875000000000002e+00	 1.001949632492308e+01
0	 5.000000000000000e+00	 7.500000000000001e+00	 1.001555940676923e+01
0	 5.000000000000000e+00	 8.125000000000002e+00	 1.001118927015385e+01
0	 5.000000000000000e+00	 8.750000000000002e+00	 1.000638591507692e+01
0	 4.999999999999999e+00	 9.375000000000004e+00	 1.000114934153846e+01
0	 5.000000000000000e+00	 1.000000000000001e+01	 9.995479549538461e+00
0	 5.000000000000000e+00	 1.062500000000000e+01	 9.989376539076920e+00
0	 5.000000000000000e+00	 1.125000000000001e+01	 9.982840310153843e+00
0	 5.000000000000000e+00	 1.187500000000001e+01	 9.975870862769231e+00
0	 5.000000000000000e+00	 1.250000000000000e+01	 9.968468196923078e+00
0	 5.625000000000000e+00	 6.250000000000000e+00	 1.002880167538461e+01
0	 5.625000000000000e+00	 6.875000000000001e+00	 1.002537333046153e+01
0	 5.625000000000000e+00	 7.500000000000001e+00	 1.002141742861538e+01
0	 5.624999999999999e+00	 8.125000000000002e+00	 1.001693396984615e+01
0	 5.625000000000000e+00	 8.750000000000004e+00	 1.001192295415384e+01
0	 5.624999999999999e+00	 9.375000000000004e+00	 1.000638438153846e+01
0	 5.625000000000000e+00	 1.000000000000001e+01	 1.000031825200000e+01
0	 5.624999999999999e+00	 1.062500000000000e+01	 9.993724565538461e+00
0	 5.624999999999998e+00	 1.125000000000000e+01	 9.986603322153844e+00
0	 5.624999999999999e+00	 1.187500000000001e+01	 9.978954521846150e+00
0	 5.625000000000000e+00	 1.250000000000000e+01	 9.970778164615382e+00
0	 6.250000000000000e+00	 6.250000000000000e+00	 1.002353938461538e+01
0	 6.250000000000000e+00	 6.875000000000000e+00	 1.002157074461538e+01
0	 6.250000000000000e+00	 7.500000000000002e+00	 1.001898020923077e+01
0	 6.250000000000001e+00	 8.125000000000004e+00	 1.001576777846154e+01
0	 6.250000000000001e+00	 8.750000000000004e+00	 1.001193345230769e+01
0	 6.250000000000000e+00	 9.375000000000004e+00	 1.000747723076923e+01
0	 6.250000000000000e+00	 1.000000000000000e+01	 1.000239911384615e+01
0	 6.250000000000000e+00	 1.062500000000000e+01	 9.996699101538461e+00
0	 6.250000000000001e+00	 1.125000000000001e+01	 9.990377193846150e+00
0	 6.250000000000000e+00	 1.187500000000001e+01	 9.983433390769228e+00
0	 6.250000000000000e+00	 1.250000000000000e+01	 9.975867692307691e+00
0	 0.000000000000000e+00	 1.250000000000000e+01	 1.005005261538461e+01
0	 0.000000000000000e+00	 1.312500000000000e+01	 1.003942025230769e+01
0	 0.000000000000000e+00	 1.375000000000000e+01	 1.002917787076923e+01
0	 0.000000000000000e+00	 1.437500000000000e+01	 1.001932547076923e+01
0	 0.000000000000000e+00	 1.500000000000000e+01	 1.000986305230769e+01
0	 0.000000000000000e+00	 1.562500000000000e+01	 1.000079061538461e+01
0	 0.000000000000000e+00	 1.625000000000000e+01	 9.992108159999999e+00
0	 0.000000000000000e+00	 1.687500000000000e+01	 9.983815686153847e+00
0	 0.000000000000000e+00	 1.750000000000000e+01	 9.975913193846154e+00
0	 0.000000000000000e+00	 1.812500000000001e+01	 9.968400683076929e+00
0	 0.000000000000000e+00	 1.875000000000000e+01	 9.961278153846154e+00
0	 6.250000000000000e-01	 1.250000000000000e+01	 1.003012610307692e+01
0	 6.250000000000001e-01	 1.312500000000000e+01	 1.002239035107692e+01
0	 6.250000000000001e-01	 1.375000000000000e+01	 1.001498822953846e+01
0	 6.250000000000000e-01	 1.437500000000000e+01	 1.000791973846154e+01
0	 6.249999999999999e-01	 1.500000000000000e+01	 1.000118487784615e+01
0	 6.249999999999998e-01	 1.562500000000000e+01	 9.994783647692309e+00
0	 6.249999999999999e-01	 1.625000000000000e+01	 9.988716047999995e+00
0	 6.250000000000000e-01	 1.687500000000000e+01	 9.982982078769229e+00
0	 6.250000000000000e-01	 1.750000000000001e+01	 9.977581740000000e+00
0	 6.250000000000000e-01	 1.812500000000001e+01	 9.972515031692309e+00
0	 6.250000000000000e-01	 1.875000000000000e+01	 9.967781953846155e+00
0	 1.250000000000000e+00	 1.250000000000000e+01	 1.001297915076922e+01
0	 1.250000000000000e+00	 1.312500000000000e+01	 1.000779569384615e+01
0	 1.250000000000000e+00	 1.375000000000000e+01	 1.000288951630769e+01
0	 1.250000000000000e+00	 1.437500000000001e+01	 9.998260618153845e+00
0	 1.250000000000000e+00	 1.500000000000000e+01	 9.993908999384612e+00
0	 1.250000000000000e+00	 1.562500000000000e+01	 9.989834660000003e+00
0	 1.250000000000000e+00	 1.625000000000000e+01	 9.986037600000000e+00
0	 1.250000000000000e+00	 1.687500000000000e+01	 9.982517819384610e+00
0	 1.250000000000000e+00	 1.750000000000000e+01	 9.979275318153846e+00
0	 1.250000000000000e+00	 1.812500000000000e+01	 9.976310096307689e+00
0	 1.250000000000000e+00	 1.875000000000000e+01	 9.973622153846156e+00
0	 1.875000000000000e+00	 1.250000000000000e+01	 9.998611758461536e+00
0	 1.875000000000000e+00	 1.312500000000000e+01	 9.995636280615381e+00
0	 1.875000000000000e+00	 1.375000000000000e+01	 9.992881731076920e+00
0	 1.875000000000000e+00	 1.437500000000000e+01	 9.990348109846147e+00
0	 1.875000000000001e+00	 1.500000000000000e+01	 9.988035416923074e+00
0	 1.875000000000000e+00	 1.562500000000000e+01	 9.985943652307691e+00
0	 1.875000000000000e+00	 1.625000000000000e+01	 9.984072815999994e+00
0	 1.875000000000000e+00	 1.687500000000000e+01	 9.982422907999993e+00
0	 1.875000000000000e+00	 1.750000000000001e+01	 9.980993928307692e+00
0	 1.875000000000000e+00	 1.812500000000000e+01	 9.979785876923078e+00
0	 1.875000000000000e+00	 1.875000000000000e+01	 9.978798753846153e+00
0	 2.500000000000000e+00	 1.250000000000000e+01	 9.987023926153846e+00
0	 2.500000000000000e+00	 1.312500000000000e+01	 9.985912111384611e+00
0	 2.500000000000000e+00	 1.375000000000000e+01	 9.984964873846149e+00
0	 2.500000000000000e+00	 1.437500000000000e+01	 9.984182213538464e+00
0	 2.500000000000000e+00	 1.500000000000000e+01	 9.983564130461536e+00
0	 2.500000000000000e+00	 1.562500000000000e+01	 9.983110624615382e+00
0	 2.500000000000000e+00	 1.625000000000000e+01	 9.982821695999997e+00
0	 2.500000000000001e+00	 1.687500000000001e+01	 9.982697344615383e+00
0	 2.500000000000000e+00	 1.750000000000000e+01	 9.982737570461534e+00
0	 2.500000000000000e+00	 1.812500000000001e+01	 9.982942373538465e+00
0	 2.500000000000000e+00	 1.875000000000000e+01	 9.983311753846147e+00
0	 3.125000000000000e+00	 1.250000000000000e+01	 9.978215653846149e+00
0	 3.125000000000000e+00	 1.312500000000000e+01	 9.978623186153850e+00
0	 3.125000000000000e+00	 1.375000000000000e+01	 9.979138944615380e+00
0	 3.125000000000000e+00	 1.437500000000000e+01	 9.979762929230766e+00
0	 3.125000000000000e+00	 1.500000000000000e+01	 9.980495140000002e+00
0	 3.125000000000000e+00	 1.562500000000000e+01	 9.981335576923074e+00
0	 3.125000000000000e+00	 1.625000000000000e+01	 9.982284239999998e+00
0	 3.124999999999999e+00	 1.687500000000000e+01	 9.983341129230766e+00
0	 3.125000000000000e+00	 1.750000000000001e+01	 9.984506244615385e+00
0	 3.125000000000000e+00	 1.812500000000001e+01	 9.985779586153850e+00
0	 3.125000000000000e+00	 1.875000000000000e+01	 9.987161153846156e+00
0	 3.750000000000000e+00	 1.250000000000000e+01	 9.972186941538459e+00
0	 3.750000000000000e+00	 1.312500000000000e+01	 9.973769504923077e+00
0	 3.750000000000000e+00	 1.375000000000000e+01	 9.975403943384613e+00
0	 3.750000000000000e+00	 1.437500000000000e+01	 9.977090256923075e+00
0	 3.750000000000000e+00	 1.500000000000000e+01	 9.978828445538461e+00
0	 3.750000000000000e+00	 1.562500000000000e+01	 9.980618509230769e+00
0	 3.750000000000000e+00	 1.625000000000000e+01	 9.982460447999998e+00
0	 3.750000000000000e+00	 1.687500000000001e+01	 9.984354261846153e+00
0	 3.750000000000001e+00	 1.750000000000000e+01	 9.986299950769228e+00
0	 3.750000000000000e+00	 1.812500000000001e+01	 9.988297514769233e+00
0	 3.750000000000000e+00	 1.875000000000000e+01	 9.990346953846153e+00
0	 4.375000000000000e+00	 1.250000000000000e+01	 9.968937789230765e+00
0	 4.374999999999999e+00	 1.312500000000000e+01	 9.971351067692305e+00
0	 4.375000000000000e+00	 1.375000000000001e+01	 9.973759870153842e+00
0	 4.374999999999999e+00	 1.437500000000000e+01	 9.976164196615382e+00
0	 4.374999999999999e+00	 1.500000000000000e+01	 9.978564047076919e+00
0	 4.375000000000001e+00	 1.562500000000001e+01	 9.980959421538463e+00
0	 4.375000000000000e+00	 1.625000000000001e+01	 9.983350319999998e+00
0	 4.375000000000000e+00	 1.687500000000000e+01	 9.985736742461535e+00
0	 4.374999999999999e+00	 1.750000000000000e+01	 9.988118688923079e+00
0	 4.374999999999999e+00	 1.812500000000000e+01	 9.990496159384612e+00
0	 4.375000000000000e+00	 1.875000000000000e+01	 9.992869153846152e+00
0	 5.000000000000000e+00	 1.250000000000000e+01	 9.968468196923078e+00
0	 4.999999999999999e+00	 1.312500000000000e+01	 9.971367874461539e+00
0	 5.000000000000000e+00	 1.375000000000000e+01	 9.974206724923077e+00
0	 5.000000000000000e+00	 1.437500000000000e+01	 9.976984748307693e+00
0	 5.000000000000000e+00	 1.500000000000000e+01	 9.979701944615389e+00
0	 4.999999999999999e+00	 1.562500000000000e+01	 9.982358313846150e+00
0	 5.000000000000000e+00	 1.625000000000000e+01	 9.984953856000001e+00
0	 5.000000000000000e+00	 1.687500000000001e+01	 9.987488571076918e+00
0	 5.000000000000000e+00	 1.750000000000000e+01	 9.989962459076921e+00
0	 5.000000000000000e+00	 1.812500000000001e+01	 9.992375519999998e+00
0	 5.000000000000000e+00	 1.875000000000000e+01	 9.994727753846151e+00
0	 5.625000000000000e+00	 1.250000000000000e+01	 9.970778164615382e+00
0	 5.625000000000000e+00	 1.312500000000000e+01	 9.973819925230767e+00
0	 5.625000000000000e+00	 1.375000000000000e+01	 9.976744507692306e+00
0	 5.624999999999999e+00	 1.437500000000000e+01	 9.979551912000000e+00
0	 5.625000000000000e+00	 1.500000000000000e+01	 9.982242138153843e+00
0	 5.624999999999999e+00	 1.562500000000000e+01	 9.984815186153844e+00
0	 5.625000000000000e+00	 1.625000000000001e+01	 9.987271056000001e+00
0	 5.624999999999999e+00	 1.687500000000000e+01	 9.989609747692306e+00
0	 5.624999999999998e+00	 1.750000000000000e+01	 9.991831261230766e+00
0	 5.624999999999999e+00	 1.812500000000001e+01	 9.993935596615385e+00
0	 5.625000000000000e+00	 1.875000000000000e+01	 9.995922753846154e+00
0	 6.250000000000000e+00	 1.250000000000000e+01	 9.975867692307691e+00
0	 6.250000000000000e+00	 1.312500000000000e+01	 9.978707220000004e+00
0	 6.250000000000000e+00	 1.375000000000000e+01	 9.981373218461536e+00
0	 6.250000000000001e+00	 1.437500000000000e+01	 9.983865687692303e+00
0	 6.250000000000001e+00	 1.500000000000000e+01	 9.986184627692303e+00
0	 6.250000000000000e+00	 1.562500000000000e+01	 9.988330038461539e+00
0	 6.250000000000000e+00	 1.625000000000000e+01	 9.990301919999997e+00
0	 6.250000000000000e+00	 1.687500000000000e+01	 9.992100272307692e+00
0	 6.250000000000001e+00	 1.750000000000001e+01	 9.993725095384615e+00
0	 6.250000000000000e+00	 1.812500000000001e+01	 9.995176389230767e+00
0	 6.250000000000000e+00	 1.875000000000000e+01	 9.996454153846154e+00
0	 0.000000000000000e+00	 1.875000000000000e+01	 9.961278153846154e+00
0	 0.000000000000000e+00	 1.937500000000000e+01	 9.965869190769226e+00
0	 0.000000000000000e+00	 2.000000000000000e+01	 9.970282793846151e+00
0	 0.000000000000000e+00	 2.062500000000001e+01	 9.974518963076925e+00
0	 0.000000000000000e+00	 2.125000000000000e+01	 9.978577698461539e+00
0	 0.000000000000000e+00	 2.187500000000000e+01	 9.982458999999999e+00
0	 0.000000000000000e+00	 2.250000000000000e+01	 9.986162867692306e+00
0	 0.000000000000000e+00	 2.312500000000001e+01	 9.989689301538462e+00
0	 0.000000000000000e+00	 2.375000000000001e+01	 9.993038301538457e+00
0	 0.000000000000000e+00	 2.437500000000001e+01	 9.996209867692301e+00
0	 0.000000000000000e+00	 2.500000000000000e+01	 9.999203999999995e+00
0	 6.250000000000000e-01	 1.875000000000000e+01	 9.967781953846155e+00
0	 6.250000000000001e-01	 1.937500000000000e+01	 9.971392118000006e+00
0	 6.250000000000001e-01	 2.000000000000000e+01	 9.974853139692305e+00
0	 6.250000000000000e-01	 2.062500000000000e+01	 9.978165018923075e+00
0	 6.249999999999999e-01	 2.125000000000001e+01	 9.981327755692309e+00
0	 6.249999999999998e-01	 2.187500000000000e+01	 9.984341349999998e+00
0	 6.249999999999999e-01	 2.250000000000000e+01	 9.987205801846144e+00
0	 6.250000000000000e-01	 2.312500000000000e+01	 9.989921111230762e+00
0	 6.250000000000000e-01	 2.375000000000000e+01	 9.992487278153845e+00
0	 6.250000000000000e-01	 2.437500000000001e+01	 9.994904302615378e+00
0	 6.250000000000000e-01	 2.500000000000000e+01	 9.997172184615376e+00
0	 1.250000000000000e+00	 1.875000000000000e+01	 9.973622153846156e+00
0	 1.250000000000000e+00	 1.937500000000000e+01	 9.976350306769227e+00
0	 1.250000000000000e+00	 2.000000000000000e+01	 9.978957608615385e+00
0	 1.250000000000000e+00	 2.062500000000000e+01	 9.981444059384616e+00
0	 1.250000000000000e+00	 2.125000000000000e+01	 9.983809659076917e+00
0	 1.250000000000000e+00	 2.187500000000000e+01	 9.986054407692301e+00
0	 1.250000000000000e+00	 2.250000000000001e+01	 9.988178305230765e+00
0	 1.250000000000000e+00	 2.312500000000001e+01	 9.990181351692305e+00
0	 1.250000000000000e+00	 2.375000000000001e+01	 9.992063547076921e+00
0	 1.250000000000000e+00	 2.437500000000000e+01	 9.993824891384605e+00
0	 1.250000000000000e+00	 2.500000000000000e+01	 9.995465384615379e+00
0	 1.875000000000000e+00	 1.875000000000000e+01	 9.978798753846153e+00
0	 1.875000000000000e+00	 1.937500000000000e+01	 9.980743757076924e+00
0	 1.875000000000000e+00	 2.000000000000000e+01	 9.982596200615385e+00
0	 1.875000000000000e+00	 2.062500000000000e+01	 9.984356084461538e+00
0	 1.875000000000001e+00	 2.125000000000000e+01	 9.986023408615386e+00
0	 1.875000000000000e+00	 2.187500000000001e+01	 9.987598173076920e+00
0	 1.875000000000000e+00	 2.250000000000000e+01	 9.989080377846150e+00
0	 1.875000000000000e+00	 2.312500000000000e+01	 9.990470022923075e+00
0	 1.875000000000000e+00	 2.375000000000001e+01	 9.991767108307691e+00
0	 1.875000000000000e+00	 2.437500000000000e+01	 9.992971633999995e+00
0	 1.875000000000000e+00	 2.500000000000000e+01	 9.994083599999998e+00
0	 2.500000000000000e+00	 1.875000000000000e+01	 9.983311753846147e+00
0	 2.500000000000000e+00	 1.937500000000000e+01	 9.984572468923069e+00
0	 2.500000000000000e+00	 2.000000000000000e+01	 9.985768915692308e+00
0	 2.500000000000000e+00	 2.062500000000000e+01	 9.986901094153843e+00
0	 2.500000000000000e+00	 2.125000000000001e+01	 9.987969004307692e+00
0	 2.500000000000000e+00	 2.187500000000000e+01	 9.988972646153849e+00
0	 2.500000000000000e+00	 2.250000000000000e+01	 9.989912019692305e+00
0	 2.500000000000001e+00	 2.312500000000001e+01	 9.990787124923068e+00
0	 2.500000000000000e+00	 2.375000000000001e+01	 9.991597961846152e+00
0	 2.500000000000000e+00	 2.437500000000001e+01	 9.992344530461535e+00
0	 2.500000000000000e+00	 2.500000000000000e+01	 9.993026830769232e+00
0	 3.125000000000000e+00	 1.875000000000000e+01	 9.987161153846156e+00
0	 3.125000000000000e+00	 1.937500000000000e+01	 9.987836442307687e+00
0	 3.125000000000000e+00	 2.000000000000000e+01	 9.988475753846147e+00
0	 3.125000000000000e+00	 2.062500000000000e+01	 9.989079088461539e+00
0	 3.125000000000000e+00	 2.125000000000000e+01	 9.989646446153845e+00
0	 3.125000000000000e+00	 2.187500000000000e+01	 9.990177826923073e+00
0	 3.125000000000000e+00	 2.250000000000000e+01	 9.990673230769229e+00
0	 3.124999999999999e+00	 2.312500000000000e+01	 9.991132657692305e+00
0	 3.125000000000000e+00	 2.375000000000001e+01	 9.991556107692304e+00
0	 3.125000000000000e+00	 2.437500000000001e+01	 9.991943580769224e+00
0	 3.125000000000000e+00	 2.500000000000000e+01	 9.992295076923073e+00
0	 3.750000000000000e+00	 1.875000000000000e+01	 9.990346953846153e+00
0	 3.750000000000000e+00	 1.937500000000001e+01	 9.990535677230769e+00
0	 3.750000000000000e+00	 2.000000000000000e+01	 9.990716715076921e+00
0	 3.750000000000000e+00	 2.062500000000000e+01	 9.990890067384615e+00
0	 3.750000000000000e+00	 2.125000000000000e+01	 9.991055734153841e+00
0	 3.750000000000000e+00	 2.187500000000000e+01	 9.991213715384610e+00
0	 3.750000000000000e+00	 2.250000000000000e+01	 9.991364011076922e+00
0	 3.750000000000000e+00	 2.312500000000000e+01	 9.991506621230767e+00
0	 3.750000000000001e+00	 2.375000000000000e+01	 9.991641545846148e+00
0	 3.750000000000000e+00	 2.437500000000001e+01	 9.991768784923071e+00
0	 3.750000000000000e+00	 2.500000000000000e+01	 9.991888338461536e+00
0	 4.375000000000000e+00	 1.875000000000000e+01	 9.992869153846152e+00
0	 4.374999999999999e+00	 1.937500000000000e+01	 9.992670173692305e+00
0	 4.375000000000000e+00	 2.000000000000000e+01	 9.992491799384611e+00
0	 4.374999999999999e+00	 2.062500000000000e+01	 9.992334030923075e+00
0	 4.374999999999999e+00	 2.125000000000000e+01	 9.992196868307690e+00
0	 4.375000000000001e+00	 2.187500000000001e+01	 9.992080311538460e+00
0	 4.375000000000000e+00	 2.250000000000001e+01	 9.991984360615383e+00
0	 4.375000000000000e+00	 2.312500000000000e+01	 9.991909015538459e+00
0	 4.374999999999999e+00	 2.375000000000000e+01	 9.991854276307690e+00
0	 4.374999999999999e+00	 2.437500000000000e+01	 9.991820142923066e+00
0	 4.375000000000000e+00	 2.500000000000000e+01	 9.991806615384615e+00
0	 5.000000000000000e+00	 1.875000000000000e+01	 9.994727753846151e+00
0	 4.999999999999999e+00	 1.937500000000000e+01	 9.994239931692308e+00
0	 5.000000000000000e+00	 2.000000000000000e+01	 9.993801006769232e+00
0	 5.000000000000000e+00	 2.062500000000000e+01	 9.993410979076916e+00
0	 5.000000000000000e+00	 2.125000000000000e+01	 9.993069848615383e+00
0	 4.999999999999999e+00	 2.187500000000000e+01	 9.992777615384615e+00
0	 5.000000000000000e+00	 2.250000000000001e+01	 9.992534279384614e+00
0	 5.000000000000000e+00	 2.312500000000001e+01	 9.992339840615383e+00
0	 5.000000000000000e+00	 2.375000000000001e+01	 9.992194299076919e+00
0	 5.000000000000000e+00	 2.437500000000001e+01	 9.992097654769228e+00
0	 5.000000000000000e+00	 2.500000000000001e+01	 9.992049907692309e+00
0	 5.625000000000000e+00	 1.875000000000000e+01	 9.995922753846154e+00
0	 5.625000000000000e+00	 1.937500000000000e+01	 9.995244951230770e+00
0	 5.625000000000000e+00	 2.000000000000000e+01	 9.994644337230769e+00
0	 5.624999999999999e+00	 2.062500000000000e+01	 9.994120911846153e+00
0	 5.625000000000000e+00	 2.125000000000000e+01	 9.993674675076926e+00
0	 5.624999999999999e+00	 2.187500000000000e+01	 9.993305626923075e+00
0	 5.625000000000000e+00	 2.250000000000001e+01	 9.993013767384610e+00
0	 5.624999999999999e+00	 2.312500000000000e+01	 9.992799096461537e+00
0	 5.624999999999998e+00	 2.375000000000000e+01	 9.992661614153841e+00
0	 5.624999999999999e+00	 2.437500000000001e+01	 9.992601320461537e+00
0	 5.625000000000000e+00	 2.500000000000000e+01	 9.992618215384613e+00
0	 6.250000000000000e+00	 1.875000000000000e+01	 9.996454153846154e+00
0	 6.250000000000000e+00	 1.937500000000000e+01	 9.995685232307684e+00
0	 6.250000000000000e+00	 2.000000000000000e+01	 9.995021790769226e+00
0	 6.250000000000001e+00	 2.062500000000000e+01	 9.994463829230771e+00
0	 6.250000000000001e+00	 2.125000000000000e+01	 9.994011347692304e+00
0	 6.250000000000000e+00	 2.187500000000000e+01	 9.993664346153844e+00
0	 6.250000000000000e+00	 2.250000000000000e+01	 9.993422824615385e+00
0	 6.250000000000000e+00	 2.312500000000001e+01	 9.993286783076920e+00
0	 6.250000000000001e+00	 2.375000000000001e+01	 9.993256221538457e+00
0	 6.250000000000000e+00	 2.437500000000001e+01	 9.993331140000000e+00
0	 6.250000000000000e+00	 2.500000000000000e+01	 9.993511538461537e+00
0	 0.000000000000000e+00	 2.500000000000000e+01	 9.999203999999995e+00
0	 0.000000000000000e+00	 2.562500000000000e+01	 9.998303316923071e+00
0	 0.000000000000000e+00	 2.625000000000000e+01	 9.997509821538454e+00
0	 0.000000000000000e+00	 2.687499999999999e+01	 9.996823513846151e+00
0	 0.000000000000000e+00	 2.749999999999999e+01	 9.996244393846153e+00
0	 0.000000000000000e+00	 2.812499999999999e+01	 9.995772461538458e+00
0	 0.000000000000000e+00	 2.874999999999999e+01	 9.995407716923074e+00
0	 0.000000000000000e+00	 2.937499999999999e+01	 9.995150159999998e+00
0	 0.000000000000000e+00	 2.999999999999998e+01	 9.994999790769224e+00
0	 0.000000000000000e+00	 3.062499999999998e+01	 9.994956609230767e+00
0	 0.000000000000000e+00	 3.125000000000000e+01	 9.995020615384615e+00
0	 6.250000000000000e-01	 2.500000000000000e+01	 9.997172184615376e+00
0	 6.250000000000000e-01	 2.562499999999999e+01	 9.996588468923067e+00
0	 6.249999999999999e-01	 2.624999999999999e+01	 9.996095349538454e+00
0	 6.249999999999999e-01	 2.687499999999999e+01	 9.995692826461536e+00
0	 6.249999999999999e-01	 2.749999999999998e+01	 9.995380899692302e+00
0	 6.249999999999998e-01	 2.812499999999998e+01	 9.995159569230761e+00
0	 6.250000000000000e-01	 2.874999999999999e+01	 9.995028835076919e+00
0	 6.249999999999999e-01	 2.937499999999998e+01	 9.994988697230756e+00
0	 6.250000000000000e-01	 2.999999999999999e+01	 9.995039155692302e+00
0	 6.249999999999999e-01	 3.062499999999998e+01	 9.995180210461537e+00
0	 6.250000000000000e-01	 3.125000000000000e+01	 9.995411861538461e+00
0	 1.250000000000000e+00	 2.500000000000000e+01	 9.995465384615379e+00
0	 1.250000000000000e+00	 2.562499999999999e+01	 9.995163248615384e+00
0	 1.250000000000000e+00	 2.624999999999999e+01	 9.994935117538457e+00
0	 1.250000000000000e+00	 2.687499999999999e+01	 9.994780991384609e+00
0	 1.250000000000000e+00	 2.749999999999999e+01	 9.994700870153842e+00
0	 1.250000000000000e+00	 2.812499999999999e+01	 9.994694753846147e+00
0	 1.250000000000000e+00	 2.874999999999998e+01	 9.994762642461541e+00
0	 1.250000000000000e+00	 2.937499999999998e+01	 9.994904535999998e+00
0	 1.250000000000000e+00	 2.999999999999999e+01	 9.995120434461535e+00
0	 1.250000000000000e+00	 3.062499999999998e+01	 9.995410337846156e+00
0	 1.250000000000000e+00	 3.125000000000000e+01	 9.995774246153843e+00
0	 1.875000000000000e+00	 2.500000000000000e+01	 9.994083599999998e+00
0	 1.875000000000000e+00	 2.562500000000000e+01	 9.994027655999997e+00
0	 1.875000000000000e+00	 2.624999999999999e+01	 9.994029125538452e+00
0	 1.875000000000000e+00	 2.687499999999999e+01	 9.994088008615378e+00
0	 1.875000000000000e+00	 2.749999999999999e+01	 9.994204305230769e+00
0	 1.875000000000000e+00	 2.812499999999999e+01	 9.994378015384608e+00
0	 1.875000000000000e+00	 2.874999999999999e+01	 9.994609139076918e+00
0	 1.875000000000000e+00	 2.937499999999999e+01	 9.994897676307692e+00
0	 1.875000000000001e+00	 2.999999999999999e+01	 9.995243627076924e+00
0	 1.875000000000000e+00	 3.062499999999998e+01	 9.995646991384614e+00
0	 1.875000000000000e+00	 3.125000000000000e+01	 9.996107769230766e+00
0	 2.500000000000000e+00	 2.500000000000000e+01	 9.993026830769232e+00
0	 2.500000000000001e+00	 2.562500000000000e+01	 9.993181691076920e+00
0	 2.500000000000000e+00	 2.625000000000000e+01	 9.993377373538452e+00
0	 2.500000000000000e+00	 2.687499999999999e+01	 9.993613878153843e+00
0	 2.500000000000000e+00	 2.749999999999999e+01	 9.993891204923077e+00
0	 2.500000000000000e+00	 2.812499999999998e+01	 9.994209353846152e+00
0	 2.500000000000000e+00	 2.874999999999998e+01	 9.994568324923080e+00
0	 2.500000000000000e+00	 2.937499999999998e+01	 9.994968118153846e+00
0	 2.500000000000000e+00	 2.999999999999998e+01	 9.995408733538465e+00
0	 2.500000000000000e+00	 3.062499999999998e+01	 9.995890171076921e+00
0	 2.500000000000000e+00	 3.125000000000000e+01	 9.996412430769226e+00
0	 3.125000000000000e+00	 2.500000000000000e+01	 9.992295076923073e+00
0	 3.124999999999999e+00	 2.562499999999999e+01	 9.992625353846151e+00
0	 3.125000000000001e+00	 2.625000000000000e+01	 9.992979861538462e+00
0	 3.125000000000000e+00	 2.687499999999999e+01	 9.993358599999997e+00
0	 3.125000000000000e+00	 2.750000000000000e+01	 9.993761569230767e+00
0	 3.125000000000000e+00	 2.812499999999999e+01	 9.994188769230764e+00
0	 3.125000000000000e+00	 2.874999999999998e+01	 9.994640199999996e+00
0	 3.125000000000000e+00	 2.937499999999998e+01	 9.995115861538460e+00
0	 3.125000000000000e+00	 2.999999999999998e+01	 9.995615753846154e+00
0	 3.125000000000000e+00	 3.062499999999998e+01	 9.996139876923081e+00
0	 3.125000000000000e+00	 3.125000000000000e+01	 9.996688230769234e+00
0	 3.750000000000000e+00	 2.500000000000000e+01	 9.991888338461536e+00
0	 3.750000000000000e+00	 2.562500000000000e+01	 9.992358644307691e+00
0	 3.750000000000001e+00	 2.625000000000000e+01	 9.992836589538459e+00
0	 3.750000000000000e+00	 2.687499999999999e+01	 9.993322174153842e+00
0	 3.750000000000000e+00	 2.750000000000000e+01	 9.993815398153846e+00
0	 3.750000000000000e+00	 2.812499999999999e+01	 9.994316261538463e+00
0	 3.750000000000000e+00	 2.874999999999999e+01	 9.994824764307698e+00
0	 3.750000000000000e+00	 2.937499999999999e+01	 9.995340906461539e+00
0	 3.750000000000000e+00	 2.999999999999999e+01	 9.995864688000005e+00
0	 3.750000000000000e+00	 3.062499999999998e+01	 9.996396108923074e+00
0	 3.750000000000000e+00	 3.125000000000000e+01	 9.996935169230770e+00
0	 4.375000000000000e+00	 2.500000000000000e+01	 9.991806615384615e+00
0	 4.374999999999999e+00	 2.562499999999999e+01	 9.992381562461533e+00
0	 4.375000000000000e+00	 2.625000000000000e+01	 9.992947557538455e+00
0	 4.375000000000000e+00	 2.687500000000000e+01	 9.993504600615381e+00
0	 4.375000000000000e+00	 2.749999999999999e+01	 9.994052691692305e+00
0	 4.375000000000000e+00	 2.812499999999999e+01	 9.994591830769227e+00
0	 4.375000000000001e+00	 2.874999999999999e+01	 9.995122017846155e+00
0	 4.375000000000000e+00	 2.937499999999999e+01	 9.995643252923074e+00
0	 4.375000000000000e+00	 2.999999999999998e+01	 9.996155536000002e+00
0	 4.375000000000000e+00	 3.062499999999998e+01	 9.996658867076921e+00
0	 4.375000000000000e+00	 3.125000000000000e+01	 9.997153246153852e+00
0	 5.000000000000000e+00	 2.500000000000001e+01	 9.992049907692309e+00
0	 4.999999999999999e+00	 2.562499999999999e+01	 9.992694108307688e+00
0	 5.000000000000000e+00	 2.625000000000000e+01	 9.993312765538455e+00
0	 4.999999999999998e+00	 2.687499999999999e+01	 9.993905879384609e+00
0	 4.999999999999999e+00	 2.749999999999999e+01	 9.994473449846147e+00
0	 4.999999999999999e+00	 2.812499999999999e+01	 9.995015476923076e+00
0	 4.999999999999999e+00	 2.874999999999998e+01	 9.995531960615381e+00
0	 5.000000000000000e+00	 2.937499999999998e+01	 9.996022900923080e+00
0	 5.000000000000000e+00	 2.999999999999999e+01	 9.996488297846149e+00
0	 4.999999999999999e+00	 3.062499999999998e+01	 9.996928151384617e+00
0	 5.000000000000000e+00	 3.125000000000001e+01	 9.997342461538468e+00
0	 5.625000000000000e+00	 2.500000000000000e+01	 9.992618215384613e+00
0	 5.624999999999999e+00	 2.562500000000000e+01	 9.993296281846151e+00
0	 5.624999999999999e+00	 2.625000000000000e+01	 9.993932213538461e+00
0	 5.625000000000001e+00	 2.687500000000000e+01	 9.994526010461538e+00
0	 5.625000000000000e+00	 2.749999999999999e+01	 9.995077672615382e+00
0	 5.624999999999999e+00	 2.812499999999998e+01	 9.995587200000001e+00
0	 5.624999999999999e+00	 2.874999999999999e+01	 9.996054592615380e+00
0	 5.625000000000000e+00	 2.937499999999999e+01	 9.996479850461540e+00
0	 5.625000000000000e+00	 2.999999999999999e+01	 9.996862973538459e+00
0	 5.624999999999999e+00	 3.062499999999998e+01	 9.997203961846150e+00
0	 5.625000000000000e+00	 3.125000000000000e+01	 9.997502815384619e+00
0	 6.250000000000000e+00	 2.500000000000000e+01	 9.993511538461537e+00
0	 6.250000000000000e+00	 2.562500000000000e+01	 9.994188083076919e+00
0	 6.250000000000001e+00	 2.625000000000000e+01	 9.994805901538459e+00
0	 6.250000000000000e+00	 2.687499999999999e+01	 9.995364993846152e+00
0	 6.250000000000001e+00	 2.749999999999999e+01	 9.995865360000007e+00
0	 6.250000000000000e+00	 2.812499999999999e+01	 9.996307000000000e+00
0	 6.250000000000000e+00	 2.874999999999999e+01	 9.996689913846151e+00
0	 6.250000000000000e+00	 2.937499999999999e+01	 9.997014101538461e+00
0	 6.250000000000000e+00	 2.999999999999998e+01	 9.997279563076928e+00
0	 6.250000000000000e+00	 3.062499999999998e+01	 9.997486298461533e+00
0	 6.250000000000000e+00	 3.125000000000000e+01	 9.997634307692309e+00
0	 0.000000000000000e+00	 3.125000000000000e+01	 9.995020615384615e+00
0	 0.000000000000000e+00	 3.187500000000000e+01	 9.995503615384614e+00
0	 0.000000000000000e+00	 3.249999999999999e+01	 9.995954953846152e+00
0	 0.000000000000000e+00	 3.312499999999999e+01	 9.996374630769225e+00
0	 0.000000000000000e+00	 3.374999999999999e+01	 9.996762646153838e+00
0	 0.000000000000000e+00	 3.437499999999999e+01	 9.997118999999994e+00
0	 0.000000000000000e+00	 3.499999999999999e+01	 9.997443692307694e+00
0	 0.000000000000000e+00	 3.562499999999999e+01	 9.997736723076919e+00
0	 0.000000000000000e+00	 3.624999999999998e+01	 9.997998092307688e+00
0	 0.000000000000000e+00	 3.687499999999998e+01	 9.998227799999992e+00
0	 0.000000000000000e+00	 3.750000000000000e+01	 9.998425846153841e+00
0	 6.250000000000000e-01	 3.125000000000000e+01	 9.995411861538461e+00
0	 6.250000000000000e-01	 3.187500000000000e+01	 9.995819597846147e+00
0	 6.249999999999999e-01	 3.250000000000000e+01	 9.996201822153843e+00
0	 6.249999999999999e-01	 3.312499999999999e+01	 9.996558534461538e+00
0	 6.249999999999999e-01	 3.374999999999998e+01	 9.996889734769230e+00
0	 6.249999999999998e-01	 3.437499999999998e+01	 9.997195423076912e+00
0	 6.250000000000000e-01	 3.499999999999999e+01	 9.997475599384613e+00
0	 6.249999999999999e-01	 3.562499999999999e+01	 9.997730263692297e+00
0	 6.250000000000000e-01	 3.624999999999997e+01	 9.997959416000002e+00
0	 6.249999999999999e-01	 3.687499999999998e+01	 9.998163056307693e+00
0	 6.250000000000000e-01	 3.750000000000000e+01	 9.998341184615384e+00
0	 1.250000000000000e+00	 3.125000000000000e+01	 9.995774246153843e+00
0	 1.250000000000000e+00	 3.187499999999999e+01	 9.996112017230768e+00
0	 1.250000000000000e+00	 3.249999999999999e+01	 9.996430425846148e+00
0	 1.250000000000000e+00	 3.312499999999999e+01	 9.996729471999997e+00
0	 1.250000000000000e+00	 3.374999999999999e+01	 9.997009155692307e+00
0	 1.250000000000000e+00	 3.437499999999999e+01	 9.997269476923071e+00
0	 1.250000000000000e+00	 3.499999999999998e+01	 9.997510435692309e+00
0	 1.250000000000000e+00	 3.562499999999998e+01	 9.997732032000002e+00
0	 1.250000000000000e+00	 3.624999999999999e+01	 9.997934265846148e+00
0	 1.250000000000000e+00	 3.687499999999998e+01	 9.998117137230759e+00
0	 1.250000000000000e+00	 3.750000000000000e+01	 9.998280646153848e+00
0	 1.875000000000000e+00	 3.125000000000000e+01	 9.996107769230766e+00
0	 1.875000000000000e+00	 3.187500000000000e+01	 9.996380873538463e+00
0	 1.875000000000000e+00	 3.250000000000000e+01	 9.996640764923077e+00
0	 1.875000000000000e+00	 3.312499999999999e+01	 9.996887443384615e+00
0	 1.875000000000000e+00	 3.374999999999999e+01	 9.997120908923076e+00
0	 1.875000000000000e+00	 3.437499999999999e+01	 9.997341161538460e+00
0	 1.875000000000000e+00	 3.499999999999999e+01	 9.997548201230767e+00
0	 1.875000000000000e+00	 3.562499999999999e+01	 9.997742027999994e+00
0	 1.875000000000001e+00	 3.624999999999999e+01	 9.997922641846149e+00
0	 1.875000000000000e+00	 3.687499999999998e+01	 9.998090042769215e+00
0	 1.875000000000000e+00	 3.750000000000001e+01	 9.998244230769226e+00
0	 2.500000000000000e+00	 3.125000000000000e+01	 9.996412430769226e+00
0	 2.500000000000001e+00	 3.187500000000000e+01	 9.996626166769225e+00
0	 2.500000000000000e+00	 3.250000000000001e+01	 9.996832839384616e+00
0	 2.500000000000000e+00	 3.312500000000000e+01	 9.997032448615384e+00
0	 2.500000000000000e+00	 3.374999999999999e+01	 9.997224994461542e+00
0	 2.500000000000000e+00	 3.437499999999999e+01	 9.997410476923076e+00
0	 2.500000000000000e+00	 3.499999999999998e+01	 9.997588895999989e+00
0	 2.500000000000000e+00	 3.562499999999997e+01	 9.997760251692309e+00
0	 2.500000000000000e+00	 3.624999999999999e+01	 9.997924543999998e+00
0	 2.500000000000000e+00	 3.687499999999998e+01	 9.998081772923072e+00
0	 2.500000000000000e+00	 3.750000000000000e+01	 9.998231938461537e+00
0	 3.125000000000000e+00	 3.125000000000000e+01	 9.996688230769234e+00
0	 3.124999999999999e+00	 3.187499999999999e+01	 9.996847896923082e+00
0	 3.125000000000001e+00	 3.250000000000001e+01	 9.997006649230768e+00
0	 3.125000000000000e+00	 3.312499999999999e+01	 9.997164487692311e+00
0	 3.125000000000000e+00	 3.375000000000000e+01	 9.997321412307686e+00
0	 3.125000000000000e+00	 3.437499999999999e+01	 9.997477423076921e+00
0	 3.125000000000000e+00	 3.499999999999999e+01	 9.997632520000000e+00
0	 3.125000000000000e+00	 3.562499999999999e+01	 9.997786703076919e+00
0	 3.125000000000000e+00	 3.624999999999999e+01	 9.997939972307682e+00
0	 3.125000000000000e+00	 3.687499999999999e+01	 9.998092327692309e+00
0	 3.125000000000000e+00	 3.750000000000000e+01	 9.998243769230761e+00
0	 3.750000000000000e+00	 3.125000000000000e+01	 9.996935169230770e+00
0	 3.750000000000000e+00	 3.187500000000000e+01	 9.997046063999999e+00
0	 3.750000000000001e+00	 3.250000000000000e+01	 9.997162194461545e+00
0	 3.750000000000000e+00	 3.312499999999999e+01	 9.997283560615388e+00
0	 3.750000000000000e+00	 3.374999999999999e+01	 9.997410162461534e+00
0	 3.750000000000000e+00	 3.437499999999999e+01	 9.997541999999997e+00
0	 3.750000000000000e+00	 3.499999999999999e+01	 9.997679073230776e+00
0	 3.750000000000000e+00	 3.562499999999999e+01	 9.997821382153848e+00
0	 3.750000000000000e+00	 3.624999999999999e+01	 9.997968926769223e+00
0	 3.750000000000000e+00	 3.687499999999999e+01	 9.998121707076926e+00
0	 3.750000000000000e+00	 3.750000000000001e+01	 9.998279723076916e+00
0	 4.375000000000000e+00	 3.125000000000000e+01	 9.997153246153852e+00
0	 4.374999999999999e+00	 3.187499999999999e+01	 9.997220667999997e+00
0	 4.375000000000000e+00	 3.249999999999999e+01	 9.997299475076922e+00
0	 4.375000000000000e+00	 3.312500000000000e+01	 9.997389667384615e+00
0	 4.375000000000000e+00	 3.374999999999999e+01	 9.997491244923074e+00
0	 4.375000000000000e+00	 3.437499999999999e+01	 9.997604207692305e+00
0	 4.375000000000001e+00	 3.499999999999999e+01	 9.997728555692312e+00
0	 4.375000000000000e+00	 3.562499999999999e+01	 9.997864288923074e+00
0	 4.375000000000000e+00	 3.624999999999998e+01	 9.998011407384610e+00
0	 4.375000000000000e+00	 3.687499999999998e+01	 9.998169911076912e+00
0	 4.375000000000000e+00	 3.750000000000000e+01	 9.998339799999997e+00
0	 5.000000000000000e+00	 3.125000000000001e+01	 9.997342461538468e+00
0	 4.999999999999999e+00	 3.187500000000000e+01	 9.997371708923080e+00
0	 5.000000000000000e+00	 3.249999999999999e+01	 9.997418491076925e+00
0	 4.999999999999998e+00	 3.312499999999999e+01	 9.997482807999997e+00
0	 4.999999999999999e+00	 3.374999999999999e+01	 9.997564659692308e+00
0	 4.999999999999999e+00	 3.437499999999999e+01	 9.997664046153842e+00
0	 4.999999999999999e+00	 3.499999999999998e+01	 9.997780967384614e+00
0	 5.000000000000000e+00	 3.562499999999999e+01	 9.997915423384608e+00
0	 5.000000000000000e+00	 3.624999999999999e+01	 9.998067414153848e+00
0	 4.999999999999999e+00	 3.687499999999998e+01	 9.998236939692303e+00
0	 5.000000000000000e+00	 3.750000000000001e+01	 9.998423999999998e+00
0	 5.625000000000000e+00	 3.125000000000000e+01	 9.997502815384619e+00
0	 5.624999999999999e+00	 3.187500000000000e+01	 9.997499186769229e+00
0	 5.624999999999999e+00	 3.250000000000000e+01	 9.997519242461534e+00
0	 5.625000000000001e+00	 3.312500000000000e+01	 9.997562982461538e+00
0	 5.625000000000000e+00	 3.374999999999999e+01	 9.997630406769225e+00
0	 5.624999999999999e+00	 3.437499999999999e+01	 9.997721515384614e+00
0	 5.624999999999999e+00	 3.499999999999999e+01	 9.997836308307690e+00
0	 5.625000000000000e+00	 3.562499999999999e+01	 9.997974785538464e+00
0	 5.625000000000000e+00	 3.624999999999999e+01	 9.998136947076919e+00
0	 5.624999999999999e+00	 3.687499999999998e+01	 9.998322792923080e+00
0	 5.625000000000000e+00	 3.750000000000000e+01	 9.998532323076926e+00
0	 6.250000000000000e+00	 3.125000000000000e+01	 9.997634307692309e+00
0	 6.250000000000000e+00	 3.187500000000000e+01	 9.997603101538466e+00
0	 6.250000000000001e+00	 3.250000000000001e+01	 9.997601729230766e+00
0	 6.250000000000000e+00	 3.312499999999999e+01	 9.997630190769231e+00
0	 6.250000000000001e+00	 3.374999999999999e+01	 9.997688486153844e+00
0	 6.250000000000000e+00	 3.437499999999999e+01	 9.997776615384611e+00
0	 6.250000000000000e+00	 3.499999999999999e+01	 9.997894578461541e+00
0	 6.250000000000000e+00	 3.562499999999999e+01	 9.998042375384621e+00
0	 6.250000000000000e+00	 3.624999999999998e+01	 9.998220006153844e+00
0	 6.250000000000000e+00	 3.687499999999998e+01	 9.998427470769215e+00
0	 6.250000000000000e+00	 3.750000000000000e+01	 9.998664769230770e+00
0	 0.000000000000000e+00	 3.750000000000000e+01	 9.998425846153841e+00
0	 0.000000000000000e+00	 3.812500000000000e+01	 9.998469729230766e+00
0	 0.000000000000000e+00	 3.874999999999999e+01	 9.998534178461544e+00
0	 0.000000000000000e+00	 3.937499999999999e+01	 9.998619193846149e+00
0	 0.000000000000000e+00	 3.999999999999999e+01	 9.998724775384620e+00
0	 0.000000000000000e+00	 4.062499999999999e+01	 9.998850923076921e+00
0	 0.000000000000000e+00	 4.124999999999999e+01	 9.998997636923082e+00
0	 0.000000000000000e+00	 4.187499999999999e+01	 9.999164916923068e+00
0	 0.000000000000000e+00	 4.249999999999998e+01	 9.999352763076924e+00
0	 0.000000000000000e+00	 4.312499999999998e+01	 9.999561175384621e+00
0	 0.000000000000000e+00	 4.375000000000000e+01	 9.999790153846163e+00
0	 6.250000000000000e-01	 3.750000000000000e+01	 9.998341184615384e+00
0	 6.250000000000000e-01	 3.812499999999999e+01	 9.998401731230752e+00
0	 6.249999999999999e-01	 3.874999999999999e+01	 9.998480223384613e+00
0	 6.249999999999999e-01	 3.937500000000000e+01	 9.998576661076916e+00
0	 6.249999999999999e-01	 3.999999999999999e+01	 9.998691044307687e+00
0	 6.249999999999998e-01	 4.062499999999999e+01	 9.998823373076922e+00
0	 6.250000000000000e-01	 4.124999999999998e+01	 9.998973647384624e+00
0	 6.249999999999999e-01	 4.187499999999999e+01	 9.999141867230779e+00
0	 6.250000000000000e-01	 4.249999999999998e+01	 9.999328032615393e+00
0	 6.249999999999999e-01	 4.312499999999997e+01	 9.999532143538467e+00
0	 6.250000000000000e-01	 4.375000000000000e+01	 9.999754200000012e+00
0	 1.250000000000000e+00	 3.750000000000000e+01	 9.998280646153848e+00
0	 1.250000000000000e+00	 3.812499999999999e+01	 9.998356111692313e+00
0	 1.250000000000000e+00	 3.874999999999999e+01	 9.998446902153844e+00
0	 1.250000000000000e+00	 3.937499999999999e+01	 9.998553017538462e+00
0	 1.250000000000000e+00	 3.999999999999999e+01	 9.998674457846155e+00
0	 1.250000000000000e+00	 4.062499999999999e+01	 9.998811223076924e+00
0	 1.250000000000000e+00	 4.124999999999996e+01	 9.998963313230782e+00
0	 1.250000000000000e+00	 4.187499999999998e+01	 9.999130728307700e+00
0	 1.250000000000000e+00	 4.249999999999999e+01	 9.999313468307697e+00
0	 1.250000000000000e+00	 4.312499999999998e+01	 9.999511533230773e+00
0	 1.250000000000000e+00	 4.375000000000000e+01	 9.999724923076926e+00
0	 1.875000000000000e+00	 3.750000000000001e+01	 9.998244230769226e+00
0	 1.875000000000000e+00	 3.812500000000001e+01	 9.998332870615382e+00
0	 1.875000000000000e+00	 3.874999999999999e+01	 9.998434214769230e+00
0	 1.875000000000000e+00	 3.937500000000000e+01	 9.998548263230774e+00
0	 1.875000000000000e+00	 3.999999999999998e+01	 9.998675016000000e+00
0	 1.875000000000000e+00	 4.062499999999999e+01	 9.998814473076923e+00
0	 1.875000000000000e+00	 4.124999999999998e+01	 9.998966634461542e+00
0	 1.875000000000000e+00	 4.187499999999999e+01	 9.999131500153844e+00
0	 1.875000000000001e+00	 4.249999999999999e+01	 9.999309070153856e+00
0	 1.875000000000000e+00	 4.312499999999997e+01	 9.999499344461528e+00
0	 1.875000000000000e+00	 4.375000000000001e+01	 9.999702323076928e+00
0	 2.500000000000000e+00	 3.750000000000000e+01	 9.998231938461537e+00
0	 2.500000000000001e+00	 3.812500000000000e+01	 9.998332007999991e+00
0	 2.500000000000000e+00	 3.875000000000001e+01	 9.998442161230775e+00
0	 2.500000000000000e+00	 3.937499999999999e+01	 9.998562398153847e+00
0	 2.500000000000000e+00	 3.999999999999999e+01	 9.998692718769226e+00
0	 2.500000000000000e+00	 4.062499999999999e+01	 9.998833123076921e+00
0	 2.500000000000000e+00	 4.124999999999998e+01	 9.998983611076923e+00
0	 2.500000000000000e+00	 4.187499999999998e+01	 9.999144182769234e+00
0	 2.500000000000000e+00	 4.249999999999998e+01	 9.999314838153845e+00
0	 2.500000000000000e+00	 4.312499999999998e+01	 9.999495577230771e+00
0	 2.500000000000000e+00	 4.375000000000000e+01	 9.999686400000009e+00
0	 3.125000000000000e+00	 3.750000000000000e+01	 9.998243769230761e+00
0	 3.124999999999999e+00	 3.812499999999999e+01	 9.998353523846152e+00
0	 3.125000000000001e+00	 3.875000000000000e+01	 9.998470741538455e+00
0	 3.125000000000000e+00	 3.937499999999999e+01	 9.998595422307693e+00
0	 3.125000000000000e+00	 4.000000000000001e+01	 9.998727566153846e+00
0	 3.125000000000000e+00	 4.062499999999999e+01	 9.998867173076913e+00
0	 3.125000000000000e+00	 4.124999999999999e+01	 9.999014243076925e+00
0	 3.125000000000000e+00	 4.187499999999999e+01	 9.999168776153843e+00
0	 3.125000000000000e+00	 4.249999999999998e+01	 9.999330772307697e+00
0	 3.125000000000000e+00	 4.312499999999998e+01	 9.999500231538462e+00
0	 3.125000000000000e+00	 4.375000000000000e+01	 9.999677153846159e+00
0	 3.750000000000000e+00	 3.750000000000001e+01	 9.998279723076916e+00
0	 3.750000000000000e+00	 3.812499999999999e+01	 9.998397418153843e+00
0	 3.750000000000001e+00	 3.874999999999999e+01	 9.998519955692307e+00
0	 3.750000000000000e+00	 3.937499999999999e+01	 9.998647335692310e+00
0	 3.750000000000000e+00	 3.999999999999999e+01	 9.998779558153842e+00
0	 3.750000000000000e+00	 4.062499999999999e+01	 9.998916623076926e+00
0	 3.750000000000000e+00	 4.124999999999999e+01	 9.999058530461541e+00
0	 3.750000000000000e+00	 4.187499999999999e+01	 9.999205280307692e+00
0	 3.750000000000000e+00	 4.249999999999999e+01	 9.999356872615394e+00
0	 3.750000000000000e+00	 4.312499999999999e+01	 9.999513307384621e+00
0	 3.750000000000000e+00	 4.375000000000001e+01	 9.999674584615391e+00
0	 4.375000000000000e+00	 3.750000000000000e+01	 9.998339799999997e+00
0	 4.374999999999999e+00	 3.812500000000000e+01	 9.998463690923074e+00
0	 4.375000000000000e+00	 3.874999999999999e+01	 9.998589803692305e+00
0	 4.375000000000000e+00	 3.937500000000000e+01	 9.998718138307693e+00
0	 4.375000000000000e+00	 3.999999999999999e+01	 9.998848694769233e+00
0	 4.375000000000000e+00	 4.062499999999999e+01	 9.998981473076917e+00
0	 4.375000000000001e+00	 4.124999999999999e+01	 9.999116473230769e+00
0	 4.375000000000000e+00	 4.187499999999999e+01	 9.999253695230765e+00
0	 4.375000000000000e+00	 4.249999999999999e+01	 9.999393139076929e+00
0	 4.375000000000000e+00	 4.312499999999998e+01	 9.999534804769219e+00
0	 4.375000000000000e+00	 4.375000000000000e+01	 9.999678692307688e+00
0	 5.000000000000000e+00	 3.750000000000001e+01	 9.998423999999998e+00
0	 4.999999999999999e+00	 3.812500000000000e+01	 9.998552342153847e+00
0	 5.000000000000000e+00	 3.875000000000000e+01	 9.998680285538466e+00
0	 4.999999999999998e+00	 3.937499999999999e+01	 9.998807830153847e+00
0	 4.999999999999999e+00	 3.999999999999999e+01	 9.998934975999997e+00
0	 4.999999999999999e+00	 4.062499999999999e+01	 9.999061723076927e+00
0	 4.999999999999999e+00	 4.124999999999999e+01	 9.999188071384616e+00
0	 5.000000000000000e+00	 4.187499999999999e+01	 9.999314020923078e+00
0	 5.000000000000000e+00	 4.249999999999999e+01	 9.999439571692305e+00
0	 4.999999999999999e+00	 4.312499999999998e+01	 9.999564723692300e+00
0	 5.000000000000000e+00	 4.375000000000001e+01	 9.999689476923074e+00
0	 5.625000000000000e+00	 3.750000000000000e+01	 9.998532323076926e+00
0	 5.624999999999999e+00	 3.812500000000000e+01	 9.998663371846140e+00
0	 5.624999999999999e+00	 3.874999999999999e+01	 9.998791401230775e+00
0	 5.625000000000001e+00	 3.937500000000000e+01	 9.998916411230768e+00
0	 5.625000000000000e+00	 3.999999999999999e+01	 9.999038401846159e+00
0	 5.624999999999999e+00	 4.062499999999999e+01	 9.999157373076912e+00
0	 5.624999999999999e+00	 4.124999999999999e+01	 9.999273324923074e+00
0	 5.625000000000000e+00	 4.187499999999999e+01	 9.999386257384620e+00
0	 5.625000000000000e+00	 4.249999999999998e+01	 9.999496170461542e+00
0	 5.624999999999999e+00	 4.312499999999997e+01	 9.999603064153847e+00
0	 5.625000000000000e+00	 4.375000000000000e+01	 9.999706938461532e+00
0	 6.250000000000000e+00	 3.750000000000000e+01	 9.998664769230770e+00
0	 6.250000000000000e+00	 3.812500000000000e+01	 9.998796780000006e+00
0	 6.250000000000001e+00	 3.875000000000001e+01	 9.998923150769231e+00
0	 6.250000000000000e+00	 3.937499999999999e+01	 9.999043881538460e+00
0	 6.250000000000001e+00	 3.999999999999999e+01	 9.999158972307701e+00
0	 6.250000000000000e+00	 4.062499999999999e+01	 9.999268423076920e+00
0	 6.250000000000000e+00	 4.124999999999999e+01	 9.999372233846149e+00
0	 6.250000000000000e+00	 4.187499999999999e+01	 9.999470404615368e+00
0	 6.250000000000000e+00	 4.249999999999999e+01	 9.999562935384620e+00
0	 6.250000000000000e+00	 4.312499999999999e+01	 9.999649826153835e+00
0	 6.250000000000000e+00	 4.375000000000000e+01	 9.999731076923077e+00
0	 0.000000000000000e+00	 4.375000000000000e+01	 9.999790153846163e+00
0	 0.000000000000000e+00	 4.437500000000001e+01	 9.999788707692307e+00
0	 0.000000000000000e+00	 4.500000000000000e+01	 9.999792615384621e+00
0	 0.000000000000000e+00	 4.562499999999999e+01	 9.999801876923081e+00
0	 0.000000000000000e+00	 4.624999999999999e+01	 9.999816492307691e+00
0	 0.000000000000000e+00	 4.687499999999999e+01	 9.999836461538461e+00
0	 0.000000000000000e+00	 4.749999999999999e+01	 9.999861784615396e+00
0	 0.000000000000000e+00	 4.812499999999999e+01	 9.999892461538485e+00
0	 0.000000000000000e+00	 4.874999999999999e+01	 9.999928492307678e+00
0	 0.000000000000000e+00	 4.937499999999999e+01	 9.999969876923037e+00
0	 0.000000000000000e+00	 5.000000000000000e+01	 1.000001661538460e+01
0	 6.250000000000000e-01	 4.375000000000000e+01	 9.999754200000012e+00
0	 6.250000000000001e-01	 4.437500000000000e+01	 9.999754577538464e+00
0	 6.249999999999998e-01	 4.499999999999999e+01	 9.999761165538469e+00
0	 6.249999999999999e-01	 4.562499999999999e+01	 9.999773964000012e+00
0	 6.250000000000001e-01	 4.625000000000000e+01	 9.999792972923080e+00
0	 6.249999999999998e-01	 4.687499999999999e+01	 9.999818192307687e+00
0	 6.250000000000000e-01	 4.749999999999999e+01	 9.999849622153844e+00
0	 6.250000000000001e-01	 4.812499999999999e+01	 9.999887262461552e+00
0	 6.250000000000000e-01	 4.874999999999998e+01	 9.999931113230764e+00
0	 6.249999999999999e-01	 4.937499999999997e+01	 9.999981174461524e+00
0	 6.250000000000000e-01	 5.000000000000000e+01	 1.000003744615383e+01
0	 1.250000000000000e+00	 4.375000000000000e+01	 9.999724923076926e+00
0	 1.250000000000000e+00	 4.437499999999999e+01	 9.999726542769240e+00
0	 1.250000000000000e+00	 4.499999999999999e+01	 9.999735229538462e+00
0	 1.250000000000000e+00	 4.562500000000001e+01	 9.999750983384626e+00
0	 1.250000000000000e+00	 4.625000000000001e+01	 9.999773804307685e+00
0	 1.250000000000000e+00	 4.687499999999999e+01	 9.999803692307692e+00
0	 1.250000000000000e+00	 4.749999999999999e+01	 9.999840647384623e+00
0	 1.250000000000000e+00	 4.812499999999997e+01	 9.999884669538481e+00
0	 1.250000000000000e+00	 4.874999999999999e+01	 9.999935758769212e+00
0	 1.250000000000000e+00	 4.937499999999998e+01	 9.999993915076923e+00
0	 1.250000000000000e+00	 5.000000000000000e+01	 1.000005913846153e+01
0	 1.875000000000000e+00	 4.375000000000001e+01	 9.999702323076928e+00
0	 1.875000000000000e+00	 4.437500000000001e+01	 9.999704603384627e+00
0	 1.875000000000000e+00	 4.499999999999999e+01	 9.999714807384613e+00
0	 1.875000000000000e+00	 4.562500000000000e+01	 9.999732935076924e+00
0	 1.875000000000000e+00	 4.624999999999999e+01	 9.999758986461529e+00
0	 1.875000000000000e+00	 4.687499999999999e+01	 9.999792961538452e+00
0	 1.875000000000000e+00	 4.749999999999998e+01	 9.999834860307693e+00
0	 1.875000000000000e+00	 4.812500000000000e+01	 9.999884682769231e+00
0	 1.875000000000000e+00	 4.874999999999999e+01	 9.999942428923056e+00
0	 1.875000000000000e+00	 4.937499999999998e+01	 1.000000809876924e+01
0	 1.875000000000000e+00	 5.000000000000000e+01	 1.000008169230768e+01
0	 2.500000000000000e+00	 4.375000000000000e+01	 9.999686400000009e+00
0	 2.500000000000000e+00	 4.437500000000001e+01	 9.999688759384625e+00
0	 2.500000000000000e+00	 4.499999999999999e+01	 9.999699899076928e+00
0	 2.500000000000000e+00	 4.562499999999999e+01	 9.999719819076917e+00
0	 2.500000000000000e+00	 4.624999999999999e+01	 9.999748519384614e+00
0	 2.500000000000000e+00	 4.687499999999999e+01	 9.999786000000000e+00
0	 2.500000000000000e+00	 4.749999999999999e+01	 9.999832260923055e+00
0	 2.500000000000000e+00	 4.812499999999999e+01	 9.999887302153860e+00
0	 2.500000000000000e+00	 4.874999999999999e+01	 9.999951123692290e+00
0	 2.500000000000000e+00	 4.937499999999997e+01	 1.000002372553845e+01
0	 2.500000000000000e+00	 5.000000000000000e+01	 1.000010510769230e+01
0	 3.125000000000000e+00	 4.375000000000000e+01	 9.999677153846159e+00
0	 3.125000000000000e+00	 4.437500000000000e+01	 9.999679010769240e+00
0	 3.125000000000000e+00	 4.500000000000000e+01	 9.999690504615389e+00
0	 3.125000000000000e+00	 4.562500000000000e+01	 9.999711635384619e+00
0	 3.125000000000000e+00	 4.624999999999999e+01	 9.999742403076924e+00
0	 3.125000000000000e+00	 4.687499999999999e+01	 9.999782807692306e+00
0	 3.125000000000000e+00	 4.749999999999999e+01	 9.999832849230771e+00
0	 3.125000000000000e+00	 4.812499999999999e+01	 9.999892527692309e+00
0	 3.125000000000000e+00	 4.874999999999998e+01	 9.999961843076919e+00
0	 3.125000000000000e+00	 4.937499999999998e+01	 1.000004079538460e+01
0	 3.125000000000000e+00	 5.000000000000000e+01	 1.000012938461537e+01
0	 3.750000000000000e+00	 4.375000000000001e+01	 9.999674584615391e+00
0	 3.750000000000000e+00	 4.437499999999999e+01	 9.999675357538470e+00
0	 3.750000000000000e+00	 4.500000000000000e+01	 9.999686624000001e+00
0	 3.750000000000000e+00	 4.562499999999999e+01	 9.999708384000002e+00
0	 3.750000000000000e+00	 4.624999999999999e+01	 9.999740637538459e+00
0	 3.750000000000000e+00	 4.687499999999999e+01	 9.999783384615380e+00
0	 3.750000000000000e+00	 4.749999999999999e+01	 9.999836625230769e+00
0	 3.750000000000000e+00	 4.812499999999999e+01	 9.999900359384615e+00
0	 3.750000000000000e+00	 4.874999999999998e+01	 9.999974587076917e+00
0	 3.750000000000000e+00	 4.937499999999998e+01	 1.000005930830768e+01
0	 3.750000000000000e+00	 4.999999999999999e+01	 1.000015452307693e+01
0	 4.375000000000000e+00	 4.375000000000000e+01	 9.999678692307688e+00
0	 4.375000000000000e+00	 4.437500000000001e+01	 9.999677799692305e+00
0	 4.374999999999999e+00	 4.499999999999999e+01	 9.999688257230771e+00
0	 4.375000000000000e+00	 4.562500000000000e+01	 9.999710064923079e+00
0	 4.374999999999999e+00	 4.624999999999999e+01	 9.999743222769226e+00
0	 4.375000000000000e+00	 4.687499999999999e+01	 9.999787730769237e+00
0	 4.375000000000000e+00	 4.749999999999999e+01	 9.999843588923079e+00
0	 4.375000000000000e+00	 4.812499999999999e+01	 9.999910797230768e+00
0	 4.374999999999999e+00	 4.874999999999999e+01	 9.999989355692318e+00
0	 4.375000000000000e+00	 4.937499999999999e+01	 1.000007926430767e+01
0	 4.375000000000000e+00	 5.000000000000000e+01	 1.000018052307691e+01
0	 5.000000000000000e+00	 4.375000000000001e+01	 9.999689476923074e+00
0	 5.000000000000000e+00	 4.437500000000000e+01	 9.999686337230770e+00
0	 5.000000000000000e+00	 4.499999999999999e+01	 9.999695404307689e+00
0	 4.999999999999999e+00	 4.562499999999999e+01	 9.999716678153847e+00
0	 4.999999999999999e+00	 4.625000000000000e+01	 9.999750158769224e+00
0	 4.999999999999999e+00	 4.687499999999999e+01	 9.999795846153850e+00
0	 5.000000000000000e+00	 4.749999999999999e+01	 9.999853740307699e+00
0	 5.000000000000000e+00	 4.812499999999999e+01	 9.999923841230773e+00
0	 5.000000000000000e+00	 4.874999999999998e+01	 1.000000614892308e+01
0	 4.999999999999999e+00	 4.937499999999998e+01	 1.000010066338460e+01
0	 5.000000000000000e+00	 5.000000000000001e+01	 1.000020738461537e+01
0	 5.625000000000000e+00	 4.375000000000000e+01	 9.999706938461532e+00
0	 5.625000000000000e+00	 4.437500000000001e+01	 9.999700970153841e+00
0	 5.625000000000000e+00	 4.500000000000000e+01	 9.999708065230770e+00
0	 5.625000000000000e+00	 4.562499999999999e+01	 9.999728223692301e+00
0	 5.625000000000000e+00	 4.624999999999999e+01	 9.999761445538462e+00
0	 5.625000000000000e+00	 4.687499999999999e+01	 9.999807730769239e+00
0	 5.625000000000000e+00	 4.749999999999999e+01	 9.999867079384620e+00
0	 5.625000000000000e+00	 4.812499999999999e+01	 9.999939491384620e+00
0	 5.624999999999999e+00	 4.874999999999999e+01	 1.000002496676924e+01
0	 5.625000000000000e+00	 4.937499999999999e+01	 1.000012350553846e+01
0	 5.624999999999999e+00	 5.000000000000000e+01	 1.000023510769231e+01
0	 6.250000000000000e+00	 4.375000000000000e+01	 9.999731076923077e+00
0	 6.250000000000000e+00	 4.437500000000000e+01	 9.999721698461538e+00
0	 6.250000000000000e+00	 4.499999999999999e+01	 9.999726239999996e+00
0	 6.250000000000000e+00	 4.562499999999999e+01	 9.999744701538457e+00
0	 6.250000000000001e+00	 4.624999999999999e+01	 9.999777083076914e+00
0	 6.250000000000000e+00	 4.687499999999999e+01	 9.999823384615382e+00
0	 6.250000000000000e+00	 4.749999999999999e+01	 9.999883606153842e+00
0	 6.250000000000000e+00	 4.812499999999999e+01	 9.999957747692317e+00
0	 6.250000000000001e+00	 4.874999999999999e+01	 1.000004580923076e+01
0	 6.250000000000000e+00	 4.937499999999999e+01	 1.000014779076920e+01
0	 6.250000000000000e+00	 5.000000000000000e+01	 1.000026369230769e+01
0	 6.250000000000000e+00	 0.000000000000000e+00	 1.011274000000000e+01
0	 6.250000000000000e+00	 6.250000000000000e-01	 1.008980124769231e+01
0	 6.250000000000000e+00	 1.250000000000000e+00	 1.006997776000000e+01
0	 6.250000000000000e+00	 1.875000000000000e+00	 1.005326953692308e+01
0	 6.250000000000000e+00	 2.500000000000000e+00	 1.003967657846154e+01
0	 6.250000000000000e+00	 3.125000000000000e+00	 1.002919888461538e+01
0	 6.250000000000000e+00	 3.750000000000000e+00	 1.002183645538461e+01
0	 6.250000000000000e+00	 4.375000000000000e+00	 1.001758929076923e+01
0	 6.250000000000001e+00	 5.000000000000000e+00	 1.001645739076923e+01
0	 6.250000000000000e+00	 5.624999999999999e+00	 1.001844075538461e+01
0	 6.250000000000000e+00	 6.250000000000000e+00	 1.002353938461538e+01
0	 6.875000000000001e+00	 0.000000000000000e+00	 1.009027346153846e+01
0	 6.875000000000001e+00	 6.250000000000001e-01	 1.007164740461538e+01
0	 6.874999999999999e+00	 1.250000000000000e+00	 1.005575423230769e+01
0	 6.875000000000000e+00	 1.875000000000000e+00	 1.004259394461538e+01
0	 6.875000000000001e+00	 2.500000000000000e+00	 1.003216654153846e+01
0	 6.875000000000001e+00	 3.125000000000000e+00	 1.002447202307692e+01
0	 6.875000000000000e+00	 3.750000000000000e+00	 1.001951038923077e+01
0	 6.875000000000001e+00	 4.375000000000001e+00	 1.001728164000000e+01
0	 6.875000000000002e+00	 4.999999999999999e+00	 1.001778577538462e+01
0	 6.875000000000000e+00	 5.624999999999999e+00	 1.002102279538461e+01
0	 6.875000000000000e+00	 6.250000000000000e+00	 1.002699270000000e+01
0	 7.500000000000003e+00	 0.000000000000000e+00	 1.007024787692307e+01
0	 7.500000000000003e+00	 6.250000000000001e-01	 1.005563514153846e+01
0	 7.500000000000001e+00	 1.250000000000000e+00	 1.004337291076923e+01
0	 7.500000000000000e+00	 1.875000000000000e+00	 1.003346118461538e+01
0	 7.500000000000002e+00	 2.500000000000000e+00	 1.002589996307692e+01
0	 7.500000000000001e+00	 3.125000000000000e+00	 1.002068924615384e+01
0	 7.500000000000002e+00	 3.750000000000000e+00	 1.001782903384615e+01
0	 7.500000000000003e+00	 4.375000000000000e+00	 1.001731932615384e+01
0	 7.500000000000001e+00	 5.000000000000000e+00	 1.001916012307692e+01
0	 7.500000000000002e+00	 5.625000000000001e+00	 1.002335142461538e+01
0	 7.500000000000001e+00	 6.250000000000000e+00	 1.002989323076923e+01
0	 8.125000000000004e+00	 0.000000000000000e+00	 1.005266324615384e+01
0	 8.125000000000002e+00	 6.250000000000000e-01	 1.004176445846154e+01
0	 8.125000000000004e+00	 1.250000000000000e+00	 1.003283379538462e+01
0	 8.125000000000002e+00	 1.875000000000000e+00	 1.002587125692308e+01
0	 8.125000000000004e+00	 2.500000000000001e+00	 1.002087684307692e+01
0	 8.125000000000002e+00	 3.125000000000000e+00	 1.001785055384615e+01
0	 8.125000000000002e+00	 3.750000000000000e+00	 1.001679238923077e+01
0	 8.125000000000002e+00	 4.374999999999999e+00	 1.001770234923077e+01
0	 8.125000000000002e+00	 5.000000000000000e+00	 1.002058043384616e+01
0	 8.125000000000004e+00	 5.624999999999999e+00	 1.002542664307692e+01
0	 8.125000000000002e+00	 6.250000000000000e+00	 1.003224097692307e+01
0	 8.750000000000002e+00	 0.000000000000000e+00	 1.003751956923077e+01
0	 8.750000000000002e+00	 6.249999999999999e-01	 1.003003535538461e+01
0	 8.750000000000004e+00	 1.250000000000000e+00	 1.002413688615384e+01
0	 8.750000000000002e+00	 1.875000000000000e+00	 1.001982416153846e+01
0	 8.750000000000000e+00	 2.500000000000000e+00	 1.001709718153846e+01
0	 8.750000000000002e+00	 3.125000000000000e+00	 1.001595594615384e+01
0	 8.750000000000004e+00	 3.750000000000000e+00	 1.001640045538461e+01
0	 8.750000000000002e+00	 4.375000000000000e+00	 1.001843070923077e+01
0	 8.750000000000000e+00	 4.999999999999999e+00	 1.002204670769230e+01
0	 8.750000000000004e+00	 5.625000000000000e+00	 1.002724845076922e+01
0	 8.750000000000004e+00	 6.250000000000001e+00	 1.003403593846154e+01
0	 9.375000000000004e+00	 0.000000000000000e+00	 1.002481684615385e+01
0	 9.375000000000000e+00	 6.249999999999998e-01	 1.002044783230769e+01
0	 9.375000000000002e+00	 1.250000000000000e+00	 1.001728218307692e+01
0	 9.375000000000002e+00	 1.875000000000000e+00	 1.001531989846154e+01
0	 9.375000000000002e+00	 2.500000000000000e+00	 1.001456097846154e+01
0	 9.375000000000004e+00	 3.125000000000000e+00	 1.001500542307692e+01
0	 9.375000000000002e+00	 3.750000000000000e+00	 1.001665323230769e+01
0	 9.375000000000004e+00	 4.375000000000002e+00	 1.001950440615384e+01
0	 9.375000000000002e+00	 4.999999999999999e+00	 1.002355894461538e+01
0	 9.375000000000005e+00	 5.625000000000000e+00	 1.002881684769230e+01
0	 9.375000000000002e+00	 6.249999999999999e+00	 1.003527811538461e+01
0	 1.000000000000000e+01	 0.000000000000000e+00	 1.001455507692308e+01
0	 1.000000000000000e+01	 6.249999999999998e-01	 1.001300188923077e+01
0	 1.000000000000001e+01	 1.250000000000000e+00	 1.001226968615384e+01
0	 1.000000000000001e+01	 1.875000000000001e+00	 1.001235846769231e+01
0	 1.000000000000000e+01	 2.500000000000000e+00	 1.001326823384615e+01
0	 1.000000000000000e+01	 3.125000000000000e+00	 1.001499898461538e+01
0	 1.000000000000000e+01	 3.750000000000000e+00	 1.001755072000000e+01
0	 1.000000000000001e+01	 4.375000000000001e+00	 1.002092344000000e+01
0	 1.000000000000001e+01	 4.999999999999999e+00	 1.002511714461538e+01
0	 1.000000000000001e+01	 5.625000000000000e+00	 1.003013183384615e+01
0	 1.000000000000000e+01	 6.250000000000001e+00	 1.003596750769231e+01
0	 1.062500000000000e+01	 0.000000000000000e+00	 1.000673426153846e+01
0	 1.062500000000000e+01	 6.250000000000000e-01	 1.000769752615384e+01
0	 1.062500000000001e+01	 1.250000000000000e+00	 1.000909939538461e+01
0	 1.062500000000000e+01	 1.875000000000000e+00	 1.001093986923077e+01
0	 1.062500000000001e+01	 2.500000000000000e+00	 1.001321894769231e+01
0	 1.062500000000000e+01	 3.125000000000000e+00	 1.001593663076923e+01
0	 1.062500000000001e+01	 3.750000000000000e+00	 1.001909291846154e+01
0	 1.062500000000000e+01	 4.375000000000000e+00	 1.002268781076923e+01
0	 1.062500000000000e+01	 5.000000000000000e+00	 1.002672130769231e+01
0	 1.062500000000000e+01	 5.625000000000000e+00	 1.003119340923077e+01
0	 1.062500000000000e+01	 6.250000000000000e+00	 1.003610411538461e+01
0	 1.125000000000001e+01	 0.000000000000000e+00	 1.000135440000000e+01
0	 1.125000000000000e+01	 6.249999999999999e-01	 1.000453474307692e+01
0	 1.125000000000000e+01	 1.250000000000000e+00	 1.000777131076923e+01
0	 1.125000000000000e+01	 1.875000000000000e+00	 1.001106410307692e+01
0	 1.125000000000001e+01	 2.500000000000000e+00	 1.001441312000000e+01
0	 1.125000000000001e+01	 3.125000000000000e+00	 1.001781836153846e+01
0	 1.125000000000000e+01	 3.750000000000000e+00	 1.002127982769230e+01
0	 1.125000000000001e+01	 4.375000000000001e+00	 1.002479751846153e+01
0	 1.125000000000001e+01	 5.000000000000000e+00	 1.002837143384615e+01
0	 1.125000000000000e+01	 5.624999999999999e+00	 1.003200157384616e+01
0	 1.125000000000000e+01	 6.250000000000000e+00	 1.003568793846154e+01
0	 1.187500000000001e+01	 0.000000000000000e+00	 9.998415492307691e+00
0	 1.187500000000001e+01	 6.250000000000000e-01	 1.000351354000000e+01
0	 1.187500000000000e+01	 1.250000000000000e+00	 1.000828543230769e+01
0	 1.187500000000001e+01	 1.875000000000000e+00	 1.001273116923077e+01
0	 1.187500000000001e+01	 2.500000000000000e+00	 1.001685075076923e+01
0	 1.187500000000001e+01	 3.125000000000000e+00	 1.002064417692307e+01
0	 1.187500000000001e+01	 3.750000000000000e+00	 1.002411144769231e+01
0	 1.187500000000001e+01	 4.375000000000000e+00	 1.002725256307692e+01
0	 1.187500000000001e+01	 5.000000000000000e+00	 1.003006752307692e+01
0	 1.187500000000001e+01	 5.624999999999999e+00	 1.003255632769230e+01
0	 1.187500000000001e+01	 6.250000000000001e+00	 1.003471897692307e+01
0	 1.250000000000000e+01	 0.000000000000000e+00	 9.997917538461538e+00
0	 1.250000000000000e+01	 6.250000000000000e-01	 1.000463391692307e+01
0	 1.250000000000000e+01	 1.250000000000000e+00	 1.001064176000000e+01
0	 1.250000000000000e+01	 1.875000000000000e+00	 1.001594106769231e+01
0	 1.250000000000000e+01	 2.500000000000000e+00	 1.002053184000000e+01
0	 1.250000000000000e+01	 3.125000000000000e+00	 1.002441407692307e+01
0	 1.250000000000000e+01	 3.750000000000000e+00	 1.002758777846153e+01
0	 1.250000000000000e+01	 4.375000000000000e+00	 1.003005294461538e+01
0	 1.250000000000000e+01	 5.000000000000000e+00	 1.003180957538461e+01
0	 1.250000000000000e+01	 5.624999999999999e+00	 1.003285767076923e+01
0	 1.250000000000000e+01	 6.250000000000000e+00	 1.003319723076923e+01
0	 6.250000000000000e+00	 6.250000000000000e+00	 1.002353938461538e+01
0	 6.250000000000000e+00	 6.875000000000000e+00	 1.002157074461538e+01
0	 6.250000000000000e+00	 7.500000000000002e+00	 1.001898020923077e+01
0	 6.250000000000001e+00	 8.125000000000004e+00	 1.001576777846154e+01
0	 6.250000000000001e+00	 8.750000000000004e+00	 1.001193345230769e+01
0	 6.250000000000000e+00	 9.375000000000004e+00	 1.000747723076923e+01
0	 6.250000000000000e+00	 1.000000000000000e+01	 1.000239911384615e+01
0	 6.250000000000000e+00	 1.062500000000000e+01	 9.996699101538461e+00
0	 6.250000000000001e+00	 1.125000000000001e+01	 9.990377193846150e+00
0	 6.250000000000000e+00	 1.187500000000001e+01	 9.983433390769228e+00
0	 6.250000000000000e+00	 1.250000000000000e+01	 9.975867692307691e+00
0	 6.875000000000000e+00	 6.250000000000000e+00	 1.002699270000000e+01
0	 6.874999999999999e+00	 6.874999999999999e+00	 1.002482148907692e+01
0	 6.874999999999999e+00	 7.500000000000000e+00	 1.002214059938461e+01
0	 6.875000000000000e+00	 8.125000000000002e+00	 1.001895003092307e+01
0	 6.874999999999999e+00	 8.750000000000000e+00	 1.001524978369230e+01
0	 6.875000000000001e+00	 9.375000000000002e+00	 1.001103985769230e+01
0	 6.875000000000000e+00	 1.000000000000000e+01	 1.000632025292307e+01
0	 6.875000000000002e+00	 1.062500000000000e+01	 1.000109096938461e+01
0	 6.875000000000002e+00	 1.125000000000001e+01	 9.995352007076924e+00
0	 6.875000000000000e+00	 1.187500000000000e+01	 9.989103365999998e+00
0	 6.875000000000000e+00	 1.250000000000000e+01	 9.982345046153842e+00
0	 7.500000000000001e+00	 6.250000000000000e+00	 1.002989323076923e+01
0	 7.500000000000003e+00	 6.875000000000002e+00	 1.002750427507692e+01
0	 7.500000000000003e+00	 7.500000000000003e+00	 1.002471785723077e+01
0	 7.500000000000000e+00	 8.125000000000000e+00	 1.002153397723077e+01
0	 7.500000000000002e+00	 8.750000000000002e+00	 1.001795263507692e+01
0	 7.500000000000002e+00	 9.375000000000005e+00	 1.001397383076923e+01
0	 7.500000000000002e+00	 1.000000000000001e+01	 1.000959756430769e+01
0	 7.500000000000003e+00	 1.062500000000001e+01	 1.000482383569230e+01
0	 7.500000000000001e+00	 1.125000000000000e+01	 9.999652644923074e+00
0	 7.500000000000003e+00	 1.187500000000001e+01	 9.994083991999997e+00
0	 7.500000000000001e+00	 1.250000000000000e+01	 9.988117876923077e+00
0	 8.125000000000002e+00	 6.250000000000000e+00	 1.003224097692307e+01
0	 8.125000000000002e+00	 6.875000000000000e+00	 1.002961910261538e+01
0	 8.125000000000004e+00	 7.500000000000002e+00	 1.002671198276923e+01
0	 8.125000000000000e+00	 8.125000000000000e+00	 1.002351961738461e+01
0	 8.125000000000002e+00	 8.750000000000002e+00	 1.002004200646154e+01
0	 8.125000000000004e+00	 9.375000000000004e+00	 1.001627915000000e+01
0	 8.125000000000002e+00	 1.000000000000000e+01	 1.001223104800000e+01
0	 8.125000000000002e+00	 1.062500000000001e+01	 1.000789770046154e+01
0	 8.125000000000002e+00	 1.125000000000000e+01	 1.000327910738462e+01
0	 8.125000000000002e+00	 1.187500000000000e+01	 9.998375268769232e+00
0	 8.125000000000002e+00	 1.250000000000000e+01	 9.993186184615382e+00
0	 8.750000000000004e+00	 6.250000000000001e+00	 1.003403593846154e+01
0	 8.750000000000000e+00	 6.874999999999997e+00	 1.003116597169230e+01
0	 8.750000000000002e+00	 7.500000000000001e+00	 1.002812297600000e+01
0	 8.750000000000002e+00	 8.125000000000002e+00	 1.002490695138461e+01
0	 8.750000000000002e+00	 8.750000000000002e+00	 1.002151789784615e+01
0	 8.750000000000002e+00	 9.375000000000004e+00	 1.001795581538461e+01
0	 8.750000000000002e+00	 1.000000000000001e+01	 1.001422070400000e+01
0	 8.750000000000004e+00	 1.062500000000001e+01	 1.001031256369231e+01
0	 8.750000000000000e+00	 1.125000000000001e+01	 1.000623139446153e+01
0	 8.750000000000002e+00	 1.187500000000001e+01	 1.000197719630769e+01
0	 8.750000000000004e+00	 1.250000000000000e+01	 9.997549969230770e+00
0	 9.375000000000002e+00	 6.249999999999999e+00	 1.003527811538461e+01
0	 9.375000000000004e+00	 6.875000000000000e+00	 1.003214488230769e+01
0	 9.375000000000000e+00	 7.500000000000001e+00	 1.002895083692308e+01
0	 9.375000000000004e+00	 8.125000000000002e+00	 1.002569597923077e+01
0	 9.375000000000004e+00	 8.750000000000004e+00	 1.002238030923077e+01
0	 9.375000000000004e+00	 9.375000000000002e+00	 1.001900382692307e+01
0	 9.375000000000004e+00	 1.000000000000000e+01	 1.001556653230769e+01
0	 9.375000000000004e+00	 1.062500000000001e+01	 1.001206842538461e+01
0	 9.375000000000002e+00	 1.125000000000001e+01	 1.000850950615384e+01
0	 9.375000000000004e+00	 1.187500000000000e+01	 1.000488977461539e+01
0	 9.375000000000002e+00	 1.250000000000000e+01	 1.000120923076922e+01
0	 1.000000000000000e+01	 6.250000000000001e+00	 1.003596750769231e+01
0	 1.000000000000000e+01	 6.875000000000001e+00	 1.003255583446153e+01
0	 1.000000000000000e+01	 7.500000000000002e+00	 1.002919556553846e+01
0	 1.000000000000001e+01	 8.125000000000004e+00	 1.002588670092307e+01
0	 1.000000000000000e+01	 8.750000000000004e+00	 1.002262924061538e+01
0	 1.000000000000000e+01	 9.375000000000004e+00	 1.001942318461538e+01
0	 1.000000000000000e+01	 1.000000000000000e+01	 1.001626853292307e+01
0	 1.000000000000001e+01	 1.062500000000001e+01	 1.001316528553846e+01
0	 1.000000000000001e+01	 1.125000000000001e+01	 1.001011344246153e+01
0	 1.000000000000000e+01	 1.187500000000000e+01	 1.000711300369230e+01
0	 1.000000000000000e+01	 1.250000000000000e+01	 1.000416396923077e+01
0	 1.062500000000000e+01	 6.250000000000000e+00	 1.003610411538461e+01
0	 1.062500000000000e+01	 6.875000000000001e+00	 1.003239882815385e+01
0	 1.062500000000000e+01	 7.500000000000003e+00	 1.002885716184615e+01
0	 1.062500000000000e+01	 8.125000000000000e+00	 1.002547911646154e+01
0	 1.062500000000000e+01	 8.750000000000002e+00	 1.002226469200000e+01
0	 1.062500000000000e+01	 9.375000000000004e+00	 1.001921388846153e+01
0	 1.062500000000000e+01	 1.000000000000000e+01	 1.001632670584615e+01
0	 1.062500000000000e+01	 1.062500000000000e+01	 1.001360314415384e+01
0	 1.062500000000000e+01	 1.125000000000001e+01	 1.001104320338462e+01
0	 1.062500000000000e+01	 1.187500000000001e+01	 1.000864688353846e+01
0	 1.062500000000000e+01	 1.250000000000000e+01	 1.000641418461538e+01
0	 1.125000000000000e+01	 6.250000000000000e+00	 1.003568793846154e+01
0	 1.125000000000001e+01	 6.875000000000000e+00	 1.003167386338461e+01
0	 1.125000000000000e+01	 7.500000000000002e+00	 1.002793562584615e+01
0	 1.125000000000000e+01	 8.125000000000002e+00	 1.002447322584615e+01
0	 1.125000000000001e+01	 8.750000000000002e+00	 1.002128666338461e+01
0	 1.125000000000000e+01	 9.375000000000002e+00	 1.001837593846153e+01
0	 1.125000000000001e+01	 1.000000000000001e+01	 1.001574105107692e+01
0	 1.125000000000001e+01	 1.062500000000001e+01	 1.001338200123077e+01
0	 1.125000000000000e+01	 1.125000000000000e+01	 1.001129878892308e+01
0	 1.125000000000001e+01	 1.187500000000001e+01	 1.000949141415384e+01
0	 1.125000000000000e+01	 1.250000000000000e+01	 1.000795987692308e+01
0	 1.187500000000001e+01	 6.250000000000001e+00	 1.003471897692307e+01
0	 1.187500000000001e+01	 6.875000000000001e+00	 1.003038094015384e+01
0	 1.187500000000001e+01	 7.500000000000002e+00	 1.002643095753846e+01
0	 1.187500000000000e+01	 8.125000000000002e+00	 1.002286902907692e+01
0	 1.187500000000000e+01	 8.750000000000000e+00	 1.001969515476923e+01
0	 1.187500000000001e+01	 9.375000000000002e+00	 1.001690933461538e+01
0	 1.187500000000000e+01	 1.000000000000000e+01	 1.001451156861538e+01
0	 1.187500000000001e+01	 1.062500000000000e+01	 1.001250185676923e+01
0	 1.187500000000001e+01	 1.125000000000001e+01	 1.001088019907692e+01
0	 1.187500000000001e+01	 1.187500000000001e+01	 1.000964659553846e+01
0	 1.187500000000001e+01	 1.250000000000000e+01	 1.000880104615385e+01
0	 1.250000000000000e+01	 6.250000000000000e+00	 1.003319723076923e+01
0	 1.250000000000000e+01	 6.875000000000000e+00	 1.002852005846154e+01
0	 1.250000000000000e+01	 7.500000000000002e+00	 1.002434315692307e+01
0	 1.250000000000000e+01	 8.125000000000004e+00	 1.002066652615384e+01
0	 1.250000000000000e+01	 8.750000000000004e+00	 1.001749016615384e+01
0	 1.250000000000000e+01	 9.375000000000004e+00	 1.001481407692307e+01
0	 1.250000000000000e+01	 1.000000000000000e+01	 1.001263825846153e+01
0	 1.250000000000000e+01	 1.062500000000000e+01	 1.001096271076923e+01
0	 1.250000000000000e+01	 1.125000000000001e+01	 1.000978743384615e+01
0	 1.250000000000000e+01	 1.187500000000001e+01	 1.000911242769230e+01
0	 1.250000000000000e+01	 1.250000000000000e+01	 1.000893769230769e+01
0	 6.250000000000000e+00	 1.250000000000000e+01	 9.975867692307691e+00
0	 6.250000000000000e+00	 1.312500000000000e+01	 9.978707220000004e+00
0	 6.250000000000000e+00	 1.375000000000000e+01	 9.981373218461536e+00
0	 6.250000000000001e+00	 1.437500000000000e+01	 9.983865687692303e+00
0	 6.250000000000001e+00	 1.500000000000000e+01	 9.986184627692303e+00
0	 6.250000000000000e+00	 1.562500000000000e+01	 9.988330038461539e+00
0	 6.250000000000000e+00	 1.625000000000000e+01	 9.990301919999997e+00
0	 6.250000000000000e+00	 1.687500000000000e+01	 9.992100272307692e+00
0	 6.250000000000001e+00	 1.750000000000001e+01	 9.993725095384615e+00
0	 6.250000000000000e+00	 1.812500000000001e+01	 9.995176389230767e+00
0	 6.250000000000000e+00	 1.875000000000000e+01	 9.996454153846154e+00
0	 6.875000000000000e+00	 1.250000000000000e+01	 9.982345046153842e+00
0	 6.874999999999999e+00	 1.312500000000000e+01	 9.984496641076921e+00
0	 6.874999999999999e+00	 1.375000000000000e+01	 9.986482247384611e+00
0	 6.875000000000000e+00	 1.437500000000000e+01	 9.988301865076924e+00
0	 6.874999999999999e+00	 1.500000000000000e+01	 9.989955494153847e+00
0	 6.875000000000001e+00	 1.562500000000000e+01	 9.991443134615384e+00
0	 6.875000000000000e+00	 1.625000000000000e+01	 9.992764786461535e+00
0	 6.875000000000002e+00	 1.687500000000000e+01	 9.993920449692304e+00
0	 6.875000000000002e+00	 1.750000000000000e+01	 9.994910124307692e+00
0	 6.875000000000000e+00	 1.812500000000001e+01	 9.995733810307692e+00
0	 6.875000000000000e+00	 1.875000000000000e+01	 9.996391507692307e+00
0	 7.500000000000001e+00	 1.250000000000000e+01	 9.988117876923077e+00
0	 7.500000000000003e+00	 1.312500000000000e+01	 9.989659745230767e+00
0	 7.500000000000003e+00	 1.375000000000000e+01	 9.991043165538466e+00
0	 7.500000000000000e+00	 1.437500000000000e+01	 9.992268137846150e+00
0	 7.500000000000002e+00	 1.500000000000000e+01	 9.993334662153844e+00
0	 7.500000000000002e+00	 1.562500000000001e+01	 9.994242738461539e+00
0	 7.500000000000002e+00	 1.625000000000000e+01	 9.994992366769228e+00
0	 7.500000000000003e+00	 1.687500000000001e+01	 9.995583547076919e+00
0	 7.500000000000001e+00	 1.750000000000000e+01	 9.996016279384612e+00
0	 7.500000000000003e+00	 1.812500000000001e+01	 9.996290563692302e+00
0	 7.500000000000001e+00	 1.875000000000000e+01	 9.996406400000000e+00
0	 8.125000000000002e+00	 1.250000000000000e+01	 9.993186184615382e+00
0	 8.125000000000002e+00	 1.312500000000000e+01	 9.994196532461538e+00
0	 8.125000000000004e+00	 1.375000000000000e+01	 9.995055972923076e+00
0	 8.125000000000000e+00	 1.437500000000000e+01	 9.995764505999999e+00
0	 8.125000000000002e+00	 1.500000000000000e+01	 9.996322131692306e+00
0	 8.125000000000004e+00	 1.562500000000001e+01	 9.996728850000000e+00
0	 8.125000000000002e+00	 1.625000000000000e+01	 9.996984660923072e+00
0	 8.125000000000002e+00	 1.687500000000000e+01	 9.997089564461538e+00
0	 8.125000000000002e+00	 1.750000000000000e+01	 9.997043560615383e+00
0	 8.125000000000002e+00	 1.812500000000000e+01	 9.996846649384606e+00
0	 8.125000000000002e+00	 1.875000000000000e+01	 9.996498830769234e+00
0	 8.750000000000004e+00	 1.250000000000000e+01	 9.997549969230770e+00
0	 8.750000000000000e+00	 1.312500000000000e+01	 9.998107002769228e+00
0	 8.750000000000002e+00	 1.375000000000000e+01	 9.998520669538461e+00
0	 8.750000000000002e+00	 1.437500000000000e+01	 9.998790969538462e+00
0	 8.750000000000002e+00	 1.500000000000000e+01	 9.998917902769227e+00
0	 8.750000000000002e+00	 1.562500000000000e+01	 9.998901469230766e+00
0	 8.750000000000002e+00	 1.625000000000000e+01	 9.998741668923078e+00
0	 8.750000000000004e+00	 1.687500000000001e+01	 9.998438501846152e+00
0	 8.750000000000000e+00	 1.750000000000000e+01	 9.997991967999997e+00
0	 8.750000000000002e+00	 1.812500000000001e+01	 9.997402067384616e+00
0	 8.750000000000004e+00	 1.875000000000000e+01	 9.996668799999997e+00
0	 9.375000000000002e+00	 1.250000000000000e+01	 1.000120923076922e+01
0	 9.375000000000004e+00	 1.312500000000000e+01	 1.000139115615384e+01
0	 9.375000000000000e+00	 1.375000000000000e+01	 1.000143725538462e+01
0	 9.375000000000004e+00	 1.437500000000000e+01	 1.000134752846154e+01
0	 9.375000000000004e+00	 1.500000000000000e+01	 1.000112197538461e+01
0	 9.375000000000004e+00	 1.562500000000001e+01	 1.000076059615385e+01
0	 9.375000000000004e+00	 1.625000000000000e+01	 1.000026339076923e+01
0	 9.375000000000004e+00	 1.687500000000001e+01	 9.999630359230760e+00
0	 9.375000000000002e+00	 1.750000000000000e+01	 9.998861501538459e+00
0	 9.375000000000004e+00	 1.812500000000000e+01	 9.997956817692309e+00
0	 9.375000000000002e+00	 1.875000000000000e+01	 9.996916307692308e+00
0	 1.000000000000000e+01	 1.250000000000000e+01	 1.000416396923077e+01
0	 1.000000000000000e+01	 1.312500000000000e+01	 1.000404899261538e+01
0	 1.000000000000000e+01	 1.375000000000000e+01	 1.000380573046153e+01
0	 1.000000000000001e+01	 1.437500000000001e+01	 1.000343418276923e+01
0	 1.000000000000000e+01	 1.500000000000000e+01	 1.000293434953846e+01
0	 1.000000000000000e+01	 1.562500000000000e+01	 1.000230623076923e+01
0	 1.000000000000000e+01	 1.625000000000000e+01	 1.000154982646154e+01
0	 1.000000000000001e+01	 1.687500000000001e+01	 1.000066513661538e+01
0	 1.000000000000001e+01	 1.750000000000001e+01	 9.999652161230765e+00
0	 1.000000000000000e+01	 1.812500000000000e+01	 9.998510900307693e+00
0	 1.000000000000000e+01	 1.875000000000000e+01	 9.997241353846155e+00
0	 1.062500000000000e+01	 1.250000000000000e+01	 1.000641418461538e+01
0	 1.062500000000000e+01	 1.312500000000000e+01	 1.000608051215385e+01
0	 1.062500000000000e+01	 1.375000000000000e+01	 1.000562609476923e+01
0	 1.062500000000000e+01	 1.437500000000000e+01	 1.000505093246153e+01
0	 1.062500000000000e+01	 1.500000000000000e+01	 1.000435502523077e+01
0	 1.062500000000000e+01	 1.562500000000000e+01	 1.000353837307692e+01
0	 1.062500000000000e+01	 1.625000000000000e+01	 1.000260097600000e+01
0	 1.062500000000000e+01	 1.687500000000001e+01	 1.000154283399999e+01
0	 1.062500000000000e+01	 1.750000000000000e+01	 1.000036394707692e+01
0	 1.062500000000000e+01	 1.812500000000000e+01	 9.999064315230768e+00
0	 1.062500000000000e+01	 1.875000000000000e+01	 9.997643938461538e+00
0	 1.125000000000000e+01	 1.250000000000000e+01	 1.000795987692308e+01
0	 1.125000000000001e+01	 1.312500000000000e+01	 1.000748571476923e+01
0	 1.125000000000000e+01	 1.375000000000000e+01	 1.000689834830769e+01
0	 1.125000000000000e+01	 1.437500000000000e+01	 1.000619777753846e+01
0	 1.125000000000001e+01	 1.500000000000000e+01	 1.000538400246154e+01
0	 1.125000000000000e+01	 1.562500000000000e+01	 1.000445702307692e+01
0	 1.125000000000001e+01	 1.625000000000001e+01	 1.000341683938461e+01
0	 1.125000000000001e+01	 1.687500000000001e+01	 1.000226345138461e+01
0	 1.125000000000000e+01	 1.750000000000001e+01	 1.000099685907692e+01
0	 1.125000000000001e+01	 1.812500000000001e+01	 9.999617062461535e+00
0	 1.125000000000000e+01	 1.875000000000000e+01	 9.998124061538459e+00
0	 1.187500000000001e+01	 1.250000000000000e+01	 1.000880104615385e+01
0	 1.187500000000001e+01	 1.312500000000000e+01	 1.000826460046153e+01
0	 1.187500000000001e+01	 1.375000000000000e+01	 1.000762249107692e+01
0	 1.187500000000000e+01	 1.437500000000000e+01	 1.000687471800000e+01
0	 1.187500000000000e+01	 1.500000000000000e+01	 1.000602128123077e+01
0	 1.187500000000001e+01	 1.562500000000000e+01	 1.000506218076922e+01
0	 1.187500000000000e+01	 1.625000000000000e+01	 1.000399741661538e+01
0	 1.187500000000001e+01	 1.687500000000000e+01	 1.000282698876923e+01
0	 1.187500000000001e+01	 1.750000000000001e+01	 1.000155089723077e+01
0	 1.187500000000001e+01	 1.812500000000001e+01	 1.000016914200000e+01
0	 1.187500000000001e+01	 1.875000000000000e+01	 9.998681723076917e+00
0	 1.250000000000000e+01	 1.250000000000000e+01	 1.000893769230769e+01
0	 1.250000000000000e+01	 1.312500000000000e+01	 1.000841716923077e+01
0	 1.250000000000000e+01	 1.375000000000000e+01	 1.000779852307692e+01
0	 1.250000000000000e+01	 1.437500000000000e+01	 1.000708175384615e+01
0	 1.250000000000000e+01	 1.500000000000000e+01	 1.000626686153846e+01
0	 1.250000000000000e+01	 1.562500000000000e+01	 1.000535384615385e+01
0	 1.250000000000000e+01	 1.625000000000000e+01	 1.000434270769231e+01
0	 1.250000000000000e+01	 1.687500000000000e+01	 1.000323344615384e+01
0	 1.250000000000000e+01	 1.750000000000001e+01	 1.000202606153846e+01
0	 1.250000000000000e+01	 1.812500000000001e+01	 1.000072055384615e+01
0	 1.250000000000000e+01	 1.875000000000000e+01	 9.999316923076920e+00
0	 6.250000000000000e+00	 1.875000000000000e+01	 9.996454153846154e+00
0	 6.250000000000000e+00	 1.937500000000000e+01	 9.995685232307684e+00
0	 6.250000000000000e+00	 2.000000000000000e+01	 9.995021790769226e+00
0	 6.250000000000001e+00	 2.062500000000000e+01	 9.994463829230771e+00
0	 6.250000000000001e+00	 2.125000000000000e+01	 9.994011347692304e+00
0	 6.250000000000000e+00	 2.187500000000000e+01	 9.993664346153844e+00
0	 6.250000000000000e+00	 2.250000000000000e+01	 9.993422824615385e+00
0	 6.250000000000000e+00	 2.312500000000001e+01	 9.993286783076920e+00
0	 6.250000000000001e+00	 2.375000000000001e+01	 9.993256221538457e+00
0	 6.250000000000000e+00	 2.437500000000001e+01	 9.993331140000000e+00
0	 6.250000000000000e+00	 2.500000000000000e+01	 9.993511538461537e+00
0	 6.875000000000000e+00	 1.875000000000000e+01	 9.996391507692307e+00
0	 6.874999999999999e+00	 1.937500000000000e+01	 9.995805184000000e+00
0	 6.874999999999999e+00	 2.000000000000000e+01	 9.995311548307688e+00
0	 6.875000000000000e+00	 2.062500000000000e+01	 9.994910600615388e+00
0	 6.874999999999999e+00	 2.125000000000001e+01	 9.994602340923079e+00
0	 6.875000000000001e+00	 2.187500000000000e+01	 9.994386769230772e+00
0	 6.875000000000000e+00	 2.250000000000001e+01	 9.994263885538462e+00
0	 6.875000000000002e+00	 2.312500000000000e+01	 9.994233689846157e+00
0	 6.875000000000002e+00	 2.375000000000001e+01	 9.994296182153848e+00
0	 6.875000000000000e+00	 2.437500000000001e+01	 9.994451362461536e+00
0	 6.875000000000000e+00	 2.500000000000000e+01	 9.994699230769225e+00
0	 7.500000000000001e+00	 1.875000000000000e+01	 9.996406400000000e+00
0	 7.500000000000003e+00	 1.937500000000000e+01	 9.995983677230768e+00
0	 7.500000000000003e+00	 2.000000000000000e+01	 9.995640850461537e+00
0	 7.500000000000000e+00	 2.062500000000000e+01	 9.995377919692306e+00
0	 7.500000000000002e+00	 2.125000000000000e+01	 9.995194884923075e+00
0	 7.500000000000002e+00	 2.187500000000000e+01	 9.995091746153845e+00
0	 7.500000000000002e+00	 2.250000000000000e+01	 9.995068503384612e+00
0	 7.500000000000003e+00	 2.312500000000001e+01	 9.995125156615384e+00
0	 7.500000000000001e+00	 2.375000000000001e+01	 9.995261705846154e+00
0	 7.500000000000003e+00	 2.437500000000001e+01	 9.995478151076925e+00
0	 7.500000000000001e+00	 2.500000000000000e+01	 9.995774492307692e+00
0	 8.125000000000002e+00	 1.875000000000000e+01	 9.996498830769234e+00
0	 8.125000000000002e+00	 1.937500000000000e+01	 9.996220711999994e+00
0	 8.125000000000004e+00	 2.000000000000000e+01	 9.996009697230768e+00
0	 8.125000000000000e+00	 2.062500000000000e+01	 9.995865786461543e+00
0	 8.125000000000002e+00	 2.125000000000000e+01	 9.995788979692309e+00
0	 8.125000000000004e+00	 2.187500000000000e+01	 9.995779276923075e+00
0	 8.125000000000002e+00	 2.250000000000000e+01	 9.995836678153847e+00
0	 8.125000000000002e+00	 2.312500000000001e+01	 9.995961183384615e+00
0	 8.125000000000002e+00	 2.375000000000000e+01	 9.996152792615387e+00
0	 8.125000000000002e+00	 2.437500000000000e+01	 9.996411505846158e+00
0	 8.125000000000002e+00	 2.500000000000000e+01	 9.996737323076921e+00
0	 8.750000000000004e+00	 1.875000000000000e+01	 9.996668799999997e+00
0	 8.750000000000000e+00	 1.937500000000000e+01	 9.996516288307689e+00
0	 8.750000000000002e+00	 2.000000000000001e+01	 9.996418088615385e+00
0	 8.750000000000002e+00	 2.062500000000000e+01	 9.996374200923071e+00
0	 8.750000000000002e+00	 2.125000000000000e+01	 9.996384625230771e+00
0	 8.750000000000002e+00	 2.187500000000000e+01	 9.996449361538463e+00
0	 8.750000000000002e+00	 2.250000000000000e+01	 9.996568409846148e+00
0	 8.750000000000004e+00	 2.312500000000001e+01	 9.996741770153848e+00
0	 8.750000000000000e+00	 2.375000000000000e+01	 9.996969442461539e+00
0	 8.750000000000002e+00	 2.437500000000001e+01	 9.997251426769225e+00
0	 8.750000000000004e+00	 2.500000000000000e+01	 9.997587723076926e+00
0	 9.375000000000002e+00	 1.875000000000000e+01	 9.996916307692308e+00
0	 9.375000000000004e+00	 1.937500000000000e+01	 9.996870406153846e+00
0	 9.375000000000000e+00	 2.000000000000000e+01	 9.996866024615384e+00
0	 9.375000000000004e+00	 2.062500000000000e+01	 9.996903163076926e+00
0	 9.375000000000004e+00	 2.125000000000000e+01	 9.996981821538457e+00
0	 9.375000000000004e+00	 2.187500000000000e+01	 9.997102000000000e+00
0	 9.375000000000004e+00	 2.250000000000000e+01	 9.997263698461540e+00
0	 9.375000000000004e+00	 2.312500000000001e+01	 9.997466916923079e+00
0	 9.375000000000002e+00	 2.375000000000001e+01	 9.997711655384617e+00
0	 9.375000000000004e+00	 2.437500000000000e+01	 9.997997913846154e+00
0	 9.375000000000002e+00	 2.500000000000000e+01	 9.998325692307692e+00
0	 1.000000000000000e+01	 1.875000000000000e+01	 9.997241353846155e+00
0	 1.000000000000000e+01	 1.937500000000000e+01	 9.997283065538458e+00
0	 1.000000000000000e+01	 2.000000000000000e+01	 9.997353505230770e+00
0	 1.000000000000001e+01	 2.062500000000001e+01	 9.997452672923076e+00
0	 1.000000000000000e+01	 2.125000000000001e+01	 9.997580568615387e+00
0	 1.000000000000000e+01	 2.187500000000000e+01	 9.997737192307692e+00
0	 1.000000000000000e+01	 2.250000000000000e+01	 9.997922544000001e+00
0	 1.000000000000001e+01	 2.312500000000001e+01	 9.998136623692307e+00
0	 1.000000000000001e+01	 2.375000000000000e+01	 9.998379431384617e+00
0	 1.000000000000000e+01	 2.437500000000001e+01	 9.998650967076925e+00
0	 1.000000000000000e+01	 2.500000000000000e+01	 9.998951230769238e+00
0	 1.062500000000000e+01	 1.875000000000000e+01	 9.997643938461538e+00
0	 1.062500000000000e+01	 1.937500000000000e+01	 9.997754266461538e+00
0	 1.062500000000000e+01	 2.000000000000001e+01	 9.997880530461536e+00
0	 1.062500000000000e+01	 2.062500000000000e+01	 9.998022730461537e+00
0	 1.062500000000000e+01	 2.125000000000000e+01	 9.998180866461537e+00
0	 1.062500000000000e+01	 2.187500000000001e+01	 9.998354938461537e+00
0	 1.062500000000000e+01	 2.250000000000000e+01	 9.998544946461539e+00
0	 1.062500000000000e+01	 2.312500000000000e+01	 9.998750890461540e+00
0	 1.062500000000000e+01	 2.375000000000000e+01	 9.998972770461542e+00
0	 1.062500000000000e+01	 2.437500000000000e+01	 9.999210586461539e+00
0	 1.062500000000000e+01	 2.500000000000000e+01	 9.999464338461541e+00
0	 1.125000000000000e+01	 1.875000000000000e+01	 9.998124061538459e+00
0	 1.125000000000001e+01	 1.937500000000000e+01	 9.998284008923076e+00
0	 1.125000000000000e+01	 2.000000000000000e+01	 9.998447100307688e+00
0	 1.125000000000000e+01	 2.062500000000000e+01	 9.998613335692307e+00
0	 1.125000000000001e+01	 2.125000000000000e+01	 9.998782715076921e+00
0	 1.125000000000000e+01	 2.187500000000000e+01	 9.998955238461535e+00
0	 1.125000000000001e+01	 2.250000000000000e+01	 9.999130905846155e+00
0	 1.125000000000001e+01	 2.312500000000001e+01	 9.999309717230773e+00
0	 1.125000000000000e+01	 2.375000000000000e+01	 9.999491672615388e+00
0	 1.125000000000001e+01	 2.437500000000000e+01	 9.999676772000004e+00
0	 1.125000000000000e+01	 2.500000000000000e+01	 9.999865015384611e+00
0	 1.187500000000001e+01	 1.875000000000000e+01	 9.998681723076917e+00
0	 1.187500000000001e+01	 1.937500000000000e+01	 9.998872292923071e+00
0	 1.187500000000001e+01	 2.000000000000000e+01	 9.999053214769232e+00
0	 1.187500000000000e+01	 2.062500000000000e+01	 9.999224488615392e+00
0	 1.187500000000000e+01	 2.125000000000000e+01	 9.999386114461537e+00
0	 1.187500000000001e+01	 2.187500000000000e+01	 9.999538092307695e+00
0	 1.187500000000000e+01	 2.250000000000001e+01	 9.999680422153849e+00
0	 1.187500000000001e+01	 2.312500000000000e+01	 9.999813103999994e+00
0	 1.187500000000001e+01	 2.375000000000000e+01	 9.999936137846154e+00
0	 1.187500000000001e+01	 2.437500000000000e+01	 1.000004952369231e+01
0	 1.187500000000001e+01	 2.500000000000000e+01	 1.000015326153847e+01
0	 1.250000000000000e+01	 1.875000000000000e+01	 9.999316923076920e+00
0	 1.250000000000000e+01	 1.937500000000000e+01	 9.999519118461532e+00
0	 1.250000000000000e+01	 2.000000000000000e+01	 9.999698873846150e+00
0	 1.250000000000000e+01	 2.062500000000000e+01	 9.999856189230773e+00
0	 1.250000000000000e+01	 2.125000000000000e+01	 9.999991064615385e+00
0	 1.250000000000000e+01	 2.187500000000000e+01	 1.000010350000000e+01
0	 1.250000000000000e+01	 2.250000000000000e+01	 1.000019349538462e+01
0	 1.250000000000000e+01	 2.312500000000001e+01	 1.000026105076923e+01
0	 1.250000000000000e+01	 2.375000000000001e+01	 1.000030616615385e+01
0	 1.250000000000000e+01	 2.437500000000001e+01	 1.000032884153846e+01
0	 1.250000000000000e+01	 2.500000000000000e+01	 1.000032907692308e+01
0	 6.250000000000000e+00	 2.500000000000000e+01	 9.993511538461537e+00
0	 6.250000000000000e+00	 2.562500000000000e+01	 9.994188083076919e+00
0	 6.250000000000001e+00	 2.625000000000000e+01	 9.994805901538459e+00
0	 6.250000000000000e+00	 2.687499999999999e+01	 9.995364993846152e+00
0	 6.250000000000001e+00	 2.749999999999999e+01	 9.995865360000007e+00
0	 6.250000000000000e+00	 2.812499999999999e+01	 9.996307000000000e+00
0	 6.250000000000000e+00	 2.874999999999999e+01	 9.996689913846151e+00
0	 6.250000000000000e+00	 2.937499999999999e+01	 9.997014101538461e+00
0	 6.250000000000000e+00	 2.999999999999998e+01	 9.997279563076928e+00
0	 6.250000000000000e+00	 3.062499999999998e+01	 9.997486298461533e+00
0	 6.250000000000000e+00	 3.125000000000000e+01	 9.997634307692309e+00
0	 6.875000000000000e+00	 2.500000000000000e+01	 9.994699230769225e+00
0	 6.874999999999998e+00	 2.562499999999999e+01	 9.995219445384613e+00
0	 6.875000000000001e+00	 2.625000000000000e+01	 9.995687556923075e+00
0	 6.874999999999999e+00	 2.687499999999998e+01	 9.996103565384612e+00
0	 6.875000000000000e+00	 2.749999999999999e+01	 9.996467470769231e+00
0	 6.874999999999998e+00	 2.812499999999998e+01	 9.996779273076919e+00
0	 6.875000000000001e+00	 2.874999999999999e+01	 9.997038972307694e+00
0	 6.875000000000000e+00	 2.937499999999998e+01	 9.997246568461538e+00
0	 6.875000000000001e+00	 2.999999999999999e+01	 9.997402061538454e+00
0	 6.875000000000000e+00	 3.062499999999998e+01	 9.997505451538458e+00
0	 6.875000000000000e+00	 3.125000000000000e+01	 9.997556738461544e+00
0	 7.500000000000001e+00	 2.500000000000000e+01	 9.995774492307692e+00
0	 7.500000000000000e+00	 2.562499999999999e+01	 9.996153949230770e+00
0	 7.500000000000002e+00	 2.624999999999999e+01	 9.996487926153847e+00
0	 7.500000000000001e+00	 2.687499999999999e+01	 9.996776423076920e+00
0	 7.500000000000001e+00	 2.749999999999999e+01	 9.997019440000003e+00
0	 7.500000000000001e+00	 2.812499999999999e+01	 9.997216976923077e+00
0	 7.500000000000001e+00	 2.874999999999998e+01	 9.997369033846152e+00
0	 7.500000000000001e+00	 2.937499999999999e+01	 9.997475610769225e+00
0	 7.500000000000000e+00	 2.999999999999998e+01	 9.997536707692312e+00
0	 7.500000000000001e+00	 3.062499999999999e+01	 9.997552324615382e+00
0	 7.500000000000001e+00	 3.125000000000000e+01	 9.997522461538459e+00
0	 8.125000000000002e+00	 2.500000000000000e+01	 9.996737323076921e+00
0	 8.125000000000002e+00	 2.562500000000000e+01	 9.996991594615380e+00
0	 8.125000000000000e+00	 2.625000000000000e+01	 9.997207009230767e+00
0	 8.125000000000002e+00	 2.687499999999999e+01	 9.997383566923078e+00
0	 8.125000000000000e+00	 2.749999999999998e+01	 9.997521267692306e+00
0	 8.125000000000002e+00	 2.812499999999999e+01	 9.997620111538456e+00
0	 8.125000000000000e+00	 2.874999999999998e+01	 9.997680098461537e+00
0	 8.125000000000000e+00	 2.937499999999998e+01	 9.997701228461541e+00
0	 8.125000000000002e+00	 2.999999999999998e+01	 9.997683501538457e+00
0	 8.125000000000000e+00	 3.062499999999998e+01	 9.997626917692310e+00
0	 8.125000000000002e+00	 3.125000000000000e+01	 9.997531476923079e+00
0	 8.750000000000004e+00	 2.500000000000000e+01	 9.997587723076926e+00
0	 8.750000000000004e+00	 2.562500000000000e+01	 9.997732381538468e+00
0	 8.750000000000002e+00	 2.625000000000000e+01	 9.997844806153843e+00
0	 8.750000000000002e+00	 2.687499999999999e+01	 9.997924996923075e+00
0	 8.750000000000004e+00	 2.749999999999999e+01	 9.997972953846153e+00
0	 8.750000000000002e+00	 2.812499999999998e+01	 9.997988676923073e+00
0	 8.750000000000004e+00	 2.874999999999999e+01	 9.997972166153847e+00
0	 8.750000000000002e+00	 2.937499999999998e+01	 9.997923421538461e+00
0	 8.750000000000004e+00	 2.999999999999998e+01	 9.997842443076919e+00
0	 8.750000000000004e+00	 3.062499999999998e+01	 9.997729230769217e+00
0	 8.750000000000004e+00	 3.125000000000001e+01	 9.997583784615381e+00
0	 9.375000000000002e+00	 2.500000000000000e+01	 9.998325692307692e+00
0	 9.375000000000004e+00	 2.562500000000000e+01	 9.998376309999999e+00
0	 9.375000000000004e+00	 2.625000000000000e+01	 9.998401316923077e+00
0	 9.375000000000004e+00	 2.687500000000000e+01	 9.998400713076927e+00
0	 9.375000000000004e+00	 2.749999999999998e+01	 9.998374498461537e+00
0	 9.375000000000004e+00	 2.812499999999999e+01	 9.998322673076917e+00
0	 9.375000000000004e+00	 2.874999999999999e+01	 9.998245236923076e+00
0	 9.375000000000005e+00	 2.937499999999999e+01	 9.998142190000001e+00
0	 9.375000000000002e+00	 2.999999999999998e+01	 9.998013532307688e+00
0	 9.375000000000005e+00	 3.062499999999998e+01	 9.997859263846145e+00
0	 9.375000000000002e+00	 3.125000000000000e+01	 9.997679384615374e+00
0	 1.000000000000000e+01	 2.500000000000000e+01	 9.998951230769238e+00
0	 1.000000000000000e+01	 2.562500000000000e+01	 9.998923380000003e+00
0	 1.000000000000001e+01	 2.625000000000000e+01	 9.998876541538463e+00
0	 1.000000000000000e+01	 2.687499999999999e+01	 9.998810715384618e+00
0	 1.000000000000001e+01	 2.750000000000000e+01	 9.998725901538458e+00
0	 1.000000000000000e+01	 2.812499999999999e+01	 9.998622100000004e+00
0	 1.000000000000000e+01	 2.874999999999999e+01	 9.998499310769228e+00
0	 1.000000000000000e+01	 2.937499999999998e+01	 9.998357533846152e+00
0	 1.000000000000000e+01	 2.999999999999998e+01	 9.998196769230759e+00
0	 1.000000000000000e+01	 3.062499999999998e+01	 9.998017016923079e+00
0	 1.000000000000000e+01	 3.125000000000000e+01	 9.997818276923068e+00
0	 1.062500000000000e+01	 2.500000000000000e+01	 9.999464338461541e+00
0	 1.062500000000001e+01	 2.562500000000000e+01	 9.999373591538465e+00
0	 1.062500000000000e+01	 2.625000000000000e+01	 9.999270480000003e+00
0	 1.062500000000000e+01	 2.687499999999999e+01	 9.999155003846159e+00
0	 1.062500000000001e+01	 2.749999999999999e+01	 9.999027163076924e+00
0	 1.062500000000001e+01	 2.812499999999999e+01	 9.998886957692310e+00
0	 1.062500000000001e+01	 2.874999999999999e+01	 9.998734387692309e+00
0	 1.062500000000001e+01	 2.937499999999999e+01	 9.998569453076916e+00
0	 1.062500000000000e+01	 2.999999999999998e+01	 9.998392153846147e+00
0	 1.062500000000001e+01	 3.062499999999999e+01	 9.998202489999988e+00
0	 1.062500000000000e+01	 3.125000000000000e+01	 9.998000461538446e+00
0	 1.125000000000000e+01	 2.500000000000000e+01	 9.999865015384611e+00
0	 1.125000000000001e+01	 2.562500000000000e+01	 9.999726944615388e+00
0	 1.125000000000001e+01	 2.625000000000000e+01	 9.999583132307691e+00
0	 1.125000000000001e+01	 2.687499999999999e+01	 9.999433578461538e+00
0	 1.125000000000001e+01	 2.750000000000000e+01	 9.999278283076922e+00
0	 1.125000000000000e+01	 2.812499999999999e+01	 9.999117246153848e+00
0	 1.125000000000001e+01	 2.874999999999999e+01	 9.998950467692300e+00
0	 1.125000000000000e+01	 2.937499999999999e+01	 9.998777947692300e+00
0	 1.125000000000000e+01	 2.999999999999998e+01	 9.998599686153842e+00
0	 1.125000000000000e+01	 3.062499999999998e+01	 9.998415683076924e+00
0	 1.125000000000000e+01	 3.125000000000000e+01	 9.998225938461536e+00
0	 1.187500000000001e+01	 2.500000000000000e+01	 1.000015326153847e+01
0	 1.187500000000000e+01	 2.562499999999999e+01	 9.999983439230766e+00
0	 1.187500000000000e+01	 2.625000000000000e+01	 9.999814498461539e+00
0	 1.187500000000001e+01	 2.687499999999999e+01	 9.999646439230768e+00
0	 1.187500000000001e+01	 2.749999999999999e+01	 9.999479261538461e+00
0	 1.187500000000001e+01	 2.812499999999998e+01	 9.999312965384611e+00
0	 1.187500000000001e+01	 2.874999999999999e+01	 9.999147550769230e+00
0	 1.187500000000000e+01	 2.937499999999999e+01	 9.998983017692300e+00
0	 1.187500000000001e+01	 2.999999999999999e+01	 9.998819366153835e+00
0	 1.187500000000000e+01	 3.062499999999998e+01	 9.998656596153850e+00
0	 1.187500000000001e+01	 3.125000000000000e+01	 9.998494707692306e+00
0	 1.250000000000000e+01	 2.500000000000000e+01	 1.000032907692308e+01
0	 1.250000000000000e+01	 2.562500000000000e+01	 1.000014307538462e+01
0	 1.250000000000000e+01	 2.625000000000000e+01	 9.999964578461537e+00
0	 1.250000000000000e+01	 2.687499999999999e+01	 9.999793586153848e+00
0	 1.250000000000000e+01	 2.749999999999999e+01	 9.999630098461537e+00
0	 1.250000000000000e+01	 2.812499999999999e+01	 9.999474115384613e+00
0	 1.250000000000000e+01	 2.874999999999999e+01	 9.999325636923075e+00
0	 1.250000000000000e+01	 2.937499999999999e+01	 9.999184663076921e+00
0	 1.250000000000000e+01	 2.999999999999998e+01	 9.999051193846149e+00
0	 1.250000000000000e+01	 3.062499999999998e+01	 9.998925229230764e+00
0	 1.250000000000000e+01	 3.125000000000000e+01	 9.998806769230765e+00
0	 6.250000000000000e+00	 3.125000000000000e+01	 9.997634307692309e+00
0	 6.250000000000000e+00	 3.187500000000000e+01	 9.997603101538466e+00
0	 6.250000000000001e+00	 3.250000000000001e+01	 9.997601729230766e+00
0	 6.250000000000000e+00	 3.312499999999999e+01	 9.997630190769231e+00
0	 6.250000000000001e+00	 3.374999999999999e+01	 9.997688486153844e+00
0	 6.250000000000000e+00	 3.437499999999999e+01	 9.997776615384611e+00
0	 6.250000000000000e+00	 3.499999999999999e+01	 9.997894578461541e+00
0	 6.250000000000000e+00	 3.562499999999999e+01	 9.998042375384621e+00
0	 6.250000000000000e+00	 3.624999999999998e+01	 9.998220006153844e+00
0	 6.250000000000000e+00	 3.687499999999998e+01	 9.998427470769215e+00
0	 6.250000000000000e+00	 3.750000000000000e+01	 9.998664769230770e+00
0	 6.875000000000000e+00	 3.125000000000000e+01	 9.997556738461544e+00
0	 6.874999999999998e+00	 3.187499999999999e+01	 9.997568306461540e+00
0	 6.875000000000001e+00	 3.250000000000000e+01	 9.997605567384610e+00
0	 6.874999999999999e+00	 3.312499999999999e+01	 9.997668521230764e+00
0	 6.875000000000000e+00	 3.374999999999999e+01	 9.997757167999996e+00
0	 6.874999999999998e+00	 3.437499999999998e+01	 9.997871507692302e+00
0	 6.875000000000001e+00	 3.499999999999999e+01	 9.998011540307697e+00
0	 6.875000000000000e+00	 3.562499999999998e+01	 9.998177265846159e+00
0	 6.875000000000001e+00	 3.624999999999998e+01	 9.998368684307696e+00
0	 6.875000000000000e+00	 3.687499999999999e+01	 9.998585795692307e+00
0	 6.875000000000000e+00	 3.750000000000000e+01	 9.998828600000003e+00
0	 7.500000000000001e+00	 3.125000000000000e+01	 9.997522461538459e+00
0	 7.500000000000000e+00	 3.187499999999999e+01	 9.997571225230764e+00
0	 7.500000000000002e+00	 3.249999999999999e+01	 9.997641540923079e+00
0	 7.500000000000001e+00	 3.312500000000000e+01	 9.997733408615389e+00
0	 7.500000000000001e+00	 3.374999999999999e+01	 9.997846828307692e+00
0	 7.500000000000001e+00	 3.437499999999999e+01	 9.997981800000000e+00
0	 7.500000000000001e+00	 3.499999999999999e+01	 9.998138323692313e+00
0	 7.500000000000001e+00	 3.562499999999998e+01	 9.998316399384619e+00
0	 7.500000000000000e+00	 3.624999999999997e+01	 9.998516027076922e+00
0	 7.500000000000001e+00	 3.687499999999997e+01	 9.998737206769240e+00
0	 7.500000000000001e+00	 3.750000000000000e+01	 9.998979938461542e+00
0	 8.125000000000002e+00	 3.125000000000000e+01	 9.997531476923079e+00
0	 8.125000000000002e+00	 3.187500000000000e+01	 9.997611857846158e+00
0	 8.125000000000000e+00	 3.250000000000000e+01	 9.997709649846147e+00
0	 8.125000000000002e+00	 3.312499999999999e+01	 9.997824852923074e+00
0	 8.125000000000000e+00	 3.374999999999999e+01	 9.997957467076922e+00
0	 8.125000000000002e+00	 3.437499999999999e+01	 9.998107492307698e+00
0	 8.125000000000000e+00	 3.499999999999999e+01	 9.998274928615380e+00
0	 8.125000000000000e+00	 3.562499999999999e+01	 9.998459776000001e+00
0	 8.125000000000002e+00	 3.624999999999997e+01	 9.998662034461546e+00
0	 8.125000000000000e+00	 3.687499999999998e+01	 9.998881704000008e+00
0	 8.125000000000002e+00	 3.749999999999999e+01	 9.999118784615398e+00
0	 8.750000000000004e+00	 3.125000000000001e+01	 9.997583784615381e+00
0	 8.750000000000004e+00	 3.187500000000000e+01	 9.997690204307682e+00
0	 8.750000000000002e+00	 3.250000000000000e+01	 9.997809894153839e+00
0	 8.750000000000002e+00	 3.312500000000000e+01	 9.997942854153848e+00
0	 8.750000000000004e+00	 3.374999999999999e+01	 9.998089084307692e+00
0	 8.750000000000002e+00	 3.437499999999999e+01	 9.998248584615386e+00
0	 8.750000000000004e+00	 3.499999999999998e+01	 9.998421355076921e+00
0	 8.750000000000002e+00	 3.562499999999998e+01	 9.998607395692311e+00
0	 8.750000000000004e+00	 3.624999999999998e+01	 9.998806706461538e+00
0	 8.750000000000004e+00	 3.687499999999999e+01	 9.999019287384622e+00
0	 8.750000000000004e+00	 3.749999999999999e+01	 9.999245138461534e+00
0	 9.375000000000002e+00	 3.125000000000000e+01	 9.997679384615374e+00
0	 9.375000000000004e+00	 3.187500000000000e+01	 9.997806264615383e+00
0	 9.375000000000004e+00	 3.250000000000000e+01	 9.997942273846141e+00
0	 9.375000000000004e+00	 3.312500000000000e+01	 9.998087412307687e+00
0	 9.375000000000004e+00	 3.374999999999999e+01	 9.998241680000000e+00
0	 9.375000000000004e+00	 3.437500000000000e+01	 9.998405076923074e+00
0	 9.375000000000004e+00	 3.499999999999999e+01	 9.998577603076919e+00
0	 9.375000000000005e+00	 3.562499999999999e+01	 9.998759258461535e+00
0	 9.375000000000002e+00	 3.624999999999998e+01	 9.998950043076924e+00
0	 9.375000000000005e+00	 3.687499999999999e+01	 9.999149956923080e+00
0	 9.375000000000002e+00	 3.750000000000001e+01	 9.999358999999993e+00
0	 1.000000000000000e+01	 3.125000000000000e+01	 9.997818276923068e+00
0	 1.000000000000000e+01	 3.187500000000000e+01	 9.997960038769214e+00
0	 1.000000000000001e+01	 3.250000000000000e+01	 9.998106788923069e+00
0	 1.000000000000000e+01	 3.312499999999999e+01	 9.998258527384619e+00
0	 1.000000000000001e+01	 3.374999999999999e+01	 9.998415254153851e+00
0	 1.000000000000000e+01	 3.437499999999999e+01	 9.998576969230767e+00
0	 1.000000000000000e+01	 3.499999999999998e+01	 9.998743672615390e+00
0	 1.000000000000000e+01	 3.562499999999999e+01	 9.998915364307685e+00
0	 1.000000000000000e+01	 3.624999999999999e+01	 9.999092044307700e+00
0	 1.000000000000000e+01	 3.687499999999998e+01	 9.999273712615381e+00
0	 1.000000000000000e+01	 3.750000000000000e+01	 9.999460369230771e+00
0	 1.062500000000000e+01	 3.125000000000000e+01	 9.998000461538446e+00
0	 1.062500000000001e+01	 3.187500000000000e+01	 9.998151526769222e+00
0	 1.062500000000000e+01	 3.249999999999999e+01	 9.998303439384618e+00
0	 1.062500000000000e+01	 3.312499999999999e+01	 9.998456199384618e+00
0	 1.062500000000001e+01	 3.374999999999999e+01	 9.998609806769231e+00
0	 1.062500000000001e+01	 3.437500000000000e+01	 9.998764261538462e+00
0	 1.062500000000001e+01	 3.499999999999999e+01	 9.998919563692306e+00
0	 1.062500000000001e+01	 3.562499999999999e+01	 9.999075713230759e+00
0	 1.062500000000000e+01	 3.624999999999998e+01	 9.999232710153855e+00
0	 1.062500000000001e+01	 3.687499999999999e+01	 9.999390554461538e+00
0	 1.062500000000000e+01	 3.750000000000000e+01	 9.999549246153858e+00
0	 1.125000000000000e+01	 3.125000000000000e+01	 9.998225938461536e+00
0	 1.125000000000001e+01	 3.187500000000000e+01	 9.998380728615375e+00
0	 1.125000000000001e+01	 3.249999999999999e+01	 9.998532225230763e+00
0	 1.125000000000001e+01	 3.312499999999999e+01	 9.998680428307694e+00
0	 1.125000000000001e+01	 3.374999999999999e+01	 9.998825337846153e+00
0	 1.125000000000000e+01	 3.437499999999999e+01	 9.998966953846150e+00
0	 1.125000000000001e+01	 3.499999999999999e+01	 9.999105276307692e+00
0	 1.125000000000000e+01	 3.562499999999999e+01	 9.999240305230774e+00
0	 1.125000000000000e+01	 3.624999999999998e+01	 9.999372040615388e+00
0	 1.125000000000000e+01	 3.687499999999998e+01	 9.999500482461551e+00
0	 1.125000000000000e+01	 3.750000000000000e+01	 9.999625630769234e+00
0	 1.187500000000001e+01	 3.125000000000000e+01	 9.998494707692306e+00
0	 1.187500000000000e+01	 3.187499999999999e+01	 9.998647644307690e+00
0	 1.187500000000000e+01	 3.250000000000000e+01	 9.998793146461537e+00
0	 1.187500000000001e+01	 3.312500000000000e+01	 9.998931214153838e+00
0	 1.187500000000001e+01	 3.374999999999999e+01	 9.999061847384615e+00
0	 1.187500000000001e+01	 3.437499999999998e+01	 9.999185046153844e+00
0	 1.187500000000001e+01	 3.499999999999999e+01	 9.999300810461540e+00
0	 1.187500000000000e+01	 3.562499999999999e+01	 9.999409140307694e+00
0	 1.187500000000001e+01	 3.624999999999999e+01	 9.999510035692314e+00
0	 1.187500000000000e+01	 3.687499999999998e+01	 9.999603496615395e+00
0	 1.187500000000001e+01	 3.750000000000000e+01	 9.999689523076929e+00
0	 1.250000000000000e+01	 3.125000000000000e+01	 9.998806769230765e+00
0	 1.250000000000000e+01	 3.187500000000000e+01	 9.998952273846152e+00
0	 1.250000000000000e+01	 3.250000000000001e+01	 9.999086203076919e+00
0	 1.250000000000000e+01	 3.312499999999999e+01	 9.999208556923072e+00
0	 1.250000000000000e+01	 3.374999999999999e+01	 9.999319335384612e+00
0	 1.250000000000000e+01	 3.437499999999999e+01	 9.999418538461535e+00
0	 1.250000000000000e+01	 3.499999999999999e+01	 9.999506166153846e+00
0	 1.250000000000000e+01	 3.562499999999999e+01	 9.999582218461544e+00
0	 1.250000000000000e+01	 3.624999999999998e+01	 9.999646695384618e+00
0	 1.250000000000000e+01	 3.687499999999998e+01	 9.999699596923072e+00
0	 1.250000000000000e+01	 3.750000000000000e+01	 9.999740923076928e+00
0	 6.250000000000000e+00	 3.750000000000000e+01	 9.998664769230770e+00
0	 6.250000000000000e+00	 3.812500000000000e+01	 9.998796780000006e+00
0	 6.250000000000001e+00	 3.875000000000001e+01	 9.998923150769231e+00
0	 6.250000000000000e+00	 3.937499999999999e+01	 9.999043881538460e+00
0	 6.250000000000001e+00	 3.999999999999999e+01	 9.999158972307701e+00
0	 6.250000000000000e+00	 4.062499999999999e+01	 9.999268423076920e+00
0	 6.250000000000000e+00	 4.124999999999999e+01	 9.999372233846149e+00
0	 6.250000000000000e+00	 4.187499999999999e+01	 9.999470404615368e+00
0	 6.250000000000000e+00	 4.249999999999999e+01	 9.999562935384620e+00
0	 6.250000000000000e+00	 4.312499999999999e+01	 9.999649826153835e+00
0	 6.250000000000000e+00	 4.375000000000000e+01	 9.999731076923077e+00
0	 6.875000000000000e+00	 3.750000000000000e+01	 9.998828600000003e+00
0	 6.874999999999998e+00	 3.812499999999999e+01	 9.998936387846154e+00
0	 6.875000000000001e+00	 3.874999999999999e+01	 9.999039779076924e+00
0	 6.874999999999999e+00	 3.937499999999999e+01	 9.999138773692309e+00
0	 6.875000000000000e+00	 3.999999999999998e+01	 9.999233371692304e+00
0	 6.874999999999998e+00	 4.062499999999999e+01	 9.999323573076918e+00
0	 6.875000000000001e+00	 4.124999999999999e+01	 9.999409377846156e+00
0	 6.875000000000000e+00	 4.187499999999998e+01	 9.999490785999997e+00
0	 6.875000000000001e+00	 4.249999999999998e+01	 9.999567797538459e+00
0	 6.875000000000000e+00	 4.312499999999997e+01	 9.999640412461531e+00
0	 6.875000000000000e+00	 4.375000000000000e+01	 9.999708630769224e+00
0	 7.500000000000001e+00	 3.750000000000000e+01	 9.998979938461542e+00
0	 7.500000000000000e+00	 3.812500000000000e+01	 9.999065549538461e+00
0	 7.500000000000002e+00	 3.874999999999999e+01	 9.999148007384616e+00
0	 7.500000000000001e+00	 3.937499999999999e+01	 9.999227312000002e+00
0	 7.500000000000001e+00	 3.999999999999999e+01	 9.999303463384615e+00
0	 7.500000000000001e+00	 4.062499999999999e+01	 9.999376461538461e+00
0	 7.500000000000001e+00	 4.124999999999998e+01	 9.999446306461534e+00
0	 7.500000000000001e+00	 4.187499999999999e+01	 9.999512998153840e+00
0	 7.500000000000000e+00	 4.249999999999998e+01	 9.999576536615390e+00
0	 7.500000000000001e+00	 4.312499999999997e+01	 9.999636921846156e+00
0	 7.500000000000001e+00	 4.375000000000000e+01	 9.999694153846157e+00
0	 8.125000000000002e+00	 3.749999999999999e+01	 9.999118784615398e+00
0	 8.125000000000002e+00	 3.812500000000001e+01	 9.999184265076922e+00
0	 8.125000000000000e+00	 3.875000000000000e+01	 9.999247835692310e+00
0	 8.125000000000002e+00	 3.937499999999999e+01	 9.999309496461546e+00
0	 8.125000000000000e+00	 3.999999999999998e+01	 9.999369247384621e+00
0	 8.125000000000002e+00	 4.062499999999999e+01	 9.999427088461541e+00
0	 8.125000000000000e+00	 4.124999999999999e+01	 9.999483019692308e+00
0	 8.125000000000000e+00	 4.187499999999998e+01	 9.999537041076916e+00
0	 8.125000000000002e+00	 4.249999999999998e+01	 9.999589152615389e+00
0	 8.125000000000000e+00	 4.312499999999997e+01	 9.999639354307693e+00
0	 8.125000000000002e+00	 4.374999999999999e+01	 9.999687646153834e+00
0	 8.750000000000004e+00	 3.749999999999999e+01	 9.999245138461534e+00
0	 8.750000000000004e+00	 3.812500000000001e+01	 9.999292534461530e+00
0	 8.750000000000002e+00	 3.875000000000000e+01	 9.999339264000003e+00
0	 8.750000000000002e+00	 3.937499999999999e+01	 9.999385327076926e+00
0	 8.750000000000004e+00	 3.999999999999999e+01	 9.999430723692306e+00
0	 8.750000000000002e+00	 4.062499999999999e+01	 9.999475453846156e+00
0	 8.750000000000004e+00	 4.125000000000000e+01	 9.999519517538452e+00
0	 8.750000000000002e+00	 4.187499999999998e+01	 9.999562914769232e+00
0	 8.750000000000004e+00	 4.249999999999999e+01	 9.999605645538455e+00
0	 8.750000000000004e+00	 4.312499999999999e+01	 9.999647709846148e+00
0	 8.750000000000004e+00	 4.375000000000000e+01	 9.999689107692298e+00
0	 9.375000000000002e+00	 3.750000000000001e+01	 9.999358999999993e+00
0	 9.375000000000004e+00	 3.812500000000001e+01	 9.999390357692310e+00
0	 9.375000000000004e+00	 3.874999999999999e+01	 9.999422292307692e+00
0	 9.375000000000004e+00	 3.937499999999999e+01	 9.999454803846151e+00
0	 9.375000000000004e+00	 3.999999999999999e+01	 9.999487892307691e+00
0	 9.375000000000004e+00	 4.062500000000000e+01	 9.999521557692312e+00
0	 9.375000000000004e+00	 4.124999999999999e+01	 9.999555800000000e+00
0	 9.375000000000005e+00	 4.187500000000000e+01	 9.999590619230766e+00
0	 9.375000000000002e+00	 4.249999999999999e+01	 9.999626015384598e+00
0	 9.375000000000005e+00	 4.312499999999998e+01	 9.999661988461540e+00
0	 9.375000000000002e+00	 4.375000000000000e+01	 9.999698538461539e+00
0	 1.000000000000000e+01	 3.750000000000000e+01	 9.999460369230771e+00
0	 1.000000000000000e+01	 3.812500000000000e+01	 9.999477734769229e+00
0	 1.000000000000001e+01	 3.874999999999999e+01	 9.999496920615391e+00
0	 1.000000000000000e+01	 3.937499999999999e+01	 9.999517926769226e+00
0	 1.000000000000001e+01	 4.000000000000000e+01	 9.999540753230772e+00
0	 1.000000000000000e+01	 4.062499999999999e+01	 9.999565399999994e+00
0	 1.000000000000000e+01	 4.124999999999998e+01	 9.999591867076919e+00
0	 1.000000000000000e+01	 4.187499999999999e+01	 9.999620154461535e+00
0	 1.000000000000000e+01	 4.249999999999999e+01	 9.999650262153860e+00
0	 1.000000000000000e+01	 4.312499999999998e+01	 9.999682190153827e+00
0	 1.000000000000000e+01	 4.375000000000000e+01	 9.999715938461527e+00
0	 1.062500000000000e+01	 3.750000000000000e+01	 9.999549246153858e+00
0	 1.062500000000001e+01	 3.812500000000000e+01	 9.999554665692315e+00
0	 1.062500000000000e+01	 3.874999999999999e+01	 9.999563148923077e+00
0	 1.062500000000000e+01	 3.937499999999999e+01	 9.999574695846155e+00
0	 1.062500000000001e+01	 3.999999999999999e+01	 9.999589306461537e+00
0	 1.062500000000001e+01	 4.062499999999999e+01	 9.999606980769228e+00
0	 1.062500000000001e+01	 4.124999999999999e+01	 9.999627718769233e+00
0	 1.062500000000001e+01	 4.187499999999999e+01	 9.999651520461535e+00
0	 1.062500000000000e+01	 4.249999999999998e+01	 9.999678385846149e+00
0	 1.062500000000001e+01	 4.312499999999999e+01	 9.999708314923071e+00
0	 1.062500000000000e+01	 4.375000000000000e+01	 9.999741307692307e+00
0	 1.125000000000000e+01	 3.750000000000000e+01	 9.999625630769234e+00
0	 1.125000000000001e+01	 3.812500000000000e+01	 9.999621150461543e+00
0	 1.125000000000001e+01	 3.875000000000000e+01	 9.999620977230776e+00
0	 1.125000000000001e+01	 3.937499999999999e+01	 9.999625111076929e+00
0	 1.125000000000001e+01	 3.999999999999999e+01	 9.999633551999999e+00
0	 1.125000000000000e+01	 4.062499999999999e+01	 9.999646299999998e+00
0	 1.125000000000001e+01	 4.124999999999999e+01	 9.999663355076917e+00
0	 1.125000000000000e+01	 4.187499999999999e+01	 9.999684717230757e+00
0	 1.125000000000000e+01	 4.249999999999999e+01	 9.999710386461537e+00
0	 1.125000000000000e+01	 4.312499999999998e+01	 9.999740362769217e+00
0	 1.125000000000000e+01	 4.375000000000001e+01	 9.999774646153833e+00
0	 1.187500000000001e+01	 3.750000000000000e+01	 9.999689523076929e+00
0	 1.187500000000000e+01	 3.812499999999999e+01	 9.999677189076925e+00
0	 1.187500000000000e+01	 3.874999999999999e+01	 9.999670405538465e+00
0	 1.187500000000001e+01	 3.937499999999999e+01	 9.999669172461539e+00
0	 1.187500000000001e+01	 3.999999999999999e+01	 9.999673489846153e+00
0	 1.187500000000001e+01	 4.062499999999998e+01	 9.999683357692302e+00
0	 1.187500000000001e+01	 4.124999999999999e+01	 9.999698775999999e+00
0	 1.187500000000000e+01	 4.187499999999998e+01	 9.999719744769230e+00
0	 1.187500000000001e+01	 4.249999999999998e+01	 9.999746263999992e+00
0	 1.187500000000000e+01	 4.312499999999999e+01	 9.999778333692294e+00
0	 1.187500000000001e+01	 4.375000000000000e+01	 9.999815953846147e+00
0	 1.250000000000000e+01	 3.750000000000000e+01	 9.999740923076928e+00
0	 1.250000000000000e+01	 3.812500000000000e+01	 9.999722781538466e+00
0	 1.250000000000000e+01	 3.875000000000001e+01	 9.999711433846160e+00
0	 1.250000000000000e+01	 3.937499999999999e+01	 9.999706879999998e+00
0	 1.250000000000000e+01	 3.999999999999999e+01	 9.999709120000002e+00
0	 1.250000000000000e+01	 4.062499999999999e+01	 9.999718153846150e+00
0	 1.250000000000000e+01	 4.124999999999999e+01	 9.999733981538451e+00
0	 1.250000000000000e+01	 4.187499999999999e+01	 9.999756603076904e+00
0	 1.250000000000000e+01	 4.249999999999999e+01	 9.999786018461533e+00
0	 1.250000000000000e+01	 4.312499999999999e+01	 9.999822227692292e+00
0	 1.250000000000000e+01	 4.375000000000000e+01	 9.999865230769222e+00
0	 6.250000000000000e+00	 4.375000000000000e+01	 9.999731076923077e+00
0	 6.250000000000000e+00	 4.437500000000000e+01	 9.999721698461538e+00
0	 6.250000000000000e+00	 4.499999999999999e+01	 9.999726239999996e+00
0	 6.250000000000000e+00	 4.562499999999999e+01	 9.999744701538457e+00
0	 6.250000000000001e+00	 4.624999999999999e+01	 9.999777083076914e+00
0	 6.250000000000000e+00	 4.687499999999999e+01	 9.999823384615382e+00
0	 6.250000000000000e+00	 4.749999999999999e+01	 9.999883606153842e+00
0	 6.250000000000000e+00	 4.812499999999999e+01	 9.999957747692317e+00
0	 6.250000000000001e+00	 4.874999999999999e+01	 1.000004580923076e+01
0	 6.250000000000000e+00	 4.937499999999999e+01	 1.000014779076920e+01
0	 6.250000000000000e+00	 5.000000000000000e+01	 1.000026369230769e+01
0	 6.875000000000000e+00	 4.375000000000000e+01	 9.999708630769224e+00
0	 6.875000000000000e+00	 4.437499999999999e+01	 9.999705418153843e+00
0	 6.874999999999999e+00	 4.499999999999999e+01	 9.999714681846147e+00
0	 6.875000000000000e+00	 4.562499999999999e+01	 9.999736421846146e+00
0	 6.875000000000002e+00	 4.625000000000000e+01	 9.999770638153837e+00
0	 6.875000000000001e+00	 4.687499999999999e+01	 9.999817330769229e+00
0	 6.875000000000001e+00	 4.749999999999999e+01	 9.999876499692299e+00
0	 6.875000000000002e+00	 4.812499999999999e+01	 9.999948144923057e+00
0	 6.875000000000001e+00	 4.874999999999998e+01	 1.000003226646151e+01
0	 6.874999999999998e+00	 4.937499999999997e+01	 1.000012886430769e+01
0	 6.875000000000001e+00	 5.000000000000000e+01	 1.000023793846152e+01
0	 7.500000000000001e+00	 4.375000000000000e+01	 9.999694153846157e+00
0	 7.500000000000001e+00	 4.437499999999999e+01	 9.999696396307682e+00
0	 7.500000000000003e+00	 4.499999999999999e+01	 9.999709671384608e+00
0	 7.500000000000002e+00	 4.562499999999999e+01	 9.999733979076915e+00
0	 7.500000000000002e+00	 4.624999999999999e+01	 9.999769319384612e+00
0	 7.500000000000002e+00	 4.687499999999999e+01	 9.999815692307685e+00
0	 7.500000000000003e+00	 4.749999999999999e+01	 9.999873097846148e+00
0	 7.500000000000002e+00	 4.812499999999999e+01	 9.999941535999987e+00
0	 7.499999999999999e+00	 4.874999999999996e+01	 1.000002100676921e+01
0	 7.500000000000002e+00	 4.937499999999998e+01	 1.000011151015384e+01
0	 7.500000000000003e+00	 5.000000000000000e+01	 1.000021304615383e+01
0	 8.125000000000002e+00	 4.374999999999999e+01	 9.999687646153834e+00
0	 8.125000000000002e+00	 4.437499999999999e+01	 9.999694632923077e+00
0	 8.125000000000000e+00	 4.499999999999999e+01	 9.999711208615377e+00
0	 8.125000000000002e+00	 4.562499999999999e+01	 9.999737373230758e+00
0	 8.125000000000000e+00	 4.624999999999998e+01	 9.999773126769220e+00
0	 8.125000000000002e+00	 4.687499999999999e+01	 9.999818469230753e+00
0	 8.125000000000000e+00	 4.749999999999998e+01	 9.999873400615371e+00
0	 8.125000000000002e+00	 4.812499999999998e+01	 9.999937920923086e+00
0	 8.125000000000004e+00	 4.874999999999999e+01	 1.000001203015383e+01
0	 8.125000000000004e+00	 4.937499999999999e+01	 1.000009572830769e+01
0	 8.125000000000004e+00	 5.000000000000001e+01	 1.000018901538457e+01
0	 8.750000000000004e+00	 4.375000000000000e+01	 9.999689107692298e+00
0	 8.750000000000002e+00	 4.437500000000000e+01	 9.999700127999990e+00
0	 8.750000000000002e+00	 4.500000000000000e+01	 9.999719293538455e+00
0	 8.750000000000004e+00	 4.562500000000000e+01	 9.999746604307695e+00
0	 8.750000000000004e+00	 4.624999999999999e+01	 9.999782060307677e+00
0	 8.750000000000002e+00	 4.687499999999999e+01	 9.999825661538470e+00
0	 8.750000000000002e+00	 4.749999999999999e+01	 9.999877408000005e+00
0	 8.750000000000005e+00	 4.812499999999999e+01	 9.999937299692274e+00
0	 8.750000000000004e+00	 4.874999999999999e+01	 1.000000533661537e+01
0	 8.750000000000000e+00	 4.937499999999997e+01	 1.000008151876925e+01
0	 8.750000000000002e+00	 5.000000000000001e+01	 1.000016584615383e+01
0	 9.375000000000002e+00	 4.375000000000000e+01	 9.999698538461539e+00
0	 9.375000000000004e+00	 4.437500000000000e+01	 9.999712881538446e+00
0	 9.375000000000004e+00	 4.500000000000000e+01	 9.999733926153835e+00
0	 9.375000000000004e+00	 4.562500000000000e+01	 9.999761672307676e+00
0	 9.375000000000002e+00	 4.624999999999999e+01	 9.999796119999983e+00
0	 9.375000000000004e+00	 4.687499999999999e+01	 9.999837269230765e+00
0	 9.375000000000004e+00	 4.749999999999999e+01	 9.999885119999993e+00
0	 9.375000000000002e+00	 4.812499999999999e+01	 9.999939672307681e+00
0	 9.375000000000002e+00	 4.874999999999998e+01	 1.000000092615383e+01
0	 9.375000000000004e+00	 4.937499999999998e+01	 1.000006888153846e+01
0	 9.375000000000004e+00	 5.000000000000000e+01	 1.000014353846150e+01
0	 1.000000000000000e+01	 4.375000000000000e+01	 9.999715938461527e+00
0	 1.000000000000000e+01	 4.437499999999999e+01	 9.999732893538447e+00
0	 1.000000000000000e+01	 4.499999999999999e+01	 9.999755106461537e+00
0	 1.000000000000000e+01	 4.562499999999999e+01	 9.999782577230761e+00
0	 1.000000000000000e+01	 4.624999999999999e+01	 9.999815305846141e+00
0	 1.000000000000000e+01	 4.687499999999998e+01	 9.999853292307698e+00
0	 1.000000000000000e+01	 4.749999999999999e+01	 9.999896536615367e+00
0	 1.000000000000001e+01	 4.812499999999999e+01	 9.999945038769232e+00
0	 1.000000000000000e+01	 4.874999999999998e+01	 9.999998798769219e+00
0	 1.000000000000000e+01	 4.937499999999999e+01	 1.000005781661536e+01
0	 1.000000000000000e+01	 5.000000000000000e+01	 1.000012209230770e+01
0	 1.062500000000000e+01	 4.375000000000000e+01	 9.999741307692307e+00
0	 1.062500000000001e+01	 4.437500000000001e+01	 9.999760163999989e+00
0	 1.062500000000001e+01	 4.499999999999999e+01	 9.999782834461524e+00
0	 1.062500000000000e+01	 4.562500000000000e+01	 9.999809319076904e+00
0	 1.062500000000001e+01	 4.624999999999999e+01	 9.999839617846146e+00
0	 1.062500000000000e+01	 4.687499999999999e+01	 9.999873730769231e+00
0	 1.062500000000000e+01	 4.749999999999998e+01	 9.999911657846152e+00
0	 1.062500000000001e+01	 4.812500000000000e+01	 9.999953399076919e+00
0	 1.062500000000000e+01	 4.874999999999998e+01	 9.999998954461525e+00
0	 1.062500000000000e+01	 4.937499999999998e+01	 1.000004832399999e+01
0	 1.062500000000000e+01	 5.000000000000000e+01	 1.000010150769229e+01
0	 1.125000000000000e+01	 4.375000000000001e+01	 9.999774646153833e+00
0	 1.125000000000000e+01	 4.437499999999999e+01	 9.999794692923070e+00
0	 1.125000000000001e+01	 4.499999999999999e+01	 9.999817110153833e+00
0	 1.125000000000001e+01	 4.562500000000000e+01	 9.999841897846132e+00
0	 1.125000000000001e+01	 4.625000000000000e+01	 9.999869055999980e+00
0	 1.125000000000000e+01	 4.687499999999999e+01	 9.999898584615377e+00
0	 1.125000000000001e+01	 4.749999999999999e+01	 9.999930483692296e+00
0	 1.125000000000000e+01	 4.812499999999999e+01	 9.999964753230762e+00
0	 1.125000000000001e+01	 4.874999999999998e+01	 1.000000139323075e+01
0	 1.125000000000000e+01	 4.937499999999998e+01	 1.000004040369232e+01
0	 1.125000000000001e+01	 5.000000000000000e+01	 1.000008178461537e+01
0	 1.187500000000001e+01	 4.375000000000000e+01	 9.999815953846147e+00
0	 1.187500000000001e+01	 4.437500000000000e+01	 9.999836480307682e+00
0	 1.187500000000001e+01	 4.500000000000000e+01	 9.999857933538452e+00
0	 1.187500000000001e+01	 4.562500000000000e+01	 9.999880313538455e+00
0	 1.187500000000000e+01	 4.624999999999999e+01	 9.999903620307670e+00
0	 1.187500000000000e+01	 4.687499999999999e+01	 9.999927853846154e+00
0	 1.187500000000001e+01	 4.749999999999999e+01	 9.999953014153849e+00
0	 1.187500000000001e+01	 4.812499999999999e+01	 9.999979101230764e+00
0	 1.187500000000000e+01	 4.874999999999998e+01	 1.000000611507691e+01
0	 1.187500000000001e+01	 4.937499999999996e+01	 1.000003405569229e+01
0	 1.187500000000001e+01	 5.000000000000000e+01	 1.000006292307690e+01
0	 1.250000000000000e+01	 4.375000000000000e+01	 9.999865230769222e+00
0	 1.250000000000000e+01	 4.437500000000000e+01	 9.999885526153836e+00
0	 1.250000000000000e+01	 4.499999999999999e+01	 9.999905304615375e+00
0	 1.250000000000000e+01	 4.562499999999999e+01	 9.999924566153840e+00
0	 1.250000000000000e+01	 4.624999999999999e+01	 9.999943310769218e+00
0	 1.250000000000000e+01	 4.687499999999999e+01	 9.999961538461532e+00
0	 1.250000000000000e+01	 4.749999999999999e+01	 9.999979249230758e+00
0	 1.250000000000000e+01	 4.812499999999999e+01	 9.999996443076936e+00
0	 1.250000000000000e+01	 4.874999999999999e+01	 1.000001311999999e+01
0	 1.250000000000000e+01	 4.937499999999999e+01	 1.000002927999998e+01
0	 1.250000000000000e+01	 5.000000000000000e+01	 1.000004492307692e+01
0	 1.250000000000000e+01	 0.000000000000000e+00	 9.997917538461538e+00
0	 1.250000000000000e+01	 6.250000000000000e-01	 1.000463391692307e+01
0	 1.250000000000000e+01	 1.250000000000000e+00	 1.001064176000000e+01
0	 1.250000000000000e+01	 1.875000000000000e+00	 1.001594106769231e+01
0	 1.250000000000000e+01	 2.500000000000000e+00	 1.002053184000000e+01
0	 1.250000000000000e+01	 3.125000000000000e+00	 1.002441407692307e+01
0	 1.250000000000000e+01	 3.750000000000000e+00	 1.002758777846153e+01
0	 1.250000000000000e+01	 4.375000000000000e+00	 1.003005294461538e+01
0	 1.250000000000000e+01	 5.000000000000000e+00	 1.003180957538461e+01
0	 1.250000000000000e+01	 5.624999999999999e+00	 1.003285767076923e+01
0	 1.250000000000000e+01	 6.250000000000000e+00	 1.003319723076923e+01
0	 1.312500000000000e+01	 0.000000000000000e+00	 1.000197762153846e+01
0	 1.312500000000000e+01	 6.250000000000001e-01	 1.000730100646154e+01
0	 1.312500000000000e+01	 1.250000000000000e+00	 1.001199920984615e+01
0	 1.312500000000000e+01	 1.875000000000000e+00	 1.001607223169231e+01
0	 1.312500000000000e+01	 2.500000000000000e+00	 1.001952007200000e+01
0	 1.312500000000000e+01	 3.125000000000000e+00	 1.002234273076923e+01
0	 1.312500000000000e+01	 3.750000000000000e+00	 1.002454020800000e+01
0	 1.312500000000000e+01	 4.375000000000001e+00	 1.002611250369231e+01
0	 1.312500000000000e+01	 4.999999999999999e+00	 1.002705961784615e+01
0	 1.312500000000000e+01	 5.624999999999999e+00	 1.002738155046154e+01
0	 1.312500000000000e+01	 6.250000000000000e+00	 1.002707830153846e+01
0	 1.375000000000000e+01	 0.000000000000000e+00	 1.000540408615384e+01
0	 1.375000000000000e+01	 6.250000000000001e-01	 1.000946957969230e+01
0	 1.375000000000000e+01	 1.250000000000000e+00	 1.001299324553846e+01
0	 1.375000000000000e+01	 1.875000000000000e+00	 1.001597508369230e+01
0	 1.375000000000000e+01	 2.500000000000000e+00	 1.001841509415385e+01
0	 1.375000000000000e+01	 3.125000000000000e+00	 1.002031327692308e+01
0	 1.375000000000000e+01	 3.750000000000000e+00	 1.002166963200000e+01
0	 1.375000000000000e+01	 4.375000000000000e+00	 1.002248415938461e+01
0	 1.375000000000000e+01	 5.000000000000000e+00	 1.002275685907692e+01
0	 1.375000000000000e+01	 5.625000000000001e+00	 1.002248773107692e+01
0	 1.375000000000000e+01	 6.250000000000000e+00	 1.002167677538461e+01
0	 1.437500000000000e+01	 0.000000000000000e+00	 1.000819693230769e+01
0	 1.437500000000000e+01	 6.250000000000000e-01	 1.001113963661538e+01
0	 1.437500000000001e+01	 1.250000000000000e+00	 1.001362386707692e+01
0	 1.437500000000000e+01	 1.875000000000000e+00	 1.001564962369231e+01
0	 1.437500000000001e+01	 2.500000000000001e+00	 1.001721690646154e+01
0	 1.437500000000000e+01	 3.125000000000000e+00	 1.001832571538461e+01
0	 1.437500000000000e+01	 3.750000000000000e+00	 1.001897605046154e+01
0	 1.437500000000000e+01	 4.374999999999999e+00	 1.001916791169231e+01
0	 1.437500000000000e+01	 5.000000000000000e+00	 1.001890129907692e+01
0	 1.437500000000000e+01	 5.624999999999999e+00	 1.001817621261538e+01
0	 1.437500000000000e+01	 6.250000000000000e+00	 1.001699265230769e+01
0	 1.500000000000000e+01	 0.000000000000000e+00	 1.001035616000000e+01
0	 1.500000000000000e+01	 6.249999999999999e-01	 1.001231117723077e+01
0	 1.500000000000000e+01	 1.250000000000000e+00	 1.001389107446154e+01
0	 1.500000000000000e+01	 1.875000000000000e+00	 1.001509585169230e+01
0	 1.500000000000000e+01	 2.500000000000000e+00	 1.001592550892307e+01
0	 1.500000000000000e+01	 3.125000000000000e+00	 1.001638004615384e+01
0	 1.500000000000001e+01	 3.750000000000000e+00	 1.001645946338462e+01
0	 1.500000000000000e+01	 4.375000000000000e+00	 1.001616376061538e+01
0	 1.500000000000000e+01	 4.999999999999999e+00	 1.001549293784615e+01
0	 1.500000000000000e+01	 5.625000000000000e+00	 1.001444699507692e+01
0	 1.500000000000000e+01	 6.250000000000001e+00	 1.001302593230769e+01
0	 1.562500000000000e+01	 0.000000000000000e+00	 1.001188176923077e+01
0	 1.562500000000000e+01	 6.249999999999998e-01	 1.001298420153846e+01
0	 1.562500000000000e+01	 1.250000000000000e+00	 1.001379486769230e+01
0	 1.562500000000000e+01	 1.875000000000000e+00	 1.001431376769230e+01
0	 1.562500000000000e+01	 2.500000000000000e+00	 1.001454090153846e+01
0	 1.562500000000001e+01	 3.125000000000000e+00	 1.001447626923077e+01
0	 1.562500000000000e+01	 3.750000000000000e+00	 1.001411987076923e+01
0	 1.562500000000001e+01	 4.375000000000002e+00	 1.001347170615384e+01
0	 1.562500000000000e+01	 4.999999999999999e+00	 1.001253177538461e+01
0	 1.562500000000001e+01	 5.625000000000000e+00	 1.001130007846154e+01
0	 1.562500000000000e+01	 6.249999999999999e+00	 1.000977661538461e+01
0	 1.625000000000000e+01	 0.000000000000000e+00	 1.001277376000000e+01
0	 1.625000000000000e+01	 6.249999999999998e-01	 1.001315870953846e+01
0	 1.625000000000000e+01	 1.250000000000000e+00	 1.001333524676923e+01
0	 1.625000000000000e+01	 1.875000000000001e+00	 1.001330337169231e+01
0	 1.625000000000000e+01	 2.500000000000000e+00	 1.001306308430769e+01
0	 1.625000000000000e+01	 3.125000000000000e+00	 1.001261438461538e+01
0	 1.625000000000000e+01	 3.750000000000000e+00	 1.001195727261539e+01
0	 1.625000000000001e+01	 4.375000000000001e+00	 1.001109174830769e+01
0	 1.625000000000001e+01	 4.999999999999999e+00	 1.001001781169230e+01
0	 1.625000000000001e+01	 5.625000000000000e+00	 1.000873546276923e+01
0	 1.625000000000000e+01	 6.250000000000001e+00	 1.000724470153846e+01
0	 1.687500000000000e+01	 0.000000000000000e+00	 1.001303213230769e+01
0	 1.687500000000000e+01	 6.250000000000000e-01	 1.001283470123077e+01
0	 1.687500000000000e+01	 1.250000000000000e+00	 1.001251221169231e+01
0	 1.687500000000000e+01	 1.875000000000000e+00	 1.001206466369231e+01
0	 1.687500000000001e+01	 2.500000000000000e+00	 1.001149205723077e+01
0	 1.687500000000000e+01	 3.125000000000000e+00	 1.001079439230769e+01
0	 1.687500000000000e+01	 3.750000000000000e+00	 1.000997166892308e+01
0	 1.687500000000000e+01	 4.375000000000000e+00	 1.000902388707692e+01
0	 1.687500000000001e+01	 5.000000000000000e+00	 1.000795104676923e+01
0	 1.687500000000001e+01	 5.625000000000000e+00	 1.000675314800000e+01
0	 1.687500000000000e+01	 6.250000000000000e+00	 1.000543019076923e+01
0	 1.750000000000000e+01	 0.000000000000000e+00	 1.001265688615385e+01
0	 1.750000000000000e+01	 6.249999999999999e-01	 1.001201217661538e+01
0	 1.750000000000001e+01	 1.250000000000000e+00	 1.001132576246154e+01
0	 1.750000000000000e+01	 1.875000000000000e+00	 1.001059764369230e+01
0	 1.750000000000001e+01	 2.500000000000000e+00	 1.000982782030769e+01
0	 1.750000000000000e+01	 3.125000000000000e+00	 1.000901629230769e+01
0	 1.750000000000000e+01	 3.750000000000000e+00	 1.000816305969231e+01
0	 1.750000000000001e+01	 4.375000000000001e+00	 1.000726812246154e+01
0	 1.750000000000000e+01	 5.000000000000000e+00	 1.000633148061538e+01
0	 1.750000000000000e+01	 5.624999999999999e+00	 1.000535313415385e+01
0	 1.750000000000000e+01	 6.250000000000000e+00	 1.000433308307692e+01
0	 1.812500000000001e+01	 0.000000000000000e+00	 1.001164802153846e+01
0	 1.812500000000001e+01	 6.250000000000000e-01	 1.001069113569230e+01
0	 1.812500000000000e+01	 1.250000000000000e+00	 1.000977589907692e+01
0	 1.812500000000000e+01	 1.875000000000000e+00	 1.000890231169230e+01
0	 1.812500000000001e+01	 2.500000000000000e+00	 1.000807037353846e+01
0	 1.812500000000001e+01	 3.125000000000000e+00	 1.000728008461538e+01
0	 1.812500000000001e+01	 3.750000000000000e+00	 1.000653144492308e+01
0	 1.812500000000000e+01	 4.375000000000000e+00	 1.000582445446154e+01
0	 1.812500000000001e+01	 5.000000000000000e+00	 1.000515911323077e+01
0	 1.812500000000001e+01	 5.624999999999999e+00	 1.000453542123077e+01
0	 1.812500000000000e+01	 6.250000000000001e+00	 1.000395337846154e+01
0	 1.875000000000000e+01	 0.000000000000000e+00	 1.001000553846154e+01
0	 1.875000000000000e+01	 6.250000000000000e-01	 1.000887157846154e+01
0	 1.875000000000000e+01	 1.250000000000000e+00	 1.000786262153846e+01
0	 1.875000000000000e+01	 1.875000000000000e+00	 1.000697866769231e+01
0	 1.875000000000000e+01	 2.500000000000000e+00	 1.000621971692308e+01
0	 1.875000000000000e+01	 3.125000000000000e+00	 1.000558576923077e+01
0	 1.875000000000000e+01	 3.750000000000000e+00	 1.000507682461538e+01
0	 1.875000000000000e+01	 4.375000000000000e+00	 1.000469288307692e+01
0	 1.875000000000000e+01	 5.000000000000000e+00	 1.000443394461539e+01
0	 1.875000000000000e+01	 5.624999999999999e+00	 1.000430000923077e+01
0	 1.875000000000000e+01	 6.250000000000000e+00	 1.000429107692308e+01
0	 1.250000000000000e+01	 6.250000000000000e+00	 1.003319723076923e+01
0	 1.250000000000000e+01	 6.875000000000000e+00	 1.002852005846154e+01
0	 1.250000000000000e+01	 7.500000000000002e+00	 1.002434315692307e+01
0	 1.250000000000000e+01	 8.125000000000004e+00	 1.002066652615384e+01
0	 1.250000000000000e+01	 8.750000000000004e+00	 1.001749016615384e+01
0	 1.250000000000000e+01	 9.375000000000004e+00	 1.001481407692307e+01
0	 1.250000000000000e+01	 1.000000000000000e+01	 1.001263825846153e+01
0	 1.250000000000000e+01	 1.062500000000000e+01	 1.001096271076923e+01
0	 1.250000000000000e+01	 1.125000000000001e+01	 1.000978743384615e+01
0	 1.250000000000000e+01	 1.187500000000001e+01	 1.000911242769230e+01
0	 1.250000000000000e+01	 1.250000000000000e+01	 1.000893769230769e+01
0	 1.312500000000000e+01	 6.250000000000000e+00	 1.002707830153846e+01
0	 1.312500000000000e+01	 6.874999999999999e+00	 1.002341604000000e+01
0	 1.312500000000000e+01	 7.500000000000000e+00	 1.002019734738461e+01
0	 1.312500000000000e+01	 8.125000000000002e+00	 1.001742222369231e+01
0	 1.312500000000000e+01	 8.750000000000000e+00	 1.001509066892308e+01
0	 1.312500000000000e+01	 9.375000000000002e+00	 1.001320268307692e+01
0	 1.312500000000000e+01	 1.000000000000000e+01	 1.001175826615384e+01
0	 1.312500000000000e+01	 1.062500000000000e+01	 1.001075741815385e+01
0	 1.312500000000000e+01	 1.125000000000001e+01	 1.001020013907692e+01
0	 1.312500000000000e+01	 1.187500000000000e+01	 1.001008642892307e+01
0	 1.312500000000000e+01	 1.250000000000000e+01	 1.001041628769230e+01
0	 1.375000000000000e+01	 6.250000000000000e+00	 1.002167677538461e+01
0	 1.375000000000000e+01	 6.875000000000002e+00	 1.001893104338462e+01
0	 1.375000000000000e+01	 7.500000000000003e+00	 1.001657217846154e+01
0	 1.375000000000000e+01	 8.125000000000000e+00	 1.001460018061538e+01
0	 1.375000000000000e+01	 8.750000000000002e+00	 1.001301504984615e+01
0	 1.375000000000000e+01	 9.375000000000005e+00	 1.001181678615384e+01
0	 1.375000000000000e+01	 1.000000000000001e+01	 1.001100538953846e+01
0	 1.375000000000000e+01	 1.062500000000001e+01	 1.001058085999999e+01
0	 1.375000000000000e+01	 1.125000000000000e+01	 1.001054319753846e+01
0	 1.375000000000000e+01	 1.187500000000001e+01	 1.001089240215384e+01
0	 1.375000000000000e+01	 1.250000000000000e+01	 1.001162847384616e+01
0	 1.437500000000000e+01	 6.250000000000000e+00	 1.001699265230769e+01
0	 1.437500000000000e+01	 6.875000000000000e+00	 1.001506506861539e+01
0	 1.437500000000000e+01	 7.500000000000002e+00	 1.001346765015384e+01
0	 1.437500000000000e+01	 8.125000000000000e+00	 1.001220039692307e+01
0	 1.437500000000000e+01	 8.750000000000002e+00	 1.001126330892308e+01
0	 1.437500000000000e+01	 9.375000000000004e+00	 1.001065638615384e+01
0	 1.437500000000000e+01	 1.000000000000000e+01	 1.001037962861538e+01
0	 1.437500000000000e+01	 1.062500000000001e+01	 1.001043303630769e+01
0	 1.437500000000000e+01	 1.125000000000000e+01	 1.001081660923077e+01
0	 1.437500000000000e+01	 1.187500000000000e+01	 1.001153034738461e+01
0	 1.437500000000000e+01	 1.250000000000000e+01	 1.001257425076923e+01
0	 1.500000000000000e+01	 6.250000000000001e+00	 1.001302593230769e+01
0	 1.500000000000000e+01	 6.874999999999997e+00	 1.001181811569230e+01
0	 1.500000000000000e+01	 7.500000000000001e+00	 1.001088376246154e+01
0	 1.500000000000000e+01	 8.125000000000002e+00	 1.001022287261538e+01
0	 1.500000000000000e+01	 8.750000000000002e+00	 1.000983544615384e+01
0	 1.500000000000000e+01	 9.375000000000004e+00	 1.000972148307692e+01
0	 1.500000000000000e+01	 1.000000000000001e+01	 1.000988098338461e+01
0	 1.500000000000000e+01	 1.062500000000001e+01	 1.001031394707692e+01
0	 1.500000000000000e+01	 1.125000000000001e+01	 1.001102037415384e+01
0	 1.500000000000000e+01	 1.187500000000001e+01	 1.001200026461539e+01
0	 1.500000000000000e+01	 1.250000000000000e+01	 1.001325361846154e+01
0	 1.562500000000000e+01	 6.249999999999999e+00	 1.000977661538461e+01
0	 1.562500000000000e+01	 6.875000000000000e+00	 1.000919018461538e+01
0	 1.562500000000000e+01	 7.500000000000001e+00	 1.000882051538462e+01
0	 1.562500000000000e+01	 8.125000000000002e+00	 1.000866760769231e+01
0	 1.562500000000000e+01	 8.750000000000004e+00	 1.000873146153846e+01
0	 1.562500000000001e+01	 9.375000000000002e+00	 1.000901207692307e+01
0	 1.562500000000000e+01	 1.000000000000000e+01	 1.000950945384615e+01
0	 1.562500000000000e+01	 1.062500000000001e+01	 1.001022359230769e+01
0	 1.562500000000000e+01	 1.125000000000001e+01	 1.001115449230769e+01
0	 1.562500000000000e+01	 1.187500000000000e+01	 1.001230215384616e+01
0	 1.562500000000000e+01	 1.250000000000000e+01	 1.001366657692308e+01
0	 1.625000000000000e+01	 6.250000000000001e+00	 1.000724470153846e+01
0	 1.625000000000000e+01	 6.875000000000001e+00	 1.000718127538461e+01
0	 1.625000000000000e+01	 7.500000000000002e+00	 1.000727790892307e+01
0	 1.625000000000001e+01	 8.125000000000004e+00	 1.000753460215384e+01
0	 1.625000000000000e+01	 8.750000000000004e+00	 1.000795135507692e+01
0	 1.625000000000000e+01	 9.375000000000004e+00	 1.000852816769230e+01
0	 1.625000000000000e+01	 1.000000000000000e+01	 1.000926504000000e+01
0	 1.625000000000001e+01	 1.062500000000001e+01	 1.001016197200000e+01
0	 1.625000000000001e+01	 1.125000000000001e+01	 1.001121896369230e+01
0	 1.625000000000000e+01	 1.187500000000000e+01	 1.001243601507692e+01
0	 1.625000000000000e+01	 1.250000000000000e+01	 1.001381312615384e+01
0	 1.687500000000000e+01	 6.250000000000000e+00	 1.000543019076923e+01
0	 1.687500000000000e+01	 6.875000000000001e+00	 1.000579138800000e+01
0	 1.687500000000001e+01	 7.500000000000003e+00	 1.000625594307692e+01
0	 1.687500000000000e+01	 8.125000000000000e+00	 1.000682385600000e+01
0	 1.687500000000000e+01	 8.750000000000002e+00	 1.000749512676923e+01
0	 1.687500000000001e+01	 9.375000000000004e+00	 1.000826975538461e+01
0	 1.687500000000000e+01	 1.000000000000000e+01	 1.000914774184615e+01
0	 1.687500000000000e+01	 1.062500000000000e+01	 1.001012908615384e+01
0	 1.687500000000000e+01	 1.125000000000001e+01	 1.001121378830769e+01
0	 1.687500000000000e+01	 1.187500000000001e+01	 1.001240184830769e+01
0	 1.687500000000000e+01	 1.250000000000000e+01	 1.001369326615384e+01
0	 1.750000000000000e+01	 6.250000000000000e+00	 1.000433308307692e+01
0	 1.750000000000000e+01	 6.875000000000000e+00	 1.000502052246154e+01
0	 1.750000000000000e+01	 7.500000000000002e+00	 1.000575461784615e+01
0	 1.750000000000000e+01	 8.125000000000002e+00	 1.000653536923077e+01
0	 1.750000000000000e+01	 8.750000000000002e+00	 1.000736277661538e+01
0	 1.750000000000000e+01	 9.375000000000002e+00	 1.000823684000000e+01
0	 1.750000000000001e+01	 1.000000000000001e+01	 1.000915755938462e+01
0	 1.750000000000001e+01	 1.062500000000001e+01	 1.001012493476923e+01
0	 1.750000000000001e+01	 1.125000000000000e+01	 1.001113896615384e+01
0	 1.750000000000001e+01	 1.187500000000001e+01	 1.001219965353846e+01
0	 1.750000000000000e+01	 1.250000000000000e+01	 1.001330699692308e+01
0	 1.812500000000000e+01	 6.250000000000001e+00	 1.000395337846154e+01
0	 1.812500000000000e+01	 6.875000000000001e+00	 1.000486867876923e+01
0	 1.812500000000001e+01	 7.500000000000002e+00	 1.000577393323077e+01
0	 1.812500000000000e+01	 8.125000000000002e+00	 1.000666914184615e+01
0	 1.812500000000000e+01	 8.750000000000000e+00	 1.000755430461538e+01
0	 1.812500000000000e+01	 9.375000000000002e+00	 1.000842942153846e+01
0	 1.812500000000000e+01	 1.000000000000000e+01	 1.000929449261538e+01
0	 1.812500000000000e+01	 1.062500000000000e+01	 1.001014951784615e+01
0	 1.812500000000001e+01	 1.125000000000001e+01	 1.001099449723077e+01
0	 1.812500000000000e+01	 1.187500000000001e+01	 1.001182943076924e+01
0	 1.812500000000000e+01	 1.250000000000000e+01	 1.001265431846154e+01
0	 1.875000000000000e+01	 6.250000000000000e+00	 1.000429107692308e+01
0	 1.875000000000000e+01	 6.875000000000000e+00	 1.000533585692308e+01
0	 1.875000000000000e+01	 7.500000000000002e+00	 1.000631388923077e+01
0	 1.875000000000000e+01	 8.125000000000004e+00	 1.000722517384615e+01
0	 1.875000000000000e+01	 8.750000000000004e+00	 1.000806971076923e+01
0	 1.875000000000000e+01	 9.375000000000004e+00	 1.000884750000000e+01
0	 1.875000000000000e+01	 1.000000000000000e+01	 1.000955854153846e+01
0	 1.875000000000000e+01	 1.062500000000000e+01	 1.001020283538462e+01
0	 1.875000000000000e+01	 1.125000000000001e+01	 1.001078038153846e+01
0	 1.875000000000000e+01	 1.187500000000001e+01	 1.001129117999999e+01
0	 1.875000000000000e+01	 1.250000000000000e+01	 1.001173523076923e+01
0	 1.250000000000000e+01	 1.250000000000000e+01	 1.000893769230769e+01
0	 1.250000000000000e+01	 1.312500000000000e+01	 1.000841716923077e+01
0	 1.250000000000000e+01	 1.375000000000000e+01	 1.000779852307692e+01
0	 1.250000000000000e+01	 1.437500000000000e+01	 1.000708175384615e+01
0	 1.250000000000000e+01	 1.500000000000000e+01	 1.000626686153846e+01
0	 1.250000000000000e+01	 1.562500000000000e+01	 1.000535384615385e+01
0	 1.250000000000000e+01	 1.625000000000000e+01	 1.000434270769231e+01
0	 1.250000000000000e+01	 1.687500000000000e+01	 1.000323344615384e+01
0	 1.250000000000000e+01	 1.750000000000001e+01	 1.000202606153846e+01
0	 1.250000000000000e+01	 1.812500000000001e+01	 1.000072055384615e+01
0	 1.250000000000000e+01	 1.875000000000000e+01	 9.999316923076920e+00
0	 1.312500000000000e+01	 1.250000000000000e+01	 1.001041628769230e+01
0	 1.312500000000000e+01	 1.312500000000000e+01	 1.000977000630769e+01
0	 1.312500000000000e+01	 1.375000000000000e+01	 1.000904298892307e+01
0	 1.312500000000000e+01	 1.437500000000000e+01	 1.000823523553846e+01
0	 1.312500000000000e+01	 1.500000000000000e+01	 1.000734674615384e+01
0	 1.312500000000000e+01	 1.562500000000000e+01	 1.000637752076923e+01
0	 1.312500000000000e+01	 1.625000000000000e+01	 1.000532755938461e+01
0	 1.312500000000000e+01	 1.687500000000000e+01	 1.000419686200000e+01
0	 1.312500000000000e+01	 1.750000000000000e+01	 1.000298542861538e+01
0	 1.312500000000000e+01	 1.812500000000001e+01	 1.000169325923077e+01
0	 1.312500000000000e+01	 1.875000000000000e+01	 1.000032035384615e+01
0	 1.375000000000000e+01	 1.250000000000000e+01	 1.001162847384616e+01
0	 1.375000000000000e+01	 1.312500000000000e+01	 1.001087282276923e+01
0	 1.375000000000000e+01	 1.375000000000000e+01	 1.001005382276923e+01
0	 1.375000000000000e+01	 1.437500000000000e+01	 1.000917147384616e+01
0	 1.375000000000000e+01	 1.500000000000000e+01	 1.000822577600000e+01
0	 1.375000000000000e+01	 1.562500000000001e+01	 1.000721672923076e+01
0	 1.375000000000000e+01	 1.625000000000000e+01	 1.000614433353846e+01
0	 1.375000000000000e+01	 1.687500000000001e+01	 1.000500858892308e+01
0	 1.375000000000000e+01	 1.750000000000000e+01	 1.000380949538461e+01
0	 1.375000000000000e+01	 1.812500000000001e+01	 1.000254705292307e+01
0	 1.375000000000000e+01	 1.875000000000000e+01	 1.000122126153846e+01
0	 1.437500000000000e+01	 1.250000000000000e+01	 1.001257425076923e+01
0	 1.437500000000000e+01	 1.312500000000000e+01	 1.001172561861539e+01
0	 1.437500000000000e+01	 1.375000000000000e+01	 1.001083102461538e+01
0	 1.437500000000000e+01	 1.437500000000000e+01	 1.000989046876923e+01
0	 1.437500000000000e+01	 1.500000000000000e+01	 1.000890395107692e+01
0	 1.437500000000000e+01	 1.562500000000001e+01	 1.000787147153846e+01
0	 1.437500000000000e+01	 1.625000000000000e+01	 1.000679303015384e+01
0	 1.437500000000000e+01	 1.687500000000000e+01	 1.000566862692308e+01
0	 1.437500000000000e+01	 1.750000000000000e+01	 1.000449826184615e+01
0	 1.437500000000000e+01	 1.812500000000000e+01	 1.000328193492307e+01
0	 1.437500000000000e+01	 1.875000000000000e+01	 1.000201964615385e+01
0	 1.500000000000000e+01	 1.250000000000000e+01	 1.001325361846154e+01
0	 1.500000000000000e+01	 1.312500000000000e+01	 1.001232839384615e+01
0	 1.500000000000000e+01	 1.375000000000000e+01	 1.001137459446154e+01
0	 1.500000000000000e+01	 1.437500000000000e+01	 1.001039222030769e+01
0	 1.500000000000000e+01	 1.500000000000000e+01	 1.000938127138461e+01
0	 1.500000000000000e+01	 1.562500000000000e+01	 1.000834174769230e+01
0	 1.500000000000000e+01	 1.625000000000000e+01	 1.000727364923077e+01
0	 1.500000000000000e+01	 1.687500000000001e+01	 1.000617697600000e+01
0	 1.500000000000000e+01	 1.750000000000000e+01	 1.000505172800000e+01
0	 1.500000000000000e+01	 1.812500000000001e+01	 1.000389790523077e+01
0	 1.500000000000000e+01	 1.875000000000000e+01	 1.000271550769230e+01
0	 1.562500000000000e+01	 1.250000000000000e+01	 1.001366657692308e+01
0	 1.562500000000000e+01	 1.312500000000000e+01	 1.001268114846153e+01
0	 1.562500000000000e+01	 1.375000000000000e+01	 1.001168453230769e+01
0	 1.562500000000000e+01	 1.437500000000000e+01	 1.001067672846154e+01
0	 1.562500000000000e+01	 1.500000000000000e+01	 1.000965773692307e+01
0	 1.562500000000001e+01	 1.562500000000001e+01	 1.000862755769231e+01
0	 1.562500000000000e+01	 1.625000000000000e+01	 1.000758619076923e+01
0	 1.562500000000000e+01	 1.687500000000001e+01	 1.000653363615384e+01
0	 1.562500000000000e+01	 1.750000000000000e+01	 1.000546989384615e+01
0	 1.562500000000000e+01	 1.812500000000000e+01	 1.000439496384616e+01
0	 1.562500000000000e+01	 1.875000000000000e+01	 1.000330884615385e+01
0	 1.625000000000000e+01	 1.250000000000000e+01	 1.001381312615384e+01
0	 1.625000000000000e+01	 1.312500000000000e+01	 1.001278388246154e+01
0	 1.625000000000000e+01	 1.375000000000000e+01	 1.001176083815384e+01
0	 1.625000000000001e+01	 1.437500000000001e+01	 1.001074399323076e+01
0	 1.625000000000000e+01	 1.500000000000000e+01	 1.000973334769230e+01
0	 1.625000000000000e+01	 1.562500000000000e+01	 1.000872890153846e+01
0	 1.625000000000000e+01	 1.625000000000000e+01	 1.000773065476923e+01
0	 1.625000000000001e+01	 1.687500000000001e+01	 1.000673860738461e+01
0	 1.625000000000001e+01	 1.750000000000001e+01	 1.000575275938461e+01
0	 1.625000000000000e+01	 1.812500000000000e+01	 1.000477311076923e+01
0	 1.625000000000000e+01	 1.875000000000000e+01	 1.000379966153847e+01
0	 1.687500000000000e+01	 1.250000000000000e+01	 1.001369326615384e+01
0	 1.687500000000000e+01	 1.312500000000000e+01	 1.001263659584615e+01
0	 1.687500000000001e+01	 1.375000000000000e+01	 1.001160351200000e+01
0	 1.687500000000000e+01	 1.437500000000000e+01	 1.001059401461538e+01
0	 1.687500000000000e+01	 1.500000000000000e+01	 1.000960810369230e+01
0	 1.687500000000001e+01	 1.562500000000000e+01	 1.000864577923076e+01
0	 1.687500000000000e+01	 1.625000000000000e+01	 1.000770704123077e+01
0	 1.687500000000000e+01	 1.687500000000001e+01	 1.000679188969230e+01
0	 1.687500000000000e+01	 1.750000000000000e+01	 1.000590032461538e+01
0	 1.687500000000000e+01	 1.812500000000000e+01	 1.000503234599999e+01
0	 1.687500000000000e+01	 1.875000000000000e+01	 1.000418795384616e+01
0	 1.750000000000000e+01	 1.250000000000000e+01	 1.001330699692308e+01
0	 1.750000000000000e+01	 1.312500000000000e+01	 1.001223928861538e+01
0	 1.750000000000000e+01	 1.375000000000000e+01	 1.001121255384615e+01
0	 1.750000000000000e+01	 1.437500000000000e+01	 1.001022679261538e+01
0	 1.750000000000000e+01	 1.500000000000000e+01	 1.000928200492308e+01
0	 1.750000000000000e+01	 1.562500000000000e+01	 1.000837819076923e+01
0	 1.750000000000001e+01	 1.625000000000001e+01	 1.000751535015384e+01
0	 1.750000000000001e+01	 1.687500000000001e+01	 1.000669348307692e+01
0	 1.750000000000001e+01	 1.750000000000001e+01	 1.000591258953846e+01
0	 1.750000000000001e+01	 1.812500000000001e+01	 1.000517266953846e+01
0	 1.750000000000000e+01	 1.875000000000000e+01	 1.000447372307692e+01
0	 1.812500000000000e+01	 1.250000000000000e+01	 1.001265431846154e+01
0	 1.812500000000000e+01	 1.312500000000000e+01	 1.001159196076923e+01
0	 1.812500000000001e+01	 1.375000000000000e+01	 1.001058796369231e+01
0	 1.812500000000000e+01	 1.437500000000000e+01	 1.000964232723077e+01
0	 1.812500000000000e+01	 1.500000000000000e+01	 1.000875505138461e+01
0	 1.812500000000000e+01	 1.562500000000000e+01	 1.000792613615384e+01
0	 1.812500000000000e+01	 1.625000000000000e+01	 1.000715558153846e+01
0	 1.812500000000000e+01	 1.687500000000000e+01	 1.000644338753846e+01
0	 1.812500000000001e+01	 1.750000000000001e+01	 1.000578955415384e+01
0	 1.812500000000000e+01	 1.812500000000001e+01	 1.000519408138462e+01
0	 1.812500000000000e+01	 1.875000000000000e+01	 1.000465696923077e+01
0	 1.875000000000000e+01	 1.250000000000000e+01	 1.001173523076923e+01
0	 1.875000000000000e+01	 1.312500000000000e+01	 1.001069461230770e+01
0	 1.875000000000000e+01	 1.375000000000000e+01	 1.000972974153846e+01
0	 1.875000000000000e+01	 1.437500000000000e+01	 1.000884061846153e+01
0	 1.875000000000000e+01	 1.500000000000000e+01	 1.000802724307692e+01
0	 1.875000000000000e+01	 1.562500000000000e+01	 1.000728961538461e+01
0	 1.875000000000000e+01	 1.625000000000000e+01	 1.000662773538461e+01
0	 1.875000000000000e+01	 1.687500000000000e+01	 1.000604160307692e+01
0	 1.875000000000000e+01	 1.750000000000001e+01	 1.000553121846154e+01
0	 1.875000000000000e+01	 1.812500000000001e+01	 1.000509658153846e+01
0	 1.875000000000000e+01	 1.875000000000000e+01	 1.000473769230769e+01
0	 1.250000000000000e+01	 1.875000000000000e+01	 9.999316923076920e+00
0	 1.250000000000000e+01	 1.937500000000000e+01	 9.999519118461532e+00
0	 1.250000000000000e+01	 2.000000000000000e+01	 9.999698873846150e+00
0	 1.250000000000000e+01	 2.062500000000000e+01	 9.999856189230773e+00
0	 1.250000000000000e+01	 2.125000000000000e+01	 9.999991064615385e+00
0	 1.250000000000000e+01	 2.187500000000000e+01	 1.000010350000000e+01
0	 1.250000000000000e+01	 2.250000000000000e+01	 1.000019349538462e+01
0	 1.250000000000000e+01	 2.312500000000001e+01	 1.000026105076923e+01
0	 1.250000000000000e+01	 2.375000000000001e+01	 1.000030616615385e+01
0	 1.250000000000000e+01	 2.437500000000001e+01	 1.000032884153846e+01
0	 1.250000000000000e+01	 2.500000000000000e+01	 1.000032907692308e+01
0	 1.312500000000000e+01	 1.875000000000000e+01	 1.000032035384615e+01
0	 1.312500000000000e+01	 1.937500000000000e+01	 1.000044062446153e+01
0	 1.312500000000000e+01	 2.000000000000000e+01	 1.000053908553846e+01
0	 1.312500000000000e+01	 2.062500000000000e+01	 1.000061573707693e+01
0	 1.312500000000000e+01	 2.125000000000001e+01	 1.000067057907692e+01
0	 1.312500000000000e+01	 2.187500000000000e+01	 1.000070361153847e+01
0	 1.312500000000000e+01	 2.250000000000001e+01	 1.000071483446154e+01
0	 1.312500000000000e+01	 2.312500000000000e+01	 1.000070424784616e+01
0	 1.312500000000000e+01	 2.375000000000001e+01	 1.000067185169231e+01
0	 1.312500000000000e+01	 2.437500000000001e+01	 1.000061764600000e+01
0	 1.312500000000000e+01	 2.500000000000000e+01	 1.000054163076923e+01
0	 1.375000000000000e+01	 1.875000000000000e+01	 1.000122126153846e+01
0	 1.375000000000000e+01	 1.937500000000000e+01	 1.000126895507693e+01
0	 1.375000000000000e+01	 2.000000000000000e+01	 1.000129546953846e+01
0	 1.375000000000000e+01	 2.062500000000000e+01	 1.000130080492308e+01
0	 1.375000000000000e+01	 2.125000000000000e+01	 1.000128496123077e+01
0	 1.375000000000000e+01	 2.187500000000000e+01	 1.000124793846154e+01
0	 1.375000000000000e+01	 2.250000000000000e+01	 1.000118973661538e+01
0	 1.375000000000000e+01	 2.312500000000001e+01	 1.000111035569231e+01
0	 1.375000000000000e+01	 2.375000000000001e+01	 1.000100979569231e+01
0	 1.375000000000000e+01	 2.437500000000001e+01	 1.000088805661539e+01
0	 1.375000000000000e+01	 2.500000000000000e+01	 1.000074513846155e+01
0	 1.437500000000000e+01	 1.875000000000000e+01	 1.000201964615385e+01
0	 1.437500000000000e+01	 1.937500000000000e+01	 1.000200411030769e+01
0	 1.437500000000000e+01	 2.000000000000000e+01	 1.000196802584615e+01
0	 1.437500000000000e+01	 2.062500000000000e+01	 1.000191139276923e+01
0	 1.437500000000000e+01	 2.125000000000000e+01	 1.000183421107693e+01
0	 1.437500000000000e+01	 2.187500000000000e+01	 1.000173648076923e+01
0	 1.437500000000000e+01	 2.250000000000000e+01	 1.000161820184615e+01
0	 1.437500000000000e+01	 2.312500000000001e+01	 1.000147937430769e+01
0	 1.437500000000000e+01	 2.375000000000000e+01	 1.000131999815385e+01
0	 1.437500000000000e+01	 2.437500000000000e+01	 1.000114007338462e+01
0	 1.437500000000000e+01	 2.500000000000000e+01	 1.000093960000000e+01
0	 1.500000000000000e+01	 1.875000000000000e+01	 1.000271550769230e+01
0	 1.500000000000000e+01	 1.937500000000000e+01	 1.000264609015384e+01
0	 1.500000000000000e+01	 2.000000000000001e+01	 1.000255675446154e+01
0	 1.500000000000000e+01	 2.062500000000000e+01	 1.000244750061538e+01
0	 1.500000000000000e+01	 2.125000000000000e+01	 1.000231832861538e+01
0	 1.500000000000000e+01	 2.187500000000000e+01	 1.000216923846154e+01
0	 1.500000000000000e+01	 2.250000000000000e+01	 1.000200023015385e+01
0	 1.500000000000000e+01	 2.312500000000001e+01	 1.000181130369231e+01
0	 1.500000000000000e+01	 2.375000000000000e+01	 1.000160245907693e+01
0	 1.500000000000000e+01	 2.437500000000001e+01	 1.000137369630769e+01
0	 1.500000000000000e+01	 2.500000000000000e+01	 1.000112501538463e+01
0	 1.562500000000000e+01	 1.875000000000000e+01	 1.000330884615385e+01
0	 1.562500000000000e+01	 1.937500000000000e+01	 1.000319489461539e+01
0	 1.562500000000000e+01	 2.000000000000000e+01	 1.000306165538461e+01
0	 1.562500000000000e+01	 2.062500000000000e+01	 1.000290912846154e+01
0	 1.562500000000000e+01	 2.125000000000000e+01	 1.000273731384615e+01
0	 1.562500000000001e+01	 2.187500000000000e+01	 1.000254621153846e+01
0	 1.562500000000000e+01	 2.250000000000000e+01	 1.000233582153846e+01
0	 1.562500000000000e+01	 2.312500000000001e+01	 1.000210614384615e+01
0	 1.562500000000000e+01	 2.375000000000001e+01	 1.000185717846154e+01
0	 1.562500000000000e+01	 2.437500000000000e+01	 1.000158892538462e+01
0	 1.562500000000000e+01	 2.500000000000000e+01	 1.000130138461538e+01
0	 1.625000000000000e+01	 1.875000000000000e+01	 1.000379966153847e+01
0	 1.625000000000000e+01	 1.937500000000000e+01	 1.000365052369230e+01
0	 1.625000000000000e+01	 2.000000000000000e+01	 1.000348272861538e+01
0	 1.625000000000001e+01	 2.062500000000001e+01	 1.000329627630769e+01
0	 1.625000000000000e+01	 2.125000000000001e+01	 1.000309116676923e+01
0	 1.625000000000000e+01	 2.187500000000000e+01	 1.000286740000000e+01
0	 1.625000000000000e+01	 2.250000000000000e+01	 1.000262497600000e+01
0	 1.625000000000001e+01	 2.312500000000001e+01	 1.000236389476923e+01
0	 1.625000000000001e+01	 2.375000000000000e+01	 1.000208415630770e+01
0	 1.625000000000000e+01	 2.437500000000001e+01	 1.000178576061539e+01
0	 1.625000000000000e+01	 2.500000000000000e+01	 1.000146870769231e+01
0	 1.687500000000000e+01	 1.875000000000000e+01	 1.000418795384616e+01
0	 1.687500000000000e+01	 1.937500000000000e+01	 1.000401297738461e+01
0	 1.687500000000001e+01	 2.000000000000001e+01	 1.000381997415385e+01
0	 1.687500000000000e+01	 2.062500000000000e+01	 1.000360894415384e+01
0	 1.687500000000000e+01	 2.125000000000000e+01	 1.000337988738461e+01
0	 1.687500000000001e+01	 2.187500000000001e+01	 1.000313280384616e+01
0	 1.687500000000000e+01	 2.250000000000000e+01	 1.000286769353846e+01
0	 1.687500000000000e+01	 2.312500000000000e+01	 1.000258455646154e+01
0	 1.687500000000000e+01	 2.375000000000000e+01	 1.000228339261539e+01
0	 1.687500000000000e+01	 2.437500000000000e+01	 1.000196420200000e+01
0	 1.687500000000000e+01	 2.500000000000000e+01	 1.000162698461539e+01
0	 1.750000000000000e+01	 1.875000000000000e+01	 1.000447372307692e+01
0	 1.750000000000000e+01	 1.937500000000000e+01	 1.000428225569231e+01
0	 1.750000000000000e+01	 2.000000000000000e+01	 1.000407339200000e+01
0	 1.750000000000000e+01	 2.062500000000000e+01	 1.000384713200000e+01
0	 1.750000000000000e+01	 2.125000000000000e+01	 1.000360347569231e+01
0	 1.750000000000000e+01	 2.187500000000000e+01	 1.000334242307692e+01
0	 1.750000000000001e+01	 2.250000000000000e+01	 1.000306397415385e+01
0	 1.750000000000001e+01	 2.312500000000001e+01	 1.000276812892308e+01
0	 1.750000000000001e+01	 2.375000000000000e+01	 1.000245488738462e+01
0	 1.750000000000001e+01	 2.437500000000000e+01	 1.000212424953847e+01
0	 1.750000000000000e+01	 2.500000000000000e+01	 1.000177621538462e+01
0	 1.812500000000000e+01	 1.875000000000000e+01	 1.000465696923077e+01
0	 1.812500000000000e+01	 1.937500000000000e+01	 1.000445835861538e+01
0	 1.812500000000001e+01	 2.000000000000000e+01	 1.000424298215385e+01
0	 1.812500000000000e+01	 2.062500000000000e+01	 1.000401083984616e+01
0	 1.812500000000000e+01	 2.125000000000000e+01	 1.000376193169231e+01
0	 1.812500000000000e+01	 2.187500000000000e+01	 1.000349625769231e+01
0	 1.812500000000000e+01	 2.250000000000001e+01	 1.000321381784616e+01
0	 1.812500000000000e+01	 2.312500000000000e+01	 1.000291461215384e+01
0	 1.812500000000001e+01	 2.375000000000000e+01	 1.000259864061538e+01
0	 1.812500000000000e+01	 2.437500000000000e+01	 1.000226590323077e+01
0	 1.812500000000000e+01	 2.500000000000000e+01	 1.000191640000001e+01
0	 1.875000000000000e+01	 1.875000000000000e+01	 1.000473769230769e+01
0	 1.875000000000000e+01	 1.937500000000000e+01	 1.000454128615384e+01
0	 1.875000000000000e+01	 2.000000000000000e+01	 1.000432874461538e+01
0	 1.875000000000000e+01	 2.062500000000000e+01	 1.000410006769231e+01
0	 1.875000000000000e+01	 2.125000000000000e+01	 1.000385525538462e+01
0	 1.875000000000000e+01	 2.187500000000000e+01	 1.000359430769231e+01
0	 1.875000000000000e+01	 2.250000000000000e+01	 1.000331722461539e+01
0	 1.875000000000000e+01	 2.312500000000001e+01	 1.000302400615385e+01
0	 1.875000000000000e+01	 2.375000000000001e+01	 1.000271465230770e+01
0	 1.875000000000000e+01	 2.437500000000001e+01	 1.000238916307693e+01
0	 1.875000000000000e+01	 2.500000000000000e+01	 1.000204753846154e+01
0	 1.250000000000000e+01	 2.500000000000000e+01	 1.000032907692308e+01
0	 1.250000000000000e+01	 2.562500000000000e+01	 1.000014307538462e+01
0	 1.250000000000000e+01	 2.625000000000000e+01	 9.999964578461537e+00
0	 1.250000000000000e+01	 2.687499999999999e+01	 9.999793586153848e+00
0	 1.250000000000000e+01	 2.749999999999999e+01	 9.999630098461537e+00
0	 1.250000000000000e+01	 2.812499999999999e+01	 9.999474115384613e+00
0	 1.250000000000000e+01	 2.874999999999999e+01	 9.999325636923075e+00
0	 1.250000000000000e+01	 2.937499999999999e+01	 9.999184663076921e+00
0	 1.250000000000000e+01	 2.999999999999998e+01	 9.999051193846149e+00
0	 1.250000000000000e+01	 3.062499999999998e+01	 9.998925229230764e+00
0	 1.250000000000000e+01	 3.125000000000000e+01	 9.998806769230765e+00
0	 1.312500000000000e+01	 2.500000000000000e+01	 1.000054163076923e+01
0	 1.312500000000000e+01	 2.562499999999999e+01	 1.000038057415384e+01
0	 1.312500000000000e+01	 2.625000000000000e+01	 1.000022589046154e+01
0	 1.312500000000000e+01	 2.687499999999998e+01	 1.000007757969231e+01
0	 1.312500000000000e+01	 2.749999999999999e+01	 9.999935641846150e+00
0	 1.312500000000000e+01	 2.812499999999998e+01	 9.999800076923076e+00
0	 1.312500000000000e+01	 2.874999999999999e+01	 9.999670884923081e+00
0	 1.312500000000000e+01	 2.937499999999998e+01	 9.999548065846149e+00
0	 1.312500000000000e+01	 2.999999999999999e+01	 9.999431619692302e+00
0	 1.312500000000000e+01	 3.062499999999998e+01	 9.999321546461536e+00
0	 1.312500000000000e+01	 3.125000000000000e+01	 9.999217846153838e+00
0	 1.375000000000000e+01	 2.500000000000000e+01	 1.000074513846155e+01
0	 1.375000000000000e+01	 2.562499999999999e+01	 1.000060588215385e+01
0	 1.375000000000000e+01	 2.624999999999999e+01	 1.000047186707693e+01
0	 1.375000000000000e+01	 2.687499999999999e+01	 1.000034309323077e+01
0	 1.375000000000000e+01	 2.749999999999999e+01	 1.000021956061539e+01
0	 1.375000000000000e+01	 2.812499999999999e+01	 1.000010126923077e+01
0	 1.375000000000000e+01	 2.874999999999998e+01	 9.999988219076926e+00
0	 1.375000000000000e+01	 2.937499999999999e+01	 9.999880410153848e+00
0	 1.375000000000000e+01	 2.999999999999998e+01	 9.999777842461546e+00
0	 1.375000000000000e+01	 3.062499999999999e+01	 9.999680515999989e+00
0	 1.375000000000000e+01	 3.125000000000000e+01	 9.999588430769226e+00
0	 1.437500000000000e+01	 2.500000000000000e+01	 1.000093960000000e+01
0	 1.437500000000000e+01	 2.562500000000000e+01	 1.000081899938462e+01
0	 1.437500000000000e+01	 2.625000000000000e+01	 1.000070250830770e+01
0	 1.437500000000000e+01	 2.687499999999999e+01	 1.000059012676923e+01
0	 1.437500000000000e+01	 2.749999999999998e+01	 1.000048185476923e+01
0	 1.437500000000001e+01	 2.812499999999999e+01	 1.000037769230769e+01
0	 1.437500000000000e+01	 2.874999999999998e+01	 1.000027763938462e+01
0	 1.437500000000000e+01	 2.937499999999998e+01	 1.000018169599999e+01
0	 1.437500000000000e+01	 2.999999999999998e+01	 1.000008986215384e+01
0	 1.437500000000000e+01	 3.062499999999998e+01	 1.000000213784616e+01
0	 1.437500000000000e+01	 3.125000000000000e+01	 9.999918523076925e+00
0	 1.500000000000000e+01	 2.500000000000000e+01	 1.000112501538463e+01
0	 1.500000000000000e+01	 2.562500000000000e+01	 1.000101992584617e+01
0	 1.500000000000000e+01	 2.625000000000000e+01	 1.000091781415385e+01
0	 1.500000000000000e+01	 2.687499999999999e+01	 1.000081868030769e+01
0	 1.500000000000000e+01	 2.749999999999999e+01	 1.000072252430770e+01
0	 1.500000000000000e+01	 2.812499999999998e+01	 1.000062934615384e+01
0	 1.500000000000000e+01	 2.874999999999999e+01	 1.000053914584615e+01
0	 1.500000000000000e+01	 2.937499999999998e+01	 1.000045192338462e+01
0	 1.500000000000000e+01	 2.999999999999998e+01	 1.000036767876923e+01
0	 1.500000000000000e+01	 3.062499999999998e+01	 1.000028641199999e+01
0	 1.500000000000000e+01	 3.125000000000001e+01	 1.000020812307692e+01
0	 1.562500000000000e+01	 2.500000000000000e+01	 1.000130138461538e+01
0	 1.562500000000000e+01	 2.562500000000000e+01	 1.000120866153847e+01
0	 1.562500000000000e+01	 2.625000000000000e+01	 1.000111778461539e+01
0	 1.562500000000000e+01	 2.687500000000000e+01	 1.000102875384616e+01
0	 1.562500000000000e+01	 2.749999999999998e+01	 1.000094156923077e+01
0	 1.562500000000000e+01	 2.812499999999999e+01	 1.000085623076923e+01
0	 1.562500000000001e+01	 2.874999999999999e+01	 1.000077273846154e+01
0	 1.562500000000001e+01	 2.937499999999999e+01	 1.000069109230769e+01
0	 1.562500000000000e+01	 2.999999999999998e+01	 1.000061129230770e+01
0	 1.562500000000000e+01	 3.062499999999998e+01	 1.000053333846153e+01
0	 1.562500000000000e+01	 3.125000000000000e+01	 1.000045723076922e+01
0	 1.625000000000000e+01	 2.500000000000000e+01	 1.000146870769231e+01
0	 1.625000000000000e+01	 2.562500000000000e+01	 1.000138520646154e+01
0	 1.625000000000000e+01	 2.625000000000000e+01	 1.000130241969231e+01
0	 1.625000000000000e+01	 2.687499999999999e+01	 1.000122034738462e+01
0	 1.625000000000000e+01	 2.750000000000000e+01	 1.000113898953846e+01
0	 1.625000000000000e+01	 2.812499999999999e+01	 1.000105834615385e+01
0	 1.625000000000000e+01	 2.874999999999999e+01	 1.000097841723077e+01
0	 1.625000000000001e+01	 2.937499999999998e+01	 1.000089920276923e+01
0	 1.625000000000000e+01	 2.999999999999998e+01	 1.000082070276923e+01
0	 1.625000000000000e+01	 3.062499999999998e+01	 1.000074291723076e+01
0	 1.625000000000000e+01	 3.125000000000000e+01	 1.000066584615384e+01
0	 1.687500000000000e+01	 2.500000000000000e+01	 1.000162698461539e+01
0	 1.687500000000000e+01	 2.562500000000000e+01	 1.000154956061538e+01
0	 1.687500000000000e+01	 2.625000000000000e+01	 1.000147171938462e+01
0	 1.687500000000000e+01	 2.687499999999999e+01	 1.000139346092308e+01
0	 1.687500000000000e+01	 2.749999999999999e+01	 1.000131478523077e+01
0	 1.687500000000001e+01	 2.812499999999999e+01	 1.000123569230769e+01
0	 1.687500000000000e+01	 2.874999999999999e+01	 1.000115618215384e+01
0	 1.687500000000001e+01	 2.937499999999999e+01	 1.000107625476922e+01
0	 1.687500000000000e+01	 2.999999999999998e+01	 1.000099591015384e+01
0	 1.687500000000001e+01	 3.062499999999999e+01	 1.000091514830769e+01
0	 1.687500000000000e+01	 3.125000000000000e+01	 1.000083396923076e+01
0	 1.750000000000000e+01	 2.500000000000000e+01	 1.000177621538462e+01
0	 1.750000000000001e+01	 2.562500000000000e+01	 1.000170172400001e+01
0	 1.750000000000001e+01	 2.625000000000000e+01	 1.000162568369231e+01
0	 1.750000000000000e+01	 2.687499999999999e+01	 1.000154809446154e+01
0	 1.750000000000001e+01	 2.750000000000000e+01	 1.000146895630770e+01
0	 1.750000000000000e+01	 2.812499999999999e+01	 1.000138826923077e+01
0	 1.750000000000000e+01	 2.874999999999999e+01	 1.000130603323077e+01
0	 1.750000000000000e+01	 2.937499999999999e+01	 1.000122224830769e+01
0	 1.750000000000000e+01	 2.999999999999998e+01	 1.000113691446154e+01
0	 1.750000000000000e+01	 3.062499999999998e+01	 1.000105003169231e+01
0	 1.750000000000000e+01	 3.125000000000000e+01	 1.000096159999999e+01
0	 1.812500000000000e+01	 2.500000000000000e+01	 1.000191640000001e+01
0	 1.812500000000000e+01	 2.562499999999999e+01	 1.000184169661539e+01
0	 1.812500000000000e+01	 2.625000000000000e+01	 1.000176431261539e+01
0	 1.812500000000000e+01	 2.687499999999999e+01	 1.000168424800000e+01
0	 1.812500000000000e+01	 2.749999999999999e+01	 1.000160150276923e+01
0	 1.812500000000000e+01	 2.812499999999998e+01	 1.000151607692308e+01
0	 1.812500000000001e+01	 2.874999999999999e+01	 1.000142797046154e+01
0	 1.812500000000000e+01	 2.937499999999999e+01	 1.000133718338461e+01
0	 1.812500000000001e+01	 2.999999999999999e+01	 1.000124371569230e+01
0	 1.812500000000000e+01	 3.062499999999998e+01	 1.000114756738462e+01
0	 1.812500000000000e+01	 3.125000000000000e+01	 1.000104873846153e+01
0	 1.875000000000000e+01	 2.500000000000000e+01	 1.000204753846154e+01
0	 1.875000000000000e+01	 2.562500000000000e+01	 1.000196947846154e+01
0	 1.875000000000001e+01	 2.625000000000000e+01	 1.000188760615385e+01
0	 1.875000000000000e+01	 2.687499999999999e+01	 1.000180192153846e+01
0	 1.875000000000000e+01	 2.749999999999999e+01	 1.000171242461539e+01
0	 1.875000000000000e+01	 2.812499999999999e+01	 1.000161911538462e+01
0	 1.875000000000000e+01	 2.874999999999999e+01	 1.000152199384616e+01
0	 1.875000000000000e+01	 2.937499999999999e+01	 1.000142106000000e+01
0	 1.875000000000000e+01	 2.999999999999998e+01	 1.000131631384615e+01
0	 1.875000000000000e+01	 3.062499999999998e+01	 1.000120775538461e+01
0	 1.875000000000000e+01	 3.125000000000000e+01	 1.000109538461538e+01
0	 1.250000000000000e+01	 3.125000000000000e+01	 9.998806769230765e+00
0	 1.250000000000000e+01	 3.187500000000000e+01	 9.998952273846152e+00
0	 1.250000000000000e+01	 3.250000000000001e+01	 9.999086203076919e+00
0	 1.250000000000000e+01	 3.312499999999999e+01	 9.999208556923072e+00
0	 1.250000000000000e+01	 3.374999999999999e+01	 9.999319335384612e+00
0	 1.250000000000000e+01	 3.437499999999999e+01	 9.999418538461535e+00
0	 1.250000000000000e+01	 3.499999999999999e+01	 9.999506166153846e+00
0	 1.250000000000000e+01	 3.562499999999999e+01	 9.999582218461544e+00
0	 1.250000000000000e+01	 3.624999999999998e+01	 9.999646695384618e+00
0	 1.250000000000000e+01	 3.687499999999998e+01	 9.999699596923072e+00
0	 1.250000000000000e+01	 3.750000000000000e+01	 9.999740923076928e+00
0	 1.312500000000000e+01	 3.125000000000000e+01	 9.999217846153838e+00
0	 1.312500000000000e+01	 3.187499999999999e+01	 9.999319351384614e+00
0	 1.312500000000000e+01	 3.250000000000000e+01	 9.999410451692299e+00
0	 1.312500000000000e+01	 3.312499999999999e+01	 9.999491147076915e+00
0	 1.312500000000000e+01	 3.374999999999999e+01	 9.999561437538457e+00
0	 1.312500000000000e+01	 3.437499999999998e+01	 9.999621323076918e+00
0	 1.312500000000000e+01	 3.499999999999999e+01	 9.999670803692302e+00
0	 1.312500000000000e+01	 3.562499999999998e+01	 9.999709879384621e+00
0	 1.312500000000000e+01	 3.624999999999998e+01	 9.999738550153850e+00
0	 1.312500000000000e+01	 3.687499999999999e+01	 9.999756816000001e+00
0	 1.312500000000000e+01	 3.750000000000000e+01	 9.999764676923084e+00
0	 1.375000000000000e+01	 3.125000000000000e+01	 9.999588430769226e+00
0	 1.375000000000000e+01	 3.187499999999999e+01	 9.999650588923069e+00
0	 1.375000000000000e+01	 3.249999999999999e+01	 9.999703512615380e+00
0	 1.375000000000000e+01	 3.312500000000000e+01	 9.999747201846152e+00
0	 1.375000000000000e+01	 3.374999999999999e+01	 9.999781656615388e+00
0	 1.375000000000000e+01	 3.437499999999999e+01	 9.999806876923074e+00
0	 1.375000000000000e+01	 3.499999999999999e+01	 9.999822862769236e+00
0	 1.375000000000000e+01	 3.562499999999998e+01	 9.999829614153846e+00
0	 1.375000000000000e+01	 3.624999999999997e+01	 9.999827131076925e+00
0	 1.375000000000000e+01	 3.687499999999997e+01	 9.999815413538471e+00
0	 1.375000000000000e+01	 3.750000000000000e+01	 9.999794461538459e+00
0	 1.437500000000000e+01	 3.125000000000000e+01	 9.999918523076925e+00
0	 1.437500000000000e+01	 3.187500000000000e+01	 9.999945986461544e+00
0	 1.437500000000000e+01	 3.250000000000000e+01	 9.999965385846144e+00
0	 1.437500000000000e+01	 3.312499999999999e+01	 9.999976721230762e+00
0	 1.437500000000000e+01	 3.374999999999999e+01	 9.999979992615380e+00
0	 1.437500000000001e+01	 3.437499999999999e+01	 9.999975200000002e+00
0	 1.437500000000000e+01	 3.499999999999999e+01	 9.999962343384610e+00
0	 1.437500000000000e+01	 3.562499999999999e+01	 9.999941422769233e+00
0	 1.437500000000000e+01	 3.624999999999997e+01	 9.999912438153844e+00
0	 1.437500000000000e+01	 3.687499999999998e+01	 9.999875389538470e+00
0	 1.437500000000000e+01	 3.749999999999999e+01	 9.999830276923083e+00
0	 1.500000000000000e+01	 3.125000000000001e+01	 1.000020812307692e+01
0	 1.500000000000000e+01	 3.187500000000000e+01	 1.000020554399999e+01
0	 1.500000000000000e+01	 3.250000000000000e+01	 1.000019607138461e+01
0	 1.500000000000000e+01	 3.312500000000000e+01	 1.000017970523077e+01
0	 1.500000000000000e+01	 3.374999999999999e+01	 1.000015644553846e+01
0	 1.500000000000000e+01	 3.437499999999999e+01	 1.000012629230769e+01
0	 1.500000000000000e+01	 3.499999999999998e+01	 1.000008924553845e+01
0	 1.500000000000000e+01	 3.562499999999998e+01	 1.000004530523077e+01
0	 1.500000000000000e+01	 3.624999999999998e+01	 9.999994471384611e+00
0	 1.500000000000000e+01	 3.687499999999999e+01	 9.999936744000003e+00
0	 1.500000000000000e+01	 3.749999999999999e+01	 9.999872123076921e+00
0	 1.562500000000000e+01	 3.125000000000000e+01	 1.000045723076922e+01
0	 1.562500000000000e+01	 3.187500000000000e+01	 1.000042926153846e+01
0	 1.562500000000000e+01	 3.250000000000000e+01	 1.000039556923076e+01
0	 1.562500000000000e+01	 3.312500000000000e+01	 1.000035615384615e+01
0	 1.562500000000000e+01	 3.374999999999999e+01	 1.000031101538461e+01
0	 1.562500000000000e+01	 3.437500000000000e+01	 1.000026015384615e+01
0	 1.562500000000001e+01	 3.499999999999999e+01	 1.000020356923076e+01
0	 1.562500000000001e+01	 3.562499999999999e+01	 1.000014126153846e+01
0	 1.562500000000000e+01	 3.624999999999998e+01	 1.000007323076923e+01
0	 1.562500000000000e+01	 3.687499999999999e+01	 9.999999476923074e+00
0	 1.562500000000000e+01	 3.750000000000001e+01	 9.999920000000007e+00
0	 1.625000000000000e+01	 3.125000000000000e+01	 1.000066584615384e+01
0	 1.625000000000000e+01	 3.187500000000000e+01	 1.000061713907691e+01
0	 1.625000000000000e+01	 3.250000000000000e+01	 1.000056387938461e+01
0	 1.625000000000000e+01	 3.312499999999999e+01	 1.000050606707693e+01
0	 1.625000000000000e+01	 3.374999999999999e+01	 1.000044370215384e+01
0	 1.625000000000000e+01	 3.437499999999999e+01	 1.000037678461538e+01
0	 1.625000000000000e+01	 3.499999999999998e+01	 1.000030531446154e+01
0	 1.625000000000001e+01	 3.562499999999999e+01	 1.000022929169231e+01
0	 1.625000000000000e+01	 3.624999999999999e+01	 1.000014871630769e+01
0	 1.625000000000000e+01	 3.687499999999998e+01	 1.000006358830769e+01
0	 1.625000000000000e+01	 3.750000000000000e+01	 9.999973907692311e+00
0	 1.687500000000000e+01	 3.125000000000000e+01	 1.000083396923076e+01
0	 1.687500000000000e+01	 3.187500000000000e+01	 1.000076917661538e+01
0	 1.687500000000000e+01	 3.249999999999999e+01	 1.000070100184615e+01
0	 1.687500000000000e+01	 3.312499999999999e+01	 1.000062944492308e+01
0	 1.687500000000000e+01	 3.374999999999999e+01	 1.000055450584615e+01
0	 1.687500000000001e+01	 3.437500000000000e+01	 1.000047618461538e+01
0	 1.687500000000000e+01	 3.499999999999999e+01	 1.000039448123077e+01
0	 1.687500000000001e+01	 3.562499999999999e+01	 1.000030939569230e+01
0	 1.687500000000000e+01	 3.624999999999998e+01	 1.000022092800000e+01
0	 1.687500000000001e+01	 3.687499999999999e+01	 1.000012907815383e+01
0	 1.687500000000000e+01	 3.750000000000000e+01	 1.000003384615385e+01
0	 1.750000000000000e+01	 3.125000000000000e+01	 1.000096159999999e+01
0	 1.750000000000001e+01	 3.187500000000000e+01	 1.000088537415383e+01
0	 1.750000000000001e+01	 3.249999999999999e+01	 1.000080693661538e+01
0	 1.750000000000000e+01	 3.312499999999999e+01	 1.000072628738461e+01
0	 1.750000000000001e+01	 3.374999999999999e+01	 1.000064342646153e+01
0	 1.750000000000000e+01	 3.437499999999999e+01	 1.000055835384615e+01
0	 1.750000000000000e+01	 3.499999999999999e+01	 1.000047106953845e+01
0	 1.750000000000000e+01	 3.562499999999999e+01	 1.000038157353846e+01
0	 1.750000000000000e+01	 3.624999999999998e+01	 1.000028986584615e+01
0	 1.750000000000000e+01	 3.687499999999998e+01	 1.000019594646155e+01
0	 1.750000000000000e+01	 3.750000000000000e+01	 1.000009981538462e+01
0	 1.812500000000000e+01	 3.125000000000000e+01	 1.000104873846153e+01
0	 1.812500000000000e+01	 3.187499999999999e+01	 1.000096573169230e+01
0	 1.812500000000000e+01	 3.250000000000000e+01	 1.000088168369230e+01
0	 1.812500000000000e+01	 3.312500000000000e+01	 1.000079659446153e+01
0	 1.812500000000000e+01	 3.374999999999999e+01	 1.000071046399999e+01
0	 1.812500000000000e+01	 3.437499999999998e+01	 1.000062329230768e+01
0	 1.812500000000001e+01	 3.499999999999999e+01	 1.000053507938461e+01
0	 1.812500000000000e+01	 3.562499999999999e+01	 1.000044582523076e+01
0	 1.812500000000001e+01	 3.624999999999999e+01	 1.000035552984615e+01
0	 1.812500000000000e+01	 3.687499999999998e+01	 1.000026419323077e+01
0	 1.812500000000000e+01	 3.750000000000000e+01	 1.000017181538461e+01
0	 1.875000000000000e+01	 3.125000000000000e+01	 1.000109538461538e+01
0	 1.875000000000000e+01	 3.187500000000000e+01	 1.000101024923076e+01
0	 1.875000000000001e+01	 3.250000000000001e+01	 1.000092524307692e+01
0	 1.875000000000000e+01	 3.312499999999999e+01	 1.000084036615384e+01
0	 1.875000000000000e+01	 3.374999999999999e+01	 1.000075561846153e+01
0	 1.875000000000000e+01	 3.437499999999999e+01	 1.000067099999999e+01
0	 1.875000000000000e+01	 3.499999999999999e+01	 1.000058651076923e+01
0	 1.875000000000000e+01	 3.562499999999999e+01	 1.000050215076923e+01
0	 1.875000000000000e+01	 3.624999999999998e+01	 1.000041792000000e+01
0	 1.875000000000000e+01	 3.687499999999998e+01	 1.000033381846153e+01
0	 1.875000000000000e+01	 3.750000000000000e+01	 1.000024984615384e+01
0	 1.250000000000000e+01	 3.750000000000000e+01	 9.999740923076928e+00
0	 1.250000000000000e+01	 3.812500000000000e+01	 9.999722781538466e+00
0	 1.250000000000000e+01	 3.875000000000001e+01	 9.999711433846160e+00
0	 1.250000000000000e+01	 3.937499999999999e+01	 9.999706879999998e+00
0	 1.250000000000000e+01	 3.999999999999999e+01	 9.999709120000002e+00
0	 1.250000000000000e+01	 4.062499999999999e+01	 9.999718153846150e+00
0	 1.250000000000000e+01	 4.124999999999999e+01	 9.999733981538451e+00
0	 1.250000000000000e+01	 4.187499999999999e+01	 9.999756603076904e+00
0	 1.250000000000000e+01	 4.249999999999999e+01	 9.999786018461533e+00
0	 1.250000000000000e+01	 4.312499999999999e+01	 9.999822227692292e+00
0	 1.250000000000000e+01	 4.375000000000000e+01	 9.999865230769222e+00
0	 1.312500000000000e+01	 3.750000000000000e+01	 9.999764676923084e+00
0	 1.312500000000000e+01	 3.812499999999999e+01	 9.999754323076917e+00
0	 1.312500000000000e+01	 3.874999999999999e+01	 9.999749692307695e+00
0	 1.312500000000000e+01	 3.937499999999999e+01	 9.999750784615387e+00
0	 1.312500000000000e+01	 3.999999999999998e+01	 9.999757599999999e+00
0	 1.312500000000000e+01	 4.062499999999999e+01	 9.999770138461528e+00
0	 1.312500000000000e+01	 4.124999999999999e+01	 9.999788399999996e+00
0	 1.312500000000000e+01	 4.187499999999998e+01	 9.999812384615378e+00
0	 1.312500000000000e+01	 4.249999999999998e+01	 9.999842092307697e+00
0	 1.312500000000000e+01	 4.312499999999997e+01	 9.999877523076909e+00
0	 1.312500000000000e+01	 4.375000000000000e+01	 9.999918676923061e+00
0	 1.375000000000000e+01	 3.750000000000000e+01	 9.999794461538459e+00
0	 1.375000000000000e+01	 3.812500000000000e+01	 9.999790646153841e+00
0	 1.375000000000000e+01	 3.874999999999999e+01	 9.999791483076921e+00
0	 1.375000000000000e+01	 3.937499999999999e+01	 9.999796972307696e+00
0	 1.375000000000000e+01	 3.999999999999999e+01	 9.999807113846146e+00
0	 1.375000000000000e+01	 4.062499999999999e+01	 9.999821907692308e+00
0	 1.375000000000000e+01	 4.124999999999998e+01	 9.999841353846145e+00
0	 1.375000000000000e+01	 4.187499999999999e+01	 9.999865452307690e+00
0	 1.375000000000000e+01	 4.249999999999998e+01	 9.999894203076920e+00
0	 1.375000000000000e+01	 4.312499999999997e+01	 9.999927606153848e+00
0	 1.375000000000000e+01	 4.375000000000000e+01	 9.999965661538457e+00
0	 1.437500000000000e+01	 3.749999999999999e+01	 9.999830276923083e+00
0	 1.437500000000000e+01	 3.812500000000001e+01	 9.999831750769232e+00
0	 1.437500000000000e+01	 3.875000000000000e+01	 9.999836806153848e+00
0	 1.437500000000000e+01	 3.937499999999999e+01	 9.999845443076923e+00
0	 1.437500000000000e+01	 3.999999999999998e+01	 9.999857661538460e+00
0	 1.437500000000001e+01	 4.062499999999999e+01	 9.999873461538456e+00
0	 1.437500000000000e+01	 4.124999999999999e+01	 9.999892843076914e+00
0	 1.437500000000000e+01	 4.187499999999998e+01	 9.999915806153840e+00
0	 1.437500000000000e+01	 4.249999999999998e+01	 9.999942350769231e+00
0	 1.437500000000000e+01	 4.312499999999997e+01	 9.999972476923062e+00
0	 1.437500000000000e+01	 4.374999999999999e+01	 1.000000618461538e+01
0	 1.500000000000000e+01	 3.749999999999999e+01	 9.999872123076921e+00
0	 1.500000000000000e+01	 3.812500000000001e+01	 9.999877636923072e+00
0	 1.500000000000000e+01	 3.875000000000000e+01	 9.999885661538459e+00
0	 1.500000000000000e+01	 3.937499999999999e+01	 9.999896196923068e+00
0	 1.500000000000000e+01	 3.999999999999999e+01	 9.999909243076923e+00
0	 1.500000000000000e+01	 4.062499999999999e+01	 9.999924799999997e+00
0	 1.500000000000000e+01	 4.125000000000000e+01	 9.999942867692297e+00
0	 1.500000000000000e+01	 4.187499999999998e+01	 9.999963446153842e+00
0	 1.500000000000000e+01	 4.249999999999999e+01	 9.999986535384615e+00
0	 1.500000000000000e+01	 4.312499999999999e+01	 1.000001213538460e+01
0	 1.500000000000000e+01	 4.375000000000000e+01	 1.000004024615383e+01
0	 1.562500000000000e+01	 3.750000000000001e+01	 9.999920000000007e+00
0	 1.562500000000000e+01	 3.812500000000001e+01	 9.999928304615384e+00
0	 1.562500000000000e+01	 3.874999999999999e+01	 9.999938049230762e+00
0	 1.562500000000000e+01	 3.937499999999999e+01	 9.999949233846147e+00
0	 1.562500000000000e+01	 3.999999999999999e+01	 9.999961858461528e+00
0	 1.562500000000000e+01	 4.062500000000000e+01	 9.999975923076923e+00
0	 1.562500000000001e+01	 4.124999999999999e+01	 9.999991427692303e+00
0	 1.562500000000001e+01	 4.187500000000000e+01	 1.000000837230769e+01
0	 1.562500000000000e+01	 4.249999999999999e+01	 1.000002675692306e+01
0	 1.562500000000000e+01	 4.312499999999998e+01	 1.000004658153845e+01
0	 1.562500000000000e+01	 4.375000000000000e+01	 1.000006784615383e+01
0	 1.625000000000000e+01	 3.750000000000000e+01	 9.999973907692311e+00
0	 1.625000000000000e+01	 3.812500000000000e+01	 9.999983753846141e+00
0	 1.625000000000000e+01	 3.874999999999999e+01	 9.999993969230767e+00
0	 1.625000000000000e+01	 3.937499999999999e+01	 1.000000455384616e+01
0	 1.625000000000000e+01	 4.000000000000000e+01	 1.000001550769231e+01
0	 1.625000000000000e+01	 4.062499999999999e+01	 1.000002683076922e+01
0	 1.625000000000000e+01	 4.124999999999998e+01	 1.000003852307692e+01
0	 1.625000000000001e+01	 4.187499999999999e+01	 1.000005058461538e+01
0	 1.625000000000000e+01	 4.249999999999999e+01	 1.000006301538462e+01
0	 1.625000000000000e+01	 4.312499999999998e+01	 1.000007581538460e+01
0	 1.625000000000000e+01	 4.375000000000000e+01	 1.000008898461537e+01
0	 1.687500000000000e+01	 3.750000000000000e+01	 1.000003384615385e+01
0	 1.687500000000000e+01	 3.812500000000000e+01	 1.000004398461538e+01
0	 1.687500000000000e+01	 3.874999999999999e+01	 1.000005342153846e+01
0	 1.687500000000000e+01	 3.937499999999999e+01	 1.000006215692307e+01
0	 1.687500000000000e+01	 3.999999999999999e+01	 1.000007019076923e+01
0	 1.687500000000001e+01	 4.062499999999999e+01	 1.000007752307692e+01
0	 1.687500000000000e+01	 4.124999999999999e+01	 1.000008415384615e+01
0	 1.687500000000001e+01	 4.187499999999999e+01	 1.000009008307692e+01
0	 1.687500000000000e+01	 4.249999999999998e+01	 1.000009531076923e+01
0	 1.687500000000001e+01	 4.312499999999999e+01	 1.000009983692308e+01
0	 1.687500000000000e+01	 4.375000000000000e+01	 1.000010366153845e+01
0	 1.750000000000000e+01	 3.750000000000000e+01	 1.000009981538462e+01
0	 1.750000000000001e+01	 3.812500000000000e+01	 1.000010899692307e+01
0	 1.750000000000001e+01	 3.875000000000000e+01	 1.000011640615385e+01
0	 1.750000000000000e+01	 3.937499999999999e+01	 1.000012204307692e+01
0	 1.750000000000001e+01	 3.999999999999999e+01	 1.000012590769230e+01
0	 1.750000000000000e+01	 4.062499999999999e+01	 1.000012799999999e+01
0	 1.750000000000000e+01	 4.124999999999999e+01	 1.000012831999999e+01
0	 1.750000000000000e+01	 4.187499999999999e+01	 1.000012686769231e+01
0	 1.750000000000000e+01	 4.249999999999999e+01	 1.000012364307693e+01
0	 1.750000000000000e+01	 4.312499999999998e+01	 1.000011864615384e+01
0	 1.750000000000000e+01	 4.375000000000001e+01	 1.000011187692306e+01
0	 1.812500000000000e+01	 3.750000000000000e+01	 1.000017181538461e+01
0	 1.812500000000000e+01	 3.812499999999999e+01	 1.000017879076923e+01
0	 1.812500000000000e+01	 3.874999999999999e+01	 1.000018292307693e+01
0	 1.812500000000000e+01	 3.937499999999999e+01	 1.000018421230768e+01
0	 1.812500000000000e+01	 3.999999999999999e+01	 1.000018265846154e+01
0	 1.812500000000000e+01	 4.062499999999998e+01	 1.000017826153846e+01
0	 1.812500000000001e+01	 4.124999999999999e+01	 1.000017102153846e+01
0	 1.812500000000000e+01	 4.187499999999998e+01	 1.000016093846153e+01
0	 1.812500000000001e+01	 4.249999999999998e+01	 1.000014801230769e+01
0	 1.812500000000000e+01	 4.312499999999999e+01	 1.000013224307691e+01
0	 1.812500000000000e+01	 4.375000000000000e+01	 1.000011363076923e+01
0	 1.875000000000000e+01	 3.750000000000000e+01	 1.000024984615384e+01
0	 1.875000000000000e+01	 3.812500000000000e+01	 1.000025336615384e+01
0	 1.875000000000001e+01	 3.875000000000001e+01	 1.000025297230770e+01
0	 1.875000000000000e+01	 3.937499999999999e+01	 1.000024866461538e+01
0	 1.875000000000000e+01	 3.999999999999999e+01	 1.000024044307692e+01
0	 1.875000000000000e+01	 4.062499999999999e+01	 1.000022830769230e+01
0	 1.875000000000000e+01	 4.124999999999999e+01	 1.000021225846154e+01
0	 1.875000000000000e+01	 4.187499999999999e+01	 1.000019229538461e+01
0	 1.875000000000000e+01	 4.249999999999999e+01	 1.000016841846153e+01
0	 1.875000000000000e+01	 4.312499999999999e+01	 1.000014062769230e+01
0	 1.875000000000000e+01	 4.375000000000000e+01	 1.000010892307692e+01
0	 1.250000000000000e+01	 4.375000000000000e+01	 9.999865230769222e+00
0	 1.250000000000000e+01	 4.437500000000000e+01	 9.999885526153836e+00
0	 1.250000000000000e+01	 4.499999999999999e+01	 9.999905304615375e+00
0	 1.250000000000000e+01	 4.562499999999999e+01	 9.999924566153840e+00
0	 1.250000000000000e+01	 4.624999999999999e+01	 9.999943310769218e+00
0	 1.250000000000000e+01	 4.687499999999999e+01	 9.999961538461532e+00
0	 1.250000000000000e+01	 4.749999999999999e+01	 9.999979249230758e+00
0	 1.250000000000000e+01	 4.812499999999999e+01	 9.999996443076936e+00
0	 1.250000000000000e+01	 4.874999999999999e+01	 1.000001311999999e+01
0	 1.250000000000000e+01	 4.937499999999999e+01	 1.000002927999998e+01
0	 1.250000000000000e+01	 5.000000000000000e+01	 1.000004492307692e+01
0	 1.312500000000000e+01	 4.375000000000000e+01	 9.999918676923061e+00
0	 1.312500000000000e+01	 4.437499999999999e+01	 9.999930842153832e+00
0	 1.312499999999999e+01	 4.499999999999999e+01	 9.999942543999985e+00
0	 1.312500000000000e+01	 4.562499999999999e+01	 9.999953782461525e+00
0	 1.312500000000000e+01	 4.625000000000000e+01	 9.999964557538448e+00
0	 1.312500000000000e+01	 4.687499999999999e+01	 9.999974869230769e+00
0	 1.312500000000000e+01	 4.749999999999999e+01	 9.999984717538444e+00
0	 1.312500000000000e+01	 4.812499999999999e+01	 9.999994102461535e+00
0	 1.312500000000000e+01	 4.874999999999998e+01	 1.000000302399999e+01
0	 1.312500000000000e+01	 4.937499999999997e+01	 1.000001148215385e+01
0	 1.312500000000000e+01	 5.000000000000000e+01	 1.000001947692309e+01
0	 1.375000000000000e+01	 4.375000000000000e+01	 9.999965661538457e+00
0	 1.375000000000000e+01	 4.437499999999999e+01	 9.999970687384600e+00
0	 1.375000000000000e+01	 4.499999999999999e+01	 9.999975303384607e+00
0	 1.375000000000000e+01	 4.562499999999999e+01	 9.999979509538450e+00
0	 1.375000000000000e+01	 4.624999999999999e+01	 9.999983305846147e+00
0	 1.375000000000000e+01	 4.687499999999999e+01	 9.999986692307687e+00
0	 1.375000000000000e+01	 4.749999999999999e+01	 9.999989668923075e+00
0	 1.375000000000000e+01	 4.812499999999999e+01	 9.999992235692309e+00
0	 1.375000000000000e+01	 4.874999999999996e+01	 9.999994392615372e+00
0	 1.375000000000000e+01	 4.937499999999998e+01	 9.999996139692295e+00
0	 1.375000000000000e+01	 5.000000000000000e+01	 9.999997476923081e+00
0	 1.437500000000000e+01	 4.374999999999999e+01	 1.000000618461538e+01
0	 1.437500000000000e+01	 4.437499999999999e+01	 1.000000506184615e+01
0	 1.437500000000000e+01	 4.499999999999999e+01	 1.000000358276923e+01
0	 1.437500000000000e+01	 4.562499999999999e+01	 1.000000174738461e+01
0	 1.437500000000000e+01	 4.624999999999998e+01	 9.999999555692296e+00
0	 1.437500000000000e+01	 4.687499999999999e+01	 9.999997007692293e+00
0	 1.437500000000000e+01	 4.749999999999998e+01	 9.999994103384614e+00
0	 1.437500000000000e+01	 4.812499999999998e+01	 9.999990842769240e+00
0	 1.437500000000000e+01	 4.874999999999999e+01	 9.999987225846143e+00
0	 1.437500000000000e+01	 4.937499999999999e+01	 9.999983252615410e+00
0	 1.437500000000000e+01	 5.000000000000001e+01	 9.999978923076892e+00
0	 1.500000000000000e+01	 4.375000000000000e+01	 1.000004024615383e+01
0	 1.500000000000000e+01	 4.437500000000000e+01	 1.000003396553845e+01
0	 1.500000000000000e+01	 4.500000000000000e+01	 1.000002738215384e+01
0	 1.500000000000000e+01	 4.562500000000000e+01	 1.000002049599999e+01
0	 1.500000000000000e+01	 4.624999999999999e+01	 1.000001330707691e+01
0	 1.500000000000001e+01	 4.687499999999999e+01	 1.000000581538463e+01
0	 1.500000000000000e+01	 4.749999999999999e+01	 9.999998020923085e+00
0	 1.500000000000000e+01	 4.812499999999999e+01	 9.999989923692299e+00
0	 1.500000000000000e+01	 4.874999999999999e+01	 9.999981523692302e+00
0	 1.500000000000000e+01	 4.937499999999997e+01	 9.999972820923096e+00
0	 1.500000000000000e+01	 5.000000000000001e+01	 9.999963815384607e+00
0	 1.562500000000000e+01	 4.375000000000000e+01	 1.000006784615383e+01
0	 1.562500000000001e+01	 4.437500000000000e+01	 1.000005739846152e+01
0	 1.562500000000000e+01	 4.500000000000000e+01	 1.000004670153845e+01
0	 1.562500000000000e+01	 4.562500000000000e+01	 1.000003575538461e+01
0	 1.562500000000000e+01	 4.624999999999999e+01	 1.000002456000000e+01
0	 1.562500000000000e+01	 4.687499999999999e+01	 1.000001311538460e+01
0	 1.562500000000000e+01	 4.749999999999999e+01	 1.000000142153846e+01
0	 1.562500000000000e+01	 4.812499999999999e+01	 9.999989478461542e+00
0	 1.562500000000000e+01	 4.874999999999998e+01	 9.999977286153850e+00
0	 1.562500000000000e+01	 4.937499999999998e+01	 9.999964844615416e+00
0	 1.562500000000000e+01	 5.000000000000000e+01	 9.999952153846149e+00
0	 1.625000000000000e+01	 4.375000000000000e+01	 1.000008898461537e+01
0	 1.625000000000001e+01	 4.437499999999999e+01	 1.000007536061537e+01
0	 1.625000000000000e+01	 4.499999999999999e+01	 1.000006154092307e+01
0	 1.625000000000001e+01	 4.562499999999999e+01	 1.000004752553846e+01
0	 1.625000000000000e+01	 4.624999999999999e+01	 1.000003331446152e+01
0	 1.625000000000000e+01	 4.687499999999998e+01	 1.000001890769231e+01
0	 1.625000000000000e+01	 4.749999999999999e+01	 1.000000430523077e+01
0	 1.625000000000001e+01	 4.812499999999999e+01	 9.999989507076922e+00
0	 1.625000000000000e+01	 4.874999999999998e+01	 9.999974513230759e+00
0	 1.625000000000001e+01	 4.937499999999999e+01	 9.999959323692298e+00
0	 1.625000000000000e+01	 5.000000000000000e+01	 9.999943938461531e+00
0	 1.687500000000000e+01	 4.375000000000000e+01	 1.000010366153845e+01
0	 1.687500000000001e+01	 4.437500000000001e+01	 1.000008785199999e+01
0	 1.687500000000001e+01	 4.499999999999999e+01	 1.000007190030768e+01
0	 1.687500000000001e+01	 4.562500000000000e+01	 1.000005580646153e+01
0	 1.687500000000000e+01	 4.624999999999999e+01	 1.000003957046153e+01
0	 1.687500000000000e+01	 4.687499999999999e+01	 1.000002319230768e+01
0	 1.687500000000001e+01	 4.749999999999998e+01	 1.000000667200000e+01
0	 1.687500000000001e+01	 4.812500000000000e+01	 9.999990009538475e+00
0	 1.687500000000000e+01	 4.874999999999998e+01	 9.999973204923066e+00
0	 1.687500000000001e+01	 4.937499999999998e+01	 9.999956258153857e+00
0	 1.687500000000000e+01	 5.000000000000000e+01	 9.999939169230768e+00
0	 1.750000000000000e+01	 4.375000000000001e+01	 1.000011187692306e+01
0	 1.750000000000000e+01	 4.437499999999999e+01	 1.000009487261538e+01
0	 1.750000000000000e+01	 4.499999999999999e+01	 1.000007777969230e+01
0	 1.750000000000001e+01	 4.562500000000000e+01	 1.000006059815383e+01
0	 1.750000000000001e+01	 4.625000000000000e+01	 1.000004332800000e+01
0	 1.750000000000000e+01	 4.687499999999999e+01	 1.000002596923076e+01
0	 1.750000000000000e+01	 4.749999999999999e+01	 1.000000852184615e+01
0	 1.750000000000001e+01	 4.812499999999999e+01	 9.999990985846132e+00
0	 1.750000000000000e+01	 4.874999999999998e+01	 9.999973361230762e+00
0	 1.750000000000000e+01	 4.937499999999998e+01	 9.999955647999984e+00
0	 1.750000000000000e+01	 5.000000000000000e+01	 9.999937846153887e+00
0	 1.812500000000000e+01	 4.375000000000000e+01	 1.000011363076923e+01
0	 1.812500000000001e+01	 4.437500000000000e+01	 1.000009642246154e+01
0	 1.812500000000001e+01	 4.500000000000000e+01	 1.000007917907692e+01
0	 1.812500000000000e+01	 4.562500000000000e+01	 1.000006190061537e+01
0	 1.812500000000000e+01	 4.624999999999999e+01	 1.000004458707691e+01
0	 1.812500000000001e+01	 4.687499999999999e+01	 1.000002723846154e+01
0	 1.812500000000001e+01	 4.749999999999999e+01	 1.000000985476924e+01
0	 1.812500000000000e+01	 4.812499999999999e+01	 9.999992436000010e+00
0	 1.812500000000001e+01	 4.874999999999998e+01	 9.999974982153848e+00
0	 1.812500000000000e+01	 4.937499999999996e+01	 9.999957493230760e+00
0	 1.812500000000001e+01	 5.000000000000000e+01	 9.999939969230750e+00
0	 1.875000000000000e+01	 4.375000000000000e+01	 1.000010892307692e+01
0	 1.875000000000000e+01	 4.437500000000000e+01	 1.000009250153846e+01
0	 1.875000000000000e+01	 4.499999999999999e+01	 1.000007609846154e+01
0	 1.875000000000000e+01	 4.562499999999999e+01	 1.000005971384616e+01
0	 1.875000000000000e+01	 4.624999999999999e+01	 1.000004334769230e+01
0	 1.875000000000000e+01	 4.687499999999999e+01	 1.000002700000000e+01
0	 1.875000000000000e+01	 4.749999999999999e+01	 1.000001067076923e+01
0	 1.875000000000000e+01	 4.812499999999999e+01	 9.999994360000020e+00
0	 1.875000000000000e+01	 4.874999999999999e+01	 9.999978067692302e+00
0	 1.875000000000000e+01	 4.937499999999999e+01	 9.999961793846126e+00
0	 1.875000000000000e+01	 5.000000000000000e+01	 9.999945538461539e+00
0	 1.875000000000000e+01	 0.000000000000000e+00	 1.001000553846154e+01
0	 1.875000000000000e+01	 6.250000000000000e-01	 1.000887157846154e+01
0	 1.875000000000000e+01	 1.250000000000000e+00	 1.000786262153846e+01
0	 1.875000000000000e+01	 1.875000000000000e+00	 1.000697866769231e+01
0	 1.875000000000000e+01	 2.500000000000000e+00	 1.000621971692308e+01
0	 1.875000000000000e+01	 3.125000000000000e+00	 1.000558576923077e+01
0	 1.875000000000000e+01	 3.750000000000000e+00	 1.000507682461538e+01
0	 1.875000000000000e+01	 4.375000000000000e+00	 1.000469288307692e+01
0	 1.875000000000000e+01	 5.000000000000000e+00	 1.000443394461539e+01
0	 1.875000000000000e+01	 5.624999999999999e+00	 1.000430000923077e+01
0	 1.875000000000000e+01	 6.250000000000000e+00	 1.000429107692308e+01
0	 1.937500000000000e+01	 0.000000000000000e+00	 1.000815603692308e+01
0	 1.937500000000000e+01	 6.250000000000001e-01	 1.000740234646154e+01
0	 1.937500000000000e+01	 1.250000000000000e+00	 1.000675520769231e+01
0	 1.937500000000000e+01	 1.875000000000000e+00	 1.000621462061538e+01
0	 1.937500000000000e+01	 2.500000000000000e+00	 1.000578058523077e+01
0	 1.937500000000000e+01	 3.125000000000000e+00	 1.000545310153846e+01
0	 1.937500000000000e+01	 3.750000000000000e+00	 1.000523216953846e+01
0	 1.937500000000000e+01	 4.375000000000001e+00	 1.000511778923077e+01
0	 1.937500000000000e+01	 4.999999999999999e+00	 1.000510996061539e+01
0	 1.937500000000000e+01	 5.624999999999999e+00	 1.000520868369231e+01
0	 1.937500000000000e+01	 6.250000000000000e+00	 1.000541395846154e+01
0	 2.000000000000000e+01	 0.000000000000000e+00	 1.000654457846154e+01
0	 2.000000000000000e+01	 6.250000000000001e-01	 1.000612716953846e+01
0	 2.000000000000000e+01	 1.250000000000000e+00	 1.000579786092307e+01
0	 2.000000000000000e+01	 1.875000000000000e+00	 1.000555665261538e+01
0	 2.000000000000000e+01	 2.500000000000000e+00	 1.000540354461538e+01
0	 2.000000000000000e+01	 3.125000000000000e+00	 1.000533853692307e+01
0	 2.000000000000000e+01	 3.750000000000000e+00	 1.000536162953846e+01
0	 2.000000000000000e+01	 4.375000000000000e+00	 1.000547282246153e+01
0	 2.000000000000000e+01	 5.000000000000000e+00	 1.000567211569231e+01
0	 2.000000000000000e+01	 5.625000000000001e+00	 1.000595950923076e+01
0	 2.000000000000000e+01	 6.250000000000000e+00	 1.000633500307692e+01
0	 2.062500000000001e+01	 0.000000000000000e+00	 1.000517116307692e+01
0	 2.062500000000000e+01	 6.250000000000000e-01	 1.000504604769231e+01
0	 2.062500000000000e+01	 1.250000000000000e+00	 1.000499058123077e+01
0	 2.062500000000000e+01	 1.875000000000000e+00	 1.000500476369231e+01
0	 2.062500000000001e+01	 2.500000000000001e+00	 1.000508859507692e+01
0	 2.062500000000000e+01	 3.125000000000000e+00	 1.000524207538461e+01
0	 2.062500000000000e+01	 3.750000000000000e+00	 1.000546520461538e+01
0	 2.062500000000000e+01	 4.374999999999999e+00	 1.000575798276923e+01
0	 2.062500000000000e+01	 5.000000000000000e+00	 1.000612040984615e+01
0	 2.062500000000000e+01	 5.624999999999999e+00	 1.000655248584615e+01
0	 2.062500000000000e+01	 6.250000000000000e+00	 1.000705421076923e+01
0	 2.125000000000000e+01	 0.000000000000000e+00	 1.000403579076923e+01
0	 2.125000000000000e+01	 6.249999999999999e-01	 1.000415898092307e+01
0	 2.125000000000000e+01	 1.250000000000000e+00	 1.000433336861538e+01
0	 2.125000000000000e+01	 1.875000000000000e+00	 1.000455895384615e+01
0	 2.125000000000000e+01	 2.500000000000000e+00	 1.000483573661538e+01
0	 2.125000000000000e+01	 3.125000000000000e+00	 1.000516371692307e+01
0	 2.125000000000000e+01	 3.750000000000000e+00	 1.000554289476923e+01
0	 2.125000000000000e+01	 4.375000000000000e+00	 1.000597327015385e+01
0	 2.125000000000000e+01	 4.999999999999999e+00	 1.000645484307692e+01
0	 2.125000000000001e+01	 5.625000000000000e+00	 1.000698761353846e+01
0	 2.125000000000001e+01	 6.250000000000001e+00	 1.000757158153846e+01
0	 2.187500000000000e+01	 0.000000000000000e+00	 1.000313846153846e+01
0	 2.187500000000000e+01	 6.249999999999998e-01	 1.000346596923077e+01
0	 2.187500000000000e+01	 1.250000000000000e+00	 1.000382622307692e+01
0	 2.187500000000000e+01	 1.875000000000000e+00	 1.000421922307692e+01
0	 2.187500000000000e+01	 2.500000000000000e+00	 1.000464496923076e+01
0	 2.187500000000000e+01	 3.125000000000000e+00	 1.000510346153846e+01
0	 2.187500000000000e+01	 3.750000000000000e+00	 1.000559470000000e+01
0	 2.187500000000000e+01	 4.375000000000002e+00	 1.000611868461538e+01
0	 2.187500000000000e+01	 4.999999999999999e+00	 1.000667541538462e+01
0	 2.187500000000001e+01	 5.625000000000000e+00	 1.000726489230769e+01
0	 2.187500000000000e+01	 6.249999999999999e+00	 1.000788711538462e+01
0	 2.250000000000000e+01	 0.000000000000000e+00	 1.000247917538461e+01
0	 2.250000000000000e+01	 6.249999999999998e-01	 1.000296701261538e+01
0	 2.250000000000001e+01	 1.250000000000000e+00	 1.000346914461538e+01
0	 2.250000000000000e+01	 1.875000000000001e+00	 1.000398557138461e+01
0	 2.250000000000001e+01	 2.500000000000000e+00	 1.000451629292308e+01
0	 2.250000000000000e+01	 3.125000000000000e+00	 1.000506130923077e+01
0	 2.250000000000000e+01	 3.750000000000000e+00	 1.000562062030769e+01
0	 2.250000000000001e+01	 4.375000000000001e+00	 1.000619422615385e+01
0	 2.250000000000001e+01	 4.999999999999999e+00	 1.000678212676923e+01
0	 2.250000000000001e+01	 5.625000000000000e+00	 1.000738432215385e+01
0	 2.250000000000000e+01	 6.250000000000001e+00	 1.000800081230769e+01
0	 2.312500000000001e+01	 0.000000000000000e+00	 1.000205793230769e+01
0	 2.312500000000001e+01	 6.250000000000000e-01	 1.000266211107692e+01
0	 2.312500000000000e+01	 1.250000000000000e+00	 1.000326213323077e+01
0	 2.312500000000000e+01	 1.875000000000000e+00	 1.000385799876923e+01
0	 2.312500000000000e+01	 2.500000000000000e+00	 1.000444970769231e+01
0	 2.312500000000000e+01	 3.125000000000000e+00	 1.000503726000000e+01
0	 2.312500000000000e+01	 3.750000000000000e+00	 1.000562065569231e+01
0	 2.312500000000000e+01	 4.375000000000000e+00	 1.000619989476923e+01
0	 2.312500000000001e+01	 5.000000000000000e+00	 1.000677497723077e+01
0	 2.312500000000001e+01	 5.625000000000000e+00	 1.000734590307692e+01
0	 2.312500000000001e+01	 6.250000000000000e+00	 1.000791267230769e+01
0	 2.375000000000001e+01	 0.000000000000000e+00	 1.000187473230769e+01
0	 2.375000000000001e+01	 6.249999999999999e-01	 1.000255126461538e+01
0	 2.375000000000001e+01	 1.250000000000000e+00	 1.000320518892308e+01
0	 2.375000000000001e+01	 1.875000000000000e+00	 1.000383650523077e+01
0	 2.375000000000001e+01	 2.500000000000000e+00	 1.000444521353846e+01
0	 2.375000000000001e+01	 3.125000000000000e+00	 1.000503131384616e+01
0	 2.375000000000000e+01	 3.750000000000000e+00	 1.000559480615385e+01
0	 2.375000000000001e+01	 4.375000000000001e+00	 1.000613569046154e+01
0	 2.375000000000001e+01	 5.000000000000000e+00	 1.000665396676923e+01
0	 2.375000000000001e+01	 5.624999999999999e+00	 1.000714963507692e+01
0	 2.375000000000000e+01	 6.250000000000000e+00	 1.000762269538462e+01
0	 2.437500000000001e+01	 0.000000000000000e+00	 1.000192957538462e+01
0	 2.437500000000001e+01	 6.250000000000000e-01	 1.000263447323077e+01
0	 2.437500000000000e+01	 1.250000000000000e+00	 1.000329831169231e+01
0	 2.437500000000001e+01	 1.875000000000000e+00	 1.000392109076923e+01
0	 2.437500000000001e+01	 2.500000000000000e+00	 1.000450281046154e+01
0	 2.437500000000000e+01	 3.125000000000000e+00	 1.000504347076923e+01
0	 2.437500000000001e+01	 3.750000000000000e+00	 1.000554307169230e+01
0	 2.437500000000001e+01	 4.375000000000000e+00	 1.000600161323077e+01
0	 2.437500000000001e+01	 5.000000000000000e+00	 1.000641909538461e+01
0	 2.437500000000001e+01	 5.624999999999999e+00	 1.000679551815385e+01
0	 2.437500000000001e+01	 6.250000000000001e+00	 1.000713088153846e+01
0	 2.500000000000000e+01	 0.000000000000000e+00	 1.000222246153846e+01
0	 2.500000000000000e+01	 6.250000000000000e-01	 1.000291173692307e+01
0	 2.500000000000000e+01	 1.250000000000000e+00	 1.000354150153846e+01
0	 2.500000000000000e+01	 1.875000000000000e+00	 1.000411175538461e+01
0	 2.500000000000000e+01	 2.500000000000000e+00	 1.000462249846154e+01
0	 2.500000000000000e+01	 3.125000000000000e+00	 1.000507373076923e+01
0	 2.500000000000000e+01	 3.750000000000000e+00	 1.000546545230769e+01
0	 2.500000000000000e+01	 4.375000000000000e+00	 1.000579766307692e+01
0	 2.500000000000000e+01	 5.000000000000000e+00	 1.000607036307692e+01
0	 2.500000000000000e+01	 5.624999999999999e+00	 1.000628355230769e+01
0	 2.500000000000000e+01	 6.250000000000000e+00	 1.000643723076923e+01
0	 1.875000000000000e+01	 6.250000000000000e+00	 1.000429107692308e+01
0	 1.875000000000000e+01	 6.875000000000000e+00	 1.000533585692308e+01
0	 1.875000000000000e+01	 7.500000000000002e+00	 1.000631388923077e+01
0	 1.875000000000000e+01	 8.125000000000004e+00	 1.000722517384615e+01
0	 1.875000000000000e+01	 8.750000000000004e+00	 1.000806971076923e+01
0	 1.875000000000000e+01	 9.375000000000004e+00	 1.000884750000000e+01
0	 1.875000000000000e+01	 1.000000000000000e+01	 1.000955854153846e+01
0	 1.875000000000000e+01	 1.062500000000000e+01	 1.001020283538462e+01
0	 1.875000000000000e+01	 1.125000000000001e+01	 1.001078038153846e+01
0	 1.875000000000000e+01	 1.187500000000001e+01	 1.001129117999999e+01
0	 1.875000000000000e+01	 1.250000000000000e+01	 1.001173523076923e+01
0	 1.937500000000000e+01	 6.250000000000000e+00	 1.000541395846154e+01
0	 1.937500000000000e+01	 6.874999999999999e+00	 1.000613726523077e+01
0	 1.937500000000000e+01	 7.500000000000000e+00	 1.000680502492308e+01
0	 1.937500000000000e+01	 8.125000000000002e+00	 1.000741723753846e+01
0	 1.937500000000000e+01	 8.750000000000000e+00	 1.000797390307692e+01
0	 1.937500000000000e+01	 9.375000000000002e+00	 1.000847502153846e+01
0	 1.937500000000000e+01	 1.000000000000000e+01	 1.000892059292307e+01
0	 1.937500000000000e+01	 1.062500000000000e+01	 1.000931061723077e+01
0	 1.937500000000001e+01	 1.125000000000001e+01	 1.000964509446154e+01
0	 1.937500000000000e+01	 1.187500000000000e+01	 1.000992402461538e+01
0	 1.937500000000000e+01	 1.250000000000000e+01	 1.001014740769230e+01
0	 2.000000000000000e+01	 6.250000000000000e+00	 1.000633500307692e+01
0	 2.000000000000001e+01	 6.875000000000002e+00	 1.000677613569231e+01
0	 2.000000000000000e+01	 7.500000000000003e+00	 1.000717292184616e+01
0	 2.000000000000000e+01	 8.125000000000000e+00	 1.000752536153846e+01
0	 2.000000000000000e+01	 8.750000000000002e+00	 1.000783345476923e+01
0	 2.000000000000000e+01	 9.375000000000005e+00	 1.000809720153846e+01
0	 2.000000000000000e+01	 1.000000000000001e+01	 1.000831660184615e+01
0	 2.000000000000000e+01	 1.062500000000001e+01	 1.000849165569230e+01
0	 2.000000000000000e+01	 1.125000000000000e+01	 1.000862236307692e+01
0	 2.000000000000000e+01	 1.187500000000001e+01	 1.000870872399999e+01
0	 2.000000000000000e+01	 1.250000000000000e+01	 1.000875073846153e+01
0	 2.062500000000000e+01	 6.250000000000000e+00	 1.000705421076923e+01
0	 2.062500000000000e+01	 6.875000000000000e+00	 1.000725246830769e+01
0	 2.062500000000001e+01	 7.500000000000002e+00	 1.000741758000000e+01
0	 2.062500000000000e+01	 8.125000000000000e+00	 1.000754954584615e+01
0	 2.062500000000000e+01	 8.750000000000002e+00	 1.000764836584615e+01
0	 2.062500000000000e+01	 9.375000000000004e+00	 1.000771404000000e+01
0	 2.062500000000000e+01	 1.000000000000000e+01	 1.000774656830769e+01
0	 2.062500000000000e+01	 1.062500000000001e+01	 1.000774595076923e+01
0	 2.062500000000000e+01	 1.125000000000000e+01	 1.000771218738462e+01
0	 2.062500000000000e+01	 1.187500000000000e+01	 1.000764527815384e+01
0	 2.062500000000000e+01	 1.250000000000000e+01	 1.000754522307692e+01
0	 2.125000000000001e+01	 6.250000000000001e+00	 1.000757158153846e+01
0	 2.125000000000000e+01	 6.874999999999997e+00	 1.000756626307692e+01
0	 2.125000000000001e+01	 7.500000000000001e+00	 1.000753899938461e+01
0	 2.125000000000000e+01	 8.125000000000002e+00	 1.000748979046154e+01
0	 2.125000000000000e+01	 8.750000000000002e+00	 1.000741863630769e+01
0	 2.125000000000000e+01	 9.375000000000004e+00	 1.000732553692307e+01
0	 2.125000000000000e+01	 1.000000000000001e+01	 1.000721049230769e+01
0	 2.125000000000001e+01	 1.062500000000001e+01	 1.000707350246154e+01
0	 2.125000000000000e+01	 1.125000000000001e+01	 1.000691456738461e+01
0	 2.125000000000000e+01	 1.187500000000001e+01	 1.000673368707692e+01
0	 2.125000000000001e+01	 1.250000000000000e+01	 1.000653086153846e+01
0	 2.187500000000000e+01	 6.249999999999999e+00	 1.000788711538462e+01
0	 2.187500000000001e+01	 6.875000000000000e+00	 1.000771752000000e+01
0	 2.187500000000000e+01	 7.500000000000001e+00	 1.000753718000000e+01
0	 2.187500000000000e+01	 8.125000000000002e+00	 1.000734609538462e+01
0	 2.187500000000000e+01	 8.750000000000004e+00	 1.000714426615384e+01
0	 2.187500000000000e+01	 9.375000000000002e+00	 1.000693169230769e+01
0	 2.187500000000000e+01	 1.000000000000000e+01	 1.000670837384615e+01
0	 2.187500000000001e+01	 1.062500000000001e+01	 1.000647431076923e+01
0	 2.187500000000000e+01	 1.125000000000001e+01	 1.000622950307692e+01
0	 2.187500000000000e+01	 1.187500000000000e+01	 1.000597395076923e+01
0	 2.187500000000000e+01	 1.250000000000000e+01	 1.000570765384615e+01
0	 2.250000000000000e+01	 6.250000000000001e+00	 1.000800081230769e+01
0	 2.250000000000001e+01	 6.875000000000001e+00	 1.000770623907692e+01
0	 2.250000000000000e+01	 7.500000000000002e+00	 1.000741212184615e+01
0	 2.250000000000001e+01	 8.125000000000004e+00	 1.000711846061538e+01
0	 2.250000000000000e+01	 8.750000000000004e+00	 1.000682525538461e+01
0	 2.250000000000000e+01	 9.375000000000004e+00	 1.000653250615385e+01
0	 2.250000000000000e+01	 1.000000000000000e+01	 1.000624021292308e+01
0	 2.250000000000001e+01	 1.062500000000001e+01	 1.000594837569231e+01
0	 2.250000000000000e+01	 1.125000000000001e+01	 1.000565699446154e+01
0	 2.250000000000000e+01	 1.187500000000000e+01	 1.000536606923077e+01
0	 2.250000000000000e+01	 1.250000000000000e+01	 1.000507560000000e+01
0	 2.312500000000001e+01	 6.250000000000000e+00	 1.000791267230769e+01
0	 2.312500000000000e+01	 6.875000000000001e+00	 1.000753242030769e+01
0	 2.312500000000001e+01	 7.500000000000003e+00	 1.000716382492308e+01
0	 2.312500000000000e+01	 8.125000000000000e+00	 1.000680688615385e+01
0	 2.312500000000001e+01	 8.750000000000002e+00	 1.000646160400000e+01
0	 2.312500000000001e+01	 9.375000000000004e+00	 1.000612797846153e+01
0	 2.312500000000000e+01	 1.000000000000000e+01	 1.000580600953846e+01
0	 2.312500000000000e+01	 1.062500000000000e+01	 1.000549569723077e+01
0	 2.312500000000000e+01	 1.125000000000001e+01	 1.000519704153846e+01
0	 2.312500000000001e+01	 1.187500000000001e+01	 1.000491004246153e+01
0	 2.312500000000001e+01	 1.250000000000000e+01	 1.000463470000000e+01
0	 2.375000000000000e+01	 6.250000000000000e+00	 1.000762269538462e+01
0	 2.375000000000001e+01	 6.875000000000000e+00	 1.000719606369231e+01
0	 2.375000000000000e+01	 7.500000000000002e+00	 1.000679228923077e+01
0	 2.375000000000000e+01	 8.125000000000002e+00	 1.000641137200000e+01
0	 2.375000000000000e+01	 8.750000000000002e+00	 1.000605331200000e+01
0	 2.375000000000000e+01	 9.375000000000002e+00	 1.000571810923077e+01
0	 2.375000000000000e+01	 1.000000000000001e+01	 1.000540576369231e+01
0	 2.375000000000001e+01	 1.062500000000001e+01	 1.000511627538461e+01
0	 2.375000000000001e+01	 1.125000000000000e+01	 1.000484964430769e+01
0	 2.375000000000001e+01	 1.187500000000001e+01	 1.000460587046153e+01
0	 2.375000000000000e+01	 1.250000000000000e+01	 1.000438495384615e+01
0	 2.437500000000001e+01	 6.250000000000001e+00	 1.000713088153846e+01
0	 2.437500000000001e+01	 6.875000000000001e+00	 1.000669716923077e+01
0	 2.437500000000001e+01	 7.500000000000002e+00	 1.000629751476923e+01
0	 2.437500000000000e+01	 8.125000000000002e+00	 1.000593191815384e+01
0	 2.437500000000000e+01	 8.750000000000000e+00	 1.000560037938461e+01
0	 2.437500000000000e+01	 9.375000000000002e+00	 1.000530289846153e+01
0	 2.437500000000000e+01	 1.000000000000000e+01	 1.000503947538462e+01
0	 2.437500000000000e+01	 1.062500000000000e+01	 1.000481011015384e+01
0	 2.437500000000000e+01	 1.125000000000001e+01	 1.000461480276923e+01
0	 2.437500000000001e+01	 1.187500000000001e+01	 1.000445355323077e+01
0	 2.437500000000001e+01	 1.250000000000000e+01	 1.000432636153846e+01
0	 2.500000000000000e+01	 6.250000000000000e+00	 1.000643723076923e+01
0	 2.500000000000000e+01	 6.875000000000000e+00	 1.000603573692308e+01
0	 2.500000000000000e+01	 7.500000000000002e+00	 1.000567950153846e+01
0	 2.500000000000000e+01	 8.125000000000004e+00	 1.000536852461538e+01
0	 2.500000000000000e+01	 8.750000000000004e+00	 1.000510280615385e+01
0	 2.500000000000000e+01	 9.375000000000004e+00	 1.000488234615385e+01
0	 2.500000000000000e+01	 1.000000000000000e+01	 1.000470714461538e+01
0	 2.500000000000000e+01	 1.062500000000000e+01	 1.000457720153846e+01
0	 2.500000000000000e+01	 1.125000000000001e+01	 1.000449251692308e+01
0	 2.500000000000000e+01	 1.187500000000001e+01	 1.000445309076923e+01
0	 2.500000000000000e+01	 1.250000000000000e+01	 1.000445892307692e+01
0	 1.875000000000000e+01	 1.250000000000000e+01	 1.001173523076923e+01
0	 1.875000000000000e+01	 1.312500000000000e+01	 1.001069461230770e+01
0	 1.875000000000000e+01	 1.375000000000000e+01	 1.000972974153846e+01
0	 1.875000000000000e+01	 1.437500000000000e+01	 1.000884061846153e+01
0	 1.875000000000000e+01	 1.500000000000000e+01	 1.000802724307692e+01
0	 1.875000000000000e+01	 1.562500000000000e+01	 1.000728961538461e+01
0	 1.875000000000000e+01	 1.625000000000000e+01	 1.000662773538461e+01
0	 1.875000000000000e+01	 1.687500000000000e+01	 1.000604160307692e+01
0	 1.875000000000000e+01	 1.750000000000001e+01	 1.000553121846154e+01
0	 1.875000000000000e+01	 1.812500000000001e+01	 1.000509658153846e+01
0	 1.875000000000000e+01	 1.875000000000000e+01	 1.000473769230769e+01
0	 1.937500000000000e+01	 1.250000000000000e+01	 1.001014740769230e+01
0	 1.937500000000000e+01	 1.312500000000000e+01	 1.000933472984615e+01
0	 1.937500000000000e+01	 1.375000000000000e+01	 1.000858915323077e+01
0	 1.937500000000000e+01	 1.437500000000000e+01	 1.000791067784616e+01
0	 1.937500000000000e+01	 1.500000000000000e+01	 1.000729930369230e+01
0	 1.937500000000000e+01	 1.562500000000000e+01	 1.000675503076923e+01
0	 1.937500000000000e+01	 1.625000000000000e+01	 1.000627785907692e+01
0	 1.937500000000000e+01	 1.687500000000000e+01	 1.000586778861538e+01
0	 1.937500000000001e+01	 1.750000000000000e+01	 1.000552481938461e+01
0	 1.937500000000000e+01	 1.812500000000001e+01	 1.000524895138461e+01
0	 1.937500000000000e+01	 1.875000000000000e+01	 1.000504018461539e+01
0	 2.000000000000000e+01	 1.250000000000000e+01	 1.000875073846153e+01
0	 2.000000000000001e+01	 1.312500000000000e+01	 1.000814072584615e+01
0	 2.000000000000000e+01	 1.375000000000000e+01	 1.000758916800000e+01
0	 2.000000000000000e+01	 1.437500000000000e+01	 1.000709606492307e+01
0	 2.000000000000000e+01	 1.500000000000000e+01	 1.000666141661538e+01
0	 2.000000000000000e+01	 1.562500000000001e+01	 1.000628522307692e+01
0	 2.000000000000000e+01	 1.625000000000000e+01	 1.000596748430769e+01
0	 2.000000000000000e+01	 1.687500000000001e+01	 1.000570820030769e+01
0	 2.000000000000000e+01	 1.750000000000000e+01	 1.000550737107692e+01
0	 2.000000000000000e+01	 1.812500000000001e+01	 1.000536499661539e+01
0	 2.000000000000000e+01	 1.875000000000000e+01	 1.000528107692308e+01
0	 2.062500000000000e+01	 1.250000000000000e+01	 1.000754522307692e+01
0	 2.062500000000000e+01	 1.312500000000000e+01	 1.000711260030769e+01
0	 2.062500000000001e+01	 1.375000000000000e+01	 1.000672978584615e+01
0	 2.062500000000000e+01	 1.437500000000000e+01	 1.000639677969231e+01
0	 2.062500000000000e+01	 1.500000000000000e+01	 1.000611358184615e+01
0	 2.062500000000000e+01	 1.562500000000001e+01	 1.000588019230769e+01
0	 2.062500000000000e+01	 1.625000000000000e+01	 1.000569661107692e+01
0	 2.062500000000000e+01	 1.687500000000000e+01	 1.000556283815384e+01
0	 2.062500000000000e+01	 1.750000000000000e+01	 1.000547887353846e+01
0	 2.062500000000000e+01	 1.812500000000000e+01	 1.000544471723076e+01
0	 2.062500000000000e+01	 1.875000000000000e+01	 1.000546036923077e+01
0	 2.125000000000001e+01	 1.250000000000000e+01	 1.000653086153846e+01
0	 2.125000000000000e+01	 1.312500000000000e+01	 1.000625035323076e+01
0	 2.125000000000001e+01	 1.375000000000000e+01	 1.000601100676923e+01
0	 2.125000000000000e+01	 1.437500000000000e+01	 1.000581282215385e+01
0	 2.125000000000000e+01	 1.500000000000000e+01	 1.000565579938461e+01
0	 2.125000000000000e+01	 1.562500000000000e+01	 1.000553993846153e+01
0	 2.125000000000000e+01	 1.625000000000000e+01	 1.000546523938462e+01
0	 2.125000000000001e+01	 1.687500000000001e+01	 1.000543170215384e+01
0	 2.125000000000000e+01	 1.750000000000000e+01	 1.000543932676923e+01
0	 2.125000000000000e+01	 1.812500000000001e+01	 1.000548811323076e+01
0	 2.125000000000001e+01	 1.875000000000000e+01	 1.000557806153846e+01
0	 2.187500000000000e+01	 1.250000000000000e+01	 1.000570765384615e+01
0	 2.187500000000001e+01	 1.312500000000000e+01	 1.000555398461538e+01
0	 2.187500000000000e+01	 1.375000000000000e+01	 1.000543283076923e+01
0	 2.187500000000000e+01	 1.437500000000000e+01	 1.000534419230769e+01
0	 2.187500000000000e+01	 1.500000000000000e+01	 1.000528806923077e+01
0	 2.187500000000000e+01	 1.562500000000001e+01	 1.000526446153846e+01
0	 2.187500000000000e+01	 1.625000000000000e+01	 1.000527336923076e+01
0	 2.187500000000001e+01	 1.687500000000001e+01	 1.000531479230769e+01
0	 2.187500000000000e+01	 1.750000000000000e+01	 1.000538873076923e+01
0	 2.187500000000000e+01	 1.812500000000000e+01	 1.000549518461539e+01
0	 2.187500000000000e+01	 1.875000000000000e+01	 1.000563415384615e+01
0	 2.250000000000000e+01	 1.250000000000000e+01	 1.000507560000000e+01
0	 2.250000000000001e+01	 1.312500000000000e+01	 1.000502349446153e+01
0	 2.250000000000000e+01	 1.375000000000000e+01	 1.000499525784615e+01
0	 2.250000000000001e+01	 1.437500000000001e+01	 1.000499089015384e+01
0	 2.250000000000000e+01	 1.500000000000000e+01	 1.000501039138461e+01
0	 2.250000000000000e+01	 1.562500000000000e+01	 1.000505376153846e+01
0	 2.250000000000000e+01	 1.625000000000000e+01	 1.000512100061539e+01
0	 2.250000000000001e+01	 1.687500000000001e+01	 1.000521210861538e+01
0	 2.250000000000000e+01	 1.750000000000001e+01	 1.000532708553846e+01
0	 2.250000000000000e+01	 1.812500000000000e+01	 1.000546593138462e+01
0	 2.250000000000000e+01	 1.875000000000000e+01	 1.000562864615385e+01
0	 2.312500000000001e+01	 1.250000000000000e+01	 1.000463470000000e+01
0	 2.312500000000000e+01	 1.312500000000000e+01	 1.000465888276922e+01
0	 2.312500000000001e+01	 1.375000000000000e+01	 1.000469828800000e+01
0	 2.312500000000000e+01	 1.437500000000000e+01	 1.000475291569230e+01
0	 2.312500000000001e+01	 1.500000000000000e+01	 1.000482276584615e+01
0	 2.312500000000001e+01	 1.562500000000000e+01	 1.000490783846153e+01
0	 2.312500000000000e+01	 1.625000000000000e+01	 1.000500813353846e+01
0	 2.312500000000000e+01	 1.687500000000001e+01	 1.000512365107692e+01
0	 2.312500000000000e+01	 1.750000000000000e+01	 1.000525439107692e+01
0	 2.312500000000001e+01	 1.812500000000000e+01	 1.000540035353846e+01
0	 2.312500000000001e+01	 1.875000000000000e+01	 1.000556153846154e+01
0	 2.375000000000000e+01	 1.250000000000000e+01	 1.000438495384615e+01
0	 2.375000000000001e+01	 1.312500000000000e+01	 1.000446014953846e+01
0	 2.375000000000000e+01	 1.375000000000000e+01	 1.000454192123077e+01
0	 2.375000000000000e+01	 1.437500000000000e+01	 1.000463026892307e+01
0	 2.375000000000000e+01	 1.500000000000000e+01	 1.000472519261538e+01
0	 2.375000000000000e+01	 1.562500000000000e+01	 1.000482669230769e+01
0	 2.375000000000000e+01	 1.625000000000001e+01	 1.000493476799999e+01
0	 2.375000000000001e+01	 1.687500000000001e+01	 1.000504941969230e+01
0	 2.375000000000001e+01	 1.750000000000001e+01	 1.000517064738461e+01
0	 2.375000000000001e+01	 1.812500000000001e+01	 1.000529845107692e+01
0	 2.375000000000000e+01	 1.875000000000000e+01	 1.000543283076922e+01
0	 2.437500000000001e+01	 1.250000000000000e+01	 1.000432636153846e+01
0	 2.437500000000001e+01	 1.312500000000000e+01	 1.000442729476923e+01
0	 2.437500000000001e+01	 1.375000000000000e+01	 1.000452615753846e+01
0	 2.437500000000000e+01	 1.437500000000000e+01	 1.000462294984615e+01
0	 2.437500000000000e+01	 1.500000000000000e+01	 1.000471767169230e+01
0	 2.437500000000000e+01	 1.562500000000000e+01	 1.000481032307692e+01
0	 2.437500000000000e+01	 1.625000000000000e+01	 1.000490090400000e+01
0	 2.437500000000000e+01	 1.687500000000000e+01	 1.000498941446154e+01
0	 2.437500000000000e+01	 1.750000000000001e+01	 1.000507585446154e+01
0	 2.437500000000001e+01	 1.812500000000001e+01	 1.000516022400000e+01
0	 2.437500000000001e+01	 1.875000000000000e+01	 1.000524252307692e+01
0	 2.500000000000000e+01	 1.250000000000000e+01	 1.000445892307692e+01
0	 2.500000000000000e+01	 1.312500000000000e+01	 1.000456031846154e+01
0	 2.500000000000000e+01	 1.375000000000000e+01	 1.000465099692307e+01
0	 2.500000000000000e+01	 1.437500000000000e+01	 1.000473095846153e+01
0	 2.500000000000000e+01	 1.500000000000000e+01	 1.000480020307692e+01
0	 2.500000000000000e+01	 1.562500000000000e+01	 1.000485873076923e+01
0	 2.500000000000000e+01	 1.625000000000000e+01	 1.000490654153846e+01
0	 2.500000000000000e+01	 1.687500000000000e+01	 1.000494363538461e+01
0	 2.500000000000000e+01	 1.750000000000001e+01	 1.000497001230769e+01
0	 2.500000000000000e+01	 1.812500000000001e+01	 1.000498567230769e+01
0	 2.500000000000000e+01	 1.875000000000000e+01	 1.000499061538461e+01
0	 1.875000000000000e+01	 1.875000000000000e+01	 1.000473769230769e+01
0	 1.875000000000000e+01	 1.937500000000000e+01	 1.000454128615384e+01
0	 1.875000000000000e+01	 2.000000000000000e+01	 1.000432874461538e+01
0	 1.875000000000000e+01	 2.062500000000000e+01	 1.000410006769231e+01
0	 1.875000000000000e+01	 2.125000000000000e+01	 1.000385525538462e+01
0	 1.875000000000000e+01	 2.187500000000000e+01	 1.000359430769231e+01
0	 1.875000000000000e+01	 2.250000000000000e+01	 1.000331722461539e+01
0	 1.875000000000000e+01	 2.312500000000001e+01	 1.000302400615385e+01
0	 1.875000000000000e+01	 2.375000000000001e+01	 1.000271465230770e+01
0	 1.875000000000000e+01	 2.437500000000001e+01	 1.000238916307693e+01
0	 1.875000000000000e+01	 2.500000000000000e+01	 1.000204753846154e+01
0	 1.937500000000000e+01	 1.875000000000000e+01	 1.000504018461539e+01
0	 1.937500000000000e+01	 1.937500000000000e+01	 1.000481723738461e+01
0	 1.937500000000000e+01	 2.000000000000000e+01	 1.000458171876923e+01
0	 1.937500000000000e+01	 2.062500000000000e+01	 1.000433362876923e+01
0	 1.937500000000000e+01	 2.125000000000001e+01	 1.000407296738462e+01
0	 1.937500000000000e+01	 2.187500000000000e+01	 1.000379973461538e+01
0	 1.937500000000000e+01	 2.250000000000001e+01	 1.000351393046154e+01
0	 1.937500000000000e+01	 2.312500000000000e+01	 1.000321555492308e+01
0	 1.937500000000001e+01	 2.375000000000001e+01	 1.000290460800000e+01
0	 1.937500000000000e+01	 2.437500000000001e+01	 1.000258108969231e+01
0	 1.937500000000000e+01	 2.500000000000000e+01	 1.000224500000000e+01
0	 2.000000000000000e+01	 1.875000000000000e+01	 1.000528107692308e+01
0	 2.000000000000001e+01	 1.937500000000000e+01	 1.000503516400000e+01
0	 2.000000000000000e+01	 2.000000000000000e+01	 1.000478024369231e+01
0	 2.000000000000000e+01	 2.062500000000000e+01	 1.000451631600000e+01
0	 2.000000000000000e+01	 2.125000000000000e+01	 1.000424338092308e+01
0	 2.000000000000000e+01	 2.187500000000000e+01	 1.000396143846154e+01
0	 2.000000000000000e+01	 2.250000000000000e+01	 1.000367048861538e+01
0	 2.000000000000000e+01	 2.312500000000001e+01	 1.000337053138462e+01
0	 2.000000000000000e+01	 2.375000000000001e+01	 1.000306156676923e+01
0	 2.000000000000000e+01	 2.437500000000001e+01	 1.000274359476924e+01
0	 2.000000000000000e+01	 2.500000000000000e+01	 1.000241661538463e+01
0	 2.062500000000000e+01	 1.875000000000000e+01	 1.000546036923077e+01
0	 2.062500000000000e+01	 1.937500000000000e+01	 1.000519506600000e+01
0	 2.062500000000001e+01	 2.000000000000000e+01	 1.000492431938461e+01
0	 2.062500000000000e+01	 2.062500000000000e+01	 1.000464812938462e+01
0	 2.062500000000000e+01	 2.125000000000000e+01	 1.000436649600000e+01
0	 2.062500000000000e+01	 2.187500000000000e+01	 1.000407941923077e+01
0	 2.062500000000000e+01	 2.250000000000000e+01	 1.000378689907692e+01
0	 2.062500000000000e+01	 2.312500000000001e+01	 1.000348893553846e+01
0	 2.062500000000000e+01	 2.375000000000000e+01	 1.000318552861538e+01
0	 2.062500000000000e+01	 2.437500000000000e+01	 1.000287667830770e+01
0	 2.062500000000000e+01	 2.500000000000000e+01	 1.000256238461538e+01
0	 2.125000000000001e+01	 1.875000000000000e+01	 1.000557806153846e+01
0	 2.125000000000000e+01	 1.937500000000000e+01	 1.000529694338461e+01
0	 2.125000000000001e+01	 2.000000000000001e+01	 1.000501394584616e+01
0	 2.125000000000000e+01	 2.062500000000000e+01	 1.000472906892307e+01
0	 2.125000000000000e+01	 2.125000000000000e+01	 1.000444231261539e+01
0	 2.125000000000000e+01	 2.187500000000000e+01	 1.000415367692308e+01
0	 2.125000000000000e+01	 2.250000000000000e+01	 1.000386316184615e+01
0	 2.125000000000001e+01	 2.312500000000001e+01	 1.000357076738462e+01
0	 2.125000000000000e+01	 2.375000000000000e+01	 1.000327649353847e+01
0	 2.125000000000000e+01	 2.437500000000001e+01	 1.000298034030769e+01
0	 2.125000000000001e+01	 2.500000000000000e+01	 1.000268230769231e+01
0	 2.187500000000000e+01	 1.875000000000000e+01	 1.000563415384615e+01
0	 2.187500000000001e+01	 1.937500000000000e+01	 1.000534079615385e+01
0	 2.187500000000000e+01	 2.000000000000000e+01	 1.000504912307692e+01
0	 2.187500000000000e+01	 2.062500000000000e+01	 1.000475913461539e+01
0	 2.187500000000000e+01	 2.125000000000000e+01	 1.000447083076923e+01
0	 2.187500000000000e+01	 2.187500000000000e+01	 1.000418421153846e+01
0	 2.187500000000000e+01	 2.250000000000000e+01	 1.000389927692308e+01
0	 2.187500000000001e+01	 2.312500000000001e+01	 1.000361602692308e+01
0	 2.187500000000000e+01	 2.375000000000001e+01	 1.000333446153846e+01
0	 2.187500000000000e+01	 2.437500000000000e+01	 1.000305458076923e+01
0	 2.187500000000000e+01	 2.500000000000000e+01	 1.000277638461539e+01
0	 2.250000000000000e+01	 1.875000000000000e+01	 1.000562864615385e+01
0	 2.250000000000001e+01	 1.937500000000000e+01	 1.000532662430769e+01
0	 2.250000000000000e+01	 2.000000000000000e+01	 1.000502985107692e+01
0	 2.250000000000001e+01	 2.062500000000001e+01	 1.000473832646154e+01
0	 2.250000000000000e+01	 2.125000000000001e+01	 1.000445205046154e+01
0	 2.250000000000000e+01	 2.187500000000000e+01	 1.000417102307692e+01
0	 2.250000000000000e+01	 2.250000000000000e+01	 1.000389524430769e+01
0	 2.250000000000001e+01	 2.312500000000001e+01	 1.000362471415385e+01
0	 2.250000000000000e+01	 2.375000000000000e+01	 1.000335943261538e+01
0	 2.250000000000000e+01	 2.437500000000001e+01	 1.000309939969231e+01
0	 2.250000000000000e+01	 2.500000000000000e+01	 1.000284461538462e+01
0	 2.312500000000001e+01	 1.875000000000000e+01	 1.000556153846154e+01
0	 2.312500000000000e+01	 1.937500000000000e+01	 1.000525442784615e+01
0	 2.312500000000001e+01	 2.000000000000001e+01	 1.000495612984615e+01
0	 2.312500000000000e+01	 2.062500000000000e+01	 1.000466664446154e+01
0	 2.312500000000001e+01	 2.125000000000000e+01	 1.000438597169230e+01
0	 2.312500000000001e+01	 2.187500000000001e+01	 1.000411411153846e+01
0	 2.312500000000000e+01	 2.250000000000000e+01	 1.000385106400000e+01
0	 2.312500000000000e+01	 2.312500000000000e+01	 1.000359682907692e+01
0	 2.312500000000000e+01	 2.375000000000000e+01	 1.000335140676923e+01
0	 2.312500000000001e+01	 2.437500000000000e+01	 1.000311479707692e+01
0	 2.312500000000001e+01	 2.500000000000000e+01	 1.000288700000000e+01
0	 2.375000000000000e+01	 1.875000000000000e+01	 1.000543283076922e+01
0	 2.375000000000001e+01	 1.937500000000000e+01	 1.000512420676923e+01
0	 2.375000000000000e+01	 2.000000000000000e+01	 1.000482795938461e+01
0	 2.375000000000000e+01	 2.062500000000000e+01	 1.000454408861538e+01
0	 2.375000000000000e+01	 2.125000000000000e+01	 1.000427259446153e+01
0	 2.375000000000000e+01	 2.187500000000000e+01	 1.000401347692308e+01
0	 2.375000000000000e+01	 2.250000000000000e+01	 1.000376673600000e+01
0	 2.375000000000001e+01	 2.312500000000001e+01	 1.000353237169231e+01
0	 2.375000000000001e+01	 2.375000000000000e+01	 1.000331038400000e+01
0	 2.375000000000001e+01	 2.437500000000000e+01	 1.000310077292307e+01
0	 2.375000000000000e+01	 2.500000000000000e+01	 1.000290353846154e+01
0	 2.437500000000001e+01	 1.875000000000000e+01	 1.000524252307692e+01
0	 2.437500000000001e+01	 1.937500000000000e+01	 1.000493596107692e+01
0	 2.437500000000001e+01	 2.000000000000000e+01	 1.000464533969231e+01
0	 2.437500000000000e+01	 2.062500000000000e+01	 1.000437065892308e+01
0	 2.437500000000000e+01	 2.125000000000000e+01	 1.000411191876923e+01
0	 2.437500000000000e+01	 2.187500000000000e+01	 1.000386911923077e+01
0	 2.437500000000000e+01	 2.250000000000001e+01	 1.000364226030769e+01
0	 2.437500000000000e+01	 2.312500000000000e+01	 1.000343134200000e+01
0	 2.437500000000000e+01	 2.375000000000000e+01	 1.000323636430769e+01
0	 2.437500000000001e+01	 2.437500000000000e+01	 1.000305732723076e+01
0	 2.437500000000001e+01	 2.500000000000000e+01	 1.000289423076924e+01
0	 2.500000000000000e+01	 1.875000000000000e+01	 1.000499061538461e+01
0	 2.500000000000000e+01	 1.937500000000000e+01	 1.000468969076923e+01
0	 2.500000000000000e+01	 2.000000000000000e+01	 1.000440827076923e+01
0	 2.500000000000000e+01	 2.062500000000000e+01	 1.000414635538462e+01
0	 2.500000000000000e+01	 2.125000000000000e+01	 1.000390394461538e+01
0	 2.500000000000000e+01	 2.187500000000000e+01	 1.000368103846154e+01
0	 2.500000000000000e+01	 2.250000000000000e+01	 1.000347763692308e+01
0	 2.500000000000000e+01	 2.312500000000001e+01	 1.000329374000000e+01
0	 2.500000000000000e+01	 2.375000000000001e+01	 1.000312934769230e+01
0	 2.500000000000000e+01	 2.437500000000001e+01	 1.000298446000000e+01
0	 2.500000000000000e+01	 2.500000000000000e+01	 1.000285907692307e+01
0	 1.875000000000000e+01	 2.500000000000000e+01	 1.000204753846154e+01
0	 1.875000000000000e+01	 2.562500000000000e+01	 1.000196947846154e+01
0	 1.875000000000001e+01	 2.625000000000000e+01	 1.000188760615385e+01
0	 1.875000000000000e+01	 2.687499999999999e+01	 1.000180192153846e+01
0	 1.875000000000000e+01	 2.749999999999999e+01	 1.000171242461539e+01
0	 1.875000000000000e+01	 2.812499999999999e+01	 1.000161911538462e+01
0	 1.875000000000000e+01	 2.874999999999999e+01	 1.000152199384616e+01
0	 1.875000000000000e+01	 2.937499999999999e+01	 1.000142106000000e+01
0	 1.875000000000000e+01	 2.999999999999998e+01	 1.000131631384615e+01
0	 1.875000000000000e+01	 3.062499999999998e+01	 1.000120775538461e+01
0	 1.875000000000000e+01	 3.125000000000000e+01	 1.000109538461538e+01
0	 1.937500000000000e+01	 2.500000000000000e+01	 1.000224500000000e+01
0	 1.937500000000000e+01	 2.562499999999999e+01	 1.000215604876923e+01
0	 1.937500000000000e+01	 2.625000000000000e+01	 1.000206324738462e+01
0	 1.937500000000000e+01	 2.687499999999998e+01	 1.000196659584615e+01
0	 1.937500000000000e+01	 2.749999999999999e+01	 1.000186609415384e+01
0	 1.937500000000000e+01	 2.812499999999998e+01	 1.000176174230769e+01
0	 1.937500000000000e+01	 2.874999999999999e+01	 1.000165354030769e+01
0	 1.937500000000000e+01	 2.937499999999998e+01	 1.000154148815384e+01
0	 1.937500000000000e+01	 2.999999999999999e+01	 1.000142558584615e+01
0	 1.937500000000000e+01	 3.062499999999998e+01	 1.000130583338461e+01
0	 1.937500000000000e+01	 3.125000000000000e+01	 1.000118223076923e+01
0	 2.000000000000000e+01	 2.500000000000000e+01	 1.000241661538463e+01
0	 2.000000000000000e+01	 2.562499999999999e+01	 1.000231843138462e+01
0	 2.000000000000000e+01	 2.624999999999999e+01	 1.000221635938462e+01
0	 2.000000000000000e+01	 2.687499999999999e+01	 1.000211039938462e+01
0	 2.000000000000000e+01	 2.749999999999999e+01	 1.000200055138462e+01
0	 2.000000000000000e+01	 2.812499999999999e+01	 1.000188681538462e+01
0	 2.000000000000000e+01	 2.874999999999998e+01	 1.000176919138461e+01
0	 2.000000000000000e+01	 2.937499999999999e+01	 1.000164767938461e+01
0	 2.000000000000000e+01	 2.999999999999998e+01	 1.000152227938462e+01
0	 2.000000000000000e+01	 3.062499999999999e+01	 1.000139299138461e+01
0	 2.000000000000000e+01	 3.125000000000000e+01	 1.000125981538461e+01
0	 2.062500000000000e+01	 2.500000000000000e+01	 1.000256238461538e+01
0	 2.062500000000000e+01	 2.562500000000000e+01	 1.000245662630769e+01
0	 2.062500000000000e+01	 2.625000000000000e+01	 1.000234694215385e+01
0	 2.062500000000000e+01	 2.687499999999999e+01	 1.000223333215385e+01
0	 2.062500000000000e+01	 2.749999999999998e+01	 1.000211579630769e+01
0	 2.062500000000000e+01	 2.812499999999999e+01	 1.000199433461538e+01
0	 2.062500000000000e+01	 2.874999999999998e+01	 1.000186894707692e+01
0	 2.062500000000000e+01	 2.937499999999998e+01	 1.000173963369230e+01
0	 2.062500000000000e+01	 2.999999999999998e+01	 1.000160639446153e+01
0	 2.062500000000000e+01	 3.062499999999998e+01	 1.000146922938461e+01
0	 2.062500000000000e+01	 3.125000000000000e+01	 1.000132813846154e+01
0	 2.125000000000001e+01	 2.500000000000000e+01	 1.000268230769231e+01
0	 2.125000000000001e+01	 2.562500000000000e+01	 1.000257063353847e+01
0	 2.125000000000000e+01	 2.625000000000000e+01	 1.000245499569231e+01
0	 2.125000000000000e+01	 2.687499999999999e+01	 1.000233539415384e+01
0	 2.125000000000000e+01	 2.749999999999999e+01	 1.000221182892308e+01
0	 2.125000000000000e+01	 2.812499999999998e+01	 1.000208430000000e+01
0	 2.125000000000000e+01	 2.874999999999999e+01	 1.000195280738461e+01
0	 2.125000000000000e+01	 2.937499999999998e+01	 1.000181735107692e+01
0	 2.125000000000000e+01	 2.999999999999998e+01	 1.000167793107692e+01
0	 2.125000000000000e+01	 3.062499999999998e+01	 1.000153454738461e+01
0	 2.125000000000001e+01	 3.125000000000001e+01	 1.000138720000000e+01
0	 2.187500000000000e+01	 2.500000000000000e+01	 1.000277638461539e+01
0	 2.187500000000000e+01	 2.562500000000000e+01	 1.000266045307693e+01
0	 2.187500000000000e+01	 2.625000000000000e+01	 1.000254052000000e+01
0	 2.187500000000001e+01	 2.687500000000000e+01	 1.000241658538462e+01
0	 2.187500000000000e+01	 2.749999999999998e+01	 1.000228864923077e+01
0	 2.187500000000000e+01	 2.812499999999999e+01	 1.000215671153846e+01
0	 2.187500000000001e+01	 2.874999999999999e+01	 1.000202077230769e+01
0	 2.187500000000001e+01	 2.937499999999999e+01	 1.000188083153846e+01
0	 2.187500000000000e+01	 2.999999999999998e+01	 1.000173688923077e+01
0	 2.187500000000000e+01	 3.062499999999998e+01	 1.000158894538461e+01
0	 2.187500000000000e+01	 3.125000000000000e+01	 1.000143699999999e+01
0	 2.250000000000000e+01	 2.500000000000000e+01	 1.000284461538462e+01
0	 2.250000000000000e+01	 2.562500000000000e+01	 1.000272608492307e+01
0	 2.250000000000000e+01	 2.625000000000000e+01	 1.000260351507692e+01
0	 2.250000000000000e+01	 2.687499999999999e+01	 1.000247690584615e+01
0	 2.250000000000001e+01	 2.750000000000000e+01	 1.000234625723077e+01
0	 2.250000000000000e+01	 2.812499999999999e+01	 1.000221156923077e+01
0	 2.250000000000000e+01	 2.874999999999999e+01	 1.000207284184615e+01
0	 2.250000000000000e+01	 2.937499999999998e+01	 1.000193007507692e+01
0	 2.250000000000000e+01	 2.999999999999998e+01	 1.000178326892307e+01
0	 2.250000000000000e+01	 3.062499999999998e+01	 1.000163242338461e+01
0	 2.250000000000000e+01	 3.125000000000000e+01	 1.000147753846153e+01
0	 2.312500000000001e+01	 2.500000000000000e+01	 1.000288700000000e+01
0	 2.312500000000001e+01	 2.562500000000000e+01	 1.000276752907692e+01
0	 2.312500000000000e+01	 2.625000000000000e+01	 1.000264398092308e+01
0	 2.312500000000000e+01	 2.687499999999999e+01	 1.000251635553846e+01
0	 2.312500000000001e+01	 2.749999999999999e+01	 1.000238465292308e+01
0	 2.312500000000001e+01	 2.812499999999999e+01	 1.000224887307692e+01
0	 2.312500000000001e+01	 2.874999999999999e+01	 1.000210901600000e+01
0	 2.312500000000001e+01	 2.937499999999999e+01	 1.000196508169230e+01
0	 2.312500000000000e+01	 2.999999999999998e+01	 1.000181707015384e+01
0	 2.312500000000001e+01	 3.062499999999999e+01	 1.000166498138461e+01
0	 2.312500000000001e+01	 3.125000000000000e+01	 1.000150881538460e+01
0	 2.375000000000000e+01	 2.500000000000000e+01	 1.000290353846154e+01
0	 2.375000000000000e+01	 2.562500000000000e+01	 1.000278478553846e+01
0	 2.375000000000001e+01	 2.625000000000000e+01	 1.000266191753846e+01
0	 2.375000000000000e+01	 2.687499999999999e+01	 1.000253493446154e+01
0	 2.375000000000001e+01	 2.750000000000000e+01	 1.000240383630769e+01
0	 2.375000000000000e+01	 2.812499999999999e+01	 1.000226862307692e+01
0	 2.375000000000001e+01	 2.874999999999999e+01	 1.000212929476922e+01
0	 2.375000000000000e+01	 2.937499999999999e+01	 1.000198585138461e+01
0	 2.375000000000000e+01	 2.999999999999998e+01	 1.000183829292307e+01
0	 2.375000000000000e+01	 3.062499999999998e+01	 1.000168661938462e+01
0	 2.375000000000000e+01	 3.125000000000000e+01	 1.000153083076922e+01
0	 2.437500000000001e+01	 2.500000000000000e+01	 1.000289423076924e+01
0	 2.437500000000000e+01	 2.562499999999999e+01	 1.000277785430769e+01
0	 2.437500000000000e+01	 2.625000000000000e+01	 1.000265732492307e+01
0	 2.437500000000001e+01	 2.687499999999999e+01	 1.000253264261538e+01
0	 2.437500000000001e+01	 2.749999999999999e+01	 1.000240380738461e+01
0	 2.437500000000000e+01	 2.812499999999998e+01	 1.000227081923076e+01
0	 2.437500000000001e+01	 2.874999999999999e+01	 1.000213367815384e+01
0	 2.437500000000001e+01	 2.937499999999999e+01	 1.000199238415384e+01
0	 2.437500000000001e+01	 2.999999999999999e+01	 1.000184693723076e+01
0	 2.437500000000001e+01	 3.062499999999998e+01	 1.000169733738462e+01
0	 2.437500000000001e+01	 3.125000000000000e+01	 1.000154358461538e+01
0	 2.500000000000000e+01	 2.500000000000000e+01	 1.000285907692307e+01
0	 2.500000000000000e+01	 2.562500000000000e+01	 1.000274673538461e+01
0	 2.500000000000000e+01	 2.625000000000000e+01	 1.000263020307693e+01
0	 2.500000000000000e+01	 2.687499999999999e+01	 1.000250948000000e+01
0	 2.500000000000000e+01	 2.749999999999999e+01	 1.000238456615385e+01
0	 2.500000000000000e+01	 2.812499999999999e+01	 1.000225546153846e+01
0	 2.500000000000000e+01	 2.874999999999999e+01	 1.000212216615385e+01
0	 2.500000000000000e+01	 2.937499999999999e+01	 1.000198468000000e+01
0	 2.500000000000000e+01	 2.999999999999998e+01	 1.000184300307692e+01
0	 2.500000000000000e+01	 3.062499999999998e+01	 1.000169713538461e+01
0	 2.500000000000000e+01	 3.125000000000000e+01	 1.000154707692307e+01
0	 1.875000000000000e+01	 3.125000000000000e+01	 1.000109538461538e+01
0	 1.875000000000000e+01	 3.187500000000000e+01	 1.000101024923076e+01
0	 1.875000000000001e+01	 3.250000000000001e+01	 1.000092524307692e+01
0	 1.875000000000000e+01	 3.312499999999999e+01	 1.000084036615384e+01
0	 1.875000000000000e+01	 3.374999999999999e+01	 1.000075561846153e+01
0	 1.875000000000000e+01	 3.437499999999999e+01	 1.000067099999999e+01
0	 1.875000000000000e+01	 3.499999999999999e+01	 1.000058651076923e+01
0	 1.875000000000000e+01	 3.562499999999999e+01	 1.000050215076923e+01
0	 1.875000000000000e+01	 3.624999999999998e+01	 1.000041792000000e+01
0	 1.875000000000000e+01	 3.687499999999998e+01	 1.000033381846153e+01
0	 1.875000000000000e+01	 3.750000000000000e+01	 1.000024984615384e+01
0	 1.937500000000000e+01	 3.125000000000000e+01	 1.000118223076923e+01
0	 1.937500000000000e+01	 3.187499999999999e+01	 1.000110004261538e+01
0	 1.937500000000000e+01	 3.250000000000000e+01	 1.000101786276922e+01
0	 1.937500000000000e+01	 3.312499999999999e+01	 1.000093569123076e+01
0	 1.937500000000000e+01	 3.374999999999999e+01	 1.000085352799999e+01
0	 1.937500000000000e+01	 3.437499999999998e+01	 1.000077137307692e+01
0	 1.937500000000000e+01	 3.499999999999999e+01	 1.000068922646154e+01
0	 1.937500000000000e+01	 3.562499999999998e+01	 1.000060708815384e+01
0	 1.937500000000000e+01	 3.624999999999998e+01	 1.000052495815385e+01
0	 1.937500000000000e+01	 3.687499999999999e+01	 1.000044283646153e+01
0	 1.937500000000000e+01	 3.750000000000000e+01	 1.000036072307692e+01
0	 2.000000000000000e+01	 3.125000000000000e+01	 1.000125981538461e+01
0	 2.000000000000000e+01	 3.187499999999999e+01	 1.000118016523075e+01
0	 2.000000000000000e+01	 3.249999999999999e+01	 1.000110040246153e+01
0	 2.000000000000000e+01	 3.312500000000000e+01	 1.000102052707692e+01
0	 2.000000000000000e+01	 3.374999999999999e+01	 1.000094053907692e+01
0	 2.000000000000000e+01	 3.437499999999999e+01	 1.000086043846153e+01
0	 2.000000000000000e+01	 3.499999999999999e+01	 1.000078022523077e+01
0	 2.000000000000000e+01	 3.562499999999998e+01	 1.000069989938461e+01
0	 2.000000000000000e+01	 3.624999999999997e+01	 1.000061946092308e+01
0	 2.000000000000000e+01	 3.687499999999997e+01	 1.000053890984616e+01
0	 2.000000000000000e+01	 3.750000000000000e+01	 1.000045824615384e+01
0	 2.062500000000000e+01	 3.125000000000000e+01	 1.000132813846154e+01
0	 2.062500000000000e+01	 3.187500000000000e+01	 1.000125061707693e+01
0	 2.062500000000000e+01	 3.250000000000000e+01	 1.000117286215384e+01
0	 2.062500000000000e+01	 3.312499999999999e+01	 1.000109487369230e+01
0	 2.062500000000000e+01	 3.374999999999999e+01	 1.000101665169231e+01
0	 2.062500000000000e+01	 3.437499999999999e+01	 1.000093819615384e+01
0	 2.062500000000000e+01	 3.499999999999999e+01	 1.000085950707692e+01
0	 2.062500000000000e+01	 3.562499999999999e+01	 1.000078058446154e+01
0	 2.062500000000000e+01	 3.624999999999997e+01	 1.000070142830769e+01
0	 2.062500000000000e+01	 3.687499999999998e+01	 1.000062203861538e+01
0	 2.062500000000000e+01	 3.749999999999999e+01	 1.000054241538461e+01
0	 2.125000000000001e+01	 3.125000000000001e+01	 1.000138720000000e+01
0	 2.125000000000001e+01	 3.187500000000000e+01	 1.000131139815383e+01
0	 2.125000000000000e+01	 3.250000000000000e+01	 1.000123524184614e+01
0	 2.125000000000000e+01	 3.312500000000000e+01	 1.000115873107692e+01
0	 2.125000000000000e+01	 3.374999999999999e+01	 1.000108186584615e+01
0	 2.125000000000000e+01	 3.437499999999999e+01	 1.000100464615384e+01
0	 2.125000000000000e+01	 3.499999999999998e+01	 1.000092707199999e+01
0	 2.125000000000000e+01	 3.562499999999998e+01	 1.000084914338461e+01
0	 2.125000000000000e+01	 3.624999999999998e+01	 1.000077086030769e+01
0	 2.125000000000000e+01	 3.687499999999999e+01	 1.000069222276923e+01
0	 2.125000000000001e+01	 3.749999999999999e+01	 1.000061323076924e+01
0	 2.187500000000000e+01	 3.125000000000000e+01	 1.000143699999999e+01
0	 2.187500000000000e+01	 3.187500000000000e+01	 1.000136250846154e+01
0	 2.187500000000000e+01	 3.250000000000000e+01	 1.000128754153845e+01
0	 2.187500000000001e+01	 3.312500000000000e+01	 1.000121209923076e+01
0	 2.187500000000000e+01	 3.374999999999999e+01	 1.000113618153845e+01
0	 2.187500000000000e+01	 3.437500000000000e+01	 1.000105978846153e+01
0	 2.187500000000001e+01	 3.499999999999999e+01	 1.000098291999999e+01
0	 2.187500000000001e+01	 3.562499999999999e+01	 1.000090557615384e+01
0	 2.187500000000000e+01	 3.624999999999998e+01	 1.000082775692307e+01
0	 2.187500000000000e+01	 3.687499999999999e+01	 1.000074946230769e+01
0	 2.187500000000000e+01	 3.750000000000001e+01	 1.000067069230769e+01
0	 2.250000000000000e+01	 3.125000000000000e+01	 1.000147753846153e+01
0	 2.250000000000000e+01	 3.187500000000000e+01	 1.000140394799999e+01
0	 2.250000000000000e+01	 3.250000000000000e+01	 1.000132976123077e+01
0	 2.250000000000000e+01	 3.312499999999999e+01	 1.000125497815384e+01
0	 2.250000000000001e+01	 3.374999999999999e+01	 1.000117959876923e+01
0	 2.250000000000000e+01	 3.437499999999999e+01	 1.000110362307692e+01
0	 2.250000000000000e+01	 3.499999999999998e+01	 1.000102705107692e+01
0	 2.250000000000000e+01	 3.562499999999999e+01	 1.000094988276922e+01
0	 2.250000000000000e+01	 3.624999999999999e+01	 1.000087211815385e+01
0	 2.250000000000000e+01	 3.687499999999998e+01	 1.000079375723076e+01
0	 2.250000000000000e+01	 3.750000000000000e+01	 1.000071479999999e+01
0	 2.312500000000001e+01	 3.125000000000000e+01	 1.000150881538460e+01
0	 2.312500000000001e+01	 3.187500000000000e+01	 1.000143571676923e+01
0	 2.312500000000000e+01	 3.249999999999999e+01	 1.000136190092307e+01
0	 2.312500000000000e+01	 3.312499999999999e+01	 1.000128736784615e+01
0	 2.312500000000001e+01	 3.374999999999999e+01	 1.000121211753846e+01
0	 2.312500000000001e+01	 3.437500000000000e+01	 1.000113615000000e+01
0	 2.312500000000001e+01	 3.499999999999999e+01	 1.000105946523076e+01
0	 2.312500000000001e+01	 3.562499999999999e+01	 1.000098206323076e+01
0	 2.312500000000000e+01	 3.624999999999998e+01	 1.000090394400001e+01
0	 2.312500000000001e+01	 3.687499999999999e+01	 1.000082510753846e+01
0	 2.312500000000001e+01	 3.750000000000000e+01	 1.000074555384615e+01
0	 2.375000000000000e+01	 3.125000000000000e+01	 1.000153083076922e+01
0	 2.375000000000000e+01	 3.187500000000000e+01	 1.000145781476922e+01
0	 2.375000000000001e+01	 3.249999999999999e+01	 1.000138396061538e+01
0	 2.375000000000000e+01	 3.312499999999999e+01	 1.000130926830769e+01
0	 2.375000000000001e+01	 3.374999999999999e+01	 1.000123373784615e+01
0	 2.375000000000000e+01	 3.437499999999999e+01	 1.000115736923076e+01
0	 2.375000000000001e+01	 3.499999999999999e+01	 1.000108016246153e+01
0	 2.375000000000000e+01	 3.562499999999999e+01	 1.000100211753846e+01
0	 2.375000000000000e+01	 3.624999999999998e+01	 1.000092323446154e+01
0	 2.375000000000000e+01	 3.687499999999998e+01	 1.000084351323077e+01
0	 2.375000000000000e+01	 3.750000000000000e+01	 1.000076295384615e+01
0	 2.437500000000001e+01	 3.125000000000000e+01	 1.000154358461538e+01
0	 2.437500000000000e+01	 3.187499999999999e+01	 1.000147024200000e+01
0	 2.437500000000000e+01	 3.250000000000000e+01	 1.000139594030769e+01
0	 2.437500000000001e+01	 3.312500000000000e+01	 1.000132067953846e+01
0	 2.437500000000001e+01	 3.374999999999999e+01	 1.000124445969231e+01
0	 2.437500000000000e+01	 3.437499999999998e+01	 1.000116728076922e+01
0	 2.437500000000001e+01	 3.499999999999999e+01	 1.000108914276923e+01
0	 2.437500000000001e+01	 3.562499999999999e+01	 1.000101004569231e+01
0	 2.437500000000001e+01	 3.624999999999999e+01	 1.000092998953846e+01
0	 2.437500000000001e+01	 3.687499999999998e+01	 1.000084897430770e+01
0	 2.437500000000001e+01	 3.750000000000000e+01	 1.000076699999999e+01
0	 2.500000000000000e+01	 3.125000000000000e+01	 1.000154707692307e+01
0	 2.500000000000000e+01	 3.187500000000000e+01	 1.000147299846153e+01
0	 2.500000000000000e+01	 3.250000000000001e+01	 1.000139784000000e+01
0	 2.500000000000000e+01	 3.312499999999999e+01	 1.000132160153846e+01
0	 2.500000000000000e+01	 3.374999999999999e+01	 1.000124428307692e+01
0	 2.500000000000000e+01	 3.437499999999999e+01	 1.000116588461538e+01
0	 2.500000000000000e+01	 3.499999999999999e+01	 1.000108640615384e+01
0	 2.500000000000000e+01	 3.562499999999999e+01	 1.000100584769230e+01
0	 2.500000000000000e+01	 3.624999999999998e+01	 1.000092420923077e+01
0	 2.500000000000000e+01	 3.687499999999998e+01	 1.000084149076922e+01
0	 2.500000000000000e+01	 3.750000000000000e+01	 1.000075769230769e+01
0	 1.875000000000000e+01	 3.750000000000000e+01	 1.000024984615384e+01
0	 1.875000000000000e+01	 3.812500000000000e+01	 1.000025336615384e+01
0	 1.875000000000001e+01	 3.875000000000001e+01	 1.000025297230770e+01
0	 1.875000000000000e+01	 3.937499999999999e+01	 1.000024866461538e+01
0	 1.875000000000000e+01	 3.999999999999999e+01	 1.000024044307692e+01
0	 1.875000000000000e+01	 4.062499999999999e+01	 1.000022830769230e+01
0	 1.875000000000000e+01	 4.124999999999999e+01	 1.000021225846154e+01
0	 1.875000000000000e+01	 4.187499999999999e+01	 1.000019229538461e+01
0	 1.875000000000000e+01	 4.249999999999999e+01	 1.000016841846153e+01
0	 1.875000000000000e+01	 4.312499999999999e+01	 1.000014062769230e+01
0	 1.875000000000000e+01	 4.375000000000000e+01	 1.000010892307692e+01
0	 1.937500000000000e+01	 3.750000000000000e+01	 1.000036072307692e+01
0	 1.937500000000000e+01	 3.812499999999999e+01	 1.000035219030768e+01
0	 1.937500000000000e+01	 3.874999999999999e+01	 1.000033995507692e+01
0	 1.937500000000000e+01	 3.937499999999999e+01	 1.000032401738462e+01
0	 1.937500000000000e+01	 3.999999999999998e+01	 1.000030437723076e+01
0	 1.937500000000000e+01	 4.062499999999999e+01	 1.000028103461538e+01
0	 1.937500000000000e+01	 4.124999999999999e+01	 1.000025398953846e+01
0	 1.937500000000000e+01	 4.187499999999998e+01	 1.000022324200000e+01
0	 1.937500000000000e+01	 4.249999999999998e+01	 1.000018879200001e+01
0	 1.937500000000000e+01	 4.312499999999997e+01	 1.000015063953845e+01
0	 1.937500000000000e+01	 4.375000000000000e+01	 1.000010878461538e+01
0	 2.000000000000000e+01	 3.750000000000000e+01	 1.000045824615384e+01
0	 2.000000000000000e+01	 3.812500000000000e+01	 1.000043906061538e+01
0	 2.000000000000000e+01	 3.874999999999999e+01	 1.000041638400000e+01
0	 2.000000000000000e+01	 3.937499999999999e+01	 1.000039021630770e+01
0	 2.000000000000000e+01	 3.999999999999999e+01	 1.000036055753846e+01
0	 2.000000000000000e+01	 4.062499999999999e+01	 1.000032740769231e+01
0	 2.000000000000000e+01	 4.124999999999998e+01	 1.000029076676923e+01
0	 2.000000000000000e+01	 4.187499999999999e+01	 1.000025063476923e+01
0	 2.000000000000000e+01	 4.249999999999998e+01	 1.000020701169231e+01
0	 2.000000000000000e+01	 4.312499999999997e+01	 1.000015989753847e+01
0	 2.000000000000000e+01	 4.375000000000000e+01	 1.000010929230769e+01
0	 2.062500000000000e+01	 3.749999999999999e+01	 1.000054241538461e+01
0	 2.062500000000000e+01	 3.812500000000001e+01	 1.000051397707692e+01
0	 2.062500000000000e+01	 3.875000000000000e+01	 1.000048225907692e+01
0	 2.062500000000000e+01	 3.937499999999999e+01	 1.000044726138462e+01
0	 2.062500000000000e+01	 3.999999999999998e+01	 1.000040898400000e+01
0	 2.062500000000000e+01	 4.062499999999999e+01	 1.000036742692308e+01
0	 2.062500000000000e+01	 4.124999999999999e+01	 1.000032259015384e+01
0	 2.062500000000000e+01	 4.187499999999998e+01	 1.000027447369231e+01
0	 2.062500000000000e+01	 4.249999999999998e+01	 1.000022307753847e+01
0	 2.062500000000000e+01	 4.312499999999997e+01	 1.000016840169231e+01
0	 2.062500000000000e+01	 4.374999999999999e+01	 1.000011044615385e+01
0	 2.125000000000001e+01	 3.749999999999999e+01	 1.000061323076924e+01
0	 2.125000000000001e+01	 3.812500000000001e+01	 1.000057693969229e+01
0	 2.125000000000000e+01	 3.875000000000000e+01	 1.000053758030770e+01
0	 2.125000000000000e+01	 3.937499999999999e+01	 1.000049515261538e+01
0	 2.125000000000000e+01	 3.999999999999999e+01	 1.000044965661539e+01
0	 2.125000000000000e+01	 4.062499999999999e+01	 1.000040109230769e+01
0	 2.125000000000000e+01	 4.125000000000000e+01	 1.000034945969230e+01
0	 2.125000000000000e+01	 4.187499999999998e+01	 1.000029475876923e+01
0	 2.125000000000000e+01	 4.249999999999999e+01	 1.000023698953847e+01
0	 2.125000000000000e+01	 4.312499999999999e+01	 1.000017615200000e+01
0	 2.125000000000001e+01	 4.375000000000000e+01	 1.000011224615384e+01
0	 2.187500000000000e+01	 3.750000000000001e+01	 1.000067069230769e+01
0	 2.187500000000000e+01	 3.812500000000001e+01	 1.000062794846153e+01
0	 2.187500000000000e+01	 3.874999999999999e+01	 1.000058234769231e+01
0	 2.187500000000001e+01	 3.937499999999999e+01	 1.000053388999999e+01
0	 2.187500000000000e+01	 3.999999999999999e+01	 1.000048257538461e+01
0	 2.187500000000000e+01	 4.062500000000000e+01	 1.000042840384616e+01
0	 2.187500000000001e+01	 4.124999999999999e+01	 1.000037137538462e+01
0	 2.187500000000001e+01	 4.187500000000000e+01	 1.000031149000001e+01
0	 2.187500000000000e+01	 4.249999999999999e+01	 1.000024874769231e+01
0	 2.187500000000000e+01	 4.312499999999998e+01	 1.000018314846154e+01
0	 2.187500000000000e+01	 4.375000000000000e+01	 1.000011469230768e+01
0	 2.250000000000000e+01	 3.750000000000000e+01	 1.000071479999999e+01
0	 2.250000000000000e+01	 3.812500000000000e+01	 1.000066700338461e+01
0	 2.250000000000000e+01	 3.874999999999999e+01	 1.000061656123077e+01
0	 2.250000000000000e+01	 3.937499999999999e+01	 1.000056347353846e+01
0	 2.250000000000001e+01	 4.000000000000000e+01	 1.000050774030769e+01
0	 2.250000000000000e+01	 4.062499999999999e+01	 1.000044936153846e+01
0	 2.250000000000000e+01	 4.124999999999998e+01	 1.000038833723077e+01
0	 2.250000000000000e+01	 4.187499999999999e+01	 1.000032466738461e+01
0	 2.250000000000000e+01	 4.249999999999999e+01	 1.000025835200001e+01
0	 2.250000000000000e+01	 4.312499999999998e+01	 1.000018939107691e+01
0	 2.250000000000000e+01	 4.375000000000000e+01	 1.000011778461538e+01
0	 2.312500000000001e+01	 3.750000000000000e+01	 1.000074555384615e+01
0	 2.312500000000001e+01	 3.812500000000000e+01	 1.000069410446154e+01
0	 2.312500000000000e+01	 3.874999999999999e+01	 1.000064022092308e+01
0	 2.312500000000000e+01	 3.937499999999999e+01	 1.000058390323077e+01
0	 2.312500000000001e+01	 3.999999999999999e+01	 1.000052515138462e+01
0	 2.312500000000001e+01	 4.062499999999999e+01	 1.000046396538461e+01
0	 2.312500000000001e+01	 4.124999999999999e+01	 1.000040034523076e+01
0	 2.312500000000001e+01	 4.187499999999999e+01	 1.000033429092309e+01
0	 2.312500000000000e+01	 4.249999999999998e+01	 1.000026580246154e+01
0	 2.312500000000001e+01	 4.312499999999999e+01	 1.000019487984615e+01
0	 2.312500000000001e+01	 4.375000000000000e+01	 1.000012152307693e+01
0	 2.375000000000000e+01	 3.750000000000000e+01	 1.000076295384615e+01
0	 2.375000000000000e+01	 3.812500000000000e+01	 1.000070925169231e+01
0	 2.375000000000001e+01	 3.875000000000000e+01	 1.000065332676924e+01
0	 2.375000000000000e+01	 3.937499999999999e+01	 1.000059517907692e+01
0	 2.375000000000001e+01	 3.999999999999999e+01	 1.000053480861538e+01
0	 2.375000000000000e+01	 4.062499999999999e+01	 1.000047221538461e+01
0	 2.375000000000001e+01	 4.124999999999999e+01	 1.000040739938461e+01
0	 2.375000000000000e+01	 4.187499999999999e+01	 1.000034036061538e+01
0	 2.375000000000000e+01	 4.249999999999999e+01	 1.000027109907693e+01
0	 2.375000000000000e+01	 4.312499999999998e+01	 1.000019961476923e+01
0	 2.375000000000000e+01	 4.375000000000001e+01	 1.000012590769230e+01
0	 2.437500000000001e+01	 3.750000000000000e+01	 1.000076699999999e+01
0	 2.437500000000000e+01	 3.812499999999999e+01	 1.000071244507692e+01
0	 2.437500000000000e+01	 3.874999999999999e+01	 1.000065587876923e+01
0	 2.437500000000001e+01	 3.937499999999999e+01	 1.000059730107692e+01
0	 2.437500000000001e+01	 3.999999999999999e+01	 1.000053671200000e+01
0	 2.437500000000000e+01	 4.062499999999998e+01	 1.000047411153846e+01
0	 2.437500000000001e+01	 4.124999999999999e+01	 1.000040949969230e+01
0	 2.437500000000001e+01	 4.187499999999998e+01	 1.000034287646154e+01
0	 2.437500000000001e+01	 4.249999999999998e+01	 1.000027424184616e+01
0	 2.437500000000001e+01	 4.312499999999999e+01	 1.000020359584616e+01
0	 2.437500000000001e+01	 4.375000000000000e+01	 1.000013093846154e+01
0	 2.500000000000000e+01	 3.750000000000000e+01	 1.000075769230769e+01
0	 2.500000000000000e+01	 3.812500000000000e+01	 1.000070368461538e+01
0	 2.500000000000000e+01	 3.875000000000001e+01	 1.000064787692308e+01
0	 2.500000000000000e+01	 3.937499999999999e+01	 1.000059026923076e+01
0	 2.500000000000000e+01	 3.999999999999999e+01	 1.000053086153846e+01
0	 2.500000000000000e+01	 4.062499999999999e+01	 1.000046965384615e+01
0	 2.500000000000000e+01	 4.124999999999999e+01	 1.000040664615385e+01
0	 2.500000000000000e+01	 4.187499999999999e+01	 1.000034183846154e+01
0	 2.500000000000000e+01	 4.249999999999999e+01	 1.000027523076923e+01
0	 2.500000000000000e+01	 4.312499999999999e+01	 1.000020682307692e+01
0	 2.500000000000000e+01	 4.375000000000000e+01	 1.000013661538461e+01
0	 1.875000000000000e+01	 4.375000000000000e+01	 1.000010892307692e+01
0	 1.875000000000000e+01	 4.437500000000000e+01	 1.000009250153846e+01
0	 1.875000000000000e+01	 4.499999999999999e+01	 1.000007609846154e+01
0	 1.875000000000000e+01	 4.562499999999999e+01	 1.000005971384616e+01
0	 1.875000000000000e+01	 4.624999999999999e+01	 1.000004334769230e+01
0	 1.875000000000000e+01	 4.687499999999999e+01	 1.000002700000000e+01
0	 1.875000000000000e+01	 4.749999999999999e+01	 1.000001067076923e+01
0	 1.875000000000000e+01	 4.812499999999999e+01	 9.999994360000020e+00
0	 1.875000000000000e+01	 4.874999999999999e+01	 9.999978067692302e+00
0	 1.875000000000000e+01	 4.937499999999999e+01	 9.999961793846126e+00
0	 1.875000000000000e+01	 5.000000000000000e+01	 9.999945538461539e+00
0	 1.937500000000000e+01	 4.375000000000000e+01	 1.000010878461538e+01
0	 1.937500000000000e+01	 4.437499999999999e+01	 1.000009655876923e+01
0	 1.937500000000000e+01	 4.499999999999999e+01	 1.000008375507691e+01
0	 1.937499999999999e+01	 4.562499999999999e+01	 1.000007037353845e+01
0	 1.937500000000001e+01	 4.625000000000000e+01	 1.000005641415384e+01
0	 1.937500000000000e+01	 4.687499999999999e+01	 1.000004187692308e+01
0	 1.937500000000000e+01	 4.749999999999999e+01	 1.000002676184614e+01
0	 1.937500000000000e+01	 4.812499999999999e+01	 1.000001106892306e+01
0	 1.937500000000000e+01	 4.874999999999998e+01	 9.999994798153836e+00
0	 1.937500000000000e+01	 4.937499999999997e+01	 9.999977949538453e+00
0	 1.937500000000000e+01	 5.000000000000000e+01	 9.999960523076922e+00
0	 2.000000000000000e+01	 4.375000000000000e+01	 1.000010929230769e+01
0	 2.000000000000000e+01	 4.437499999999999e+01	 1.000010072369230e+01
0	 2.000000000000000e+01	 4.499999999999999e+01	 1.000009098092307e+01
0	 2.000000000000000e+01	 4.562499999999999e+01	 1.000008006400000e+01
0	 2.000000000000000e+01	 4.624999999999999e+01	 1.000006797292308e+01
0	 2.000000000000000e+01	 4.687499999999999e+01	 1.000005470769230e+01
0	 2.000000000000000e+01	 4.749999999999999e+01	 1.000004026830769e+01
0	 2.000000000000000e+01	 4.812499999999999e+01	 1.000002465476922e+01
0	 2.000000000000000e+01	 4.874999999999996e+01	 1.000000786707691e+01
0	 2.000000000000000e+01	 4.937499999999998e+01	 9.999989905230770e+00
0	 2.000000000000000e+01	 5.000000000000000e+01	 9.999970769230750e+00
0	 2.062500000000000e+01	 4.374999999999999e+01	 1.000011044615385e+01
0	 2.062500000000000e+01	 4.437499999999999e+01	 1.000010499630769e+01
0	 2.062500000000000e+01	 4.499999999999999e+01	 1.000009777600000e+01
0	 2.062500000000000e+01	 4.562499999999999e+01	 1.000008878523076e+01
0	 2.062500000000000e+01	 4.624999999999998e+01	 1.000007802399999e+01
0	 2.062500000000000e+01	 4.687499999999999e+01	 1.000006549230769e+01
0	 2.062500000000000e+01	 4.749999999999998e+01	 1.000005119015384e+01
0	 2.062500000000000e+01	 4.812499999999998e+01	 1.000003511753846e+01
0	 2.062500000000001e+01	 4.874999999999999e+01	 1.000001727446153e+01
0	 2.062500000000000e+01	 4.937499999999999e+01	 9.999997660923086e+00
0	 2.062500000000001e+01	 5.000000000000001e+01	 9.999976276923046e+00
0	 2.125000000000001e+01	 4.375000000000000e+01	 1.000011224615384e+01
0	 2.125000000000000e+01	 4.437500000000000e+01	 1.000010937661538e+01
0	 2.125000000000000e+01	 4.500000000000000e+01	 1.000010414030769e+01
0	 2.125000000000001e+01	 4.562500000000000e+01	 1.000009653723077e+01
0	 2.125000000000000e+01	 4.624999999999999e+01	 1.000008656738460e+01
0	 2.125000000000000e+01	 4.687499999999999e+01	 1.000007423076923e+01
0	 2.125000000000000e+01	 4.749999999999999e+01	 1.000005952738464e+01
0	 2.125000000000001e+01	 4.812499999999999e+01	 1.000004245723074e+01
0	 2.125000000000000e+01	 4.874999999999999e+01	 1.000002302030768e+01
0	 2.125000000000000e+01	 4.937499999999997e+01	 1.000000121661540e+01
0	 2.125000000000000e+01	 5.000000000000001e+01	 9.999977046153820e+00
0	 2.187500000000000e+01	 4.375000000000000e+01	 1.000011469230768e+01
0	 2.187500000000001e+01	 4.437500000000000e+01	 1.000011386461537e+01
0	 2.187500000000000e+01	 4.500000000000000e+01	 1.000011007384615e+01
0	 2.187500000000001e+01	 4.562500000000000e+01	 1.000010332000000e+01
0	 2.187500000000000e+01	 4.624999999999999e+01	 1.000009360307691e+01
0	 2.187500000000000e+01	 4.687499999999999e+01	 1.000008092307691e+01
0	 2.187500000000000e+01	 4.749999999999999e+01	 1.000006528000000e+01
0	 2.187500000000000e+01	 4.812499999999999e+01	 1.000004667384616e+01
0	 2.187500000000000e+01	 4.874999999999998e+01	 1.000002510461538e+01
0	 2.187500000000000e+01	 4.937499999999998e+01	 1.000000057230768e+01
0	 2.187500000000000e+01	 5.000000000000000e+01	 9.999973076923048e+00
0	 2.250000000000000e+01	 4.375000000000000e+01	 1.000011778461538e+01
0	 2.250000000000000e+01	 4.437499999999999e+01	 1.000011846030768e+01
0	 2.250000000000000e+01	 4.499999999999999e+01	 1.000011557661539e+01
0	 2.250000000000000e+01	 4.562499999999999e+01	 1.000010913353846e+01
0	 2.250000000000000e+01	 4.624999999999999e+01	 1.000009913107691e+01
0	 2.250000000000000e+01	 4.687499999999998e+01	 1.000008556923077e+01
0	 2.250000000000000e+01	 4.749999999999999e+01	 1.000006844800000e+01
0	 2.250000000000001e+01	 4.812499999999999e+01	 1.000004776738462e+01
0	 2.250000000000000e+01	 4.874999999999998e+01	 1.000002352738461e+01
0	 2.250000000000000e+01	 4.937499999999999e+01	 9.999995727999963e+00
0	 2.250000000000000e+01	 5.000000000000000e+01	 9.999964369230739e+00
0	 2.312500000000001e+01	 4.375000000000000e+01	 1.000012152307693e+01
0	 2.312500000000001e+01	 4.437500000000001e+01	 1.000012316369230e+01
0	 2.312500000000000e+01	 4.499999999999999e+01	 1.000012064861538e+01
0	 2.312500000000001e+01	 4.562500000000000e+01	 1.000011397784615e+01
0	 2.312500000000001e+01	 4.624999999999999e+01	 1.000010315138461e+01
0	 2.312500000000000e+01	 4.687499999999999e+01	 1.000008816923077e+01
0	 2.312500000000000e+01	 4.749999999999998e+01	 1.000006903138461e+01
0	 2.312500000000001e+01	 4.812500000000000e+01	 1.000004573784615e+01
0	 2.312500000000000e+01	 4.874999999999998e+01	 1.000001828861539e+01
0	 2.312500000000001e+01	 4.937499999999998e+01	 9.999986683692278e+00
0	 2.312500000000001e+01	 5.000000000000000e+01	 9.999950923076902e+00
0	 2.375000000000000e+01	 4.375000000000001e+01	 1.000012590769230e+01
0	 2.375000000000000e+01	 4.437499999999999e+01	 1.000012797476924e+01
0	 2.375000000000001e+01	 4.499999999999999e+01	 1.000012528984615e+01
0	 2.375000000000001e+01	 4.562500000000000e+01	 1.000011785292307e+01
0	 2.375000000000001e+01	 4.625000000000000e+01	 1.000010566399999e+01
0	 2.375000000000000e+01	 4.687499999999999e+01	 1.000008872307691e+01
0	 2.375000000000001e+01	 4.749999999999999e+01	 1.000006703015383e+01
0	 2.375000000000000e+01	 4.812499999999999e+01	 1.000004058523075e+01
0	 2.375000000000001e+01	 4.874999999999998e+01	 1.000000938830768e+01
0	 2.375000000000000e+01	 4.937499999999998e+01	 9.999973439384600e+00
0	 2.375000000000001e+01	 5.000000000000000e+01	 9.999932738461537e+00
0	 2.437500000000001e+01	 4.375000000000000e+01	 1.000013093846154e+01
0	 2.437500000000000e+01	 4.437500000000000e+01	 1.000013289353845e+01
0	 2.437500000000001e+01	 4.500000000000000e+01	 1.000012950030769e+01
0	 2.437500000000001e+01	 4.562500000000000e+01	 1.000012075876922e+01
0	 2.437500000000000e+01	 4.624999999999999e+01	 1.000010666892307e+01
0	 2.437500000000001e+01	 4.687499999999999e+01	 1.000008723076922e+01
0	 2.437500000000001e+01	 4.749999999999999e+01	 1.000006244430770e+01
0	 2.437500000000001e+01	 4.812499999999999e+01	 1.000003230953845e+01
0	 2.437500000000000e+01	 4.874999999999998e+01	 9.999996826461535e+00
0	 2.437500000000000e+01	 4.937499999999996e+01	 9.999955995076906e+00
0	 2.437500000000001e+01	 5.000000000000000e+01	 9.999909815384591e+00
0	 2.500000000000000e+01	 4.375000000000000e+01	 1.000013661538461e+01
0	 2.500000000000000e+01	 4.437500000000000e+01	 1.000013792000000e+01
0	 2.500000000000000e+01	 4.499999999999999e+01	 1.000013327999999e+01
0	 2.500000000000000e+01	 4.562499999999999e+01	 1.000012269538461e+01
0	 2.500000000000000e+01	 4.624999999999999e+01	 1.000010616615384e+01
0	 2.500000000000000e+01	 4.687499999999999e+01	 1.000008369230768e+01
0	 2.500000000000000e+01	 4.749999999999999e+01	 1.000005527384616e+01
0	 2.500000000000000e+01	 4.812499999999999e+01	 1.000002091076924e+01
0	 2.500000000000000e+01	 4.874999999999999e+01	 9.999980603076910e+00
0	 2.500000000000000e+01	 4.937499999999999e+01	 9.999934350769195e+00
0	 2.500000000000000e+01	 5.000000000000000e+01	 9.999882153846141e+00
0	 2.500000000000000e+01	 0.000000000000000e+00	 1.000222246153846e+01
0	 2.500000000000000e+01	 6.250000000000000e-01	 1.000291173692307e+01
0	 2.500000000000000e+01	 1.250000000000000e+00	 1.000354150153846e+01
0	 2.500000000000000e+01	 1.875000000000000e+00	 1.000411175538461e+01
0	 2.500000000000000e+01	 2.500000000000000e+00	 1.000462249846154e+01
0	 2.500000000000000e+01	 3.125000000000000e+00	 1.000507373076923e+01
0	 2.500000000000000e+01	 3.750000000000000e+00	 1.000546545230769e+01
0	 2.500000000000000e+01	 4.375000000000000e+00	 1.000579766307692e+01
0	 2.500000000000000e+01	 5.000000000000000e+00	 1.000607036307692e+01
0	 2.500000000000000e+01	 5.624999999999999e+00	 1.000628355230769e+01
0	 2.500000000000000e+01	 6.250000000000000e+00	 1.000643723076923e+01
0	 2.562500000000000e+01	 0.000000000000000e+00	 1.000261955076923e+01
0	 2.562499999999999e+01	 6.249999999999999e-01	 1.000315245076923e+01
0	 2.562499999999999e+01	 1.250000000000000e+00	 1.000363136646154e+01
0	 2.562499999999999e+01	 1.875000000000000e+00	 1.000405629784615e+01
0	 2.562499999999999e+01	 2.500000000000000e+00	 1.000442724492308e+01
0	 2.562500000000000e+01	 3.125000000000000e+00	 1.000474420769231e+01
0	 2.562500000000000e+01	 3.750000000000000e+00	 1.000500718615385e+01
0	 2.562500000000000e+01	 4.375000000000001e+00	 1.000521618030769e+01
0	 2.562500000000000e+01	 5.000000000000000e+00	 1.000537119015384e+01
0	 2.562500000000000e+01	 5.625000000000000e+00	 1.000547221569231e+01
0	 2.562500000000000e+01	 6.250000000000000e+00	 1.000551925692308e+01
0	 2.625000000000000e+01	 0.000000000000000e+00	 1.000293272615385e+01
0	 2.625000000000000e+01	 6.250000000000001e-01	 1.000332811199999e+01
0	 2.624999999999999e+01	 1.250000000000000e+00	 1.000367504000000e+01
0	 2.625000000000000e+01	 1.875000000000000e+00	 1.000397351015384e+01
0	 2.625000000000000e+01	 2.500000000000000e+00	 1.000422352246153e+01
0	 2.625000000000000e+01	 3.125000000000000e+00	 1.000442507692308e+01
0	 2.624999999999999e+01	 3.750000000000001e+00	 1.000457817353846e+01
0	 2.625000000000000e+01	 4.374999999999999e+00	 1.000468281230769e+01
0	 2.625000000000000e+01	 5.000000000000000e+00	 1.000473899323077e+01
0	 2.625000000000000e+01	 5.624999999999999e+00	 1.000474671630770e+01
0	 2.624999999999999e+01	 6.250000000000000e+00	 1.000470598153846e+01
0	 2.687499999999999e+01	 0.000000000000000e+00	 1.000316198769231e+01
0	 2.687499999999999e+01	 6.250000000000000e-01	 1.000343872061538e+01
0	 2.687499999999999e+01	 1.250000000000000e+00	 1.000367252215385e+01
0	 2.687500000000000e+01	 1.875000000000000e+00	 1.000386339230769e+01
0	 2.687500000000000e+01	 2.500000000000001e+00	 1.000401133107692e+01
0	 2.687499999999999e+01	 3.125000000000000e+00	 1.000411633846154e+01
0	 2.687499999999999e+01	 3.750000000000000e+00	 1.000417841446154e+01
0	 2.687499999999999e+01	 4.375000000000000e+00	 1.000419755907692e+01
0	 2.687499999999999e+01	 4.999999999999998e+00	 1.000417377230769e+01
0	 2.687499999999999e+01	 5.625000000000001e+00	 1.000410705415384e+01
0	 2.687499999999999e+01	 6.249999999999999e+00	 1.000399740461538e+01
0	 2.749999999999999e+01	 0.000000000000000e+00	 1.000330733538461e+01
0	 2.749999999999998e+01	 6.249999999999999e-01	 1.000348427661538e+01
0	 2.749999999999999e+01	 1.250000000000000e+00	 1.000362381292308e+01
0	 2.749999999999999e+01	 1.875000000000000e+00	 1.000372594430769e+01
0	 2.749999999999999e+01	 2.500000000000000e+00	 1.000379067076923e+01
0	 2.750000000000000e+01	 3.125000000000000e+00	 1.000381799230769e+01
0	 2.749999999999999e+01	 3.750000000000000e+00	 1.000380790892307e+01
0	 2.750000000000000e+01	 4.375000000000001e+00	 1.000376042061538e+01
0	 2.749999999999999e+01	 5.000000000000000e+00	 1.000367552738461e+01
0	 2.749999999999999e+01	 5.625000000000000e+00	 1.000355322923077e+01
0	 2.749999999999999e+01	 6.250000000000000e+00	 1.000339352615385e+01
0	 2.812499999999999e+01	 0.000000000000000e+00	 1.000336876923076e+01
0	 2.812499999999998e+01	 6.249999999999998e-01	 1.000346477999999e+01
0	 2.812499999999999e+01	 1.250000000000000e+00	 1.000352891230769e+01
0	 2.812499999999999e+01	 1.875000000000000e+00	 1.000356116615385e+01
0	 2.812499999999998e+01	 2.500000000000000e+00	 1.000356154153846e+01
0	 2.812499999999999e+01	 3.125000000000000e+00	 1.000353003846154e+01
0	 2.812499999999999e+01	 3.750000000000000e+00	 1.000346665692308e+01
0	 2.812499999999999e+01	 4.375000000000000e+00	 1.000337139692308e+01
0	 2.812499999999999e+01	 4.999999999999998e+00	 1.000324425846154e+01
0	 2.812499999999999e+01	 5.625000000000001e+00	 1.000308524153846e+01
0	 2.812499999999999e+01	 6.249999999999999e+00	 1.000289434615385e+01
0	 2.874999999999999e+01	 0.000000000000000e+00	 1.000334628923077e+01
0	 2.874999999999999e+01	 6.250000000000001e-01	 1.000338023076923e+01
0	 2.874999999999998e+01	 1.250000000000000e+00	 1.000338782030769e+01
0	 2.874999999999999e+01	 1.875000000000000e+00	 1.000336905784615e+01
0	 2.874999999999999e+01	 2.500000000000000e+00	 1.000332394338461e+01
0	 2.874999999999999e+01	 3.125000000000000e+00	 1.000325247692308e+01
0	 2.874999999999999e+01	 3.750000000000000e+00	 1.000315465846154e+01
0	 2.874999999999999e+01	 4.375000000000001e+00	 1.000303048800000e+01
0	 2.874999999999998e+01	 4.999999999999999e+00	 1.000287996553846e+01
0	 2.874999999999999e+01	 5.624999999999999e+00	 1.000270309107692e+01
0	 2.874999999999999e+01	 6.250000000000000e+00	 1.000249986461539e+01
0	 2.937499999999999e+01	 0.000000000000000e+00	 1.000323989538461e+01
0	 2.937499999999999e+01	 6.250000000000000e-01	 1.000323062892308e+01
0	 2.937499999999998e+01	 1.250000000000000e+00	 1.000320053692307e+01
0	 2.937499999999998e+01	 1.875000000000000e+00	 1.000314961938462e+01
0	 2.937499999999998e+01	 2.500000000000000e+00	 1.000307787630769e+01
0	 2.937499999999999e+01	 3.125000000000000e+00	 1.000298530769231e+01
0	 2.937499999999999e+01	 3.750000000000000e+00	 1.000287191353846e+01
0	 2.937499999999999e+01	 4.375000000000000e+00	 1.000273769384616e+01
0	 2.937499999999998e+01	 5.000000000000000e+00	 1.000258264861538e+01
0	 2.937499999999999e+01	 5.625000000000000e+00	 1.000240677784615e+01
0	 2.937499999999999e+01	 6.250000000000000e+00	 1.000221008153846e+01
0	 2.999999999999998e+01	 0.000000000000000e+00	 1.000304958769230e+01
0	 2.999999999999999e+01	 6.250000000000000e-01	 1.000301597446154e+01
0	 2.999999999999999e+01	 1.250000000000000e+00	 1.000296706215384e+01
0	 2.999999999999999e+01	 1.875000000000001e+00	 1.000290285076923e+01
0	 2.999999999999998e+01	 2.500000000000000e+00	 1.000282334030769e+01
0	 2.999999999999998e+01	 3.124999999999999e+00	 1.000272853076923e+01
0	 2.999999999999998e+01	 3.750000000000000e+00	 1.000261842215384e+01
0	 2.999999999999999e+01	 4.375000000000000e+00	 1.000249301446154e+01
0	 2.999999999999999e+01	 4.999999999999999e+00	 1.000235230769231e+01
0	 2.999999999999999e+01	 5.625000000000000e+00	 1.000219630184616e+01
0	 2.999999999999998e+01	 6.250000000000000e+00	 1.000202499692308e+01
0	 3.062499999999998e+01	 0.000000000000000e+00	 1.000277536615384e+01
0	 3.062499999999998e+01	 6.250000000000000e-01	 1.000273626738461e+01
0	 3.062499999999998e+01	 1.250000000000000e+00	 1.000268739600000e+01
0	 3.062499999999999e+01	 1.875000000000000e+00	 1.000262875200000e+01
0	 3.062499999999998e+01	 2.500000000000000e+00	 1.000256033538461e+01
0	 3.062499999999998e+01	 3.125000000000000e+00	 1.000248214615385e+01
0	 3.062499999999998e+01	 3.750000000000000e+00	 1.000239418430769e+01
0	 3.062499999999998e+01	 4.375000000000000e+00	 1.000229644984615e+01
0	 3.062499999999998e+01	 4.999999999999999e+00	 1.000218894276923e+01
0	 3.062499999999998e+01	 5.624999999999999e+00	 1.000207166307692e+01
0	 3.062499999999998e+01	 6.250000000000000e+00	 1.000194461076923e+01
0	 3.125000000000000e+01	 0.000000000000000e+00	 1.000241723076923e+01
0	 3.125000000000000e+01	 6.250000000000000e-01	 1.000239150769231e+01
0	 3.125000000000000e+01	 1.250000000000000e+00	 1.000236153846154e+01
0	 3.125000000000000e+01	 1.875000000000000e+00	 1.000232732307692e+01
0	 3.125000000000000e+01	 2.500000000000000e+00	 1.000228886153846e+01
0	 3.125000000000000e+01	 3.125000000000000e+00	 1.000224615384615e+01
0	 3.125000000000000e+01	 3.750000000000000e+00	 1.000219920000000e+01
0	 3.125000000000000e+01	 4.375000000000000e+00	 1.000214800000000e+01
0	 3.125000000000000e+01	 5.000000000000000e+00	 1.000209255384615e+01
0	 3.125000000000000e+01	 5.624999999999999e+00	 1.000203286153846e+01
0	 3.125000000000000e+01	 6.250000000000000e+00	 1.000196892307692e+01
0	 2.500000000000000e+01	 6.250000000000000e+00	 1.000643723076923e+01
0	 2.500000000000000e+01	 6.875000000000000e+00	 1.000603573692308e+01
0	 2.500000000000000e+01	 7.500000000000002e+00	 1.000567950153846e+01
0	 2.500000000000000e+01	 8.125000000000004e+00	 1.000536852461538e+01
0	 2.500000000000000e+01	 8.750000000000004e+00	 1.000510280615385e+01
0	 2.500000000000000e+01	 9.375000000000004e+00	 1.000488234615385e+01
0	 2.500000000000000e+01	 1.000000000000000e+01	 1.000470714461538e+01
0	 2.500000000000000e+01	 1.062500000000000e+01	 1.000457720153846e+01
0	 2.500000000000000e+01	 1.125000000000001e+01	 1.000449251692308e+01
0	 2.500000000000000e+01	 1.187500000000001e+01	 1.000445309076923e+01
0	 2.500000000000000e+01	 1.250000000000000e+01	 1.000445892307692e+01
0	 2.562500000000000e+01	 6.250000000000000e+00	 1.000551925692308e+01
0	 2.562500000000000e+01	 6.874999999999999e+00	 1.000525268200000e+01
0	 2.562500000000000e+01	 7.500000000000002e+00	 1.000502595353846e+01
0	 2.562499999999999e+01	 8.125000000000002e+00	 1.000483907153846e+01
0	 2.562500000000000e+01	 8.750000000000004e+00	 1.000469203599999e+01
0	 2.562500000000000e+01	 9.375000000000004e+00	 1.000458484692308e+01
0	 2.562500000000000e+01	 1.000000000000001e+01	 1.000451750430770e+01
0	 2.562500000000000e+01	 1.062500000000001e+01	 1.000449000815384e+01
0	 2.562500000000000e+01	 1.125000000000001e+01	 1.000450235846153e+01
0	 2.562499999999999e+01	 1.187500000000000e+01	 1.000455455523077e+01
0	 2.562500000000000e+01	 1.250000000000000e+01	 1.000464659846154e+01
0	 2.624999999999999e+01	 6.250000000000000e+00	 1.000470598153846e+01
0	 2.625000000000000e+01	 6.875000000000002e+00	 1.000455784000000e+01
0	 2.625000000000000e+01	 7.500000000000002e+00	 1.000444413292308e+01
0	 2.625000000000000e+01	 8.125000000000002e+00	 1.000436486030769e+01
0	 2.625000000000000e+01	 8.750000000000002e+00	 1.000432002215385e+01
0	 2.625000000000000e+01	 9.375000000000004e+00	 1.000430961846154e+01
0	 2.625000000000000e+01	 1.000000000000001e+01	 1.000433364923076e+01
0	 2.625000000000000e+01	 1.062500000000000e+01	 1.000439211446154e+01
0	 2.624999999999999e+01	 1.125000000000001e+01	 1.000448501415385e+01
0	 2.625000000000000e+01	 1.187500000000000e+01	 1.000461234830769e+01
0	 2.624999999999999e+01	 1.250000000000000e+01	 1.000477411692308e+01
0	 2.687499999999999e+01	 6.249999999999999e+00	 1.000399740461538e+01
0	 2.687499999999999e+01	 6.875000000000001e+00	 1.000395121092308e+01
0	 2.687499999999999e+01	 7.500000000000000e+00	 1.000393403969230e+01
0	 2.687499999999999e+01	 8.125000000000002e+00	 1.000394589092308e+01
0	 2.687499999999999e+01	 8.750000000000004e+00	 1.000398676461538e+01
0	 2.687500000000000e+01	 9.375000000000004e+00	 1.000405666076923e+01
0	 2.687499999999999e+01	 1.000000000000000e+01	 1.000415557938462e+01
0	 2.687500000000000e+01	 1.062500000000000e+01	 1.000428352046154e+01
0	 2.687499999999999e+01	 1.125000000000000e+01	 1.000444048400000e+01
0	 2.687500000000000e+01	 1.187500000000000e+01	 1.000462647000000e+01
0	 2.687499999999999e+01	 1.250000000000000e+01	 1.000484147846154e+01
0	 2.749999999999999e+01	 6.250000000000000e+00	 1.000339352615385e+01
0	 2.749999999999999e+01	 6.875000000000002e+00	 1.000343279476923e+01
0	 2.749999999999999e+01	 7.499999999999999e+00	 1.000349567384616e+01
0	 2.749999999999999e+01	 8.125000000000002e+00	 1.000358216338461e+01
0	 2.749999999999999e+01	 8.750000000000004e+00	 1.000369226338461e+01
0	 2.749999999999998e+01	 9.375000000000004e+00	 1.000382597384615e+01
0	 2.750000000000000e+01	 1.000000000000001e+01	 1.000398329476923e+01
0	 2.749999999999999e+01	 1.062500000000001e+01	 1.000416422615384e+01
0	 2.750000000000000e+01	 1.125000000000001e+01	 1.000436876800000e+01
0	 2.749999999999999e+01	 1.187500000000001e+01	 1.000459692030769e+01
0	 2.749999999999999e+01	 1.250000000000000e+01	 1.000484868307692e+01
0	 2.812499999999999e+01	 6.249999999999999e+00	 1.000289434615385e+01
0	 2.812499999999998e+01	 6.875000000000000e+00	 1.000300259153846e+01
0	 2.812499999999999e+01	 7.500000000000001e+00	 1.000312903538462e+01
0	 2.812499999999999e+01	 8.125000000000002e+00	 1.000327367769231e+01
0	 2.812499999999999e+01	 8.750000000000004e+00	 1.000343651846154e+01
0	 2.812499999999999e+01	 9.375000000000002e+00	 1.000361755769231e+01
0	 2.812499999999999e+01	 1.000000000000000e+01	 1.000381679538462e+01
0	 2.812499999999999e+01	 1.062500000000001e+01	 1.000403423153846e+01
0	 2.812499999999999e+01	 1.125000000000001e+01	 1.000426986615384e+01
0	 2.812499999999999e+01	 1.187500000000001e+01	 1.000452369923077e+01
0	 2.812499999999999e+01	 1.250000000000000e+01	 1.000479573076923e+01
0	 2.874999999999999e+01	 6.250000000000000e+00	 1.000249986461539e+01
0	 2.874999999999998e+01	 6.874999999999998e+00	 1.000266060123077e+01
0	 2.874999999999999e+01	 7.500000000000002e+00	 1.000283412430769e+01
0	 2.874999999999999e+01	 8.125000000000000e+00	 1.000302043384615e+01
0	 2.874999999999998e+01	 8.750000000000002e+00	 1.000321952984615e+01
0	 2.874999999999999e+01	 9.375000000000004e+00	 1.000343141230769e+01
0	 2.874999999999998e+01	 1.000000000000000e+01	 1.000365608123077e+01
0	 2.874999999999999e+01	 1.062500000000001e+01	 1.000389353661538e+01
0	 2.874999999999999e+01	 1.125000000000001e+01	 1.000414377846154e+01
0	 2.874999999999998e+01	 1.187500000000000e+01	 1.000440680676923e+01
0	 2.874999999999999e+01	 1.250000000000000e+01	 1.000468262153846e+01
0	 2.937499999999999e+01	 6.250000000000000e+00	 1.000221008153846e+01
0	 2.937499999999999e+01	 6.875000000000000e+00	 1.000240682384615e+01
0	 2.937499999999999e+01	 7.500000000000003e+00	 1.000261094061538e+01
0	 2.937499999999998e+01	 8.125000000000000e+00	 1.000282243184615e+01
0	 2.937499999999999e+01	 8.750000000000005e+00	 1.000304129753846e+01
0	 2.937499999999998e+01	 9.375000000000005e+00	 1.000326753769231e+01
0	 2.937499999999999e+01	 1.000000000000000e+01	 1.000350115230769e+01
0	 2.937499999999999e+01	 1.062500000000001e+01	 1.000374214138461e+01
0	 2.937499999999998e+01	 1.125000000000000e+01	 1.000399050492308e+01
0	 2.937499999999998e+01	 1.187500000000001e+01	 1.000424624292307e+01
0	 2.937499999999999e+01	 1.250000000000000e+01	 1.000450935538462e+01
0	 2.999999999999998e+01	 6.250000000000000e+00	 1.000202499692308e+01
0	 2.999999999999998e+01	 6.875000000000000e+00	 1.000224125938461e+01
0	 2.999999999999998e+01	 7.500000000000000e+00	 1.000245948430769e+01
0	 2.999999999999998e+01	 8.125000000000004e+00	 1.000267967169231e+01
0	 2.999999999999998e+01	 8.750000000000004e+00	 1.000290182153846e+01
0	 2.999999999999999e+01	 9.375000000000004e+00	 1.000312593384615e+01
0	 2.999999999999999e+01	 1.000000000000001e+01	 1.000335200861538e+01
0	 2.999999999999998e+01	 1.062500000000000e+01	 1.000358004584615e+01
0	 2.999999999999998e+01	 1.125000000000000e+01	 1.000381004553846e+01
0	 2.999999999999999e+01	 1.187500000000001e+01	 1.000404200769231e+01
0	 2.999999999999998e+01	 1.250000000000000e+01	 1.000427593230769e+01
0	 3.062499999999998e+01	 6.250000000000000e+00	 1.000194461076923e+01
0	 3.062499999999998e+01	 6.875000000000003e+00	 1.000216390784615e+01
0	 3.062499999999998e+01	 7.500000000000001e+00	 1.000237975538462e+01
0	 3.062499999999998e+01	 8.125000000000000e+00	 1.000259215338462e+01
0	 3.062499999999998e+01	 8.750000000000004e+00	 1.000280110184615e+01
0	 3.062499999999998e+01	 9.375000000000004e+00	 1.000300660076923e+01
0	 3.062499999999998e+01	 1.000000000000001e+01	 1.000320865015384e+01
0	 3.062499999999998e+01	 1.062500000000000e+01	 1.000340725000000e+01
0	 3.062499999999998e+01	 1.125000000000001e+01	 1.000360240030769e+01
0	 3.062499999999998e+01	 1.187500000000000e+01	 1.000379410107692e+01
0	 3.062499999999998e+01	 1.250000000000000e+01	 1.000398235230769e+01
0	 3.125000000000000e+01	 6.250000000000000e+00	 1.000196892307692e+01
0	 3.125000000000000e+01	 6.875000000000000e+00	 1.000217476923077e+01
0	 3.125000000000000e+01	 7.500000000000002e+00	 1.000237175384615e+01
0	 3.125000000000000e+01	 8.125000000000004e+00	 1.000255987692307e+01
0	 3.125000000000000e+01	 8.750000000000004e+00	 1.000273913846154e+01
0	 3.125000000000000e+01	 9.375000000000004e+00	 1.000290953846154e+01
0	 3.125000000000000e+01	 1.000000000000000e+01	 1.000307107692307e+01
0	 3.125000000000000e+01	 1.062500000000000e+01	 1.000322375384615e+01
0	 3.125000000000001e+01	 1.125000000000001e+01	 1.000336756923077e+01
0	 3.125000000000000e+01	 1.187500000000001e+01	 1.000350252307692e+01
0	 3.125000000000000e+01	 1.250000000000000e+01	 1.000362861538461e+01
0	 2.500000000000000e+01	 1.250000000000000e+01	 1.000445892307692e+01
0	 2.500000000000000e+01	 1.312500000000000e+01	 1.000456031846154e+01
0	 2.500000000000000e+01	 1.375000000000000e+01	 1.000465099692307e+01
0	 2.500000000000000e+01	 1.437500000000000e+01	 1.000473095846153e+01
0	 2.500000000000000e+01	 1.500000000000000e+01	 1.000480020307692e+01
0	 2.500000000000000e+01	 1.562500000000000e+01	 1.000485873076923e+01
0	 2.500000000000000e+01	 1.625000000000000e+01	 1.000490654153846e+01
0	 2.500000000000000e+01	 1.687500000000000e+01	 1.000494363538461e+01
0	 2.500000000000000e+01	 1.750000000000001e+01	 1.000497001230769e+01
0	 2.500000000000000e+01	 1.812500000000001e+01	 1.000498567230769e+01
0	 2.500000000000000e+01	 1.875000000000000e+01	 1.000499061538461e+01
0	 2.562500000000000e+01	 1.250000000000000e+01	 1.000464659846154e+01
0	 2.562500000000000e+01	 1.312500000000000e+01	 1.000467966984615e+01
0	 2.562500000000000e+01	 1.375000000000000e+01	 1.000470475753846e+01
0	 2.562499999999999e+01	 1.437500000000000e+01	 1.000472186153846e+01
0	 2.562500000000000e+01	 1.500000000000000e+01	 1.000473098184615e+01
0	 2.562500000000000e+01	 1.562500000000000e+01	 1.000473211846153e+01
0	 2.562500000000000e+01	 1.625000000000001e+01	 1.000472527138461e+01
0	 2.562500000000000e+01	 1.687500000000000e+01	 1.000471044061539e+01
0	 2.562500000000000e+01	 1.750000000000000e+01	 1.000468762615384e+01
0	 2.562499999999999e+01	 1.812500000000000e+01	 1.000465682800000e+01
0	 2.562500000000000e+01	 1.875000000000000e+01	 1.000461804615384e+01
0	 2.624999999999999e+01	 1.250000000000000e+01	 1.000477411692308e+01
0	 2.625000000000000e+01	 1.312500000000000e+01	 1.000474824000000e+01
0	 2.625000000000000e+01	 1.375000000000000e+01	 1.000471711261538e+01
0	 2.625000000000000e+01	 1.437500000000000e+01	 1.000468073476923e+01
0	 2.625000000000000e+01	 1.500000000000000e+01	 1.000463910646154e+01
0	 2.625000000000000e+01	 1.562500000000001e+01	 1.000459222769231e+01
0	 2.625000000000000e+01	 1.625000000000001e+01	 1.000454009846154e+01
0	 2.625000000000000e+01	 1.687500000000000e+01	 1.000448271876923e+01
0	 2.624999999999999e+01	 1.750000000000001e+01	 1.000442008861538e+01
0	 2.625000000000000e+01	 1.812500000000000e+01	 1.000435220800000e+01
0	 2.624999999999999e+01	 1.875000000000000e+01	 1.000427907692307e+01
0	 2.687499999999999e+01	 1.250000000000000e+01	 1.000484147846154e+01
0	 2.687499999999999e+01	 1.312500000000000e+01	 1.000476602892308e+01
0	 2.687499999999999e+01	 1.375000000000000e+01	 1.000468806215385e+01
0	 2.687499999999999e+01	 1.437500000000000e+01	 1.000460757815385e+01
0	 2.687499999999999e+01	 1.500000000000000e+01	 1.000452457692308e+01
0	 2.687500000000000e+01	 1.562500000000000e+01	 1.000443905846154e+01
0	 2.687499999999999e+01	 1.625000000000000e+01	 1.000435102276923e+01
0	 2.687500000000000e+01	 1.687500000000001e+01	 1.000426046984615e+01
0	 2.687499999999999e+01	 1.750000000000000e+01	 1.000416739969231e+01
0	 2.687500000000000e+01	 1.812500000000000e+01	 1.000407181230769e+01
0	 2.687499999999999e+01	 1.875000000000000e+01	 1.000397370769231e+01
0	 2.749999999999999e+01	 1.250000000000000e+01	 1.000484868307692e+01
0	 2.749999999999999e+01	 1.312500000000000e+01	 1.000473303661538e+01
0	 2.749999999999999e+01	 1.375000000000000e+01	 1.000461760615384e+01
0	 2.749999999999999e+01	 1.437500000000000e+01	 1.000450239169230e+01
0	 2.749999999999999e+01	 1.500000000000000e+01	 1.000438739323077e+01
0	 2.749999999999998e+01	 1.562500000000000e+01	 1.000427261076923e+01
0	 2.750000000000000e+01	 1.625000000000000e+01	 1.000415804430769e+01
0	 2.749999999999999e+01	 1.687500000000000e+01	 1.000404369384615e+01
0	 2.750000000000000e+01	 1.750000000000001e+01	 1.000392955938462e+01
0	 2.749999999999999e+01	 1.812500000000000e+01	 1.000381564092308e+01
0	 2.749999999999999e+01	 1.875000000000000e+01	 1.000370193846153e+01
0	 2.812499999999999e+01	 1.250000000000000e+01	 1.000479573076923e+01
0	 2.812499999999998e+01	 1.312500000000000e+01	 1.000464926307692e+01
0	 2.812499999999999e+01	 1.375000000000000e+01	 1.000450574461538e+01
0	 2.812499999999999e+01	 1.437500000000001e+01	 1.000436517538462e+01
0	 2.812499999999999e+01	 1.500000000000000e+01	 1.000422755538461e+01
0	 2.812499999999999e+01	 1.562500000000000e+01	 1.000409288461539e+01
0	 2.812499999999999e+01	 1.625000000000000e+01	 1.000396116307692e+01
0	 2.812499999999999e+01	 1.687500000000001e+01	 1.000383239076923e+01
0	 2.812499999999999e+01	 1.750000000000001e+01	 1.000370656769230e+01
0	 2.812499999999999e+01	 1.812500000000000e+01	 1.000358369384616e+01
0	 2.812499999999999e+01	 1.875000000000000e+01	 1.000346376923077e+01
0	 2.874999999999999e+01	 1.250000000000000e+01	 1.000468262153846e+01
0	 2.874999999999998e+01	 1.312500000000000e+01	 1.000451470830769e+01
0	 2.874999999999999e+01	 1.375000000000000e+01	 1.000435247753846e+01
0	 2.874999999999999e+01	 1.437500000000000e+01	 1.000419592923077e+01
0	 2.874999999999998e+01	 1.500000000000000e+01	 1.000404506338461e+01
0	 2.874999999999999e+01	 1.562500000000001e+01	 1.000389988000000e+01
0	 2.874999999999998e+01	 1.625000000000000e+01	 1.000376037907692e+01
0	 2.874999999999999e+01	 1.687500000000000e+01	 1.000362656061538e+01
0	 2.874999999999999e+01	 1.750000000000001e+01	 1.000349842461539e+01
0	 2.874999999999998e+01	 1.812500000000000e+01	 1.000337597107692e+01
0	 2.874999999999999e+01	 1.875000000000000e+01	 1.000325920000000e+01
0	 2.937499999999999e+01	 1.250000000000000e+01	 1.000450935538462e+01
0	 2.937499999999999e+01	 1.312500000000000e+01	 1.000432937230769e+01
0	 2.937499999999999e+01	 1.375000000000001e+01	 1.000415780492307e+01
0	 2.937499999999998e+01	 1.437500000000000e+01	 1.000399465323077e+01
0	 2.937499999999999e+01	 1.500000000000001e+01	 1.000383991723077e+01
0	 2.937499999999998e+01	 1.562500000000001e+01	 1.000369359692308e+01
0	 2.937499999999999e+01	 1.625000000000001e+01	 1.000355569230769e+01
0	 2.937499999999999e+01	 1.687500000000001e+01	 1.000342620338461e+01
0	 2.937499999999998e+01	 1.750000000000000e+01	 1.000330513015384e+01
0	 2.937499999999998e+01	 1.812500000000001e+01	 1.000319247261538e+01
0	 2.937499999999999e+01	 1.875000000000000e+01	 1.000308823076923e+01
0	 2.999999999999998e+01	 1.250000000000000e+01	 1.000427593230769e+01
0	 2.999999999999998e+01	 1.312500000000000e+01	 1.000409325507692e+01
0	 2.999999999999998e+01	 1.375000000000000e+01	 1.000392172676923e+01
0	 2.999999999999998e+01	 1.437500000000000e+01	 1.000376134738461e+01
0	 2.999999999999998e+01	 1.500000000000000e+01	 1.000361211692308e+01
0	 2.999999999999999e+01	 1.562500000000000e+01	 1.000347403538461e+01
0	 2.999999999999999e+01	 1.625000000000001e+01	 1.000334710276923e+01
0	 2.999999999999998e+01	 1.687500000000000e+01	 1.000323131907692e+01
0	 2.999999999999998e+01	 1.750000000000000e+01	 1.000312668430769e+01
0	 2.999999999999999e+01	 1.812500000000001e+01	 1.000303319846154e+01
0	 2.999999999999998e+01	 1.875000000000000e+01	 1.000295086153846e+01
0	 3.062499999999998e+01	 1.250000000000000e+01	 1.000398235230769e+01
0	 3.062499999999998e+01	 1.312500000000000e+01	 1.000380635661538e+01
0	 3.062499999999998e+01	 1.375000000000000e+01	 1.000364424307692e+01
0	 3.062499999999998e+01	 1.437500000000000e+01	 1.000349601169230e+01
0	 3.062499999999998e+01	 1.500000000000000e+01	 1.000336166246153e+01
0	 3.062499999999998e+01	 1.562500000000000e+01	 1.000324119538461e+01
0	 3.062499999999998e+01	 1.625000000000000e+01	 1.000313461046154e+01
0	 3.062499999999998e+01	 1.687500000000000e+01	 1.000304190769231e+01
0	 3.062499999999998e+01	 1.750000000000000e+01	 1.000296308707692e+01
0	 3.062499999999998e+01	 1.812500000000000e+01	 1.000289814861538e+01
0	 3.062499999999998e+01	 1.875000000000000e+01	 1.000284709230769e+01
0	 3.125000000000000e+01	 1.250000000000000e+01	 1.000362861538461e+01
0	 3.125000000000000e+01	 1.312500000000000e+01	 1.000346867692308e+01
0	 3.125000000000000e+01	 1.375000000000000e+01	 1.000332535384615e+01
0	 3.125000000000000e+01	 1.437500000000000e+01	 1.000319864615384e+01
0	 3.125000000000000e+01	 1.500000000000000e+01	 1.000308855384615e+01
0	 3.125000000000000e+01	 1.562500000000000e+01	 1.000299507692308e+01
0	 3.125000000000000e+01	 1.625000000000000e+01	 1.000291821538462e+01
0	 3.125000000000000e+01	 1.687500000000000e+01	 1.000285796923077e+01
0	 3.125000000000001e+01	 1.750000000000001e+01	 1.000281433846154e+01
0	 3.125000000000000e+01	 1.812500000000001e+01	 1.000278732307692e+01
0	 3.125000000000000e+01	 1.875000000000000e+01	 1.000277692307692e+01
0	 2.500000000000000e+01	 1.875000000000000e+01	 1.000499061538461e+01
0	 2.500000000000000e+01	 1.937500000000000e+01	 1.000468969076923e+01
0	 2.500000000000000e+01	 2.000000000000000e+01	 1.000440827076923e+01
0	 2.500000000000000e+01	 2.062500000000000e+01	 1.000414635538462e+01
0	 2.500000000000000e+01	 2.125000000000000e+01	 1.000390394461538e+01
0	 2.500000000000000e+01	 2.187500000000000e+01	 1.000368103846154e+01
0	 2.500000000000000e+01	 2.250000000000000e+01	 1.000347763692308e+01
0	 2.500000000000000e+01	 2.312500000000001e+01	 1.000329374000000e+01
0	 2.500000000000000e+01	 2.375000000000001e+01	 1.000312934769230e+01
0	 2.500000000000000e+01	 2.437500000000001e+01	 1.000298446000000e+01
0	 2.500000000000000e+01	 2.500000000000000e+01	 1.000285907692307e+01
0	 2.562500000000000e+01	 1.875000000000000e+01	 1.000461804615384e+01
0	 2.562500000000000e+01	 1.937500000000000e+01	 1.000436649861538e+01
0	 2.562500000000000e+01	 2.000000000000000e+01	 1.000413229292307e+01
0	 2.562499999999999e+01	 2.062500000000000e+01	 1.000391542907692e+01
0	 2.562500000000000e+01	 2.125000000000001e+01	 1.000371590707692e+01
0	 2.562500000000000e+01	 2.187500000000000e+01	 1.000353372692308e+01
0	 2.562500000000000e+01	 2.250000000000000e+01	 1.000336888861538e+01
0	 2.562500000000000e+01	 2.312500000000000e+01	 1.000322139215385e+01
0	 2.562500000000000e+01	 2.375000000000000e+01	 1.000309123753846e+01
0	 2.562499999999999e+01	 2.437500000000000e+01	 1.000297842476923e+01
0	 2.562500000000000e+01	 2.500000000000000e+01	 1.000288295384615e+01
0	 2.624999999999999e+01	 1.875000000000000e+01	 1.000427907692307e+01
0	 2.625000000000000e+01	 1.937500000000001e+01	 1.000407199569232e+01
0	 2.625000000000000e+01	 2.000000000000000e+01	 1.000388009353846e+01
0	 2.625000000000000e+01	 2.062500000000000e+01	 1.000370337046154e+01
0	 2.625000000000000e+01	 2.125000000000000e+01	 1.000354182646154e+01
0	 2.625000000000000e+01	 2.187500000000001e+01	 1.000339546153846e+01
0	 2.625000000000000e+01	 2.250000000000000e+01	 1.000326427569231e+01
0	 2.625000000000000e+01	 2.312500000000001e+01	 1.000314826892307e+01
0	 2.624999999999999e+01	 2.375000000000000e+01	 1.000304744123077e+01
0	 2.625000000000000e+01	 2.437500000000000e+01	 1.000296179261539e+01
0	 2.624999999999999e+01	 2.500000000000000e+01	 1.000289132307692e+01
0	 2.687499999999999e+01	 1.875000000000000e+01	 1.000397370769231e+01
0	 2.687499999999999e+01	 1.937500000000000e+01	 1.000380618199999e+01
0	 2.687499999999999e+01	 2.000000000000000e+01	 1.000365167261539e+01
0	 2.687499999999999e+01	 2.062500000000000e+01	 1.000351017953846e+01
0	 2.687499999999999e+01	 2.125000000000000e+01	 1.000338170276923e+01
0	 2.687500000000000e+01	 2.187500000000001e+01	 1.000326624230769e+01
0	 2.687499999999999e+01	 2.250000000000000e+01	 1.000316379815384e+01
0	 2.687500000000000e+01	 2.312500000000000e+01	 1.000307437030768e+01
0	 2.687499999999999e+01	 2.375000000000001e+01	 1.000299795876922e+01
0	 2.687500000000000e+01	 2.437500000000000e+01	 1.000293456353846e+01
0	 2.687499999999999e+01	 2.500000000000000e+01	 1.000288418461538e+01
0	 2.749999999999999e+01	 1.875000000000000e+01	 1.000370193846153e+01
0	 2.749999999999999e+01	 1.937500000000000e+01	 1.000356905753846e+01
0	 2.749999999999999e+01	 2.000000000000000e+01	 1.000344703015384e+01
0	 2.749999999999999e+01	 2.062500000000000e+01	 1.000333585630769e+01
0	 2.749999999999999e+01	 2.125000000000000e+01	 1.000323553600000e+01
0	 2.749999999999998e+01	 2.187500000000000e+01	 1.000314606923077e+01
0	 2.750000000000000e+01	 2.250000000000001e+01	 1.000306745600000e+01
0	 2.749999999999999e+01	 2.312500000000001e+01	 1.000299969630769e+01
0	 2.750000000000000e+01	 2.375000000000000e+01	 1.000294279015384e+01
0	 2.749999999999999e+01	 2.437500000000001e+01	 1.000289673753846e+01
0	 2.749999999999999e+01	 2.500000000000000e+01	 1.000286153846155e+01
0	 2.812499999999999e+01	 1.875000000000000e+01	 1.000346376923077e+01
0	 2.812499999999998e+01	 1.937500000000000e+01	 1.000336062230769e+01
0	 2.812499999999999e+01	 2.000000000000000e+01	 1.000326616615384e+01
0	 2.812499999999999e+01	 2.062500000000000e+01	 1.000318040076923e+01
0	 2.812499999999999e+01	 2.125000000000000e+01	 1.000310332615384e+01
0	 2.812499999999999e+01	 2.187500000000000e+01	 1.000303494230769e+01
0	 2.812499999999999e+01	 2.250000000000000e+01	 1.000297524923077e+01
0	 2.812499999999999e+01	 2.312500000000001e+01	 1.000292424692307e+01
0	 2.812499999999999e+01	 2.375000000000000e+01	 1.000288193538462e+01
0	 2.812499999999999e+01	 2.437500000000001e+01	 1.000284831461538e+01
0	 2.812499999999999e+01	 2.500000000000000e+01	 1.000282338461538e+01
0	 2.874999999999999e+01	 1.875000000000000e+01	 1.000325920000000e+01
0	 2.874999999999998e+01	 1.937500000000000e+01	 1.000318087630769e+01
0	 2.874999999999999e+01	 2.000000000000000e+01	 1.000310908061538e+01
0	 2.874999999999999e+01	 2.062500000000000e+01	 1.000304381292307e+01
0	 2.874999999999998e+01	 2.125000000000000e+01	 1.000298507323077e+01
0	 2.874999999999999e+01	 2.187500000000000e+01	 1.000293286153846e+01
0	 2.874999999999998e+01	 2.250000000000000e+01	 1.000288717784615e+01
0	 2.874999999999999e+01	 2.312500000000001e+01	 1.000284802215385e+01
0	 2.874999999999999e+01	 2.375000000000001e+01	 1.000281539446154e+01
0	 2.874999999999998e+01	 2.437500000000000e+01	 1.000278929476923e+01
0	 2.874999999999999e+01	 2.500000000000000e+01	 1.000276972307693e+01
0	 2.937499999999999e+01	 1.875000000000000e+01	 1.000308823076923e+01
0	 2.937499999999999e+01	 1.937500000000000e+01	 1.000302981953846e+01
0	 2.937499999999999e+01	 2.000000000000000e+01	 1.000297577353846e+01
0	 2.937499999999998e+01	 2.062500000000000e+01	 1.000292609276923e+01
0	 2.937499999999999e+01	 2.125000000000000e+01	 1.000288077723077e+01
0	 2.937499999999998e+01	 2.187500000000001e+01	 1.000283982692308e+01
0	 2.937499999999999e+01	 2.250000000000000e+01	 1.000280324184615e+01
0	 2.937499999999999e+01	 2.312500000000001e+01	 1.000277102200000e+01
0	 2.937499999999998e+01	 2.375000000000000e+01	 1.000274316738462e+01
0	 2.937499999999998e+01	 2.437500000000001e+01	 1.000271967800000e+01
0	 2.937499999999999e+01	 2.500000000000000e+01	 1.000270055384615e+01
0	 2.999999999999998e+01	 1.875000000000000e+01	 1.000295086153846e+01
0	 2.999999999999998e+01	 1.937500000000000e+01	 1.000290745199999e+01
0	 2.999999999999998e+01	 2.000000000000000e+01	 1.000286624492307e+01
0	 2.999999999999998e+01	 2.062500000000000e+01	 1.000282724030769e+01
0	 2.999999999999998e+01	 2.125000000000000e+01	 1.000279043815384e+01
0	 2.999999999999999e+01	 2.187500000000000e+01	 1.000275583846154e+01
0	 2.999999999999999e+01	 2.250000000000000e+01	 1.000272344123076e+01
0	 2.999999999999998e+01	 2.312500000000000e+01	 1.000269324646154e+01
0	 2.999999999999998e+01	 2.375000000000000e+01	 1.000266525415384e+01
0	 2.999999999999999e+01	 2.437500000000001e+01	 1.000263946430769e+01
0	 2.999999999999998e+01	 2.500000000000000e+01	 1.000261587692308e+01
0	 3.062499999999998e+01	 1.875000000000000e+01	 1.000284709230769e+01
0	 3.062499999999998e+01	 1.937500000000000e+01	 1.000281377369231e+01
0	 3.062499999999998e+01	 2.000000000000000e+01	 1.000278049476923e+01
0	 3.062499999999998e+01	 2.062500000000000e+01	 1.000274725553846e+01
0	 3.062499999999998e+01	 2.125000000000000e+01	 1.000271405600000e+01
0	 3.062499999999998e+01	 2.187500000000000e+01	 1.000268089615384e+01
0	 3.062499999999998e+01	 2.250000000000000e+01	 1.000264777599999e+01
0	 3.062499999999998e+01	 2.312500000000001e+01	 1.000261469553846e+01
0	 3.062499999999998e+01	 2.375000000000000e+01	 1.000258165476923e+01
0	 3.062499999999998e+01	 2.437500000000001e+01	 1.000254865369230e+01
0	 3.062499999999998e+01	 2.500000000000000e+01	 1.000251569230769e+01
0	 3.125000000000000e+01	 1.875000000000000e+01	 1.000277692307692e+01
0	 3.125000000000000e+01	 1.937500000000000e+01	 1.000274878461538e+01
0	 3.125000000000000e+01	 2.000000000000000e+01	 1.000271852307692e+01
0	 3.125000000000000e+01	 2.062500000000000e+01	 1.000268613846154e+01
0	 3.125000000000000e+01	 2.125000000000000e+01	 1.000265163076923e+01
0	 3.125000000000000e+01	 2.187500000000000e+01	 1.000261500000000e+01
0	 3.125000000000000e+01	 2.250000000000000e+01	 1.000257624615385e+01
0	 3.125000000000000e+01	 2.312500000000001e+01	 1.000253536923076e+01
0	 3.125000000000001e+01	 2.375000000000001e+01	 1.000249236923077e+01
0	 3.125000000000000e+01	 2.437500000000001e+01	 1.000244724615384e+01
0	 3.125000000000000e+01	 2.500000000000000e+01	 1.000240000000000e+01
0	 2.500000000000000e+01	 2.500000000000000e+01	 1.000285907692307e+01
0	 2.500000000000000e+01	 2.562500000000000e+01	 1.000274673538461e+01
0	 2.500000000000000e+01	 2.625000000000000e+01	 1.000263020307693e+01
0	 2.500000000000000e+01	 2.687499999999999e+01	 1.000250948000000e+01
0	 2.500000000000000e+01	 2.749999999999999e+01	 1.000238456615385e+01
0	 2.500000000000000e+01	 2.812499999999999e+01	 1.000225546153846e+01
0	 2.500000000000000e+01	 2.874999999999999e+01	 1.000212216615385e+01
0	 2.500000000000000e+01	 2.937499999999999e+01	 1.000198468000000e+01
0	 2.500000000000000e+01	 2.999999999999998e+01	 1.000184300307692e+01
0	 2.500000000000000e+01	 3.062499999999998e+01	 1.000169713538461e+01
0	 2.500000000000000e+01	 3.125000000000000e+01	 1.000154707692307e+01
0	 2.562500000000000e+01	 2.500000000000000e+01	 1.000288295384615e+01
0	 2.562500000000000e+01	 2.562500000000000e+01	 1.000276634492308e+01
0	 2.562500000000000e+01	 2.625000000000000e+01	 1.000264646276923e+01
0	 2.562500000000000e+01	 2.687499999999999e+01	 1.000252330738461e+01
0	 2.562500000000000e+01	 2.749999999999999e+01	 1.000239687876923e+01
0	 2.562500000000000e+01	 2.812500000000000e+01	 1.000226717692307e+01
0	 2.562500000000000e+01	 2.874999999999999e+01	 1.000213420184615e+01
0	 2.562500000000000e+01	 2.937499999999999e+01	 1.000199795353845e+01
0	 2.562500000000001e+01	 3.000000000000000e+01	 1.000185843200000e+01
0	 2.562499999999999e+01	 3.062499999999998e+01	 1.000171563723076e+01
0	 2.562500000000000e+01	 3.125000000000000e+01	 1.000156956923076e+01
0	 2.624999999999999e+01	 2.500000000000000e+01	 1.000289132307692e+01
0	 2.625000000000000e+01	 2.562500000000000e+01	 1.000277122215385e+01
0	 2.625000000000000e+01	 2.625000000000000e+01	 1.000264876553846e+01
0	 2.625000000000000e+01	 2.687499999999999e+01	 1.000252395323076e+01
0	 2.624999999999999e+01	 2.749999999999999e+01	 1.000239678523076e+01
0	 2.625000000000000e+01	 2.812499999999999e+01	 1.000226726153846e+01
0	 2.624999999999999e+01	 2.874999999999998e+01	 1.000213538215384e+01
0	 2.625000000000000e+01	 2.937499999999999e+01	 1.000200114707692e+01
0	 2.625000000000000e+01	 2.999999999999998e+01	 1.000186455630769e+01
0	 2.625000000000000e+01	 3.062499999999999e+01	 1.000172560984615e+01
0	 2.624999999999999e+01	 3.125000000000000e+01	 1.000158430769231e+01
0	 2.687499999999999e+01	 2.500000000000000e+01	 1.000288418461538e+01
0	 2.687499999999999e+01	 2.562500000000000e+01	 1.000276136707692e+01
0	 2.687499999999999e+01	 2.625000000000000e+01	 1.000263711138461e+01
0	 2.687500000000000e+01	 2.687500000000000e+01	 1.000251141753846e+01
0	 2.687500000000000e+01	 2.749999999999999e+01	 1.000238428553846e+01
0	 2.687500000000000e+01	 2.812499999999999e+01	 1.000225571538461e+01
0	 2.687499999999999e+01	 2.874999999999998e+01	 1.000212570707692e+01
0	 2.687499999999999e+01	 2.937499999999998e+01	 1.000199426061538e+01
0	 2.687500000000000e+01	 2.999999999999999e+01	 1.000186137600000e+01
0	 2.687499999999999e+01	 3.062499999999998e+01	 1.000172705323077e+01
0	 2.687499999999999e+01	 3.125000000000000e+01	 1.000159129230769e+01
0	 2.749999999999999e+01	 2.500000000000000e+01	 1.000286153846155e+01
0	 2.749999999999999e+01	 2.562500000000000e+01	 1.000273677969230e+01
0	 2.750000000000000e+01	 2.625000000000000e+01	 1.000261150030769e+01
0	 2.750000000000000e+01	 2.687500000000000e+01	 1.000248570030769e+01
0	 2.749999999999999e+01	 2.749999999999999e+01	 1.000235937969230e+01
0	 2.749999999999999e+01	 2.812499999999999e+01	 1.000223253846153e+01
0	 2.749999999999999e+01	 2.874999999999999e+01	 1.000210517661538e+01
0	 2.749999999999999e+01	 2.937499999999998e+01	 1.000197729415385e+01
0	 2.749999999999999e+01	 2.999999999999999e+01	 1.000184889107692e+01
0	 2.750000000000000e+01	 3.062499999999998e+01	 1.000171996738461e+01
0	 2.749999999999999e+01	 3.125000000000000e+01	 1.000159052307690e+01
0	 2.812499999999999e+01	 2.500000000000000e+01	 1.000282338461538e+01
0	 2.812499999999999e+01	 2.562500000000000e+01	 1.000269746000000e+01
0	 2.812499999999999e+01	 2.625000000000000e+01	 1.000257193230769e+01
0	 2.812499999999999e+01	 2.687500000000000e+01	 1.000244680153846e+01
0	 2.812499999999999e+01	 2.749999999999999e+01	 1.000232206769230e+01
0	 2.812499999999999e+01	 2.812499999999999e+01	 1.000219773076923e+01
0	 2.812499999999999e+01	 2.874999999999999e+01	 1.000207379076923e+01
0	 2.812499999999999e+01	 2.937499999999998e+01	 1.000195024769231e+01
0	 2.812499999999999e+01	 2.999999999999999e+01	 1.000182710153846e+01
0	 2.812499999999999e+01	 3.062499999999998e+01	 1.000170435230769e+01
0	 2.812499999999999e+01	 3.125000000000000e+01	 1.000158199999999e+01
0	 2.874999999999999e+01	 2.500000000000000e+01	 1.000276972307693e+01
0	 2.874999999999999e+01	 2.562500000000000e+01	 1.000264340800000e+01
0	 2.874999999999998e+01	 2.624999999999999e+01	 1.000251840738461e+01
0	 2.874999999999998e+01	 2.687499999999999e+01	 1.000239472123076e+01
0	 2.874999999999999e+01	 2.750000000000000e+01	 1.000227234953846e+01
0	 2.874999999999999e+01	 2.812499999999999e+01	 1.000215129230769e+01
0	 2.874999999999999e+01	 2.874999999999999e+01	 1.000203154953846e+01
0	 2.874999999999999e+01	 2.937499999999999e+01	 1.000191312123076e+01
0	 2.874999999999999e+01	 2.999999999999999e+01	 1.000179600738461e+01
0	 2.874999999999999e+01	 3.062499999999998e+01	 1.000168020800000e+01
0	 2.874999999999999e+01	 3.125000000000000e+01	 1.000156572307693e+01
0	 2.937499999999999e+01	 2.500000000000000e+01	 1.000270055384615e+01
0	 2.937499999999998e+01	 2.562499999999999e+01	 1.000257462369231e+01
0	 2.937499999999999e+01	 2.624999999999999e+01	 1.000245092553845e+01
0	 2.937499999999998e+01	 2.687499999999999e+01	 1.000232945938461e+01
0	 2.937499999999999e+01	 2.749999999999999e+01	 1.000221022523077e+01
0	 2.937499999999999e+01	 2.812499999999999e+01	 1.000209322307692e+01
0	 2.937499999999998e+01	 2.874999999999999e+01	 1.000197845292307e+01
0	 2.937499999999999e+01	 2.937499999999999e+01	 1.000186591476923e+01
0	 2.937499999999998e+01	 2.999999999999998e+01	 1.000175560861538e+01
0	 2.937499999999999e+01	 3.062499999999998e+01	 1.000164753446153e+01
0	 2.937499999999999e+01	 3.125000000000000e+01	 1.000154169230769e+01
0	 2.999999999999998e+01	 2.500000000000000e+01	 1.000261587692308e+01
0	 2.999999999999999e+01	 2.562500000000000e+01	 1.000249110707692e+01
0	 2.999999999999998e+01	 2.625000000000000e+01	 1.000236948676923e+01
0	 2.999999999999999e+01	 2.687500000000000e+01	 1.000225101600000e+01
0	 2.999999999999999e+01	 2.749999999999999e+01	 1.000213569476923e+01
0	 2.999999999999998e+01	 2.812499999999999e+01	 1.000202352307692e+01
0	 2.999999999999998e+01	 2.874999999999999e+01	 1.000191450092308e+01
0	 2.999999999999998e+01	 2.937499999999998e+01	 1.000180862830769e+01
0	 2.999999999999998e+01	 2.999999999999998e+01	 1.000170590523077e+01
0	 2.999999999999998e+01	 3.062499999999999e+01	 1.000160633169231e+01
0	 2.999999999999998e+01	 3.125000000000000e+01	 1.000150990769231e+01
0	 3.062499999999998e+01	 2.500000000000000e+01	 1.000251569230769e+01
0	 3.062499999999998e+01	 2.562500000000000e+01	 1.000239285815385e+01
0	 3.062499999999998e+01	 2.625000000000000e+01	 1.000227409107692e+01
0	 3.062499999999998e+01	 2.687500000000000e+01	 1.000215939107692e+01
0	 3.062499999999998e+01	 2.749999999999999e+01	 1.000204875815385e+01
0	 3.062499999999998e+01	 2.812499999999999e+01	 1.000194219230769e+01
0	 3.062499999999998e+01	 2.874999999999999e+01	 1.000183969353846e+01
0	 3.062499999999998e+01	 2.937499999999999e+01	 1.000174126184615e+01
0	 3.062499999999998e+01	 2.999999999999998e+01	 1.000164689723077e+01
0	 3.062499999999998e+01	 3.062499999999998e+01	 1.000155659969231e+01
0	 3.062499999999998e+01	 3.125000000000000e+01	 1.000147036923077e+01
0	 3.125000000000000e+01	 2.500000000000000e+01	 1.000240000000000e+01
0	 3.125000000000000e+01	 2.562500000000000e+01	 1.000227987692307e+01
0	 3.125000000000000e+01	 2.625000000000000e+01	 1.000216473846153e+01
0	 3.124999999999999e+01	 2.687499999999999e+01	 1.000205458461538e+01
0	 3.125000000000000e+01	 2.749999999999999e+01	 1.000194941538462e+01
0	 3.125000000000000e+01	 2.812499999999999e+01	 1.000184923076923e+01
0	 3.125000000000000e+01	 2.874999999999999e+01	 1.000175403076923e+01
0	 3.125000000000000e+01	 2.937499999999999e+01	 1.000166381538462e+01
0	 3.125000000000000e+01	 2.999999999999998e+01	 1.000157858461539e+01
0	 3.125000000000000e+01	 3.062499999999998e+01	 1.000149833846154e+01
0	 3.125000000000000e+01	 3.125000000000000e+01	 1.000142307692308e+01
0	 2.500000000000000e+01	 3.125000000000000e+01	 1.000154707692307e+01
0	 2.500000000000000e+01	 3.187500000000000e+01	 1.000147299846153e+01
0	 2.500000000000000e+01	 3.250000000000001e+01	 1.000139784000000e+01
0	 2.500000000000000e+01	 3.312499999999999e+01	 1.000132160153846e+01
0	 2.500000000000000e+01	 3.374999999999999e+01	 1.000124428307692e+01
0	 2.500000000000000e+01	 3.437499999999999e+01	 1.000116588461538e+01
0	 2.500000000000000e+01	 3.499999999999999e+01	 1.000108640615384e+01
0	 2.500000000000000e+01	 3.562499999999999e+01	 1.000100584769230e+01
0	 2.500000000000000e+01	 3.624999999999998e+01	 1.000092420923077e+01
0	 2.500000000000000e+01	 3.687499999999998e+01	 1.000084149076922e+01
0	 2.500000000000000e+01	 3.750000000000000e+01	 1.000075769230769e+01
0	 2.562500000000000e+01	 3.125000000000000e+01	 1.000156956923076e+01
0	 2.562500000000000e+01	 3.187500000000000e+01	 1.000149436323077e+01
0	 2.562500000000000e+01	 3.250000000000000e+01	 1.000141803753845e+01
0	 2.562500000000000e+01	 3.312499999999999e+01	 1.000134059215384e+01
0	 2.562500000000000e+01	 3.374999999999999e+01	 1.000126202707692e+01
0	 2.562500000000000e+01	 3.437500000000000e+01	 1.000118234230769e+01
0	 2.562500000000000e+01	 3.499999999999999e+01	 1.000110153784615e+01
0	 2.562500000000000e+01	 3.562499999999999e+01	 1.000101961369231e+01
0	 2.562500000000001e+01	 3.624999999999999e+01	 1.000093656984615e+01
0	 2.562499999999999e+01	 3.687499999999997e+01	 1.000085240630768e+01
0	 2.562500000000000e+01	 3.750000000000000e+01	 1.000076712307693e+01
0	 2.624999999999999e+01	 3.125000000000000e+01	 1.000158430769231e+01
0	 2.625000000000000e+01	 3.187500000000000e+01	 1.000150840492307e+01
0	 2.625000000000000e+01	 3.250000000000001e+01	 1.000143134276923e+01
0	 2.625000000000000e+01	 3.312500000000000e+01	 1.000135312123076e+01
0	 2.624999999999999e+01	 3.374999999999999e+01	 1.000127374030769e+01
0	 2.625000000000000e+01	 3.437499999999999e+01	 1.000119320000000e+01
0	 2.624999999999999e+01	 3.499999999999999e+01	 1.000111150030768e+01
0	 2.625000000000000e+01	 3.562499999999999e+01	 1.000102864123076e+01
0	 2.625000000000000e+01	 3.624999999999998e+01	 1.000094462276923e+01
0	 2.625000000000000e+01	 3.687499999999998e+01	 1.000085944492308e+01
0	 2.624999999999999e+01	 3.750000000000001e+01	 1.000077310769231e+01
0	 2.687499999999999e+01	 3.125000000000000e+01	 1.000159129230769e+01
0	 2.687499999999999e+01	 3.187500000000000e+01	 1.000151512353846e+01
0	 2.687499999999999e+01	 3.250000000000000e+01	 1.000143775569231e+01
0	 2.687500000000000e+01	 3.312500000000000e+01	 1.000135918876923e+01
0	 2.687500000000000e+01	 3.374999999999999e+01	 1.000127942276923e+01
0	 2.687500000000000e+01	 3.437500000000000e+01	 1.000119845769231e+01
0	 2.687499999999999e+01	 3.499999999999998e+01	 1.000111629353846e+01
0	 2.687499999999999e+01	 3.562499999999998e+01	 1.000103293030768e+01
0	 2.687500000000000e+01	 3.624999999999999e+01	 1.000094836799999e+01
0	 2.687499999999999e+01	 3.687499999999998e+01	 1.000086260661539e+01
0	 2.687499999999999e+01	 3.750000000000000e+01	 1.000077564615384e+01
0	 2.749999999999999e+01	 3.125000000000000e+01	 1.000159052307690e+01
0	 2.749999999999999e+01	 3.187500000000000e+01	 1.000151451907691e+01
0	 2.750000000000000e+01	 3.250000000000000e+01	 1.000143727630769e+01
0	 2.750000000000000e+01	 3.312499999999999e+01	 1.000135879476923e+01
0	 2.749999999999999e+01	 3.374999999999999e+01	 1.000127907446153e+01
0	 2.749999999999999e+01	 3.437499999999999e+01	 1.000119811538461e+01
0	 2.749999999999999e+01	 3.499999999999999e+01	 1.000111591753846e+01
0	 2.749999999999999e+01	 3.562499999999998e+01	 1.000103248092307e+01
0	 2.749999999999999e+01	 3.624999999999999e+01	 1.000094780553846e+01
0	 2.750000000000000e+01	 3.687499999999999e+01	 1.000086189138462e+01
0	 2.749999999999999e+01	 3.750000000000000e+01	 1.000077473846155e+01
0	 2.812499999999999e+01	 3.125000000000000e+01	 1.000158199999999e+01
0	 2.812499999999999e+01	 3.187500000000000e+01	 1.000150659153846e+01
0	 2.812499999999999e+01	 3.249999999999999e+01	 1.000142990461537e+01
0	 2.812499999999999e+01	 3.312500000000000e+01	 1.000135193923077e+01
0	 2.812499999999999e+01	 3.374999999999999e+01	 1.000127269538462e+01
0	 2.812499999999999e+01	 3.437499999999999e+01	 1.000119217307692e+01
0	 2.812499999999999e+01	 3.499999999999999e+01	 1.000111037230769e+01
0	 2.812499999999999e+01	 3.562499999999999e+01	 1.000102729307692e+01
0	 2.812499999999999e+01	 3.624999999999998e+01	 1.000094293538462e+01
0	 2.812499999999999e+01	 3.687499999999999e+01	 1.000085729923077e+01
0	 2.812499999999999e+01	 3.750000000000000e+01	 1.000077038461538e+01
0	 2.874999999999999e+01	 3.125000000000000e+01	 1.000156572307693e+01
0	 2.874999999999999e+01	 3.187500000000000e+01	 1.000149134092307e+01
0	 2.874999999999998e+01	 3.249999999999999e+01	 1.000141564061539e+01
0	 2.874999999999998e+01	 3.312499999999999e+01	 1.000133862215385e+01
0	 2.874999999999999e+01	 3.375000000000001e+01	 1.000126028553846e+01
0	 2.874999999999999e+01	 3.437500000000000e+01	 1.000118063076923e+01
0	 2.874999999999999e+01	 3.499999999999999e+01	 1.000109965784616e+01
0	 2.874999999999999e+01	 3.562499999999999e+01	 1.000101736676923e+01
0	 2.874999999999999e+01	 3.624999999999999e+01	 1.000093375753846e+01
0	 2.874999999999999e+01	 3.687499999999998e+01	 1.000084883015384e+01
0	 2.874999999999999e+01	 3.750000000000000e+01	 1.000076258461538e+01
0	 2.937499999999999e+01	 3.125000000000000e+01	 1.000154169230769e+01
0	 2.937499999999998e+01	 3.187500000000000e+01	 1.000146876723077e+01
0	 2.937499999999999e+01	 3.250000000000000e+01	 1.000139448430768e+01
0	 2.937499999999998e+01	 3.312499999999999e+01	 1.000131884353846e+01
0	 2.937499999999999e+01	 3.374999999999999e+01	 1.000124184492307e+01
0	 2.937499999999999e+01	 3.437499999999999e+01	 1.000116348846154e+01
0	 2.937499999999998e+01	 3.500000000000000e+01	 1.000108377415385e+01
0	 2.937499999999999e+01	 3.562499999999999e+01	 1.000100270200000e+01
0	 2.937499999999998e+01	 3.624999999999998e+01	 1.000092027200000e+01
0	 2.937499999999999e+01	 3.687499999999999e+01	 1.000083648415385e+01
0	 2.937499999999999e+01	 3.750000000000000e+01	 1.000075133846154e+01
0	 2.999999999999998e+01	 3.125000000000000e+01	 1.000150990769231e+01
0	 2.999999999999999e+01	 3.187500000000000e+01	 1.000143887046154e+01
0	 2.999999999999998e+01	 3.249999999999999e+01	 1.000136643569230e+01
0	 2.999999999999999e+01	 3.312500000000000e+01	 1.000129260338462e+01
0	 2.999999999999999e+01	 3.374999999999999e+01	 1.000121737353846e+01
0	 2.999999999999998e+01	 3.437499999999999e+01	 1.000114074615385e+01
0	 2.999999999999998e+01	 3.499999999999999e+01	 1.000106272123077e+01
0	 2.999999999999998e+01	 3.562499999999998e+01	 1.000098329876923e+01
0	 2.999999999999998e+01	 3.624999999999998e+01	 1.000090247876923e+01
0	 2.999999999999998e+01	 3.687499999999998e+01	 1.000082026123077e+01
0	 2.999999999999998e+01	 3.750000000000000e+01	 1.000073664615385e+01
0	 3.062499999999998e+01	 3.125000000000000e+01	 1.000147036923077e+01
0	 3.062499999999998e+01	 3.187500000000000e+01	 1.000140165061539e+01
0	 3.062499999999998e+01	 3.249999999999999e+01	 1.000133149476923e+01
0	 3.062499999999998e+01	 3.312499999999999e+01	 1.000125990169231e+01
0	 3.062499999999998e+01	 3.374999999999999e+01	 1.000118687138462e+01
0	 3.062499999999998e+01	 3.437499999999999e+01	 1.000111240384616e+01
0	 3.062499999999998e+01	 3.499999999999999e+01	 1.000103649907692e+01
0	 3.062499999999998e+01	 3.562499999999999e+01	 1.000095915707692e+01
0	 3.062499999999998e+01	 3.624999999999999e+01	 1.000088037784616e+01
0	 3.062499999999998e+01	 3.687499999999998e+01	 1.000080016138461e+01
0	 3.062499999999998e+01	 3.750000000000000e+01	 1.000071850769231e+01
0	 3.125000000000000e+01	 3.125000000000000e+01	 1.000142307692308e+01
0	 3.125000000000000e+01	 3.187500000000000e+01	 1.000135710769231e+01
0	 3.125000000000000e+01	 3.250000000000001e+01	 1.000128966153846e+01
0	 3.124999999999999e+01	 3.312499999999999e+01	 1.000122073846154e+01
0	 3.125000000000000e+01	 3.374999999999999e+01	 1.000115033846154e+01
0	 3.125000000000000e+01	 3.437499999999999e+01	 1.000107846153846e+01
0	 3.125000000000000e+01	 3.499999999999999e+01	 1.000100510769231e+01
0	 3.125000000000000e+01	 3.562499999999999e+01	 1.000093027692307e+01
0	 3.125000000000000e+01	 3.624999999999998e+01	 1.000085396923077e+01
0	 3.125000000000000e+01	 3.687499999999998e+01	 1.000077618461537e+01
0	 3.125000000000000e+01	 3.750000000000000e+01	 1.000069692307692e+01
0	 2.500000000000000e+01	 3.750000000000000e+01	 1.000075769230769e+01
0	 2.500000000000000e+01	 3.812500000000000e+01	 1.000070368461538e+01
0	 2.500000000000000e+01	 3.875000000000001e+01	 1.000064787692308e+01
0	 2.500000000000000e+01	 3.937499999999999e+01	 1.000059026923076e+01
0	 2.500000000000000e+01	 3.999999999999999e+01	 1.000053086153846e+01
0	 2.500000000000000e+01	 4.062499999999999e+01	 1.000046965384615e+01
0	 2.500000000000000e+01	 4.124999999999999e+01	 1.000040664615385e+01
0	 2.500000000000000e+01	 4.187499999999999e+01	 1.000034183846154e+01
0	 2.500000000000000e+01	 4.249999999999999e+01	 1.000027523076923e+01
0	 2.500000000000000e+01	 4.312499999999999e+01	 1.000020682307692e+01
0	 2.500000000000000e+01	 4.375000000000000e+01	 1.000013661538461e+01
0	 2.562500000000000e+01	 3.750000000000000e+01	 1.000076712307693e+01
0	 2.562500000000000e+01	 3.812499999999999e+01	 1.000071456692307e+01
0	 2.562500000000000e+01	 3.874999999999999e+01	 1.000066017846154e+01
0	 2.562500000000000e+01	 3.937499999999999e+01	 1.000060395769231e+01
0	 2.562500000000000e+01	 3.999999999999999e+01	 1.000054590461538e+01
0	 2.562500000000000e+01	 4.062500000000000e+01	 1.000048601923077e+01
0	 2.562500000000000e+01	 4.124999999999999e+01	 1.000042430153847e+01
0	 2.562500000000000e+01	 4.187499999999999e+01	 1.000036075153846e+01
0	 2.562500000000001e+01	 4.249999999999998e+01	 1.000029536923077e+01
0	 2.562499999999999e+01	 4.312499999999997e+01	 1.000022815461536e+01
0	 2.562500000000000e+01	 4.375000000000000e+01	 1.000015910769230e+01
0	 2.624999999999999e+01	 3.750000000000001e+01	 1.000077310769231e+01
0	 2.625000000000000e+01	 3.812500000000000e+01	 1.000072191692307e+01
0	 2.625000000000000e+01	 3.875000000000001e+01	 1.000066886153847e+01
0	 2.625000000000000e+01	 3.937499999999999e+01	 1.000061394153846e+01
0	 2.624999999999999e+01	 3.999999999999999e+01	 1.000055715692308e+01
0	 2.625000000000000e+01	 4.062499999999999e+01	 1.000049850769231e+01
0	 2.624999999999999e+01	 4.124999999999997e+01	 1.000043799384615e+01
0	 2.625000000000000e+01	 4.187499999999999e+01	 1.000037561538461e+01
0	 2.625000000000000e+01	 4.249999999999999e+01	 1.000031137230770e+01
0	 2.625000000000000e+01	 4.312499999999998e+01	 1.000024526461539e+01
0	 2.624999999999999e+01	 4.375000000000001e+01	 1.000017729230769e+01
0	 2.687499999999999e+01	 3.750000000000000e+01	 1.000077564615384e+01
0	 2.687499999999999e+01	 3.812499999999999e+01	 1.000072573461539e+01
0	 2.687499999999999e+01	 3.875000000000000e+01	 1.000067392615384e+01
0	 2.687500000000000e+01	 3.937500000000000e+01	 1.000062022076923e+01
0	 2.687500000000000e+01	 3.999999999999999e+01	 1.000056461846153e+01
0	 2.687500000000000e+01	 4.062499999999999e+01	 1.000050711923077e+01
0	 2.687499999999999e+01	 4.124999999999999e+01	 1.000044772307692e+01
0	 2.687499999999999e+01	 4.187499999999999e+01	 1.000038643000000e+01
0	 2.687500000000000e+01	 4.249999999999999e+01	 1.000032323999999e+01
0	 2.687499999999999e+01	 4.312499999999997e+01	 1.000025815307692e+01
0	 2.687499999999999e+01	 4.375000000000000e+01	 1.000019116923078e+01
0	 2.749999999999999e+01	 3.750000000000000e+01	 1.000077473846155e+01
0	 2.749999999999999e+01	 3.812500000000000e+01	 1.000072602000000e+01
0	 2.750000000000000e+01	 3.874999999999999e+01	 1.000067537230769e+01
0	 2.750000000000000e+01	 3.937499999999999e+01	 1.000062279538461e+01
0	 2.749999999999999e+01	 3.999999999999999e+01	 1.000056828923076e+01
0	 2.749999999999999e+01	 4.062499999999999e+01	 1.000051185384616e+01
0	 2.749999999999999e+01	 4.124999999999999e+01	 1.000045348923076e+01
0	 2.749999999999999e+01	 4.187499999999999e+01	 1.000039319538461e+01
0	 2.749999999999999e+01	 4.249999999999998e+01	 1.000033097230768e+01
0	 2.750000000000000e+01	 4.312499999999998e+01	 1.000026682000000e+01
0	 2.749999999999999e+01	 4.375000000000000e+01	 1.000020073846153e+01
0	 2.812499999999999e+01	 3.750000000000000e+01	 1.000077038461538e+01
0	 2.812499999999999e+01	 3.812500000000000e+01	 1.000072277307693e+01
0	 2.812499999999999e+01	 3.874999999999999e+01	 1.000067320000001e+01
0	 2.812499999999999e+01	 3.937499999999999e+01	 1.000062166538461e+01
0	 2.812499999999999e+01	 3.999999999999999e+01	 1.000056816923077e+01
0	 2.812499999999999e+01	 4.062499999999999e+01	 1.000051271153846e+01
0	 2.812499999999999e+01	 4.125000000000000e+01	 1.000045529230769e+01
0	 2.812499999999999e+01	 4.187499999999998e+01	 1.000039591153847e+01
0	 2.812499999999999e+01	 4.249999999999998e+01	 1.000033456923077e+01
0	 2.812499999999999e+01	 4.312499999999999e+01	 1.000027126538462e+01
0	 2.812499999999999e+01	 4.375000000000000e+01	 1.000020599999999e+01
0	 2.874999999999999e+01	 3.750000000000000e+01	 1.000076258461538e+01
0	 2.874999999999999e+01	 3.812500000000000e+01	 1.000071599384616e+01
0	 2.874999999999998e+01	 3.874999999999999e+01	 1.000066740923077e+01
0	 2.874999999999998e+01	 3.937499999999999e+01	 1.000061683076923e+01
0	 2.874999999999999e+01	 4.000000000000000e+01	 1.000056425846154e+01
0	 2.874999999999999e+01	 4.062499999999999e+01	 1.000050969230769e+01
0	 2.874999999999999e+01	 4.124999999999999e+01	 1.000045313230770e+01
0	 2.874999999999999e+01	 4.187499999999998e+01	 1.000039457846153e+01
0	 2.874999999999999e+01	 4.249999999999998e+01	 1.000033403076924e+01
0	 2.874999999999999e+01	 4.312499999999999e+01	 1.000027148923077e+01
0	 2.874999999999999e+01	 4.375000000000000e+01	 1.000020695384615e+01
0	 2.937499999999999e+01	 3.750000000000000e+01	 1.000075133846154e+01
0	 2.937499999999998e+01	 3.812499999999999e+01	 1.000070568230769e+01
0	 2.937499999999999e+01	 3.875000000000000e+01	 1.000065800000000e+01
0	 2.937499999999998e+01	 3.937499999999999e+01	 1.000060829153847e+01
0	 2.937499999999999e+01	 3.999999999999999e+01	 1.000055655692308e+01
0	 2.937499999999999e+01	 4.062499999999999e+01	 1.000050279615384e+01
0	 2.937499999999998e+01	 4.124999999999999e+01	 1.000044700923077e+01
0	 2.937499999999999e+01	 4.187499999999999e+01	 1.000038919615385e+01
0	 2.937499999999998e+01	 4.249999999999999e+01	 1.000032935692308e+01
0	 2.937499999999999e+01	 4.312499999999999e+01	 1.000026749153844e+01
0	 2.937499999999999e+01	 4.374999999999999e+01	 1.000020360000000e+01
0	 2.999999999999998e+01	 3.750000000000000e+01	 1.000073664615385e+01
0	 2.999999999999999e+01	 3.812500000000001e+01	 1.000069183846155e+01
0	 2.999999999999998e+01	 3.875000000000000e+01	 1.000064497230769e+01
0	 2.999999999999999e+01	 3.937500000000000e+01	 1.000059604769231e+01
0	 2.999999999999999e+01	 3.999999999999999e+01	 1.000054506461539e+01
0	 2.999999999999998e+01	 4.062499999999999e+01	 1.000049202307692e+01
0	 2.999999999999998e+01	 4.124999999999999e+01	 1.000043692307692e+01
0	 2.999999999999998e+01	 4.187499999999999e+01	 1.000037976461537e+01
0	 2.999999999999998e+01	 4.249999999999999e+01	 1.000032054769230e+01
0	 2.999999999999998e+01	 4.312499999999999e+01	 1.000025927230769e+01
0	 2.999999999999998e+01	 4.375000000000000e+01	 1.000019593846153e+01
0	 3.062499999999998e+01	 3.750000000000000e+01	 1.000071850769231e+01
0	 3.062499999999998e+01	 3.812499999999999e+01	 1.000067446230770e+01
0	 3.062499999999998e+01	 3.875000000000000e+01	 1.000062832615384e+01
0	 3.062499999999998e+01	 3.937500000000000e+01	 1.000058009923077e+01
0	 3.062499999999998e+01	 3.999999999999999e+01	 1.000052978153846e+01
0	 3.062499999999998e+01	 4.062499999999999e+01	 1.000047737307692e+01
0	 3.062499999999998e+01	 4.124999999999999e+01	 1.000042287384615e+01
0	 3.062499999999998e+01	 4.187499999999999e+01	 1.000036628384616e+01
0	 3.062499999999998e+01	 4.249999999999999e+01	 1.000030760307693e+01
0	 3.062499999999998e+01	 4.312499999999998e+01	 1.000024683153845e+01
0	 3.062499999999998e+01	 4.375000000000000e+01	 1.000018396923077e+01
0	 3.125000000000000e+01	 3.750000000000000e+01	 1.000069692307692e+01
0	 3.125000000000000e+01	 3.812500000000000e+01	 1.000065355384616e+01
0	 3.125000000000000e+01	 3.875000000000001e+01	 1.000060806153846e+01
0	 3.124999999999999e+01	 3.937499999999999e+01	 1.000056044615384e+01
0	 3.125000000000000e+01	 3.999999999999999e+01	 1.000051070769231e+01
0	 3.125000000000000e+01	 4.062499999999999e+01	 1.000045884615384e+01
0	 3.125000000000000e+01	 4.124999999999999e+01	 1.000040486153846e+01
0	 3.125000000000000e+01	 4.187499999999999e+01	 1.000034875384614e+01
0	 3.125000000000000e+01	 4.249999999999999e+01	 1.000029052307692e+01
0	 3.125000000000000e+01	 4.312499999999999e+01	 1.000023016923075e+01
0	 3.125000000000000e+01	 4.375000000000000e+01	 1.000016769230768e+01
0	 2.500000000000000e+01	 4.375000000000000e+01	 1.000013661538461e+01
0	 2.500000000000000e+01	 4.437500000000000e+01	 1.000013792000000e+01
0	 2.500000000000000e+01	 4.499999999999999e+01	 1.000013327999999e+01
0	 2.500000000000000e+01	 4.562499999999999e+01	 1.000012269538461e+01
0	 2.500000000000000e+01	 4.624999999999999e+01	 1.000010616615384e+01
0	 2.500000000000000e+01	 4.687499999999999e+01	 1.000008369230768e+01
0	 2.500000000000000e+01	 4.749999999999999e+01	 1.000005527384616e+01
0	 2.500000000000000e+01	 4.812499999999999e+01	 1.000002091076924e+01
0	 2.500000000000000e+01	 4.874999999999999e+01	 9.999980603076910e+00
0	 2.500000000000000e+01	 4.937499999999999e+01	 9.999934350769195e+00
0	 2.500000000000000e+01	 5.000000000000000e+01	 9.999882153846141e+00
0	 2.562500000000000e+01	 4.375000000000000e+01	 1.000015910769230e+01
0	 2.562500000000000e+01	 4.437500000000000e+01	 1.000015796184615e+01
0	 2.562499999999999e+01	 4.499999999999998e+01	 1.000015100430769e+01
0	 2.562500000000000e+01	 4.562499999999999e+01	 1.000013823507692e+01
0	 2.562500000000000e+01	 4.625000000000000e+01	 1.000011965415384e+01
0	 2.562500000000000e+01	 4.687499999999999e+01	 1.000009526153845e+01
0	 2.562500000000001e+01	 4.749999999999999e+01	 1.000006505723077e+01
0	 2.562500000000000e+01	 4.812499999999998e+01	 1.000002904123076e+01
0	 2.562500000000000e+01	 4.874999999999999e+01	 9.999987213538455e+00
0	 2.562499999999999e+01	 4.937499999999997e+01	 9.999939574153832e+00
0	 2.562500000000000e+01	 5.000000000000000e+01	 9.999886123076925e+00
0	 2.624999999999999e+01	 4.375000000000001e+01	 1.000017729230769e+01
0	 2.624999999999999e+01	 4.437499999999999e+01	 1.000017404061538e+01
0	 2.625000000000000e+01	 4.500000000000000e+01	 1.000016511015384e+01
0	 2.625000000000000e+01	 4.562499999999999e+01	 1.000015050092306e+01
0	 2.625000000000000e+01	 4.625000000000000e+01	 1.000013021292306e+01
0	 2.625000000000000e+01	 4.687499999999999e+01	 1.000010424615382e+01
0	 2.624999999999999e+01	 4.749999999999999e+01	 1.000007260061537e+01
0	 2.625000000000000e+01	 4.812500000000000e+01	 1.000003527630767e+01
0	 2.625000000000000e+01	 4.874999999999999e+01	 9.999992273230752e+00
0	 2.625000000000000e+01	 4.937499999999999e+01	 9.999943591384596e+00
0	 2.625000000000000e+01	 5.000000000000000e+01	 9.999889230769202e+00
0	 2.687499999999999e+01	 4.375000000000000e+01	 1.000019116923078e+01
0	 2.687499999999999e+01	 4.437499999999999e+01	 1.000018615630769e+01
0	 2.687499999999999e+01	 4.499999999999999e+01	 1.000017559753846e+01
0	 2.687500000000000e+01	 4.562499999999999e+01	 1.000015949292307e+01
0	 2.687499999999998e+01	 4.624999999999999e+01	 1.000013784246152e+01
0	 2.687499999999999e+01	 4.687499999999999e+01	 1.000011064615385e+01
0	 2.687499999999999e+01	 4.749999999999999e+01	 1.000007790399999e+01
0	 2.687499999999999e+01	 4.812499999999998e+01	 1.000003961599998e+01
0	 2.687499999999999e+01	 4.874999999999998e+01	 9.999995782153810e+00
0	 2.687499999999999e+01	 4.937499999999998e+01	 9.999946402461511e+00
0	 2.687499999999999e+01	 5.000000000000000e+01	 9.999891476923082e+00
0	 2.749999999999999e+01	 4.375000000000000e+01	 1.000020073846153e+01
0	 2.749999999999999e+01	 4.437499999999999e+01	 1.000019430892308e+01
0	 2.750000000000000e+01	 4.500000000000000e+01	 1.000018246646153e+01
0	 2.749999999999999e+01	 4.562499999999999e+01	 1.000016521107690e+01
0	 2.749999999999999e+01	 4.625000000000000e+01	 1.000014254276923e+01
0	 2.749999999999999e+01	 4.687499999999999e+01	 1.000011446153845e+01
0	 2.750000000000000e+01	 4.749999999999999e+01	 1.000008096738459e+01
0	 2.750000000000000e+01	 4.812499999999998e+01	 1.000004206030769e+01
0	 2.749999999999999e+01	 4.874999999999999e+01	 9.999997740307663e+00
0	 2.749999999999999e+01	 4.937499999999996e+01	 9.999948007384587e+00
0	 2.749999999999999e+01	 5.000000000000000e+01	 9.999892861538459e+00
0	 2.812499999999999e+01	 4.375000000000000e+01	 1.000020599999999e+01
0	 2.812499999999999e+01	 4.437500000000000e+01	 1.000019849846154e+01
0	 2.812499999999999e+01	 4.499999999999999e+01	 1.000018571692307e+01
0	 2.812499999999999e+01	 4.562500000000000e+01	 1.000016765538460e+01
0	 2.812499999999998e+01	 4.624999999999999e+01	 1.000014431384615e+01
0	 2.812499999999999e+01	 4.687499999999999e+01	 1.000011569230768e+01
0	 2.812499999999999e+01	 4.749999999999999e+01	 1.000008179076921e+01
0	 2.812499999999999e+01	 4.812499999999999e+01	 1.000004260923075e+01
0	 2.812499999999999e+01	 4.874999999999998e+01	 9.999998147692313e+00
0	 2.812499999999999e+01	 4.937499999999998e+01	 9.999948406153845e+00
0	 2.812499999999999e+01	 5.000000000000000e+01	 9.999893384615396e+00
0	 2.874999999999999e+01	 4.375000000000000e+01	 1.000020695384615e+01
0	 2.874999999999999e+01	 4.437499999999999e+01	 1.000019872492307e+01
0	 2.874999999999999e+01	 4.499999999999999e+01	 1.000018534892308e+01
0	 2.874999999999999e+01	 4.562499999999999e+01	 1.000016682584614e+01
0	 2.874999999999999e+01	 4.624999999999999e+01	 1.000014315569232e+01
0	 2.874999999999999e+01	 4.687499999999999e+01	 1.000011433846154e+01
0	 2.874999999999999e+01	 4.749999999999999e+01	 1.000008037415384e+01
0	 2.874999999999998e+01	 4.812499999999998e+01	 1.000004126276923e+01
0	 2.874999999999998e+01	 4.874999999999999e+01	 9.999997004307691e+00
0	 2.874999999999999e+01	 4.937499999999999e+01	 9.999947598769207e+00
0	 2.874999999999999e+01	 5.000000000000000e+01	 9.999893046153863e+00
0	 2.937499999999999e+01	 4.374999999999999e+01	 1.000020360000000e+01
0	 2.937499999999998e+01	 4.437499999999999e+01	 1.000019498830769e+01
0	 2.937499999999998e+01	 4.499999999999999e+01	 1.000018136246153e+01
0	 2.937499999999998e+01	 4.562499999999999e+01	 1.000016272246154e+01
0	 2.937499999999999e+01	 4.624999999999999e+01	 1.000013906830769e+01
0	 2.937499999999999e+01	 4.687499999999999e+01	 1.000011040000001e+01
0	 2.937499999999999e+01	 4.749999999999999e+01	 1.000007671753845e+01
0	 2.937499999999999e+01	 4.812499999999999e+01	 1.000003802092307e+01
0	 2.937499999999998e+01	 4.874999999999998e+01	 9.999994310153831e+00
0	 2.937499999999999e+01	 4.937499999999999e+01	 9.999945585230730e+00
0	 2.937499999999999e+01	 5.000000000000001e+01	 9.999891846153844e+00
0	 2.999999999999998e+01	 4.375000000000000e+01	 1.000019593846153e+01
0	 2.999999999999999e+01	 4.437500000000000e+01	 1.000018728861539e+01
0	 2.999999999999998e+01	 4.499999999999999e+01	 1.000017375753846e+01
0	 2.999999999999999e+01	 4.562500000000000e+01	 1.000015534523076e+01
0	 2.999999999999998e+01	 4.624999999999999e+01	 1.000013205169231e+01
0	 2.999999999999998e+01	 4.687499999999999e+01	 1.000010387692307e+01
0	 2.999999999999998e+01	 4.749999999999999e+01	 1.000007082092307e+01
0	 2.999999999999999e+01	 4.812499999999999e+01	 1.000003288369229e+01
0	 2.999999999999998e+01	 4.874999999999998e+01	 9.999990065230779e+00
0	 2.999999999999999e+01	 4.937499999999999e+01	 9.999942365538452e+00
0	 2.999999999999998e+01	 5.000000000000000e+01	 9.999889784615391e+00
0	 3.062499999999998e+01	 4.375000000000000e+01	 1.000018396923077e+01
0	 3.062499999999998e+01	 4.437500000000000e+01	 1.000017562584615e+01
0	 3.062499999999998e+01	 4.499999999999999e+01	 1.000016253415383e+01
0	 3.062499999999999e+01	 4.562500000000000e+01	 1.000014469415384e+01
0	 3.062499999999998e+01	 4.624999999999999e+01	 1.000012210584615e+01
0	 3.062499999999998e+01	 4.687499999999999e+01	 1.000009476923077e+01
0	 3.062499999999998e+01	 4.749999999999999e+01	 1.000006268430769e+01
0	 3.062499999999998e+01	 4.812499999999999e+01	 1.000002585107692e+01
0	 3.062499999999998e+01	 4.874999999999998e+01	 9.999984269538459e+00
0	 3.062499999999998e+01	 4.937499999999998e+01	 9.999937939692298e+00
0	 3.062499999999998e+01	 5.000000000000000e+01	 9.999886861538430e+00
0	 3.125000000000000e+01	 4.375000000000000e+01	 1.000016769230768e+01
0	 3.125000000000000e+01	 4.437500000000000e+01	 1.000015999999999e+01
0	 3.125000000000000e+01	 4.499999999999999e+01	 1.000014769230768e+01
0	 3.125000000000000e+01	 4.562499999999999e+01	 1.000013076923076e+01
0	 3.125000000000001e+01	 4.624999999999999e+01	 1.000010923076922e+01
0	 3.125000000000000e+01	 4.687499999999999e+01	 1.000008307692307e+01
0	 3.125000000000000e+01	 4.749999999999999e+01	 1.000005230769232e+01
0	 3.125000000000000e+01	 4.812499999999999e+01	 1.000001692307694e+01
0	 3.125000000000000e+01	 4.874999999999999e+01	 9.999976923076915e+00
0	 3.125000000000000e+01	 4.937499999999999e+01	 9.999932307692283e+00
0	 3.125000000000000e+01	 5.000000000000000e+01	 9.999883076923080e+00
0	 3.125000000000000e+01	 0.000000000000000e+00	 1.000241723076923e+01
0	 3.125000000000000e+01	 6.250000000000000e-01	 1.000239150769231e+01
0	 3.125000000000000e+01	 1.250000000000000e+00	 1.000236153846154e+01
0	 3.125000000000000e+01	 1.875000000000000e+00	 1.000232732307692e+01
0	 3.125000000000000e+01	 2.500000000000000e+00	 1.000228886153846e+01
0	 3.125000000000000e+01	 3.125000000000000e+00	 1.000224615384615e+01
0	 3.125000000000000e+01	 3.750000000000000e+00	 1.000219920000000e+01
0	 3.125000000000000e+01	 4.375000000000000e+00	 1.000214800000000e+01
0	 3.125000000000000e+01	 5.000000000000000e+00	 1.000209255384615e+01
0	 3.125000000000000e+01	 5.624999999999999e+00	 1.000203286153846e+01
0	 3.125000000000000e+01	 6.250000000000000e+00	 1.000196892307692e+01
0	 3.187500000000000e+01	 0.000000000000000e+00	 1.000213600000000e+01
0	 3.187499999999999e+01	 6.249999999999999e-01	 1.000214340015384e+01
0	 3.187500000000000e+01	 1.250000000000000e+00	 1.000214674800000e+01
0	 3.187500000000000e+01	 1.875000000000000e+00	 1.000214604353846e+01
0	 3.187499999999999e+01	 2.500000000000000e+00	 1.000214128676923e+01
0	 3.187500000000000e+01	 3.125000000000000e+00	 1.000213247769231e+01
0	 3.187500000000000e+01	 3.750000000000000e+00	 1.000211961630769e+01
0	 3.187500000000000e+01	 4.375000000000001e+00	 1.000210270261539e+01
0	 3.187500000000001e+01	 5.000000000000000e+00	 1.000208173661538e+01
0	 3.187500000000000e+01	 5.625000000000000e+00	 1.000205671830769e+01
0	 3.187500000000000e+01	 6.250000000000000e+00	 1.000202764769231e+01
0	 3.249999999999999e+01	 0.000000000000000e+00	 1.000187889230769e+01
0	 3.250000000000001e+01	 6.250000000000001e-01	 1.000191388676923e+01
0	 3.249999999999999e+01	 1.250000000000000e+00	 1.000194502276922e+01
0	 3.250000000000000e+01	 1.875000000000000e+00	 1.000197230030769e+01
0	 3.249999999999999e+01	 2.500000000000000e+00	 1.000199571938461e+01
0	 3.249999999999999e+01	 3.125000000000000e+00	 1.000201528000000e+01
0	 3.250000000000001e+01	 3.750000000000001e+00	 1.000203098215384e+01
0	 3.250000000000000e+01	 4.374999999999999e+00	 1.000204282584616e+01
0	 3.250000000000000e+01	 5.000000000000000e+00	 1.000205081107692e+01
0	 3.249999999999999e+01	 5.624999999999999e+00	 1.000205493784615e+01
0	 3.250000000000000e+01	 6.250000000000000e+00	 1.000205520615385e+01
0	 3.312499999999999e+01	 0.000000000000000e+00	 1.000164590769230e+01
0	 3.312499999999999e+01	 6.250000000000000e-01	 1.000170296753846e+01
0	 3.312500000000000e+01	 1.250000000000000e+00	 1.000175636276923e+01
0	 3.312499999999999e+01	 1.875000000000000e+00	 1.000180609338461e+01
0	 3.312500000000001e+01	 2.500000000000001e+00	 1.000185215938462e+01
0	 3.312499999999999e+01	 3.125000000000000e+00	 1.000189456076923e+01
0	 3.312499999999999e+01	 3.750000000000000e+00	 1.000193329753846e+01
0	 3.312499999999999e+01	 4.375000000000000e+00	 1.000196836969230e+01
0	 3.312499999999999e+01	 4.999999999999998e+00	 1.000199977723076e+01
0	 3.312500000000000e+01	 5.625000000000001e+00	 1.000202752015384e+01
0	 3.312499999999999e+01	 6.249999999999999e+00	 1.000205159846154e+01
0	 3.374999999999999e+01	 0.000000000000000e+00	 1.000143704615384e+01
0	 3.374999999999999e+01	 6.249999999999999e-01	 1.000151064246154e+01
0	 3.374999999999998e+01	 1.250000000000000e+00	 1.000158076800000e+01
0	 3.374999999999999e+01	 1.875000000000000e+00	 1.000164742276923e+01
0	 3.374999999999999e+01	 2.500000000000000e+00	 1.000171060676923e+01
0	 3.374999999999999e+01	 3.125000000000000e+00	 1.000177032000000e+01
0	 3.374999999999999e+01	 3.750000000000000e+00	 1.000182656246154e+01
0	 3.374999999999999e+01	 4.375000000000001e+00	 1.000187933415384e+01
0	 3.374999999999999e+01	 5.000000000000000e+00	 1.000192863507692e+01
0	 3.374999999999999e+01	 5.625000000000000e+00	 1.000197446523077e+01
0	 3.374999999999999e+01	 6.250000000000000e+00	 1.000201682461538e+01
0	 3.437499999999999e+01	 0.000000000000000e+00	 1.000125230769230e+01
0	 3.437499999999998e+01	 6.249999999999998e-01	 1.000133691153846e+01
0	 3.437499999999999e+01	 1.250000000000000e+00	 1.000141823846154e+01
0	 3.437499999999999e+01	 1.875000000000000e+00	 1.000149628846154e+01
0	 3.437499999999999e+01	 2.500000000000000e+00	 1.000157106153846e+01
0	 3.437499999999999e+01	 3.125000000000000e+00	 1.000164255769231e+01
0	 3.437499999999999e+01	 3.750000000000000e+00	 1.000171077692308e+01
0	 3.437499999999999e+01	 4.375000000000000e+00	 1.000177571923077e+01
0	 3.437499999999999e+01	 4.999999999999998e+00	 1.000183738461539e+01
0	 3.437500000000000e+01	 5.625000000000001e+00	 1.000189577307692e+01
0	 3.437499999999999e+01	 6.249999999999999e+00	 1.000195088461538e+01
0	 3.499999999999999e+01	 0.000000000000000e+00	 1.000109169230769e+01
0	 3.499999999999999e+01	 6.250000000000001e-01	 1.000118177476923e+01
0	 3.499999999999999e+01	 1.250000000000000e+00	 1.000126877415385e+01
0	 3.499999999999999e+01	 1.875000000000000e+00	 1.000135269046154e+01
0	 3.499999999999999e+01	 2.500000000000000e+00	 1.000143352369231e+01
0	 3.499999999999999e+01	 3.125000000000000e+00	 1.000151127384615e+01
0	 3.499999999999999e+01	 3.750000000000000e+00	 1.000158594092307e+01
0	 3.499999999999999e+01	 4.375000000000001e+00	 1.000165752492307e+01
0	 3.499999999999999e+01	 4.999999999999999e+00	 1.000172602584615e+01
0	 3.499999999999999e+01	 5.624999999999999e+00	 1.000179144369231e+01
0	 3.499999999999999e+01	 6.250000000000000e+00	 1.000185377846154e+01
0	 3.562499999999999e+01	 0.000000000000000e+00	 1.000095520000000e+01
0	 3.562499999999999e+01	 6.250000000000000e-01	 1.000104523215385e+01
0	 3.562499999999999e+01	 1.250000000000000e+00	 1.000113237507692e+01
0	 3.562499999999999e+01	 1.875000000000000e+00	 1.000121662876923e+01
0	 3.562499999999999e+01	 2.500000000000000e+00	 1.000129799323077e+01
0	 3.562499999999999e+01	 3.125000000000000e+00	 1.000137646846153e+01
0	 3.562499999999999e+01	 3.750000000000000e+00	 1.000145205446153e+01
0	 3.562499999999999e+01	 4.375000000000000e+00	 1.000152475123077e+01
0	 3.562499999999999e+01	 5.000000000000000e+00	 1.000159455876923e+01
0	 3.562499999999999e+01	 5.625000000000000e+00	 1.000166147707692e+01
0	 3.562499999999999e+01	 6.250000000000000e+00	 1.000172550615384e+01
0	 3.624999999999998e+01	 0.000000000000000e+00	 1.000084283076923e+01
0	 3.624999999999998e+01	 6.250000000000000e-01	 1.000092728369231e+01
0	 3.624999999999999e+01	 1.250000000000000e+00	 1.000100904123077e+01
0	 3.624999999999999e+01	 1.875000000000001e+00	 1.000108810338461e+01
0	 3.624999999999998e+01	 2.500000000000000e+00	 1.000116447015384e+01
0	 3.624999999999997e+01	 3.124999999999999e+00	 1.000123814153846e+01
0	 3.624999999999999e+01	 3.750000000000000e+00	 1.000130911753846e+01
0	 3.624999999999998e+01	 4.375000000000000e+00	 1.000137739815384e+01
0	 3.624999999999999e+01	 4.999999999999999e+00	 1.000144298338462e+01
0	 3.624999999999999e+01	 5.625000000000000e+00	 1.000150587323077e+01
0	 3.624999999999998e+01	 6.250000000000000e+00	 1.000156606769231e+01
0	 3.687499999999998e+01	 0.000000000000000e+00	 1.000075458461539e+01
0	 3.687499999999998e+01	 6.250000000000000e-01	 1.000082792938461e+01
0	 3.687499999999998e+01	 1.250000000000000e+00	 1.000089877261538e+01
0	 3.687499999999999e+01	 1.875000000000000e+00	 1.000096711430769e+01
0	 3.687499999999997e+01	 2.500000000000000e+00	 1.000103295446153e+01
0	 3.687499999999998e+01	 3.125000000000000e+00	 1.000109629307692e+01
0	 3.687499999999998e+01	 3.750000000000000e+00	 1.000115713015384e+01
0	 3.687499999999998e+01	 4.375000000000000e+00	 1.000121546569231e+01
0	 3.687499999999998e+01	 4.999999999999999e+00	 1.000127129969230e+01
0	 3.687499999999998e+01	 5.624999999999999e+00	 1.000132463215384e+01
0	 3.687499999999998e+01	 6.250000000000000e+00	 1.000137546307693e+01
0	 3.750000000000000e+01	 0.000000000000000e+00	 1.000069046153846e+01
0	 3.750000000000000e+01	 6.250000000000000e-01	 1.000074716923077e+01
0	 3.750000000000000e+01	 1.250000000000000e+00	 1.000080156923077e+01
0	 3.750000000000000e+01	 1.875000000000000e+00	 1.000085366153846e+01
0	 3.750000000000001e+01	 2.500000000000000e+00	 1.000090344615384e+01
0	 3.750000000000000e+01	 3.125000000000000e+00	 1.000095092307692e+01
0	 3.750000000000000e+01	 3.750000000000000e+00	 1.000099609230769e+01
0	 3.750000000000000e+01	 4.375000000000000e+00	 1.000103895384615e+01
0	 3.750000000000000e+01	 5.000000000000000e+00	 1.000107950769230e+01
0	 3.750000000000000e+01	 5.624999999999999e+00	 1.000111775384615e+01
0	 3.750000000000000e+01	 6.250000000000000e+00	 1.000115369230769e+01
0	 3.125000000000000e+01	 6.250000000000000e+00	 1.000196892307692e+01
0	 3.125000000000000e+01	 6.875000000000000e+00	 1.000217476923077e+01
0	 3.125000000000000e+01	 7.500000000000002e+00	 1.000237175384615e+01
0	 3.125000000000000e+01	 8.125000000000004e+00	 1.000255987692307e+01
0	 3.125000000000000e+01	 8.750000000000004e+00	 1.000273913846154e+01
0	 3.125000000000000e+01	 9.375000000000004e+00	 1.000290953846154e+01
0	 3.125000000000000e+01	 1.000000000000000e+01	 1.000307107692307e+01
0	 3.125000000000000e+01	 1.062500000000000e+01	 1.000322375384615e+01
0	 3.125000000000001e+01	 1.125000000000001e+01	 1.000336756923077e+01
0	 3.125000000000000e+01	 1.187500000000001e+01	 1.000350252307692e+01
0	 3.125000000000000e+01	 1.250000000000000e+01	 1.000362861538461e+01
0	 3.187500000000000e+01	 6.250000000000000e+00	 1.000202764769231e+01
0	 3.187500000000000e+01	 6.874999999999999e+00	 1.000218096276923e+01
0	 3.187500000000000e+01	 7.500000000000002e+00	 1.000232654246153e+01
0	 3.187500000000000e+01	 8.125000000000002e+00	 1.000246438676923e+01
0	 3.187500000000000e+01	 8.750000000000004e+00	 1.000259449569230e+01
0	 3.187500000000000e+01	 9.375000000000004e+00	 1.000271686923076e+01
0	 3.187500000000000e+01	 1.000000000000001e+01	 1.000283150738461e+01
0	 3.187500000000000e+01	 1.062500000000001e+01	 1.000293841015384e+01
0	 3.187500000000000e+01	 1.125000000000001e+01	 1.000303757753846e+01
0	 3.187499999999999e+01	 1.187500000000000e+01	 1.000312900953846e+01
0	 3.187500000000000e+01	 1.250000000000000e+01	 1.000321270615385e+01
0	 3.250000000000000e+01	 6.250000000000000e+00	 1.000205520615385e+01
0	 3.250000000000001e+01	 6.875000000000002e+00	 1.000216293415384e+01
0	 3.250000000000000e+01	 7.500000000000002e+00	 1.000226405292307e+01
0	 3.250000000000000e+01	 8.125000000000002e+00	 1.000235856246153e+01
0	 3.249999999999999e+01	 8.750000000000002e+00	 1.000244646276923e+01
0	 3.250000000000001e+01	 9.375000000000004e+00	 1.000252775384615e+01
0	 3.250000000000001e+01	 1.000000000000001e+01	 1.000260243569230e+01
0	 3.249999999999999e+01	 1.062500000000000e+01	 1.000267050830769e+01
0	 3.250000000000000e+01	 1.125000000000001e+01	 1.000273197169231e+01
0	 3.250000000000000e+01	 1.187500000000000e+01	 1.000278682584615e+01
0	 3.250000000000000e+01	 1.250000000000000e+01	 1.000283507076923e+01
0	 3.312499999999999e+01	 6.249999999999999e+00	 1.000205159846154e+01
0	 3.312499999999999e+01	 6.875000000000001e+00	 1.000212068338461e+01
0	 3.312499999999999e+01	 7.500000000000000e+00	 1.000218428523076e+01
0	 3.312499999999999e+01	 8.125000000000002e+00	 1.000224240400000e+01
0	 3.312499999999999e+01	 8.750000000000004e+00	 1.000229503969230e+01
0	 3.312499999999999e+01	 9.375000000000004e+00	 1.000234219230769e+01
0	 3.312499999999999e+01	 1.000000000000000e+01	 1.000238386184615e+01
0	 3.312500000000000e+01	 1.062500000000000e+01	 1.000242004830769e+01
0	 3.312499999999999e+01	 1.125000000000000e+01	 1.000245075169231e+01
0	 3.312499999999999e+01	 1.187500000000000e+01	 1.000247597199999e+01
0	 3.312499999999999e+01	 1.250000000000000e+01	 1.000249570923077e+01
0	 3.374999999999999e+01	 6.250000000000000e+00	 1.000201682461538e+01
0	 3.374999999999999e+01	 6.875000000000002e+00	 1.000205421046154e+01
0	 3.374999999999998e+01	 7.499999999999999e+00	 1.000208723938461e+01
0	 3.374999999999999e+01	 8.125000000000002e+00	 1.000211591138461e+01
0	 3.374999999999999e+01	 8.750000000000004e+00	 1.000214022646153e+01
0	 3.374999999999999e+01	 9.375000000000004e+00	 1.000216018461538e+01
0	 3.374999999999999e+01	 1.000000000000001e+01	 1.000217578584615e+01
0	 3.374999999999999e+01	 1.062500000000001e+01	 1.000218703015384e+01
0	 3.374999999999999e+01	 1.125000000000001e+01	 1.000219391753846e+01
0	 3.374999999999999e+01	 1.187500000000001e+01	 1.000219644800000e+01
0	 3.374999999999999e+01	 1.250000000000000e+01	 1.000219462153846e+01
0	 3.437499999999999e+01	 6.249999999999999e+00	 1.000195088461538e+01
0	 3.437499999999999e+01	 6.875000000000000e+00	 1.000196351538461e+01
0	 3.437499999999999e+01	 7.500000000000001e+00	 1.000197291538461e+01
0	 3.437499999999999e+01	 8.125000000000002e+00	 1.000197908461538e+01
0	 3.437499999999999e+01	 8.750000000000004e+00	 1.000198202307692e+01
0	 3.437499999999999e+01	 9.375000000000002e+00	 1.000198173076923e+01
0	 3.437499999999999e+01	 1.000000000000000e+01	 1.000197820769231e+01
0	 3.437499999999999e+01	 1.062500000000001e+01	 1.000197145384615e+01
0	 3.437499999999999e+01	 1.125000000000001e+01	 1.000196146923076e+01
0	 3.437499999999999e+01	 1.187500000000001e+01	 1.000194825384615e+01
0	 3.437499999999999e+01	 1.250000000000000e+01	 1.000193180769230e+01
0	 3.499999999999999e+01	 6.250000000000000e+00	 1.000185377846154e+01
0	 3.499999999999998e+01	 6.874999999999998e+00	 1.000184859815384e+01
0	 3.500000000000000e+01	 7.500000000000002e+00	 1.000184131323077e+01
0	 3.499999999999999e+01	 8.125000000000000e+00	 1.000183192369230e+01
0	 3.499999999999998e+01	 8.750000000000002e+00	 1.000182042953846e+01
0	 3.499999999999999e+01	 9.375000000000004e+00	 1.000180683076923e+01
0	 3.499999999999999e+01	 1.000000000000000e+01	 1.000179112738461e+01
0	 3.499999999999999e+01	 1.062500000000001e+01	 1.000177331938461e+01
0	 3.499999999999999e+01	 1.125000000000001e+01	 1.000175340676923e+01
0	 3.499999999999998e+01	 1.187500000000000e+01	 1.000173138953846e+01
0	 3.499999999999999e+01	 1.250000000000000e+01	 1.000170726769231e+01
0	 3.562499999999999e+01	 6.250000000000000e+00	 1.000172550615384e+01
0	 3.562499999999998e+01	 6.875000000000000e+00	 1.000170945876923e+01
0	 3.562499999999999e+01	 7.500000000000003e+00	 1.000169243292308e+01
0	 3.562499999999999e+01	 8.125000000000000e+00	 1.000167442861538e+01
0	 3.562499999999999e+01	 8.750000000000005e+00	 1.000165544584615e+01
0	 3.562499999999999e+01	 9.375000000000005e+00	 1.000163548461538e+01
0	 3.562499999999999e+01	 1.000000000000000e+01	 1.000161454492308e+01
0	 3.562499999999999e+01	 1.062500000000001e+01	 1.000159262676923e+01
0	 3.562499999999998e+01	 1.125000000000000e+01	 1.000156973015385e+01
0	 3.562499999999999e+01	 1.187500000000001e+01	 1.000154585507692e+01
0	 3.562499999999999e+01	 1.250000000000000e+01	 1.000152100153846e+01
0	 3.624999999999998e+01	 6.250000000000000e+00	 1.000156606769231e+01
0	 3.624999999999998e+01	 6.875000000000000e+00	 1.000154609723077e+01
0	 3.624999999999997e+01	 7.500000000000000e+00	 1.000152627446153e+01
0	 3.624999999999998e+01	 8.125000000000004e+00	 1.000150659938461e+01
0	 3.624999999999999e+01	 8.750000000000004e+00	 1.000148707200000e+01
0	 3.624999999999998e+01	 9.375000000000004e+00	 1.000146769230769e+01
0	 3.624999999999999e+01	 1.000000000000001e+01	 1.000144846030769e+01
0	 3.624999999999998e+01	 1.062500000000000e+01	 1.000142937600000e+01
0	 3.624999999999998e+01	 1.125000000000000e+01	 1.000141043938461e+01
0	 3.624999999999999e+01	 1.187500000000001e+01	 1.000139165046154e+01
0	 3.624999999999998e+01	 1.250000000000000e+01	 1.000137300923077e+01
0	 3.687499999999998e+01	 6.250000000000000e+00	 1.000137546307693e+01
0	 3.687499999999999e+01	 6.875000000000003e+00	 1.000135851353846e+01
0	 3.687499999999998e+01	 7.500000000000001e+00	 1.000134283784615e+01
0	 3.687499999999997e+01	 8.125000000000000e+00	 1.000132843599999e+01
0	 3.687499999999998e+01	 8.750000000000004e+00	 1.000131530800000e+01
0	 3.687499999999999e+01	 9.375000000000004e+00	 1.000130345384615e+01
0	 3.687499999999998e+01	 1.000000000000001e+01	 1.000129287353846e+01
0	 3.687499999999999e+01	 1.062500000000000e+01	 1.000128356707692e+01
0	 3.687499999999998e+01	 1.125000000000001e+01	 1.000127553446153e+01
0	 3.687499999999998e+01	 1.187500000000000e+01	 1.000126877569230e+01
0	 3.687499999999998e+01	 1.250000000000000e+01	 1.000126329076923e+01
0	 3.750000000000000e+01	 6.250000000000000e+00	 1.000115369230769e+01
0	 3.750000000000000e+01	 6.875000000000000e+00	 1.000114670769231e+01
0	 3.750000000000000e+01	 7.500000000000002e+00	 1.000114212307692e+01
0	 3.750000000000001e+01	 8.125000000000004e+00	 1.000113993846153e+01
0	 3.750000000000000e+01	 8.750000000000004e+00	 1.000114015384615e+01
0	 3.750000000000001e+01	 9.375000000000004e+00	 1.000114276923077e+01
0	 3.750000000000000e+01	 1.000000000000000e+01	 1.000114778461538e+01
0	 3.750000000000000e+01	 1.062500000000000e+01	 1.000115520000000e+01
0	 3.750000000000001e+01	 1.125000000000001e+01	 1.000116501538461e+01
0	 3.750000000000000e+01	 1.187500000000001e+01	 1.000117723076923e+01
0	 3.750000000000000e+01	 1.250000000000000e+01	 1.000119184615385e+01
0	 3.125000000000000e+01	 1.250000000000000e+01	 1.000362861538461e+01
0	 3.125000000000000e+01	 1.312500000000000e+01	 1.000346867692308e+01
0	 3.125000000000000e+01	 1.375000000000000e+01	 1.000332535384615e+01
0	 3.125000000000000e+01	 1.437500000000000e+01	 1.000319864615384e+01
0	 3.125000000000000e+01	 1.500000000000000e+01	 1.000308855384615e+01
0	 3.125000000000000e+01	 1.562500000000000e+01	 1.000299507692308e+01
0	 3.125000000000000e+01	 1.625000000000000e+01	 1.000291821538462e+01
0	 3.125000000000000e+01	 1.687500000000000e+01	 1.000285796923077e+01
0	 3.125000000000001e+01	 1.750000000000001e+01	 1.000281433846154e+01
0	 3.125000000000000e+01	 1.812500000000001e+01	 1.000278732307692e+01
0	 3.125000000000000e+01	 1.875000000000000e+01	 1.000277692307692e+01
0	 3.187500000000000e+01	 1.250000000000000e+01	 1.000321270615385e+01
0	 3.187500000000000e+01	 1.312500000000000e+01	 1.000309653246154e+01
0	 3.187500000000000e+01	 1.375000000000000e+01	 1.000299517415384e+01
0	 3.187500000000000e+01	 1.437500000000000e+01	 1.000290863123076e+01
0	 3.187500000000000e+01	 1.500000000000000e+01	 1.000283690369231e+01
0	 3.187500000000000e+01	 1.562500000000000e+01	 1.000277999153846e+01
0	 3.187500000000000e+01	 1.625000000000001e+01	 1.000273789476923e+01
0	 3.187500000000000e+01	 1.687500000000000e+01	 1.000271061338462e+01
0	 3.187500000000000e+01	 1.750000000000000e+01	 1.000269814738461e+01
0	 3.187499999999999e+01	 1.812500000000000e+01	 1.000270049676923e+01
0	 3.187500000000000e+01	 1.875000000000000e+01	 1.000271766153846e+01
0	 3.250000000000000e+01	 1.250000000000000e+01	 1.000283507076923e+01
0	 3.250000000000001e+01	 1.312500000000000e+01	 1.000275762830769e+01
0	 3.250000000000000e+01	 1.375000000000000e+01	 1.000269320123076e+01
0	 3.250000000000000e+01	 1.437500000000000e+01	 1.000264178953846e+01
0	 3.249999999999999e+01	 1.500000000000000e+01	 1.000260339323077e+01
0	 3.250000000000001e+01	 1.562500000000001e+01	 1.000257801230769e+01
0	 3.250000000000001e+01	 1.625000000000001e+01	 1.000256564676923e+01
0	 3.249999999999999e+01	 1.687500000000000e+01	 1.000256629661538e+01
0	 3.250000000000000e+01	 1.750000000000001e+01	 1.000257996184615e+01
0	 3.250000000000000e+01	 1.812500000000000e+01	 1.000260664246155e+01
0	 3.250000000000000e+01	 1.875000000000000e+01	 1.000264633846154e+01
0	 3.312499999999999e+01	 1.250000000000000e+01	 1.000249570923077e+01
0	 3.312499999999999e+01	 1.312500000000000e+01	 1.000245196446154e+01
0	 3.312499999999999e+01	 1.375000000000000e+01	 1.000241943507692e+01
0	 3.312499999999999e+01	 1.437500000000000e+01	 1.000239812107693e+01
0	 3.312499999999999e+01	 1.500000000000000e+01	 1.000238802246153e+01
0	 3.312499999999999e+01	 1.562500000000000e+01	 1.000238913923077e+01
0	 3.312499999999999e+01	 1.625000000000000e+01	 1.000240147138461e+01
0	 3.312500000000000e+01	 1.687500000000001e+01	 1.000242501892308e+01
0	 3.312499999999999e+01	 1.750000000000000e+01	 1.000245978184615e+01
0	 3.312499999999999e+01	 1.812500000000000e+01	 1.000250576015385e+01
0	 3.312499999999999e+01	 1.875000000000000e+01	 1.000256295384616e+01
0	 3.374999999999999e+01	 1.250000000000000e+01	 1.000219462153846e+01
0	 3.374999999999999e+01	 1.312500000000000e+01	 1.000217954092308e+01
0	 3.374999999999998e+01	 1.375000000000000e+01	 1.000217387569230e+01
0	 3.374999999999999e+01	 1.437500000000000e+01	 1.000217762584615e+01
0	 3.374999999999999e+01	 1.500000000000000e+01	 1.000219079138462e+01
0	 3.374999999999999e+01	 1.562500000000000e+01	 1.000221337230769e+01
0	 3.374999999999999e+01	 1.625000000000000e+01	 1.000224536861539e+01
0	 3.374999999999999e+01	 1.687500000000000e+01	 1.000228678030770e+01
0	 3.374999999999999e+01	 1.750000000000001e+01	 1.000233760738462e+01
0	 3.374999999999999e+01	 1.812500000000000e+01	 1.000239784984616e+01
0	 3.374999999999999e+01	 1.875000000000000e+01	 1.000246750769231e+01
0	 3.437499999999999e+01	 1.250000000000000e+01	 1.000193180769230e+01
0	 3.437499999999999e+01	 1.312500000000000e+01	 1.000194035769230e+01
0	 3.437499999999999e+01	 1.375000000000000e+01	 1.000195652307692e+01
0	 3.437499999999999e+01	 1.437500000000001e+01	 1.000198030384615e+01
0	 3.437499999999999e+01	 1.500000000000000e+01	 1.000201170000000e+01
0	 3.437499999999999e+01	 1.562500000000000e+01	 1.000205071153846e+01
0	 3.437499999999999e+01	 1.625000000000000e+01	 1.000209733846154e+01
0	 3.437499999999999e+01	 1.687500000000001e+01	 1.000215158076923e+01
0	 3.437499999999999e+01	 1.750000000000001e+01	 1.000221343846154e+01
0	 3.437499999999999e+01	 1.812500000000000e+01	 1.000228291153846e+01
0	 3.437499999999999e+01	 1.875000000000000e+01	 1.000236000000000e+01
0	 3.499999999999999e+01	 1.250000000000000e+01	 1.000170726769231e+01
0	 3.499999999999998e+01	 1.312500000000000e+01	 1.000173441476923e+01
0	 3.500000000000000e+01	 1.375000000000000e+01	 1.000176737723076e+01
0	 3.499999999999999e+01	 1.437500000000000e+01	 1.000180615507692e+01
0	 3.499999999999998e+01	 1.500000000000000e+01	 1.000185074830769e+01
0	 3.499999999999999e+01	 1.562500000000001e+01	 1.000190115692308e+01
0	 3.499999999999999e+01	 1.625000000000000e+01	 1.000195738092308e+01
0	 3.499999999999999e+01	 1.687500000000000e+01	 1.000201942030769e+01
0	 3.499999999999999e+01	 1.750000000000001e+01	 1.000208727507693e+01
0	 3.499999999999998e+01	 1.812500000000000e+01	 1.000216094523076e+01
0	 3.499999999999999e+01	 1.875000000000000e+01	 1.000224043076923e+01
0	 3.562499999999999e+01	 1.250000000000000e+01	 1.000152100153846e+01
0	 3.562499999999998e+01	 1.312500000000000e+01	 1.000156171215385e+01
0	 3.562499999999999e+01	 1.375000000000001e+01	 1.000160643815385e+01
0	 3.562499999999999e+01	 1.437500000000000e+01	 1.000165517953846e+01
0	 3.562499999999999e+01	 1.500000000000001e+01	 1.000170793630769e+01
0	 3.562499999999999e+01	 1.562500000000001e+01	 1.000176470846154e+01
0	 3.562499999999999e+01	 1.625000000000001e+01	 1.000182549600000e+01
0	 3.562499999999999e+01	 1.687500000000001e+01	 1.000189029892308e+01
0	 3.562499999999998e+01	 1.750000000000000e+01	 1.000195911723077e+01
0	 3.562499999999999e+01	 1.812500000000001e+01	 1.000203195092308e+01
0	 3.562499999999999e+01	 1.875000000000000e+01	 1.000210880000000e+01
0	 3.624999999999998e+01	 1.250000000000000e+01	 1.000137300923077e+01
0	 3.624999999999998e+01	 1.312500000000000e+01	 1.000142224984615e+01
0	 3.624999999999997e+01	 1.375000000000000e+01	 1.000147370584615e+01
0	 3.624999999999998e+01	 1.437500000000000e+01	 1.000152737723077e+01
0	 3.624999999999999e+01	 1.500000000000000e+01	 1.000158326400000e+01
0	 3.624999999999998e+01	 1.562500000000000e+01	 1.000164136615384e+01
0	 3.624999999999999e+01	 1.625000000000001e+01	 1.000170168369231e+01
0	 3.624999999999998e+01	 1.687500000000000e+01	 1.000176421661538e+01
0	 3.624999999999998e+01	 1.750000000000000e+01	 1.000182896492308e+01
0	 3.624999999999999e+01	 1.812500000000001e+01	 1.000189592861539e+01
0	 3.624999999999998e+01	 1.875000000000000e+01	 1.000196510769231e+01
0	 3.687499999999998e+01	 1.250000000000000e+01	 1.000126329076923e+01
0	 3.687499999999999e+01	 1.312500000000000e+01	 1.000131602784615e+01
0	 3.687499999999998e+01	 1.375000000000000e+01	 1.000136918030769e+01
0	 3.687499999999997e+01	 1.437500000000000e+01	 1.000142274815384e+01
0	 3.687499999999998e+01	 1.500000000000000e+01	 1.000147673138461e+01
0	 3.687499999999999e+01	 1.562500000000000e+01	 1.000153113000000e+01
0	 3.687499999999998e+01	 1.625000000000000e+01	 1.000158594400000e+01
0	 3.687499999999999e+01	 1.687500000000000e+01	 1.000164117338462e+01
0	 3.687499999999998e+01	 1.750000000000000e+01	 1.000169681815385e+01
0	 3.687499999999998e+01	 1.812500000000000e+01	 1.000175287830770e+01
0	 3.687499999999998e+01	 1.875000000000000e+01	 1.000180935384615e+01
0	 3.750000000000000e+01	 1.250000000000000e+01	 1.000119184615385e+01
0	 3.750000000000000e+01	 1.312500000000000e+01	 1.000124304615385e+01
0	 3.750000000000000e+01	 1.375000000000000e+01	 1.000129286153846e+01
0	 3.750000000000001e+01	 1.437500000000000e+01	 1.000134129230769e+01
0	 3.750000000000000e+01	 1.500000000000000e+01	 1.000138833846154e+01
0	 3.750000000000001e+01	 1.562500000000000e+01	 1.000143400000000e+01
0	 3.750000000000000e+01	 1.625000000000000e+01	 1.000147827692308e+01
0	 3.750000000000000e+01	 1.687500000000000e+01	 1.000152116923077e+01
0	 3.750000000000001e+01	 1.750000000000001e+01	 1.000156267692308e+01
0	 3.750000000000000e+01	 1.812500000000001e+01	 1.000160280000000e+01
0	 3.750000000000000e+01	 1.875000000000000e+01	 1.000164153846154e+01
0	 3.125000000000000e+01	 1.875000000000000e+01	 1.000277692307692e+01
0	 3.125000000000000e+01	 1.937500000000000e+01	 1.000274878461538e+01
0	 3.125000000000000e+01	 2.000000000000000e+01	 1.000271852307692e+01
0	 3.125000000000000e+01	 2.062500000000000e+01	 1.000268613846154e+01
0	 3.125000000000000e+01	 2.125000000000000e+01	 1.000265163076923e+01
0	 3.125000000000000e+01	 2.187500000000000e+01	 1.000261500000000e+01
0	 3.125000000000000e+01	 2.250000000000000e+01	 1.000257624615385e+01
0	 3.125000000000000e+01	 2.312500000000001e+01	 1.000253536923076e+01
0	 3.125000000000001e+01	 2.375000000000001e+01	 1.000249236923077e+01
0	 3.125000000000000e+01	 2.437500000000001e+01	 1.000244724615384e+01
0	 3.125000000000000e+01	 2.500000000000000e+01	 1.000240000000000e+01
0	 3.187500000000000e+01	 1.875000000000000e+01	 1.000271766153846e+01
0	 3.187500000000000e+01	 1.937500000000000e+01	 1.000267718615385e+01
0	 3.187500000000000e+01	 2.000000000000000e+01	 1.000263540000000e+01
0	 3.187500000000000e+01	 2.062500000000000e+01	 1.000259230307693e+01
0	 3.187500000000000e+01	 2.125000000000001e+01	 1.000254789538461e+01
0	 3.187500000000000e+01	 2.187500000000000e+01	 1.000250217692307e+01
0	 3.187500000000000e+01	 2.250000000000000e+01	 1.000245514769231e+01
0	 3.187500000000000e+01	 2.312500000000000e+01	 1.000240680769231e+01
0	 3.187500000000000e+01	 2.375000000000000e+01	 1.000235715692307e+01
0	 3.187499999999999e+01	 2.437500000000000e+01	 1.000230619538461e+01
0	 3.187500000000000e+01	 2.500000000000000e+01	 1.000225392307691e+01
0	 3.250000000000000e+01	 1.875000000000000e+01	 1.000264633846154e+01
0	 3.250000000000001e+01	 1.937500000000001e+01	 1.000259548615385e+01
0	 3.250000000000000e+01	 2.000000000000000e+01	 1.000254413538461e+01
0	 3.250000000000000e+01	 2.062500000000000e+01	 1.000249228615385e+01
0	 3.249999999999999e+01	 2.125000000000000e+01	 1.000243993846154e+01
0	 3.250000000000001e+01	 2.187500000000001e+01	 1.000238709230769e+01
0	 3.250000000000001e+01	 2.250000000000000e+01	 1.000233374769230e+01
0	 3.249999999999999e+01	 2.312500000000001e+01	 1.000227990461538e+01
0	 3.250000000000000e+01	 2.375000000000000e+01	 1.000222556307692e+01
0	 3.250000000000000e+01	 2.437500000000000e+01	 1.000217072307692e+01
0	 3.250000000000000e+01	 2.500000000000000e+01	 1.000211538461537e+01
0	 3.312499999999999e+01	 1.875000000000000e+01	 1.000256295384616e+01
0	 3.312499999999999e+01	 1.937500000000000e+01	 1.000250368461538e+01
0	 3.312499999999999e+01	 2.000000000000000e+01	 1.000244472923077e+01
0	 3.312499999999999e+01	 2.062500000000000e+01	 1.000238608769230e+01
0	 3.312499999999999e+01	 2.125000000000000e+01	 1.000232775999999e+01
0	 3.312499999999999e+01	 2.187500000000001e+01	 1.000226974615385e+01
0	 3.312499999999999e+01	 2.250000000000000e+01	 1.000221204615384e+01
0	 3.312500000000000e+01	 2.312500000000000e+01	 1.000215465999999e+01
0	 3.312499999999999e+01	 2.375000000000001e+01	 1.000209758769231e+01
0	 3.312499999999999e+01	 2.437500000000000e+01	 1.000204082923077e+01
0	 3.312499999999999e+01	 2.500000000000000e+01	 1.000198438461538e+01
0	 3.374999999999999e+01	 1.875000000000000e+01	 1.000246750769231e+01
0	 3.374999999999999e+01	 1.937500000000000e+01	 1.000240178153846e+01
0	 3.374999999999998e+01	 2.000000000000000e+01	 1.000233718153846e+01
0	 3.374999999999999e+01	 2.062500000000000e+01	 1.000227370769231e+01
0	 3.374999999999999e+01	 2.125000000000000e+01	 1.000221136000000e+01
0	 3.374999999999999e+01	 2.187500000000000e+01	 1.000215013846154e+01
0	 3.374999999999999e+01	 2.250000000000001e+01	 1.000209004307692e+01
0	 3.374999999999999e+01	 2.312500000000001e+01	 1.000203107384615e+01
0	 3.374999999999999e+01	 2.375000000000000e+01	 1.000197323076923e+01
0	 3.374999999999999e+01	 2.437500000000001e+01	 1.000191651384615e+01
0	 3.374999999999999e+01	 2.500000000000000e+01	 1.000186092307692e+01
0	 3.437499999999999e+01	 1.875000000000000e+01	 1.000236000000000e+01
0	 3.437499999999999e+01	 1.937500000000000e+01	 1.000228977692308e+01
0	 3.437499999999999e+01	 2.000000000000000e+01	 1.000222149230769e+01
0	 3.437499999999999e+01	 2.062500000000000e+01	 1.000215514615384e+01
0	 3.437499999999999e+01	 2.125000000000000e+01	 1.000209073846153e+01
0	 3.437499999999999e+01	 2.187500000000000e+01	 1.000202826923077e+01
0	 3.437499999999999e+01	 2.250000000000000e+01	 1.000196773846154e+01
0	 3.437499999999999e+01	 2.312500000000001e+01	 1.000190914615385e+01
0	 3.437499999999999e+01	 2.375000000000000e+01	 1.000185249230769e+01
0	 3.437499999999999e+01	 2.437500000000001e+01	 1.000179777692307e+01
0	 3.437499999999999e+01	 2.500000000000000e+01	 1.000174500000000e+01
0	 3.499999999999999e+01	 1.875000000000000e+01	 1.000224043076923e+01
0	 3.499999999999998e+01	 1.937500000000000e+01	 1.000216767076923e+01
0	 3.500000000000000e+01	 2.000000000000000e+01	 1.000209766153846e+01
0	 3.499999999999999e+01	 2.062500000000000e+01	 1.000203040307692e+01
0	 3.499999999999998e+01	 2.125000000000000e+01	 1.000196589538462e+01
0	 3.499999999999999e+01	 2.187500000000000e+01	 1.000190413846154e+01
0	 3.499999999999999e+01	 2.250000000000000e+01	 1.000184513230769e+01
0	 3.499999999999999e+01	 2.312500000000001e+01	 1.000178887692307e+01
0	 3.499999999999999e+01	 2.375000000000001e+01	 1.000173537230769e+01
0	 3.499999999999998e+01	 2.437500000000000e+01	 1.000168461846154e+01
0	 3.499999999999999e+01	 2.500000000000000e+01	 1.000163661538462e+01
0	 3.562499999999999e+01	 1.875000000000000e+01	 1.000210880000000e+01
0	 3.562499999999998e+01	 1.937500000000000e+01	 1.000203546307693e+01
0	 3.562499999999999e+01	 2.000000000000000e+01	 1.000196568923077e+01
0	 3.562499999999999e+01	 2.062500000000000e+01	 1.000189947846154e+01
0	 3.562499999999999e+01	 2.125000000000000e+01	 1.000183683076924e+01
0	 3.562499999999999e+01	 2.187500000000001e+01	 1.000177774615385e+01
0	 3.562499999999999e+01	 2.250000000000000e+01	 1.000172222461539e+01
0	 3.562499999999999e+01	 2.312500000000001e+01	 1.000167026615385e+01
0	 3.562499999999998e+01	 2.375000000000000e+01	 1.000162187076924e+01
0	 3.562499999999999e+01	 2.437500000000001e+01	 1.000157703846154e+01
0	 3.562499999999999e+01	 2.500000000000000e+01	 1.000153576923076e+01
0	 3.624999999999998e+01	 1.875000000000000e+01	 1.000196510769231e+01
0	 3.624999999999998e+01	 1.937500000000000e+01	 1.000189315384615e+01
0	 3.624999999999997e+01	 2.000000000000000e+01	 1.000182557538461e+01
0	 3.624999999999998e+01	 2.062500000000000e+01	 1.000176237230769e+01
0	 3.624999999999999e+01	 2.125000000000000e+01	 1.000170354461538e+01
0	 3.624999999999998e+01	 2.187500000000000e+01	 1.000164909230769e+01
0	 3.624999999999999e+01	 2.250000000000000e+01	 1.000159901538461e+01
0	 3.624999999999998e+01	 2.312500000000000e+01	 1.000155331384615e+01
0	 3.624999999999998e+01	 2.375000000000000e+01	 1.000151198769230e+01
0	 3.624999999999999e+01	 2.437500000000001e+01	 1.000147503692308e+01
0	 3.624999999999998e+01	 2.500000000000000e+01	 1.000144246153846e+01
0	 3.687499999999998e+01	 1.875000000000000e+01	 1.000180935384615e+01
0	 3.687499999999999e+01	 1.937500000000000e+01	 1.000174074307693e+01
0	 3.687499999999998e+01	 2.000000000000000e+01	 1.000167732000000e+01
0	 3.687499999999997e+01	 2.062500000000000e+01	 1.000161908461539e+01
0	 3.687499999999998e+01	 2.125000000000000e+01	 1.000156603692308e+01
0	 3.687499999999999e+01	 2.187500000000000e+01	 1.000151817692308e+01
0	 3.687499999999998e+01	 2.250000000000000e+01	 1.000147550461539e+01
0	 3.687499999999999e+01	 2.312500000000001e+01	 1.000143802000000e+01
0	 3.687499999999998e+01	 2.375000000000000e+01	 1.000140572307692e+01
0	 3.687499999999998e+01	 2.437500000000001e+01	 1.000137861384615e+01
0	 3.687499999999998e+01	 2.500000000000000e+01	 1.000135669230770e+01
0	 3.750000000000000e+01	 1.875000000000000e+01	 1.000164153846154e+01
0	 3.750000000000000e+01	 1.937500000000000e+01	 1.000157823076923e+01
0	 3.750000000000000e+01	 2.000000000000000e+01	 1.000152092307692e+01
0	 3.750000000000001e+01	 2.062500000000000e+01	 1.000146961538462e+01
0	 3.750000000000000e+01	 2.125000000000000e+01	 1.000142430769231e+01
0	 3.750000000000001e+01	 2.187500000000000e+01	 1.000138500000000e+01
0	 3.750000000000000e+01	 2.250000000000000e+01	 1.000135169230769e+01
0	 3.750000000000000e+01	 2.312500000000001e+01	 1.000132438461539e+01
0	 3.750000000000001e+01	 2.375000000000001e+01	 1.000130307692308e+01
0	 3.750000000000000e+01	 2.437500000000001e+01	 1.000128776923078e+01
0	 3.750000000000000e+01	 2.500000000000000e+01	 1.000127846153846e+01
0	 3.125000000000000e+01	 2.500000000000000e+01	 1.000240000000000e+01
0	 3.125000000000000e+01	 2.562500000000000e+01	 1.000227987692307e+01
0	 3.125000000000000e+01	 2.625000000000000e+01	 1.000216473846153e+01
0	 3.124999999999999e+01	 2.687499999999999e+01	 1.000205458461538e+01
0	 3.125000000000000e+01	 2.749999999999999e+01	 1.000194941538462e+01
0	 3.125000000000000e+01	 2.812499999999999e+01	 1.000184923076923e+01
0	 3.125000000000000e+01	 2.874999999999999e+01	 1.000175403076923e+01
0	 3.125000000000000e+01	 2.937499999999999e+01	 1.000166381538462e+01
0	 3.125000000000000e+01	 2.999999999999998e+01	 1.000157858461539e+01
0	 3.125000000000000e+01	 3.062499999999998e+01	 1.000149833846154e+01
0	 3.125000000000000e+01	 3.125000000000000e+01	 1.000142307692308e+01
0	 3.187500000000000e+01	 2.500000000000000e+01	 1.000225392307691e+01
0	 3.187500000000000e+01	 2.562500000000000e+01	 1.000214782923077e+01
0	 3.187500000000000e+01	 2.625000000000000e+01	 1.000204617538461e+01
0	 3.187500000000000e+01	 2.687499999999999e+01	 1.000194896153846e+01
0	 3.187500000000000e+01	 2.749999999999999e+01	 1.000185618769230e+01
0	 3.187500000000000e+01	 2.812500000000000e+01	 1.000176785384615e+01
0	 3.187500000000000e+01	 2.874999999999999e+01	 1.000168396000000e+01
0	 3.187500000000000e+01	 2.937499999999999e+01	 1.000160450615385e+01
0	 3.187500000000000e+01	 3.000000000000000e+01	 1.000152949230769e+01
0	 3.187499999999999e+01	 3.062499999999998e+01	 1.000145891846154e+01
0	 3.187500000000000e+01	 3.125000000000000e+01	 1.000139278461539e+01
0	 3.250000000000000e+01	 2.500000000000000e+01	 1.000211538461537e+01
0	 3.250000000000000e+01	 2.562500000000000e+01	 1.000202220000000e+01
0	 3.250000000000001e+01	 2.625000000000000e+01	 1.000193291076923e+01
0	 3.250000000000000e+01	 2.687499999999999e+01	 1.000184751692307e+01
0	 3.249999999999999e+01	 2.749999999999999e+01	 1.000176601846154e+01
0	 3.249999999999999e+01	 2.812499999999999e+01	 1.000168841538462e+01
0	 3.249999999999999e+01	 2.874999999999998e+01	 1.000161470769230e+01
0	 3.250000000000000e+01	 2.937499999999999e+01	 1.000154489538462e+01
0	 3.249999999999999e+01	 2.999999999999998e+01	 1.000147897846153e+01
0	 3.250000000000000e+01	 3.062499999999999e+01	 1.000141695692308e+01
0	 3.250000000000000e+01	 3.125000000000000e+01	 1.000135883076923e+01
0	 3.312499999999999e+01	 2.500000000000000e+01	 1.000198438461538e+01
0	 3.312499999999999e+01	 2.562500000000000e+01	 1.000190298923076e+01
0	 3.312500000000001e+01	 2.625000000000000e+01	 1.000182494461538e+01
0	 3.312500000000000e+01	 2.687500000000000e+01	 1.000175025076923e+01
0	 3.312499999999999e+01	 2.749999999999999e+01	 1.000167890769231e+01
0	 3.312500000000000e+01	 2.812499999999999e+01	 1.000161091538461e+01
0	 3.312499999999999e+01	 2.874999999999998e+01	 1.000154627384615e+01
0	 3.312499999999999e+01	 2.937499999999998e+01	 1.000148498307692e+01
0	 3.312500000000000e+01	 2.999999999999999e+01	 1.000142704307693e+01
0	 3.312499999999999e+01	 3.062499999999998e+01	 1.000137245384615e+01
0	 3.312499999999999e+01	 3.125000000000000e+01	 1.000132121538462e+01
0	 3.374999999999999e+01	 2.500000000000000e+01	 1.000186092307692e+01
0	 3.374999999999999e+01	 2.562500000000000e+01	 1.000179019692307e+01
0	 3.374999999999999e+01	 2.625000000000000e+01	 1.000172227692308e+01
0	 3.374999999999999e+01	 2.687500000000000e+01	 1.000165716307692e+01
0	 3.374999999999999e+01	 2.749999999999999e+01	 1.000159485538461e+01
0	 3.374999999999999e+01	 2.812499999999999e+01	 1.000153535384615e+01
0	 3.374999999999999e+01	 2.874999999999999e+01	 1.000147865846154e+01
0	 3.374999999999999e+01	 2.937499999999998e+01	 1.000142476923077e+01
0	 3.374999999999999e+01	 2.999999999999999e+01	 1.000137368615384e+01
0	 3.374999999999999e+01	 3.062499999999998e+01	 1.000132540923077e+01
0	 3.374999999999999e+01	 3.125000000000000e+01	 1.000127993846154e+01
0	 3.437499999999999e+01	 2.500000000000000e+01	 1.000174500000000e+01
0	 3.437499999999999e+01	 2.562500000000000e+01	 1.000168382307692e+01
0	 3.437499999999999e+01	 2.625000000000000e+01	 1.000162490769230e+01
0	 3.437500000000000e+01	 2.687500000000000e+01	 1.000156825384616e+01
0	 3.437499999999998e+01	 2.749999999999999e+01	 1.000151386153846e+01
0	 3.437499999999999e+01	 2.812499999999999e+01	 1.000146173076923e+01
0	 3.437500000000000e+01	 2.874999999999999e+01	 1.000141186153846e+01
0	 3.437499999999999e+01	 2.937499999999998e+01	 1.000136425384616e+01
0	 3.437499999999999e+01	 2.999999999999999e+01	 1.000131890769231e+01
0	 3.437499999999999e+01	 3.062499999999998e+01	 1.000127582307692e+01
0	 3.437499999999999e+01	 3.125000000000000e+01	 1.000123500000000e+01
0	 3.499999999999999e+01	 2.500000000000000e+01	 1.000163661538462e+01
0	 3.499999999999999e+01	 2.562500000000000e+01	 1.000158386769230e+01
0	 3.499999999999998e+01	 2.624999999999999e+01	 1.000153283692308e+01
0	 3.499999999999999e+01	 2.687499999999999e+01	 1.000148352307692e+01
0	 3.500000000000000e+01	 2.750000000000000e+01	 1.000143592615384e+01
0	 3.499999999999999e+01	 2.812499999999999e+01	 1.000139004615385e+01
0	 3.499999999999999e+01	 2.874999999999999e+01	 1.000134588307692e+01
0	 3.499999999999999e+01	 2.937499999999999e+01	 1.000130343692307e+01
0	 3.499999999999999e+01	 2.999999999999999e+01	 1.000126270769231e+01
0	 3.499999999999999e+01	 3.062499999999998e+01	 1.000122369538462e+01
0	 3.499999999999999e+01	 3.125000000000000e+01	 1.000118640000001e+01
0	 3.562499999999999e+01	 2.500000000000000e+01	 1.000153576923076e+01
0	 3.562499999999998e+01	 2.562499999999999e+01	 1.000149033076923e+01
0	 3.562499999999999e+01	 2.624999999999999e+01	 1.000144606461538e+01
0	 3.562499999999999e+01	 2.687499999999999e+01	 1.000140297076923e+01
0	 3.562499999999999e+01	 2.749999999999999e+01	 1.000136104923076e+01
0	 3.562499999999999e+01	 2.812499999999999e+01	 1.000132030000000e+01
0	 3.562499999999999e+01	 2.874999999999999e+01	 1.000128072307693e+01
0	 3.562499999999999e+01	 2.937499999999999e+01	 1.000124231846154e+01
0	 3.562499999999999e+01	 2.999999999999998e+01	 1.000120508615385e+01
0	 3.562499999999999e+01	 3.062499999999998e+01	 1.000116902615385e+01
0	 3.562499999999999e+01	 3.125000000000000e+01	 1.000113413846154e+01
0	 3.624999999999998e+01	 2.500000000000000e+01	 1.000144246153846e+01
0	 3.624999999999999e+01	 2.562500000000000e+01	 1.000140321230769e+01
0	 3.624999999999999e+01	 2.625000000000000e+01	 1.000136459076923e+01
0	 3.624999999999999e+01	 2.687500000000000e+01	 1.000132659692308e+01
0	 3.624999999999998e+01	 2.749999999999999e+01	 1.000128923076923e+01
0	 3.624999999999998e+01	 2.812499999999999e+01	 1.000125249230769e+01
0	 3.624999999999998e+01	 2.874999999999999e+01	 1.000121638153846e+01
0	 3.624999999999998e+01	 2.937499999999998e+01	 1.000118089846154e+01
0	 3.624999999999998e+01	 2.999999999999998e+01	 1.000114604307693e+01
0	 3.624999999999998e+01	 3.062499999999999e+01	 1.000111181538462e+01
0	 3.624999999999998e+01	 3.125000000000000e+01	 1.000107821538461e+01
0	 3.687499999999998e+01	 2.500000000000000e+01	 1.000135669230770e+01
0	 3.687499999999998e+01	 2.562500000000000e+01	 1.000132251230769e+01
0	 3.687499999999999e+01	 2.625000000000000e+01	 1.000128841538461e+01
0	 3.687499999999999e+01	 2.687500000000000e+01	 1.000125440153846e+01
0	 3.687499999999998e+01	 2.749999999999999e+01	 1.000122047076923e+01
0	 3.687499999999998e+01	 2.812499999999999e+01	 1.000118662307693e+01
0	 3.687499999999998e+01	 2.874999999999999e+01	 1.000115285846154e+01
0	 3.687499999999998e+01	 2.937499999999999e+01	 1.000111917692308e+01
0	 3.687499999999998e+01	 2.999999999999998e+01	 1.000108557846154e+01
0	 3.687499999999998e+01	 3.062499999999998e+01	 1.000105206307692e+01
0	 3.687499999999998e+01	 3.125000000000000e+01	 1.000101863076923e+01
0	 3.750000000000000e+01	 2.500000000000000e+01	 1.000127846153846e+01
0	 3.750000000000000e+01	 2.562500000000000e+01	 1.000124823076922e+01
0	 3.750000000000001e+01	 2.625000000000000e+01	 1.000121753846154e+01
0	 3.749999999999999e+01	 2.687499999999999e+01	 1.000118638461539e+01
0	 3.750000000000000e+01	 2.749999999999999e+01	 1.000115476923078e+01
0	 3.749999999999999e+01	 2.812499999999999e+01	 1.000112269230770e+01
0	 3.750000000000000e+01	 2.874999999999999e+01	 1.000109015384615e+01
0	 3.750000000000000e+01	 2.937499999999999e+01	 1.000105715384615e+01
0	 3.750000000000000e+01	 2.999999999999998e+01	 1.000102369230770e+01
0	 3.750000000000000e+01	 3.062499999999998e+01	 1.000098976923077e+01
0	 3.750000000000000e+01	 3.125000000000000e+01	 1.000095538461539e+01
0	 3.125000000000000e+01	 3.125000000000000e+01	 1.000142307692308e+01
0	 3.125000000000000e+01	 3.187500000000000e+01	 1.000135710769231e+01
0	 3.125000000000000e+01	 3.250000000000001e+01	 1.000128966153846e+01
0	 3.124999999999999e+01	 3.312499999999999e+01	 1.000122073846154e+01
0	 3.125000000000000e+01	 3.374999999999999e+01	 1.000115033846154e+01
0	 3.125000000000000e+01	 3.437499999999999e+01	 1.000107846153846e+01
0	 3.125000000000000e+01	 3.499999999999999e+01	 1.000100510769231e+01
0	 3.125000000000000e+01	 3.562499999999999e+01	 1.000093027692307e+01
0	 3.125000000000000e+01	 3.624999999999998e+01	 1.000085396923077e+01
0	 3.125000000000000e+01	 3.687499999999998e+01	 1.000077618461537e+01
0	 3.125000000000000e+01	 3.750000000000000e+01	 1.000069692307692e+01
0	 3.187500000000000e+01	 3.125000000000000e+01	 1.000139278461539e+01
0	 3.187500000000000e+01	 3.187500000000000e+01	 1.000132761230770e+01
0	 3.187500000000000e+01	 3.250000000000000e+01	 1.000126119384615e+01
0	 3.187500000000000e+01	 3.312499999999999e+01	 1.000119352923077e+01
0	 3.187500000000000e+01	 3.374999999999999e+01	 1.000112461846154e+01
0	 3.187500000000000e+01	 3.437500000000000e+01	 1.000105446153846e+01
0	 3.187500000000000e+01	 3.499999999999999e+01	 1.000098305846154e+01
0	 3.187500000000000e+01	 3.562499999999999e+01	 1.000091040923077e+01
0	 3.187500000000000e+01	 3.624999999999999e+01	 1.000083651384615e+01
0	 3.187499999999999e+01	 3.687499999999997e+01	 1.000076137230769e+01
0	 3.187500000000000e+01	 3.750000000000000e+01	 1.000068498461540e+01
0	 3.250000000000000e+01	 3.125000000000000e+01	 1.000135883076923e+01
0	 3.250000000000000e+01	 3.187500000000000e+01	 1.000129464923077e+01
0	 3.250000000000001e+01	 3.250000000000001e+01	 1.000122945230769e+01
0	 3.250000000000000e+01	 3.312500000000000e+01	 1.000116324000000e+01
0	 3.249999999999999e+01	 3.374999999999999e+01	 1.000109601230769e+01
0	 3.249999999999999e+01	 3.437499999999999e+01	 1.000102776923077e+01
0	 3.249999999999999e+01	 3.499999999999999e+01	 1.000095851076922e+01
0	 3.250000000000000e+01	 3.562499999999999e+01	 1.000088823692307e+01
0	 3.249999999999999e+01	 3.624999999999998e+01	 1.000081694769231e+01
0	 3.250000000000000e+01	 3.687499999999998e+01	 1.000074464307693e+01
0	 3.250000000000000e+01	 3.750000000000001e+01	 1.000067132307693e+01
0	 3.312499999999999e+01	 3.125000000000000e+01	 1.000132121538462e+01
0	 3.312499999999999e+01	 3.187500000000000e+01	 1.000125821846155e+01
0	 3.312500000000001e+01	 3.250000000000000e+01	 1.000119443692308e+01
0	 3.312500000000000e+01	 3.312500000000000e+01	 1.000112987076923e+01
0	 3.312499999999999e+01	 3.374999999999999e+01	 1.000106452000000e+01
0	 3.312500000000000e+01	 3.437500000000000e+01	 1.000099838461539e+01
0	 3.312499999999999e+01	 3.499999999999998e+01	 1.000093146461538e+01
0	 3.312499999999999e+01	 3.562499999999998e+01	 1.000086375999999e+01
0	 3.312500000000000e+01	 3.624999999999999e+01	 1.000079527076923e+01
0	 3.312499999999999e+01	 3.687499999999998e+01	 1.000072599692308e+01
0	 3.312499999999999e+01	 3.750000000000000e+01	 1.000065593846154e+01
0	 3.374999999999999e+01	 3.125000000000000e+01	 1.000127993846154e+01
0	 3.374999999999999e+01	 3.187500000000000e+01	 1.000121831999999e+01
0	 3.374999999999999e+01	 3.250000000000000e+01	 1.000115614769231e+01
0	 3.374999999999999e+01	 3.312499999999999e+01	 1.000109342153847e+01
0	 3.374999999999999e+01	 3.374999999999999e+01	 1.000103014153846e+01
0	 3.374999999999999e+01	 3.437499999999999e+01	 1.000096630769231e+01
0	 3.374999999999999e+01	 3.499999999999999e+01	 1.000090192000000e+01
0	 3.374999999999999e+01	 3.562499999999998e+01	 1.000083697846154e+01
0	 3.374999999999999e+01	 3.624999999999999e+01	 1.000077148307692e+01
0	 3.374999999999999e+01	 3.687499999999999e+01	 1.000070543384616e+01
0	 3.374999999999999e+01	 3.750000000000000e+01	 1.000063883076923e+01
0	 3.437499999999999e+01	 3.125000000000000e+01	 1.000123500000000e+01
0	 3.437499999999999e+01	 3.187500000000000e+01	 1.000117495384615e+01
0	 3.437499999999999e+01	 3.249999999999999e+01	 1.000111458461538e+01
0	 3.437500000000000e+01	 3.312500000000000e+01	 1.000105389230769e+01
0	 3.437499999999998e+01	 3.374999999999999e+01	 1.000099287692307e+01
0	 3.437499999999999e+01	 3.437499999999999e+01	 1.000093153846154e+01
0	 3.437500000000000e+01	 3.499999999999999e+01	 1.000086987692308e+01
0	 3.437499999999999e+01	 3.562499999999999e+01	 1.000080789230769e+01
0	 3.437499999999999e+01	 3.624999999999998e+01	 1.000074558461537e+01
0	 3.437499999999999e+01	 3.687499999999999e+01	 1.000068295384615e+01
0	 3.437499999999999e+01	 3.750000000000000e+01	 1.000061999999999e+01
0	 3.499999999999999e+01	 3.125000000000000e+01	 1.000118640000001e+01
0	 3.499999999999999e+01	 3.187500000000000e+01	 1.000112812000000e+01
0	 3.499999999999998e+01	 3.249999999999999e+01	 1.000106974769232e+01
0	 3.499999999999999e+01	 3.312499999999999e+01	 1.000101128307693e+01
0	 3.500000000000000e+01	 3.375000000000001e+01	 1.000095272615385e+01
0	 3.499999999999999e+01	 3.437500000000000e+01	 1.000089407692308e+01
0	 3.499999999999999e+01	 3.499999999999999e+01	 1.000083533538461e+01
0	 3.499999999999999e+01	 3.562499999999999e+01	 1.000077650153846e+01
0	 3.499999999999999e+01	 3.624999999999999e+01	 1.000071757538461e+01
0	 3.499999999999999e+01	 3.687499999999998e+01	 1.000065855692306e+01
0	 3.499999999999999e+01	 3.750000000000000e+01	 1.000059944615384e+01
0	 3.562499999999999e+01	 3.125000000000000e+01	 1.000113413846154e+01
0	 3.562499999999998e+01	 3.187500000000000e+01	 1.000107781846154e+01
0	 3.562499999999999e+01	 3.250000000000000e+01	 1.000102163692308e+01
0	 3.562499999999999e+01	 3.312499999999999e+01	 1.000096559384616e+01
0	 3.562499999999999e+01	 3.374999999999999e+01	 1.000090968923077e+01
0	 3.562499999999999e+01	 3.437499999999999e+01	 1.000085392307692e+01
0	 3.562499999999999e+01	 3.500000000000000e+01	 1.000079829538462e+01
0	 3.562499999999999e+01	 3.562499999999999e+01	 1.000074280615385e+01
0	 3.562499999999999e+01	 3.624999999999998e+01	 1.000068745538461e+01
0	 3.562499999999999e+01	 3.687499999999999e+01	 1.000063224307692e+01
0	 3.562499999999999e+01	 3.750000000000000e+01	 1.000057716923077e+01
0	 3.624999999999998e+01	 3.125000000000000e+01	 1.000107821538461e+01
0	 3.624999999999999e+01	 3.187500000000000e+01	 1.000102404923077e+01
0	 3.624999999999999e+01	 3.249999999999999e+01	 1.000097025230769e+01
0	 3.624999999999999e+01	 3.312500000000000e+01	 1.000091682461539e+01
0	 3.624999999999998e+01	 3.374999999999999e+01	 1.000086376615385e+01
0	 3.624999999999998e+01	 3.437499999999999e+01	 1.000081107692308e+01
0	 3.624999999999998e+01	 3.499999999999999e+01	 1.000075875692308e+01
0	 3.624999999999998e+01	 3.562499999999998e+01	 1.000070680615384e+01
0	 3.624999999999998e+01	 3.624999999999998e+01	 1.000065522461537e+01
0	 3.624999999999998e+01	 3.687499999999998e+01	 1.000060401230769e+01
0	 3.624999999999998e+01	 3.750000000000000e+01	 1.000055316923076e+01
0	 3.687499999999998e+01	 3.125000000000000e+01	 1.000101863076923e+01
0	 3.687499999999998e+01	 3.187500000000000e+01	 1.000096681230770e+01
0	 3.687499999999999e+01	 3.249999999999999e+01	 1.000091559384615e+01
0	 3.687499999999999e+01	 3.312499999999999e+01	 1.000086497538462e+01
0	 3.687499999999998e+01	 3.374999999999999e+01	 1.000081495692308e+01
0	 3.687499999999998e+01	 3.437499999999999e+01	 1.000076553846154e+01
0	 3.687499999999998e+01	 3.499999999999999e+01	 1.000071672000000e+01
0	 3.687499999999998e+01	 3.562499999999999e+01	 1.000066850153846e+01
0	 3.687499999999998e+01	 3.624999999999999e+01	 1.000062088307693e+01
0	 3.687499999999998e+01	 3.687499999999998e+01	 1.000057386461538e+01
0	 3.687499999999998e+01	 3.750000000000000e+01	 1.000052744615385e+01
0	 3.750000000000000e+01	 3.125000000000000e+01	 1.000095538461539e+01
0	 3.750000000000000e+01	 3.187500000000000e+01	 1.000090610769231e+01
0	 3.750000000000001e+01	 3.250000000000001e+01	 1.000085766153846e+01
0	 3.749999999999999e+01	 3.312499999999999e+01	 1.000081004615385e+01
0	 3.750000000000000e+01	 3.374999999999999e+01	 1.000076326153846e+01
0	 3.749999999999999e+01	 3.437499999999999e+01	 1.000071730769230e+01
0	 3.750000000000000e+01	 3.499999999999999e+01	 1.000067218461538e+01
0	 3.750000000000000e+01	 3.562499999999999e+01	 1.000062789230768e+01
0	 3.750000000000000e+01	 3.624999999999998e+01	 1.000058443076922e+01
0	 3.750000000000000e+01	 3.687499999999998e+01	 1.000054179999998e+01
0	 3.750000000000000e+01	 3.750000000000000e+01	 1.000049999999999e+01
0	 3.125000000000000e+01	 3.750000000000000e+01	 1.000069692307692e+01
0	 3.125000000000000e+01	 3.812500000000000e+01	 1.000065355384616e+01
0	 3.125000000000000e+01	 3.875000000000001e+01	 1.000060806153846e+01
0	 3.124999999999999e+01	 3.937499999999999e+01	 1.000056044615384e+01
0	 3.125000000000000e+01	 3.999999999999999e+01	 1.000051070769231e+01
0	 3.125000000000000e+01	 4.062499999999999e+01	 1.000045884615384e+01
0	 3.125000000000000e+01	 4.124999999999999e+01	 1.000040486153846e+01
0	 3.125000000000000e+01	 4.187499999999999e+01	 1.000034875384614e+01
0	 3.125000000000000e+01	 4.249999999999999e+01	 1.000029052307692e+01
0	 3.125000000000000e+01	 4.312499999999999e+01	 1.000023016923075e+01
0	 3.125000000000000e+01	 4.375000000000000e+01	 1.000016769230768e+01
0	 3.187500000000000e+01	 3.750000000000000e+01	 1.000068498461540e+01
0	 3.187500000000000e+01	 3.812499999999999e+01	 1.000064260923076e+01
0	 3.187500000000000e+01	 3.874999999999999e+01	 1.000059814769231e+01
0	 3.187500000000000e+01	 3.937499999999999e+01	 1.000055160000000e+01
0	 3.187500000000000e+01	 3.999999999999999e+01	 1.000050296615385e+01
0	 3.187500000000000e+01	 4.062500000000000e+01	 1.000045224615384e+01
0	 3.187500000000000e+01	 4.124999999999999e+01	 1.000039944000000e+01
0	 3.187500000000000e+01	 4.187499999999999e+01	 1.000034454769230e+01
0	 3.187500000000000e+01	 4.249999999999998e+01	 1.000028756923076e+01
0	 3.187499999999999e+01	 4.312499999999997e+01	 1.000022850461537e+01
0	 3.187500000000000e+01	 4.375000000000000e+01	 1.000016735384614e+01
0	 3.250000000000000e+01	 3.750000000000001e+01	 1.000067132307693e+01
0	 3.250000000000000e+01	 3.812500000000000e+01	 1.000062998461538e+01
0	 3.250000000000001e+01	 3.875000000000001e+01	 1.000058659692308e+01
0	 3.250000000000000e+01	 3.937499999999999e+01	 1.000054115999999e+01
0	 3.249999999999999e+01	 3.999999999999999e+01	 1.000049367384615e+01
0	 3.249999999999999e+01	 4.062499999999999e+01	 1.000044413846153e+01
0	 3.249999999999999e+01	 4.124999999999997e+01	 1.000039255384614e+01
0	 3.250000000000000e+01	 4.187499999999999e+01	 1.000033891999999e+01
0	 3.249999999999999e+01	 4.249999999999999e+01	 1.000028323692307e+01
0	 3.250000000000000e+01	 4.312499999999998e+01	 1.000022550461538e+01
0	 3.250000000000000e+01	 4.375000000000001e+01	 1.000016572307691e+01
0	 3.312499999999999e+01	 3.750000000000000e+01	 1.000065593846154e+01
0	 3.312499999999999e+01	 3.812499999999999e+01	 1.000061568000001e+01
0	 3.312500000000001e+01	 3.875000000000000e+01	 1.000057340923076e+01
0	 3.312500000000000e+01	 3.937500000000000e+01	 1.000052912615385e+01
0	 3.312499999999999e+01	 3.999999999999999e+01	 1.000048283076922e+01
0	 3.312500000000000e+01	 4.062499999999999e+01	 1.000043452307691e+01
0	 3.312499999999999e+01	 4.124999999999999e+01	 1.000038420307692e+01
0	 3.312499999999999e+01	 4.187499999999999e+01	 1.000033187076923e+01
0	 3.312500000000000e+01	 4.249999999999999e+01	 1.000027752615384e+01
0	 3.312499999999999e+01	 4.312499999999997e+01	 1.000022116923076e+01
0	 3.312499999999999e+01	 4.375000000000000e+01	 1.000016279999999e+01
0	 3.374999999999999e+01	 3.750000000000000e+01	 1.000063883076923e+01
0	 3.374999999999999e+01	 3.812500000000000e+01	 1.000059969538461e+01
0	 3.374999999999999e+01	 3.874999999999999e+01	 1.000055858461539e+01
0	 3.374999999999999e+01	 3.937499999999999e+01	 1.000051549846154e+01
0	 3.374999999999999e+01	 3.999999999999999e+01	 1.000047043692307e+01
0	 3.374999999999999e+01	 4.062499999999999e+01	 1.000042339999999e+01
0	 3.374999999999999e+01	 4.124999999999999e+01	 1.000037438769230e+01
0	 3.374999999999999e+01	 4.187499999999999e+01	 1.000032339999999e+01
0	 3.374999999999999e+01	 4.249999999999998e+01	 1.000027043692306e+01
0	 3.374999999999999e+01	 4.312499999999998e+01	 1.000021549846153e+01
0	 3.374999999999999e+01	 4.375000000000000e+01	 1.000015858461538e+01
0	 3.437499999999999e+01	 3.750000000000000e+01	 1.000061999999999e+01
0	 3.437499999999999e+01	 3.812500000000000e+01	 1.000058203076923e+01
0	 3.437499999999999e+01	 3.874999999999999e+01	 1.000054212307693e+01
0	 3.437500000000000e+01	 3.937499999999999e+01	 1.000050027692306e+01
0	 3.437499999999998e+01	 3.999999999999999e+01	 1.000045649230769e+01
0	 3.437499999999999e+01	 4.062499999999999e+01	 1.000041076923077e+01
0	 3.437500000000000e+01	 4.125000000000000e+01	 1.000036310769230e+01
0	 3.437499999999999e+01	 4.187499999999998e+01	 1.000031350769231e+01
0	 3.437499999999999e+01	 4.249999999999998e+01	 1.000026196923076e+01
0	 3.437499999999999e+01	 4.312499999999999e+01	 1.000020849230770e+01
0	 3.437499999999999e+01	 4.375000000000000e+01	 1.000015307692307e+01
0	 3.499999999999999e+01	 3.750000000000000e+01	 1.000059944615384e+01
0	 3.499999999999999e+01	 3.812500000000000e+01	 1.000056268615384e+01
0	 3.499999999999998e+01	 3.874999999999999e+01	 1.000052402461538e+01
0	 3.499999999999999e+01	 3.937499999999999e+01	 1.000048346153846e+01
0	 3.500000000000000e+01	 4.000000000000000e+01	 1.000044099692306e+01
0	 3.499999999999999e+01	 4.062499999999999e+01	 1.000039663076923e+01
0	 3.499999999999999e+01	 4.124999999999999e+01	 1.000035036307692e+01
0	 3.499999999999999e+01	 4.187499999999998e+01	 1.000030219384614e+01
0	 3.499999999999999e+01	 4.249999999999998e+01	 1.000025212307691e+01
0	 3.499999999999999e+01	 4.312499999999999e+01	 1.000020015076922e+01
0	 3.499999999999999e+01	 4.375000000000000e+01	 1.000014627692307e+01
0	 3.562499999999999e+01	 3.750000000000000e+01	 1.000057716923077e+01
0	 3.562499999999998e+01	 3.812499999999999e+01	 1.000054166153846e+01
0	 3.562499999999999e+01	 3.875000000000000e+01	 1.000050428923076e+01
0	 3.562499999999999e+01	 3.937499999999999e+01	 1.000046505230770e+01
0	 3.562499999999999e+01	 3.999999999999999e+01	 1.000042395076923e+01
0	 3.562499999999999e+01	 4.062499999999999e+01	 1.000038098461538e+01
0	 3.562499999999999e+01	 4.124999999999999e+01	 1.000033615384615e+01
0	 3.562499999999999e+01	 4.187499999999999e+01	 1.000028945846154e+01
0	 3.562499999999999e+01	 4.249999999999999e+01	 1.000024089846153e+01
0	 3.562499999999999e+01	 4.312499999999999e+01	 1.000019047384616e+01
0	 3.562499999999999e+01	 4.374999999999999e+01	 1.000013818461539e+01
0	 3.624999999999998e+01	 3.750000000000000e+01	 1.000055316923076e+01
0	 3.624999999999999e+01	 3.812500000000001e+01	 1.000051895692307e+01
0	 3.624999999999999e+01	 3.875000000000000e+01	 1.000048291692308e+01
0	 3.624999999999999e+01	 3.937500000000000e+01	 1.000044504923077e+01
0	 3.624999999999998e+01	 3.999999999999999e+01	 1.000040535384615e+01
0	 3.624999999999998e+01	 4.062499999999999e+01	 1.000036383076922e+01
0	 3.624999999999998e+01	 4.124999999999999e+01	 1.000032047999999e+01
0	 3.624999999999998e+01	 4.187499999999999e+01	 1.000027530153845e+01
0	 3.624999999999998e+01	 4.249999999999999e+01	 1.000022829538461e+01
0	 3.624999999999998e+01	 4.312499999999999e+01	 1.000017946153845e+01
0	 3.624999999999998e+01	 4.375000000000000e+01	 1.000012879999999e+01
0	 3.687499999999998e+01	 3.750000000000000e+01	 1.000052744615385e+01
0	 3.687499999999998e+01	 3.812499999999999e+01	 1.000049457230768e+01
0	 3.687499999999999e+01	 3.875000000000000e+01	 1.000045990769230e+01
0	 3.687499999999999e+01	 3.937500000000000e+01	 1.000042345230769e+01
0	 3.687499999999998e+01	 3.999999999999999e+01	 1.000038520615384e+01
0	 3.687499999999998e+01	 4.062499999999999e+01	 1.000034516923077e+01
0	 3.687499999999998e+01	 4.124999999999999e+01	 1.000030334153846e+01
0	 3.687499999999998e+01	 4.187499999999999e+01	 1.000025972307692e+01
0	 3.687499999999998e+01	 4.249999999999999e+01	 1.000021431384616e+01
0	 3.687499999999998e+01	 4.312499999999998e+01	 1.000016711384614e+01
0	 3.687499999999998e+01	 4.375000000000000e+01	 1.000011812307691e+01
0	 3.750000000000000e+01	 3.750000000000000e+01	 1.000049999999999e+01
0	 3.750000000000000e+01	 3.812500000000000e+01	 1.000046850769230e+01
0	 3.750000000000001e+01	 3.875000000000001e+01	 1.000043526153846e+01
0	 3.749999999999999e+01	 3.937499999999999e+01	 1.000040026153846e+01
0	 3.750000000000000e+01	 3.999999999999999e+01	 1.000036350769231e+01
0	 3.749999999999999e+01	 4.062499999999999e+01	 1.000032499999999e+01
0	 3.750000000000000e+01	 4.124999999999999e+01	 1.000028473846153e+01
0	 3.750000000000000e+01	 4.187499999999999e+01	 1.000024272307691e+01
0	 3.750000000000000e+01	 4.249999999999999e+01	 1.000019895384615e+01
0	 3.750000000000000e+01	 4.312499999999999e+01	 1.000015343076921e+01
0	 3.750000000000000e+01	 4.375000000000000e+01	 1.000010615384615e+01
0	 3.125000000000000e+01	 4.375000000000000e+01	 1.000016769230768e+01
0	 3.125000000000000e+01	 4.437500000000000e+01	 1.000015999999999e+01
0	 3.125000000000000e+01	 4.499999999999999e+01	 1.000014769230768e+01
0	 3.125000000000000e+01	 4.562499999999999e+01	 1.000013076923076e+01
0	 3.125000000000001e+01	 4.624999999999999e+01	 1.000010923076922e+01
0	 3.125000000000000e+01	 4.687499999999999e+01	 1.000008307692307e+01
0	 3.125000000000000e+01	 4.749999999999999e+01	 1.000005230769232e+01
0	 3.125000000000000e+01	 4.812499999999999e+01	 1.000001692307694e+01
0	 3.125000000000000e+01	 4.874999999999999e+01	 9.999976923076915e+00
0	 3.125000000000000e+01	 4.937499999999999e+01	 9.999932307692283e+00
0	 3.125000000000000e+01	 5.000000000000000e+01	 9.999883076923080e+00
0	 3.187500000000000e+01	 4.375000000000000e+01	 1.000016735384614e+01
0	 3.187500000000000e+01	 4.437500000000000e+01	 1.000016135384615e+01
0	 3.187499999999999e+01	 4.499999999999998e+01	 1.000015083076923e+01
0	 3.187500000000000e+01	 4.562499999999999e+01	 1.000013578461538e+01
0	 3.187500000000000e+01	 4.625000000000000e+01	 1.000011621538462e+01
0	 3.187500000000000e+01	 4.687499999999999e+01	 1.000009212307692e+01
0	 3.187500000000000e+01	 4.749999999999999e+01	 1.000006350769232e+01
0	 3.187500000000000e+01	 4.812499999999998e+01	 1.000003036923077e+01
0	 3.187500000000000e+01	 4.874999999999999e+01	 9.999992707692336e+00
0	 3.187499999999999e+01	 4.937499999999997e+01	 9.999950523076926e+00
0	 3.187500000000000e+01	 5.000000000000000e+01	 9.999903815384641e+00
0	 3.250000000000000e+01	 4.375000000000001e+01	 1.000016572307691e+01
0	 3.249999999999999e+01	 4.437499999999999e+01	 1.000016119999999e+01
0	 3.250000000000000e+01	 4.500000000000000e+01	 1.000015224615384e+01
0	 3.249999999999999e+01	 4.562499999999999e+01	 1.000013886153845e+01
0	 3.249999999999999e+01	 4.625000000000000e+01	 1.000012104615383e+01
0	 3.250000000000001e+01	 4.687499999999999e+01	 1.000009879999998e+01
0	 3.250000000000000e+01	 4.749999999999999e+01	 1.000007212307692e+01
0	 3.250000000000000e+01	 4.812500000000000e+01	 1.000004101538461e+01
0	 3.249999999999999e+01	 4.874999999999999e+01	 1.000000547692308e+01
0	 3.250000000000000e+01	 4.937499999999999e+01	 9.999965507692322e+00
0	 3.249999999999999e+01	 5.000000000000000e+01	 9.999921107692309e+00
0	 3.312499999999999e+01	 4.375000000000000e+01	 1.000016279999999e+01
0	 3.312499999999999e+01	 4.437499999999999e+01	 1.000015953846154e+01
0	 3.312499999999999e+01	 4.499999999999999e+01	 1.000015193846154e+01
0	 3.312500000000000e+01	 4.562499999999999e+01	 1.000014000000000e+01
0	 3.312499999999999e+01	 4.624999999999999e+01	 1.000012372307692e+01
0	 3.312499999999999e+01	 4.687499999999999e+01	 1.000010310769231e+01
0	 3.312499999999999e+01	 4.749999999999999e+01	 1.000007815384616e+01
0	 3.312499999999999e+01	 4.812499999999998e+01	 1.000004886153846e+01
0	 3.312499999999999e+01	 4.874999999999998e+01	 1.000001523076923e+01
0	 3.312499999999999e+01	 4.937499999999998e+01	 9.999977261538463e+00
0	 3.312499999999999e+01	 5.000000000000000e+01	 9.999934953846180e+00
0	 3.374999999999999e+01	 4.375000000000000e+01	 1.000015858461538e+01
0	 3.374999999999999e+01	 4.437499999999999e+01	 1.000015636923076e+01
0	 3.375000000000000e+01	 4.500000000000000e+01	 1.000014990769230e+01
0	 3.374999999999999e+01	 4.562499999999999e+01	 1.000013920000000e+01
0	 3.374999999999999e+01	 4.625000000000000e+01	 1.000012424615384e+01
0	 3.374999999999999e+01	 4.687499999999999e+01	 1.000010504615384e+01
0	 3.374999999999999e+01	 4.749999999999999e+01	 1.000008160000000e+01
0	 3.374999999999999e+01	 4.812499999999998e+01	 1.000005390769233e+01
0	 3.374999999999999e+01	 4.874999999999999e+01	 1.000002196923076e+01
0	 3.374999999999999e+01	 4.937499999999996e+01	 9.999985784615395e+00
0	 3.374999999999999e+01	 5.000000000000000e+01	 9.999945353846185e+00
0	 3.437499999999999e+01	 4.375000000000000e+01	 1.000015307692307e+01
0	 3.437499999999999e+01	 4.437500000000000e+01	 1.000015169230769e+01
0	 3.437499999999999e+01	 4.499999999999999e+01	 1.000014615384615e+01
0	 3.437499999999999e+01	 4.562500000000000e+01	 1.000013646153846e+01
0	 3.437499999999998e+01	 4.624999999999999e+01	 1.000012261538461e+01
0	 3.437499999999999e+01	 4.687499999999999e+01	 1.000010461538462e+01
0	 3.437499999999998e+01	 4.749999999999999e+01	 1.000008246153846e+01
0	 3.437499999999999e+01	 4.812499999999999e+01	 1.000005615384616e+01
0	 3.437499999999999e+01	 4.874999999999998e+01	 1.000002569230772e+01
0	 3.437499999999999e+01	 4.937499999999998e+01	 9.999991076923116e+00
0	 3.437499999999999e+01	 5.000000000000000e+01	 9.999952307692311e+00
0	 3.499999999999999e+01	 4.375000000000000e+01	 1.000014627692307e+01
0	 3.499999999999999e+01	 4.437499999999999e+01	 1.000014550769230e+01
0	 3.499999999999999e+01	 4.499999999999999e+01	 1.000014067692308e+01
0	 3.499999999999999e+01	 4.562499999999999e+01	 1.000013178461538e+01
0	 3.499999999999999e+01	 4.624999999999999e+01	 1.000011883076924e+01
0	 3.499999999999998e+01	 4.687499999999999e+01	 1.000010181538462e+01
0	 3.499999999999999e+01	 4.749999999999999e+01	 1.000008073846154e+01
0	 3.499999999999998e+01	 4.812499999999998e+01	 1.000005560000000e+01
0	 3.499999999999999e+01	 4.874999999999999e+01	 1.000002640000001e+01
0	 3.499999999999999e+01	 4.937499999999999e+01	 9.999993138461534e+00
0	 3.499999999999999e+01	 5.000000000000000e+01	 9.999955815384638e+00
0	 3.562499999999999e+01	 4.374999999999999e+01	 1.000013818461539e+01
0	 3.562499999999998e+01	 4.437499999999999e+01	 1.000013781538461e+01
0	 3.562499999999998e+01	 4.499999999999999e+01	 1.000013347692308e+01
0	 3.562499999999999e+01	 4.562499999999999e+01	 1.000012516923077e+01
0	 3.562499999999999e+01	 4.624999999999999e+01	 1.000011289230771e+01
0	 3.562499999999998e+01	 4.687499999999999e+01	 1.000009664615385e+01
0	 3.562499999999999e+01	 4.749999999999999e+01	 1.000007643076922e+01
0	 3.562499999999999e+01	 4.812499999999999e+01	 1.000005224615386e+01
0	 3.562499999999999e+01	 4.874999999999998e+01	 1.000002409230770e+01
0	 3.562499999999999e+01	 4.937499999999999e+01	 9.999991969230756e+00
0	 3.562499999999999e+01	 5.000000000000001e+01	 9.999955876923076e+00
0	 3.624999999999998e+01	 4.375000000000000e+01	 1.000012879999999e+01
0	 3.624999999999998e+01	 4.437500000000000e+01	 1.000012861538462e+01
0	 3.624999999999999e+01	 4.499999999999999e+01	 1.000012455384615e+01
0	 3.624999999999999e+01	 4.562500000000000e+01	 1.000011661538462e+01
0	 3.624999999999998e+01	 4.624999999999999e+01	 1.000010480000001e+01
0	 3.624999999999999e+01	 4.687499999999999e+01	 1.000008910769231e+01
0	 3.624999999999999e+01	 4.749999999999999e+01	 1.000006953846153e+01
0	 3.624999999999999e+01	 4.812499999999999e+01	 1.000004609230770e+01
0	 3.624999999999999e+01	 4.874999999999998e+01	 1.000001876923077e+01
0	 3.624999999999999e+01	 4.937499999999999e+01	 9.999987569230765e+00
0	 3.624999999999998e+01	 5.000000000000000e+01	 9.999952492307720e+00
0	 3.687499999999998e+01	 4.375000000000000e+01	 1.000011812307691e+01
0	 3.687499999999999e+01	 4.437500000000000e+01	 1.000011790769231e+01
0	 3.687499999999998e+01	 4.499999999999999e+01	 1.000011390769230e+01
0	 3.687499999999999e+01	 4.562500000000000e+01	 1.000010612307692e+01
0	 3.687499999999999e+01	 4.624999999999999e+01	 1.000009455384616e+01
0	 3.687499999999998e+01	 4.687499999999999e+01	 1.000007920000001e+01
0	 3.687499999999998e+01	 4.749999999999999e+01	 1.000006006153846e+01
0	 3.687499999999998e+01	 4.812499999999999e+01	 1.000003713846155e+01
0	 3.687499999999998e+01	 4.874999999999998e+01	 1.000001043076924e+01
0	 3.687499999999999e+01	 4.937499999999998e+01	 9.999979938461554e+00
0	 3.687499999999998e+01	 5.000000000000000e+01	 9.999945661538469e+00
0	 3.750000000000000e+01	 4.375000000000000e+01	 1.000010615384615e+01
0	 3.750000000000000e+01	 4.437500000000000e+01	 1.000010569230769e+01
0	 3.749999999999999e+01	 4.499999999999999e+01	 1.000010153846153e+01
0	 3.749999999999999e+01	 4.562499999999999e+01	 1.000009369230770e+01
0	 3.750000000000001e+01	 4.624999999999999e+01	 1.000008215384615e+01
0	 3.750000000000000e+01	 4.687499999999999e+01	 1.000006692307693e+01
0	 3.750000000000000e+01	 4.749999999999999e+01	 1.000004800000001e+01
0	 3.750000000000000e+01	 4.812499999999999e+01	 1.000002538461541e+01
0	 3.750000000000001e+01	 4.874999999999999e+01	 9.999999076923078e+00
0	 3.750000000000000e+01	 4.937499999999999e+01	 9.999969076923062e+00
0	 3.750000000000000e+01	 5.000000000000000e+01	 9.999935384615394e+00
0	 3.750000000000000e+01	 0.000000000000000e+00	 1.000069046153846e+01
0	 3.750000000000000e+01	 6.250000000000000e-01	 1.000074716923077e+01
0	 3.750000000000000e+01	 1.250000000000000e+00	 1.000080156923077e+01
0	 3.750000000000000e+01	 1.875000000000000e+00	 1.000085366153846e+01
0	 3.750000000000001e+01	 2.500000000000000e+00	 1.000090344615384e+01
0	 3.750000000000000e+01	 3.125000000000000e+00	 1.000095092307692e+01
0	 3.750000000000000e+01	 3.750000000000000e+00	 1.000099609230769e+01
0	 3.750000000000000e+01	 4.375000000000000e+00	 1.000103895384615e+01
0	 3.750000000000000e+01	 5.000000000000000e+00	 1.000107950769230e+01
0	 3.750000000000000e+01	 5.624999999999999e+00	 1.000111775384615e+01
0	 3.750000000000000e+01	 6.250000000000000e+00	 1.000115369230769e+01
0	 3.812500000000000e+01	 0.000000000000000e+00	 1.000060574769231e+01
0	 3.812500000000000e+01	 6.249999999999999e-01	 1.000064974692308e+01
0	 3.812499999999999e+01	 1.250000000000000e+00	 1.000069136461538e+01
0	 3.812500000000001e+01	 1.875000000000000e+00	 1.000073060076923e+01
0	 3.812500000000000e+01	 2.500000000000000e+00	 1.000076745538461e+01
0	 3.812500000000001e+01	 3.125000000000000e+00	 1.000080192846153e+01
0	 3.812500000000000e+01	 3.750000000000000e+00	 1.000083402000000e+01
0	 3.812500000000000e+01	 4.375000000000001e+00	 1.000086373000000e+01
0	 3.812500000000001e+01	 5.000000000000000e+00	 1.000089105846154e+01
0	 3.812500000000000e+01	 5.625000000000000e+00	 1.000091600538461e+01
0	 3.812500000000000e+01	 6.250000000000000e+00	 1.000093857076923e+01
0	 3.874999999999999e+01	 0.000000000000000e+00	 1.000050742153846e+01
0	 3.875000000000000e+01	 6.250000000000001e-01	 1.000054092000000e+01
0	 3.874999999999999e+01	 1.250000000000000e+00	 1.000057196307692e+01
0	 3.874999999999999e+01	 1.875000000000000e+00	 1.000060055076923e+01
0	 3.875000000000000e+01	 2.500000000000000e+00	 1.000062668307692e+01
0	 3.874999999999999e+01	 3.125000000000000e+00	 1.000065036000000e+01
0	 3.874999999999999e+01	 3.750000000000001e+00	 1.000067158153846e+01
0	 3.874999999999999e+01	 4.374999999999999e+00	 1.000069034769231e+01
0	 3.875000000000000e+01	 5.000000000000000e+00	 1.000070665846154e+01
0	 3.874999999999999e+01	 5.624999999999999e+00	 1.000072051384615e+01
0	 3.875000000000000e+01	 6.250000000000000e+00	 1.000073191384615e+01
0	 3.937499999999999e+01	 0.000000000000000e+00	 1.000039548307692e+01
0	 3.937499999999999e+01	 6.250000000000000e-01	 1.000042068846154e+01
0	 3.937499999999999e+01	 1.250000000000000e+00	 1.000044336461538e+01
0	 3.937500000000000e+01	 1.875000000000000e+00	 1.000046351153846e+01
0	 3.937499999999999e+01	 2.500000000000001e+00	 1.000048112923077e+01
0	 3.937500000000000e+01	 3.125000000000000e+00	 1.000049621769231e+01
0	 3.937499999999999e+01	 3.750000000000000e+00	 1.000050877692307e+01
0	 3.937499999999999e+01	 4.375000000000000e+00	 1.000051880692308e+01
0	 3.937499999999999e+01	 4.999999999999998e+00	 1.000052630769231e+01
0	 3.937500000000000e+01	 5.625000000000001e+00	 1.000053127923077e+01
0	 3.937499999999999e+01	 6.249999999999999e+00	 1.000053372153846e+01
0	 3.999999999999999e+01	 0.000000000000000e+00	 1.000026993230769e+01
0	 3.999999999999999e+01	 6.249999999999999e-01	 1.000028905230769e+01
0	 3.999999999999999e+01	 1.250000000000000e+00	 1.000030556923077e+01
0	 3.999999999999999e+01	 1.875000000000000e+00	 1.000031948307692e+01
0	 3.999999999999999e+01	 2.500000000000000e+00	 1.000033079384615e+01
0	 4.000000000000000e+01	 3.125000000000000e+00	 1.000033950153846e+01
0	 3.999999999999999e+01	 3.750000000000000e+00	 1.000034560615384e+01
0	 3.999999999999999e+01	 4.375000000000001e+00	 1.000034910769230e+01
0	 3.999999999999999e+01	 5.000000000000000e+00	 1.000035000615384e+01
0	 3.999999999999999e+01	 5.625000000000000e+00	 1.000034830153846e+01
0	 3.999999999999999e+01	 6.250000000000000e+00	 1.000034399384615e+01
0	 4.062499999999999e+01	 0.000000000000000e+00	 1.000013076923077e+01
0	 4.062499999999998e+01	 6.249999999999998e-01	 1.000014601153846e+01
0	 4.062499999999999e+01	 1.250000000000000e+00	 1.000015857692308e+01
0	 4.062499999999999e+01	 1.875000000000000e+00	 1.000016846538461e+01
0	 4.062499999999999e+01	 2.500000000000000e+00	 1.000017567692307e+01
0	 4.062499999999999e+01	 3.125000000000000e+00	 1.000018021153846e+01
0	 4.062499999999999e+01	 3.750000000000000e+00	 1.000018206923077e+01
0	 4.062499999999999e+01	 4.375000000000000e+00	 1.000018125000000e+01
0	 4.062499999999999e+01	 4.999999999999998e+00	 1.000017775384615e+01
0	 4.062500000000001e+01	 5.625000000000001e+00	 1.000017158076923e+01
0	 4.062499999999999e+01	 6.249999999999999e+00	 1.000016273076923e+01
0	 4.124999999999999e+01	 0.000000000000000e+00	 9.999977993846155e+00
0	 4.124999999999998e+01	 6.250000000000001e-01	 9.999991566153849e+00
0	 4.124999999999998e+01	 1.250000000000000e+00	 1.000000238769230e+01
0	 4.124999999999998e+01	 1.875000000000000e+00	 1.000001045846154e+01
0	 4.124999999999999e+01	 2.500000000000000e+00	 1.000001577846153e+01
0	 4.124999999999999e+01	 3.125000000000000e+00	 1.000001834769230e+01
0	 4.124999999999999e+01	 3.750000000000000e+00	 1.000001816615384e+01
0	 4.124999999999999e+01	 4.375000000000001e+00	 1.000001523384615e+01
0	 4.124999999999999e+01	 4.999999999999999e+00	 1.000000955076922e+01
0	 4.124999999999999e+01	 5.624999999999999e+00	 1.000000111692307e+01
0	 4.124999999999999e+01	 6.250000000000000e+00	 9.999989932307694e+00
0	 4.187499999999999e+01	 0.000000000000000e+00	 9.999811606153846e+00
0	 4.187499999999999e+01	 6.250000000000000e-01	 9.999825716153847e+00
0	 4.187499999999999e+01	 1.250000000000000e+00	 9.999837001538456e+00
0	 4.187499999999999e+01	 1.875000000000000e+00	 9.999845462307690e+00
0	 4.187499999999999e+01	 2.500000000000000e+00	 9.999851098461535e+00
0	 4.187499999999999e+01	 3.125000000000000e+00	 9.999853909999995e+00
0	 4.187499999999998e+01	 3.750000000000000e+00	 9.999853896923078e+00
0	 4.187499999999999e+01	 4.375000000000000e+00	 9.999851059230771e+00
0	 4.187499999999999e+01	 5.000000000000000e+00	 9.999845396923075e+00
0	 4.187499999999999e+01	 5.625000000000000e+00	 9.999836909999997e+00
0	 4.187499999999998e+01	 6.250000000000000e+00	 9.999825598461538e+00
0	 4.249999999999998e+01	 0.000000000000000e+00	 9.999631606153844e+00
0	 4.249999999999999e+01	 6.250000000000000e-01	 9.999648461538463e+00
0	 4.249999999999999e+01	 1.250000000000000e+00	 9.999662418461538e+00
0	 4.249999999999999e+01	 1.875000000000001e+00	 9.999673476923075e+00
0	 4.249999999999997e+01	 2.500000000000000e+00	 9.999681636923073e+00
0	 4.249999999999996e+01	 3.124999999999999e+00	 9.999686898461537e+00
0	 4.249999999999999e+01	 3.750000000000000e+00	 9.999689261538460e+00
0	 4.249999999999999e+01	 4.375000000000000e+00	 9.999688726153842e+00
0	 4.249999999999999e+01	 4.999999999999999e+00	 9.999685292307696e+00
0	 4.249999999999999e+01	 5.625000000000000e+00	 9.999678959999999e+00
0	 4.249999999999997e+01	 6.250000000000000e+00	 9.999669729230771e+00
0	 4.312499999999998e+01	 0.000000000000000e+00	 9.999437993846154e+00
0	 4.312499999999998e+01	 6.250000000000000e-01	 9.999459802307687e+00
0	 4.312499999999998e+01	 1.250000000000000e+00	 9.999478638461538e+00
0	 4.312499999999999e+01	 1.875000000000000e+00	 9.999494502307689e+00
0	 4.312499999999997e+01	 2.500000000000000e+00	 9.999507393846150e+00
0	 4.312499999999998e+01	 3.125000000000000e+00	 9.999517313076923e+00
0	 4.312499999999998e+01	 3.750000000000000e+00	 9.999524260000001e+00
0	 4.312499999999998e+01	 4.375000000000000e+00	 9.999528234615385e+00
0	 4.312499999999998e+01	 4.999999999999999e+00	 9.999529236923074e+00
0	 4.312499999999997e+01	 5.624999999999999e+00	 9.999527266923076e+00
0	 4.312499999999997e+01	 6.250000000000000e+00	 9.999522324615386e+00
0	 4.375000000000000e+01	 0.000000000000000e+00	 9.999230769230770e+00
0	 4.375000000000000e+01	 6.250000000000000e-01	 9.999259738461539e+00
0	 4.375000000000000e+01	 1.250000000000000e+00	 9.999285661538458e+00
0	 4.375000000000000e+01	 1.875000000000000e+00	 9.999308538461534e+00
0	 4.375000000000000e+01	 2.500000000000000e+00	 9.999328369230767e+00
0	 4.375000000000000e+01	 3.125000000000000e+00	 9.999345153846154e+00
0	 4.375000000000000e+01	 3.750000000000000e+00	 9.999358892307690e+00
0	 4.375000000000000e+01	 4.375000000000000e+00	 9.999369584615383e+00
0	 4.375000000000000e+01	 5.000000000000000e+00	 9.999377230769234e+00
0	 4.375000000000000e+01	 5.624999999999999e+00	 9.999381830769231e+00
0	 4.375000000000000e+01	 6.250000000000000e+00	 9.999383384615381e+00
0	 3.750000000000000e+01	 6.250000000000000e+00	 1.000115369230769e+01
0	 3.750000000000000e+01	 6.875000000000000e+00	 1.000114670769231e+01
0	 3.750000000000000e+01	 7.500000000000002e+00	 1.000114212307692e+01
0	 3.750000000000001e+01	 8.125000000000004e+00	 1.000113993846153e+01
0	 3.750000000000000e+01	 8.750000000000004e+00	 1.000114015384615e+01
0	 3.750000000000001e+01	 9.375000000000004e+00	 1.000114276923077e+01
0	 3.750000000000000e+01	 1.000000000000000e+01	 1.000114778461538e+01
0	 3.750000000000000e+01	 1.062500000000000e+01	 1.000115520000000e+01
0	 3.750000000000001e+01	 1.125000000000001e+01	 1.000116501538461e+01
0	 3.750000000000000e+01	 1.187500000000001e+01	 1.000117723076923e+01
0	 3.750000000000000e+01	 1.250000000000000e+01	 1.000119184615385e+01
0	 3.812500000000000e+01	 6.250000000000000e+00	 1.000093857076923e+01
0	 3.812499999999999e+01	 6.874999999999999e+00	 1.000094640153846e+01
0	 3.812500000000001e+01	 7.500000000000002e+00	 1.000095631846153e+01
0	 3.812500000000001e+01	 8.125000000000002e+00	 1.000096832153846e+01
0	 3.812500000000000e+01	 8.750000000000004e+00	 1.000098241076923e+01
0	 3.812500000000001e+01	 9.375000000000004e+00	 1.000099858615384e+01
0	 3.812499999999999e+01	 1.000000000000001e+01	 1.000101684769231e+01
0	 3.812500000000001e+01	 1.062500000000001e+01	 1.000103719538461e+01
0	 3.812500000000001e+01	 1.125000000000001e+01	 1.000105962923077e+01
0	 3.812499999999999e+01	 1.187500000000000e+01	 1.000108414923077e+01
0	 3.812500000000000e+01	 1.250000000000000e+01	 1.000111075538461e+01
0	 3.875000000000000e+01	 6.250000000000000e+00	 1.000073191384615e+01
0	 3.875000000000000e+01	 6.875000000000002e+00	 1.000075266461539e+01
0	 3.875000000000001e+01	 7.500000000000002e+00	 1.000077518769231e+01
0	 3.874999999999999e+01	 8.125000000000002e+00	 1.000079948307692e+01
0	 3.875000000000000e+01	 8.750000000000002e+00	 1.000082555076923e+01
0	 3.875000000000001e+01	 9.375000000000004e+00	 1.000085339076923e+01
0	 3.875000000000000e+01	 1.000000000000001e+01	 1.000088300307692e+01
0	 3.874999999999999e+01	 1.062500000000000e+01	 1.000091438769231e+01
0	 3.875000000000000e+01	 1.125000000000001e+01	 1.000094754461539e+01
0	 3.874999999999999e+01	 1.187500000000000e+01	 1.000098247384615e+01
0	 3.875000000000000e+01	 1.250000000000000e+01	 1.000101917538461e+01
0	 3.937499999999999e+01	 6.249999999999999e+00	 1.000053372153846e+01
0	 3.937500000000000e+01	 6.875000000000001e+00	 1.000056549692308e+01
0	 3.937500000000000e+01	 7.500000000000000e+00	 1.000059873076922e+01
0	 3.937500000000000e+01	 8.125000000000002e+00	 1.000063342307692e+01
0	 3.937499999999999e+01	 8.750000000000004e+00	 1.000066957384615e+01
0	 3.937499999999999e+01	 9.375000000000004e+00	 1.000070718307692e+01
0	 3.937499999999998e+01	 1.000000000000000e+01	 1.000074625076923e+01
0	 3.937499999999999e+01	 1.062500000000000e+01	 1.000078677692307e+01
0	 3.937499999999999e+01	 1.125000000000000e+01	 1.000082876153846e+01
0	 3.937499999999999e+01	 1.187500000000000e+01	 1.000087220461538e+01
0	 3.937499999999999e+01	 1.250000000000000e+01	 1.000091710615385e+01
0	 3.999999999999999e+01	 6.250000000000000e+00	 1.000034399384615e+01
0	 3.999999999999999e+01	 6.875000000000002e+00	 1.000038489846154e+01
0	 3.999999999999999e+01	 7.499999999999999e+00	 1.000042694769231e+01
0	 3.999999999999999e+01	 8.125000000000002e+00	 1.000047014153846e+01
0	 3.999999999999999e+01	 8.750000000000004e+00	 1.000051448000000e+01
0	 3.999999999999999e+01	 9.375000000000004e+00	 1.000055996307692e+01
0	 3.999999999999999e+01	 1.000000000000001e+01	 1.000060659076922e+01
0	 3.999999999999999e+01	 1.062500000000001e+01	 1.000065436307692e+01
0	 3.999999999999999e+01	 1.125000000000001e+01	 1.000070328000000e+01
0	 3.999999999999999e+01	 1.187500000000001e+01	 1.000075334153846e+01
0	 3.999999999999999e+01	 1.250000000000000e+01	 1.000080454769230e+01
0	 4.062499999999999e+01	 6.249999999999999e+00	 1.000016273076923e+01
0	 4.062499999999999e+01	 6.875000000000000e+00	 1.000021086923077e+01
0	 4.062499999999999e+01	 7.500000000000001e+00	 1.000025983846154e+01
0	 4.062499999999999e+01	 8.125000000000002e+00	 1.000030963846154e+01
0	 4.062500000000000e+01	 8.750000000000004e+00	 1.000036026923077e+01
0	 4.062499999999999e+01	 9.375000000000002e+00	 1.000041173076923e+01
0	 4.062499999999999e+01	 1.000000000000000e+01	 1.000046402307692e+01
0	 4.062500000000000e+01	 1.062500000000001e+01	 1.000051714615384e+01
0	 4.062499999999999e+01	 1.125000000000001e+01	 1.000057110000000e+01
0	 4.062499999999999e+01	 1.187500000000001e+01	 1.000062588461538e+01
0	 4.062499999999999e+01	 1.250000000000000e+01	 1.000068150000000e+01
0	 4.124999999999999e+01	 6.250000000000000e+00	 9.999989932307694e+00
0	 4.124999999999997e+01	 6.874999999999998e+00	 1.000004340923077e+01
0	 4.124999999999999e+01	 7.500000000000002e+00	 1.000009740307692e+01
0	 4.124999999999998e+01	 8.125000000000000e+00	 1.000015191384615e+01
0	 4.124999999999999e+01	 8.750000000000002e+00	 1.000020694153846e+01
0	 4.124999999999999e+01	 9.375000000000004e+00	 1.000026248615384e+01
0	 4.124999999999998e+01	 1.000000000000000e+01	 1.000031854769230e+01
0	 4.124999999999999e+01	 1.062500000000001e+01	 1.000037512615384e+01
0	 4.124999999999999e+01	 1.125000000000001e+01	 1.000043222153845e+01
0	 4.124999999999998e+01	 1.187500000000000e+01	 1.000048983384615e+01
0	 4.124999999999999e+01	 1.250000000000000e+01	 1.000054796307692e+01
0	 4.187499999999998e+01	 6.250000000000000e+00	 9.999825598461538e+00
0	 4.187499999999998e+01	 6.875000000000000e+00	 9.999882518461533e+00
0	 4.187499999999999e+01	 7.500000000000003e+00	 9.999939641538459e+00
0	 4.187499999999998e+01	 8.125000000000000e+00	 9.999996967692308e+00
0	 4.187500000000000e+01	 8.750000000000005e+00	 1.000005449692308e+01
0	 4.187499999999999e+01	 9.375000000000005e+00	 1.000011222923077e+01
0	 4.187499999999999e+01	 1.000000000000000e+01	 1.000017016461538e+01
0	 4.187499999999999e+01	 1.062500000000001e+01	 1.000022830307692e+01
0	 4.187499999999999e+01	 1.125000000000000e+01	 1.000028664461538e+01
0	 4.187499999999999e+01	 1.187500000000001e+01	 1.000034518923077e+01
0	 4.187499999999998e+01	 1.250000000000000e+01	 1.000040393692308e+01
0	 4.249999999999997e+01	 6.250000000000000e+00	 9.999669729230771e+00
0	 4.249999999999999e+01	 6.875000000000000e+00	 9.999728196923074e+00
0	 4.249999999999998e+01	 7.500000000000000e+00	 9.999786553846151e+00
0	 4.249999999999998e+01	 8.125000000000004e+00	 9.999844799999996e+00
0	 4.249999999999999e+01	 8.750000000000004e+00	 9.999902935384611e+00
0	 4.249999999999999e+01	 9.375000000000004e+00	 9.999960959999997e+00
0	 4.249999999999999e+01	 1.000000000000001e+01	 1.000001887384615e+01
0	 4.249999999999999e+01	 1.062500000000000e+01	 1.000007667692307e+01
0	 4.249999999999999e+01	 1.125000000000000e+01	 1.000013436923077e+01
0	 4.249999999999999e+01	 1.187500000000001e+01	 1.000019195076923e+01
0	 4.249999999999997e+01	 1.250000000000000e+01	 1.000024942153846e+01
0	 4.312499999999997e+01	 6.250000000000000e+00	 9.999522324615386e+00
0	 4.312499999999999e+01	 6.875000000000003e+00	 9.999580444615381e+00
0	 4.312499999999998e+01	 7.500000000000001e+00	 9.999638139999995e+00
0	 4.312499999999998e+01	 8.125000000000000e+00	 9.999695410769228e+00
0	 4.312499999999998e+01	 8.750000000000004e+00	 9.999752256923079e+00
0	 4.312499999999998e+01	 9.375000000000004e+00	 9.999808678461537e+00
0	 4.312499999999999e+01	 1.000000000000001e+01	 9.999864675384611e+00
0	 4.312499999999998e+01	 1.062500000000000e+01	 9.999920247692303e+00
0	 4.312499999999998e+01	 1.125000000000001e+01	 9.999975395384611e+00
0	 4.312499999999998e+01	 1.187500000000000e+01	 1.000003011846153e+01
0	 4.312499999999997e+01	 1.250000000000000e+01	 1.000008441692308e+01
0	 4.375000000000000e+01	 6.250000000000000e+00	 9.999383384615381e+00
0	 4.375000000000000e+01	 6.875000000000000e+00	 9.999439261538464e+00
0	 4.375000000000000e+01	 7.500000000000002e+00	 9.999494400000000e+00
0	 4.375000000000000e+01	 8.125000000000004e+00	 9.999548800000001e+00
0	 4.375000000000000e+01	 8.750000000000004e+00	 9.999602461538462e+00
0	 4.375000000000000e+01	 9.375000000000004e+00	 9.999655384615378e+00
0	 4.375000000000000e+01	 1.000000000000000e+01	 9.999707569230772e+00
0	 4.375000000000000e+01	 1.062500000000000e+01	 9.999759015384615e+00
0	 4.375000000000001e+01	 1.125000000000001e+01	 9.999809723076924e+00
0	 4.375000000000000e+01	 1.187500000000001e+01	 9.999859692307689e+00
0	 4.375000000000000e+01	 1.250000000000000e+01	 9.999908923076919e+00
0	 3.750000000000000e+01	 1.250000000000000e+01	 1.000119184615385e+01
0	 3.750000000000000e+01	 1.312500000000000e+01	 1.000124304615385e+01
0	 3.750000000000000e+01	 1.375000000000000e+01	 1.000129286153846e+01
0	 3.750000000000001e+01	 1.437500000000000e+01	 1.000134129230769e+01
0	 3.750000000000000e+01	 1.500000000000000e+01	 1.000138833846154e+01
0	 3.750000000000001e+01	 1.562500000000000e+01	 1.000143400000000e+01
0	 3.750000000000000e+01	 1.625000000000000e+01	 1.000147827692308e+01
0	 3.750000000000000e+01	 1.687500000000000e+01	 1.000152116923077e+01
0	 3.750000000000001e+01	 1.750000000000001e+01	 1.000156267692308e+01
0	 3.750000000000000e+01	 1.812500000000001e+01	 1.000160280000000e+01
0	 3.750000000000000e+01	 1.875000000000000e+01	 1.000164153846154e+01
0	 3.812500000000000e+01	 1.250000000000000e+01	 1.000111075538461e+01
0	 3.812499999999999e+01	 1.312500000000000e+01	 1.000114876753846e+01
0	 3.812500000000001e+01	 1.375000000000000e+01	 1.000118573661539e+01
0	 3.812500000000001e+01	 1.437500000000000e+01	 1.000122166261538e+01
0	 3.812500000000000e+01	 1.500000000000000e+01	 1.000125654553846e+01
0	 3.812500000000001e+01	 1.562500000000000e+01	 1.000129038538461e+01
0	 3.812499999999999e+01	 1.625000000000001e+01	 1.000132318215385e+01
0	 3.812500000000001e+01	 1.687500000000000e+01	 1.000135493584616e+01
0	 3.812500000000001e+01	 1.750000000000000e+01	 1.000138564646154e+01
0	 3.812499999999999e+01	 1.812500000000000e+01	 1.000141531400000e+01
0	 3.812500000000000e+01	 1.875000000000000e+01	 1.000144393846154e+01
0	 3.875000000000000e+01	 1.250000000000000e+01	 1.000101917538461e+01
0	 3.875000000000000e+01	 1.312500000000000e+01	 1.000104629784614e+01
0	 3.875000000000001e+01	 1.375000000000000e+01	 1.000107271876923e+01
0	 3.874999999999999e+01	 1.437500000000000e+01	 1.000109843815384e+01
0	 3.875000000000000e+01	 1.500000000000000e+01	 1.000112345600000e+01
0	 3.875000000000001e+01	 1.562500000000001e+01	 1.000114777230769e+01
0	 3.875000000000000e+01	 1.625000000000001e+01	 1.000117138707692e+01
0	 3.874999999999999e+01	 1.687500000000000e+01	 1.000119430030769e+01
0	 3.875000000000000e+01	 1.750000000000001e+01	 1.000121651200000e+01
0	 3.874999999999999e+01	 1.812500000000000e+01	 1.000123802215384e+01
0	 3.875000000000000e+01	 1.875000000000000e+01	 1.000125883076924e+01
0	 3.937499999999999e+01	 1.250000000000000e+01	 1.000091710615385e+01
0	 3.937500000000000e+01	 1.312500000000000e+01	 1.000093563707692e+01
0	 3.937500000000000e+01	 1.375000000000000e+01	 1.000095380800000e+01
0	 3.937500000000000e+01	 1.437500000000000e+01	 1.000097161892308e+01
0	 3.937499999999999e+01	 1.500000000000000e+01	 1.000098906984615e+01
0	 3.937499999999999e+01	 1.562500000000000e+01	 1.000100616076923e+01
0	 3.937499999999998e+01	 1.625000000000000e+01	 1.000102289169231e+01
0	 3.937499999999999e+01	 1.687500000000001e+01	 1.000103926261538e+01
0	 3.937499999999999e+01	 1.750000000000000e+01	 1.000105527353846e+01
0	 3.937499999999999e+01	 1.812500000000000e+01	 1.000107092446154e+01
0	 3.937499999999999e+01	 1.875000000000000e+01	 1.000108621538462e+01
0	 3.999999999999999e+01	 1.250000000000000e+01	 1.000080454769230e+01
0	 3.999999999999999e+01	 1.312500000000000e+01	 1.000081678523076e+01
0	 3.999999999999999e+01	 1.375000000000000e+01	 1.000082900430769e+01
0	 3.999999999999999e+01	 1.437500000000000e+01	 1.000084120492307e+01
0	 3.999999999999999e+01	 1.500000000000000e+01	 1.000085338707692e+01
0	 3.999999999999999e+01	 1.562500000000000e+01	 1.000086555076923e+01
0	 3.999999999999999e+01	 1.625000000000000e+01	 1.000087769600000e+01
0	 3.999999999999999e+01	 1.687500000000000e+01	 1.000088982276923e+01
0	 3.999999999999999e+01	 1.750000000000001e+01	 1.000090193107692e+01
0	 3.999999999999999e+01	 1.812500000000000e+01	 1.000091402092308e+01
0	 3.999999999999999e+01	 1.875000000000000e+01	 1.000092609230769e+01
0	 4.062499999999999e+01	 1.250000000000000e+01	 1.000068150000000e+01
0	 4.062499999999999e+01	 1.312500000000000e+01	 1.000068974230769e+01
0	 4.062499999999999e+01	 1.375000000000000e+01	 1.000069830769231e+01
0	 4.062499999999999e+01	 1.437500000000001e+01	 1.000070719615384e+01
0	 4.062500000000000e+01	 1.500000000000000e+01	 1.000071640769231e+01
0	 4.062499999999999e+01	 1.562500000000000e+01	 1.000072594230769e+01
0	 4.062499999999999e+01	 1.625000000000000e+01	 1.000073580000000e+01
0	 4.062500000000000e+01	 1.687500000000001e+01	 1.000074598076923e+01
0	 4.062499999999999e+01	 1.750000000000001e+01	 1.000075648461538e+01
0	 4.062499999999999e+01	 1.812500000000000e+01	 1.000076731153846e+01
0	 4.062499999999999e+01	 1.875000000000000e+01	 1.000077846153846e+01
0	 4.124999999999999e+01	 1.250000000000000e+01	 1.000054796307692e+01
0	 4.124999999999997e+01	 1.312500000000000e+01	 1.000055450830769e+01
0	 4.124999999999999e+01	 1.375000000000000e+01	 1.000056171815384e+01
0	 4.124999999999998e+01	 1.437500000000000e+01	 1.000056959261538e+01
0	 4.124999999999999e+01	 1.500000000000000e+01	 1.000057813169231e+01
0	 4.124999999999999e+01	 1.562500000000001e+01	 1.000058733538461e+01
0	 4.124999999999998e+01	 1.625000000000000e+01	 1.000059720369231e+01
0	 4.124999999999999e+01	 1.687500000000000e+01	 1.000060773661538e+01
0	 4.124999999999999e+01	 1.750000000000001e+01	 1.000061893415385e+01
0	 4.124999999999998e+01	 1.812500000000000e+01	 1.000063079630769e+01
0	 4.124999999999999e+01	 1.875000000000000e+01	 1.000064332307692e+01
0	 4.187499999999998e+01	 1.250000000000000e+01	 1.000040393692308e+01
0	 4.187499999999998e+01	 1.312500000000000e+01	 1.000041108323077e+01
0	 4.187499999999999e+01	 1.375000000000001e+01	 1.000041923569231e+01
0	 4.187499999999998e+01	 1.437500000000000e+01	 1.000042839430769e+01
0	 4.187500000000000e+01	 1.500000000000001e+01	 1.000043855907692e+01
0	 4.187499999999999e+01	 1.562500000000001e+01	 1.000044973000000e+01
0	 4.187499999999999e+01	 1.625000000000001e+01	 1.000046190707691e+01
0	 4.187499999999999e+01	 1.687500000000001e+01	 1.000047509030769e+01
0	 4.187499999999999e+01	 1.750000000000000e+01	 1.000048927969230e+01
0	 4.187499999999999e+01	 1.812500000000001e+01	 1.000050447523077e+01
0	 4.187499999999998e+01	 1.875000000000000e+01	 1.000052067692307e+01
0	 4.249999999999997e+01	 1.250000000000000e+01	 1.000024942153846e+01
0	 4.249999999999999e+01	 1.312500000000000e+01	 1.000025946707691e+01
0	 4.249999999999998e+01	 1.375000000000000e+01	 1.000027086030769e+01
0	 4.249999999999998e+01	 1.437500000000000e+01	 1.000028360123077e+01
0	 4.249999999999999e+01	 1.500000000000000e+01	 1.000029768984615e+01
0	 4.249999999999999e+01	 1.562500000000000e+01	 1.000031312615384e+01
0	 4.249999999999999e+01	 1.625000000000001e+01	 1.000032991015384e+01
0	 4.249999999999999e+01	 1.687500000000000e+01	 1.000034804184615e+01
0	 4.249999999999999e+01	 1.750000000000000e+01	 1.000036752123076e+01
0	 4.249999999999999e+01	 1.812500000000001e+01	 1.000038834830769e+01
0	 4.249999999999997e+01	 1.875000000000000e+01	 1.000041052307692e+01
0	 4.312499999999997e+01	 1.250000000000000e+01	 1.000008441692308e+01
0	 4.312499999999999e+01	 1.312500000000000e+01	 1.000009965984615e+01
0	 4.312499999999998e+01	 1.375000000000000e+01	 1.000011659200000e+01
0	 4.312499999999998e+01	 1.437500000000000e+01	 1.000013521338461e+01
0	 4.312499999999998e+01	 1.500000000000000e+01	 1.000015552400000e+01
0	 4.312499999999998e+01	 1.562500000000000e+01	 1.000017752384615e+01
0	 4.312499999999999e+01	 1.625000000000000e+01	 1.000020121292308e+01
0	 4.312499999999998e+01	 1.687500000000000e+01	 1.000022659123077e+01
0	 4.312499999999998e+01	 1.750000000000000e+01	 1.000025365876923e+01
0	 4.312499999999998e+01	 1.812500000000000e+01	 1.000028241553845e+01
0	 4.312499999999997e+01	 1.875000000000000e+01	 1.000031286153846e+01
0	 4.375000000000000e+01	 1.250000000000000e+01	 9.999908923076919e+00
0	 4.375000000000000e+01	 1.312500000000000e+01	 9.999931661538467e+00
0	 4.375000000000000e+01	 1.375000000000000e+01	 9.999956430769233e+00
0	 4.375000000000000e+01	 1.437500000000000e+01	 9.999983230769228e+00
0	 4.375000000000000e+01	 1.500000000000000e+01	 1.000001206153846e+01
0	 4.375000000000000e+01	 1.562500000000000e+01	 1.000004292307692e+01
0	 4.375000000000000e+01	 1.625000000000000e+01	 1.000007581538461e+01
0	 4.375000000000000e+01	 1.687500000000000e+01	 1.000011073846154e+01
0	 4.375000000000001e+01	 1.750000000000001e+01	 1.000014769230769e+01
0	 4.375000000000000e+01	 1.812500000000001e+01	 1.000018667692308e+01
0	 4.375000000000000e+01	 1.875000000000000e+01	 1.000022769230769e+01
0	 3.750000000000000e+01	 1.875000000000000e+01	 1.000164153846154e+01
0	 3.750000000000000e+01	 1.937500000000000e+01	 1.000157823076923e+01
0	 3.750000000000000e+01	 2.000000000000000e+01	 1.000152092307692e+01
0	 3.750000000000001e+01	 2.062500000000000e+01	 1.000146961538462e+01
0	 3.750000000000000e+01	 2.125000000000000e+01	 1.000142430769231e+01
0	 3.750000000000001e+01	 2.187500000000000e+01	 1.000138500000000e+01
0	 3.750000000000000e+01	 2.250000000000000e+01	 1.000135169230769e+01
0	 3.750000000000000e+01	 2.312500000000001e+01	 1.000132438461539e+01
0	 3.750000000000001e+01	 2.375000000000001e+01	 1.000130307692308e+01
0	 3.750000000000000e+01	 2.437500000000001e+01	 1.000128776923078e+01
0	 3.750000000000000e+01	 2.500000000000000e+01	 1.000127846153846e+01
0	 3.812500000000000e+01	 1.875000000000000e+01	 1.000144393846154e+01
0	 3.812499999999999e+01	 1.937500000000000e+01	 1.000139558307692e+01
0	 3.812500000000001e+01	 2.000000000000000e+01	 1.000135259076923e+01
0	 3.812500000000001e+01	 2.062500000000000e+01	 1.000131496153847e+01
0	 3.812500000000000e+01	 2.125000000000001e+01	 1.000128269538462e+01
0	 3.812500000000001e+01	 2.187500000000000e+01	 1.000125579230769e+01
0	 3.812499999999999e+01	 2.250000000000000e+01	 1.000123425230769e+01
0	 3.812500000000001e+01	 2.312500000000000e+01	 1.000121807538461e+01
0	 3.812500000000001e+01	 2.375000000000000e+01	 1.000120726153846e+01
0	 3.812499999999999e+01	 2.437500000000000e+01	 1.000120181076923e+01
0	 3.812500000000000e+01	 2.500000000000000e+01	 1.000120172307692e+01
0	 3.875000000000000e+01	 1.875000000000000e+01	 1.000125883076924e+01
0	 3.875000000000000e+01	 1.937500000000001e+01	 1.000122409230770e+01
0	 3.875000000000001e+01	 2.000000000000000e+01	 1.000119408000000e+01
0	 3.874999999999999e+01	 2.062500000000000e+01	 1.000116879384615e+01
0	 3.875000000000000e+01	 2.125000000000000e+01	 1.000114823384615e+01
0	 3.875000000000001e+01	 2.187500000000001e+01	 1.000113240000000e+01
0	 3.875000000000000e+01	 2.250000000000000e+01	 1.000112129230769e+01
0	 3.874999999999999e+01	 2.312500000000001e+01	 1.000111491076923e+01
0	 3.875000000000000e+01	 2.375000000000000e+01	 1.000111325538462e+01
0	 3.874999999999999e+01	 2.437500000000000e+01	 1.000111632615384e+01
0	 3.875000000000000e+01	 2.500000000000000e+01	 1.000112412307691e+01
0	 3.937499999999999e+01	 1.875000000000000e+01	 1.000108621538462e+01
0	 3.937500000000000e+01	 1.937500000000000e+01	 1.000106375846153e+01
0	 3.937500000000000e+01	 2.000000000000000e+01	 1.000104539076923e+01
0	 3.937500000000000e+01	 2.062500000000000e+01	 1.000103111230769e+01
0	 3.937499999999999e+01	 2.125000000000000e+01	 1.000102092307692e+01
0	 3.937499999999999e+01	 2.187500000000001e+01	 1.000101482307692e+01
0	 3.937499999999998e+01	 2.250000000000000e+01	 1.000101281230769e+01
0	 3.937499999999999e+01	 2.312500000000000e+01	 1.000101489076923e+01
0	 3.937499999999999e+01	 2.375000000000001e+01	 1.000102105846154e+01
0	 3.937499999999999e+01	 2.437500000000000e+01	 1.000103131538462e+01
0	 3.937499999999999e+01	 2.500000000000000e+01	 1.000104566153846e+01
0	 3.999999999999999e+01	 1.875000000000000e+01	 1.000092609230769e+01
0	 3.999999999999999e+01	 1.937500000000000e+01	 1.000091458153846e+01
0	 3.999999999999999e+01	 2.000000000000000e+01	 1.000090652307692e+01
0	 3.999999999999999e+01	 2.062500000000000e+01	 1.000090191692307e+01
0	 3.999999999999999e+01	 2.125000000000000e+01	 1.000090076307693e+01
0	 3.999999999999999e+01	 2.187500000000000e+01	 1.000090306153846e+01
0	 3.999999999999999e+01	 2.250000000000001e+01	 1.000090881230769e+01
0	 3.999999999999999e+01	 2.312500000000001e+01	 1.000091801538462e+01
0	 3.999999999999999e+01	 2.375000000000000e+01	 1.000093067076923e+01
0	 3.999999999999999e+01	 2.437500000000001e+01	 1.000094677846154e+01
0	 3.999999999999999e+01	 2.500000000000000e+01	 1.000096633846153e+01
0	 4.062499999999999e+01	 1.875000000000000e+01	 1.000077846153846e+01
0	 4.062499999999999e+01	 1.937500000000000e+01	 1.000077656153846e+01
0	 4.062499999999999e+01	 2.000000000000000e+01	 1.000077747692308e+01
0	 4.062499999999999e+01	 2.062500000000000e+01	 1.000078120769231e+01
0	 4.062500000000000e+01	 2.125000000000000e+01	 1.000078775384616e+01
0	 4.062499999999999e+01	 2.187500000000000e+01	 1.000079711538462e+01
0	 4.062499999999999e+01	 2.250000000000000e+01	 1.000080929230769e+01
0	 4.062500000000000e+01	 2.312500000000001e+01	 1.000082428461538e+01
0	 4.062499999999999e+01	 2.375000000000000e+01	 1.000084209230769e+01
0	 4.062499999999999e+01	 2.437500000000001e+01	 1.000086271538462e+01
0	 4.062499999999999e+01	 2.500000000000000e+01	 1.000088615384615e+01
0	 4.124999999999999e+01	 1.875000000000000e+01	 1.000064332307692e+01
0	 4.124999999999997e+01	 1.937500000000000e+01	 1.000064969846154e+01
0	 4.124999999999999e+01	 2.000000000000000e+01	 1.000065825230769e+01
0	 4.124999999999998e+01	 2.062500000000000e+01	 1.000066898461538e+01
0	 4.124999999999999e+01	 2.125000000000000e+01	 1.000068189538461e+01
0	 4.124999999999999e+01	 2.187500000000000e+01	 1.000069698461538e+01
0	 4.124999999999998e+01	 2.250000000000000e+01	 1.000071425230769e+01
0	 4.124999999999999e+01	 2.312500000000001e+01	 1.000073369846154e+01
0	 4.124999999999999e+01	 2.375000000000001e+01	 1.000075532307692e+01
0	 4.124999999999998e+01	 2.437500000000000e+01	 1.000077912615385e+01
0	 4.124999999999999e+01	 2.500000000000000e+01	 1.000080510769231e+01
0	 4.187499999999998e+01	 1.875000000000000e+01	 1.000052067692307e+01
0	 4.187499999999998e+01	 1.937500000000000e+01	 1.000053399230769e+01
0	 4.187499999999999e+01	 2.000000000000000e+01	 1.000054884923076e+01
0	 4.187499999999998e+01	 2.062500000000000e+01	 1.000056524769231e+01
0	 4.187500000000000e+01	 2.125000000000000e+01	 1.000058318769231e+01
0	 4.187499999999999e+01	 2.187500000000001e+01	 1.000060266923077e+01
0	 4.187499999999999e+01	 2.250000000000000e+01	 1.000062369230769e+01
0	 4.187499999999999e+01	 2.312500000000001e+01	 1.000064625692308e+01
0	 4.187499999999999e+01	 2.375000000000000e+01	 1.000067036307692e+01
0	 4.187499999999999e+01	 2.437500000000001e+01	 1.000069601076923e+01
0	 4.187499999999998e+01	 2.500000000000000e+01	 1.000072320000000e+01
0	 4.249999999999997e+01	 1.875000000000000e+01	 1.000041052307692e+01
0	 4.249999999999999e+01	 1.937500000000000e+01	 1.000042944307692e+01
0	 4.249999999999998e+01	 2.000000000000000e+01	 1.000044926769230e+01
0	 4.249999999999998e+01	 2.062500000000000e+01	 1.000046999692307e+01
0	 4.249999999999999e+01	 2.125000000000000e+01	 1.000049163076923e+01
0	 4.249999999999999e+01	 2.187500000000000e+01	 1.000051416923077e+01
0	 4.249999999999999e+01	 2.250000000000000e+01	 1.000053761230769e+01
0	 4.249999999999999e+01	 2.312500000000000e+01	 1.000056196000000e+01
0	 4.249999999999999e+01	 2.375000000000000e+01	 1.000058721230769e+01
0	 4.249999999999999e+01	 2.437500000000001e+01	 1.000061336923077e+01
0	 4.249999999999997e+01	 2.500000000000000e+01	 1.000064043076923e+01
0	 4.312499999999997e+01	 1.875000000000000e+01	 1.000031286153846e+01
0	 4.312499999999999e+01	 1.937500000000000e+01	 1.000033605076923e+01
0	 4.312499999999998e+01	 2.000000000000000e+01	 1.000035950769230e+01
0	 4.312499999999998e+01	 2.062500000000000e+01	 1.000038323230769e+01
0	 4.312499999999998e+01	 2.125000000000000e+01	 1.000040722461538e+01
0	 4.312499999999998e+01	 2.187500000000000e+01	 1.000043148461538e+01
0	 4.312499999999999e+01	 2.250000000000000e+01	 1.000045601230769e+01
0	 4.312499999999998e+01	 2.312500000000001e+01	 1.000048080769231e+01
0	 4.312499999999998e+01	 2.375000000000000e+01	 1.000050587076923e+01
0	 4.312499999999998e+01	 2.437500000000001e+01	 1.000053120153845e+01
0	 4.312499999999997e+01	 2.500000000000000e+01	 1.000055680000000e+01
0	 4.375000000000000e+01	 1.875000000000000e+01	 1.000022769230769e+01
0	 4.375000000000000e+01	 1.937500000000000e+01	 1.000025381538461e+01
0	 4.375000000000000e+01	 2.000000000000000e+01	 1.000027956923076e+01
0	 4.375000000000000e+01	 2.062500000000000e+01	 1.000030495384615e+01
0	 4.375000000000000e+01	 2.125000000000000e+01	 1.000032996923077e+01
0	 4.375000000000000e+01	 2.187500000000000e+01	 1.000035461538461e+01
0	 4.375000000000000e+01	 2.250000000000000e+01	 1.000037889230769e+01
0	 4.375000000000000e+01	 2.312500000000001e+01	 1.000040280000000e+01
0	 4.375000000000001e+01	 2.375000000000001e+01	 1.000042633846154e+01
0	 4.375000000000000e+01	 2.437500000000001e+01	 1.000044950769231e+01
0	 4.375000000000000e+01	 2.500000000000000e+01	 1.000047230769231e+01
0	 3.750000000000000e+01	 2.500000000000000e+01	 1.000127846153846e+01
0	 3.750000000000000e+01	 2.562500000000000e+01	 1.000124823076922e+01
0	 3.750000000000001e+01	 2.625000000000000e+01	 1.000121753846154e+01
0	 3.749999999999999e+01	 2.687499999999999e+01	 1.000118638461539e+01
0	 3.750000000000000e+01	 2.749999999999999e+01	 1.000115476923078e+01
0	 3.749999999999999e+01	 2.812499999999999e+01	 1.000112269230770e+01
0	 3.750000000000000e+01	 2.874999999999999e+01	 1.000109015384615e+01
0	 3.750000000000000e+01	 2.937499999999999e+01	 1.000105715384615e+01
0	 3.750000000000000e+01	 2.999999999999998e+01	 1.000102369230770e+01
0	 3.750000000000000e+01	 3.062499999999998e+01	 1.000098976923077e+01
0	 3.750000000000000e+01	 3.125000000000000e+01	 1.000095538461539e+01
0	 3.812500000000000e+01	 2.500000000000000e+01	 1.000120172307692e+01
0	 3.812499999999999e+01	 2.562500000000000e+01	 1.000117105538462e+01
0	 3.812500000000001e+01	 2.625000000000000e+01	 1.000114013846154e+01
0	 3.812500000000000e+01	 2.687499999999999e+01	 1.000110897230769e+01
0	 3.812499999999999e+01	 2.749999999999999e+01	 1.000107755692308e+01
0	 3.812500000000001e+01	 2.812500000000000e+01	 1.000104589230769e+01
0	 3.812500000000000e+01	 2.874999999999999e+01	 1.000101397846154e+01
0	 3.812500000000001e+01	 2.937499999999999e+01	 1.000098181538462e+01
0	 3.812500000000001e+01	 3.000000000000000e+01	 1.000094940307693e+01
0	 3.812499999999999e+01	 3.062499999999998e+01	 1.000091674153846e+01
0	 3.812500000000000e+01	 3.125000000000000e+01	 1.000088383076923e+01
0	 3.875000000000000e+01	 2.500000000000000e+01	 1.000112412307691e+01
0	 3.874999999999999e+01	 2.562500000000000e+01	 1.000109347076924e+01
0	 3.875000000000000e+01	 2.625000000000000e+01	 1.000106278153846e+01
0	 3.874999999999999e+01	 2.687499999999999e+01	 1.000103205538461e+01
0	 3.874999999999999e+01	 2.749999999999999e+01	 1.000100129230769e+01
0	 3.874999999999999e+01	 2.812499999999999e+01	 1.000097049230770e+01
0	 3.874999999999999e+01	 2.874999999999998e+01	 1.000093965538461e+01
0	 3.875000000000000e+01	 2.937499999999999e+01	 1.000090878153846e+01
0	 3.874999999999999e+01	 2.999999999999998e+01	 1.000087787076923e+01
0	 3.875000000000001e+01	 3.062499999999999e+01	 1.000084692307692e+01
0	 3.875000000000000e+01	 3.125000000000000e+01	 1.000081593846154e+01
0	 3.937499999999999e+01	 2.500000000000000e+01	 1.000104566153846e+01
0	 3.937499999999999e+01	 2.562500000000000e+01	 1.000101547692307e+01
0	 3.937500000000000e+01	 2.625000000000000e+01	 1.000098546769231e+01
0	 3.937500000000000e+01	 2.687500000000000e+01	 1.000095563384615e+01
0	 3.937499999999999e+01	 2.749999999999999e+01	 1.000092597538461e+01
0	 3.937499999999999e+01	 2.812499999999999e+01	 1.000089649230769e+01
0	 3.937499999999999e+01	 2.874999999999998e+01	 1.000086718461538e+01
0	 3.937499999999999e+01	 2.937499999999998e+01	 1.000083805230769e+01
0	 3.937500000000000e+01	 2.999999999999999e+01	 1.000080909538462e+01
0	 3.937499999999999e+01	 3.062499999999998e+01	 1.000078031384615e+01
0	 3.937499999999999e+01	 3.125000000000000e+01	 1.000075170769231e+01
0	 3.999999999999999e+01	 2.500000000000000e+01	 1.000096633846153e+01
0	 3.999999999999999e+01	 2.562500000000000e+01	 1.000093707384616e+01
0	 3.999999999999999e+01	 2.625000000000000e+01	 1.000090819692307e+01
0	 3.999999999999999e+01	 2.687500000000000e+01	 1.000087970769231e+01
0	 3.999999999999999e+01	 2.749999999999999e+01	 1.000085160615385e+01
0	 3.999999999999999e+01	 2.812499999999999e+01	 1.000082389230769e+01
0	 3.999999999999999e+01	 2.874999999999999e+01	 1.000079656615384e+01
0	 4.000000000000000e+01	 2.937499999999998e+01	 1.000076962769231e+01
0	 3.999999999999999e+01	 2.999999999999999e+01	 1.000074307692308e+01
0	 3.999999999999999e+01	 3.062499999999998e+01	 1.000071691384615e+01
0	 3.999999999999999e+01	 3.125000000000000e+01	 1.000069113846153e+01
0	 4.062499999999999e+01	 2.500000000000000e+01	 1.000088615384615e+01
0	 4.062499999999999e+01	 2.562500000000000e+01	 1.000085826153846e+01
0	 4.062499999999999e+01	 2.625000000000000e+01	 1.000083096923077e+01
0	 4.062500000000000e+01	 2.687500000000000e+01	 1.000080427692308e+01
0	 4.062499999999999e+01	 2.749999999999999e+01	 1.000077818461538e+01
0	 4.062499999999999e+01	 2.812499999999999e+01	 1.000075269230769e+01
0	 4.062499999999999e+01	 2.874999999999999e+01	 1.000072780000000e+01
0	 4.062499999999999e+01	 2.937499999999998e+01	 1.000070350769231e+01
0	 4.062499999999999e+01	 2.999999999999999e+01	 1.000067981538462e+01
0	 4.062499999999999e+01	 3.062499999999998e+01	 1.000065672307692e+01
0	 4.062499999999999e+01	 3.125000000000000e+01	 1.000063423076923e+01
0	 4.124999999999999e+01	 2.500000000000000e+01	 1.000080510769231e+01
0	 4.124999999999998e+01	 2.562500000000000e+01	 1.000077904000000e+01
0	 4.124999999999998e+01	 2.624999999999999e+01	 1.000075378461538e+01
0	 4.124999999999998e+01	 2.687499999999999e+01	 1.000072934153846e+01
0	 4.125000000000000e+01	 2.750000000000000e+01	 1.000070571076924e+01
0	 4.125000000000000e+01	 2.812499999999999e+01	 1.000068289230769e+01
0	 4.124999999999999e+01	 2.874999999999999e+01	 1.000066088615384e+01
0	 4.124999999999999e+01	 2.937499999999999e+01	 1.000063969230768e+01
0	 4.124999999999998e+01	 2.999999999999999e+01	 1.000061931076923e+01
0	 4.124999999999999e+01	 3.062499999999998e+01	 1.000059974153846e+01
0	 4.124999999999999e+01	 3.125000000000000e+01	 1.000058098461539e+01
0	 4.187499999999998e+01	 2.500000000000000e+01	 1.000072320000000e+01
0	 4.187499999999998e+01	 2.562499999999999e+01	 1.000069940923077e+01
0	 4.187499999999999e+01	 2.624999999999999e+01	 1.000067664307692e+01
0	 4.187499999999998e+01	 2.687499999999999e+01	 1.000065490153846e+01
0	 4.187499999999999e+01	 2.749999999999999e+01	 1.000063418461538e+01
0	 4.187499999999999e+01	 2.812499999999999e+01	 1.000061449230769e+01
0	 4.187499999999999e+01	 2.874999999999999e+01	 1.000059582461538e+01
0	 4.187499999999999e+01	 2.937499999999999e+01	 1.000057818153845e+01
0	 4.187499999999999e+01	 2.999999999999998e+01	 1.000056156307692e+01
0	 4.187499999999999e+01	 3.062499999999998e+01	 1.000054596923077e+01
0	 4.187499999999998e+01	 3.125000000000000e+01	 1.000053140000001e+01
0	 4.249999999999997e+01	 2.500000000000000e+01	 1.000064043076923e+01
0	 4.249999999999999e+01	 2.562500000000000e+01	 1.000061936923077e+01
0	 4.249999999999999e+01	 2.625000000000000e+01	 1.000059954461539e+01
0	 4.249999999999999e+01	 2.687500000000000e+01	 1.000058095692308e+01
0	 4.249999999999998e+01	 2.749999999999999e+01	 1.000056360615384e+01
0	 4.249999999999999e+01	 2.812499999999999e+01	 1.000054749230769e+01
0	 4.249999999999998e+01	 2.874999999999999e+01	 1.000053261538462e+01
0	 4.249999999999999e+01	 2.937499999999998e+01	 1.000051897538462e+01
0	 4.249999999999999e+01	 2.999999999999998e+01	 1.000050657230769e+01
0	 4.249999999999999e+01	 3.062499999999999e+01	 1.000049540615384e+01
0	 4.249999999999997e+01	 3.125000000000000e+01	 1.000048547692308e+01
0	 4.312499999999997e+01	 2.500000000000000e+01	 1.000055680000000e+01
0	 4.312499999999998e+01	 2.562500000000000e+01	 1.000053892000001e+01
0	 4.312499999999999e+01	 2.625000000000000e+01	 1.000052248923077e+01
0	 4.312499999999999e+01	 2.687500000000000e+01	 1.000050750769230e+01
0	 4.312499999999998e+01	 2.749999999999999e+01	 1.000049397538461e+01
0	 4.312499999999998e+01	 2.812499999999999e+01	 1.000048189230769e+01
0	 4.312499999999999e+01	 2.874999999999999e+01	 1.000047125846154e+01
0	 4.312499999999998e+01	 2.937499999999999e+01	 1.000046207384615e+01
0	 4.312499999999999e+01	 2.999999999999998e+01	 1.000045433846154e+01
0	 4.312499999999998e+01	 3.062499999999998e+01	 1.000044805230769e+01
0	 4.312499999999997e+01	 3.125000000000000e+01	 1.000044321538461e+01
0	 4.375000000000000e+01	 2.500000000000000e+01	 1.000047230769231e+01
0	 4.375000000000000e+01	 2.562500000000000e+01	 1.000045806153846e+01
0	 4.375000000000001e+01	 2.625000000000000e+01	 1.000044547692308e+01
0	 4.375000000000000e+01	 2.687499999999999e+01	 1.000043455384615e+01
0	 4.375000000000000e+01	 2.749999999999999e+01	 1.000042529230769e+01
0	 4.375000000000000e+01	 2.812499999999999e+01	 1.000041769230770e+01
0	 4.375000000000000e+01	 2.874999999999999e+01	 1.000041175384615e+01
0	 4.375000000000000e+01	 2.937499999999999e+01	 1.000040747692307e+01
0	 4.375000000000000e+01	 2.999999999999998e+01	 1.000040486153846e+01
0	 4.375000000000000e+01	 3.062499999999998e+01	 1.000040390769230e+01
0	 4.375000000000000e+01	 3.125000000000000e+01	 1.000040461538461e+01
0	 3.750000000000000e+01	 3.125000000000000e+01	 1.000095538461539e+01
0	 3.750000000000000e+01	 3.187500000000000e+01	 1.000090610769231e+01
0	 3.750000000000001e+01	 3.250000000000001e+01	 1.000085766153846e+01
0	 3.749999999999999e+01	 3.312499999999999e+01	 1.000081004615385e+01
0	 3.750000000000000e+01	 3.374999999999999e+01	 1.000076326153846e+01
0	 3.749999999999999e+01	 3.437499999999999e+01	 1.000071730769230e+01
0	 3.750000000000000e+01	 3.499999999999999e+01	 1.000067218461538e+01
0	 3.750000000000000e+01	 3.562499999999999e+01	 1.000062789230768e+01
0	 3.750000000000000e+01	 3.624999999999998e+01	 1.000058443076922e+01
0	 3.750000000000000e+01	 3.687499999999998e+01	 1.000054179999998e+01
0	 3.750000000000000e+01	 3.750000000000000e+01	 1.000049999999999e+01
0	 3.812500000000000e+01	 3.125000000000000e+01	 1.000088383076923e+01
0	 3.812499999999999e+01	 3.187500000000000e+01	 1.000083994000000e+01
0	 3.812500000000001e+01	 3.250000000000000e+01	 1.000079676000000e+01
0	 3.812500000000000e+01	 3.312499999999999e+01	 1.000075429076923e+01
0	 3.812499999999999e+01	 3.374999999999999e+01	 1.000071253230769e+01
0	 3.812500000000001e+01	 3.437500000000000e+01	 1.000067148461538e+01
0	 3.812500000000000e+01	 3.499999999999999e+01	 1.000063114769230e+01
0	 3.812500000000001e+01	 3.562499999999999e+01	 1.000059152153846e+01
0	 3.812500000000001e+01	 3.624999999999999e+01	 1.000055260615384e+01
0	 3.812499999999999e+01	 3.687499999999997e+01	 1.000051440153844e+01
0	 3.812500000000000e+01	 3.750000000000000e+01	 1.000047690769231e+01
0	 3.875000000000000e+01	 3.125000000000000e+01	 1.000081593846154e+01
0	 3.874999999999999e+01	 3.187500000000000e+01	 1.000077700307692e+01
0	 3.875000000000000e+01	 3.250000000000001e+01	 1.000073865846153e+01
0	 3.874999999999999e+01	 3.312500000000000e+01	 1.000070090461539e+01
0	 3.874999999999999e+01	 3.374999999999999e+01	 1.000066374153845e+01
0	 3.874999999999999e+01	 3.437499999999999e+01	 1.000062716923076e+01
0	 3.874999999999999e+01	 3.499999999999999e+01	 1.000059118769230e+01
0	 3.875000000000000e+01	 3.562499999999999e+01	 1.000055579692307e+01
0	 3.874999999999999e+01	 3.624999999999998e+01	 1.000052099692308e+01
0	 3.875000000000001e+01	 3.687499999999998e+01	 1.000048678769230e+01
0	 3.875000000000000e+01	 3.750000000000001e+01	 1.000045316923076e+01
0	 3.937499999999999e+01	 3.125000000000000e+01	 1.000075170769231e+01
0	 3.937499999999999e+01	 3.187500000000000e+01	 1.000071729692307e+01
0	 3.937500000000000e+01	 3.250000000000000e+01	 1.000068335692308e+01
0	 3.937500000000000e+01	 3.312500000000000e+01	 1.000064988769230e+01
0	 3.937499999999999e+01	 3.374999999999999e+01	 1.000061688923077e+01
0	 3.937499999999999e+01	 3.437500000000000e+01	 1.000058436153846e+01
0	 3.937499999999999e+01	 3.499999999999998e+01	 1.000055230461538e+01
0	 3.937499999999999e+01	 3.562499999999998e+01	 1.000052071846153e+01
0	 3.937500000000000e+01	 3.624999999999999e+01	 1.000048960307692e+01
0	 3.937499999999999e+01	 3.687499999999998e+01	 1.000045895846154e+01
0	 3.937499999999999e+01	 3.750000000000000e+01	 1.000042878461538e+01
0	 3.999999999999999e+01	 3.125000000000000e+01	 1.000069113846153e+01
0	 3.999999999999999e+01	 3.187500000000000e+01	 1.000066082153845e+01
0	 3.999999999999999e+01	 3.250000000000000e+01	 1.000063085538461e+01
0	 3.999999999999999e+01	 3.312499999999999e+01	 1.000060124000000e+01
0	 3.999999999999999e+01	 3.374999999999999e+01	 1.000057197538461e+01
0	 3.999999999999999e+01	 3.437499999999999e+01	 1.000054306153845e+01
0	 3.999999999999999e+01	 3.499999999999999e+01	 1.000051449846153e+01
0	 4.000000000000000e+01	 3.562499999999998e+01	 1.000048628615383e+01
0	 3.999999999999999e+01	 3.624999999999999e+01	 1.000045842461538e+01
0	 3.999999999999999e+01	 3.687499999999999e+01	 1.000043091384615e+01
0	 3.999999999999999e+01	 3.750000000000000e+01	 1.000040375384614e+01
0	 4.062499999999999e+01	 3.125000000000000e+01	 1.000063423076923e+01
0	 4.062499999999999e+01	 3.187500000000000e+01	 1.000060757692308e+01
0	 4.062499999999999e+01	 3.249999999999999e+01	 1.000058115384615e+01
0	 4.062500000000000e+01	 3.312500000000000e+01	 1.000055496153846e+01
0	 4.062499999999999e+01	 3.374999999999999e+01	 1.000052899999999e+01
0	 4.062499999999999e+01	 3.437499999999999e+01	 1.000050326923076e+01
0	 4.062499999999999e+01	 3.499999999999999e+01	 1.000047776923076e+01
0	 4.062499999999999e+01	 3.562499999999999e+01	 1.000045249999999e+01
0	 4.062499999999999e+01	 3.624999999999998e+01	 1.000042746153845e+01
0	 4.062499999999999e+01	 3.687499999999999e+01	 1.000040265384614e+01
0	 4.062499999999999e+01	 3.750000000000000e+01	 1.000037807692307e+01
0	 4.124999999999999e+01	 3.125000000000000e+01	 1.000058098461539e+01
0	 4.124999999999998e+01	 3.187500000000000e+01	 1.000055756307692e+01
0	 4.124999999999998e+01	 3.249999999999999e+01	 1.000053425230769e+01
0	 4.124999999999998e+01	 3.312499999999999e+01	 1.000051105230769e+01
0	 4.125000000000000e+01	 3.375000000000001e+01	 1.000048796307692e+01
0	 4.125000000000000e+01	 3.437500000000000e+01	 1.000046498461538e+01
0	 4.124999999999999e+01	 3.499999999999999e+01	 1.000044211692308e+01
0	 4.124999999999999e+01	 3.562499999999999e+01	 1.000041935999999e+01
0	 4.124999999999998e+01	 3.624999999999999e+01	 1.000039671384615e+01
0	 4.124999999999999e+01	 3.687499999999998e+01	 1.000037417846152e+01
0	 4.124999999999999e+01	 3.750000000000000e+01	 1.000035175384615e+01
0	 4.187499999999998e+01	 3.125000000000000e+01	 1.000053140000001e+01
0	 4.187499999999998e+01	 3.187500000000000e+01	 1.000051078000000e+01
0	 4.187499999999999e+01	 3.250000000000000e+01	 1.000049015076922e+01
0	 4.187499999999998e+01	 3.312499999999999e+01	 1.000046951230769e+01
0	 4.187499999999999e+01	 3.374999999999999e+01	 1.000044886461538e+01
0	 4.187499999999999e+01	 3.437499999999999e+01	 1.000042820769230e+01
0	 4.187499999999999e+01	 3.500000000000000e+01	 1.000040754153847e+01
0	 4.187499999999999e+01	 3.562499999999999e+01	 1.000038686615384e+01
0	 4.187499999999999e+01	 3.624999999999998e+01	 1.000036618153844e+01
0	 4.187499999999999e+01	 3.687499999999999e+01	 1.000034548769230e+01
0	 4.187499999999998e+01	 3.750000000000000e+01	 1.000032478461537e+01
0	 4.249999999999997e+01	 3.125000000000000e+01	 1.000048547692308e+01
0	 4.249999999999999e+01	 3.187500000000000e+01	 1.000046722769230e+01
0	 4.249999999999999e+01	 3.249999999999999e+01	 1.000044884923077e+01
0	 4.249999999999999e+01	 3.312500000000000e+01	 1.000043034153846e+01
0	 4.249999999999998e+01	 3.374999999999999e+01	 1.000041170461538e+01
0	 4.249999999999999e+01	 3.437499999999999e+01	 1.000039293846154e+01
0	 4.249999999999998e+01	 3.499999999999999e+01	 1.000037404307692e+01
0	 4.249999999999999e+01	 3.562499999999998e+01	 1.000035501846154e+01
0	 4.249999999999999e+01	 3.624999999999998e+01	 1.000033586461538e+01
0	 4.249999999999999e+01	 3.687499999999998e+01	 1.000031658153845e+01
0	 4.249999999999997e+01	 3.750000000000000e+01	 1.000029716923076e+01
0	 4.312499999999997e+01	 3.125000000000000e+01	 1.000044321538461e+01
0	 4.312499999999998e+01	 3.187500000000000e+01	 1.000042690615385e+01
0	 4.312499999999999e+01	 3.249999999999999e+01	 1.000041034769230e+01
0	 4.312499999999999e+01	 3.312499999999999e+01	 1.000039354000000e+01
0	 4.312499999999998e+01	 3.374999999999999e+01	 1.000037648307692e+01
0	 4.312499999999998e+01	 3.437499999999999e+01	 1.000035917692307e+01
0	 4.312499999999999e+01	 3.499999999999999e+01	 1.000034162153846e+01
0	 4.312499999999998e+01	 3.562499999999999e+01	 1.000032381692307e+01
0	 4.312499999999999e+01	 3.624999999999999e+01	 1.000030576307693e+01
0	 4.312499999999998e+01	 3.687499999999998e+01	 1.000028745999999e+01
0	 4.312499999999997e+01	 3.750000000000000e+01	 1.000026890769231e+01
0	 4.375000000000000e+01	 3.125000000000000e+01	 1.000040461538461e+01
0	 4.375000000000000e+01	 3.187500000000000e+01	 1.000038981538462e+01
0	 4.375000000000001e+01	 3.250000000000001e+01	 1.000037464615384e+01
0	 4.375000000000000e+01	 3.312499999999999e+01	 1.000035910769230e+01
0	 4.375000000000000e+01	 3.374999999999999e+01	 1.000034319999999e+01
0	 4.375000000000000e+01	 3.437499999999999e+01	 1.000032692307692e+01
0	 4.375000000000000e+01	 3.499999999999999e+01	 1.000031027692307e+01
0	 4.375000000000000e+01	 3.562499999999999e+01	 1.000029326153846e+01
0	 4.375000000000000e+01	 3.624999999999998e+01	 1.000027587692307e+01
0	 4.375000000000000e+01	 3.687499999999998e+01	 1.000025812307691e+01
0	 4.375000000000000e+01	 3.750000000000000e+01	 1.000024000000000e+01
0	 3.750000000000000e+01	 3.750000000000000e+01	 1.000049999999999e+01
0	 3.750000000000000e+01	 3.812500000000000e+01	 1.000046850769230e+01
0	 3.750000000000001e+01	 3.875000000000001e+01	 1.000043526153846e+01
0	 3.749999999999999e+01	 3.937499999999999e+01	 1.000040026153846e+01
0	 3.750000000000000e+01	 3.999999999999999e+01	 1.000036350769231e+01
0	 3.749999999999999e+01	 4.062499999999999e+01	 1.000032499999999e+01
0	 3.750000000000000e+01	 4.124999999999999e+01	 1.000028473846153e+01
0	 3.750000000000000e+01	 4.187499999999999e+01	 1.000024272307691e+01
0	 3.750000000000000e+01	 4.249999999999999e+01	 1.000019895384615e+01
0	 3.750000000000000e+01	 4.312499999999999e+01	 1.000015343076921e+01
0	 3.750000000000000e+01	 4.375000000000000e+01	 1.000010615384615e+01
0	 3.812500000000000e+01	 3.750000000000000e+01	 1.000047690769231e+01
0	 3.812499999999999e+01	 3.812499999999999e+01	 1.000044652615384e+01
0	 3.812500000000001e+01	 3.874999999999999e+01	 1.000041453846154e+01
0	 3.812500000000000e+01	 3.937499999999999e+01	 1.000038094461538e+01
0	 3.812499999999999e+01	 3.999999999999999e+01	 1.000034574461538e+01
0	 3.812500000000001e+01	 4.062500000000000e+01	 1.000030893846153e+01
0	 3.812500000000000e+01	 4.124999999999999e+01	 1.000027052615384e+01
0	 3.812500000000001e+01	 4.187499999999999e+01	 1.000023050769230e+01
0	 3.812500000000001e+01	 4.249999999999998e+01	 1.000018888307693e+01
0	 3.812499999999999e+01	 4.312499999999997e+01	 1.000014565230768e+01
0	 3.812500000000000e+01	 4.375000000000000e+01	 1.000010081538461e+01
0	 3.875000000000000e+01	 3.750000000000001e+01	 1.000045316923076e+01
0	 3.874999999999999e+01	 3.812500000000000e+01	 1.000042394153845e+01
0	 3.875000000000000e+01	 3.875000000000001e+01	 1.000039325538461e+01
0	 3.874999999999999e+01	 3.937499999999999e+01	 1.000036111076922e+01
0	 3.874999999999999e+01	 3.999999999999999e+01	 1.000032750769230e+01
0	 3.874999999999999e+01	 4.062499999999999e+01	 1.000029244615384e+01
0	 3.874999999999999e+01	 4.124999999999997e+01	 1.000025592615384e+01
0	 3.875000000000000e+01	 4.187499999999999e+01	 1.000021794769230e+01
0	 3.874999999999999e+01	 4.249999999999999e+01	 1.000017851076923e+01
0	 3.875000000000001e+01	 4.312499999999998e+01	 1.000013761538461e+01
0	 3.875000000000000e+01	 4.375000000000001e+01	 1.000009526153846e+01
0	 3.937499999999999e+01	 3.750000000000000e+01	 1.000042878461538e+01
0	 3.937499999999999e+01	 3.812499999999999e+01	 1.000040075384615e+01
0	 3.937500000000000e+01	 3.875000000000000e+01	 1.000037141230768e+01
0	 3.937500000000000e+01	 3.937500000000000e+01	 1.000034075999999e+01
0	 3.937499999999999e+01	 3.999999999999999e+01	 1.000030879692307e+01
0	 3.937499999999999e+01	 4.062499999999999e+01	 1.000027552307692e+01
0	 3.937499999999999e+01	 4.124999999999999e+01	 1.000024093846154e+01
0	 3.937499999999999e+01	 4.187499999999999e+01	 1.000020504307692e+01
0	 3.937500000000000e+01	 4.249999999999999e+01	 1.000016783692308e+01
0	 3.937499999999999e+01	 4.312499999999997e+01	 1.000012932000000e+01
0	 3.937499999999999e+01	 4.375000000000000e+01	 1.000008949230769e+01
0	 3.999999999999999e+01	 3.750000000000000e+01	 1.000040375384614e+01
0	 3.999999999999999e+01	 3.812500000000000e+01	 1.000037696307692e+01
0	 3.999999999999999e+01	 3.874999999999999e+01	 1.000034900923076e+01
0	 3.999999999999999e+01	 3.937499999999999e+01	 1.000031989230769e+01
0	 3.999999999999999e+01	 3.999999999999999e+01	 1.000028961230769e+01
0	 3.999999999999999e+01	 4.062499999999999e+01	 1.000025816923076e+01
0	 3.999999999999999e+01	 4.124999999999999e+01	 1.000022556307692e+01
0	 4.000000000000000e+01	 4.187499999999999e+01	 1.000019179384614e+01
0	 3.999999999999999e+01	 4.249999999999998e+01	 1.000015686153846e+01
0	 3.999999999999999e+01	 4.312499999999998e+01	 1.000012076615385e+01
0	 3.999999999999999e+01	 4.375000000000000e+01	 1.000008350769231e+01
0	 4.062499999999999e+01	 3.750000000000000e+01	 1.000037807692307e+01
0	 4.062499999999999e+01	 3.812500000000000e+01	 1.000035256923077e+01
0	 4.062499999999999e+01	 3.874999999999999e+01	 1.000032604615384e+01
0	 4.062500000000000e+01	 3.937499999999999e+01	 1.000029850769229e+01
0	 4.062499999999999e+01	 3.999999999999999e+01	 1.000026995384614e+01
0	 4.062499999999999e+01	 4.062499999999999e+01	 1.000024038461538e+01
0	 4.062499999999999e+01	 4.125000000000000e+01	 1.000020980000000e+01
0	 4.062499999999999e+01	 4.187499999999998e+01	 1.000017820000000e+01
0	 4.062499999999999e+01	 4.249999999999998e+01	 1.000014558461538e+01
0	 4.062499999999999e+01	 4.312499999999999e+01	 1.000011195384616e+01
0	 4.062499999999999e+01	 4.375000000000000e+01	 1.000007730769232e+01
0	 4.124999999999999e+01	 3.750000000000000e+01	 1.000035175384615e+01
0	 4.124999999999998e+01	 3.812500000000000e+01	 1.000032757230768e+01
0	 4.124999999999998e+01	 3.874999999999999e+01	 1.000030252307691e+01
0	 4.124999999999998e+01	 3.937499999999999e+01	 1.000027660615385e+01
0	 4.125000000000000e+01	 4.000000000000000e+01	 1.000024982153846e+01
0	 4.125000000000000e+01	 4.062499999999999e+01	 1.000022216923077e+01
0	 4.124999999999999e+01	 4.124999999999999e+01	 1.000019364923077e+01
0	 4.124999999999999e+01	 4.187499999999998e+01	 1.000016426153846e+01
0	 4.124999999999998e+01	 4.249999999999998e+01	 1.000013400615385e+01
0	 4.124999999999999e+01	 4.312499999999999e+01	 1.000010288307692e+01
0	 4.124999999999999e+01	 4.375000000000000e+01	 1.000007089230770e+01
0	 4.187499999999998e+01	 3.750000000000000e+01	 1.000032478461537e+01
0	 4.187499999999998e+01	 3.812499999999999e+01	 1.000030197230768e+01
0	 4.187499999999999e+01	 3.875000000000000e+01	 1.000027844000000e+01
0	 4.187499999999998e+01	 3.937499999999999e+01	 1.000025418769231e+01
0	 4.187499999999999e+01	 3.999999999999999e+01	 1.000022921538461e+01
0	 4.187499999999999e+01	 4.062499999999999e+01	 1.000020352307691e+01
0	 4.187499999999999e+01	 4.124999999999999e+01	 1.000017711076923e+01
0	 4.187499999999999e+01	 4.187499999999999e+01	 1.000014997846154e+01
0	 4.187499999999999e+01	 4.249999999999999e+01	 1.000012212615385e+01
0	 4.187499999999999e+01	 4.312499999999999e+01	 1.000009355384616e+01
0	 4.187499999999998e+01	 4.374999999999999e+01	 1.000006426153847e+01
0	 4.249999999999997e+01	 3.750000000000000e+01	 1.000029716923076e+01
0	 4.249999999999999e+01	 3.812500000000001e+01	 1.000027576923077e+01
0	 4.249999999999999e+01	 3.875000000000000e+01	 1.000025379692308e+01
0	 4.249999999999999e+01	 3.937500000000000e+01	 1.000023125230769e+01
0	 4.249999999999998e+01	 3.999999999999999e+01	 1.000020813538462e+01
0	 4.249999999999999e+01	 4.062499999999999e+01	 1.000018444615384e+01
0	 4.249999999999998e+01	 4.124999999999999e+01	 1.000016018461539e+01
0	 4.249999999999999e+01	 4.187499999999999e+01	 1.000013535076922e+01
0	 4.249999999999999e+01	 4.249999999999999e+01	 1.000010994461539e+01
0	 4.249999999999999e+01	 4.312499999999999e+01	 1.000008396615385e+01
0	 4.249999999999997e+01	 4.375000000000000e+01	 1.000005741538462e+01
0	 4.312499999999997e+01	 3.750000000000000e+01	 1.000026890769231e+01
0	 4.312499999999998e+01	 3.812499999999999e+01	 1.000024896307692e+01
0	 4.312499999999999e+01	 3.875000000000000e+01	 1.000022859384615e+01
0	 4.312499999999999e+01	 3.937500000000000e+01	 1.000020780000000e+01
0	 4.312499999999998e+01	 3.999999999999999e+01	 1.000018658153846e+01
0	 4.312499999999998e+01	 4.062499999999999e+01	 1.000016493846154e+01
0	 4.312499999999999e+01	 4.124999999999999e+01	 1.000014287076923e+01
0	 4.312499999999998e+01	 4.187499999999999e+01	 1.000012037846155e+01
0	 4.312499999999999e+01	 4.249999999999999e+01	 1.000009746153847e+01
0	 4.312499999999998e+01	 4.312499999999998e+01	 1.000007411999999e+01
0	 4.312499999999997e+01	 4.375000000000000e+01	 1.000005035384616e+01
0	 4.375000000000000e+01	 3.750000000000000e+01	 1.000024000000000e+01
0	 4.375000000000000e+01	 3.812500000000000e+01	 1.000022155384615e+01
0	 4.375000000000001e+01	 3.875000000000001e+01	 1.000020283076924e+01
0	 4.375000000000000e+01	 3.937499999999999e+01	 1.000018383076923e+01
0	 4.375000000000000e+01	 3.999999999999999e+01	 1.000016455384616e+01
0	 4.375000000000000e+01	 4.062499999999999e+01	 1.000014500000000e+01
0	 4.375000000000000e+01	 4.124999999999999e+01	 1.000012516923077e+01
0	 4.375000000000000e+01	 4.187499999999999e+01	 1.000010506153845e+01
0	 4.375000000000000e+01	 4.249999999999999e+01	 1.000008467692308e+01
0	 4.375000000000000e+01	 4.312499999999999e+01	 1.000006401538460e+01
0	 4.375000000000000e+01	 4.375000000000000e+01	 1.000004307692308e+01
0	 3.750000000000000e+01	 4.375000000000000e+01	 1.000010615384615e+01
0	 3.750000000000000e+01	 4.437500000000000e+01	 1.000010569230769e+01
0	 3.749999999999999e+01	 4.499999999999999e+01	 1.000010153846153e+01
0	 3.749999999999999e+01	 4.562499999999999e+01	 1.000009369230770e+01
0	 3.750000000000001e+01	 4.624999999999999e+01	 1.000008215384615e+01
0	 3.750000000000000e+01	 4.687499999999999e+01	 1.000006692307693e+01
0	 3.750000000000000e+01	 4.749999999999999e+01	 1.000004800000001e+01
0	 3.750000000000000e+01	 4.812499999999999e+01	 1.000002538461541e+01
0	 3.750000000000001e+01	 4.874999999999999e+01	 9.999999076923078e+00
0	 3.750000000000000e+01	 4.937499999999999e+01	 9.999969076923062e+00
0	 3.750000000000000e+01	 5.000000000000000e+01	 9.999935384615394e+00
0	 3.812500000000000e+01	 4.375000000000000e+01	 1.000010081538461e+01
0	 3.812500000000000e+01	 4.437500000000000e+01	 1.000010075846154e+01
0	 3.812499999999999e+01	 4.499999999999998e+01	 1.000009724923077e+01
0	 3.812500000000000e+01	 4.562499999999999e+01	 1.000009028769231e+01
0	 3.812500000000001e+01	 4.625000000000000e+01	 1.000007987384616e+01
0	 3.812500000000001e+01	 4.687499999999999e+01	 1.000006600769231e+01
0	 3.812500000000001e+01	 4.749999999999999e+01	 1.000004868923080e+01
0	 3.812500000000000e+01	 4.812499999999998e+01	 1.000002791846154e+01
0	 3.812500000000000e+01	 4.874999999999999e+01	 1.000000369538465e+01
0	 3.812499999999999e+01	 4.937499999999997e+01	 9.999976020000005e+00
0	 3.812500000000000e+01	 5.000000000000000e+01	 9.999944892307724e+00
0	 3.875000000000000e+01	 4.375000000000001e+01	 1.000009526153846e+01
0	 3.874999999999999e+01	 4.437499999999999e+01	 1.000009550153846e+01
0	 3.875000000000000e+01	 4.500000000000000e+01	 1.000009252923077e+01
0	 3.874999999999999e+01	 4.562499999999999e+01	 1.000008634461538e+01
0	 3.875000000000000e+01	 4.625000000000000e+01	 1.000007694769230e+01
0	 3.875000000000001e+01	 4.687499999999999e+01	 1.000006433846154e+01
0	 3.875000000000000e+01	 4.749999999999999e+01	 1.000004851692309e+01
0	 3.875000000000000e+01	 4.812500000000000e+01	 1.000002948307692e+01
0	 3.874999999999999e+01	 4.874999999999999e+01	 1.000000723692307e+01
0	 3.875000000000001e+01	 4.937499999999999e+01	 9.999981778461544e+00
0	 3.874999999999999e+01	 5.000000000000000e+01	 9.999953107692322e+00
0	 3.937499999999999e+01	 4.375000000000000e+01	 1.000008949230769e+01
0	 3.937500000000000e+01	 4.437499999999999e+01	 1.000008992153846e+01
0	 3.937499999999999e+01	 4.499999999999999e+01	 1.000008737846154e+01
0	 3.937499999999999e+01	 4.562499999999999e+01	 1.000008186307692e+01
0	 3.937499999999999e+01	 4.624999999999999e+01	 1.000007337538461e+01
0	 3.937499999999999e+01	 4.687499999999999e+01	 1.000006191538461e+01
0	 3.937500000000000e+01	 4.749999999999999e+01	 1.000004748307691e+01
0	 3.937499999999999e+01	 4.812499999999998e+01	 1.000003007846155e+01
0	 3.937499999999999e+01	 4.874999999999998e+01	 1.000000970153846e+01
0	 3.937499999999999e+01	 4.937499999999998e+01	 9.999986352307699e+00
0	 3.937499999999999e+01	 5.000000000000000e+01	 9.999960030769234e+00
0	 3.999999999999999e+01	 4.375000000000000e+01	 1.000008350769231e+01
0	 3.999999999999999e+01	 4.437499999999999e+01	 1.000008401846154e+01
0	 4.000000000000001e+01	 4.500000000000000e+01	 1.000008179692307e+01
0	 3.999999999999999e+01	 4.562499999999999e+01	 1.000007684307692e+01
0	 3.999999999999999e+01	 4.625000000000000e+01	 1.000006915692308e+01
0	 3.999999999999999e+01	 4.687499999999999e+01	 1.000005873846153e+01
0	 4.000000000000000e+01	 4.749999999999999e+01	 1.000004558769230e+01
0	 4.000000000000000e+01	 4.812499999999998e+01	 1.000002970461539e+01
0	 3.999999999999999e+01	 4.874999999999999e+01	 1.000001108923076e+01
0	 3.999999999999999e+01	 4.937499999999996e+01	 9.999989741538450e+00
0	 3.999999999999999e+01	 5.000000000000000e+01	 9.999965661538482e+00
0	 4.062499999999999e+01	 4.375000000000000e+01	 1.000007730769232e+01
0	 4.062499999999999e+01	 4.437500000000000e+01	 1.000007779230769e+01
0	 4.062499999999999e+01	 4.499999999999999e+01	 1.000007578461538e+01
0	 4.062499999999999e+01	 4.562500000000000e+01	 1.000007128461538e+01
0	 4.062499999999999e+01	 4.624999999999999e+01	 1.000006429230769e+01
0	 4.062499999999999e+01	 4.687499999999999e+01	 1.000005480769230e+01
0	 4.062499999999999e+01	 4.749999999999999e+01	 1.000004283076923e+01
0	 4.062499999999999e+01	 4.812499999999999e+01	 1.000002836153847e+01
0	 4.062499999999999e+01	 4.874999999999998e+01	 1.000001140000000e+01
0	 4.062499999999999e+01	 4.937499999999998e+01	 9.999991946153870e+00
0	 4.062499999999999e+01	 5.000000000000000e+01	 9.999970000000005e+00
0	 4.124999999999999e+01	 4.375000000000000e+01	 1.000007089230770e+01
0	 4.124999999999998e+01	 4.437499999999999e+01	 1.000007124307692e+01
0	 4.124999999999999e+01	 4.499999999999999e+01	 1.000006934153846e+01
0	 4.124999999999999e+01	 4.562499999999999e+01	 1.000006518769230e+01
0	 4.124999999999999e+01	 4.624999999999999e+01	 1.000005878153847e+01
0	 4.124999999999999e+01	 4.687499999999999e+01	 1.000005012307693e+01
0	 4.124999999999999e+01	 4.749999999999999e+01	 1.000003921230770e+01
0	 4.124999999999998e+01	 4.812499999999998e+01	 1.000002604923077e+01
0	 4.124999999999998e+01	 4.874999999999999e+01	 1.000001063384612e+01
0	 4.124999999999999e+01	 4.937499999999999e+01	 9.999992966153849e+00
0	 4.124999999999999e+01	 5.000000000000000e+01	 9.999973046153841e+00
0	 4.187499999999998e+01	 4.374999999999999e+01	 1.000006426153847e+01
0	 4.187499999999998e+01	 4.437499999999999e+01	 1.000006437076923e+01
0	 4.187499999999999e+01	 4.499999999999999e+01	 1.000006246769232e+01
0	 4.187499999999999e+01	 4.562499999999999e+01	 1.000005855230769e+01
0	 4.187499999999999e+01	 4.624999999999999e+01	 1.000005262461539e+01
0	 4.187499999999998e+01	 4.687499999999999e+01	 1.000004468461538e+01
0	 4.187499999999999e+01	 4.749999999999999e+01	 1.000003473230769e+01
0	 4.187499999999999e+01	 4.812499999999999e+01	 1.000002276769231e+01
0	 4.187499999999998e+01	 4.874999999999998e+01	 1.000000879076923e+01
0	 4.187499999999999e+01	 4.937499999999999e+01	 9.999992801538465e+00
0	 4.187499999999999e+01	 5.000000000000001e+01	 9.999974799999976e+00
0	 4.249999999999997e+01	 4.375000000000000e+01	 1.000005741538462e+01
0	 4.249999999999999e+01	 4.437500000000000e+01	 1.000005717538462e+01
0	 4.249999999999999e+01	 4.499999999999999e+01	 1.000005516307692e+01
0	 4.249999999999999e+01	 4.562500000000000e+01	 1.000005137846154e+01
0	 4.249999999999998e+01	 4.624999999999999e+01	 1.000004582153846e+01
0	 4.249999999999999e+01	 4.687499999999999e+01	 1.000003849230769e+01
0	 4.249999999999997e+01	 4.749999999999999e+01	 1.000002939076922e+01
0	 4.249999999999999e+01	 4.812499999999999e+01	 1.000001851692307e+01
0	 4.249999999999999e+01	 4.874999999999998e+01	 1.000000587076922e+01
0	 4.249999999999999e+01	 4.937499999999999e+01	 9.999991452307675e+00
0	 4.249999999999998e+01	 5.000000000000000e+01	 9.999975261538463e+00
0	 4.312499999999997e+01	 4.375000000000000e+01	 1.000005035384616e+01
0	 4.312499999999997e+01	 4.437500000000000e+01	 1.000004965692308e+01
0	 4.312499999999998e+01	 4.499999999999999e+01	 1.000004742769230e+01
0	 4.312499999999999e+01	 4.562500000000000e+01	 1.000004366615384e+01
0	 4.312499999999999e+01	 4.624999999999999e+01	 1.000003837230769e+01
0	 4.312499999999997e+01	 4.687499999999999e+01	 1.000003154615385e+01
0	 4.312499999999998e+01	 4.749999999999999e+01	 1.000002318769230e+01
0	 4.312499999999999e+01	 4.812499999999999e+01	 1.000001329692307e+01
0	 4.312499999999998e+01	 4.874999999999998e+01	 1.000000187384614e+01
0	 4.312499999999998e+01	 4.937499999999998e+01	 9.999988918461518e+00
0	 4.312499999999998e+01	 5.000000000000000e+01	 9.999974430769189e+00
0	 4.375000000000000e+01	 4.375000000000000e+01	 1.000004307692308e+01
0	 4.375000000000000e+01	 4.437500000000000e+01	 1.000004181538462e+01
0	 4.374999999999999e+01	 4.499999999999999e+01	 1.000003926153846e+01
0	 4.375000000000000e+01	 4.562499999999999e+01	 1.000003541538462e+01
0	 4.375000000000000e+01	 4.624999999999999e+01	 1.000003027692307e+01
0	 4.375000000000000e+01	 4.687499999999999e+01	 1.000002384615384e+01
0	 4.375000000000000e+01	 4.749999999999999e+01	 1.000001612307692e+01
0	 4.375000000000000e+01	 4.812499999999999e+01	 1.000000710769231e+01
0	 4.375000000000001e+01	 4.874999999999999e+01	 9.999996799999980e+00
0	 4.375000000000000e+01	 4.937499999999999e+01	 9.999985199999969e+00
0	 4.375000000000000e+01	 5.000000000000000e+01	 9.999972307692296e+00
0	 4.375000000000000e+01	 0.000000000000000e+00	 9.999230769230770e+00
0	 4.375000000000000e+01	 6.250000000000000e-01	 9.999259738461539e+00
0	 4.375000000000000e+01	 1.250000000000000e+00	 9.999285661538458e+00
0	 4.375000000000000e+01	 1.875000000000000e+00	 9.999308538461534e+00
0	 4.375000000000000e+01	 2.500000000000000e+00	 9.999328369230767e+00
0	 4.375000000000000e+01	 3.125000000000000e+00	 9.999345153846154e+00
0	 4.375000000000000e+01	 3.750000000000000e+00	 9.999358892307690e+00
0	 4.375000000000000e+01	 4.375000000000000e+00	 9.999369584615383e+00
0	 4.375000000000000e+01	 5.000000000000000e+00	 9.999377230769234e+00
0	 4.375000000000000e+01	 5.624999999999999e+00	 9.999381830769231e+00
0	 4.375000000000000e+01	 6.250000000000000e+00	 9.999383384615381e+00
0	 4.437500000000001e+01	 0.000000000000000e+00	 9.999070301538461e+00
0	 4.437499999999999e+01	 6.250000000000000e-01	 9.999100942461538e+00
0	 4.437500000000000e+01	 1.250000000000000e+00	 9.999128897230760e+00
0	 4.437500000000000e+01	 1.875000000000000e+00	 9.999154165846150e+00
0	 4.437500000000001e+01	 2.500000000000001e+00	 9.999176748307686e+00
0	 4.437500000000000e+01	 3.125000000000000e+00	 9.999196644615385e+00
0	 4.437500000000000e+01	 3.750000000000000e+00	 9.999213854769231e+00
0	 4.437500000000001e+01	 4.375000000000000e+00	 9.999228378769233e+00
0	 4.437500000000000e+01	 4.999999999999999e+00	 9.999240216615384e+00
0	 4.437500000000001e+01	 5.625000000000001e+00	 9.999249368307687e+00
0	 4.437500000000000e+01	 6.250000000000000e+00	 9.999255833846155e+00
0	 4.500000000000000e+01	 0.000000000000000e+00	 9.998898806153843e+00
0	 4.500000000000000e+01	 6.250000000000000e-01	 9.998930791384614e+00
0	 4.499999999999999e+01	 1.250000000000000e+00	 9.998960450461535e+00
0	 4.499999999999999e+01	 1.875000000000000e+00	 9.998987783384619e+00
0	 4.499999999999999e+01	 2.500000000000000e+00	 9.999012790153845e+00
0	 4.500000000000001e+01	 3.125000000000000e+00	 9.999035470769227e+00
0	 4.500000000000001e+01	 3.750000000000000e+00	 9.999055825230769e+00
0	 4.499999999999999e+01	 4.374999999999998e+00	 9.999073853538459e+00
0	 4.500000000000000e+01	 5.000000000000000e+00	 9.999089555692308e+00
0	 4.500000000000001e+01	 5.624999999999999e+00	 9.999102931692303e+00
0	 4.499999999999999e+01	 6.250000000000000e+00	 9.999113981538459e+00
0	 4.562499999999999e+01	 0.000000000000000e+00	 9.998716283076920e+00
0	 4.562500000000000e+01	 6.250000000000000e-01	 9.998749285230769e+00
0	 4.562500000000000e+01	 1.250000000000000e+00	 9.998780321230770e+00
0	 4.562499999999999e+01	 1.875000000000000e+00	 9.998809391076922e+00
0	 4.562499999999999e+01	 2.500000000000000e+00	 9.998836494769225e+00
0	 4.562500000000000e+01	 3.125000000000000e+00	 9.998861632307687e+00
0	 4.562499999999999e+01	 3.750000000000001e+00	 9.998884803692309e+00
0	 4.562499999999999e+01	 4.374999999999999e+00	 9.998906008923079e+00
0	 4.562500000000000e+01	 4.999999999999999e+00	 9.998925247999999e+00
0	 4.562499999999999e+01	 5.624999999999999e+00	 9.998942520923073e+00
0	 4.562500000000000e+01	 6.250000000000000e+00	 9.998957827692305e+00
0	 4.624999999999999e+01	 0.000000000000000e+00	 9.998522732307688e+00
0	 4.624999999999999e+01	 6.250000000000001e-01	 9.998556424000000e+00
0	 4.624999999999999e+01	 1.250000000000000e+00	 9.998588509538457e+00
0	 4.625000000000000e+01	 1.875000000000000e+00	 9.998618988923077e+00
0	 4.624999999999999e+01	 2.500000000000001e+00	 9.998647862153842e+00
0	 4.624999999999999e+01	 3.125000000000000e+00	 9.998675129230765e+00
0	 4.624999999999999e+01	 3.750000000000000e+00	 9.998700790153842e+00
0	 4.624999999999999e+01	 4.374999999999999e+00	 9.998724844923073e+00
0	 4.624999999999999e+01	 5.000000000000000e+00	 9.998747293538461e+00
0	 4.624999999999999e+01	 5.625000000000000e+00	 9.998768135999995e+00
0	 4.624999999999999e+01	 6.250000000000001e+00	 9.998787372307694e+00
0	 4.687499999999999e+01	 0.000000000000000e+00	 9.998318153846153e+00
0	 4.687499999999999e+01	 6.249999999999999e-01	 9.998352207692301e+00
0	 4.687499999999999e+01	 1.250000000000000e+00	 9.998385015384617e+00
0	 4.687499999999999e+01	 1.875000000000000e+00	 9.998416576923077e+00
0	 4.687499999999999e+01	 2.500000000000000e+00	 9.998446892307689e+00
0	 4.687499999999999e+01	 3.125000000000000e+00	 9.998475961538460e+00
0	 4.687499999999999e+01	 3.750000000000000e+00	 9.998503784615377e+00
0	 4.687499999999999e+01	 4.375000000000000e+00	 9.998530361538457e+00
0	 4.687499999999999e+01	 4.999999999999999e+00	 9.998555692307686e+00
0	 4.687499999999999e+01	 5.624999999999999e+00	 9.998579776923069e+00
0	 4.687499999999999e+01	 6.250000000000000e+00	 9.998602615384616e+00
0	 4.749999999999999e+01	 0.000000000000000e+00	 9.998102547692307e+00
0	 4.749999999999998e+01	 6.249999999999999e-01	 9.998136636307684e+00
0	 4.749999999999999e+01	 1.250000000000000e+00	 9.998169838769227e+00
0	 4.749999999999998e+01	 1.875000000000000e+00	 9.998202155076918e+00
0	 4.749999999999999e+01	 2.500000000000000e+00	 9.998233585230770e+00
0	 4.749999999999999e+01	 3.125000000000000e+00	 9.998264129230758e+00
0	 4.749999999999999e+01	 3.749999999999999e+00	 9.998293787076925e+00
0	 4.749999999999999e+01	 4.375000000000000e+00	 9.998322558769228e+00
0	 4.749999999999999e+01	 5.000000000000000e+00	 9.998350444307686e+00
0	 4.749999999999999e+01	 5.625000000000000e+00	 9.998377443692309e+00
0	 4.749999999999999e+01	 6.250000000000000e+00	 9.998403556923073e+00
0	 4.812499999999999e+01	 0.000000000000000e+00	 9.997875913846151e+00
0	 4.812500000000000e+01	 6.250000000000001e-01	 9.997909709846148e+00
0	 4.812499999999998e+01	 1.250000000000000e+00	 9.997942979692304e+00
0	 4.812499999999998e+01	 1.875000000000000e+00	 9.997975723384613e+00
0	 4.812499999999997e+01	 2.500000000000000e+00	 9.998007940923070e+00
0	 4.812499999999998e+01	 3.125000000000000e+00	 9.998039632307689e+00
0	 4.812499999999999e+01	 3.750000000000000e+00	 9.998070797538457e+00
0	 4.812499999999999e+01	 4.375000000000000e+00	 9.998101436615380e+00
0	 4.812499999999997e+01	 4.999999999999999e+00	 9.998131549538453e+00
0	 4.812499999999998e+01	 5.624999999999999e+00	 9.998161136307683e+00
0	 4.812499999999999e+01	 6.250000000000000e+00	 9.998190196923067e+00
0	 4.874999999999999e+01	 0.000000000000000e+00	 9.997638252307690e+00
0	 4.874999999999999e+01	 6.250000000000000e-01	 9.997671428307688e+00
0	 4.874999999999998e+01	 1.250000000000000e+00	 9.997704438153844e+00
0	 4.874999999999999e+01	 1.875000000000000e+00	 9.997737281846149e+00
0	 4.874999999999998e+01	 2.500000000000000e+00	 9.997769959384611e+00
0	 4.874999999999999e+01	 3.125000000000000e+00	 9.997802470769226e+00
0	 4.874999999999999e+01	 3.750000000000000e+00	 9.997834815999997e+00
0	 4.874999999999999e+01	 4.375000000000000e+00	 9.997866995076917e+00
0	 4.874999999999999e+01	 5.000000000000000e+00	 9.997899007999997e+00
0	 4.874999999999999e+01	 5.624999999999999e+00	 9.997930854769226e+00
0	 4.874999999999999e+01	 6.250000000000000e+00	 9.997962535384611e+00
0	 4.937499999999999e+01	 0.000000000000000e+00	 9.997389563076922e+00
0	 4.937499999999999e+01	 6.250000000000000e-01	 9.997421791692311e+00
0	 4.937499999999997e+01	 1.250000000000000e+00	 9.997454214153851e+00
0	 4.937499999999999e+01	 1.875000000000000e+00	 9.997486830461540e+00
0	 4.937499999999999e+01	 2.500000000000000e+00	 9.997519640615382e+00
0	 4.937499999999998e+01	 3.125000000000000e+00	 9.997552644615382e+00
0	 4.937499999999999e+01	 3.750000000000000e+00	 9.997585842461534e+00
0	 4.937499999999998e+01	 4.375000000000000e+00	 9.997619234153852e+00
0	 4.937499999999997e+01	 4.999999999999999e+00	 9.997652819692306e+00
0	 4.937499999999999e+01	 5.625000000000000e+00	 9.997686599076914e+00
0	 4.937499999999999e+01	 6.250000000000000e+00	 9.997720572307697e+00
0	 5.000000000000000e+01	 0.000000000000000e+00	 9.997129846153845e+00
0	 5.000000000000000e+01	 6.250000000000000e-01	 9.997160799999998e+00
0	 5.000000000000000e+01	 1.250000000000000e+00	 9.997192307692304e+00
0	 5.000000000000000e+01	 1.875000000000000e+00	 9.997224369230768e+00
0	 5.000000000000000e+01	 2.500000000000000e+00	 9.997256984615388e+00
0	 5.000000000000000e+01	 3.125000000000000e+00	 9.997290153846155e+00
0	 4.999999999999999e+01	 3.750000000000000e+00	 9.997323876923064e+00
0	 5.000000000000000e+01	 4.375000000000000e+00	 9.997358153846148e+00
0	 5.000000000000001e+01	 5.000000000000000e+00	 9.997392984615377e+00
0	 5.000000000000000e+01	 5.624999999999999e+00	 9.997428369230759e+00
0	 5.000000000000000e+01	 6.250000000000000e+00	 9.997464307692304e+00
0	 4.375000000000000e+01	 6.250000000000000e+00	 9.999383384615381e+00
0	 4.375000000000000e+01	 6.875000000000000e+00	 9.999439261538464e+00
0	 4.375000000000000e+01	 7.500000000000002e+00	 9.999494400000000e+00
0	 4.375000000000000e+01	 8.125000000000004e+00	 9.999548800000001e+00
0	 4.375000000000000e+01	 8.750000000000004e+00	 9.999602461538462e+00
0	 4.375000000000000e+01	 9.375000000000004e+00	 9.999655384615378e+00
0	 4.375000000000000e+01	 1.000000000000000e+01	 9.999707569230772e+00
0	 4.375000000000000e+01	 1.062500000000000e+01	 9.999759015384615e+00
0	 4.375000000000001e+01	 1.125000000000001e+01	 9.999809723076924e+00
0	 4.375000000000000e+01	 1.187500000000001e+01	 9.999859692307689e+00
0	 4.375000000000000e+01	 1.250000000000000e+01	 9.999908923076919e+00
0	 4.437500000000000e+01	 6.250000000000000e+00	 9.999255833846155e+00
0	 4.437500000000000e+01	 6.875000000000001e+00	 9.999307333538459e+00
0	 4.437499999999999e+01	 7.500000000000002e+00	 9.999358076307685e+00
0	 4.437500000000000e+01	 8.125000000000002e+00	 9.999408062153845e+00
0	 4.437499999999999e+01	 8.750000000000002e+00	 9.999457291076919e+00
0	 4.437500000000001e+01	 9.375000000000004e+00	 9.999505763076922e+00
0	 4.437499999999999e+01	 1.000000000000000e+01	 9.999553478153846e+00
0	 4.437500000000001e+01	 1.062500000000001e+01	 9.999600436307690e+00
0	 4.437500000000000e+01	 1.125000000000000e+01	 9.999646637538454e+00
0	 4.437500000000000e+01	 1.187500000000001e+01	 9.999692081846158e+00
0	 4.437500000000000e+01	 1.250000000000000e+01	 9.999736769230765e+00
0	 4.499999999999999e+01	 6.250000000000000e+00	 9.999113981538459e+00
0	 4.499999999999999e+01	 6.875000000000000e+00	 9.999163051076920e+00
0	 4.499999999999999e+01	 7.500000000000003e+00	 9.999211345230769e+00
0	 4.499999999999999e+01	 8.125000000000000e+00	 9.999258863999998e+00
0	 4.499999999999999e+01	 8.749999999999998e+00	 9.999305607384613e+00
0	 4.500000000000000e+01	 9.375000000000004e+00	 9.999351575384610e+00
0	 4.499999999999999e+01	 1.000000000000000e+01	 9.999396768000000e+00
0	 4.499999999999999e+01	 1.062500000000001e+01	 9.999441185230763e+00
0	 4.500000000000001e+01	 1.125000000000001e+01	 9.999484827076920e+00
0	 4.500000000000000e+01	 1.187500000000001e+01	 9.999527693538464e+00
0	 4.499999999999999e+01	 1.250000000000000e+01	 9.999569784615383e+00
0	 4.562500000000000e+01	 6.250000000000000e+00	 9.998957827692305e+00
0	 4.562499999999999e+01	 6.875000000000001e+00	 9.999006414153845e+00
0	 4.562499999999999e+01	 7.500000000000002e+00	 9.999054206769225e+00
0	 4.562500000000000e+01	 8.125000000000002e+00	 9.999101205538459e+00
0	 4.562500000000000e+01	 8.750000000000000e+00	 9.999147410461534e+00
0	 4.562499999999999e+01	 9.375000000000002e+00	 9.999192821538461e+00
0	 4.562499999999999e+01	 1.000000000000000e+01	 9.999237438769232e+00
0	 4.562500000000000e+01	 1.062500000000000e+01	 9.999281262153847e+00
0	 4.562499999999999e+01	 1.125000000000000e+01	 9.999324291692307e+00
0	 4.562500000000000e+01	 1.187500000000001e+01	 9.999366527384614e+00
0	 4.562500000000000e+01	 1.250000000000000e+01	 9.999407969230770e+00
0	 4.624999999999999e+01	 6.250000000000001e+00	 9.998787372307694e+00
0	 4.624999999999999e+01	 6.875000000000002e+00	 9.998837422769231e+00
0	 4.624999999999999e+01	 7.500000000000002e+00	 9.998886660923077e+00
0	 4.624999999999999e+01	 8.125000000000002e+00	 9.998935086769229e+00
0	 4.624999999999999e+01	 8.750000000000002e+00	 9.998982700307691e+00
0	 4.624999999999999e+01	 9.375000000000004e+00	 9.999029501538459e+00
0	 4.624999999999999e+01	 1.000000000000000e+01	 9.999075490461538e+00
0	 4.624999999999999e+01	 1.062500000000000e+01	 9.999120667076923e+00
0	 4.625000000000000e+01	 1.125000000000001e+01	 9.999165031384610e+00
0	 4.624999999999999e+01	 1.187500000000000e+01	 9.999208583384611e+00
0	 4.624999999999999e+01	 1.250000000000000e+01	 9.999251323076923e+00
0	 4.687499999999999e+01	 6.250000000000000e+00	 9.998602615384616e+00
0	 4.687499999999999e+01	 6.875000000000000e+00	 9.998656076923075e+00
0	 4.687499999999999e+01	 7.500000000000003e+00	 9.998708707692307e+00
0	 4.687500000000000e+01	 8.125000000000004e+00	 9.998760507692305e+00
0	 4.687499999999999e+01	 8.750000000000004e+00	 9.998811476923077e+00
0	 4.687499999999999e+01	 9.375000000000005e+00	 9.998861615384614e+00
0	 4.687499999999999e+01	 1.000000000000000e+01	 9.998910923076918e+00
0	 4.687499999999999e+01	 1.062500000000000e+01	 9.998959400000000e+00
0	 4.687499999999999e+01	 1.125000000000000e+01	 9.999007046153848e+00
0	 4.687499999999999e+01	 1.187500000000001e+01	 9.999053861538462e+00
0	 4.687499999999999e+01	 1.250000000000000e+01	 9.999099846153847e+00
0	 4.749999999999999e+01	 6.250000000000000e+00	 9.998403556923073e+00
0	 4.749999999999999e+01	 6.875000000000001e+00	 9.998462376615382e+00
0	 4.749999999999999e+01	 7.500000000000003e+00	 9.998520347076918e+00
0	 4.749999999999999e+01	 8.125000000000004e+00	 9.998577468307689e+00
0	 4.749999999999998e+01	 8.750000000000000e+00	 9.998633740307692e+00
0	 4.749999999999999e+01	 9.375000000000004e+00	 9.998689163076920e+00
0	 4.749999999999999e+01	 1.000000000000000e+01	 9.998743736615385e+00
0	 4.749999999999999e+01	 1.062500000000001e+01	 9.998797460923077e+00
0	 4.749999999999999e+01	 1.125000000000000e+01	 9.998850335999997e+00
0	 4.749999999999999e+01	 1.187500000000001e+01	 9.998902361846156e+00
0	 4.749999999999999e+01	 1.250000000000000e+01	 9.998953538461542e+00
0	 4.812499999999999e+01	 6.250000000000000e+00	 9.998190196923067e+00
0	 4.812499999999999e+01	 6.875000000000001e+00	 9.998256321846151e+00
0	 4.812499999999997e+01	 7.500000000000000e+00	 9.998321579076920e+00
0	 4.812499999999999e+01	 8.125000000000004e+00	 9.998385968615384e+00
0	 4.812499999999999e+01	 8.750000000000004e+00	 9.998449490461535e+00
0	 4.812499999999999e+01	 9.375000000000002e+00	 9.998512144615379e+00
0	 4.812499999999999e+01	 1.000000000000001e+01	 9.998573931076919e+00
0	 4.812499999999999e+01	 1.062500000000001e+01	 9.998634849846152e+00
0	 4.812499999999999e+01	 1.125000000000001e+01	 9.998694900923077e+00
0	 4.812499999999999e+01	 1.187500000000001e+01	 9.998754084307691e+00
0	 4.812499999999999e+01	 1.250000000000000e+01	 9.998812399999991e+00
0	 4.874999999999999e+01	 6.250000000000000e+00	 9.997962535384611e+00
0	 4.874999999999998e+01	 6.875000000000001e+00	 9.998037912615391e+00
0	 4.874999999999998e+01	 7.500000000000002e+00	 9.998112403692307e+00
0	 4.874999999999999e+01	 8.125000000000004e+00	 9.998186008615384e+00
0	 4.874999999999999e+01	 8.750000000000004e+00	 9.998258727384616e+00
0	 4.874999999999998e+01	 9.375000000000002e+00	 9.998330559999994e+00
0	 4.874999999999998e+01	 1.000000000000000e+01	 9.998401506461533e+00
0	 4.874999999999999e+01	 1.062500000000000e+01	 9.998471566769226e+00
0	 4.874999999999999e+01	 1.125000000000001e+01	 9.998540740923072e+00
0	 4.874999999999998e+01	 1.187500000000000e+01	 9.998609028923077e+00
0	 4.874999999999999e+01	 1.250000000000000e+01	 9.998676430769228e+00
0	 4.937499999999999e+01	 6.250000000000000e+00	 9.997720572307697e+00
0	 4.937499999999999e+01	 6.875000000000001e+00	 9.997807148923076e+00
0	 4.937499999999998e+01	 7.500000000000002e+00	 9.997892820923076e+00
0	 4.937499999999999e+01	 8.125000000000002e+00	 9.997977588307693e+00
0	 4.937499999999999e+01	 8.750000000000002e+00	 9.998061451076916e+00
0	 4.937499999999999e+01	 9.375000000000004e+00	 9.998144409230770e+00
0	 4.937499999999999e+01	 1.000000000000000e+01	 9.998226462769232e+00
0	 4.937499999999998e+01	 1.062500000000000e+01	 9.998307611692301e+00
0	 4.937499999999998e+01	 1.125000000000000e+01	 9.998387855999999e+00
0	 4.937499999999998e+01	 1.187500000000001e+01	 9.998467195692307e+00
0	 4.937499999999999e+01	 1.250000000000000e+01	 9.998545630769238e+00
0	 5.000000000000000e+01	 6.250000000000000e+00	 9.997464307692304e+00
0	 5.000000000000000e+01	 6.875000000000001e+00	 9.997564030769226e+00
0	 5.000000000000000e+01	 7.500000000000003e+00	 9.997662830769228e+00
0	 5.000000000000001e+01	 8.125000000000004e+00	 9.997760707692304e+00
0	 5.000000000000001e+01	 8.750000000000002e+00	 9.997857661538463e+00
0	 5.000000000000000e+01	 9.375000000000004e+00	 9.997953692307700e+00
0	 5.000000000000000e+01	 1.000000000000000e+01	 9.998048799999994e+00
0	 5.000000000000000e+01	 1.062500000000000e+01	 9.998142984615388e+00
0	 5.000000000000000e+01	 1.125000000000001e+01	 9.998236246153843e+00
0	 5.000000000000000e+01	 1.187500000000001e+01	 9.998328584615379e+00
0	 5.000000000000000e+01	 1.250000000000000e+01	 9.998420000000001e+00
0	 4.375000000000000e+01	 1.250000000000000e+01	 9.999908923076919e+00
0	 4.375000000000000e+01	 1.312500000000000e+01	 9.999931661538467e+00
0	 4.375000000000000e+01	 1.375000000000000e+01	 9.999956430769233e+00
0	 4.375000000000000e+01	 1.437500000000000e+01	 9.999983230769228e+00
0	 4.375000000000000e+01	 1.500000000000000e+01	 1.000001206153846e+01
0	 4.375000000000000e+01	 1.562500000000000e+01	 1.000004292307692e+01
0	 4.375000000000000e+01	 1.625000000000000e+01	 1.000007581538461e+01
0	 4.375000000000000e+01	 1.687500000000000e+01	 1.000011073846154e+01
0	 4.375000000000001e+01	 1.750000000000001e+01	 1.000014769230769e+01
0	 4.375000000000000e+01	 1.812500000000001e+01	 1.000018667692308e+01
0	 4.375000000000000e+01	 1.875000000000000e+01	 1.000022769230769e+01
0	 4.437500000000000e+01	 1.250000000000000e+01	 9.999736769230765e+00
0	 4.437500000000000e+01	 1.312500000000000e+01	 9.999768312307696e+00
0	 4.437499999999999e+01	 1.375000000000000e+01	 9.999801664615385e+00
0	 4.437500000000000e+01	 1.437500000000000e+01	 9.999836826153842e+00
0	 4.437499999999999e+01	 1.500000000000000e+01	 9.999873796923078e+00
0	 4.437500000000001e+01	 1.562500000000000e+01	 9.999912576923073e+00
0	 4.437499999999999e+01	 1.625000000000000e+01	 9.999953166153846e+00
0	 4.437500000000001e+01	 1.687500000000001e+01	 9.999995564615380e+00
0	 4.437500000000000e+01	 1.750000000000000e+01	 1.000003977230769e+01
0	 4.437500000000000e+01	 1.812500000000001e+01	 1.000008578923077e+01
0	 4.437500000000000e+01	 1.875000000000000e+01	 1.000013361538462e+01
0	 4.499999999999999e+01	 1.250000000000000e+01	 9.999569784615383e+00
0	 4.499999999999999e+01	 1.312500000000000e+01	 9.999609723076924e+00
0	 4.499999999999999e+01	 1.375000000000000e+01	 9.999651249230769e+00
0	 4.499999999999999e+01	 1.437500000000000e+01	 9.999694363076920e+00
0	 4.499999999999999e+01	 1.500000000000000e+01	 9.999739064615383e+00
0	 4.500000000000000e+01	 1.562500000000000e+01	 9.999785353846148e+00
0	 4.499999999999999e+01	 1.625000000000000e+01	 9.999833230769228e+00
0	 4.499999999999999e+01	 1.687500000000001e+01	 9.999882695384610e+00
0	 4.500000000000001e+01	 1.750000000000001e+01	 9.999933747692307e+00
0	 4.500000000000000e+01	 1.812500000000001e+01	 9.999986387692315e+00
0	 4.499999999999999e+01	 1.875000000000000e+01	 1.000004061538461e+01
0	 4.562500000000000e+01	 1.250000000000000e+01	 9.999407969230770e+00
0	 4.562499999999999e+01	 1.312500000000000e+01	 9.999455893846152e+00
0	 4.562499999999999e+01	 1.375000000000000e+01	 9.999505184615380e+00
0	 4.562500000000000e+01	 1.437500000000000e+01	 9.999555841538463e+00
0	 4.562500000000000e+01	 1.500000000000000e+01	 9.999607864615379e+00
0	 4.562499999999999e+01	 1.562500000000000e+01	 9.999661253846153e+00
0	 4.562499999999999e+01	 1.625000000000000e+01	 9.999716009230765e+00
0	 4.562500000000000e+01	 1.687500000000001e+01	 9.999772130769232e+00
0	 4.562499999999999e+01	 1.750000000000000e+01	 9.999829618461540e+00
0	 4.562500000000000e+01	 1.812500000000000e+01	 9.999888472307692e+00
0	 4.562500000000000e+01	 1.875000000000000e+01	 9.999948692307687e+00
0	 4.624999999999999e+01	 1.250000000000000e+01	 9.999251323076923e+00
0	 4.624999999999999e+01	 1.312500000000000e+01	 9.999306824615385e+00
0	 4.624999999999999e+01	 1.375000000000000e+01	 9.999363470769232e+00
0	 4.624999999999999e+01	 1.437500000000000e+01	 9.999421261538458e+00
0	 4.624999999999999e+01	 1.500000000000000e+01	 9.999480196923074e+00
0	 4.624999999999999e+01	 1.562500000000001e+01	 9.999540276923071e+00
0	 4.624999999999999e+01	 1.625000000000000e+01	 9.999601501538459e+00
0	 4.624999999999999e+01	 1.687500000000000e+01	 9.999663870769229e+00
0	 4.625000000000000e+01	 1.750000000000000e+01	 9.999727384615388e+00
0	 4.624999999999999e+01	 1.812500000000000e+01	 9.999792043076919e+00
0	 4.624999999999999e+01	 1.875000000000000e+01	 9.999857846153846e+00
0	 4.687499999999999e+01	 1.250000000000000e+01	 9.999099846153847e+00
0	 4.687499999999999e+01	 1.312500000000000e+01	 9.999162515384613e+00
0	 4.687499999999999e+01	 1.375000000000000e+01	 9.999226107692305e+00
0	 4.687500000000000e+01	 1.437500000000000e+01	 9.999290623076922e+00
0	 4.687499999999999e+01	 1.500000000000000e+01	 9.999356061538457e+00
0	 4.687499999999999e+01	 1.562500000000000e+01	 9.999422423076922e+00
0	 4.687499999999999e+01	 1.625000000000000e+01	 9.999489707692302e+00
0	 4.687499999999999e+01	 1.687500000000000e+01	 9.999557915384614e+00
0	 4.687499999999999e+01	 1.750000000000000e+01	 9.999627046153844e+00
0	 4.687499999999999e+01	 1.812500000000001e+01	 9.999697100000001e+00
0	 4.687499999999999e+01	 1.875000000000000e+01	 9.999768076923077e+00
0	 4.749999999999999e+01	 1.250000000000000e+01	 9.998953538461542e+00
0	 4.749999999999999e+01	 1.312500000000000e+01	 9.999022966153847e+00
0	 4.749999999999999e+01	 1.375000000000000e+01	 9.999093095384612e+00
0	 4.749999999999999e+01	 1.437500000000000e+01	 9.999163926153843e+00
0	 4.749999999999998e+01	 1.500000000000000e+01	 9.999235458461538e+00
0	 4.749999999999999e+01	 1.562500000000000e+01	 9.999307692307692e+00
0	 4.749999999999999e+01	 1.625000000000001e+01	 9.999380627692302e+00
0	 4.749999999999999e+01	 1.687500000000001e+01	 9.999454264615386e+00
0	 4.749999999999999e+01	 1.750000000000000e+01	 9.999528603076921e+00
0	 4.749999999999999e+01	 1.812500000000001e+01	 9.999603643076924e+00
0	 4.749999999999999e+01	 1.875000000000000e+01	 9.999679384615384e+00
0	 4.812499999999999e+01	 1.250000000000000e+01	 9.998812399999991e+00
0	 4.812499999999999e+01	 1.312500000000000e+01	 9.998888176923078e+00
0	 4.812499999999997e+01	 1.375000000000000e+01	 9.998964433846151e+00
0	 4.812499999999999e+01	 1.437500000000001e+01	 9.999041170769226e+00
0	 4.812499999999999e+01	 1.500000000000000e+01	 9.999118387692311e+00
0	 4.812499999999999e+01	 1.562500000000000e+01	 9.999196084615384e+00
0	 4.812499999999999e+01	 1.625000000000001e+01	 9.999274261538456e+00
0	 4.812499999999999e+01	 1.687500000000000e+01	 9.999352918461531e+00
0	 4.812499999999999e+01	 1.750000000000001e+01	 9.999432055384609e+00
0	 4.812499999999999e+01	 1.812500000000000e+01	 9.999511672307692e+00
0	 4.812499999999999e+01	 1.875000000000000e+01	 9.999591769230761e+00
0	 4.874999999999999e+01	 1.250000000000000e+01	 9.998676430769228e+00
0	 4.874999999999998e+01	 1.312500000000000e+01	 9.998758147692303e+00
0	 4.874999999999998e+01	 1.375000000000000e+01	 9.998840123076924e+00
0	 4.874999999999999e+01	 1.437500000000000e+01	 9.998922356923082e+00
0	 4.874999999999999e+01	 1.500000000000000e+01	 9.999004849230765e+00
0	 4.874999999999998e+01	 1.562500000000000e+01	 9.999087599999998e+00
0	 4.874999999999998e+01	 1.625000000000000e+01	 9.999170609230768e+00
0	 4.874999999999999e+01	 1.687500000000000e+01	 9.999253876923072e+00
0	 4.874999999999999e+01	 1.750000000000001e+01	 9.999337403076922e+00
0	 4.874999999999998e+01	 1.812500000000001e+01	 9.999421187692302e+00
0	 4.874999999999999e+01	 1.875000000000000e+01	 9.999505230769230e+00
0	 4.937499999999999e+01	 1.250000000000000e+01	 9.998545630769238e+00
0	 4.937499999999999e+01	 1.312500000000000e+01	 9.998632878461532e+00
0	 4.937499999999998e+01	 1.375000000000000e+01	 9.998720163076925e+00
0	 4.937499999999999e+01	 1.437500000000000e+01	 9.998807484615378e+00
0	 4.937499999999999e+01	 1.500000000000000e+01	 9.998894843076924e+00
0	 4.937499999999999e+01	 1.562500000000000e+01	 9.998982238461540e+00
0	 4.937499999999999e+01	 1.625000000000001e+01	 9.999069670769236e+00
0	 4.937499999999998e+01	 1.687500000000000e+01	 9.999157139999998e+00
0	 4.937499999999998e+01	 1.750000000000000e+01	 9.999244646153842e+00
0	 4.937499999999998e+01	 1.812500000000001e+01	 9.999332189230765e+00
0	 4.937499999999999e+01	 1.875000000000000e+01	 9.999419769230773e+00
0	 5.000000000000000e+01	 1.250000000000000e+01	 9.998420000000001e+00
0	 5.000000000000000e+01	 1.312500000000000e+01	 9.998512369230777e+00
0	 5.000000000000000e+01	 1.375000000000000e+01	 9.998604553846150e+00
0	 5.000000000000001e+01	 1.437500000000000e+01	 9.998696553846152e+00
0	 5.000000000000001e+01	 1.500000000000000e+01	 9.998788369230764e+00
0	 5.000000000000000e+01	 1.562500000000000e+01	 9.998880000000002e+00
0	 5.000000000000000e+01	 1.625000000000000e+01	 9.998971446153840e+00
0	 5.000000000000000e+01	 1.687500000000000e+01	 9.999062707692309e+00
0	 5.000000000000000e+01	 1.750000000000000e+01	 9.999153784615384e+00
0	 5.000000000000000e+01	 1.812500000000001e+01	 9.999244676923075e+00
0	 5.000000000000000e+01	 1.875000000000000e+01	 9.999335384615382e+00
0	 4.375000000000000e+01	 1.875000000000000e+01	 1.000022769230769e+01
0	 4.375000000000000e+01	 1.937500000000000e+01	 1.000025381538461e+01
0	 4.375000000000000e+01	 2.000000000000000e+01	 1.000027956923076e+01
0	 4.375000000000000e+01	 2.062500000000000e+01	 1.000030495384615e+01
0	 4.375000000000000e+01	 2.125000000000000e+01	 1.000032996923077e+01
0	 4.375000000000000e+01	 2.187500000000000e+01	 1.000035461538461e+01
0	 4.375000000000000e+01	 2.250000000000000e+01	 1.000037889230769e+01
0	 4.375000000000000e+01	 2.312500000000001e+01	 1.000040280000000e+01
0	 4.375000000000001e+01	 2.375000000000001e+01	 1.000042633846154e+01
0	 4.375000000000000e+01	 2.437500000000001e+01	 1.000044950769231e+01
0	 4.375000000000000e+01	 2.500000000000000e+01	 1.000047230769231e+01
0	 4.437500000000000e+01	 1.875000000000000e+01	 1.000013361538462e+01
0	 4.437500000000000e+01	 1.937500000000000e+01	 1.000015798923076e+01
0	 4.437499999999999e+01	 2.000000000000000e+01	 1.000018219692308e+01
0	 4.437500000000000e+01	 2.062500000000000e+01	 1.000020623846153e+01
0	 4.437499999999999e+01	 2.125000000000000e+01	 1.000023011384615e+01
0	 4.437500000000001e+01	 2.187500000000000e+01	 1.000025382307692e+01
0	 4.437499999999999e+01	 2.250000000000000e+01	 1.000027736615385e+01
0	 4.437500000000001e+01	 2.312500000000001e+01	 1.000030074307692e+01
0	 4.437500000000000e+01	 2.375000000000001e+01	 1.000032395384615e+01
0	 4.437500000000000e+01	 2.437500000000001e+01	 1.000034699846154e+01
0	 4.437500000000000e+01	 2.500000000000000e+01	 1.000036987692308e+01
0	 4.499999999999999e+01	 1.875000000000000e+01	 1.000004061538461e+01
0	 4.499999999999999e+01	 1.937500000000000e+01	 1.000006433846154e+01
0	 4.499999999999999e+01	 2.000000000000000e+01	 1.000008809846154e+01
0	 4.499999999999999e+01	 2.062500000000000e+01	 1.000011189538461e+01
0	 4.499999999999999e+01	 2.125000000000000e+01	 1.000013572923077e+01
0	 4.500000000000000e+01	 2.187500000000001e+01	 1.000015960000000e+01
0	 4.499999999999999e+01	 2.250000000000000e+01	 1.000018350769231e+01
0	 4.499999999999999e+01	 2.312500000000001e+01	 1.000020745230769e+01
0	 4.500000000000001e+01	 2.375000000000001e+01	 1.000023143384615e+01
0	 4.500000000000000e+01	 2.437500000000001e+01	 1.000025545230769e+01
0	 4.499999999999999e+01	 2.500000000000000e+01	 1.000027950769231e+01
0	 4.562500000000000e+01	 1.875000000000000e+01	 9.999948692307687e+00
0	 4.562499999999999e+01	 1.937500000000000e+01	 9.999972863076920e+00
0	 4.562499999999999e+01	 2.000000000000000e+01	 9.999997273846148e+00
0	 4.562500000000000e+01	 2.062500000000000e+01	 1.000002192461539e+01
0	 4.562500000000000e+01	 2.125000000000000e+01	 1.000004681538461e+01
0	 4.562499999999999e+01	 2.187500000000000e+01	 1.000007194615385e+01
0	 4.562499999999999e+01	 2.250000000000000e+01	 1.000009731692308e+01
0	 4.562500000000000e+01	 2.312500000000001e+01	 1.000012292769231e+01
0	 4.562499999999999e+01	 2.375000000000000e+01	 1.000014877846153e+01
0	 4.562500000000000e+01	 2.437500000000001e+01	 1.000017486923078e+01
0	 4.562500000000000e+01	 2.500000000000000e+01	 1.000020120000000e+01
0	 4.624999999999999e+01	 1.875000000000000e+01	 9.999857846153846e+00
0	 4.624999999999999e+01	 1.937500000000000e+01	 9.999883563076921e+00
0	 4.624999999999999e+01	 2.000000000000000e+01	 9.999909723076922e+00
0	 4.624999999999999e+01	 2.062500000000000e+01	 9.999936326153847e+00
0	 4.624999999999999e+01	 2.125000000000000e+01	 9.999963372307693e+00
0	 4.624999999999999e+01	 2.187500000000000e+01	 9.999990861538461e+00
0	 4.624999999999999e+01	 2.250000000000000e+01	 1.000001879384615e+01
0	 4.624999999999999e+01	 2.312500000000000e+01	 1.000004716923077e+01
0	 4.625000000000000e+01	 2.375000000000000e+01	 1.000007598769231e+01
0	 4.624999999999999e+01	 2.437500000000000e+01	 1.000010524923076e+01
0	 4.624999999999999e+01	 2.500000000000000e+01	 1.000013495384615e+01
0	 4.687499999999999e+01	 1.875000000000000e+01	 9.999768076923077e+00
0	 4.687499999999999e+01	 1.937500000000000e+01	 9.999796438461541e+00
0	 4.687499999999999e+01	 2.000000000000000e+01	 9.999825446153842e+00
0	 4.687500000000000e+01	 2.062500000000000e+01	 9.999855100000001e+00
0	 4.687499999999999e+01	 2.125000000000000e+01	 9.999885399999993e+00
0	 4.687499999999999e+01	 2.187500000000001e+01	 9.999916346153853e+00
0	 4.687499999999999e+01	 2.250000000000000e+01	 9.999947938461537e+00
0	 4.687499999999999e+01	 2.312500000000000e+01	 9.999980176923078e+00
0	 4.687499999999999e+01	 2.375000000000001e+01	 1.000001306153846e+01
0	 4.687499999999999e+01	 2.437500000000001e+01	 1.000004659230770e+01
0	 4.687499999999999e+01	 2.500000000000000e+01	 1.000008076923078e+01
0	 4.749999999999999e+01	 1.875000000000000e+01	 9.999679384615384e+00
0	 4.749999999999999e+01	 1.937500000000000e+01	 9.999711489230766e+00
0	 4.749999999999999e+01	 2.000000000000000e+01	 9.999744443076924e+00
0	 4.749999999999999e+01	 2.062500000000000e+01	 9.999778246153843e+00
0	 4.749999999999998e+01	 2.125000000000000e+01	 9.999812898461542e+00
0	 4.749999999999999e+01	 2.187500000000000e+01	 9.999848400000003e+00
0	 4.749999999999999e+01	 2.250000000000000e+01	 9.999884750769230e+00
0	 4.749999999999999e+01	 2.312500000000001e+01	 9.999921950769231e+00
0	 4.749999999999999e+01	 2.375000000000001e+01	 9.999960000000003e+00
0	 4.749999999999999e+01	 2.437500000000001e+01	 9.999998898461545e+00
0	 4.749999999999999e+01	 2.500000000000000e+01	 1.000003864615386e+01
0	 4.812499999999999e+01	 1.875000000000000e+01	 9.999591769230761e+00
0	 4.812499999999999e+01	 1.937500000000001e+01	 9.999628715384617e+00
0	 4.812499999999997e+01	 2.000000000000000e+01	 9.999666713846150e+00
0	 4.812499999999999e+01	 2.062500000000001e+01	 9.999705764615380e+00
0	 4.812499999999999e+01	 2.125000000000000e+01	 9.999745867692315e+00
0	 4.812499999999999e+01	 2.187500000000000e+01	 9.999787023076919e+00
0	 4.812499999999999e+01	 2.250000000000000e+01	 9.999829230769235e+00
0	 4.812499999999999e+01	 2.312500000000000e+01	 9.999872490769230e+00
0	 4.812499999999999e+01	 2.375000000000000e+01	 9.999916803076932e+00
0	 4.812499999999999e+01	 2.437500000000001e+01	 9.999962167692315e+00
0	 4.812499999999999e+01	 2.500000000000000e+01	 1.000000858461538e+01
0	 4.874999999999999e+01	 1.875000000000000e+01	 9.999505230769230e+00
0	 4.874999999999998e+01	 1.937500000000000e+01	 9.999548116923076e+00
0	 4.874999999999998e+01	 2.000000000000000e+01	 9.999592258461540e+00
0	 4.874999999999999e+01	 2.062500000000000e+01	 9.999637655384619e+00
0	 4.874999999999999e+01	 2.125000000000000e+01	 9.999684307692313e+00
0	 4.874999999999998e+01	 2.187500000000000e+01	 9.999732215384620e+00
0	 4.874999999999998e+01	 2.250000000000000e+01	 9.999781378461536e+00
0	 4.874999999999999e+01	 2.312500000000000e+01	 9.999831796923079e+00
0	 4.874999999999999e+01	 2.375000000000001e+01	 9.999883470769232e+00
0	 4.874999999999998e+01	 2.437500000000000e+01	 9.999936399999998e+00
0	 4.874999999999999e+01	 2.500000000000000e+01	 9.999990584615389e+00
0	 4.937499999999999e+01	 1.875000000000000e+01	 9.999419769230773e+00
0	 4.937499999999999e+01	 1.937500000000000e+01	 9.999469693846159e+00
0	 4.937499999999998e+01	 2.000000000000000e+01	 9.999521076923074e+00
0	 4.937499999999999e+01	 2.062500000000000e+01	 9.999573918461534e+00
0	 4.937499999999999e+01	 2.125000000000000e+01	 9.999628218461531e+00
0	 4.937499999999999e+01	 2.187500000000000e+01	 9.999683976923080e+00
0	 4.937499999999999e+01	 2.250000000000001e+01	 9.999741193846166e+00
0	 4.937499999999998e+01	 2.312500000000001e+01	 9.999799869230774e+00
0	 4.937499999999998e+01	 2.375000000000000e+01	 9.999860003076925e+00
0	 4.937499999999998e+01	 2.437500000000001e+01	 9.999921595384622e+00
0	 4.937499999999999e+01	 2.500000000000000e+01	 9.999984646153855e+00
0	 5.000000000000000e+01	 1.875000000000000e+01	 9.999335384615382e+00
0	 5.000000000000000e+01	 1.937500000000000e+01	 9.999393446153835e+00
0	 5.000000000000000e+01	 2.000000000000000e+01	 9.999453169230758e+00
0	 5.000000000000001e+01	 2.062500000000001e+01	 9.999514553846158e+00
0	 5.000000000000001e+01	 2.125000000000000e+01	 9.999577600000004e+00
0	 5.000000000000000e+01	 2.187500000000000e+01	 9.999642307692309e+00
0	 5.000000000000000e+01	 2.250000000000000e+01	 9.999708676923081e+00
0	 5.000000000000000e+01	 2.312500000000001e+01	 9.999776707692320e+00
0	 5.000000000000000e+01	 2.375000000000001e+01	 9.999846400000008e+00
0	 5.000000000000000e+01	 2.437500000000001e+01	 9.999917753846161e+00
0	 5.000000000000000e+01	 2.500000000000000e+01	 9.999990769230781e+00
0	 4.375000000000000e+01	 2.500000000000000e+01	 1.000047230769231e+01
0	 4.375000000000000e+01	 2.562500000000000e+01	 1.000045806153846e+01
0	 4.375000000000001e+01	 2.625000000000000e+01	 1.000044547692308e+01
0	 4.375000000000000e+01	 2.687499999999999e+01	 1.000043455384615e+01
0	 4.375000000000000e+01	 2.749999999999999e+01	 1.000042529230769e+01
0	 4.375000000000000e+01	 2.812499999999999e+01	 1.000041769230770e+01
0	 4.375000000000000e+01	 2.874999999999999e+01	 1.000041175384615e+01
0	 4.375000000000000e+01	 2.937499999999999e+01	 1.000040747692307e+01
0	 4.375000000000000e+01	 2.999999999999998e+01	 1.000040486153846e+01
0	 4.375000000000000e+01	 3.062499999999998e+01	 1.000040390769230e+01
0	 4.375000000000000e+01	 3.125000000000000e+01	 1.000040461538461e+01
0	 4.437500000000000e+01	 2.500000000000000e+01	 1.000036987692308e+01
0	 4.437500000000000e+01	 2.562500000000000e+01	 1.000036225538462e+01
0	 4.437500000000000e+01	 2.625000000000000e+01	 1.000035611076923e+01
0	 4.437500000000001e+01	 2.687500000000000e+01	 1.000035144307692e+01
0	 4.437499999999999e+01	 2.749999999999999e+01	 1.000034825230769e+01
0	 4.437500000000000e+01	 2.812499999999999e+01	 1.000034653846154e+01
0	 4.437499999999999e+01	 2.874999999999999e+01	 1.000034630153846e+01
0	 4.437500000000000e+01	 2.937499999999999e+01	 1.000034754153845e+01
0	 4.437500000000000e+01	 2.999999999999999e+01	 1.000035025846154e+01
0	 4.437500000000000e+01	 3.062499999999998e+01	 1.000035445230769e+01
0	 4.437500000000000e+01	 3.125000000000000e+01	 1.000036012307692e+01
0	 4.499999999999999e+01	 2.500000000000000e+01	 1.000027950769231e+01
0	 4.499999999999999e+01	 2.562500000000000e+01	 1.000027760615385e+01
0	 4.500000000000000e+01	 2.625000000000000e+01	 1.000027699692308e+01
0	 4.499999999999999e+01	 2.687500000000000e+01	 1.000027768000000e+01
0	 4.499999999999999e+01	 2.749999999999999e+01	 1.000027965538462e+01
0	 4.500000000000000e+01	 2.812499999999999e+01	 1.000028292307693e+01
0	 4.500000000000000e+01	 2.874999999999999e+01	 1.000028748307692e+01
0	 4.500000000000000e+01	 2.937499999999998e+01	 1.000029333538462e+01
0	 4.500000000000000e+01	 2.999999999999999e+01	 1.000030048000000e+01
0	 4.500000000000000e+01	 3.062499999999998e+01	 1.000030891692306e+01
0	 4.499999999999999e+01	 3.125000000000000e+01	 1.000031864615384e+01
0	 4.562500000000000e+01	 2.500000000000000e+01	 1.000020120000000e+01
0	 4.562500000000000e+01	 2.562500000000000e+01	 1.000020411384616e+01
0	 4.562499999999999e+01	 2.624999999999999e+01	 1.000020813538462e+01
0	 4.562499999999999e+01	 2.687499999999999e+01	 1.000021326461539e+01
0	 4.562499999999999e+01	 2.749999999999999e+01	 1.000021950153846e+01
0	 4.562500000000000e+01	 2.812499999999999e+01	 1.000022684615384e+01
0	 4.562499999999999e+01	 2.874999999999999e+01	 1.000023529846154e+01
0	 4.562499999999999e+01	 2.937499999999999e+01	 1.000024485846154e+01
0	 4.562499999999999e+01	 2.999999999999998e+01	 1.000025552615385e+01
0	 4.562499999999999e+01	 3.062499999999998e+01	 1.000026730153846e+01
0	 4.562500000000000e+01	 3.125000000000000e+01	 1.000028018461540e+01
0	 4.624999999999999e+01	 2.500000000000000e+01	 1.000013495384615e+01
0	 4.624999999999999e+01	 2.562499999999999e+01	 1.000014177846154e+01
0	 4.624999999999999e+01	 2.625000000000000e+01	 1.000014952615385e+01
0	 4.625000000000000e+01	 2.687499999999999e+01	 1.000015819692308e+01
0	 4.625000000000000e+01	 2.749999999999999e+01	 1.000016779076922e+01
0	 4.624999999999999e+01	 2.812499999999998e+01	 1.000017830769231e+01
0	 4.624999999999999e+01	 2.874999999999999e+01	 1.000018974769231e+01
0	 4.624999999999999e+01	 2.937499999999999e+01	 1.000020211076923e+01
0	 4.624999999999999e+01	 2.999999999999999e+01	 1.000021539692307e+01
0	 4.624999999999999e+01	 3.062499999999999e+01	 1.000022960615383e+01
0	 4.624999999999999e+01	 3.125000000000000e+01	 1.000024473846154e+01
0	 4.687499999999999e+01	 2.500000000000000e+01	 1.000008076923078e+01
0	 4.687499999999999e+01	 2.562500000000000e+01	 1.000009059999999e+01
0	 4.687499999999999e+01	 2.624999999999999e+01	 1.000010116923077e+01
0	 4.687499999999999e+01	 2.687499999999999e+01	 1.000011247692308e+01
0	 4.687499999999998e+01	 2.749999999999998e+01	 1.000012452307693e+01
0	 4.687499999999999e+01	 2.812499999999999e+01	 1.000013730769231e+01
0	 4.687500000000000e+01	 2.874999999999999e+01	 1.000015083076922e+01
0	 4.687499999999999e+01	 2.937499999999999e+01	 1.000016509230769e+01
0	 4.687499999999999e+01	 2.999999999999998e+01	 1.000018009230769e+01
0	 4.687499999999998e+01	 3.062499999999998e+01	 1.000019583076923e+01
0	 4.687499999999999e+01	 3.125000000000000e+01	 1.000021230769231e+01
0	 4.749999999999999e+01	 2.500000000000000e+01	 1.000003864615386e+01
0	 4.749999999999998e+01	 2.562500000000000e+01	 1.000005057846154e+01
0	 4.749999999999997e+01	 2.624999999999999e+01	 1.000006306461538e+01
0	 4.749999999999999e+01	 2.687499999999999e+01	 1.000007610461539e+01
0	 4.749999999999999e+01	 2.749999999999999e+01	 1.000008969846153e+01
0	 4.749999999999999e+01	 2.812499999999999e+01	 1.000010384615385e+01
0	 4.749999999999999e+01	 2.874999999999998e+01	 1.000011854769231e+01
0	 4.749999999999999e+01	 2.937499999999999e+01	 1.000013380307692e+01
0	 4.749999999999999e+01	 2.999999999999998e+01	 1.000014961230769e+01
0	 4.749999999999999e+01	 3.062499999999998e+01	 1.000016597538460e+01
0	 4.749999999999999e+01	 3.125000000000000e+01	 1.000018289230768e+01
0	 4.812499999999999e+01	 2.500000000000000e+01	 1.000000858461538e+01
0	 4.812499999999998e+01	 2.562499999999999e+01	 1.000002171384616e+01
0	 4.812499999999999e+01	 2.625000000000000e+01	 1.000003521230769e+01
0	 4.812499999999998e+01	 2.687499999999999e+01	 1.000004908000000e+01
0	 4.812499999999997e+01	 2.749999999999999e+01	 1.000006331692307e+01
0	 4.812499999999999e+01	 2.812499999999999e+01	 1.000007792307692e+01
0	 4.812499999999999e+01	 2.874999999999999e+01	 1.000009289846153e+01
0	 4.812499999999999e+01	 2.937499999999998e+01	 1.000010824307692e+01
0	 4.812499999999997e+01	 2.999999999999998e+01	 1.000012395692307e+01
0	 4.812499999999999e+01	 3.062499999999998e+01	 1.000014004000000e+01
0	 4.812499999999999e+01	 3.125000000000000e+01	 1.000015649230767e+01
0	 4.874999999999999e+01	 2.500000000000000e+01	 9.999990584615389e+00
0	 4.874999999999998e+01	 2.562500000000000e+01	 1.000000400615385e+01
0	 4.874999999999999e+01	 2.625000000000000e+01	 1.000001761230769e+01
0	 4.874999999999998e+01	 2.687499999999999e+01	 1.000003140307694e+01
0	 4.874999999999999e+01	 2.749999999999999e+01	 1.000004537846154e+01
0	 4.874999999999997e+01	 2.812499999999998e+01	 1.000005953846154e+01
0	 4.874999999999999e+01	 2.874999999999999e+01	 1.000007388307693e+01
0	 4.874999999999998e+01	 2.937499999999998e+01	 1.000008841230769e+01
0	 4.874999999999998e+01	 2.999999999999998e+01	 1.000010312615385e+01
0	 4.874999999999998e+01	 3.062499999999998e+01	 1.000011802461538e+01
0	 4.874999999999999e+01	 3.125000000000000e+01	 1.000013310769229e+01
0	 4.937499999999999e+01	 2.500000000000000e+01	 9.999984646153855e+00
0	 4.937499999999999e+01	 2.562500000000000e+01	 9.999997455384612e+00
0	 4.937499999999999e+01	 2.624999999999999e+01	 1.000001026461538e+01
0	 4.937499999999998e+01	 2.687499999999999e+01	 1.000002307384615e+01
0	 4.937499999999999e+01	 2.750000000000000e+01	 1.000003588307693e+01
0	 4.937499999999999e+01	 2.812499999999999e+01	 1.000004869230769e+01
0	 4.937499999999999e+01	 2.874999999999999e+01	 1.000006150153846e+01
0	 4.937499999999998e+01	 2.937499999999999e+01	 1.000007431076923e+01
0	 4.937499999999999e+01	 2.999999999999999e+01	 1.000008711999999e+01
0	 4.937499999999998e+01	 3.062499999999998e+01	 1.000009992923077e+01
0	 4.937499999999999e+01	 3.125000000000000e+01	 1.000011273846154e+01
0	 5.000000000000000e+01	 2.500000000000000e+01	 9.999990769230781e+00
0	 5.000000000000000e+01	 2.562500000000000e+01	 1.000000206153847e+01
0	 5.000000000000000e+01	 2.625000000000000e+01	 1.000001316923077e+01
0	 5.000000000000000e+01	 2.687499999999999e+01	 1.000002409230769e+01
0	 5.000000000000000e+01	 2.749999999999999e+01	 1.000003483076924e+01
0	 5.000000000000000e+01	 2.812499999999999e+01	 1.000004538461539e+01
0	 5.000000000000000e+01	 2.874999999999999e+01	 1.000005575384615e+01
0	 5.000000000000001e+01	 2.937499999999999e+01	 1.000006593846153e+01
0	 5.000000000000000e+01	 2.999999999999998e+01	 1.000007593846154e+01
0	 5.000000000000000e+01	 3.062499999999998e+01	 1.000008575384614e+01
0	 5.000000000000000e+01	 3.125000000000000e+01	 1.000009538461538e+01
0	 4.375000000000000e+01	 3.125000000000000e+01	 1.000040461538461e+01
0	 4.375000000000000e+01	 3.187500000000000e+01	 1.000038981538462e+01
0	 4.375000000000001e+01	 3.250000000000001e+01	 1.000037464615384e+01
0	 4.375000000000000e+01	 3.312499999999999e+01	 1.000035910769230e+01
0	 4.375000000000000e+01	 3.374999999999999e+01	 1.000034319999999e+01
0	 4.375000000000000e+01	 3.437499999999999e+01	 1.000032692307692e+01
0	 4.375000000000000e+01	 3.499999999999999e+01	 1.000031027692307e+01
0	 4.375000000000000e+01	 3.562499999999999e+01	 1.000029326153846e+01
0	 4.375000000000000e+01	 3.624999999999998e+01	 1.000027587692307e+01
0	 4.375000000000000e+01	 3.687499999999998e+01	 1.000025812307691e+01
0	 4.375000000000000e+01	 3.750000000000000e+01	 1.000024000000000e+01
0	 4.437500000000000e+01	 3.125000000000000e+01	 1.000036012307692e+01
0	 4.437500000000000e+01	 3.187500000000000e+01	 1.000034613384615e+01
0	 4.437500000000000e+01	 3.249999999999999e+01	 1.000033190461538e+01
0	 4.437500000000001e+01	 3.312499999999999e+01	 1.000031743538461e+01
0	 4.437499999999999e+01	 3.374999999999999e+01	 1.000030272615384e+01
0	 4.437500000000000e+01	 3.437499999999999e+01	 1.000028777692308e+01
0	 4.437499999999999e+01	 3.499999999999999e+01	 1.000027258769231e+01
0	 4.437500000000000e+01	 3.562499999999999e+01	 1.000025715846154e+01
0	 4.437500000000000e+01	 3.624999999999999e+01	 1.000024148923078e+01
0	 4.437500000000000e+01	 3.687499999999998e+01	 1.000022558000000e+01
0	 4.437500000000000e+01	 3.750000000000000e+01	 1.000020943076924e+01
0	 4.499999999999999e+01	 3.125000000000000e+01	 1.000031864615384e+01
0	 4.499999999999999e+01	 3.187500000000000e+01	 1.000030535999999e+01
0	 4.500000000000000e+01	 3.250000000000000e+01	 1.000029196307692e+01
0	 4.499999999999999e+01	 3.312500000000000e+01	 1.000027845538461e+01
0	 4.499999999999999e+01	 3.374999999999999e+01	 1.000026483692307e+01
0	 4.500000000000000e+01	 3.437499999999999e+01	 1.000025110769230e+01
0	 4.500000000000000e+01	 3.499999999999999e+01	 1.000023726769230e+01
0	 4.500000000000000e+01	 3.562499999999998e+01	 1.000022331692307e+01
0	 4.500000000000000e+01	 3.624999999999999e+01	 1.000020925538461e+01
0	 4.500000000000000e+01	 3.687499999999999e+01	 1.000019508307693e+01
0	 4.499999999999999e+01	 3.749999999999999e+01	 1.000018080000000e+01
0	 4.562500000000000e+01	 3.125000000000000e+01	 1.000028018461540e+01
0	 4.562500000000000e+01	 3.187500000000000e+01	 1.000026749384614e+01
0	 4.562499999999999e+01	 3.249999999999999e+01	 1.000025482153846e+01
0	 4.562499999999999e+01	 3.312499999999999e+01	 1.000024216769230e+01
0	 4.562499999999999e+01	 3.375000000000000e+01	 1.000022953230769e+01
0	 4.562500000000000e+01	 3.437499999999999e+01	 1.000021691538461e+01
0	 4.562499999999999e+01	 3.499999999999999e+01	 1.000020431692308e+01
0	 4.562499999999999e+01	 3.562499999999998e+01	 1.000019173692307e+01
0	 4.562499999999999e+01	 3.624999999999998e+01	 1.000017917538462e+01
0	 4.562499999999999e+01	 3.687499999999998e+01	 1.000016663230769e+01
0	 4.562500000000000e+01	 3.749999999999999e+01	 1.000015410769230e+01
0	 4.624999999999999e+01	 3.125000000000000e+01	 1.000024473846154e+01
0	 4.624999999999999e+01	 3.187499999999999e+01	 1.000023253538461e+01
0	 4.624999999999999e+01	 3.249999999999999e+01	 1.000022048000000e+01
0	 4.625000000000000e+01	 3.312500000000000e+01	 1.000020857230770e+01
0	 4.625000000000000e+01	 3.374999999999999e+01	 1.000019681230769e+01
0	 4.624999999999999e+01	 3.437499999999999e+01	 1.000018520000000e+01
0	 4.624999999999999e+01	 3.499999999999999e+01	 1.000017373538461e+01
0	 4.624999999999999e+01	 3.562499999999999e+01	 1.000016241846154e+01
0	 4.624999999999999e+01	 3.624999999999998e+01	 1.000015124923078e+01
0	 4.624999999999999e+01	 3.687499999999999e+01	 1.000014022769231e+01
0	 4.624999999999999e+01	 3.750000000000001e+01	 1.000012935384616e+01
0	 4.687499999999999e+01	 3.125000000000000e+01	 1.000021230769231e+01
0	 4.687499999999999e+01	 3.187500000000000e+01	 1.000020048461539e+01
0	 4.687499999999999e+01	 3.250000000000000e+01	 1.000018893846153e+01
0	 4.687499999999999e+01	 3.312499999999999e+01	 1.000017766923077e+01
0	 4.687499999999998e+01	 3.374999999999998e+01	 1.000016667692307e+01
0	 4.687499999999999e+01	 3.437499999999999e+01	 1.000015596153847e+01
0	 4.687500000000000e+01	 3.499999999999999e+01	 1.000014552307692e+01
0	 4.687499999999999e+01	 3.562499999999999e+01	 1.000013536153846e+01
0	 4.687499999999999e+01	 3.624999999999999e+01	 1.000012547692308e+01
0	 4.687499999999998e+01	 3.687499999999999e+01	 1.000011586923077e+01
0	 4.687499999999999e+01	 3.750000000000000e+01	 1.000010653846154e+01
0	 4.749999999999999e+01	 3.125000000000000e+01	 1.000018289230768e+01
0	 4.749999999999998e+01	 3.187500000000000e+01	 1.000017134153845e+01
0	 4.749999999999997e+01	 3.249999999999999e+01	 1.000016019692307e+01
0	 4.749999999999999e+01	 3.312499999999999e+01	 1.000014945846154e+01
0	 4.749999999999999e+01	 3.374999999999999e+01	 1.000013912615384e+01
0	 4.749999999999999e+01	 3.437499999999999e+01	 1.000012920000000e+01
0	 4.749999999999999e+01	 3.499999999999999e+01	 1.000011968000000e+01
0	 4.749999999999999e+01	 3.562499999999999e+01	 1.000011056615385e+01
0	 4.749999999999999e+01	 3.624999999999999e+01	 1.000010185846154e+01
0	 4.749999999999999e+01	 3.687499999999998e+01	 1.000009355692308e+01
0	 4.749999999999999e+01	 3.750000000000001e+01	 1.000008566153847e+01
0	 4.812499999999999e+01	 3.125000000000000e+01	 1.000015649230767e+01
0	 4.812499999999998e+01	 3.187500000000000e+01	 1.000014510615384e+01
0	 4.812499999999999e+01	 3.250000000000000e+01	 1.000013425538461e+01
0	 4.812499999999998e+01	 3.312499999999999e+01	 1.000012394000000e+01
0	 4.812499999999997e+01	 3.374999999999999e+01	 1.000011416000000e+01
0	 4.812499999999999e+01	 3.437499999999999e+01	 1.000010491538461e+01
0	 4.812499999999999e+01	 3.499999999999999e+01	 1.000009620615384e+01
0	 4.812499999999999e+01	 3.562499999999999e+01	 1.000008803230770e+01
0	 4.812499999999997e+01	 3.624999999999998e+01	 1.000008039384616e+01
0	 4.812499999999999e+01	 3.687499999999998e+01	 1.000007329076924e+01
0	 4.812499999999999e+01	 3.750000000000000e+01	 1.000006672307692e+01
0	 4.874999999999999e+01	 3.125000000000000e+01	 1.000013310769229e+01
0	 4.874999999999998e+01	 3.187500000000000e+01	 1.000012177846153e+01
0	 4.874999999999999e+01	 3.250000000000001e+01	 1.000011111384615e+01
0	 4.874999999999998e+01	 3.312499999999999e+01	 1.000010111384615e+01
0	 4.874999999999999e+01	 3.375000000000000e+01	 1.000009177846153e+01
0	 4.874999999999997e+01	 3.437499999999998e+01	 1.000008310769230e+01
0	 4.874999999999999e+01	 3.499999999999999e+01	 1.000007510153846e+01
0	 4.874999999999998e+01	 3.562499999999999e+01	 1.000006775999999e+01
0	 4.874999999999998e+01	 3.624999999999998e+01	 1.000006108307692e+01
0	 4.874999999999998e+01	 3.687499999999998e+01	 1.000005507076923e+01
0	 4.874999999999999e+01	 3.750000000000000e+01	 1.000004972307692e+01
0	 4.937499999999999e+01	 3.125000000000000e+01	 1.000011273846154e+01
0	 4.937499999999999e+01	 3.187500000000000e+01	 1.000010135846154e+01
0	 4.937499999999999e+01	 3.249999999999999e+01	 1.000009077230768e+01
0	 4.937499999999998e+01	 3.312499999999999e+01	 1.000008098000000e+01
0	 4.937499999999999e+01	 3.374999999999999e+01	 1.000007198153846e+01
0	 4.937499999999999e+01	 3.437499999999999e+01	 1.000006377692308e+01
0	 4.937499999999999e+01	 3.499999999999999e+01	 1.000005636615384e+01
0	 4.937499999999998e+01	 3.562499999999999e+01	 1.000004974923077e+01
0	 4.937499999999999e+01	 3.624999999999999e+01	 1.000004392615384e+01
0	 4.937499999999998e+01	 3.687499999999999e+01	 1.000003889692308e+01
0	 4.937499999999999e+01	 3.750000000000000e+01	 1.000003466153849e+01
0	 5.000000000000000e+01	 3.125000000000000e+01	 1.000009538461538e+01
0	 5.000000000000000e+01	 3.187500000000000e+01	 1.000008384615384e+01
0	 5.000000000000000e+01	 3.249999999999999e+01	 1.000007323076922e+01
0	 5.000000000000000e+01	 3.312499999999999e+01	 1.000006353846153e+01
0	 5.000000000000000e+01	 3.374999999999999e+01	 1.000005476923075e+01
0	 5.000000000000000e+01	 3.437499999999999e+01	 1.000004692307691e+01
0	 5.000000000000000e+01	 3.499999999999999e+01	 1.000004000000000e+01
0	 5.000000000000001e+01	 3.562499999999999e+01	 1.000003400000000e+01
0	 5.000000000000000e+01	 3.624999999999998e+01	 1.000002892307691e+01
0	 5.000000000000000e+01	 3.687499999999998e+01	 1.000002476923076e+01
0	 5.000000000000000e+01	 3.750000000000000e+01	 1.000002153846154e+01
0	 4.375000000000000e+01	 3.750000000000000e+01	 1.000024000000000e+01
0	 4.375000000000000e+01	 3.812500000000000e+01	 1.000022155384615e+01
0	 4.375000000000001e+01	 3.875000000000001e+01	 1.000020283076924e+01
0	 4.375000000000000e+01	 3.937499999999999e+01	 1.000018383076923e+01
0	 4.375000000000000e+01	 3.999999999999999e+01	 1.000016455384616e+01
0	 4.375000000000000e+01	 4.062499999999999e+01	 1.000014500000000e+01
0	 4.375000000000000e+01	 4.124999999999999e+01	 1.000012516923077e+01
0	 4.375000000000000e+01	 4.187499999999999e+01	 1.000010506153845e+01
0	 4.375000000000000e+01	 4.249999999999999e+01	 1.000008467692308e+01
0	 4.375000000000000e+01	 4.312499999999999e+01	 1.000006401538460e+01
0	 4.375000000000000e+01	 4.375000000000000e+01	 1.000004307692308e+01
0	 4.437500000000000e+01	 3.750000000000000e+01	 1.000020943076924e+01
0	 4.437500000000000e+01	 3.812499999999999e+01	 1.000019412923077e+01
0	 4.437500000000000e+01	 3.875000000000000e+01	 1.000017852307692e+01
0	 4.437500000000001e+01	 3.937500000000000e+01	 1.000016261230769e+01
0	 4.437499999999999e+01	 3.999999999999999e+01	 1.000014639692307e+01
0	 4.437500000000000e+01	 4.062499999999999e+01	 1.000012987692308e+01
0	 4.437499999999999e+01	 4.124999999999999e+01	 1.000011305230770e+01
0	 4.437500000000000e+01	 4.187499999999999e+01	 1.000009592307693e+01
0	 4.437500000000000e+01	 4.249999999999999e+01	 1.000007848923078e+01
0	 4.437500000000000e+01	 4.312499999999998e+01	 1.000006075076923e+01
0	 4.437500000000000e+01	 4.375000000000000e+01	 1.000004270769231e+01
0	 4.499999999999999e+01	 3.749999999999999e+01	 1.000018080000000e+01
0	 4.499999999999999e+01	 3.812499999999999e+01	 1.000016819076923e+01
0	 4.500000000000000e+01	 3.875000000000000e+01	 1.000015524923077e+01
0	 4.499999999999999e+01	 3.937500000000000e+01	 1.000014197538462e+01
0	 4.499999999999999e+01	 4.000000000000000e+01	 1.000012836923078e+01
0	 4.500000000000000e+01	 4.062499999999999e+01	 1.000011443076923e+01
0	 4.500000000000000e+01	 4.124999999999999e+01	 1.000010016000000e+01
0	 4.500000000000000e+01	 4.187499999999999e+01	 1.000008555692308e+01
0	 4.500000000000000e+01	 4.249999999999999e+01	 1.000007062153847e+01
0	 4.500000000000000e+01	 4.312499999999999e+01	 1.000005535384616e+01
0	 4.499999999999999e+01	 4.375000000000000e+01	 1.000003975384615e+01
0	 4.562500000000000e+01	 3.749999999999999e+01	 1.000015410769230e+01
0	 4.562500000000000e+01	 3.812500000000000e+01	 1.000014373846155e+01
0	 4.562499999999999e+01	 3.874999999999999e+01	 1.000013300923077e+01
0	 4.562499999999999e+01	 3.937499999999998e+01	 1.000012192000000e+01
0	 4.562499999999999e+01	 4.000000000000000e+01	 1.000011047076923e+01
0	 4.562500000000000e+01	 4.062499999999999e+01	 1.000009866153846e+01
0	 4.562499999999999e+01	 4.124999999999999e+01	 1.000008649230769e+01
0	 4.562499999999999e+01	 4.187499999999999e+01	 1.000007396307693e+01
0	 4.562499999999999e+01	 4.249999999999999e+01	 1.000006107384614e+01
0	 4.562499999999999e+01	 4.312499999999998e+01	 1.000004782461539e+01
0	 4.562500000000000e+01	 4.375000000000000e+01	 1.000003421538460e+01
0	 4.624999999999999e+01	 3.750000000000001e+01	 1.000012935384616e+01
0	 4.624999999999999e+01	 3.812500000000000e+01	 1.000012077230769e+01
0	 4.624999999999999e+01	 3.875000000000000e+01	 1.000011180307692e+01
0	 4.625000000000000e+01	 3.937500000000000e+01	 1.000010244615385e+01
0	 4.625000000000000e+01	 3.999999999999999e+01	 1.000009270153846e+01
0	 4.624999999999999e+01	 4.062499999999998e+01	 1.000008256923077e+01
0	 4.624999999999999e+01	 4.124999999999999e+01	 1.000007204923077e+01
0	 4.624999999999999e+01	 4.187499999999999e+01	 1.000006114153846e+01
0	 4.624999999999999e+01	 4.249999999999998e+01	 1.000004984615385e+01
0	 4.624999999999999e+01	 4.312499999999998e+01	 1.000003816307693e+01
0	 4.624999999999999e+01	 4.375000000000000e+01	 1.000002609230769e+01
0	 4.687499999999999e+01	 3.750000000000000e+01	 1.000010653846154e+01
0	 4.687499999999999e+01	 3.812500000000001e+01	 1.000009929230770e+01
0	 4.687499999999999e+01	 3.875000000000000e+01	 1.000009163076924e+01
0	 4.687499999999999e+01	 3.937500000000000e+01	 1.000008355384615e+01
0	 4.687499999999998e+01	 3.999999999999999e+01	 1.000007506153846e+01
0	 4.687499999999999e+01	 4.062499999999999e+01	 1.000006615384616e+01
0	 4.687500000000000e+01	 4.124999999999999e+01	 1.000005683076922e+01
0	 4.687499999999999e+01	 4.187499999999999e+01	 1.000004709230768e+01
0	 4.687499999999999e+01	 4.249999999999999e+01	 1.000003693846153e+01
0	 4.687499999999998e+01	 4.312499999999997e+01	 1.000002636923079e+01
0	 4.687499999999999e+01	 4.375000000000000e+01	 1.000001538461539e+01
0	 4.749999999999999e+01	 3.750000000000001e+01	 1.000008566153847e+01
0	 4.749999999999998e+01	 3.812500000000000e+01	 1.000007929846153e+01
0	 4.749999999999997e+01	 3.874999999999999e+01	 1.000007249230769e+01
0	 4.749999999999999e+01	 3.937499999999999e+01	 1.000006524307693e+01
0	 4.749999999999999e+01	 3.999999999999999e+01	 1.000005755076923e+01
0	 4.749999999999999e+01	 4.062499999999999e+01	 1.000004941538462e+01
0	 4.749999999999999e+01	 4.124999999999999e+01	 1.000004083692308e+01
0	 4.749999999999999e+01	 4.187499999999999e+01	 1.000003181538461e+01
0	 4.749999999999999e+01	 4.249999999999998e+01	 1.000002235076923e+01
0	 4.749999999999999e+01	 4.312499999999998e+01	 1.000001244307692e+01
0	 4.749999999999999e+01	 4.375000000000000e+01	 1.000000209230769e+01
0	 4.812499999999999e+01	 3.750000000000000e+01	 1.000006672307692e+01
0	 4.812499999999998e+01	 3.812499999999999e+01	 1.000006079076923e+01
0	 4.812499999999999e+01	 3.875000000000000e+01	 1.000005438769231e+01
0	 4.812499999999998e+01	 3.937499999999999e+01	 1.000004751384616e+01
0	 4.812499999999997e+01	 3.999999999999999e+01	 1.000004016923076e+01
0	 4.812499999999999e+01	 4.062499999999999e+01	 1.000003235384615e+01
0	 4.812499999999999e+01	 4.124999999999999e+01	 1.000002406769231e+01
0	 4.812499999999999e+01	 4.187499999999999e+01	 1.000001531076923e+01
0	 4.812499999999997e+01	 4.249999999999997e+01	 1.000000608307691e+01
0	 4.812499999999999e+01	 4.312499999999999e+01	 9.999996384615383e+00
0	 4.812499999999999e+01	 4.375000000000000e+01	 9.999986215384606e+00
0	 4.874999999999999e+01	 3.750000000000000e+01	 1.000004972307692e+01
0	 4.874999999999998e+01	 3.812500000000000e+01	 1.000004376923077e+01
0	 4.874999999999999e+01	 3.875000000000001e+01	 1.000003731692308e+01
0	 4.874999999999998e+01	 3.937499999999999e+01	 1.000003036615385e+01
0	 4.874999999999999e+01	 3.999999999999999e+01	 1.000002291692308e+01
0	 4.874999999999997e+01	 4.062499999999998e+01	 1.000001496923077e+01
0	 4.874999999999999e+01	 4.124999999999999e+01	 1.000000652307692e+01
0	 4.874999999999998e+01	 4.187499999999999e+01	 9.999997578461530e+00
0	 4.874999999999998e+01	 4.249999999999999e+01	 9.999988135384619e+00
0	 4.874999999999998e+01	 4.312499999999998e+01	 9.999978193846147e+00
0	 4.874999999999999e+01	 4.375000000000000e+01	 9.999967753846157e+00
0	 4.937499999999999e+01	 3.750000000000000e+01	 1.000003466153849e+01
0	 4.937499999999999e+01	 3.812500000000000e+01	 1.000002823384616e+01
0	 4.937499999999999e+01	 3.875000000000000e+01	 1.000002127999999e+01
0	 4.937499999999998e+01	 3.937499999999999e+01	 1.000001380000000e+01
0	 4.937499999999999e+01	 3.999999999999999e+01	 1.000000579384615e+01
0	 4.937499999999999e+01	 4.062499999999999e+01	 9.999997261538459e+00
0	 4.937499999999999e+01	 4.124999999999999e+01	 9.999988203076928e+00
0	 4.937499999999998e+01	 4.187499999999999e+01	 9.999978618461540e+00
0	 4.937499999999999e+01	 4.249999999999999e+01	 9.999968507692302e+00
0	 4.937499999999998e+01	 4.312499999999998e+01	 9.999957870769229e+00
0	 4.937499999999999e+01	 4.375000000000000e+01	 9.999946707692308e+00
0	 5.000000000000000e+01	 3.750000000000000e+01	 1.000002153846154e+01
0	 5.000000000000000e+01	 3.812500000000000e+01	 1.000001418461538e+01
0	 5.000000000000000e+01	 3.874999999999999e+01	 1.000000627692308e+01
0	 5.000000000000000e+01	 3.937499999999999e+01	 9.999997815384614e+00
0	 5.000000000000000e+01	 3.999999999999999e+01	 9.999988800000004e+00
0	 5.000000000000000e+01	 4.062499999999999e+01	 9.999979230769219e+00
0	 5.000000000000000e+01	 4.124999999999999e+01	 9.999969107692303e+00
0	 5.000000000000001e+01	 4.187499999999999e+01	 9.999958430769219e+00
0	 5.000000000000000e+01	 4.249999999999998e+01	 9.999947199999994e+00
0	 5.000000000000000e+01	 4.312499999999998e+01	 9.999935415384593e+00
0	 5.000000000000000e+01	 4.375000000000000e+01	 9.999923076923071e+00
0	 4.375000000000000e+01	 4.375000000000000e+01	 1.000004307692308e+01
0	 4.375000000000000e+01	 4.437500000000000e+01	 1.000004181538462e+01
0	 4.374999999999999e+01	 4.499999999999999e+01	 1.000003926153846e+01
0	 4.375000000000000e+01	 4.562499999999999e+01	 1.000003541538462e+01
0	 4.375000000000000e+01	 4.624999999999999e+01	 1.000003027692307e+01
0	 4.375000000000000e+01	 4.687499999999999e+01	 1.000002384615384e+01
0	 4.375000000000000e+01	 4.749999999999999e+01	 1.000001612307692e+01
0	 4.375000000000000e+01	 4.812499999999999e+01	 1.000000710769231e+01
0	 4.375000000000001e+01	 4.874999999999999e+01	 9.999996799999980e+00
0	 4.375000000000000e+01	 4.937499999999999e+01	 9.999985199999969e+00
0	 4.375000000000000e+01	 5.000000000000000e+01	 9.999972307692296e+00
0	 4.437500000000000e+01	 4.375000000000000e+01	 1.000004270769231e+01
0	 4.437500000000001e+01	 4.437500000000000e+01	 1.000004109538461e+01
0	 4.437500000000000e+01	 4.500000000000001e+01	 1.000003833846153e+01
0	 4.437500000000001e+01	 4.562499999999999e+01	 1.000003443692307e+01
0	 4.437499999999999e+01	 4.624999999999998e+01	 1.000002939076923e+01
0	 4.437500000000001e+01	 4.687499999999999e+01	 1.000002319999999e+01
0	 4.437500000000000e+01	 4.749999999999998e+01	 1.000001586461537e+01
0	 4.437500000000001e+01	 4.812499999999999e+01	 1.000000738461536e+01
0	 4.437500000000000e+01	 4.874999999999999e+01	 9.999997760000014e+00
0	 4.437499999999999e+01	 4.937499999999998e+01	 9.999986990769237e+00
0	 4.437500000000001e+01	 5.000000000000001e+01	 9.999975076923075e+00
0	 4.499999999999999e+01	 4.375000000000000e+01	 1.000003975384615e+01
0	 4.500000000000000e+01	 4.437500000000001e+01	 1.000003804923077e+01
0	 4.499999999999999e+01	 4.499999999999999e+01	 1.000003534769230e+01
0	 4.500000000000000e+01	 4.562500000000001e+01	 1.000003164923077e+01
0	 4.499999999999999e+01	 4.624999999999999e+01	 1.000002695384615e+01
0	 4.499999999999999e+01	 4.687499999999998e+01	 1.000002126153845e+01
0	 4.500000000000001e+01	 4.749999999999999e+01	 1.000001457230771e+01
0	 4.500000000000000e+01	 4.812499999999998e+01	 1.000000688615382e+01
0	 4.499999999999999e+01	 4.874999999999999e+01	 9.999998203076892e+00
0	 4.499999999999999e+01	 4.937499999999997e+01	 9.999988523076928e+00
0	 4.500000000000000e+01	 5.000000000000001e+01	 9.999977846153815e+00
0	 4.562500000000000e+01	 4.375000000000000e+01	 1.000003421538460e+01
0	 4.562499999999999e+01	 4.437500000000000e+01	 1.000003267692308e+01
0	 4.562499999999999e+01	 4.500000000000001e+01	 1.000003028923076e+01
0	 4.562500000000000e+01	 4.562500000000000e+01	 1.000002705230769e+01
0	 4.562499999999999e+01	 4.625000000000000e+01	 1.000002296615384e+01
0	 4.562500000000000e+01	 4.687499999999999e+01	 1.000001803076923e+01
0	 4.562499999999999e+01	 4.749999999999999e+01	 1.000001224615382e+01
0	 4.562499999999999e+01	 4.812499999999999e+01	 1.000000561230767e+01
0	 4.562499999999999e+01	 4.874999999999998e+01	 9.999998129230763e+00
0	 4.562499999999999e+01	 4.937499999999998e+01	 9.999989796923055e+00
0	 4.562499999999999e+01	 5.000000000000000e+01	 9.999980615384626e+00
0	 4.624999999999999e+01	 4.375000000000000e+01	 1.000002609230769e+01
0	 4.624999999999999e+01	 4.437499999999999e+01	 1.000002497846154e+01
0	 4.624999999999999e+01	 4.500000000000000e+01	 1.000002316307691e+01
0	 4.625000000000000e+01	 4.562499999999999e+01	 1.000002064615384e+01
0	 4.625000000000000e+01	 4.625000000000000e+01	 1.000001742769230e+01
0	 4.624999999999999e+01	 4.687499999999999e+01	 1.000001350769231e+01
0	 4.624999999999999e+01	 4.749999999999999e+01	 1.000000888615383e+01
0	 4.625000000000000e+01	 4.812499999999999e+01	 1.000000356307691e+01
0	 4.624999999999999e+01	 4.874999999999999e+01	 9.999997538461528e+00
0	 4.624999999999999e+01	 4.937499999999999e+01	 9.999990812307656e+00
0	 4.624999999999999e+01	 5.000000000000001e+01	 9.999983384615383e+00
0	 4.687499999999999e+01	 4.375000000000000e+01	 1.000001538461539e+01
0	 4.687499999999999e+01	 4.437500000000000e+01	 1.000001495384615e+01
0	 4.687499999999999e+01	 4.500000000000000e+01	 1.000001396923076e+01
0	 4.687499999999998e+01	 4.562499999999999e+01	 1.000001243076922e+01
0	 4.687499999999999e+01	 4.624999999999999e+01	 1.000001033846153e+01
0	 4.687499999999999e+01	 4.687499999999999e+01	 1.000000769230768e+01
0	 4.687499999999999e+01	 4.749999999999999e+01	 1.000000449230767e+01
0	 4.687499999999999e+01	 4.812499999999999e+01	 1.000000073846153e+01
0	 4.687499999999999e+01	 4.874999999999999e+01	 9.999996430769219e+00
0	 4.687499999999999e+01	 4.937499999999998e+01	 9.999991569230755e+00
0	 4.687499999999999e+01	 5.000000000000000e+01	 9.999986153846157e+00
0	 4.749999999999999e+01	 4.375000000000000e+01	 1.000000209230769e+01
0	 4.749999999999999e+01	 4.437500000000000e+01	 1.000000260307691e+01
0	 4.749999999999999e+01	 4.500000000000001e+01	 1.000000270769231e+01
0	 4.749999999999999e+01	 4.562499999999999e+01	 1.000000240615384e+01
0	 4.749999999999999e+01	 4.624999999999999e+01	 1.000000169846153e+01
0	 4.749999999999999e+01	 4.687499999999999e+01	 1.000000058461538e+01
0	 4.749999999999999e+01	 4.749999999999999e+01	 9.999999064615363e+00
0	 4.750000000000000e+01	 4.812499999999999e+01	 9.999997138461513e+00
0	 4.749999999999999e+01	 4.874999999999999e+01	 9.999994806153847e+00
0	 4.749999999999999e+01	 4.937499999999998e+01	 9.999992067692297e+00
0	 4.749999999999999e+01	 5.000000000000000e+01	 9.999988923076927e+00
0	 4.812499999999999e+01	 4.375000000000000e+01	 9.999986215384606e+00
0	 4.812499999999999e+01	 4.437499999999999e+01	 9.999987926153846e+00
0	 4.812499999999999e+01	 4.499999999999999e+01	 9.999989378461542e+00
0	 4.812499999999999e+01	 4.562499999999999e+01	 9.999990572307681e+00
0	 4.812499999999997e+01	 4.624999999999999e+01	 9.999991507692314e+00
0	 4.812499999999999e+01	 4.687499999999999e+01	 9.999992184615385e+00
0	 4.812499999999999e+01	 4.749999999999999e+01	 9.999992603076921e+00
0	 4.812499999999997e+01	 4.812499999999997e+01	 9.999992763076913e+00
0	 4.812499999999999e+01	 4.874999999999999e+01	 9.999992664615386e+00
0	 4.812499999999999e+01	 4.937499999999999e+01	 9.999992307692292e+00
0	 4.812499999999999e+01	 5.000000000000000e+01	 9.999991692307665e+00
0	 4.874999999999999e+01	 4.375000000000000e+01	 9.999967753846157e+00
0	 4.874999999999999e+01	 4.437500000000000e+01	 9.999970923076930e+00
0	 4.874999999999998e+01	 4.499999999999999e+01	 9.999973981538457e+00
0	 4.874999999999999e+01	 4.562500000000000e+01	 9.999976929230762e+00
0	 4.874999999999999e+01	 4.624999999999999e+01	 9.999979766153842e+00
0	 4.874999999999998e+01	 4.687499999999999e+01	 9.999982492307684e+00
0	 4.874999999999999e+01	 4.749999999999999e+01	 9.999985107692300e+00
0	 4.874999999999998e+01	 4.812499999999999e+01	 9.999987612307701e+00
0	 4.874999999999998e+01	 4.874999999999998e+01	 9.999990006153844e+00
0	 4.874999999999999e+01	 4.937499999999999e+01	 9.999992289230764e+00
0	 4.874999999999999e+01	 5.000000000000000e+01	 9.999994461538463e+00
0	 4.937499999999999e+01	 4.375000000000000e+01	 9.999946707692308e+00
0	 4.937499999999998e+01	 4.437500000000000e+01	 9.999951593846166e+00
0	 4.937499999999998e+01	 4.499999999999999e+01	 9.999956516923069e+00
0	 4.937499999999998e+01	 4.562499999999999e+01	 9.999961476923062e+00
0	 4.937499999999999e+01	 4.624999999999999e+01	 9.999966473846149e+00
0	 4.937499999999998e+01	 4.687499999999999e+01	 9.999971507692333e+00
0	 4.937499999999998e+01	 4.749999999999999e+01	 9.999976578461524e+00
0	 4.937499999999999e+01	 4.812499999999999e+01	 9.999981686153836e+00
0	 4.937499999999998e+01	 4.874999999999999e+01	 9.999986830769231e+00
0	 4.937499999999999e+01	 4.937499999999999e+01	 9.999992012307713e+00
0	 4.937499999999999e+01	 5.000000000000000e+01	 9.999997230769207e+00
0	 5.000000000000000e+01	 4.375000000000000e+01	 9.999923076923071e+00
0	 5.000000000000001e+01	 4.437500000000001e+01	 9.999929938461531e+00
0	 5.000000000000001e+01	 4.500000000000000e+01	 9.999936984615376e+00
0	 5.000000000000000e+01	 4.562499999999999e+01	 9.999944215384621e+00
0	 5.000000000000001e+01	 4.624999999999999e+01	 9.999951630769225e+00
0	 5.000000000000000e+01	 4.687499999999999e+01	 9.999959230769226e+00
0	 5.000000000000000e+01	 4.749999999999999e+01	 9.999967015384623e+00
0	 5.000000000000000e+01	 4.812499999999999e+01	 9.999974984615417e+00
0	 5.000000000000000e+01	 4.874999999999999e+01	 9.999983138461547e+00
0	 5.000000000000000e+01	 4.937499999999999e+01	 9.999991476923054e+00
0	 5.000000000000000e+01	 5.000000000000000e+01	 1.000000000000000e+01
1	 1.000000000000000e+00	 0.000000000000000e+00	 9.552159423224280e+00
1	 9.998426119581704e-01	 1.774123198744521e-02	 9.524618039147899e+00
1	 9.993659466402713e-01	 3.560484089073321e-02	 9.469715823172153e+00
1	 9.985633751090949e-01	 5.358344789747921e-02	 9.387338784311027e+00
1	 9.974284469032259e-01	 7.166933308134273e-02	 9.277422538374362e+00
1	 9.959549086084808e-01	 8.985443791194039e-02	 9.139954075261061e+00
1	 9.941367226520526e-01	 1.081303688402291e-01	 8.974973386071481e+00
1	 9.919680862544972e-01	 1.264884019976692e-01	 8.782574933998298e+00
1	 9.894434504702301e-01	 1.449194890435835e-01	 8.562908953149826e+00
1	 9.865575392429453e-01	 1.634142641907508e-01	 8.316182559807523e+00
1	 9.833053683983746e-01	 1.819630524344169e-01	 8.042660661130430e+00
1	 1.012500000000000e+00	 0.000000000000000e+00	 8.959232529516981e+00
1	 1.012340644607676e+00	 1.796299738536411e-02	 8.937184961354710e+00
1	 1.011858020973390e+00	 3.604990139831822e-02	 8.888600949094613e+00
1	 1.011045417298220e+00	 5.425324099133014e-02	 8.813353837426217e+00
1	 1.009896302489983e+00	 7.256519973898737e-02	 8.711364718512549e+00
1	 1.008404344966822e+00	 9.097761837928382e-02	 8.582604192828349e+00
1	 1.006563431686269e+00	 1.094819984438203e-01	 8.427093997841762e+00
1	 1.004367687334138e+00	 1.280695070157070e-01	 8.244908488889829e+00
1	 1.001811493603026e+00	 1.467309826500149e-01	 8.036175956751539e+00
1	 9.988895084859243e-01	 1.654569424871888e-01	 7.801079766725254e+00
1	 9.955966855063876e-01	 1.842375905849211e-01	 7.539859304476524e+00
1	 1.025000000000000e+00	 0.000000000000000e+00	 8.409301856609222e+00
1	 1.024838677257182e+00	 1.818476278346252e-02	 8.392349322236162e+00
1	 1.024350095306508e+00	 3.649496190623553e-02	 8.349676616067489e+00
1	 1.023527459487344e+00	 5.492303408563875e-02	 8.281144865383766e+00
1	 1.022364158076741e+00	 7.346106639718697e-02	 8.186661117405304e+00
1	 1.020853781325163e+00	 9.210079884725078e-02	 8.066180093490777e+00
1	 1.018990140720485e+00	 1.108336280480742e-01	 7.919705819059626e+00
1	 1.016767288413778e+00	 1.296506120344168e-01	 7.747293113972353e+00
1	 1.014179536735822e+00	 1.485424762570972e-01	 7.549048928217849e+00
1	 1.011221477728904e+00	 1.674996207842254e-01	 7.325133508014336e+00
1	 1.007888002614400e+00	 1.865121287359399e-01	 7.075761377839658e+00
1	 1.037500000000000e+00	 0.000000000000000e+00	 7.900813324266736e+00
1	 1.037336709906687e+00	 1.840652818174046e-02	 7.888571455364299e+00
1	 1.036842169639627e+00	 3.694002241448514e-02	 7.851417864800468e+00
1	 1.036009501676469e+00	 5.559282718040499e-02	 7.789201893208741e+00
1	 1.034832013663499e+00	 7.435693305594146e-02	 7.701817004268288e+00
1	 1.033303217683504e+00	 9.322397931584123e-02	 7.589202532085086e+00
1	 1.031416849754700e+00	 1.121852576529908e-01	 7.451345312037950e+00
1	 1.029166889493419e+00	 1.312317170537988e-01	 7.288281180201629e+00
1	 1.026547579868618e+00	 1.503539698648304e-01	 7.100096326535651e+00
1	 1.023553446971883e+00	 1.695422990818606e-01	 6.886928487241265e+00
1	 1.020179319722413e+00	 1.887866668874734e-01	 6.648967962047836e+00
1	 1.050000000000000e+00	 0.000000000000000e+00	 7.432286856072785e+00
1	 1.049834742556193e+00	 1.862829358019793e-02	 7.424385011757455e+00
1	 1.049334243972746e+00	 3.738508292306705e-02	 7.392372353110074e+00
1	 1.048491543865594e+00	 5.626262027562888e-02	 7.336086849494727e+00
1	 1.047299869250256e+00	 7.525279971525092e-02	 7.255408825972335e+00
1	 1.045752654041845e+00	 9.434715978505519e-02	 7.150262703693040e+00
1	 1.043843558788917e+00	 1.135368872585703e-01	 7.020618631360066e+00
1	 1.041566490573060e+00	 1.328128220738529e-01	 6.866493993249919e+00
1	 1.038915623001414e+00	 1.521654634732144e-01	 6.687954779312070e+00
1	 1.035885416214862e+00	 1.715849773800943e-01	 6.485116803041719e+00
1	 1.032470636830427e+00	 1.910612050395216e-01	 6.258146753129067e+00
1	 1.062500000000000e+00	 0.000000000000000e+00	 7.002312026262601e+00
1	 1.062332775205699e+00	 1.885005897883492e-02	 6.998392647089428e+00
1	 1.061826318305864e+00	 3.783014343198125e-02	 6.971156084325336e+00
1	 1.060973586054718e+00	 5.693241337131042e-02	 6.920429336782229e+00
1	 1.059767724837014e+00	 7.614866637511535e-02	 6.846080020122618e+00
1	 1.058202090400185e+00	 9.547034025489266e-02	 6.748018100097749e+00
1	 1.056270267823133e+00	 1.148885168648125e-01	 6.626197524334483e+00
1	 1.053966091652700e+00	 1.343939270945790e-01	 6.480617738522623e+00
1	 1.051283666134210e+00	 1.539769570822494e-01	 6.311325072855563e+00
1	 1.048217385457841e+00	 1.736276556789267e-01	 6.118413984704699e+00
1	 1.044761953938439e+00	 1.933357431920845e-01	 5.902028143770197e+00
1	 1.075000000000000e+00	 0.000000000000000e+00	 6.609544010267061e+00
1	 1.074830807855204e+00	 1.907182437765143e-02	 6.609262009791092e+00
1	 1.074318392638983e+00	 3.827520394122774e-02	 6.586449433711556e+00
1	 1.073455628243843e+00	 5.760220646744962e-02	 6.540922697026978e+00
1	 1.072235580423771e+00	 7.704453303553466e-02	 6.472537120248529e+00
1	 1.070651526758527e+00	 9.659352072535370e-02	 6.381188655324237e+00
1	 1.068696976857348e+00	 1.162401464717175e-01	 6.266815517464345e+00
1	 1.066365692732341e+00	 1.359750321159773e-01	 6.129399709080791e+00
1	 1.063651709267006e+00	 1.557884506919352e-01	 5.968968422018791e+00
1	 1.060549354700821e+00	 1.756703339783577e-01	 5.785595304343822e+00
1	 1.057053271046452e+00	 1.956102813451620e-01	 5.579401578162098e+00
1	 1.087500000000000e+00	 0.000000000000000e+00	 6.252699814529160e+00
1	 1.087328840504711e+00	 1.929358977664748e-02	 6.255722005834533e+00
1	 1.086810466972101e+00	 3.872026445080654e-02	 6.236993448933868e+00
1	 1.085937670432968e+00	 5.827199956404649e-02	 6.196320348415266e+00
1	 1.084703436010529e+00	 7.794039969650891e-02	 6.133546129601245e+00
1	 1.083100963116868e+00	 9.771670119643823e-02	 6.048553157004956e+00
1	 1.081123685891564e+00	 1.175917760792853e-01	 5.941264365919059e+00
1	 1.078765293811981e+00	 1.375561371380476e-01	 5.811644793706898e+00
1	 1.076019752399802e+00	 1.575999443022719e-01	 5.659702997293843e+00
1	 1.072881323943800e+00	 1.777130122783873e-01	 5.485492343401509e+00
1	 1.069344588154466e+00	 1.978848194987542e-01	 5.289112158235144e+00
1	 1.100000000000000e+00	 0.000000000000000e+00	 5.930554763378493e+00
1	 1.099826873154216e+00	 1.951535517582304e-02	 5.936559318191136e+00
1	 1.099302541305220e+00	 3.916532496071764e-02	 5.921586402761880e+00
1	 1.098419712622092e+00	 5.894179266110097e-02	 5.885432371941771e+00
1	 1.097171291597287e+00	 7.883626635803816e-02	 5.827929142192321e+00
1	 1.095550399475209e+00	 9.883988166814628e-02	 5.748945902424798e+00
1	 1.093550394925780e+00	 1.189434056875159e-01	 5.648390745087330e+00
1	 1.091164894891622e+00	 1.391372421607900e-01	 5.526212204420606e+00
1	 1.088387795532598e+00	 1.594114379132595e-01	 5.382400688696264e+00
1	 1.085213293186779e+00	 1.797556905790154e-01	 5.216989793255398e+00
1	 1.081635905262479e+00	 2.001593576528611e-01	 5.030057481287483e+00
1	 1.112500000000000e+00	 0.000000000000000e+00	 5.641939222745600e+00
1	 1.112324905803722e+00	 1.973712057517813e-02	 5.650615160932798e+00
1	 1.111794615638338e+00	 3.961038547096103e-02	 5.639080578176265e+00
1	 1.110901754811217e+00	 5.961158575861313e-02	 5.607122328105842e+00
1	 1.109639147184044e+00	 7.973213302012230e-02	 5.554561191627398e+00
1	 1.107999835833550e+00	 9.996306214047786e-02	 5.481253580001380e+00
1	 1.105977103959996e+00	 1.202950352964092e-01	 5.387093165171597e+00
1	 1.103564495971262e+00	 1.407183471842045e-01	 5.272012424611598e+00
1	 1.100755838665393e+00	 1.612229315248979e-01	 5.135984087814301e+00
1	 1.097545262429758e+00	 1.817983688802421e-01	 4.979022471513984e+00
1	 1.093927222370492e+00	 2.024338958074826e-01	 4.801184690807114e+00
1	 1.125000000000000e+00	 0.000000000000000e+00	 5.385735542295378e+00
1	 1.124822938453228e+00	 1.995888597471274e-02	 5.396782249726480e+00
1	 1.124286689971457e+00	 4.005544598153672e-02	 5.388379267801560e+00
1	 1.123383797000342e+00	 6.028137885658293e-02	 5.360304285827937e+00
1	 1.122107002770802e+00	 8.062799968276138e-02	 5.312367310017723e+00
1	 1.120449272191891e+00	 1.010862426134330e-01	 5.244412358666571e+00
1	 1.118403812994212e+00	 1.216466649059652e-01	 5.156319091476203e+00
1	 1.115964097050903e+00	 1.422994522082910e-01	 5.048004360630033e+00
1	 1.113123881798189e+00	 1.630344251371873e-01	 4.919423671054860e+00
1	 1.109877231672737e+00	 1.838410471820675e-01	 4.770572537225999e+00
1	 1.106218539478505e+00	 2.047084339626188e-01	 4.601487723905630e+00
1	 9.833053683983746e-01	 1.819630524344169e-01	 8.042660661130430e+00
1	 9.796822644935034e-01	 2.005558790047255e-01	 7.712101826775934e+00
1	 9.756838834365029e-01	 2.191824800562895e-01	 7.354992938842820e+00
1	 9.713062287906588e-01	 2.378323146029681e-01	 6.972654554952491e+00
1	 9.665456696731551e-01	 2.564945776994924e-01	 6.566495225104964e+00
1	 9.613989581557346e-01	 2.751582148638952e-01	 6.138008651102322e+00
1	 9.558632460744549e-01	 2.938119377279353e-01	 5.688770336040498e+00
1	 9.499361011546518e-01	 3.124442408950446e-01	 5.220433724124373e+00
1	 9.436155223571460e-01	 3.310434199775670e-01	 4.734725835088669e+00
1	 9.368999543523497e-01	 3.495975907771368e-01	 4.233442401697977e+00
1	 9.297883010302649e-01	 3.680947095640363e-01	 3.718442523111559e+00
1	 9.955966855063876e-01	 1.842375905849211e-01	 7.539859304476524e+00
1	 9.919282928033321e-01	 2.030628274885299e-01	 7.231725462887660e+00
1	 9.878799319837496e-01	 2.219222610543536e-01	 6.897733415535513e+00
1	 9.834475566554662e-01	 2.408052185339226e-01	 6.539116118042114e+00
1	 9.786274905496307e-01	 2.597007599201509e-01	 6.157191112082097e+00
1	 9.734164451388825e-01	 2.785976925500452e-01	 5.753357928855962e+00
1	 9.678115366572296e-01	 2.974845869507597e-01	 5.329095007033197e+00
1	 9.618103024265737e-01	 3.163497939082676e-01	 4.885956124756231e+00
1	 9.554107163947458e-01	 3.351814627300659e-01	 4.425566349103918e+00
1	 9.486112037905381e-01	 3.539675606653077e-01	 3.949617510381667e+00
1	 9.414106548025766e-01	 3.726958934376526e-01	 3.459863212697132e+00
1	 1.007888002614400e+00	 1.865121287359399e-01	 7.075761377839658e+00
1	 1.004174321113151e+00	 2.055697759727489e-01	 6.788899743192063e+00
1	 1.000075980530958e+00	 2.246620420527318e-01	 6.476864607199062e+00
1	 9.955888845201883e-01	 2.437781224650910e-01	 6.140803167453803e+00
1	 9.907093114259543e-01	 2.629069421409228e-01	 5.781943861915080e+00
1	 9.854339321217915e-01	 2.820371702362078e-01	 5.401594012026364e+00
1	 9.797598272396584e-01	 3.011572361734960e-01	 5.001137004285174e+00
1	 9.736845036980223e-01	 3.202553469213019e-01	 4.582029009199870e+00
1	 9.672059104317243e-01	 3.393195054822754e-01	 4.145795240163482e+00
1	 9.603224532279363e-01	 3.583375305530889e-01	 3.694025758524395e+00
1	 9.530330085739085e-01	 3.772970773107793e-01	 3.228370835006233e+00
1	 1.020179319722413e+00	 1.887866668874734e-01	 6.648967962047836e+00
1	 1.016420349422961e+00	 2.080767244573826e-01	 6.382267415477038e+00
1	 1.012272029078130e+00	 2.274018230514244e-01	 6.091071186776569e+00
1	 1.007730212384825e+00	 2.467510263964731e-01	 5.776442492831633e+00
1	 1.002791132302125e+00	 2.661131243618078e-01	 5.439522503653365e+00
1	 9.974514191044608e-01	 2.854766479223831e-01	 5.081528220898919e+00
1	 9.917081178217403e-01	 3.048298853961441e-01	 4.703749918416125e+00
1	 9.855587049689970e-01	 3.241608999341473e-01	 4.307548143106595e+00
1	 9.790011044680813e-01	 3.434575482341956e-01	 3.894350277781395e+00
1	 9.720337026645446e-01	 3.627075004404805e-01	 3.465646671219230e+00
1	 9.646553623442610e-01	 3.818982611834161e-01	 3.022986344294721e+00
1	 1.032470636830427e+00	 1.910612050395216e-01	 6.258146753129067e+00
1	 1.028666377732762e+00	 2.105836729424308e-01	 6.010535858589471e+00
1	 1.024468077625263e+00	 2.301416040504314e-01	 5.739100461834032e+00
1	 1.019871540249377e+00	 2.497239303280692e-01	 5.444821512885270e+00
1	 1.014872953178144e+00	 2.693193065828061e-01	 5.128754684011660e+00
1	 1.009468906086891e+00	 2.889161256085709e-01	 4.792028479555710e+00
1	 1.003656408403476e+00	 3.085025346187041e-01	 4.435841930969301e+00
1	 9.974329062394982e-01	 3.280664529468040e-01	 4.061461874716382e+00
1	 9.907962985038169e-01	 3.475955909858267e-01	 3.670219813876114e+00
1	 9.837449521003627e-01	 3.670774703274826e-01	 3.263508367602640e+00
1	 9.762777161136343e-01	 3.864994450555633e-01	 2.842777316044478e+00
1	 1.044761953938439e+00	 1.933357431920845e-01	 5.902028143770197e+00
1	 1.040912406042553e+00	 2.130906214278937e-01	 5.672473280608105e+00
1	 1.036664126172359e+00	 2.328813850497527e-01	 5.419758690170704e+00
1	 1.032012868113843e+00	 2.526968342598790e-01	 5.144784708974300e+00
1	 1.026954774054010e+00	 2.725254888039177e-01	 4.848523219271836e+00
1	 1.021486393069082e+00	 2.923556032947711e-01	 4.532015986240443e+00
1	 1.015604698984865e+00	 3.121751838411760e-01	 4.196372603180614e+00
1	 1.009307107509526e+00	 3.319720059592721e-01	 3.842768041764264e+00
1	 1.002591492538931e+00	 3.517336337371683e-01	 3.472439807335115e+00
1	 9.954562015353910e-01	 3.714474402140948e-01	 3.086684702381449e+00
1	 9.879000698820278e-01	 3.911006289272207e-01	 2.686855204538497e+00
1	 1.057053271046452e+00	 1.956102813451620e-01	 5.579401578162098e+00
1	 1.053158434352335e+00	 2.155975699137711e-01	 5.366905182260301e+00
1	 1.048860174719417e+00	 2.356211660493882e-01	 5.131907652479858e+00
1	 1.044154195978224e+00	 2.556697381919028e-01	 4.875230307512179e+00
1	 1.039036594929724e+00	 2.757316710251425e-01	 4.597762887749976e+00
1	 1.033503880051033e+00	 2.957950809809841e-01	 4.300462116023325e+00
1	 1.027552989565909e+00	 3.158478330635599e-01	 3.984349888787253e+00
1	 1.021181308779080e+00	 3.358775589715513e-01	 3.650511094184111e+00
1	 1.014386686573424e+00	 3.558716764882207e-01	 3.300091056167715e+00
1	 1.007167450969629e+00	 3.758174101003176e-01	 2.934292606788013e+00
1	 9.995224236494423e-01	 3.957018127983884e-01	 2.554372791767670e+00
1	 1.069344588154466e+00	 1.978848194987542e-01	 5.289112158235144e+00
1	 1.065404462662107e+00	 2.181045184000633e-01	 5.092711064240942e+00
1	 1.061056223266437e+00	 2.383609470493381e-01	 4.874461461377859e+00
1	 1.056295523842520e+00	 2.586426421241405e-01	 4.635107191170114e+00
1	 1.051118415805285e+00	 2.789378532464805e-01	 4.375457443472508e+00
1	 1.045521367032745e+00	 2.992345586672095e-01	 4.096385537075437e+00
1	 1.039501280146605e+00	 3.195204822858554e-01	 3.798827352849329e+00
1	 1.033055510048160e+00	 3.397831119836419e-01	 3.483779415246645e+00
1	 1.026181880607295e+00	 3.600097192389838e-01	 3.152296620544102e+00
1	 1.018878700403077e+00	 3.801873799861507e-01	 2.805489612917851e+00
1	 1.011144777415877e+00	 4.003029966690664e-01	 2.444521812275196e+00
1	 1.081635905262479e+00	 2.001593576528611e-01	 5.030057481287483e+00
1	 1.077650490971870e+00	 2.206114668867699e-01	 4.848821359032504e+00
1	 1.073252271813420e+00	 2.411007280496023e-01	 4.646383587999352e+00
1	 1.068436851706730e+00	 2.616155460565918e-01	 4.423412020680433e+00
1	 1.063200236680694e+00	 2.821440354679318e-01	 4.180636833465305e+00
1	 1.057538854014219e+00	 3.026740363534475e-01	 3.918849523560664e+00
1	 1.051449570726956e+00	 3.231931315080629e-01	 3.638901580197467e+00
1	 1.044929711316766e+00	 3.436886649955435e-01	 3.341702825347000e+00
1	 1.037977074640545e+00	 3.641477619894577e-01	 3.028219421536054e+00
1	 1.030589949835735e+00	 3.845573498715942e-01	 2.699471546862320e+00
1	 1.022767131181332e+00	 4.049041805392548e-01	 2.356530739943373e+00
1	 1.093927222370492e+00	 2.024338958074826e-01	 4.801184690807114e+00
1	 1.089896519281624e+00	 2.231184153738912e-01	 4.634214569568519e+00
1	 1.085448320360364e+00	 2.438405090501808e-01	 4.446684089046767e+00
1	 1.080578179570856e+00	 2.645884499892571e-01	 4.239186550675871e+00
1	 1.075282057555951e+00	 2.853502176894963e-01	 4.012374602641385e+00
1	 1.069556340995452e+00	 3.061135140396980e-01	 3.766959449681054e+00
1	 1.063397861306960e+00	 3.268657807301824e-01	 3.503709758591725e+00
1	 1.056803912584899e+00	 3.475942180072564e-01	 3.223450254076465e+00
1	 1.049772268673173e+00	 3.682858047396423e-01	 2.927060001740610e+00
1	 1.042301199267603e+00	 3.889273197566481e-01	 2.615470377360614e+00
1	 1.034389484945809e+00	 4.095053644089534e-01	 2.289662723985770e+00
1	 1.106218539478505e+00	 2.047084339626188e-01	 4.601487723905630e+00
1	 1.102142547591368e+00	 2.256253638614272e-01	 4.447914598652970e+00
1	 1.097644368907272e+00	 2.465802900510737e-01	 4.274417018703161e+00
1	 1.092719507434896e+00	 2.675613539221362e-01	 4.081515124472805e+00
1	 1.087363878431055e+00	 2.885563999111739e-01	 3.869785471695983e+00
1	 1.081573827976446e+00	 3.095529917259612e-01	 3.639860450785720e+00
1	 1.075346151886618e+00	 3.305384299522137e-01	 3.392427423003244e+00
1	 1.068678113852559e+00	 3.514997710187806e-01	 3.128227567489270e+00
1	 1.061567462705179e+00	 3.724238474895377e-01	 2.848054435195186e+00
1	 1.054012448698681e+00	 3.932972896413123e-01	 2.552752207874809e+00
1	 1.046011838709305e+00	 4.141065482781622e-01	 2.243213662539883e+00
1	 9.297883010302649e-01	 3.680947095640363e-01	 3.718442523111559e+00
1	 9.222799379563009e-01	 3.865225944039564e-01	 3.169290433370685e+00
1	 9.143747236862125e-01	 4.048689474701951e-01	 2.606455730034425e+00
1	 9.060730098564396e-01	 4.231213782743761e-01	 2.032576910720109e+00
1	 8.973756499704220e-01	 4.412674277413337e-01	 1.450356739165402e+00
1	 8.882840068073012e-01	 4.592945930433334e-01	 8.625527834557406e-01
1	 8.787999583847406e-01	 4.771903531042267e-01	 2.719674534025815e-01
1	 8.689259024143142e-01	 4.949421946770166e-01	-3.185624113913987e-01
1	 8.586647591951593e-01	 5.125376388923134e-01	-9.061763460292680e-01
1	 8.480199728994641e-01	 5.299642681697645e-01	-1.488001395819559e+00
1	 8.369955112118155e-01	 5.472097533798151e-01	-2.061163516886866e+00
1	 9.414106548025766e-01	 3.726958934376526e-01	 3.459863212697132e+00
1	 9.338084371907733e-01	 3.913541268386016e-01	 2.942292840881917e+00
1	 9.258044077427657e-01	 4.099298093186076e-01	 2.411040417602293e+00
1	 9.173989224904455e-01	 4.284103955081879e-01	 1.868596611571159e+00
1	 9.085928456060454e-01	 4.467832705937361e-01	 1.317514612343927e+00
1	 8.993875569034437e-01	 4.650357754621704e-01	 7.604012246609370e-01
1	 8.897849578755234e-01	 4.831552325238889e-01	 1.999074817139479e-01
1	 8.797874762052527e-01	 5.011289721163065e-01	-3.612811743331390e-01
1	 8.693980686955066e-01	 5.189443593841651e-01	-9.204550912593628e-01
1	 8.586202225706245e-01	 5.365888215273571e-01	-1.474890927226223e+00
1	 8.474579551112504e-01	 5.540498753022077e-01	-2.021862430671050e+00
1	 9.530330085739085e-01	 3.772970773107793e-01	 3.228370835006233e+00
1	 9.453369364240809e-01	 3.961856592726618e-01	 2.740779883454007e+00
1	 9.372340917979960e-01	 4.149906711663489e-01	 2.239511984189859e+00
1	 9.287248351230007e-01	 4.336994127412525e-01	 1.726912949790067e+00
1	 9.198100412401194e-01	 4.522991134453253e-01	 1.205389401756608e+00
1	 9.104911069979682e-01	 4.707769578801373e-01	 6.774004112046134e-01
1	 9.007699573646499e-01	 4.891201119426346e-01	 1.454486778955832e-01
1	 8.906490499945261e-01	 5.073157495546431e-01	-3.879287072080346e-01
1	 8.801313781942111e-01	 5.253510798750376e-01	-9.201698659401534e-01
1	 8.692204722401954e-01	 5.432133748839548e-01	-1.448698049156069e+00
1	 8.579203990091799e-01	 5.608899972236004e-01	-1.970931806873105e+00
1	 9.646553623442610e-01	 3.818982611834161e-01	 3.022986344294721e+00
1	 9.568654356562231e-01	 4.010171917061370e-01	 2.563830429715116e+00
1	 9.486637758519040e-01	 4.200515330134196e-01	 2.091007048642146e+00
1	 9.400507477541058e-01	 4.389884299735700e-01	 1.606720022834015e+00
1	 9.310272368726441e-01	 4.578149562961006e-01	 1.113232303212679e+00
1	 9.215946570908742e-01	 4.765181402972340e-01	 6.128581474802574e-01
1	 9.117549568521194e-01	 4.950849913604636e-01	 1.079548551625082e-01
1	 9.015106237821341e-01	 5.135025269920270e-01	-3.990858978470486e-01
1	 8.908646876912724e-01	 5.317578003649310e-01	-9.058470786458688e-01
1	 8.798207219081765e-01	 5.498379282395579e-01	-1.409895619786100e+00
1	 8.683828429056041e-01	 5.677301191439930e-01	-1.908791990231302e+00
1	 9.762777161136343e-01	 3.864994450555633e-01	 2.842777316044478e+00
1	 9.683939348872000e-01	 4.058487241390272e-01	 2.410567211692085e+00
1	 9.600934599044899e-01	 4.251123948598194e-01	 1.964703343192552e+00
1	 9.513766603837601e-01	 4.442774472051405e-01	 1.507250304471679e+00
1	 9.422444325036197e-01	 4.633307991460626e-01	 1.040330169863871e+00
1	 9.326982071821625e-01	 4.822593227134609e-01	 5.661151995769965e-01
1	 9.227399563379315e-01	 5.010498707773759e-01	 8.682012133877959e-02
1	 9.123721975680773e-01	 5.196893044284582e-01	-3.953059727557575e-01
1	 9.015979971866909e-01	 5.381645208538457e-01	-8.779880708755963e-01
1	 8.904209715745676e-01	 5.564624815941661e-01	-1.358933980237252e+00
1	 8.788452868005231e-01	 5.745702410633855e-01	-1.835843309067546e+00
1	 9.879000698820278e-01	 3.911006289272207e-01	 2.686855204538497e+00
1	 9.799224341170119e-01	 4.106802565713322e-01	 2.280154244610713e+00
1	 9.715231439557533e-01	 4.301732567055483e-01	 1.859817295028367e+00
1	 9.627025730119644e-01	 4.495664644359640e-01	 1.427772387353481e+00
1	 9.534616281330460e-01	 4.688466419952109e-01	 9.860034147137663e-01
1	 9.438017572718324e-01	 4.880005051288175e-01	 5.365433563563015e-01
1	 9.337249558220870e-01	 5.070147501933717e-01	 8.146709682142417e-02
1	 9.232337713523547e-01	 5.258760818639360e-01	-3.771161242510916e-01
1	 9.123313066804664e-01	 5.445712413417811e-01	-8.370705915872199e-01
1	 9.010212212393695e-01	 5.630870349477797e-01	-1.296242279106858e+00
1	 8.893077306939365e-01	 5.814103629817780e-01	-1.752467252723762e+00
1	 9.995224236494423e-01	 3.957018127983884e-01	 2.554372791767670e+00
1	 9.914509333456585e-01	 4.155117890030526e-01	 2.171794426709666e+00
1	 9.829528280056942e-01	 4.352341185506064e-01	 1.775601776584079e+00
1	 9.740284856387178e-01	 4.548554816660403e-01	 1.367588883076373e+00
1	 9.646788237609235e-01	 4.743624848435458e-01	 9.496040594634788e-01
1	 9.549053073598841e-01	 4.937416875433039e-01	 5.235436258025397e-01
1	 9.447099553045856e-01	 5.129796296084510e-01	 9.134525687289208e-02
1	 9.340953451349669e-01	 5.320628592984610e-01	-3.450190240770210e-01
1	 9.230646161725991e-01	 5.509779618287377e-01	-7.835501688567095e-01
1	 9.116214709025816e-01	 5.697115883003986e-01	-1.222229704592261e+00
1	 8.997701745858451e-01	 5.882504848991706e-01	-1.659027566851386e+00
1	 1.011144777415877e+00	 4.003029966690664e-01	 2.444521812275196e+00
1	 1.002979432573140e+00	 4.203433214341877e-01	 2.084727304584596e+00
1	 9.943825120543131e-01	 4.402949803949937e-01	 1.711344010986970e+00
1	 9.853543982640206e-01	 4.601444988953695e-01	 1.326034467072013e+00
1	 9.758960193872512e-01	 4.798783276910670e-01	 9.305139179199764e-01
1	 9.660088574463180e-01	 4.994828699569205e-01	 5.265445557629149e-01
1	 9.556949547854272e-01	 5.189445090226136e-01	 1.159293882378446e-01
1	 9.449569189159139e-01	 5.382496367320331e-01	-2.994942326328063e-01
1	 9.337979256630885e-01	 5.573846823147149e-01	-7.178613869403043e-01
1	 9.222217205642039e-01	 5.763361416520226e-01	-1.137286631640230e+00
1	 9.102326184762480e-01	 5.950906068155633e-01	-1.555871273163704e+00
1	 1.022767131181332e+00	 4.049041805392548e-01	 2.356530739943373e+00
1	 1.014507931799456e+00	 4.251748538647378e-01	 2.018226990895065e+00
1	 1.005812196101609e+00	 4.453558422387101e-01	 1.666363620313157e+00
1	 9.966803108878730e-01	 4.654335161239517e-01	 1.302474056797997e+00
1	 9.871132150120300e-01	 4.853941705377748e-01	 9.281429032627042e-01
1	 9.771124075311334e-01	 5.052240523696667e-01	 5.450006691826128e-01
1	 9.666799542646118e-01	 5.249093884358594e-01	 1.547181509909374e-01
1	 9.558184926951958e-01	 5.444364141646523e-01	-2.409995121176609e-01
1	 9.445312351519353e-01	 5.637914027997134e-01	-6.404190762643271e-01
1	 9.328219702242366e-01	 5.829606950026520e-01	-1.041785690881669e+00
1	 9.206950623651458e-01	 6.019307287309560e-01	-1.443329619659691e+00
1	 1.034389484945809e+00	 4.095053644089534e-01	 2.289662723985770e+00
1	 1.026036431024607e+00	 4.300063862947030e-01	 1.971600222450943e+00
1	 1.017241880147583e+00	 4.504167040817556e-01	 1.640010805422008e+00
1	 1.008006223510275e+00	 4.707225333517867e-01	 1.296301112747657e+00
1	 9.983304106352595e-01	 4.909100133836690e-01	 9.419274494271552e-01
1	 9.882159576143311e-01	 5.109652347815431e-01	 5.783910048295497e-01
1	 9.776649537421397e-01	 5.308742678481889e-01	 2.072327373383147e-01
1	 9.666800664728121e-01	 5.506231915963183e-01	-1.699720511487343e-01
1	 9.552645446391390e-01	 5.701981232837328e-01	-5.516194231908993e-01
1	 9.434222198826796e-01	 5.895852483522865e-01	-9.360827655032657e-01
1	 9.311575062525380e-01	 6.087708506453484e-01	-1.321718966787641e+00
1	 1.046011838709305e+00	 4.141065482781622e-01	 2.243213662539883e+00
1	 1.037564930248593e+00	 4.348379187240830e-01	 1.944184547759464e+00
1	 1.028671564192235e+00	 4.554775659241303e-01	 1.631664647134700e+00
1	 1.019332136131226e+00	 4.760115505788748e-01	 1.306936052725745e+00
1	 1.009547606256940e+00	 4.964258562287497e-01	 9.713290377295891e-01
1	 9.993195076959104e-01	 5.167064171925492e-01	 6.262177553042718e-01
1	 9.886499532180107e-01	 5.368391472596017e-01	 2.730156198326269e-01
1	 9.775416402487633e-01	 5.568099690270316e-01	-8.682960773785176e-02
1	 9.659978541247000e-01	 5.766048437667730e-01	-4.518410057992620e-01
1	 9.540224695395332e-01	 5.962098017009265e-01	-8.205179216610803e-01
1	 9.416199501384250e-01	 6.156109725587411e-01	-1.191341614531403e+00
1	 8.369955112118155e-01	 5.472097533798151e-01	-2.061163516886866e+00
1	 8.255958632931958e-01	 5.642618811384013e-01	-2.630752491542989e+00
1	 8.138260360506314e-01	 5.811085811170719e-01	-3.196053839618636e+00
1	 8.016915487021741e-01	 5.977379532449607e-01	-3.754160975257751e+00
1	 7.891984256370140e-01	 6.141382946773878e-01	-4.302174413658745e+00
1	 7.763531875817183e-01	 6.302981264093361e-01	-4.837213541381523e+00
1	 7.631628410930560e-01	 6.462062194093811e-01	-5.356428406654990e+00
1	 7.496348664083717e-01	 6.618516201518141e-01	-5.857011451855644e+00
1	 7.357772036946522e-01	 6.772236754270479e-01	-6.336209109919556e+00
1	 7.215982377473873e-01	 6.923120563137026e-01	-6.791333186833226e+00
1	 7.071067811999999e-01	 7.071067811999999e-01	-7.219771953529082e+00
1	 8.474579551112504e-01	 5.540498753022077e-01	-2.021862430671050e+00
1	 8.359158115929692e-01	 5.713151546574315e-01	-2.565246685107228e+00
1	 8.239988615092374e-01	 5.883724383855524e-01	-3.105116398958673e+00
1	 8.117126930683318e-01	 6.052096776648181e-01	-3.638708898381065e+00
1	 7.990634059643095e-01	 6.218150233649912e-01	-4.163266809486348e+00
1	 7.860576024328196e-01	 6.381768529934919e-01	-4.676049236076754e+00
1	 7.727023766125910e-01	 6.542837971560034e-01	-5.174342963331076e+00
1	 7.590053022439359e-01	 6.701247654077456e-01	-5.655473613567368e+00
1	 7.449744187459286e-01	 6.856889713740123e-01	-6.116816679759651e+00
1	 7.306182157240029e-01	 7.009659570219055e-01	-6.555808362797173e+00
1	 7.159456159695000e-01	 7.159456159695000e-01	-6.969956139537480e+00
1	 8.579203990091799e-01	 5.608899972236004e-01	-1.970931806873105e+00
1	 8.462357598913327e-01	 5.783684281754621e-01	-2.489607017547174e+00
1	 8.341716869665182e-01	 5.956362956530330e-01	-3.005523751772372e+00
1	 8.217338374332409e-01	 6.126814020836755e-01	-3.516060330858473e+00
1	 8.089283862904220e-01	 6.294917520515947e-01	-4.018598602785518e+00
1	 7.957620172827934e-01	 6.460555795766478e-01	-4.510534537925241e+00
1	 7.822419121310444e-01	 6.623613749016258e-01	-4.989288856590704e+00
1	 7.683757380784541e-01	 6.783979106626776e-01	-5.452317618424805e+00
1	 7.541716337961848e-01	 6.941542673199765e-01	-5.897122703155041e+00
1	 7.396381936996136e-01	 7.096198577291084e-01	-6.321262112478893e+00
1	 7.247844507379998e-01	 7.247844507379999e-01	-6.722360023795313e+00
1	 8.683828429056041e-01	 5.677301191439930e-01	-1.908791990231302e+00
1	 8.565557081882860e-01	 5.854217016924925e-01	-2.404199773005184e+00
1	 8.443445124224748e-01	 6.029001529195133e-01	-2.897588736854318e+00
1	 8.317549817969009e-01	 6.201531265015331e-01	-3.386475386813239e+00
1	 8.187933666153511e-01	 6.371684807371980e-01	-3.868378008108150e+00
1	 8.054664321316400e-01	 6.539343061588038e-01	-4.340826690043542e+00
1	 7.917814476484165e-01	 6.704389526462485e-01	-4.801373387521799e+00
1	 7.777461739119264e-01	 6.866710559166093e-01	-5.247601954024814e+00
1	 7.633688488454204e-01	 7.026195632649410e-01	-5.677138079373597e+00
1	 7.486581716742190e-01	 7.182737584353109e-01	-6.087659065742216e+00
1	 7.336232855055000e-01	 7.336232855055000e-01	-6.476903376242785e+00
1	 8.788452868005231e-01	 5.745702410633855e-01	-1.835843309067546e+00
1	 8.668756564838288e-01	 5.924749752085229e-01	-2.309373793521521e+00
1	 8.545173378771065e-01	 6.101640101849937e-01	-2.781609295913469e+00
1	 8.417761261593122e-01	 6.276248509183908e-01	-3.250201793981687e+00
1	 8.286583469390975e-01	 6.448452094218015e-01	-3.712803325027087e+00
1	 8.151708469793590e-01	 6.618130327399596e-01	-4.167075447780679e+00
1	 8.013209831647067e-01	 6.785165303898708e-01	-4.610698747636834e+00
1	 7.871166097443530e-01	 6.949442011695413e-01	-5.041382322840720e+00
1	 7.725660638936355e-01	 7.110848592089053e-01	-5.456873188670706e+00
1	 7.576781496478195e-01	 7.269276591405139e-01	-5.854965536743068e+00
1	 7.424621202719999e-01	 7.424621202720001e-01	-6.233509787299090e+00
1	 8.893077306939365e-01	 5.814103629817780e-01	-1.752467252723762e+00
1	 8.771956047779617e-01	 5.995282487235530e-01	-2.205461505040319e+00
1	 8.646901633304135e-01	 6.174278674494742e-01	-2.657869349872453e+00
1	 8.517972705204740e-01	 6.350965753342479e-01	-3.107475622324137e+00
1	 8.385233272616601e-01	 6.525219381054047e-01	-3.552063521370827e+00
1	 8.248752618259512e-01	 6.696917593201157e-01	-3.989423519175214e+00
1	 8.108605186799150e-01	 6.865941081324930e-01	-4.417362319435782e+00
1	 7.964870455757337e-01	 7.032173464214730e-01	-4.833711806052921e+00
1	 7.817632789408300e-01	 7.195501551518694e-01	-5.236337922818965e+00
1	 7.666981276204146e-01	 7.355815598447166e-01	-5.623149424853626e+00
1	 7.513009550375001e-01	 7.513009550375001e-01	-5.992106443128485e+00
1	 8.997701745858451e-01	 5.882504848991706e-01	-1.659027566851386e+00
1	 8.875155530706845e-01	 6.065815222375835e-01	-2.092779871833722e+00
1	 8.748629887823961e-01	 6.246917247129546e-01	-2.526639614029376e+00
1	 8.618184148803874e-01	 6.425682997491056e-01	-2.958521961802931e+00
1	 8.483883075830400e-01	 6.601986667880082e-01	-3.386338775766310e+00
1	 8.345796766714155e-01	 6.775704858992714e-01	-3.808006974682296e+00
1	 8.204000541940423e-01	 6.946716858741154e-01	-4.221456955999999e+00
1	 8.058574814060682e-01	 7.114904916724046e-01	-4.624641015949648e+00
1	 7.909604939870044e-01	 7.280154510938338e-01	-5.015541713508625e+00
1	 7.757181055920049e-01	 7.442354605479196e-01	-5.392180122498547e+00
1	 7.601397898020000e-01	 7.601397898019999e-01	-5.752623916585186e+00
1	 9.102326184762480e-01	 5.950906068155633e-01	-1.555871273163704e+00
1	 8.978355013619972e-01	 6.136347957506137e-01	-1.971631285103820e+00
1	 8.850358142330540e-01	 6.319555819754350e-01	-2.388178357002001e+00
1	 8.718395592390517e-01	 6.500400241629630e-01	-2.803555553416246e+00
1	 8.582532879032364e-01	 6.678753954696115e-01	-3.215800982765682e+00
1	 8.442840915157530e-01	 6.854492124774274e-01	-3.622955628644223e+00
1	 8.299395897070877e-01	 7.027492636147378e-01	-4.023071241303690e+00
1	 8.152279172353567e-01	 7.197636369223365e-01	-4.414218237817405e+00
1	 8.001577090321583e-01	 7.364807470347983e-01	-4.794493558788941e+00
1	 7.847380835625897e-01	 7.528893612501224e-01	-5.162028429347228e+00
1	 7.689786245654999e-01	 7.689786245654999e-01	-5.514995972576116e+00
1	 9.206950623651458e-01	 6.019307287309560e-01	-1.443329619659691e+00
1	 9.081554496518998e-01	 6.206880692626442e-01	-1.842304390997987e+00
1	 8.952086396823874e-01	 6.392194392369155e-01	-2.242732107925291e+00
1	 8.818607035964670e-01	 6.575117485758205e-01	-2.642781377207945e+00
1	 8.681182682222500e-01	 6.755521241502151e-01	-3.040614223532289e+00
1	 8.539885063589624e-01	 6.933279390545832e-01	-3.434393394751428e+00
1	 8.394791252190520e-01	 7.108268413543603e-01	-3.822289732776714e+00
1	 8.245983530635995e-01	 7.280367821712683e-01	-4.202489562156920e+00
1	 8.093549240762918e-01	 7.449460429747625e-01	-4.573202047707012e+00
1	 7.937580615321697e-01	 7.615432619513252e-01	-4.932666472356949e+00
1	 7.778174593279999e-01	 7.778174593279999e-01	-5.279159386694288e+00
1	 9.311575062525380e-01	 6.087708506453484e-01	-1.321718966787641e+00
1	 9.184753979403921e-01	 6.277413427736747e-01	-1.705074862802835e+00
1	 9.053814651303959e-01	 6.464832964973959e-01	-2.090536315973061e+00
1	 8.918818479526330e-01	 6.649834729876779e-01	-2.476395200635460e+00
1	 8.779832485400803e-01	 6.832288528298185e-01	-2.860935204795165e+00
1	 8.636929212010450e-01	 7.012066656307392e-01	-3.242438617539565e+00
1	 8.490186607299344e-01	 7.189044190929826e-01	-3.619193187514998e+00
1	 8.339687888907961e-01	 7.363099274192001e-01	-3.989499007985816e+00
1	 8.185521391194046e-01	 7.534113389137267e-01	-4.351675383285235e+00
1	 8.027780395007446e-01	 7.701971626515282e-01	-4.704067631205954e+00
1	 7.866562940895000e-01	 7.866562940895000e-01	-5.045053776079076e+00
1	 9.416199501384250e-01	 6.156109725587411e-01	-1.191341614531403e+00
1	 9.287953462274744e-01	 6.347946162837050e-01	-1.560206121658924e+00
1	 9.155542905770797e-01	 6.537471537568762e-01	-1.931815965911275e+00
1	 9.019029923075504e-01	 6.724551973985354e-01	-2.304584090380404e+00
1	 8.878482288567273e-01	 6.909055815084219e-01	-2.676913668539715e+00
1	 8.733973360420002e-01	 7.090853922058951e-01	-3.047204381787186e+00
1	 8.585581962397351e-01	 7.269819968306050e-01	-3.413858773410158e+00
1	 8.433392247169470e-01	 7.445830726661317e-01	-3.775288637920797e+00
1	 8.277493541614975e-01	 7.618766348516912e-01	-4.129921403967307e+00
1	 8.117980174683143e-01	 7.788510633507310e-01	-4.476206468697935e+00
1	 7.954951288500001e-01	 7.954951288500001e-01	-4.812621441552531e+00
1	 7.071067811999999e-01	 7.071067811999999e-01	-7.219771953529082e+00
1	 6.923120563137025e-01	 7.215982377473872e-01	-7.616838756107894e+00
1	 6.772236754270478e-01	 7.357772036946522e-01	-7.999113110806389e+00
1	 6.618516201518141e-01	 7.496348664083716e-01	-8.364569640406687e+00
1	 6.462062194093813e-01	 7.631628410930559e-01	-8.711234744325060e+00
1	 6.302981264093362e-01	 7.763531875817182e-01	-9.037194383678731e+00
1	 6.141382946773881e-01	 7.891984256370137e-01	-9.340601534081422e+00
1	 5.977379532449610e-01	 8.016915487021739e-01	-9.619683259049200e+00
1	 5.811085811170723e-01	 8.138260360506312e-01	-9.872747360344302e+00
1	 5.642618811384018e-01	 8.255958632931955e-01	-1.009818856543613e+01
1	 5.472097533798151e-01	 8.369955112118155e-01	-1.029449421646896e+01
1	 7.159456159695000e-01	 7.159456159695000e-01	-6.969956139537480e+00
1	 7.009659570219053e-01	 7.306182157240030e-01	-7.357693029293873e+00
1	 6.856889713740122e-01	 7.449744187459286e-01	-7.731530374051951e+00
1	 6.701247654077458e-01	 7.590053022439357e-01	-8.089524294465372e+00
1	 6.542837971560036e-01	 7.727023766125908e-01	-8.429779779973321e+00
1	 6.381768529934920e-01	 7.860576024328195e-01	-8.750458156557093e+00
1	 6.218150233649915e-01	 7.990634059643091e-01	-9.049784239735482e+00
1	 6.052096776648186e-01	 8.117126930683318e-01	-9.326053127577824e+00
1	 5.883724383855530e-01	 8.239988615092370e-01	-9.577636591783028e+00
1	 5.713151546574324e-01	 8.359158115929688e-01	-9.802989028541104e+00
1	 5.540498753022077e-01	 8.474579551112504e-01	-1.000065293489873e+01
1	 7.247844507379998e-01	 7.247844507379999e-01	-6.722360023795313e+00
1	 7.096198577291083e-01	 7.396381936996136e-01	-7.101719378242830e+00
1	 6.941542673199766e-01	 7.541716337961849e-01	-7.468056809950388e+00
1	 6.783979106626776e-01	 7.683757380784542e-01	-7.819508145653876e+00
1	 6.623613749016261e-01	 7.822419121310443e-01	-8.154255220450896e+00
1	 6.460555795766482e-01	 7.957620172827933e-01	-8.470533034314977e+00
1	 6.294917520515949e-01	 8.089283862904216e-01	-8.766636611075400e+00
1	 6.126814020836757e-01	 8.217338374332406e-01	-9.040927516501593e+00
1	 5.956362956530332e-01	 8.341716869665180e-01	-9.291839995234088e+00
1	 5.783684281754625e-01	 8.462357598913323e-01	-9.517886689782106e+00
1	 5.608899972236003e-01	 8.579203990091798e-01	-9.717663908619240e+00
1	 7.336232855055000e-01	 7.336232855055000e-01	-6.476903376242785e+00
1	 7.182737584353108e-01	 7.486581716742190e-01	-6.848803149610735e+00
1	 7.026195632649409e-01	 7.633688488454202e-01	-7.208543894185261e+00
1	 6.866710559166094e-01	 7.777461739119265e-01	-7.554339415758380e+00
1	 6.704389526462485e-01	 7.917814476484162e-01	-7.884446713771004e+00
1	 6.539343061588040e-01	 8.054664321316398e-01	-8.197172832433226e+00
1	 6.371684807371982e-01	 8.187933666153508e-01	-8.490881431262963e+00
1	 6.201531265015334e-01	 8.317549817969007e-01	-8.763999033510492e+00
1	 6.029001529195136e-01	 8.443445124224743e-01	-9.015020913870698e+00
1	 5.854217016924929e-01	 8.565557081882855e-01	-9.242516590182809e+00
1	 5.677301191439930e-01	 8.683828429056042e-01	-9.445134887431621e+00
1	 7.424621202719999e-01	 7.424621202720001e-01	-6.233509787299090e+00
1	 7.269276591405137e-01	 7.576781496478194e-01	-6.598835149736606e+00
1	 7.110848592089053e-01	 7.725660638936355e-01	-6.952850175026589e+00
1	 6.949442011695413e-01	 7.871166097443529e-01	-7.293844982670410e+00
1	 6.785165303898705e-01	 8.013209831647063e-01	-7.620150115184353e+00
1	 6.618130327399598e-01	 8.151708469793592e-01	-7.930143089464867e+00
1	 6.448452094218017e-01	 8.286583469390970e-01	-8.222254684261983e+00
1	 6.276248509183910e-01	 8.417761261593117e-01	-8.494974924023586e+00
1	 6.101640101849942e-01	 8.545173378771063e-01	-8.746858722143703e+00
1	 5.924749752085233e-01	 8.668756564838282e-01	-8.976531149766092e+00
1	 5.745702410633855e-01	 8.788452868005230e-01	-9.182692299717807e+00
1	 7.513009550375001e-01	 7.513009550375001e-01	-5.992106443128485e+00
1	 7.355815598447167e-01	 7.666981276204147e-01	-6.351711323484742e+00
1	 7.195501551518695e-01	 7.817632789408299e-01	-6.700840857296273e+00
1	 7.032173464214733e-01	 7.964870455757336e-01	-7.037859871204277e+00
1	 6.865941081324931e-01	 8.108605186799150e-01	-7.361170886753504e+00
1	 6.696917593201157e-01	 8.248752618259508e-01	-7.669220377442961e+00
1	 6.525219381054053e-01	 8.385233272616602e-01	-7.960504778320386e+00
1	 6.350965753342483e-01	 8.517972705204742e-01	-8.233576210146321e+00
1	 6.174278674494746e-01	 8.646901633304133e-01	-8.487047882765149e+00
1	 5.995282487235538e-01	 8.771956047779614e-01	-8.719599145259695e+00
1	 5.814103629817781e-01	 8.893077306939365e-01	-8.929980153701006e+00
1	 7.601397898020000e-01	 7.601397898019999e-01	-5.752623916585186e+00
1	 7.442354605479196e-01	 7.757181055920047e-01	-6.107332455493179e+00
1	 7.280154510938339e-01	 7.909604939870044e-01	-6.452387415359487e+00
1	 7.114904916724047e-01	 8.058574814060682e-01	-6.786226779438808e+00
1	 6.946716858741158e-01	 8.204000541940424e-01	-7.107323538817148e+00
1	 6.775704858992717e-01	 8.345796766714155e-01	-7.414191660399157e+00
1	 6.601986667880085e-01	 8.483883075830395e-01	-7.705391823628102e+00
1	 6.425682997491058e-01	 8.618184148803871e-01	-7.979536889700098e+00
1	 6.246917247129552e-01	 8.748629887823960e-01	-8.235297069483879e+00
1	 6.065815222375840e-01	 8.875155530706840e-01	-8.471404759125045e+00
1	 5.882504848991708e-01	 8.997701745858451e-01	-8.686659015361323e+00
1	 7.689786245654999e-01	 7.689786245654999e-01	-5.514995972576116e+00
1	 7.528893612501225e-01	 7.847380835625901e-01	-5.865603892025799e+00
1	 7.364807470347983e-01	 8.001577090321584e-01	-6.207367232806044e+00
1	 7.197636369223366e-01	 8.152279172353567e-01	-6.538795637725032e+00
1	 7.027492636147382e-01	 8.299395897070879e-01	-6.858431109974355e+00
1	 6.854492124774276e-01	 8.442840915157526e-01	-7.164853697122187e+00
1	 6.678753954696118e-01	 8.582532879032362e-01	-7.456686959791756e+00
1	 6.500400241629634e-01	 8.718395592390513e-01	-7.732603190491748e+00
1	 6.319555819754356e-01	 8.850358142330536e-01	-7.991328350359146e+00
1	 6.136347957506144e-01	 8.978355013619969e-01	-8.231646694170294e+00
1	 5.950906068155634e-01	 9.102326184762480e-01	-8.452405056841028e+00
1	 7.778174593279999e-01	 7.778174593279999e-01	-5.279159386694288e+00
1	 7.615432619513252e-01	 7.937580615321698e-01	-5.626435281788978e+00
1	 7.449460429747624e-01	 8.093549240762917e-01	-5.965663266698938e+00
1	 7.280367821712684e-01	 8.245983530635994e-01	-6.295423197761830e+00
1	 7.108268413543607e-01	 8.394791252190520e-01	-6.614324682524288e+00
1	 6.933279390545833e-01	 8.539885063589621e-01	-6.921012484637750e+00
1	 6.755521241502154e-01	 8.681182682222498e-01	-7.214171729163017e+00
1	 6.575117485758207e-01	 8.818607035964664e-01	-7.492532875427764e+00
1	 6.392194392369160e-01	 8.952086396823867e-01	-7.754876426720419e+00
1	 6.206880692626449e-01	 9.081554496518994e-01	-8.000037348530572e+00
1	 6.019307287309560e-01	 9.206950623651458e-01	-8.226909169730492e+00
1	 7.866562940895000e-01	 7.866562940895000e-01	-5.045053776079076e+00
1	 7.701971626515279e-01	 8.027780395007448e-01	-5.389740334221547e+00
1	 7.534113389137267e-01	 8.185521391194046e-01	-5.727163734457877e+00
1	 7.363099274192003e-01	 8.339687888907965e-01	-6.055972649373828e+00
1	 7.189044190929827e-01	 8.490186607299340e-01	-6.374842930572868e+00
1	 7.012066656307393e-01	 8.636929212010448e-01	-6.682482739206436e+00
1	 6.832288528298186e-01	 8.779832485400799e-01	-6.977637492415106e+00
1	 6.649834729876783e-01	 8.918818479526329e-01	-7.259094594475267e+00
1	 6.464832964973964e-01	 9.053814651303955e-01	-7.525687923432957e+00
1	 6.277413427736752e-01	 9.184753979403918e-01	-7.776302046267710e+00
1	 6.087708506453484e-01	 9.311575062525379e-01	-8.009876138133013e+00
1	 7.954951288500001e-01	 7.954951288500001e-01	-4.812621441552531e+00
1	 7.788510633507308e-01	 8.117980174683144e-01	-5.155436593898269e+00
1	 7.618766348516911e-01	 8.277493541614976e-01	-5.491761821617285e+00
1	 7.445830726661320e-01	 8.433392247169471e-01	-5.820313262838034e+00
1	 7.269819968306053e-01	 8.585581962397351e-01	-6.139831698265803e+00
1	 7.090853922058953e-01	 8.733973360420000e-01	-6.449087411921731e+00
1	 6.909055815084221e-01	 8.878482288567272e-01	-6.746884883080171e+00
1	 6.724551973985359e-01	 9.019029923075501e-01	-7.032067279824918e+00
1	 6.537471537568769e-01	 9.155542905770793e-01	-7.303520726479247e+00
1	 6.347946162837055e-01	 9.287953462274742e-01	-7.560178319262961e+00
1	 6.156109725587411e-01	 9.416199501384250e-01	-7.801023866858591e+00
1	 5.472097533798151e-01	 8.369955112118155e-01	-1.029449421646896e+01
1	 5.299642681697644e-01	 8.480199728994640e-01	-1.045429113858345e+01
1	 5.125376388923134e-01	 8.586647591951594e-01	-1.060217558068769e+01
1	 4.949421946770166e-01	 8.689259024143141e-01	-1.073731934575236e+01
1	 4.771903531042269e-01	 8.787999583847403e-01	-1.085892398180487e+01
1	 4.592945930433337e-01	 8.882840068073012e-01	-1.096622369374798e+01
1	 4.412674277413340e-01	 8.973756499704219e-01	-1.105848805739033e+01
1	 4.231213782743766e-01	 9.060730098564395e-01	-1.113502452180508e+01
1	 4.048689474701956e-01	 9.143747236862123e-01	-1.119518068813015e+01
1	 3.865225944039570e-01	 9.222799379563006e-01	-1.123834635498715e+01
1	 3.680947095640363e-01	 9.297883010302649e-01	-1.126395532279405e+01
1	 5.540498753022077e-01	 8.474579551112504e-01	-1.000065293489873e+01
1	 5.365888215273570e-01	 8.586202225706244e-01	-1.016846270915815e+01
1	 5.189443593841651e-01	 8.693980686955066e-01	-1.032449601019850e+01
1	 5.011289721163066e-01	 8.797874762052528e-01	-1.046794165478831e+01
1	 4.831552325238891e-01	 8.897849578755235e-01	-1.059801820174683e+01
1	 4.650357754621707e-01	 8.993875569034435e-01	-1.071397677451040e+01
1	 4.467832705937365e-01	 9.085928456060449e-01	-1.081510368756650e+01
1	 4.284103955081883e-01	 9.173989224904452e-01	-1.090072286345747e+01
1	 4.099298093186080e-01	 9.258044077427652e-01	-1.097019802901815e+01
1	 3.913541268386022e-01	 9.338084371907733e-01	-1.102293468154095e+01
1	 3.726958934376526e-01	 9.414106548025766e-01	-1.105838181761517e+01
1	 5.608899972236003e-01	 8.579203990091798e-01	-9.717663908619240e+00
1	 5.432133748839548e-01	 8.692204722401957e-01	-9.893807241497697e+00
1	 5.253510798750377e-01	 8.801313781942111e-01	-1.005831445564586e+01
1	 5.073157495546432e-01	 8.906490499945261e-01	-1.021039073960821e+01
1	 4.891201119426348e-01	 9.007699573646497e-01	-1.034927101920573e+01
1	 4.707769578801375e-01	 9.104911069979682e-01	-1.047422269311819e+01
1	 4.522991134453255e-01	 9.198100412401192e-01	-1.058454817394633e+01
1	 4.336994127412528e-01	 9.287248351230004e-01	-1.067958722202571e+01
1	 4.149906711663495e-01	 9.372340917979960e-01	-1.075871906120070e+01
1	 3.961856592726625e-01	 9.453369364240807e-01	-1.082136426775208e+01
1	 3.772970773107793e-01	 9.530330085739084e-01	-1.086698642568976e+01
1	 5.677301191439930e-01	 8.683828429056042e-01	-9.445134887431621e+00
1	 5.498379282395577e-01	 8.798207219081762e-01	-9.629920893605039e+00
1	 5.317578003649310e-01	 8.908646876912723e-01	-9.803215326088797e+00
1	 5.135025269920271e-01	 9.015106237821341e-01	-9.964239126386895e+00
1	 4.950849913604638e-01	 9.117549568521192e-01	-1.011224296680134e+01
1	 4.765181402972344e-01	 9.215946570908742e-01	-1.024650990121716e+01
1	 4.578149562961010e-01	 9.310272368726438e-01	-1.036635782293492e+01
1	 4.389884299735704e-01	 9.400507477541058e-01	-1.047114171738445e+01
1	 4.200515330134201e-01	 9.486637758519038e-01	-1.056025569945552e+01
1	 4.010171917061375e-01	 9.568654356562227e-01	-1.063313482713277e+01
1	 3.818982611834161e-01	 9.646553623442610e-01	-1.068925668509954e+01
1	 5.745702410633855e-01	 8.788452868005230e-01	-9.182692299717807e+00
1	 5.564624815941662e-01	 8.904209715745679e-01	-9.376419054054519e+00
1	 5.381645208538457e-01	 9.015979971866910e-01	-9.558802820631209e+00
1	 5.196893044284583e-01	 9.123721975680770e-01	-9.729079697195720e+00
1	 5.010498707773762e-01	 9.227399563379314e-01	-9.886515504172030e+00
1	 4.822593227134611e-01	 9.326982071821623e-01	-1.003040835275576e+01
1	 4.633307991460628e-01	 9.422444325036196e-01	-1.016009102158506e+01
1	 4.442774472051409e-01	 9.513766603837600e-01	-1.027493313036689e+01
1	 4.251123948598199e-01	 9.600934599044898e-01	-1.037434310071385e+01
1	 4.058487241390278e-01	 9.683939348871998e-01	-1.045776989636179e+01
1	 3.864994450555633e-01	 9.762777161136343e-01	-1.052470453687515e+01
1	 5.814103629817781e-01	 8.893077306939365e-01	-8.929980153701006e+00
1	 5.630870349477796e-01	 9.010212212393696e-01	-9.132935210781826e+00
1	 5.445712413417813e-01	 9.123313066804662e-01	-9.324699764301561e+00
1	 5.258760818639362e-01	 9.232337713523550e-01	-9.504524492596964e+00
1	 5.070147501933719e-01	 9.337249558220868e-01	-9.671689786972893e+00
1	 4.880005051288177e-01	 9.438017572718324e-01	-9.825508239143810e+00
1	 4.688466419952113e-01	 9.534616281330459e-01	-9.965326938735412e+00
1	 4.495664644359644e-01	 9.627025730119640e-01	-1.009052956976708e+01
1	 4.301732567055489e-01	 9.715231439557529e-01	-1.020053829687503e+01
1	 4.106802565713329e-01	 9.799224341170115e-01	-1.029481543392101e+01
1	 3.911006289272207e-01	 9.879000698820278e-01	-1.037286488952791e+01
1	 5.882504848991708e-01	 8.997701745858451e-01	-8.686659015361323e+00
1	 5.697115883003985e-01	 9.116214709025819e-01	-8.899119898795480e+00
1	 5.509779618287376e-01	 9.230646161725989e-01	-9.100546525150460e+00
1	 5.320628592984612e-01	 9.340953451349671e-01	-9.290203597777820e+00
1	 5.129796296084511e-01	 9.447099553045852e-01	-9.467385521759127e+00
1	 4.937416875433043e-01	 9.549053073598841e-01	-9.631418812655728e+00
1	 4.743624848435461e-01	 9.646788237609232e-01	-9.781664316766985e+00
1	 4.548554816660406e-01	 9.740284856387172e-01	-9.917519232342153e+00
1	 4.352341185506070e-01	 9.829528280056942e-01	-1.003841892300579e+01
1	 4.155117890030531e-01	 9.914509333456581e-01	-1.014383851650275e+01
1	 3.957018127983884e-01	 9.995224236494423e-01	-1.023329428373166e+01
1	 5.950906068155634e-01	 9.102326184762480e-01	-8.452405056841028e+00
1	 5.763361416520227e-01	 9.222217205642042e-01	-8.674639720460029e+00
1	 5.573846823147151e-01	 9.337979256630887e-01	-8.886000006030894e+00
1	 5.382496367320332e-01	 9.449569189159140e-01	-9.085764105503330e+00
1	 5.189445090226138e-01	 9.556949547854271e-01	-9.273239899841782e+00
1	 4.994828699569208e-01	 9.660088574463179e-01	-9.447767290978735e+00
1	 4.798783276910674e-01	 9.758960193872510e-01	-9.608720346686916e+00
1	 4.601444988953700e-01	 9.853543982640203e-01	-9.755509248331753e+00
1	 4.402949803949942e-01	 9.943825120543127e-01	-9.887582033250471e+00
1	 4.203433214341882e-01	 1.002979432573140e+00	-1.000442612531926e+01
1	 4.003029966690664e-01	 1.011144777415877e+00	-1.010556964909478e+01
1	 6.019307287309560e-01	 9.206950623651458e-01	-8.226909169730492e+00
1	 5.829606950026519e-01	 9.328219702242370e-01	-8.459176432578131e+00
1	 5.637914027997134e-01	 9.445312351519353e-01	-8.680732705120711e+00
1	 5.444364141646524e-01	 9.558184926951957e-01	-8.890869149776556e+00
1	 5.249093884358597e-01	 9.666799542646118e-01	-9.088906603836289e+00
1	 5.052240523696671e-01	 9.771124075311334e-01	-9.274197836450716e+00
1	 4.853941705377752e-01	 9.871132150120299e-01	-9.446129619911360e+00
1	 4.654335161239521e-01	 9.966803108878728e-01	-9.604124605691933e+00
1	 4.453558422387106e-01	 1.005812196101609e+00	-9.747642997473982e+00
1	 4.251748538647384e-01	 1.014507931799456e+00	-9.876184015164052e+00
1	 4.049041805392548e-01	 1.022767131181332e+00	-9.989287145698155e+00
1	 6.087708506453484e-01	 9.311575062525379e-01	-8.009876138133013e+00
1	 5.895852483522863e-01	 9.434222198826796e-01	-8.252426095017666e+00
1	 5.701981232837326e-01	 9.552645446391391e-01	-8.484431839780882e+00
1	 5.506231915963185e-01	 9.666800664728121e-01	-8.705197004645262e+00
1	 5.308742678481890e-01	 9.776649537421396e-01	-8.914054881184279e+00
1	 5.109652347815433e-01	 9.882159576143307e-01	-9.110370604113449e+00
1	 4.909100133836695e-01	 9.983304106352595e-01	-9.293543150714111e+00
1	 4.707225333517872e-01	 1.008006223510275e+00	-9.463007146852776e+00
1	 4.504167040817562e-01	 1.017241880147583e+00	-9.618234472289174e+00
1	 4.300063862947036e-01	 1.026036431024607e+00	-9.758735659716381e+00
1	 4.095053644089534e-01	 1.034389484945808e+00	-9.884061083731400e+00
1	 6.156109725587411e-01	 9.416199501384250e-01	-7.801023866858591e+00
1	 5.962098017009264e-01	 9.540224695395332e-01	-8.054098276096731e+00
1	 5.766048437667730e-01	 9.659978541247000e-01	-8.296798528823077e+00
1	 5.568099690270316e-01	 9.775416402487633e-01	-8.528440243088751e+00
1	 5.368391472596018e-01	 9.886499532180105e-01	-8.748368679441223e+00
1	 5.167064171925495e-01	 9.993195076959103e-01	-8.955960853229282e+00
1	 4.964258562287501e-01	 1.009547606256940e+00	-9.150627463845714e+00
1	 4.760115505788752e-01	 1.019332136131226e+00	-9.331814632358475e+00
1	 4.554775659241308e-01	 1.028671564192235e+00	-9.499005440681495e+00
1	 4.348379187240837e-01	 1.037564930248593e+00	-9.651721267158777e+00
1	 4.141065482781622e-01	 1.046011838709305e+00	-9.789522915153597e+00
1	 3.680947095640363e-01	 9.297883010302649e-01	-1.126395532279405e+01
1	 3.495975907771368e-01	 9.368999543523497e-01	-1.126353781289925e+01
1	 3.310434199775671e-01	 9.436155223571460e-01	-1.126157659095128e+01
1	 3.124442408950447e-01	 9.499361011546517e-01	-1.125794169804922e+01
1	 2.938119377279355e-01	 9.558632460744549e-01	-1.125248301760088e+01
1	 2.751582148638955e-01	 9.613989581557346e-01	-1.124503193431890e+01
1	 2.564945776994927e-01	 9.665456696731550e-01	-1.123540304822710e+01
1	 2.378323146029685e-01	 9.713062287906586e-01	-1.122339592932564e+01
1	 2.191824800562900e-01	 9.756838834365028e-01	-1.120879689887208e+01
1	 2.005558790047262e-01	 9.796822644935033e-01	-1.119138082366238e+01
1	 1.819630524344169e-01	 9.833053683983746e-01	-1.117091291023998e+01
1	 3.726958934376526e-01	 9.414106548025766e-01	-1.105838181761517e+01
1	 3.539675606653077e-01	 9.486112037905382e-01	-1.107354025447418e+01
1	 3.351814627300657e-01	 9.554107163947457e-01	-1.108621114270742e+01
1	 3.163497939082678e-01	 9.618103024265738e-01	-1.109626010928113e+01
1	 2.974845869507599e-01	 9.678115366572296e-01	-1.110353633241093e+01
1	 2.785976925500455e-01	 9.734164451388825e-01	-1.110787407296299e+01
1	 2.597007599201513e-01	 9.786274905496308e-01	-1.110909424765030e+01
1	 2.408052185339230e-01	 9.834475566554659e-01	-1.110700603109996e+01
1	 2.219222610543540e-01	 9.878799319837492e-01	-1.110140847420082e+01
1	 2.030628274885305e-01	 9.919282928033322e-01	-1.109209212658310e+01
1	 1.842375905849211e-01	 9.955966855063876e-01	-1.107884065161664e+01
1	 3.772970773107793e-01	 9.530330085739084e-01	-1.086698642568976e+01
1	 3.583375305530888e-01	 9.603224532279364e-01	-1.089762912814039e+01
1	 3.393195054822754e-01	 9.672059104317243e-01	-1.092486983428141e+01
1	 3.202553469213020e-01	 9.736845036980224e-01	-1.094856948249378e+01
1	 3.011572361734961e-01	 9.797598272396583e-01	-1.096857620715874e+01
1	 2.820371702362082e-01	 9.854339321217914e-01	-1.098472674528158e+01
1	 2.629069421409231e-01	 9.907093114259542e-01	-1.099684787187841e+01
1	 2.437781224650914e-01	 9.955888845201885e-01	-1.100475785260896e+01
1	 2.246620420527323e-01	 1.000075980530958e+00	-1.100826790249194e+01
1	 2.055697759727496e-01	 1.004174321113151e+00	-1.100718363999456e+01
1	 1.865121287359399e-01	 1.007888002614400e+00	-1.100130652632215e+01
1	 3.818982611834161e-01	 9.646553623442610e-01	-1.068925668509954e+01
1	 3.627075004404804e-01	 9.720337026645445e-01	-1.073529528575514e+01
1	 3.434575482341956e-01	 9.790011044680814e-01	-1.077704576905739e+01
1	 3.241608999341474e-01	 9.855587049689971e-01	-1.081436412026864e+01
1	 3.048298853961442e-01	 9.917081178217401e-01	-1.084709710353477e+01
1	 2.854766479223834e-01	 9.974514191044608e-01	-1.087508354644339e+01
1	 2.661131243618082e-01	 1.002791132302125e+00	-1.089815564049615e+01
1	 2.467510263964736e-01	 1.007730212384825e+00	-1.091614024735491e+01
1	 2.274018230514250e-01	 1.012272029078129e+00	-1.092886020110608e+01
1	 2.080767244573832e-01	 1.016420349422961e+00	-1.093613559724949e+01
1	 1.887866668874734e-01	 1.020179319722413e+00	-1.093778505965418e+01
1	 3.864994450555633e-01	 9.762777161136343e-01	-1.052470453687515e+01
1	 3.670774703274824e-01	 9.837449521003626e-01	-1.058605382432554e+01
1	 3.475955909858267e-01	 9.907962985038169e-01	-1.064225618835340e+01
1	 3.280664529468041e-01	 9.974329062394982e-01	-1.069316240601719e+01
1	 3.085025346187044e-01	 1.003656408403476e+00	-1.073861755648259e+01
1	 2.889161256085711e-01	 1.009468906086891e+00	-1.077846218613334e+01
1	 2.693193065828065e-01	 1.014872953178144e+00	-1.081253347691775e+01
1	 2.497239303280696e-01	 1.019871540249376e+00	-1.084066640914953e+01
1	 2.301416040504319e-01	 1.024468077625263e+00	-1.086269491038684e+01
1	 2.105836729424314e-01	 1.028666377732761e+00	-1.087845298249382e+01
1	 1.910612050395216e-01	 1.032470636830427e+00	-1.088777579951584e+01
1	 3.911006289272207e-01	 9.879000698820278e-01	-1.037286488952791e+01
1	 3.714474402140946e-01	 9.954562015353907e-01	-1.044944265982333e+01
1	 3.517336337371683e-01	 1.002591492538931e+00	-1.052004105154364e+01
1	 3.319720059592722e-01	 1.009307107509526e+00	-1.058450538746094e+01
1	 3.121751838411762e-01	 1.015604698984865e+00	-1.064267875812513e+01
1	 2.923556032947714e-01	 1.021486393069082e+00	-1.069440307005131e+01
1	 2.725254888039181e-01	 1.026954774054010e+00	-1.073952008463284e+01
1	 2.526968342598795e-01	 1.032012868113843e+00	-1.077787244033160e+01
1	 2.328813850497531e-01	 1.036664126172358e+00	-1.080930465113274e+01
1	 2.130906214278943e-01	 1.040912406042553e+00	-1.083366407473753e+01
1	 1.933357431920845e-01	 1.044761953938439e+00	-1.085080184449734e+01
1	 3.957018127983884e-01	 9.995224236494423e-01	-1.023329428373166e+01
1	 3.758174101003174e-01	 1.007167450969629e+00	-1.032502120050065e+01
1	 3.558716764882207e-01	 1.014386686573424e+00	-1.040996171524061e+01
1	 3.358775589715515e-01	 1.021181308779080e+00	-1.048795545893934e+01
1	 3.158478330635600e-01	 1.027552989565908e+00	-1.055884324048686e+01
1	 2.957950809809843e-01	 1.033503880051033e+00	-1.062246798037677e+01
1	 2.757316710251428e-01	 1.039036594929724e+00	-1.067867562278259e+01
1	 2.556697381919033e-01	 1.044154195978224e+00	-1.072731601987562e+01
1	 2.356211660493888e-01	 1.048860174719417e+00	-1.076824378271039e+01
1	 2.155975699137717e-01	 1.053158434352334e+00	-1.080131909350227e+01
1	 1.956102813451620e-01	 1.057053271046452e+00	-1.082640847465053e+01
1	 4.003029966690664e-01	 1.011144777415877e+00	-1.010556964909478e+01
1	 3.801873799861506e-01	 1.018878700403077e+00	-1.021236911170162e+01
1	 3.600097192389839e-01	 1.026181880607295e+00	-1.031159970356917e+01
1	 3.397831119836419e-01	 1.033055510048160e+00	-1.040309513459240e+01
1	 3.195204822858556e-01	 1.039501280146605e+00	-1.048669364906265e+01
1	 2.992345586672098e-01	 1.045521367032745e+00	-1.056223884723509e+01
1	 2.789378532464808e-01	 1.051118415805285e+00	-1.062958047307695e+01
1	 2.586426421241408e-01	 1.056295523842520e+00	-1.068857516335537e+01
1	 2.383609470493386e-01	 1.061056223266437e+00	-1.073908715371104e+01
1	 2.181045184000638e-01	 1.065404462662107e+00	-1.078098893787223e+01
1	 1.978848194987542e-01	 1.069344588154466e+00	-1.081416187669189e+01
1	 4.049041805392548e-01	 1.022767131181332e+00	-9.989287145698155e+00
1	 3.845573498715942e-01	 1.030589949835736e+00	-1.011108516489123e+01
1	 3.641477619894577e-01	 1.037977074640545e+00	-1.022455556228512e+01
1	 3.436886649955436e-01	 1.044929711316767e+00	-1.032952590519049e+01
1	 3.231931315080631e-01	 1.051449570726956e+00	-1.042583160000681e+01
1	 3.026740363534478e-01	 1.057538854014218e+00	-1.051331660392800e+01
1	 2.821440354679321e-01	 1.063200236680694e+00	-1.059183409078465e+01
1	 2.616155460565923e-01	 1.068436851706730e+00	-1.066124706745514e+01
1	 2.411007280496028e-01	 1.073252271813419e+00	-1.072142893779040e+01
1	 2.206114668867706e-01	 1.077650490971870e+00	-1.077226401151912e+01
1	 2.001593576528611e-01	 1.081635905262479e+00	-1.081364795612385e+01
1	 4.095053644089534e-01	 1.034389484945808e+00	-9.884061083731400e+00
1	 3.889273197566479e-01	 1.042301199267603e+00	-1.002078616427780e+01
1	 3.682858047396424e-01	 1.049772268673173e+00	-1.014844779014393e+01
1	 3.475942180072565e-01	 1.056803912584900e+00	-1.026686717203120e+01
1	 3.268657807301825e-01	 1.063397861306960e+00	-1.037587661436595e+01
1	 3.061135140396982e-01	 1.069556340995452e+00	-1.047532011933952e+01
1	 2.853502176894966e-01	 1.075282057555951e+00	-1.056505393318518e+01
1	 2.645884499892575e-01	 1.080578179570855e+00	-1.064494703237923e+01
1	 2.438405090501814e-01	 1.085448320360364e+00	-1.071488154799078e+01
1	 2.231184153738919e-01	 1.089896519281624e+00	-1.077475312693866e+01
1	 2.024338958074826e-01	 1.093927222370491e+00	-1.082447122943783e+01
1	 4.141065482781622e-01	 1.046011838709305e+00	-9.789522915153597e+00
1	 3.932972896413123e-01	 1.054012448698682e+00	-9.941105944993724e+00
1	 3.724238474895377e-01	 1.061567462705179e+00	-1.008291184151218e+01
1	 3.514997710187807e-01	 1.068678113852559e+00	-1.021475525191021e+01
1	 3.305384299522138e-01	 1.075346151886617e+00	-1.033646512336247e+01
1	 3.095529917259615e-01	 1.081573827976446e+00	-1.044788520151446e+01
1	 2.885563999111744e-01	 1.087363878431055e+00	-1.054887445945694e+01
1	 2.675613539221366e-01	 1.092719507434895e+00	-1.063930745610112e+01
1	 2.465802900510743e-01	 1.097644368907271e+00	-1.071907462344176e+01
1	 2.256253638614278e-01	 1.102142547591368e+00	-1.078808248273828e+01
1	 2.047084339626188e-01	 1.106218539478505e+00	-1.084625379017056e+01
1	 1.819630524344169e-01	 9.833053683983746e-01	-1.117091291023998e+01
1	 1.634142641907509e-01	 9.865575392429453e-01	-1.113619358391784e+01
1	 1.449194890435836e-01	 9.894434504702300e-01	-1.110649924905064e+01
1	 1.264884019976694e-01	 9.919680862544974e-01	-1.108182869199447e+01
1	 1.081303688402294e-01	 9.941367226520524e-01	-1.106213964627177e+01
1	 8.985443791194073e-02	 9.959549086084808e-01	-1.104735114870016e+01
1	 7.166933308134309e-02	 9.974284469032259e-01	-1.103734597515652e+01
1	 5.358344789747966e-02	 9.985633751090948e-01	-1.103197313623962e+01
1	 3.560484089073371e-02	 9.993659466402712e-01	-1.103105041384955e+01
1	 1.774123198744578e-02	 9.998426119581703e-01	-1.103436692058168e+01
1	 0.000000000000000e+00	 1.000000000000000e+00	-1.104168566481434e+01
1	 1.842375905849211e-01	 9.955966855063876e-01	-1.107884065161664e+01
1	 1.654569424871889e-01	 9.988895084859244e-01	-1.105520349136576e+01
1	 1.467309826500151e-01	 1.001811493603026e+00	-1.103512715235713e+01
1	 1.280695070157072e-01	 1.004367687334138e+00	-1.101862040888147e+01
1	 1.094819984438205e-01	 1.006563431686268e+00	-1.100565544404243e+01
1	 9.097761837928414e-02	 1.008404344966822e+00	-1.099616996293698e+01
1	 7.256519973898776e-02	 1.009896302489984e+00	-1.099006937725084e+01
1	 5.425324099133060e-02	 1.011045417298220e+00	-1.098722904343625e+01
1	 3.604990139831873e-02	 1.011858020973390e+00	-1.098749653732621e+01
1	 1.796299738536468e-02	 1.012340644607676e+00	-1.099069394884365e+01
1	 0.000000000000000e+00	 1.012500000000000e+00	-1.099662018135415e+01
1	 1.865121287359399e-01	 1.007888002614400e+00	-1.100130652632215e+01
1	 1.674996207842255e-01	 1.011221477728904e+00	-1.098857183401363e+01
1	 1.485424762570973e-01	 1.014179536735822e+00	-1.097797449001575e+01
1	 1.296506120344171e-01	 1.016767288413778e+00	-1.096953274293566e+01
1	 1.108336280480745e-01	 1.018990140720485e+00	-1.096323263617449e+01
1	 9.210079884725111e-02	 1.020853781325163e+00	-1.095902988270820e+01
1	 7.346106639718736e-02	 1.022364158076741e+00	-1.095685180316749e+01
1	 5.492303408563919e-02	 1.023527459487344e+00	-1.095659931125660e+01
1	 3.649496190623605e-02	 1.024350095306508e+00	-1.095814893117668e+01
1	 1.818476278346310e-02	 1.024838677257182e+00	-1.096135483243840e+01
1	 0.000000000000000e+00	 1.025000000000000e+00	-1.096605086826013e+01
1	 1.887866668874734e-01	 1.020179319722413e+00	-1.093778505965418e+01
1	 1.695422990818606e-01	 1.023553446971883e+00	-1.093577963227365e+01
1	 1.503539698648305e-01	 1.026547579868618e+00	-1.093452730656719e+01
1	 1.312317170537990e-01	 1.029166889493419e+00	-1.093405531040427e+01
1	 1.121852576529911e-01	 1.031416849754700e+00	-1.093436297949992e+01
1	 9.322397931584156e-02	 1.033303217683504e+00	-1.093542339817857e+01
1	 7.435693305594188e-02	 1.034832013663499e+00	-1.093718509542333e+01
1	 5.559282718040544e-02	 1.036009501676469e+00	-1.093957378209382e+01
1	 3.694002241448566e-02	 1.036842169639627e+00	-1.094249411575622e+01
1	 1.840652818174105e-02	 1.037336709906688e+00	-1.094583148021807e+01
1	 0.000000000000000e+00	 1.037500000000000e+00	-1.094945376757768e+01
1	 1.910612050395216e-01	 1.032470636830427e+00	-1.088777579951584e+01
1	 1.715849773800944e-01	 1.035885416214862e+00	-1.089633261987193e+01
1	 1.521654634732146e-01	 1.038915623001414e+00	-1.090429612062165e+01
1	 1.328128220738531e-01	 1.041566490573059e+00	-1.091170203152317e+01
1	 1.135368872585706e-01	 1.043843558788917e+00	-1.091856243290647e+01
1	 9.434715978505553e-02	 1.045752654041845e+00	-1.092486716664734e+01
1	 7.525279971525133e-02	 1.047299869250256e+00	-1.093058529451048e+01
1	 5.626262027562935e-02	 1.048491543865594e+00	-1.093566659155955e+01
1	 3.738508292306758e-02	 1.049334243972746e+00	-1.094004306283107e+01
1	 1.862829358019852e-02	 1.049834742556193e+00	-1.094363047204121e+01
1	 0.000000000000000e+00	 1.050000000000000e+00	-1.094632987173000e+01
1	 1.933357431920845e-01	 1.044761953938439e+00	-1.085080184449734e+01
1	 1.736276556789268e-01	 1.048217385457841e+00	-1.086975979012450e+01
1	 1.539769570822495e-01	 1.051283666134210e+00	-1.088681448520796e+01
1	 1.343939270945792e-01	 1.053966091652700e+00	-1.090200970086986e+01
1	 1.148885168648128e-01	 1.056270267823132e+00	-1.091536973368684e+01
1	 9.547034025489304e-02	 1.058202090400186e+00	-1.092690059095239e+01
1	 7.614866637511571e-02	 1.059767724837014e+00	-1.093659121548546e+01
1	 5.693241337131089e-02	 1.060973586054718e+00	-1.094441473947173e+01
1	 3.783014343198180e-02	 1.061826318305864e+00	-1.095032975726024e+01
1	 1.885005897883552e-02	 1.062332775205699e+00	-1.095428160753670e+01
1	 0.000000000000000e+00	 1.062500000000000e+00	-1.095620365584879e+01
1	 1.956102813451620e-01	 1.057053271046452e+00	-1.082640847465053e+01
1	 1.756703339783578e-01	 1.060549354700821e+00	-1.085561204363515e+01
1	 1.557884506919354e-01	 1.063651709267005e+00	-1.088163764856306e+01
1	 1.359750321159775e-01	 1.066365692732341e+00	-1.090453665746022e+01
1	 1.162401464717178e-01	 1.068696976857348e+00	-1.092434507321323e+01
1	 9.659352072535407e-02	 1.070651526758527e+00	-1.094108449705535e+01
1	 7.704453303553507e-02	 1.072235580423771e+00	-1.095476312386708e+01
1	 5.760220646745011e-02	 1.073455628243843e+00	-1.096537676053979e+01
1	 3.827520394122830e-02	 1.074318392638983e+00	-1.097290985902469e+01
1	 1.907182437765204e-02	 1.074830807855205e+00	-1.097733655611749e+01
1	 0.000000000000000e+00	 1.075000000000000e+00	-1.097862171250054e+01
1	 1.978848194987542e-01	 1.069344588154466e+00	-1.081416187669189e+01
1	 1.777130122783873e-01	 1.072881323943800e+00	-1.085346092925611e+01
1	 1.575999443022721e-01	 1.076019752399801e+00	-1.088834130728095e+01
1	 1.375561371380478e-01	 1.078765293811981e+00	-1.091886154656230e+01
1	 1.175917760792856e-01	 1.081123685891564e+00	-1.094506886394398e+01
1	 9.771670119643860e-02	 1.083100963116868e+00	-1.096699990282721e+01
1	 7.794039969650934e-02	 1.084703436010529e+00	-1.098468150285096e+01
1	 5.827199956404695e-02	 1.085937670432968e+00	-1.099813148672747e+01
1	 3.872026445080710e-02	 1.086810466972101e+00	-1.100735945753117e+01
1	 1.929358977664810e-02	 1.087328840504710e+00	-1.101236760009630e+01
1	 0.000000000000000e+00	 1.087500000000000e+00	-1.101315148056969e+01
1	 2.001593576528611e-01	 1.081635905262479e+00	-1.081364795612385e+01
1	 1.797556905790155e-01	 1.085213293186779e+00	-1.086289747089205e+01
1	 1.594114379132596e-01	 1.088387795532598e+00	-1.090652044447426e+01
1	 1.391372421607902e-01	 1.091164894891622e+00	-1.094458216593194e+01
1	 1.189434056875161e-01	 1.093550394925780e+00	-1.097714059049829e+01
1	 9.883988166814665e-02	 1.095550399475209e+00	-1.100424687078112e+01
1	 7.883626635803856e-02	 1.097171291597286e+00	-1.102594590457819e+01
1	 5.894179266110147e-02	 1.098419712622093e+00	-1.104227689399975e+01
1	 3.916532496071819e-02	 1.099302541305220e+00	-1.105327391084912e+01
1	 1.951535517582367e-02	 1.099826873154216e+00	-1.105896646349820e+01
1	 0.000000000000000e+00	 1.100000000000000e+00	-1.105938006080874e+01
1	 2.024338958074826e-01	 1.093927222370491e+00	-1.082447122943783e+01
1	 1.817983688802422e-01	 1.097545262429758e+00	-1.088353107339592e+01
1	 1.612229315248981e-01	 1.100755838665393e+00	-1.093578824626186e+01
1	 1.407183471842047e-01	 1.103564495971262e+00	-1.098131438983044e+01
1	 1.202950352964094e-01	 1.105977103959997e+00	-1.102017773818661e+01
1	 9.996306214047822e-02	 1.107999835833549e+00	-1.105244343814849e+01
1	 7.973213302012272e-02	 1.109639147184044e+00	-1.107817387884606e+01
1	 5.961158575861362e-02	 1.110901754811217e+00	-1.109742902681714e+01
1	 3.961038547096159e-02	 1.111794615638339e+00	-1.111026676320162e+01
1	 1.973712057517876e-02	 1.112324905803722e+00	-1.111674321982971e+01
1	 0.000000000000000e+00	 1.112500000000000e+00	-1.111691311123903e+01
1	 2.047084339626188e-01	 1.106218539478505e+00	-1.084625379017056e+01
1	 1.838410471820675e-01	 1.109877231672737e+00	-1.091498850140527e+01
1	 1.630344251371875e-01	 1.113123881798189e+00	-1.097577509049081e+01
1	 1.422994522082913e-01	 1.115964097050903e+00	-1.102869116477412e+01
1	 1.216466649059655e-01	 1.118403812994212e+00	-1.107381479297218e+01
1	 1.010862426134333e-01	 1.120449272191891e+00	-1.111122461828371e+01
1	 8.062799968276181e-02	 1.122107002770802e+00	-1.114099997323833e+01
1	 6.028137885658343e-02	 1.123383797000342e+00	-1.116322099433037e+01
1	 4.005544598153728e-02	 1.124286689971457e+00	-1.117796873462358e+01
1	 1.995888597471339e-02	 1.124822938453228e+00	-1.118532527266310e+01
1	 0.000000000000000e+00	 1.125000000000000e+00	-1.118537381619134e+01
1	 1.125000000000000e+00	 0.000000000000000e+00	 5.385735542295378e+00
1	 1.124822938453228e+00	 1.995888597471274e-02	 5.396782249726480e+00
1	 1.124286689971457e+00	 4.005544598153672e-02	 5.388379267801560e+00
1	 1.123383797000342e+00	 6.028137885658293e-02	 5.360304285827937e+00
1	 1.122107002770802e+00	 8.062799968276138e-02	 5.312367310017723e+00
1	 1.120449272191891e+00	 1.010862426134330e-01	 5.244412358666571e+00
1	 1.118403812994212e+00	 1.216466649059652e-01	 5.156319091476203e+00
1	 1.115964097050903e+00	 1.422994522082910e-01	 5.048004360630033e+00
1	 1.113123881798189e+00	 1.630344251371873e-01	 4.919423671054860e+00
1	 1.109877231672737e+00	 1.838410471820675e-01	 4.770572537225999e+00
1	 1.106218539478505e+00	 2.047084339626188e-01	 4.601487723905630e+00
1	 1.137500000000000e+00	 0.000000000000000e+00	 5.063685466657232e+00
1	 1.137320971102731e+00	 2.018065137442460e-02	 5.076855679364104e+00
1	 1.136778764304567e+00	 4.050050649243549e-02	 5.071123160450592e+00
1	 1.135865839189446e+00	 6.095117195498952e-02	 5.046262398565954e+00
1	 1.134574858357522e+00	 8.152386634591800e-02	 5.002079094341839e+00
1	 1.132898708550173e+00	 1.022094230869528e-01	 4.938411836917389e+00
1	 1.130830522028343e+00	 1.229982945160989e-01	 4.855133718686378e+00
1	 1.128363698130427e+00	 1.438805572329329e-01	 4.752153876158506e+00
1	 1.125491924930832e+00	 1.648459187499742e-01	 4.629418944635082e+00
1	 1.122209200915521e+00	 1.858837254842960e-01	 4.486914414304463e+00
1	 1.118509856586275e+00	 2.069829721180270e-01	 4.324665875372544e+00
1	 1.150000000000000e+00	 0.000000000000000e+00	 4.763168791695779e+00
1	 1.149819003752230e+00	 2.040241677431140e-02	 4.778292972458420e+00
1	 1.149270838637657e+00	 4.094556700364810e-02	 4.775056048606831e+00
1	 1.148347881378508e+00	 6.162096505381197e-02	 4.753229460395525e+00
1	 1.147042713944167e+00	 8.241973300955485e-02	 4.712614771636686e+00
1	 1.145348144908337e+00	 1.033326035609785e-01	 4.653045327725818e+00
1	 1.143257231062303e+00	 1.243499241267248e-01	 4.574387855903852e+00
1	 1.140763299209717e+00	 1.454616622580135e-01	 4.476543995926576e+00
1	 1.137859968063168e+00	 1.666574123631049e-01	 4.359451749105062e+00
1	 1.134541170157914e+00	 1.879264037867323e-01	 4.223086833566878e+00
1	 1.130801173693560e+00	 2.092575102734646e-01	 4.067463933575634e+00
1	 1.162500000000000e+00	 0.000000000000000e+00	 4.483490891592958e+00
1	 1.162317036401724e+00	 2.062418217437315e-02	 4.500404972131985e+00
1	 1.161762912970730e+00	 4.139062751517460e-02	 4.499494416292510e+00
1	 1.160829923567528e+00	 6.229075815305031e-02	 4.480527763285948e+00
1	 1.159510569530738e+00	 8.331559967367190e-02	 4.443302603422112e+00
1	 1.157797581266385e+00	 1.044557840355102e-01	 4.387647217784712e+00
1	 1.155683940096093e+00	 1.257015537378430e-01	 4.313422164095813e+00
1	 1.153162900288774e+00	 1.470427672835326e-01	 4.220521797215210e+00
1	 1.150228011195196e+00	 1.684689059765797e-01	 4.108875712497846e+00
1	 1.146873139399917e+00	 1.899690820893765e-01	 3.978450100100336e+00
1	 1.143092490800359e+00	 2.115320484289315e-01	 3.829248998293095e+00
1	 1.175000000000000e+00	 0.000000000000000e+00	 4.223986699075042e+00
1	 1.174815069051214e+00	 2.084594757460985e-02	 4.242531847331019e+00
1	 1.174254987303784e+00	 4.183568802701497e-02	 4.243783833315474e+00
1	 1.173311965756507e+00	 6.296055125270457e-02	 4.227508437845647e+00
1	 1.171978425117234e+00	 8.421146633826908e-02	 4.193499435833883e+00
1	 1.170247017624314e+00	 1.055789645105478e-01	 4.141580217757387e+00
1	 1.168110649129713e+00	 1.270531833494537e-01	 4.071605361209734e+00
1	 1.165562501367597e+00	 1.486238723094903e-01	 3.983462141251194e+00
1	 1.162596054326918e+00	 1.702803995903985e-01	 3.877071968037066e+00
1	 1.159205108641529e+00	 1.920117603922284e-01	 3.752391740052752e+00
1	 1.155383807906674e+00	 2.138065865844276e-01	 3.609415101228336e+00
1	 1.187500000000000e+00	 0.000000000000000e+00	 3.984019149699824e+00
1	 1.187313101700699e+00	 2.106771297502151e-02	 4.004041549361053e+00
1	 1.186747061636820e+00	 4.228074853916918e-02	 4.007297424438375e+00
1	 1.185794007945443e+00	 6.363034435277468e-02	 3.993549935499101e+00
1	 1.184446280703655e+00	 8.510733300334646e-02	 3.962589195170233e+00
1	 1.182696453982126e+00	 1.067021449860912e-01	 3.914233871542331e+00
1	 1.180537358163162e+00	 1.284048129615565e-01	 3.848332745490141e+00
1	 1.177962102446187e+00	 1.502049773358866e-01	 3.764766210894188e+00
1	 1.174964097458333e+00	 1.720918932045612e-01	 3.663447706495327e+00
1	 1.171537077882749e+00	 1.940544386952882e-01	 3.544325067945435e+00
1	 1.167675125012503e+00	 2.160811247399532e-01	 3.407381788540190e+00
1	 1.200000000000000e+00	 0.000000000000000e+00	 3.762977723375868e+00
1	 1.199811134350180e+00	 2.128947837560811e-02	 3.784328364889100e+00
1	 1.199239135969837e+00	 4.272580905163728e-02	 3.789434434224822e+00
1	 1.198276050134338e+00	 6.430013745326070e-02	 3.778056605527691e+00
1	 1.196914136290001e+00	 8.600319966890399e-02	 3.749981477466726e+00
1	 1.195145890339820e+00	 1.078253254621407e-01	 3.705023158708892e+00
1	 1.192964067196440e+00	 1.297564425741518e-01	 3.643024811088190e+00
1	 1.190361703524544e+00	 1.517860823627215e-01	 3.563860139718328e+00
1	 1.187332140589441e+00	 1.739033868190680e-01	 3.467434819030180e+00
1	 1.183869047123579e+00	 1.960971169985557e-01	 3.353687843528601e+00
1	 1.179966442117847e+00	 2.183556628955082e-01	 3.222592791964987e+00
1	 1.212500000000000e+00	 0.000000000000000e+00	 3.560277076097057e+00
1	 1.212309166999656e+00	 2.151124377636965e-02	 3.582811558450817e+00
1	 1.211731210302836e+00	 4.317086956441923e-02	 3.589618880657917e+00
1	 1.210758092323192e+00	 6.496993055416259e-02	 3.580457360128630e+00
1	 1.209381991876273e+00	 8.689906633494171e-02	 3.555110225313952e+00
1	 1.207595326697396e+00	 1.089485059386960e-01	 3.513387183380200e+00
1	 1.205390776229548e+00	 1.311080721872393e-01	 3.455125949303549e+00
1	 1.202761304602666e+00	 1.533671873899949e-01	 3.380193725892917e+00
1	 1.199700183720242e+00	 1.757148804339188e-01	 3.288488623968368e+00
1	 1.196201016364018e+00	 1.981397953020310e-01	 3.179941011717975e+00
1	 1.192257759222705e+00	 2.206302010510924e-01	 3.054514782137247e+00
1	 1.225000000000000e+00	 0.000000000000000e+00	 3.375355755448484e+00
1	 1.224807199649127e+00	 2.173300917730615e-02	 3.398934098069518e+00
1	 1.224223284635816e+00	 4.361593007751505e-02	 3.407298291190310e+00
1	 1.223240134512003e+00	 6.563972365548039e-02	 3.400204421205013e+00
1	 1.221849847462470e+00	 8.779493300145964e-02	 3.377432485686357e+00
1	 1.220044763054855e+00	 1.100716864157573e-01	 3.338787943388604e+00
1	 1.217817485262486e+00	 1.324597018008191e-01	 3.284103229342135e+00
1	 1.215160905680556e+00	 1.549482924177070e-01	 3.213239224805103e+00
1	 1.212068226850737e+00	 1.775263740491136e-01	 3.126086671542080e+00
1	 1.208532985604066e+00	 2.001824736057143e-01	 3.022567519678172e+00
1	 1.204549076327078e+00	 2.229047392067060e-01	 2.902636198237716e+00
1	 1.237500000000000e+00	 0.000000000000000e+00	 3.207674993960485e+00
1	 1.237305232298594e+00	 2.195477457841760e-02	 3.232161458110336e+00
1	 1.236715358968778e+00	 4.406099059092473e-02	 3.241942515397273e+00
1	 1.235722176700773e+00	 6.630951675721405e-02	 3.236772143107942e+00
1	 1.234317703048592e+00	 8.869079966845773e-02	 3.216427243054178e+00
1	 1.232494199412197e+00	 1.111948668933245e-01	 3.180709174027737e+00
1	 1.230244194295253e+00	 1.338113314148913e-01	 3.129445252967311e+00
1	 1.227560506758211e+00	 1.565293974458576e-01	 3.062490214856928e+00
1	 1.224436269980924e+00	 1.793378676646523e-01	 2.979727621065394e+00
1	 1.220864954843724e+00	 2.022251519096052e-01	 2.881071205597989e+00
1	 1.216840393430966e+00	 2.251792773623488e-01	 2.766466148571784e+00
1	 1.250000000000000e+00	 0.000000000000000e+00	 3.056717574861408e+00
1	 1.249803264948056e+00	 2.217653997970400e-02	 3.081980493963192e+00
1	 1.249207433301722e+00	 4.450605110464827e-02	 3.093042608870601e+00
1	 1.248204218889501e+00	 6.697930985936361e-02	 3.089655906014163e+00
1	 1.246785558634639e+00	 8.958666633593600e-02	 3.071594322508660e+00
1	 1.244943635769421e+00	 1.123180473713976e-01	 3.038655261179442e+00
1	 1.242670903327850e+00	 1.351629610294558e-01	 2.990661077872000e+00
1	 1.239960107835634e+00	 1.581105024744469e-01	 2.927460531314590e+00
1	 1.236804313110804e+00	 1.811493612805350e-01	 2.848930185480219e+00
1	 1.233196924082991e+00	 2.042678302137040e-01	 2.754975754139137e+00
1	 1.229131710534368e+00	 2.274538155180211e-01	 2.645533377113239e+00
1	 1.106218539478505e+00	 2.047084339626188e-01	 4.601487723905630e+00
1	 1.102142547591368e+00	 2.256253638614272e-01	 4.447914598652970e+00
1	 1.097644368907272e+00	 2.465802900510737e-01	 4.274417018703161e+00
1	 1.092719507434896e+00	 2.675613539221362e-01	 4.081515124472805e+00
1	 1.087363878431055e+00	 2.885563999111739e-01	 3.869785471695983e+00
1	 1.081573827976446e+00	 3.095529917259612e-01	 3.639860450785720e+00
1	 1.075346151886618e+00	 3.305384299522137e-01	 3.392427423003244e+00
1	 1.068678113852559e+00	 3.514997710187806e-01	 3.128227567489270e+00
1	 1.061567462705179e+00	 3.724238474895377e-01	 2.848054435195186e+00
1	 1.054012448698681e+00	 3.932972896413123e-01	 2.552752207874809e+00
1	 1.046011838709305e+00	 4.141065482781622e-01	 2.243213662539883e+00
1	 1.118509856586275e+00	 2.069829721180270e-01	 4.324665875372544e+00
1	 1.114388575900822e+00	 2.281323123490921e-01	 4.182001739761543e+00
1	 1.109840417453845e+00	 2.493200710519664e-01	 4.019903272650891e+00
1	 1.104860835298564e+00	 2.705342578549000e-01	 3.838846365286967e+00
1	 1.099445699305754e+00	 2.917625821326358e-01	 3.639361289522113e+00
1	 1.093591314957006e+00	 3.129924694119225e-01	 3.422032233850343e+00
1	 1.087294442465818e+00	 3.342110791738725e-01	 3.187496569820615e+00
1	 1.080552315119742e+00	 3.554053240298770e-01	 2.936443842625794e+00
1	 1.073362656736697e+00	 3.765618902389651e-01	 2.669614481532299e+00
1	 1.065723698129263e+00	 3.976672595254847e-01	 2.387798227817960e+00
1	 1.057634192472302e+00	 4.187077321468711e-01	 2.091832280007508e+00
1	 1.130801173693560e+00	 2.092575102734646e-01	 4.067463933575634e+00
1	 1.126634604209704e+00	 2.306392608366003e-01	 3.935180455990246e+00
1	 1.122036465999790e+00	 2.520598520525441e-01	 3.783947616178029e+00
1	 1.117002163161574e+00	 2.735071617872195e-01	 3.614197872539399e+00
1	 1.111527520179795e+00	 2.949687643535529e-01	 3.426416060935670e+00
1	 1.105608801936938e+00	 3.164319470972682e-01	 3.221139045586062e+00
1	 1.099242733044450e+00	 3.378837283948746e-01	 2.998955113708271e+00
1	 1.092426516386447e+00	 3.593108770403062e-01	 2.760503107448525e+00
1	 1.085157850767857e+00	 3.806999329877463e-01	 2.506471288397823e+00
1	 1.077434947559639e+00	 4.020372294090629e-01	 2.237595931875701e+00
1	 1.069256546235278e+00	 4.233089160150696e-01	 1.954659650165776e+00
1	 1.143092490800359e+00	 2.115320484289315e-01	 3.829248998293095e+00
1	 1.138880632518016e+00	 2.331462093239517e-01	 3.706834890073511e+00
1	 1.134232514545106e+00	 2.547996330528071e-01	 3.565951401230592e+00
1	 1.129143491023926e+00	 2.764800657190944e-01	 3.406988347309969e+00
1	 1.123609341053178e+00	 2.981749465739247e-01	 3.230385948721379e+00
1	 1.117626288916241e+00	 3.198714247819978e-01	 3.036634594742304e+00
1	 1.111191023622513e+00	 3.415563776152200e-01	 2.826274364434405e+00
1	 1.104300717652674e+00	 3.632164300500684e-01	 2.599894297769402e+00
1	 1.096953044798661e+00	 3.848379757358811e-01	 2.358131411897904e+00
1	 1.089146196989810e+00	 4.064071992920468e-01	 2.101669459262856e+00
1	 1.080878899998233e+00	 4.279100998827580e-01	 1.831237426144614e+00
1	 1.155383807906674e+00	 2.138065865844276e-01	 3.609415101228336e+00
1	 1.151126660825756e+00	 2.356531578111465e-01	 3.496375391438654e+00
1	 1.146428563089792e+00	 2.575394140527553e-01	 3.365341454140458e+00
1	 1.141284818885619e+00	 2.794529696505251e-01	 3.216661226803284e+00
1	 1.135691161925902e+00	 3.013811287937518e-01	 3.050731108737309e+00
1	 1.129643775894916e+00	 3.233109024661115e-01	 2.867995836504975e+00
1	 1.123139314200007e+00	 3.452290268349085e-01	 2.668948129224074e+00
1	 1.116174918918422e+00	 3.671219830591637e-01	 2.454128096812709e+00
1	 1.108748238829107e+00	 3.889760184833697e-01	 2.224122405751224e+00
1	 1.100857446419777e+00	 4.107771691744366e-01	 1.979563198589269e+00
1	 1.092501253761168e+00	 4.325112837499361e-01	 1.721126765196047e+00
1	 1.167675125012503e+00	 2.160811247399532e-01	 3.407381788540190e+00
1	 1.163372689132924e+00	 2.381601062981845e-01	 3.303237136906220e+00
1	 1.158624611633849e+00	 2.602791950523886e-01	 3.181568734868205e+00
1	 1.153426146746654e+00	 2.824258735815113e-01	 3.042683382447382e+00
1	 1.147772982797968e+00	 3.045873110130340e-01	 2.886934427121547e+00
1	 1.141661262872963e+00	 3.267503801496095e-01	 2.714721748999774e+00
1	 1.135087604776933e+00	 3.489016760539403e-01	 2.526491528682490e+00
1	 1.128049120183692e+00	 3.710275360675916e-01	 2.322735790614449e+00
1	 1.120543432859196e+00	 3.931140612302118e-01	 2.103991716151512e+00
1	 1.112568695849540e+00	 4.151471390562321e-01	 1.870840722102312e+00
1	 1.104123607524082e+00	 4.371124676166038e-01	 1.623907302161427e+00
1	 1.179966442117847e+00	 2.183556628955082e-01	 3.222592791964987e+00
1	 1.175618717439522e+00	 2.406670547850658e-01	 3.126878837596549e+00
1	 1.170820660177278e+00	 2.630189760517072e-01	 3.014107080043249e+00
1	 1.165567474607031e+00	 2.853987775120529e-01	 2.884543899361192e+00
1	 1.159854803669377e+00	 3.077934932317711e-01	 2.738500336423407e+00
1	 1.153678749850381e+00	 3.301898578324914e-01	 2.576332186264051e+00
1	 1.147035895353290e+00	 3.525743252723154e-01	 2.398439886723159e+00
1	 1.139923321448485e+00	 3.749330890753527e-01	 2.205268194959236e+00
1	 1.132338626888928e+00	 3.972521039764076e-01	 1.997305645701151e+00
1	 1.124279945279097e+00	 4.195171089374333e-01	 1.775083786539037e+00
1	 1.115745961286976e+00	 4.417136514827613e-01	 1.539176187096994e+00
1	 1.192257759222705e+00	 2.206302010510924e-01	 3.054514782137247e+00
1	 1.187864745745548e+00	 2.431740032717905e-01	 2.966781525821501e+00
1	 1.183016708720077e+00	 2.657587570507109e-01	 2.862452023754100e+00
1	 1.177708802466750e+00	 2.883716814421504e-01	 2.741752931318963e+00
1	 1.171936624540126e+00	 3.109996754499633e-01	 2.604953704963679e+00
1	 1.165696236827171e+00	 3.336293355147576e-01	 2.452366802168916e+00
1	 1.158984185929078e+00	 3.562469744900338e-01	 2.284347689160207e+00
1	 1.151797522712798e+00	 3.788386420824467e-01	 2.101294648692186e+00
1	 1.144133820918304e+00	 4.013901467219569e-01	 1.903648381431289e+00
1	 1.135991194708451e+00	 4.238870788180404e-01	 1.691891395781315e+00
1	 1.127368315049849e+00	 4.463148353484084e-01	 1.466547182427744e+00
1	 1.204549076327078e+00	 2.229047392067060e-01	 2.902636198237716e+00
1	 1.200110774051002e+00	 2.456809517583584e-01	 2.822447416248128e+00
1	 1.195212757262247e+00	 2.684985380493998e-01	 2.726119690535076e+00
1	 1.189850130325810e+00	 2.913445853718033e-01	 2.613840625818790e+00
1	 1.184018445410218e+00	 3.142058576676106e-01	 2.485838794193205e+00
1	 1.177713723803332e+00	 3.370688131964078e-01	 2.342384040223585e+00
1	 1.170932476504299e+00	 3.599196237070955e-01	 2.183787606060393e+00
1	 1.163671723976633e+00	 3.827441950888736e-01	 2.010402068664829e+00
1	 1.155929014947322e+00	 4.055281894668601e-01	 1.822621082331049e+00
1	 1.147702444137599e+00	 4.282570486980532e-01	 1.620878920899542e+00
1	 1.138990668812702e+00	 4.509160192135453e-01	 1.405649815377609e+00
1	 1.216840393430966e+00	 2.251792773623488e-01	 2.766466148571784e+00
1	 1.212356802355885e+00	 2.481879002447696e-01	 2.693398836082717e+00
1	 1.207408805803788e+00	 2.712383190477738e-01	 2.604645755444816e+00
1	 1.201991458184212e+00	 2.943174893010117e-01	 2.500356114298603e+00
1	 1.196100266279652e+00	 3.174120398847128e-01	 2.380718279241842e+00
1	 1.189731210778864e+00	 3.405082908774421e-01	 2.245960184603784e+00
1	 1.182880767078950e+00	 3.635922729235002e-01	 2.096349573346489e+00
1	 1.175545925239990e+00	 3.866497480946335e-01	 1.932194061956963e+00
1	 1.167724208975982e+00	 4.096662322111168e-01	 1.753841022177882e+00
1	 1.159413693566543e+00	 4.326270185774718e-01	 1.561677273526871e+00
1	 1.150613022575534e+00	 4.555172030781720e-01	 1.356128581767512e+00
1	 1.229131710534368e+00	 2.274538155180211e-01	 2.645533377113239e+00
1	 1.224602830660197e+00	 2.506948487310240e-01	 2.579177219443817e+00
1	 1.219604854344699e+00	 2.739781000458331e-01	 2.497584466540028e+00
1	 1.214132786041956e+00	 2.972903932297759e-01	 2.400866562939139e+00
1	 1.208182087148427e+00	 3.206182221012702e-01	 2.289172328234523e+00
1	 1.201748697753769e+00	 3.439477685578606e-01	 2.162688468118384e+00
1	 1.194829057653032e+00	 3.672649221392482e-01	 2.021639929504490e+00
1	 1.187420126502869e+00	 3.905553010997262e-01	 1.866290091365318e+00
1	 1.179519403004286e+00	 4.138042749547273e-01	 1.696940783798192e+00
1	 1.171124942995283e+00	 4.369969884562962e-01	 1.513932128831169e+00
1	 1.162235376338345e+00	 4.601183869422883e-01	 1.317642197585492e+00
1	 1.046011838709305e+00	 4.141065482781622e-01	 2.243213662539883e+00
1	 1.037564930248593e+00	 4.348379187240830e-01	 1.944184547759464e+00
1	 1.028671564192235e+00	 4.554775659241303e-01	 1.631664647134700e+00
1	 1.019332136131226e+00	 4.760115505788748e-01	 1.306936052725745e+00
1	 1.009547606256940e+00	 4.964258562287497e-01	 9.713290377295891e-01
1	 9.993195076959104e-01	 5.167064171925492e-01	 6.262177553042718e-01
1	 9.886499532180107e-01	 5.368391472596017e-01	 2.730156198326269e-01
1	 9.775416402487633e-01	 5.568099690270316e-01	-8.682960773785176e-02
1	 9.659978541247000e-01	 5.766048437667730e-01	-4.518410057992620e-01
1	 9.540224695395332e-01	 5.962098017009265e-01	-8.205179216610803e-01
1	 9.416199501384250e-01	 6.156109725587411e-01	-1.191341614531403e+00
1	 1.057634192472302e+00	 4.187077321468711e-01	 2.091832280007508e+00
1	 1.049093429472079e+00	 4.396694511529656e-01	 1.808950841965688e+00
1	 1.040101248236386e+00	 4.605384277660148e-01	 1.512693762828481e+00
1	 1.030658048751678e+00	 4.813005678054846e-01	 1.204264634093165e+00
1	 1.020764801878120e+00	 5.019416990733694e-01	 8.849140338876029e-01
1	 1.010423057776990e+00	 5.224475996031163e-01	 5.559355182058165e-01
1	 9.996349526933814e-01	 5.428040266706026e-01	 2.186613062932872e-01
1	 9.884032140242147e-01	 5.629967464573652e-01	-1.255423198453555e-01
1	 9.767311636097610e-01	 5.830115642494709e-01	-4.752798789337349e-01
1	 9.646227191958864e-01	 6.028343550492662e-01	-8.291317912518170e-01
1	 9.520823940238123e-01	 6.224510944718811e-01	-1.185659688553096e+00
1	 1.069256546235278e+00	 4.233089160150696e-01	 1.954659650165776e+00
1	 1.060621928695730e+00	 4.445009835814379e-01	 1.687175798615123e+00
1	 1.051530932280860e+00	 4.655992896075891e-01	 1.406431793205198e+00
1	 1.041983961372580e+00	 4.865895850318852e-01	 1.113554099197323e+00
1	 1.031981997499850e+00	 5.074575419178803e-01	 8.097149937810135e-01
1	 1.021526607858687e+00	 5.281887820136757e-01	 4.961288452826201e-01
1	 1.010619952169409e+00	 5.487689060816964e-01	 1.740480980522081e-01
1	 9.992647878003310e-01	 5.691835238878922e-01	-1.552410186396712e-01
1	 9.874644730954648e-01	 5.894182847324629e-01	-4.904230365843517e-01
1	 9.752229688528294e-01	 6.094589083980005e-01	-8.301580257301239e-01
1	 9.625448379097046e-01	 6.292912163855157e-01	-1.173086576129527e+00
1	 1.080878899998233e+00	 4.279100998827580e-01	 1.831237426144614e+00
1	 1.072150427919546e+00	 4.493325160095001e-01	 1.578425267298291e+00
1	 1.062960616325657e+00	 4.706601514488539e-01	 1.312468773268038e+00
1	 1.053309873993932e+00	 4.918786022580766e-01	 1.034418613073149e+00
1	 1.043199193122128e+00	 5.129733847622828e-01	 7.453701121234789e-01
1	 1.032630157941003e+00	 5.339299644242272e-01	 4.464598151064884e-01
1	 1.021604951646094e+00	 5.547337854928831e-01	 1.388617659044767e-01
1	 1.010126361577113e+00	 5.753703013186130e-01	-1.762164787442013e-01
1	 9.981977825818115e-01	 5.958250052157493e-01	-4.975380824752443e-01
1	 9.858232185103620e-01	 6.160834617471294e-01	-8.238413875163132e-01
1	 9.730072817961023e-01	 6.361313382996451e-01	-1.153844573593508e+00
1	 1.092501253761168e+00	 4.325112837499361e-01	 1.721126765196047e+00
1	 1.083678927143527e+00	 4.541640484371521e-01	 1.482283572091128e+00
1	 1.074390300370775e+00	 4.757210132898089e-01	 1.230412183339164e+00
1	 1.064635786615735e+00	 4.971676194840585e-01	 9.664887592645903e-01
1	 1.054416388744956e+00	 5.184892276065766e-01	 6.915329795981363e-01
1	 1.043733708023937e+00	 5.396711468347709e-01	 4.066048858842982e-01
1	 1.032589951123436e+00	 5.606986649041628e-01	 1.128014521004373e-01
1	 1.020987935354560e+00	 5.815570787495272e-01	-1.887471013942101e-01
1	 1.008931092068801e+00	 6.022317256993295e-01	-4.968812329382429e-01
1	 9.964234681684848e-01	 6.227080150966529e-01	-8.104162236087710e-01
1	 9.834697256830054e-01	 6.429714602142690e-01	-1.128146517859615e+00
1	 1.104123607524082e+00	 4.371124676166038e-01	 1.623907302161427e+00
1	 1.095207426367674e+00	 4.589955808643940e-01	 1.398352539213656e+00
1	 1.085819984416216e+00	 4.807818751304540e-01	 1.159886030884906e+00
1	 1.075961699237989e+00	 5.024566367098313e-01	 9.094106756926050e-01
1	 1.065633584368334e+00	 5.240050704507618e-01	 6.478717725434927e-01
1	 1.054837258107488e+00	 5.454123292453066e-01	 3.762541386351087e-01
1	 1.043574950601434e+00	 5.666635443155353e-01	 9.557896658504483e-02
1	 1.031849509132672e+00	 5.877438561806352e-01	-1.930995656679569e-01
1	 1.019664401556434e+00	 6.086384461832040e-01	-4.886979162493109e-01
1	 1.007023717827197e+00	 6.293325684465709e-01	-7.901070137641169e-01
1	 9.939321695704136e-01	 6.498115821293877e-01	-1.096196284288359e+00
1	 1.115745961286976e+00	 4.417136514827613e-01	 1.539176187096994e+00
1	 1.106735925591986e+00	 4.638271132912256e-01	 1.326250585460002e+00
1	 1.097249668461980e+00	 4.858427369707892e-01	 1.100529989727121e+00
1	 1.087287611860693e+00	 5.077456539353947e-01	 8.628452445312880e-01
1	 1.076850779992260e+00	 5.295209132948384e-01	 6.140684932837486e-01
1	 1.065940808191658e+00	 5.511535116558346e-01	 3.551105676687049e-01
1	 1.054559950080090e+00	 5.726284237270007e-01	 8.691812722204806e-02
1	 1.042711082911450e+00	 5.939306336119368e-01	-1.895294390155592e-01
1	 1.030397711044709e+00	 6.150451666673727e-01	-4.732233345064200e-01
1	 1.017623967486499e+00	 6.359571217968834e-01	-7.631288844159296e-01
1	 1.004394613458327e+00	 6.566517040450012e-01	-1.058189253433808e+00
1	 1.127368315049849e+00	 4.463148353484084e-01	 1.466547182427744e+00
1	 1.118264424816463e+00	 4.686586457176470e-01	 1.265611863014160e+00
1	 1.108679352508066e+00	 4.909035988108147e-01	 1.051998592499037e+00
1	 1.098613524483847e+00	 5.130346711607490e-01	 8.264673321949216e-01
1	 1.088067975616736e+00	 5.350367561388065e-01	 5.898182574492559e-01
1	 1.077044358276446e+00	 5.568946940663547e-01	 3.428894149520701e-01
1	 1.065544949559402e+00	 5.785933031385589e-01	 8.655414082909080e-02
1	 1.053572656690893e+00	 6.001174110434317e-01	-1.782817500234029e-01
1	 1.041131020533627e+00	 6.214518871518355e-01	-4.506829907521402e-01
1	 1.028224217146390e+00	 6.425816751475903e-01	-7.296880908048587e-01
1	 1.014857057346746e+00	 6.634918259611092e-01	-1.014312748920091e+00
1	 1.138990668812702e+00	 4.509160192135453e-01	 1.405649815377609e+00
1	 1.129792924041105e+00	 4.734901781436583e-01	 1.216085456623999e+00
1	 1.120109036554474e+00	 4.959644606505302e-01	 1.013960472542652e+00
1	 1.109939437107452e+00	 5.183236883858939e-01	 7.999650758562871e-01
1	 1.099285171241760e+00	 5.405525989826659e-01	 5.748286249302147e-01
1	 1.088147908361853e+00	 5.626358764768669e-01	 3.393175452289204e-01
1	 1.076529949039371e+00	 5.845581825502102e-01	 9.423302210869666e-02
1	 1.064434230471001e+00	 6.063041884751205e-01	-1.595915261112455e-01
1	 1.051864330023189e+00	 6.278586076365928e-01	-4.212931838234134e-01
1	 1.038824466806871e+00	 6.492062284986921e-01	-6.899824695904657e-01
1	 1.025319501235670e+00	 6.703319478777121e-01	-9.647464485093763e-01
1	 1.150613022575534e+00	 4.555172030781720e-01	 1.356128581767512e+00
1	 1.141321423265912e+00	 4.783217105692595e-01	 1.177334629431316e+00
1	 1.131538720601204e+00	 5.010253224899361e-01	 9.860976517517270e-01
1	 1.121265349731507e+00	 5.236127056108295e-01	 7.830392132063304e-01
1	 1.110502366867334e+00	 5.460684418264167e-01	 5.688189713787576e-01
1	 1.099251458447877e+00	 5.683770588873712e-01	 3.441328590107879e-01
1	 1.087514948519997e+00	 5.905230619619543e-01	 1.097110477954669e-01
1	 1.075295804251774e+00	 6.124909659070027e-01	-1.336842986415950e-01
1	 1.062597639513394e+00	 6.342653281216439e-01	-3.852614732103675e-01
1	 1.049424716467942e+00	 6.558307818501883e-01	-6.442018640321033e-01
1	 1.035781945125100e+00	 6.771720697948095e-01	-9.096627702563868e-01
1	 1.162235376338345e+00	 4.601183869422883e-01	 1.317642197585492e+00
1	 1.152849922490885e+00	 4.831532429944503e-01	 1.149036114052226e+00
1	 1.142968404648257e+00	 5.060861843290319e-01	 9.681048711442173e-01
1	 1.132591262356013e+00	 5.289017228355558e-01	 7.754024524282827e-01
1	 1.121719562493458e+00	 5.515842846700590e-01	 5.715198974208040e-01
1	 1.110355008534519e+00	 5.741182412978676e-01	 3.570837407886422e-01
1	 1.098499948001281e+00	 5.964879413737912e-01	 1.327542435544694e-01
1	 1.086157378033213e+00	 6.186777433390787e-01	-1.007765777226331e-01
1	 1.073330949004241e+00	 6.406720486069893e-01	-3.427871160236581e-01
1	 1.060024966129602e+00	 6.624553352020790e-01	-5.925285236589076e-01
1	 1.046244389015035e+00	 6.840121917124017e-01	-8.492272354938594e-01
1	 9.416199501384250e-01	 6.156109725587411e-01	-1.191341614531403e+00
1	 9.287953462274744e-01	 6.347946162837050e-01	-1.560206121658924e+00
1	 9.155542905770797e-01	 6.537471537568762e-01	-1.931815965911275e+00
1	 9.019029923075504e-01	 6.724551973985354e-01	-2.304584090380404e+00
1	 8.878482288567273e-01	 6.909055815084219e-01	-2.676913668539715e+00
1	 8.733973360420002e-01	 7.090853922058951e-01	-3.047204381787186e+00
1	 8.585581962397351e-01	 7.269819968306050e-01	-3.413858773410158e+00
1	 8.433392247169470e-01	 7.445830726661317e-01	-3.775288637920797e+00
1	 8.277493541614975e-01	 7.618766348516912e-01	-4.129921403967307e+00
1	 8.117980174683143e-01	 7.788510633507310e-01	-4.476206468697935e+00
1	 7.954951288500001e-01	 7.954951288500001e-01	-4.812621441552531e+00
1	 9.520823940238123e-01	 6.224510944718811e-01	-1.185659688553096e+00
1	 9.391152945140595e-01	 6.418478897935279e-01	-1.540216023265203e+00
1	 9.257271160232740e-01	 6.610110110161846e-01	-1.897850622432056e+00
1	 9.119241366619902e-01	 6.799269218092460e-01	-2.257056266642369e+00
1	 8.977132091729143e-01	 6.985823101868938e-01	-2.616315206722827e+00
1	 8.831017508825175e-01	 7.169641187809249e-01	-2.974105113328556e+00
1	 8.680977317491259e-01	 7.350595745680968e-01	-3.328905105117459e+00
1	 8.527096605427205e-01	 7.528562179129182e-01	-3.679201816641081e+00
1	 8.369465692032501e-01	 7.703419307894854e-01	-4.023495466329983e+00
1	 8.208179954355866e-01	 7.875049640497287e-01	-4.360305884591942e+00
1	 8.043339636102501e-01	 8.043339636102501e-01	-4.688178462083899e+00
1	 9.625448379097046e-01	 6.292912163855157e-01	-1.173086576129527e+00
1	 9.494352428010591e-01	 6.489011633039358e-01	-1.514058388427431e+00
1	 9.358999414698121e-01	 6.682748682761483e-01	-1.858434744701639e+00
1	 9.219452810167237e-01	 6.873986462206629e-01	-2.204786857384292e+00
1	 9.075781894893646e-01	 7.062590388661032e-01	-2.551674658420799e+00
1	 8.928061657232872e-01	 7.248428453567026e-01	-2.897652425973929e+00
1	 8.776372672587778e-01	 7.431371523063274e-01	-3.241274491856136e+00
1	 8.620800963687846e-01	 7.611293631604144e-01	-3.581100992974663e+00
1	 8.461437842453429e-01	 7.788072267279392e-01	-3.915703629309311e+00
1	 8.298379734032688e-01	 7.961588647493163e-01	-4.243671390549576e+00
1	 8.131727983709998e-01	 8.131727983709998e-01	-4.563616213507277e+00
1	 9.730072817961023e-01	 6.361313382996451e-01	-1.153844573593508e+00
1	 9.597551910884740e-01	 6.559544368149283e-01	-1.481932169931030e+00
1	 9.460727669166951e-01	 6.755387255367674e-01	-1.813744156403459e+00
1	 9.319664253717509e-01	 6.948703706327861e-01	-2.147928816976579e+00
1	 9.174431698060769e-01	 7.139357675460493e-01	-2.483122413519884e+00
1	 9.025105805643084e-01	 7.327215719332285e-01	-2.817954494526762e+00
1	 8.871768027686909e-01	 7.512147300452967e-01	-3.151053286690475e+00
1	 8.714505321951391e-01	 7.694025084086192e-01	-3.481051134741729e+00
1	 8.553409992877762e-01	 7.872725226670531e-01	-3.806589954177396e+00
1	 8.388579513713611e-01	 8.048127654494942e-01	-4.126326661086711e+00
1	 8.220116331322499e-01	 8.220116331322499e-01	-4.438938543215257e+00
1	 9.834697256830054e-01	 6.429714602142690e-01	-1.128146517859615e+00
1	 9.700751393763041e-01	 6.630077103265059e-01	-1.444027854485677e+00
1	 9.562455923639225e-01	 6.828025827980423e-01	-1.763947199362273e+00
1	 9.419875697270718e-01	 7.023420950456155e-01	-2.086628591093137e+00
1	 9.273081501230523e-01	 7.216124962267327e-01	-2.410783313400505e+00
1	 9.122149954055820e-01	 7.406002985105027e-01	-2.735114890607232e+00
1	 8.967163382788652e-01	 7.592923077850046e-01	-3.058324168086337e+00
1	 8.808209680217846e-01	 7.776756536575339e-01	-3.379114445174329e+00
1	 8.645382143305497e-01	 7.957378186068262e-01	-3.696196627258481e+00
1	 8.478779293398637e-01	 8.134666661502616e-01	-4.008294363293121e+00
1	 8.308504678940001e-01	 8.308504678940001e-01	-4.314149134881633e+00
1	 9.939321695704136e-01	 6.498115821293877e-01	-1.096196284288359e+00
1	 9.803950876645493e-01	 6.700609838386684e-01	-1.400527908308127e+00
1	 9.664184178114943e-01	 6.900664400599723e-01	-1.709205127326026e+00
1	 9.520087140826864e-01	 7.098138194591513e-01	-2.021026459274294e+00
1	 9.371731304402908e-01	 7.292892249081534e-01	-2.334776942963993e+00
1	 9.219194102471076e-01	 7.484790250885244e-01	-2.649232824925271e+00
1	 9.062558737893012e-01	 7.673698855254514e-01	-2.963166333310955e+00
1	 8.901914038487204e-01	 7.859487989071573e-01	-3.275350508421074e+00
1	 8.737354293736630e-01	 8.042031145472591e-01	-3.584564058610512e+00
1	 8.568979073087760e-01	 8.221205668516193e-01	-3.889596209854663e+00
1	 8.396893026562502e-01	 8.396893026562502e-01	-4.189251517078106e+00
1	 1.004394613458327e+00	 6.566517040450012e-01	-1.058189253433808e+00
1	 9.907150359532092e-01	 6.771142573514157e-01	-1.351607194856274e+00
1	 9.765912432594107e-01	 6.973302973225582e-01	-1.649672475136636e+00
1	 9.620298584385946e-01	 7.172855438733935e-01	-1.951256856079604e+00
1	 9.470381107577920e-01	 7.369659535903109e-01	-2.255217904407454e+00
1	 9.316238250888850e-01	 7.563577516672941e-01	-2.560403374411229e+00
1	 9.157954092999983e-01	 7.754474632666368e-01	-2.865655679745434e+00
1	 8.995618396759473e-01	 7.942219441574904e-01	-3.169816425957674e+00
1	 8.829326444171172e-01	 8.126684104883521e-01	-3.471730974539009e+00
1	 8.659178852780987e-01	 8.307744675535668e-01	-3.770253008762048e+00
1	 8.485281374190000e-01	 8.485281374190000e-01	-4.064249071352591e+00
1	 1.014857057346746e+00	 6.634918259611092e-01	-1.014312748920091e+00
1	 1.001034984242285e+00	 6.841675308647481e-01	-1.297433366723899e+00
1	 9.867640687076716e-01	 7.045941545857993e-01	-1.585497405065331e+00
1	 9.720510027947967e-01	 7.247572682883416e-01	-1.877448672375427e+00
1	 9.569030910755562e-01	 7.446426822732061e-01	-2.172216074064205e+00
1	 9.413282399309146e-01	 7.642364782468121e-01	-2.468717695297295e+00
1	 9.253349448109566e-01	 7.835250410085610e-01	-2.765864974981970e+00
1	 9.089322755034644e-01	 8.024950894085326e-01	-3.062566944559802e+00
1	 8.921298594609115e-01	 8.211337064301045e-01	-3.357734504388437e+00
1	 8.749378632478313e-01	 8.394283682561041e-01	-3.650284709944388e+00
1	 8.573669721822499e-01	 8.573669721822500e-01	-3.939145039807689e+00
1	 1.025319501235670e+00	 6.703319478777121e-01	-9.647464485093763e-01
1	 1.011354932531775e+00	 6.912208043786654e-01	-1.238167233541903e+00
1	 9.969368941562768e-01	 7.118580118496960e-01	-1.516822031943772e+00
1	 9.820721471512923e-01	 7.322289927039963e-01	-1.799725538176595e+00
1	 9.667680713935828e-01	 7.523194109568380e-01	-2.085876843519310e+00
1	 9.510326547731961e-01	 7.721152048270781e-01	-2.374263223153115e+00
1	 9.348744803221760e-01	 7.916026187512237e-01	-2.663864016506857e+00
1	 9.183027113312726e-01	 8.107682346602844e-01	-2.953654576440799e+00
1	 9.013270745050462e-01	 8.295990023725169e-01	-3.242610262019730e+00
1	 8.839578412179739e-01	 8.480822689592314e-01	-3.529710449048057e+00
1	 8.662058069460000e-01	 8.662058069460000e-01	-3.813942532215307e+00
1	 1.035781945125100e+00	 6.771720697948095e-01	-9.096627702563868e-01
1	 1.021674880821681e+00	 6.982740778931678e-01	-1.173963107582511e+00
1	 1.007109719605227e+00	 7.191218691142480e-01	-1.443782728590246e+00
1	 9.920932915080820e-01	 7.397007171203575e-01	-1.718206088345781e+00
1	 9.766330517118729e-01	 7.599961396412075e-01	-1.996301346112022e+00
1	 9.607370696157297e-01	 7.799939314080919e-01	-2.277123860798018e+00
1	 9.444140158336568e-01	 7.996801964946254e-01	-2.559719781706043e+00
1	 9.276731471593713e-01	 8.190413799127453e-01	-2.843129712108433e+00
1	 9.105242895495208e-01	 8.380642983155886e-01	-3.126392422349991e+00
1	 8.929778191885266e-01	 8.567361696629487e-01	-3.408548588561901e+00
1	 8.750446417102501e-01	 8.750446417102501e-01	-3.688644532699992e+00
1	 1.046244389015035e+00	 6.840121917124017e-01	-8.492272354938594e-01
1	 1.031994829112001e+00	 7.053273514082546e-01	-1.104969128627153e+00
1	 1.017282545054521e+00	 7.263857263794559e-01	-1.366510412910489e+00
1	 1.002114435865165e+00	 7.471724415374245e-01	-1.633004212351248e+00
1	 9.864980320304253e-01	 7.676728683263137e-01	-1.903586669847990e+00
1	 9.704414844585151e-01	 7.878726579898537e-01	-2.177380154938638e+00
1	 9.539535513453987e-01	 8.077577742387658e-01	-2.453496568869915e+00
1	 9.370435829877606e-01	 8.273145251659155e-01	-2.731040726450121e+00
1	 9.197215045943361e-01	 8.465295942593203e-01	-3.009113793299600e+00
1	 9.019977971594894e-01	 8.653900703672559e-01	-3.286816756475269e+00
1	 8.838834764750000e-01	 8.838834764750000e-01	-3.563253906021260e+00
1	 7.954951288500001e-01	 7.954951288500001e-01	-4.812621441552531e+00
1	 7.788510633507308e-01	 8.117980174683144e-01	-5.155436593898269e+00
1	 7.618766348516911e-01	 8.277493541614976e-01	-5.491761821617285e+00
1	 7.445830726661320e-01	 8.433392247169471e-01	-5.820313262838034e+00
1	 7.269819968306053e-01	 8.585581962397351e-01	-6.139831698265803e+00
1	 7.090853922058953e-01	 8.733973360420000e-01	-6.449087411921731e+00
1	 6.909055815084221e-01	 8.878482288567272e-01	-6.746884883080171e+00
1	 6.724551973985359e-01	 9.019029923075501e-01	-7.032067279824918e+00
1	 6.537471537568769e-01	 9.155542905770793e-01	-7.303520726479247e+00
1	 6.347946162837055e-01	 9.287953462274742e-01	-7.560178319262961e+00
1	 6.156109725587411e-01	 9.416199501384250e-01	-7.801023866858591e+00
1	 8.043339636102501e-01	 8.043339636102501e-01	-4.688178462083899e+00
1	 7.875049640497286e-01	 8.208179954355866e-01	-5.024531667409185e+00
1	 7.703419307894857e-01	 8.369465692032504e-01	-5.354855348329958e+00
1	 7.528562179129183e-01	 8.527096605427203e-01	-5.677913697143395e+00
1	 7.350595745680969e-01	 8.680977317491256e-01	-5.992494020614130e+00
1	 7.169641187809250e-01	 8.831017508825173e-01	-6.297411413774603e+00
1	 6.985823101868941e-01	 8.977132091729141e-01	-6.591513274318376e+00
1	 6.799269218092464e-01	 9.119241366619899e-01	-6.873683629130383e+00
1	 6.610110110161852e-01	 9.257271160232733e-01	-7.142847246240102e+00
1	 6.418478897935284e-01	 9.391152945140590e-01	-7.397973507477047e+00
1	 6.224510944718810e-01	 9.520823940238121e-01	-7.638080019325515e+00
1	 8.131727983709998e-01	 8.131727983709998e-01	-4.563616213507277e+00
1	 7.961588647493163e-01	 8.298379734032689e-01	-4.893990092831258e+00
1	 7.788072267279395e-01	 8.461437842453429e-01	-5.218788120527226e+00
1	 7.611293631604142e-01	 8.620800963687844e-01	-5.536821632126809e+00
1	 7.431371523063276e-01	 8.776372672587778e-01	-5.846923570956142e+00
1	 7.248428453567030e-01	 8.928061657232867e-01	-6.147952978100891e+00
1	 7.062590388661033e-01	 9.075781894893641e-01	-6.438799332226077e+00
1	 6.873986462206633e-01	 9.219452810167234e-01	-6.718386711901996e+00
1	 6.682748682761487e-01	 9.358999414698115e-01	-6.985677754736275e+00
1	 6.489011633039364e-01	 9.494352428010588e-01	-7.239677389502224e+00
1	 6.292912163855158e-01	 9.625448379097047e-01	-7.479436319562460e+00
1	 8.220116331322499e-01	 8.220116331322499e-01	-4.438938543215257e+00
1	 8.048127654494940e-01	 8.388579513713611e-01	-4.763800149136797e+00
1	 7.872725226670528e-01	 8.553409992877761e-01	-5.083533065775644e+00
1	 7.694025084086196e-01	 8.714505321951391e-01	-5.396994890348316e+00
1	 7.512147300452968e-01	 8.871768027686908e-01	-5.703063341938455e+00
1	 7.327215719332288e-01	 9.025105805643083e-01	-6.000640570628565e+00
1	 7.139357675460497e-01	 9.174431698060764e-01	-6.288657325621671e+00
1	 6.948703706327866e-01	 9.319664253717506e-01	-6.566076956093902e+00
1	 6.755387255367677e-01	 9.460727669166946e-01	-6.831899220074627e+00
1	 6.559544368149288e-01	 9.597551910884736e-01	-7.085163878443154e+00
1	 6.361313382996451e-01	 9.730072817961023e-01	-7.324954053127230e+00
1	 8.308504678940001e-01	 8.308504678940001e-01	-4.314149134881633e+00
1	 8.134666661502615e-01	 8.478779293398638e-01	-4.633950614065265e+00
1	 7.957378186068262e-01	 8.645382143305497e-01	-4.949064263660143e+00
1	 7.776756536575337e-01	 8.808209680217844e-01	-5.258393089152772e+00
1	 7.592923077850048e-01	 8.967163382788653e-01	-5.560858752052567e+00
1	 7.406002985105028e-01	 9.122149954055819e-01	-5.855405701097066e+00
1	 7.216124962267330e-01	 9.273081501230521e-01	-6.141005171458983e+00
1	 7.023420950456158e-01	 9.419875697270713e-01	-6.416659026768467e+00
1	 6.828025827980426e-01	 9.562455923639220e-01	-6.681403420229826e+00
1	 6.630077103265065e-01	 9.700751393763041e-01	-6.934312252804153e+00
1	 6.429714602142689e-01	 9.834697256830051e-01	-7.174500408319711e+00
1	 8.396893026562502e-01	 8.396893026562502e-01	-4.189251517078106e+00
1	 8.221205668516191e-01	 8.568979073087760e-01	-4.504430737872383e+00
1	 8.042031145472591e-01	 8.737354293736630e-01	-4.815356885151564e+00
1	 7.859487989071573e-01	 8.901914038487202e-01	-5.120977546207243e+00
1	 7.673698855254515e-01	 9.062558737893011e-01	-5.420257517958663e+00
1	 7.484790250885247e-01	 9.219194102471072e-01	-5.712182763046280e+00
1	 7.292892249081535e-01	 9.371731304402904e-01	-5.995764242820006e+00
1	 7.098138194591518e-01	 9.520087140826861e-01	-6.270041603090721e+00
1	 6.900664400599729e-01	 9.664184178114940e-01	-6.534086689893229e+00
1	 6.700609838386691e-01	 9.803950876645489e-01	-6.787006874099872e+00
1	 6.498115821293877e-01	 9.939321695704137e-01	-7.027948165511196e+00
1	 8.485281374190000e-01	 8.485281374190000e-01	-4.064249071352591e+00
1	 8.307744675535665e-01	 8.659178852780989e-01	-4.375230218719859e+00
1	 8.126684104883521e-01	 8.829326444171173e-01	-4.682387135763673e+00
1	 7.942219441574904e-01	 8.995618396759469e-01	-4.984711190942767e+00
1	 7.754474632666368e-01	 9.157954092999980e-01	-5.281209534789452e+00
1	 7.563577516672944e-01	 9.316238250888849e-01	-5.570908883618698e+00
1	 7.369659535903115e-01	 9.470381107577917e-01	-5.852859188908317e+00
1	 7.172855438733938e-01	 9.620298584385945e-01	-6.126137169260438e+00
1	 6.973302973225586e-01	 9.765912432594104e-01	-6.389849683144039e+00
1	 6.771142573514164e-01	 9.907150359532090e-01	-6.643136922114982e+00
1	 6.566517040450012e-01	 1.004394613458327e+00	-6.885175405890803e+00
1	 8.573669721822499e-01	 8.573669721822500e-01	-3.939145039807689e+00
1	 8.394283682561042e-01	 8.749378632478314e-01	-4.246339179587494e+00
1	 8.211337064301045e-01	 8.921298594609115e-01	-4.550132202226152e+00
1	 8.024950894085328e-01	 9.089322755034644e-01	-4.849558481473620e+00
1	 7.835250410085610e-01	 9.253349448109562e-01	-5.143666763857811e+00
1	 7.642364782468123e-01	 9.413282399309145e-01	-5.431523782651834e+00
1	 7.446426822732063e-01	 9.569030910755558e-01	-5.712217766176834e+00
1	 7.247572682883421e-01	 9.720510027947962e-01	-5.984861818376332e+00
1	 7.045941545857998e-01	 9.867640687076713e-01	-6.248597150800401e+00
1	 6.841675308647487e-01	 1.001034984242284e+00	-6.502596146539919e+00
1	 6.634918259611091e-01	 1.014857057346746e+00	-6.746065238227297e+00
1	 8.662058069460000e-01	 8.662058069460000e-01	-3.813942532215307e+00
1	 8.480822689592312e-01	 8.839578412179739e-01	-4.117748146598802e+00
1	 8.295990023725168e-01	 9.013270745050461e-01	-4.418570202422622e+00
1	 8.107682346602842e-01	 9.183027113312724e-01	-4.715485326603274e+00
1	 7.916026187512240e-01	 9.348744803221758e-01	-5.007583127239337e+00
1	 7.721152048270784e-01	 9.510326547731961e-01	-5.293969640398107e+00
1	 7.523194109568384e-01	 9.667680713935827e-01	-5.573770679794691e+00
1	 7.322289927039969e-01	 9.820721471512921e-01	-5.846135068308497e+00
1	 7.118580118496967e-01	 9.969368941562767e-01	-6.110237731402083e+00
1	 6.912208043786661e-01	 1.011354932531775e+00	-6.365282633812289e+00
1	 6.703319478777120e-01	 1.025319501235670e+00	-6.610505542359971e+00
1	 8.750446417102501e-01	 8.750446417102501e-01	-3.688644532699992e+00
1	 8.567361696629487e-01	 8.929778191885266e-01	-3.989448028660178e+00
1	 8.380642983155886e-01	 9.105242895495208e-01	-4.287680138362575e+00
1	 8.190413799127454e-01	 9.276731471593713e-01	-4.582459012557415e+00
1	 7.996801964946257e-01	 9.444140158336568e-01	-4.872914408743872e+00
1	 7.799939314080920e-01	 9.607370696157294e-01	-5.158190973261267e+00
1	 7.599961396412075e-01	 9.766330517118722e-01	-5.437451434722067e+00
1	 7.397007171203579e-01	 9.920932915080817e-01	-5.709879688730324e+00
1	 7.191218691142488e-01	 1.007109719605227e+00	-5.974683754860990e+00
1	 6.982740778931683e-01	 1.021674880821680e+00	-6.231098588089448e+00
1	 6.771720697948095e-01	 1.035781945125100e+00	-6.478388728235551e+00
1	 8.838834764750000e-01	 8.838834764750000e-01	-3.563253906021260e+00
1	 8.653900703672558e-01	 9.019977971594894e-01	-3.861430098321755e+00
1	 8.465295942593203e-01	 9.197215045943362e-01	-4.157441851975247e+00
1	 8.273145251659157e-01	 9.370435829877607e-01	-4.450448134112561e+00
1	 8.077577742387659e-01	 9.539535513453987e-01	-4.739618160829014e+00
1	 7.878726579898540e-01	 9.704414844585149e-01	-5.024134516988981e+00
1	 7.676728683263140e-01	 9.864980320304252e-01	-5.303196195720799e+00
1	 7.471724415374250e-01	 1.002114435865165e+00	-5.576021538528193e+00
1	 7.263857263794565e-01	 1.017282545054521e+00	-5.841851057892457e+00
1	 7.053273514082554e-01	 1.031994829112000e+00	-6.099950125362219e+00
1	 6.840121917124017e-01	 1.046244389015035e+00	-6.349611509402808e+00
1	 6.156109725587411e-01	 9.416199501384250e-01	-7.801023866858591e+00
1	 5.962098017009264e-01	 9.540224695395332e-01	-8.054098276096731e+00
1	 5.766048437667730e-01	 9.659978541247000e-01	-8.296798528823077e+00
1	 5.568099690270316e-01	 9.775416402487633e-01	-8.528440243088751e+00
1	 5.368391472596018e-01	 9.886499532180105e-01	-8.748368679441223e+00
1	 5.167064171925495e-01	 9.993195076959103e-01	-8.955960853229282e+00
1	 4.964258562287501e-01	 1.009547606256940e+00	-9.150627463845714e+00
1	 4.760115505788752e-01	 1.019332136131226e+00	-9.331814632358475e+00
1	 4.554775659241308e-01	 1.028671564192235e+00	-9.499005440681495e+00
1	 4.348379187240837e-01	 1.037564930248593e+00	-9.651721267158777e+00
1	 4.141065482781622e-01	 1.046011838709305e+00	-9.789522915153597e+00
1	 6.224510944718810e-01	 9.520823940238121e-01	-7.638080019325515e+00
1	 6.028343550492661e-01	 9.646227191958865e-01	-7.893173762313220e+00
1	 5.830115642494710e-01	 9.767311636097610e-01	-8.138030462118156e+00
1	 5.629967464573653e-01	 9.884032140242146e-01	-8.371978388008777e+00
1	 5.428040266706029e-01	 9.996349526933817e-01	-8.594375278745346e+00
1	 5.224475996031166e-01	 1.010423057776989e+00	-8.804610397599504e+00
1	 5.019416990733697e-01	 1.020764801878120e+00	-9.002106406166387e+00
1	 4.813005678054852e-01	 1.030658048751678e+00	-9.186321048765089e+00
1	 4.605384277660153e-01	 1.040101248236386e+00	-9.356748640899422e+00
1	 4.396694511529662e-01	 1.049093429472078e+00	-9.512921356943433e+00
1	 4.187077321468711e-01	 1.057634192472302e+00	-9.654410313904608e+00
1	 6.292912163855158e-01	 9.625448379097047e-01	-7.479436319562460e+00
1	 6.094589083980003e-01	 9.752229688528293e-01	-7.736736834635167e+00
1	 5.894182847324629e-01	 9.874644730954647e-01	-7.983938657963881e+00
1	 5.691835238878924e-01	 9.992647878003311e-01	-8.220382346715414e+00
1	 5.487689060816965e-01	 1.010619952169409e+00	-8.445437756613181e+00
1	 5.281887820136760e-01	 1.021526607858687e+00	-8.658506040897585e+00
1	 5.074575419178806e-01	 1.031981997499849e+00	-8.859021469895225e+00
1	 4.865895850318857e-01	 1.041983961372579e+00	-9.046453063332075e+00
1	 4.655992896075897e-01	 1.051530932280860e+00	-9.220306029176585e+00
1	 4.445009835814387e-01	 1.060621928695729e+00	-9.380123004463153e+00
1	 4.233089160150698e-01	 1.069256546235278e+00	-9.525485095204878e+00
1	 6.361313382996451e-01	 9.730072817961023e-01	-7.324954053127230e+00
1	 6.160834617471291e-01	 9.858232185103623e-01	-7.584642732221507e+00
1	 5.958250052157492e-01	 9.981977825818114e-01	-7.834372269181204e+00
1	 5.753703013186131e-01	 1.010126361577113e+00	-8.073495157472721e+00
1	 5.547337854928833e-01	 1.021604951646094e+00	-8.301393020186124e+00
1	 5.339299644242276e-01	 1.032630157941003e+00	-8.517478554123336e+00
1	 5.129733847622833e-01	 1.043199193122128e+00	-8.721197296273871e+00
1	 4.918786022580771e-01	 1.053309873993932e+00	-8.912029205147098e+00
1	 4.706601514488546e-01	 1.062960616325656e+00	-9.089490051054868e+00
1	 4.493325160095007e-01	 1.072150427919546e+00	-9.253132611076131e+00
1	 4.279100998827580e-01	 1.080878899998233e+00	-9.402547666063338e+00
1	 6.429714602142689e-01	 9.834697256830051e-01	-7.174500408319711e+00
1	 6.227080150966526e-01	 9.964234681684844e-01	-7.436752854266839e+00
1	 6.022317256993296e-01	 1.008931092068801e+00	-7.689186867619980e+00
1	 5.815570787495273e-01	 1.020987935354560e+00	-7.931166537767521e+00
1	 5.606986649041629e-01	 1.032589951123436e+00	-8.162084916727153e+00
1	 5.396711468347712e-01	 1.043733708023936e+00	-8.381365909510523e+00
1	 5.184892276065770e-01	 1.054416388744956e+00	-8.588465988618688e+00
1	 4.971676194840591e-01	 1.064635786615735e+00	-8.782875725464224e+00
1	 4.757210132898095e-01	 1.074390300370775e+00	-8.964121133116947e+00
1	 4.541640484371527e-01	 1.083678927143527e+00	-9.131764816380635e+00
1	 4.325112837499361e-01	 1.092501253761168e+00	-9.285406926807651e+00
1	 6.498115821293877e-01	 9.939321695704137e-01	-7.027948165511196e+00
1	 6.293325684465706e-01	 1.007023717827196e+00	-7.292934435788895e+00
1	 6.086384461832042e-01	 1.019664401556434e+00	-7.548244106315120e+00
1	 5.877438561806352e-01	 1.031849509132672e+00	-7.793252532771286e+00
1	 5.666635443155355e-01	 1.043574950601434e+00	-8.027363868351179e+00
1	 5.454123292453070e-01	 1.054837258107488e+00	-8.250012901514550e+00
1	 5.240050704507622e-01	 1.065633584368333e+00	-8.460666719580031e+00
1	 5.024566367098319e-01	 1.075961699237989e+00	-8.658826191274073e+00
1	 4.807818751304545e-01	 1.085819984416216e+00	-8.844027262931284e+00
1	 4.589955808643948e-01	 1.095207426367674e+00	-9.015842064623438e+00
1	 4.371124676166038e-01	 1.104123607524082e+00	-9.173879824067425e+00
1	 6.566517040450012e-01	 1.004394613458327e+00	-6.885175405890803e+00
1	 6.359571217968834e-01	 1.017623967486498e+00	-7.153060243679730e+00
1	 6.150451666673726e-01	 1.030397711044709e+00	-7.411411402758301e+00
1	 5.939306336119369e-01	 1.042711082911450e+00	-7.659615185773204e+00
1	 5.726284237270008e-01	 1.054559950080089e+00	-7.897086529584930e+00
1	 5.511535116558349e-01	 1.065940808191658e+00	-8.123270791488521e+00
1	 5.295209132948389e-01	 1.076850779992260e+00	-8.337645362947756e+00
1	 5.077456539353953e-01	 1.087287611860692e+00	-8.539721104276072e+00
1	 4.858427369707898e-01	 1.097249668461979e+00	-8.729043595251087e+00
1	 4.638271132912263e-01	 1.106735925591985e+00	-8.905194198207589e+00
1	 4.417136514827614e-01	 1.115745961286976e+00	-9.067790931696077e+00
1	 6.634918259611091e-01	 1.014857057346746e+00	-6.746065238227297e+00
1	 6.425816751475903e-01	 1.028224217146390e+00	-7.017008291557216e+00
1	 6.214518871518357e-01	 1.041131020533627e+00	-7.278561641761119e+00
1	 6.001174110434320e-01	 1.053572656690893e+00	-7.530122228998972e+00
1	 5.785933031385591e-01	 1.065544949559402e+00	-7.771115466108622e+00
1	 5.568946940663551e-01	 1.077044358276446e+00	-8.000996974337838e+00
1	 5.350367561388070e-01	 1.088067975616736e+00	-8.219254148231700e+00
1	 5.130346711607495e-01	 1.098613524483847e+00	-8.425407543418945e+00
1	 4.909035988108152e-01	 1.108679352508065e+00	-8.619012082571651e+00
1	 4.686586457176479e-01	 1.118264424816463e+00	-8.799658076344338e+00
1	 4.463148353484084e-01	 1.127368315049849e+00	-8.966972057614827e+00
1	 6.703319478777120e-01	 1.025319501235670e+00	-6.610505542359971e+00
1	 6.492062284986920e-01	 1.038824466806871e+00	-6.884661572075274e+00
1	 6.278586076365926e-01	 1.051864330023189e+00	-7.149572896510047e+00
1	 6.063041884751207e-01	 1.064434230471001e+00	-7.404646793358813e+00
1	 5.845581825502105e-01	 1.076529949039371e+00	-7.649318853166432e+00
1	 5.626358764768672e-01	 1.088147908361853e+00	-7.883054665583993e+00
1	 5.405525989826665e-01	 1.099285171241760e+00	-8.105351336390227e+00
1	 5.183236883858944e-01	 1.109939437107452e+00	-8.315738829327090e+00
1	 4.959644606505308e-01	 1.120109036554474e+00	-8.513781128306743e+00
1	 4.734901781436591e-01	 1.129792924041105e+00	-8.699077217052524e+00
1	 4.509160192135453e-01	 1.138990668812702e+00	-8.871261874727749e+00
1	 6.771720697948095e-01	 1.035781945125100e+00	-6.478388728235551e+00
1	 6.558307818501883e-01	 1.049424716467942e+00	-6.755907805457141e+00
1	 6.342653281216438e-01	 1.062597639513393e+00	-7.024328166527344e+00
1	 6.124909659070029e-01	 1.075295804251774e+00	-7.283067135786682e+00
1	 5.905230619619546e-01	 1.087514948519997e+00	-7.531570192255227e+00
1	 5.683770588873716e-01	 1.099251458447877e+00	-7.769312607393981e+00
1	 5.460684418264172e-01	 1.110502366867334e+00	-7.995800915211489e+00
1	 5.236127056108301e-01	 1.121265349731507e+00	-8.210574209064150e+00
1	 5.010253224899366e-01	 1.131538720601204e+00	-8.413205260984663e+00
1	 4.783217105692602e-01	 1.141321423265912e+00	-8.603301460855276e+00
1	 4.555172030781719e-01	 1.150613022575534e+00	-8.780505574205316e+00
1	 6.840121917124017e-01	 1.046244389015035e+00	-6.349611509402808e+00
1	 6.624553352020789e-01	 1.060024966129602e+00	-6.630639203117126e+00
1	 6.406720486069893e-01	 1.073330949004241e+00	-6.902715131354362e+00
1	 6.186777433390788e-01	 1.086157378033213e+00	-7.165266382939212e+00
1	 5.964879413737916e-01	 1.098499948001280e+00	-7.417748044811939e+00
1	 5.741182412978680e-01	 1.110355008534519e+00	-7.659644792248066e+00
1	 5.515842846700593e-01	 1.121719562493458e+00	-7.890472312972258e+00
1	 5.289017228355563e-01	 1.132591262356013e+00	-8.109778559811286e+00
1	 5.060861843290325e-01	 1.142968404648257e+00	-8.317144827992648e+00
1	 4.831532429944511e-01	 1.152849922490885e+00	-8.512186654654753e+00
1	 4.601183869422882e-01	 1.162235376338345e+00	-8.694554539571302e+00
1	 4.141065482781622e-01	 1.046011838709305e+00	-9.789522915153597e+00
1	 3.932972896413123e-01	 1.054012448698682e+00	-9.941105944993724e+00
1	 3.724238474895377e-01	 1.061567462705179e+00	-1.008291184151218e+01
1	 3.514997710187807e-01	 1.068678113852559e+00	-1.021475525191021e+01
1	 3.305384299522138e-01	 1.075346151886617e+00	-1.033646512336247e+01
1	 3.095529917259615e-01	 1.081573827976446e+00	-1.044788520151446e+01
1	 2.885563999111744e-01	 1.087363878431055e+00	-1.054887445945694e+01
1	 2.675613539221366e-01	 1.092719507434895e+00	-1.063930745610112e+01
1	 2.465802900510743e-01	 1.097644368907271e+00	-1.071907462344176e+01
1	 2.256253638614278e-01	 1.102142547591368e+00	-1.078808248273828e+01
1	 2.047084339626188e-01	 1.106218539478505e+00	-1.084625379017056e+01
1	 4.187077321468711e-01	 1.057634192472302e+00	-9.654410313904608e+00
1	 3.976672595254846e-01	 1.065723698129262e+00	-9.811962131505112e+00
1	 3.765618902389651e-01	 1.073362656736697e+00	-9.959387013306532e+00
1	 3.554053240298771e-01	 1.080552315119742e+00	-1.009649869897085e+01
1	 3.342110791738727e-01	 1.087294442465818e+00	-1.022312684912798e+01
1	 3.129924694119229e-01	 1.093591314957006e+00	-1.033911748099026e+01
1	 2.917625821326362e-01	 1.099445699305754e+00	-1.044433332875656e+01
1	 2.705342578549005e-01	 1.104860835298564e+00	-1.053865412840649e+01
1	 2.493200710519669e-01	 1.109840417453845e+00	-1.062197682705488e+01
1	 2.281323123490928e-01	 1.114388575900822e+00	-1.069421571758351e+01
1	 2.069829721180270e-01	 1.118509856586275e+00	-1.075530249978677e+01
1	 4.233089160150698e-01	 1.069256546235278e+00	-9.525485095204878e+00
1	 4.020372294090627e-01	 1.077434947559639e+00	-9.688998597617706e+00
1	 3.806999329877463e-01	 1.085157850767857e+00	-9.842046745958088e+00
1	 3.593108770403063e-01	 1.092426516386447e+00	-9.984442215779671e+00
1	 3.378837283948748e-01	 1.099242733044450e+00	-1.011601520089262e+01
1	 3.164319470972685e-01	 1.105608801936938e+00	-1.023661378731904e+01
1	 2.949687643535532e-01	 1.111527520179795e+00	-1.034610424641273e+01
1	 2.735071617872199e-01	 1.117002163161573e+00	-1.044437124741027e+01
1	 2.520598520525447e-01	 1.122036465999790e+00	-1.053131799025759e+01
1	 2.306392608366009e-01	 1.126634604209704e+00	-1.060686626010579e+01
1	 2.092575102734646e-01	 1.130801173693560e+00	-1.067095640538279e+01
1	 4.279100998827580e-01	 1.080878899998233e+00	-9.402547666063338e+00
1	 4.064071992920467e-01	 1.089146196989810e+00	-9.572015979468755e+00
1	 3.848379757358810e-01	 1.096953044798660e+00	-9.730691537500055e+00
1	 3.632164300500685e-01	 1.104300717652674e+00	-9.878385800083851e+00
1	 3.415563776152200e-01	 1.111191023622512e+00	-1.001492931975106e+01
1	 3.198714247819980e-01	 1.117626288916241e+00	-1.014017205511687e+01
1	 2.981749465739252e-01	 1.123609341053177e+00	-1.025398359796122e+01
1	 2.764800657190950e-01	 1.129143491023926e+00	-1.035625331483112e+01
1	 2.547996330528077e-01	 1.134232514545106e+00	-1.044689040467565e+01
1	 2.331462093239524e-01	 1.138880632518015e+00	-1.052582387457331e+01
1	 2.115320484289314e-01	 1.143092490800359e+00	-1.059300243612042e+01
1	 4.325112837499361e-01	 1.092501253761168e+00	-9.285406926807651e+00
1	 4.107771691744364e-01	 1.100857446419777e+00	-9.460823396764244e+00
1	 3.889760184833697e-01	 1.108748238829107e+00	-9.625130375410954e+00
1	 3.671219830591637e-01	 1.116174918918422e+00	-9.778137960364878e+00
1	 3.452290268349087e-01	 1.123139314200007e+00	-9.919676893985413e+00
1	 3.233109024661119e-01	 1.129643775894916e+00	-1.004959881752688e+01
1	 3.013811287937522e-01	 1.135691161925902e+00	-1.016777643338320e+01
1	 2.794529696505255e-01	 1.141284818885619e+00	-1.027410357699564e+01
1	 2.575394140527559e-01	 1.146428563089792e+00	-1.036849520058924e+01
1	 2.356531578111472e-01	 1.151126660825756e+00	-1.045088727145595e+01
1	 2.138065865844276e-01	 1.155383807906674e+00	-1.052123658800587e+01
1	 4.371124676166038e-01	 1.104123607524082e+00	-9.173879824067425e+00
1	 4.151471390562320e-01	 1.112568695849540e+00	-9.355238006274980e+00
1	 3.931140612302117e-01	 1.120543432859196e+00	-9.525180289801980e+00
1	 3.710275360675918e-01	 1.128049120183693e+00	-9.683515267904884e+00
1	 3.489016760539405e-01	 1.135087604776933e+00	-9.830073709213432e+00
1	 3.267503801496099e-01	 1.141661262872963e+00	-9.964708753665267e+00
1	 3.045873110130343e-01	 1.147772982797968e+00	-1.008729601108196e+01
1	 2.824258735815118e-01	 1.153426146746654e+00	-1.019773356459580e+01
1	 2.602791950523892e-01	 1.158624611633849e+00	-1.029594188174057e+01
1	 2.381601062981852e-01	 1.163372689132924e+00	-1.038186363657239e+01
1	 2.160811247399532e-01	 1.167675125012503e+00	-1.045546344668747e+01
1	 4.417136514827614e-01	 1.115745961286976e+00	-9.067790931696077e+00
1	 4.195171089374332e-01	 1.124279945279097e+00	-9.255084583239867e+00
1	 3.972521039764076e-01	 1.132338626888928e+00	-9.430665934529582e+00
1	 3.749330890753527e-01	 1.139923321448485e+00	-9.594341936849343e+00
1	 3.525743252723156e-01	 1.147035895353290e+00	-9.745943226652120e+00
1	 3.301898578324918e-01	 1.153678749850381e+00	-9.885324264351770e+00
1	 3.077934932317715e-01	 1.159854803669376e+00	-1.001236337036063e+01
1	 2.853987775120535e-01	 1.165567474607031e+00	-1.012696266121153e+01
1	 2.630189760517078e-01	 1.170820660177278e+00	-1.022904788921614e+01
1	 2.406670547850666e-01	 1.175618717439521e+00	-1.031856818966581e+01
1	 2.183556628955082e-01	 1.179966442117847e+00	-1.039549574007847e+01
1	 4.463148353484084e-01	 1.127368315049849e+00	-8.966972057614827e+00
1	 4.238870788180403e-01	 1.135991194708451e+00	-9.160195128661044e+00
1	 4.013901467219571e-01	 1.144133820918303e+00	-9.341419194218984e+00
1	 3.788386420824468e-01	 1.151797522712798e+00	-9.510449430245069e+00
1	 3.562469744900341e-01	 1.158984185929079e+00	-9.667116187468457e+00
1	 3.336293355147580e-01	 1.165696236827171e+00	-9.811275074083731e+00
1	 3.109996754499638e-01	 1.171936624540127e+00	-9.942806930344995e+00
1	 2.883716814421509e-01	 1.177708802466749e+00	-1.006161769852274e+01
1	 2.657587570507115e-01	 1.183016708720077e+00	-1.016763819230523e+01
1	 2.431740032717912e-01	 1.187864745745547e+00	-1.026082377028392e+01
1	 2.206302010510924e-01	 1.192257759222705e+00	-1.034115391865274e+01
1	 4.509160192135453e-01	 1.138990668812702e+00	-8.871261874727749e+00
1	 4.282570486980531e-01	 1.147702444137599e+00	-9.070408500642548e+00
1	 4.055281894668601e-01	 1.155929014947321e+00	-9.257278815347640e+00
1	 3.827441950888737e-01	 1.163671723976633e+00	-9.431676090198055e+00
1	 3.599196237070956e-01	 1.170932476504298e+00	-9.593430241353108e+00
1	 3.370688131964081e-01	 1.177713723803332e+00	-9.742397857379116e+00
1	 3.142058576676110e-01	 1.184018445410219e+00	-9.878462113462064e+00
1	 2.913445853718038e-01	 1.189850130325810e+00	-1.000153257630404e+01
1	 2.684985380494003e-01	 1.195212757262246e+00	-1.011154490440794e+01
1	 2.456809517583592e-01	 1.200110774051002e+00	-1.020846044901358e+01
1	 2.229047392067060e-01	 1.204549076327078e+00	-1.029226576143627e+01
1	 4.555172030781719e-01	 1.150613022575534e+00	-8.780505574205316e+00
1	 4.326270185774718e-01	 1.159413693566544e+00	-8.985570068072175e+00
1	 4.096662322111168e-01	 1.167724208975982e+00	-9.178090059686632e+00
1	 3.866497480946336e-01	 1.175545925239990e+00	-9.357866790446575e+00
1	 3.635922729235004e-01	 1.182880767078950e+00	-9.524729597605400e+00
1	 3.405082908774424e-01	 1.189731210778864e+00	-9.678535887765362e+00
1	 3.174120398847132e-01	 1.196100266279651e+00	-9.819170991737748e+00
1	 2.943174893010123e-01	 1.201991458184212e+00	-9.946547905450554e+00
1	 2.712383190477745e-01	 1.207408805803788e+00	-1.006060692222151e+01
1	 2.481879002447703e-01	 1.212356802355885e+00	-1.016131516227669e+01
1	 2.251792773623489e-01	 1.216840393430966e+00	-1.024866600587864e+01
1	 4.601183869422882e-01	 1.162235376338345e+00	-8.694554539571302e+00
1	 4.369969884562961e-01	 1.171124942995283e+00	-8.905531385082167e+00
1	 4.138042749547273e-01	 1.179519403004286e+00	-9.103704378536362e+00
1	 3.905553010997264e-01	 1.187420126502869e+00	-9.288872609779283e+00
1	 3.672649221392484e-01	 1.194829057653032e+00	-9.460864697152696e+00
1	 3.439477685578608e-01	 1.201748697753768e+00	-9.619538707828781e+00
1	 3.206182221012706e-01	 1.208182087148427e+00	-9.764781954317014e+00
1	 2.972903932297764e-01	 1.214132786041956e+00	-9.896510672421579e+00
1	 2.739781000458337e-01	 1.219604854344699e+00	-1.001466958657537e+01
1	 2.506948487310247e-01	 1.224602830660197e+00	-1.011923136903846e+01
1	 2.274538155180211e-01	 1.229131710534368e+00	-1.021019599993157e+01
1	 2.047084339626188e-01	 1.106218539478505e+00	-1.084625379017056e+01
1	 1.838410471820675e-01	 1.109877231672737e+00	-1.091498850140527e+01
1	 1.630344251371875e-01	 1.113123881798189e+00	-1.097577509049081e+01
1	 1.422994522082913e-01	 1.115964097050903e+00	-1.102869116477412e+01
1	 1.216466649059655e-01	 1.118403812994212e+00	-1.107381479297218e+01
1	 1.010862426134333e-01	 1.120449272191891e+00	-1.111122461828371e+01
1	 8.062799968276181e-02	 1.122107002770802e+00	-1.114099997323833e+01
1	 6.028137885658343e-02	 1.123383797000342e+00	-1.116322099433037e+01
1	 4.005544598153728e-02	 1.124286689971457e+00	-1.117796873462358e+01
1	 1.995888597471339e-02	 1.124822938453228e+00	-1.118532527266310e+01
1	 0.000000000000000e+00	 1.125000000000000e+00	-1.118537381619134e+01
1	 2.069829721180270e-01	 1.118509856586275e+00	-1.075530249978677e+01
1	 1.858837254842960e-01	 1.122209200915521e+00	-1.082842123206678e+01
1	 1.648459187499743e-01	 1.125491924930832e+00	-1.089301574429240e+01
1	 1.438805572329332e-01	 1.128363698130427e+00	-1.094916698324252e+01
1	 1.229982945160992e-01	 1.130830522028343e+00	-1.099695835691264e+01
1	 1.022094230869531e-01	 1.132898708550173e+00	-1.103647573879623e+01
1	 8.152386634591845e-02	 1.134574858357522e+00	-1.106780747012457e+01
1	 6.095117195499002e-02	 1.135865839189446e+00	-1.109104435898274e+01
1	 4.050050649243606e-02	 1.136778764304567e+00	-1.110627967532655e+01
1	 2.018065137442525e-02	 1.137320971102731e+00	-1.111360914104193e+01
1	 0.000000000000000e+00	 1.137500000000000e+00	-1.111313091430472e+01
1	 2.092575102734646e-01	 1.130801173693560e+00	-1.067095640538279e+01
1	 1.879264037867324e-01	 1.134541170157915e+00	-1.074839608190457e+01
1	 1.666574123631051e-01	 1.137859968063168e+00	-1.081675111935780e+01
1	 1.454616622580137e-01	 1.140763299209717e+00	-1.087610559612685e+01
1	 1.243499241267251e-01	 1.143257231062304e+00	-1.092654802281254e+01
1	 1.033326035609789e-01	 1.145348144908337e+00	-1.096817123945477e+01
1	 8.241973300955530e-02	 1.147042713944167e+00	-1.100107230697311e+01
1	 6.162096505381248e-02	 1.148347881378508e+00	-1.102535239260053e+01
1	 4.094556700364869e-02	 1.149270838637658e+00	-1.104111664916462e+01
1	 2.040241677431206e-02	 1.149819003752230e+00	-1.104847408814961e+01
1	 0.000000000000000e+00	 1.150000000000000e+00	-1.104753744655110e+01
1	 2.115320484289314e-01	 1.143092490800359e+00	-1.059300243612042e+01
1	 1.899690820893766e-01	 1.146873139399917e+00	-1.067470201481609e+01
1	 1.684689059765799e-01	 1.150228011195196e+00	-1.074677170854962e+01
1	 1.470427672835328e-01	 1.153162900288774e+00	-1.080929852618815e+01
1	 1.257015537378434e-01	 1.155683940096093e+00	-1.086237585189933e+01
1	 1.044557840355105e-01	 1.157797581266385e+00	-1.090610323702945e+01
1	 8.331559967367232e-02	 1.159510569530738e+00	-1.094058618249571e+01
1	 6.229075815305083e-02	 1.160829923567528e+00	-1.096593591231500e+01
1	 4.139062751517519e-02	 1.161762912970730e+00	-1.098226913894112e+01
1	 2.062418217437382e-02	 1.162317036401724e+00	-1.098970782112561e+01
1	 0.000000000000000e+00	 1.162500000000000e+00	-1.098837891505735e+01
1	 2.138065865844276e-01	 1.155383807906674e+00	-1.052123658800587e+01
1	 1.920117603922285e-01	 1.159205108641528e+00	-1.060713697495873e+01
1	 1.702803995903987e-01	 1.162596054326918e+00	-1.068287691992781e+01
1	 1.486238723094905e-01	 1.165562501367597e+00	-1.074854616755929e+01
1	 1.270531833494540e-01	 1.168110649129712e+00	-1.080424275385902e+01
1	 1.055789645105481e-01	 1.170247017624314e+00	-1.085007269438526e+01
1	 8.421146633826952e-02	 1.171978425117234e+00	-1.088614965928855e+01
1	 6.296055125270505e-02	 1.173311965756507e+00	-1.091259463665589e+01
1	 4.183568802701556e-02	 1.174254987303784e+00	-1.092953558563802e+01
1	 2.084594757461052e-02	 1.174815069051214e+00	-1.093710708084796e+01
1	 0.000000000000000e+00	 1.175000000000000e+00	-1.093544994951910e+01
1	 2.160811247399532e-01	 1.167675125012503e+00	-1.045546344668747e+01
1	 1.940544386952883e-01	 1.171537077882749e+00	-1.054550741410453e+01
1	 1.720918932045614e-01	 1.174964097458333e+00	-1.062487460752898e+01
1	 1.502049773358868e-01	 1.177962102446187e+00	-1.069365731883099e+01
1	 1.284048129615569e-01	 1.180537358163162e+00	-1.075195802112760e+01
1	 1.067021449860916e-01	 1.182696453982126e+00	-1.079988895489795e+01
1	 8.510733300334690e-02	 1.184446280703655e+00	-1.083757169731216e+01
1	 6.363034435277519e-02	 1.185794007945443e+00	-1.086513671705682e+01
1	 4.228074853916980e-02	 1.186747061636820e+00	-1.088272291693239e+01
1	 2.106771297502218e-02	 1.187313101700699e+00	-1.089047716647317e+01
1	 0.000000000000000e+00	 1.187500000000000e+00	-1.088855382680233e+01
1	 2.183556628955082e-01	 1.179966442117847e+00	-1.039549574007847e+01
1	 1.960971169985559e-01	 1.183869047123579e+00	-1.048962784853521e+01
1	 1.739033868190682e-01	 1.187332140589441e+00	-1.057258063147175e+01
1	 1.517860823627217e-01	 1.190361703524544e+00	-1.064444874531929e+01
1	 1.297564425741521e-01	 1.192964067196440e+00	-1.070533889228967e+01
1	 1.078253254621411e-01	 1.195145890339820e+00	-1.075536930596943e+01
1	 8.600319966890443e-02	 1.196914136290001e+00	-1.079466921652869e+01
1	 6.430013745326123e-02	 1.198276050134339e+00	-1.082337829864155e+01
1	 4.272580905163788e-02	 1.199239135969837e+00	-1.084164610518137e+01
1	 2.128947837560878e-02	 1.199811134350180e+00	-1.084963148969269e+01
1	 0.000000000000000e+00	 1.200000000000000e+00	-1.084750202056997e+01
1	 2.206302010510924e-01	 1.192257759222705e+00	-1.034115391865274e+01
1	 1.981397953020312e-01	 1.196201016364018e+00	-1.043932044334580e+01
1	 1.757148804339190e-01	 1.199700183720243e+00	-1.052581844527192e+01
1	 1.533671873899952e-01	 1.202761304602666e+00	-1.060074476840985e+01
1	 1.311080721872396e-01	 1.205390776229548e+00	-1.066421014248307e+01
1	 1.089485059386964e-01	 1.207595326697396e+00	-1.071633856954173e+01
1	 8.689906633494215e-02	 1.209381991876273e+00	-1.075726668659237e+01
1	 6.496993055416314e-02	 1.210758092323192e+00	-1.078714310817815e+01
1	 4.317086956441985e-02	 1.211731210302836e+00	-1.080612775274770e+01
1	 2.151124377637034e-02	 1.212309166999656e+00	-1.081439115656103e+01
1	 0.000000000000000e+00	 1.212500000000000e+00	-1.081211377876661e+01
1	 2.229047392067060e-01	 1.204549076327078e+00	-1.029226576143627e+01
1	 2.001824736057144e-01	 1.208532985604066e+00	-1.039441462219909e+01
1	 1.775263740491137e-01	 1.212068226850737e+00	-1.048441870842447e+01
1	 1.549482924177072e-01	 1.215160905680556e+00	-1.056237688004407e+01
1	 1.324597018008195e-01	 1.217817485262486e+00	-1.062840369888089e+01
1	 1.100716864157577e-01	 1.220044763054856e+00	-1.068262871768152e+01
1	 8.779493300146010e-02	 1.221849847462470e+00	-1.072519574166140e+01
1	 6.563972365548093e-02	 1.223240134512003e+00	-1.075626206726025e+01
1	 4.361593007751567e-02	 1.224223284635816e+00	-1.077599770271396e+01
1	 2.173300917730685e-02	 1.224807199649127e+00	-1.078458457492602e+01
1	 0.000000000000000e+00	 1.225000000000000e+00	-1.078221572697152e+01
1	 2.251792773623489e-01	 1.216840393430966e+00	-1.024866600587864e+01
1	 2.022251519096053e-01	 1.220864954843724e+00	-1.035474670073125e+01
1	 1.793378676646525e-01	 1.224436269980924e+00	-1.044821892246510e+01
1	 1.565293974458579e-01	 1.227560506758212e+00	-1.052918338056988e+01
1	 1.338113314148917e-01	 1.230244194295253e+00	-1.059775827947749e+01
1	 1.111948668933249e-01	 1.232494199412197e+00	-1.065407851146299e+01
1	 8.869079966845822e-02	 1.234317703048592e+00	-1.069829481855415e+01
1	 6.630951675721461e-02	 1.235722176700773e+00	-1.073057292893226e+01
1	 4.406099059092536e-02	 1.236715358968778e+00	-1.075109267318948e+01
1	 2.195477457841831e-02	 1.237305232298594e+00	-1.076004708565176e+01
1	 0.000000000000000e+00	 1.237500000000000e+00	-1.075764149579075e+01
1	 2.274538155180211e-01	 1.229131710534368e+00	-1.021019599993157e+01
1	 2.042678302137041e-01	 1.233196924082991e+00	-1.032015954195317e+01
1	 1.811493612805352e-01	 1.236804313110804e+00	-1.041706308886812e+01
1	 1.581105024744471e-01	 1.239960107835634e+00	-1.050100903832126e+01
1	 1.351629610294562e-01	 1.242670903327850e+00	-1.057211905354750e+01
1	 1.123180473713980e-01	 1.244943635769421e+00	-1.063053316151741e+01
1	 8.958666633593650e-02	 1.246785558634639e+00	-1.067640881661621e+01
1	 6.697930985936418e-02	 1.248204218889501e+00	-1.070991993611663e+01
1	 4.450605110464890e-02	 1.249207433301722e+00	-1.073125591355903e+01
1	 2.217653997970472e-02	 1.249803264948056e+00	-1.074062061596740e+01
1	 0.000000000000000e+00	 1.250000000000000e+00	-1.073823137060591e+01
1	 1.250000000000000e+00	 0.000000000000000e+00	 3.056717574861408e+00
1	 1.249803264948056e+00	 2.217653997970400e-02	 3.081980493963192e+00
1	 1.249207433301722e+00	 4.450605110464827e-02	 3.093042608870601e+00
1	 1.248204218889501e+00	 6.697930985936361e-02	 3.089655906014163e+00
1	 1.246785558634639e+00	 8.958666633593600e-02	 3.071594322508660e+00
1	 1.244943635769421e+00	 1.123180473713976e-01	 3.038655261179442e+00
1	 1.242670903327850e+00	 1.351629610294558e-01	 2.990661077872000e+00
1	 1.239960107835634e+00	 1.581105024744469e-01	 2.927460531314590e+00
1	 1.236804313110804e+00	 1.811493612805350e-01	 2.848930185480219e+00
1	 1.233196924082991e+00	 2.042678302137040e-01	 2.754975754139137e+00
1	 1.229131710534368e+00	 2.274538155180211e-01	 2.645533377113239e+00
1	 1.262500000000000e+00	 0.000000000000000e+00	 2.876786855821596e+00
1	 1.262301297597516e+00	 2.239830538099040e-02	 2.902676706690039e+00
1	 1.261699507634656e+00	 4.495111161837182e-02	 2.914762027830136e+00
1	 1.260686261078208e+00	 6.764910296151318e-02	 2.912794997137645e+00
1	 1.259253414220649e+00	 9.048253300341427e-02	 2.896548993670165e+00
1	 1.257393072126586e+00	 1.134412278494708e-01	 2.865820091664985e+00
1	 1.255097612360361e+00	 1.365145906440204e-01	 2.820428529228182e+00
1	 1.252359708912939e+00	 1.596916075030361e-01	 2.760220142186917e+00
1	 1.249172356240532e+00	 1.829608548964178e-01	 2.685067753267433e+00
1	 1.245528893322062e+00	 2.063105085178028e-01	 2.594872506497326e+00
1	 1.241423027637528e+00	 2.297283536736933e-01	 2.489565136540326e+00
1	 1.275000000000000e+00	 0.000000000000000e+00	 2.708690708381500e+00
1	 1.274799330246976e+00	 2.262007078210185e-02	 2.735126188261746e+00
1	 1.274191581967590e+00	 4.539617213178149e-02	 2.748149645488383e+00
1	 1.273168303266915e+00	 6.831889606324687e-02	 2.747513498139986e+00
1	 1.271721269806660e+00	 9.137839967041235e-02	 2.732990625767223e+00
1	 1.269842508483751e+00	 1.145644083270380e-01	 2.704375842625923e+00
1	 1.267524321392873e+00	 1.378662202580925e-01	 2.661487347937296e+00
1	 1.264759309990245e+00	 1.612727125311867e-01	 2.604168143886457e+00
1	 1.261540399370259e+00	 1.847723485119565e-01	 2.532287411735011e+00
1	 1.257860862561133e+00	 2.083531868216938e-01	 2.445741836151277e+00
1	 1.253714344740687e+00	 2.320028918293363e-01	 2.344456867660387e+00
1	 1.287500000000000e+00	 0.000000000000000e+00	 2.552084436273472e+00
1	 1.287297362896436e+00	 2.284183618303835e-02	 2.578986610453514e+00
1	 1.286683656300524e+00	 4.584123264487731e-02	 2.592865611393237e+00
1	 1.285650345455622e+00	 6.898868916456465e-02	 2.593474144652676e+00
1	 1.284189125392670e+00	 9.227426633693030e-02	 2.580584647120416e+00
1	 1.282291944840916e+00	 1.156875888040993e-01	 2.553990739679206e+00
1	 1.279951030425384e+00	 1.392178498716724e-01	 2.513508659223190e+00
1	 1.277158911067551e+00	 1.628538175588988e-01	 2.458978660954659e+00
1	 1.273908442499985e+00	 1.865838421271512e-01	 2.390266381546443e+00
1	 1.270192831800205e+00	 2.103958651253769e-01	 2.307264153475890e+00
1	 1.266005661843847e+00	 2.342774299849499e-01	 2.209892260624271e+00
1	 1.300000000000000e+00	 0.000000000000000e+00	 2.406636600779277e+00
1	 1.299795395545896e+00	 2.306360158379989e-02	 2.433928811511256e+00
1	 1.299175730633459e+00	 4.628629315765927e-02	 2.448583146264233e+00
1	 1.298132387644330e+00	 6.965848226546656e-02	 2.450352644013948e+00
1	 1.296656980978680e+00	 9.317013300296803e-02	 2.439009354192013e+00
1	 1.294741381198081e+00	 1.168107692806546e-01	 2.414345768995014e+00
1	 1.292377739457895e+00	 1.405694794847599e-01	 2.376176237339457e+00
1	 1.289558512144857e+00	 1.644349225861723e-01	 2.324338351604238e+00
1	 1.286276485629712e+00	 1.883953357420020e-01	 2.258694297954759e+00
1	 1.282524801039276e+00	 2.124385434288523e-01	 2.179132160754287e+00
1	 1.278296978947007e+00	 2.365519681405341e-01	 2.085567171345682e+00
1	 1.312500000000000e+00	 0.000000000000000e+00	 2.272028389418185e+00
1	 1.312293428195356e+00	 2.328536698438650e-02	 2.299636169176769e+00
1	 1.311667804966393e+00	 4.673135367012735e-02	 2.314987919555779e+00
1	 1.310614429833036e+00	 7.032827536595254e-02	 2.317837057568452e+00
1	 1.309124836564690e+00	 9.406599966852559e-02	 2.307955298817258e+00
1	 1.307190817555246e+00	 1.179339497567040e-01	 2.285134069651344e+00
1	 1.304804448490407e+00	 1.419211090973551e-01	 2.249185903234698e+00
1	 1.301958113222162e+00	 1.660160276130072e-01	 2.199945810877685e+00
1	 1.298644528759440e+00	 1.902068293565088e-01	 2.137272619631582e+00
1	 1.294856770278347e+00	 2.144812217321199e-01	 2.061050266848835e+00
1	 1.290588296050166e+00	 2.388265062960890e-01	 1.971189042179179e+00
1	 1.325000000000000e+00	 0.000000000000000e+00	 2.147953020369696e+00
1	 1.324791460844817e+00	 2.350713238479816e-02	 2.175804009202072e+00
1	 1.324159879299327e+00	 4.717641418228159e-02	 2.191777462252651e+00
1	 1.323096472021744e+00	 7.099806846602269e-02	 2.195627217931113e+00
1	 1.321592692150699e+00	 9.496186633360294e-02	 2.187124710120785e+00
1	 1.319640253912411e+00	 1.190571302322476e-01	 2.166060360383655e+00
1	 1.317231157522919e+00	 1.432727387094580e-01	 2.132244956312190e+00
1	 1.314357714299468e+00	 1.675971326394035e-01	 2.085511007589275e+00
1	 1.311012571889166e+00	 1.920183229706716e-01	 2.025714070958742e+00
1	 1.307188739517419e+00	 2.165239000351796e-01	 1.952734035004059e+00
1	 1.302879613153326e+00	 2.411010444516146e-01	 1.866476355389955e+00
1	 1.337500000000000e+00	 0.000000000000000e+00	 2.034115180293139e+00
1	 1.337289493494276e+00	 2.372889778503485e-02	 2.062139047031137e+00
1	 1.336651953632262e+00	 4.762147469412194e-02	 2.078660612592880e+00
1	 1.335578514210450e+00	 7.166786156567692e-02	 2.083434178927718e+00
1	 1.334060547736709e+00	 9.585773299820013e-02	 2.076230948848842e+00
1	 1.332089690269576e+00	 1.201803107072851e-01	 2.056840398479363e+00
1	 1.329657866555430e+00	 1.446243683210686e-01	 2.025071638053516e+00
1	 1.326757315376773e+00	 1.691782376653612e-01	 1.980754752840429e+00
1	 1.323380615018894e+00	 1.938298165844904e-01	 1.923742115593241e+00
1	 1.319520708756490e+00	 2.185665783380315e-01	 1.853909661613833e+00
1	 1.315170930256486e+00	 2.433755826071108e-01	 1.771158117270208e+00
1	 1.350000000000000e+00	 0.000000000000000e+00	 1.930230493379496e+00
1	 1.349787526143736e+00	 2.395066318509660e-02	 1.958358860499321e+00
1	 1.349144027965196e+00	 4.806653520564843e-02	 1.975356992583763e+00
1	 1.348060556399157e+00	 7.233765466491528e-02	 1.980979696094443e+00
1	 1.346528403322719e+00	 9.675359966231714e-02	 1.974997992016459e+00
1	 1.344539126626741e+00	 1.213034911818168e-01	 1.957200468733767e+00
1	 1.342084575587941e+00	 1.459759979321868e-01	 1.927394625440853e+00
1	 1.339156916454079e+00	 1.707593426908803e-01	 1.885408198061950e+00
1	 1.335748658148621e+00	 1.956413101979651e-01	 1.831090459278579e+00
1	 1.331852677995562e+00	 2.206092566406757e-01	 1.764313483945970e+00
1	 1.327462247359646e+00	 2.456501207625777e-01	 1.684973370915667e+00
1	 1.362500000000000e+00	 0.000000000000000e+00	 1.836025019629746e+00
1	 1.362285558793196e+00	 2.417242858498341e-02	 1.864191391558508e+00
1	 1.361636102298130e+00	 4.851159571686106e-02	 1.881596513333559e+00
1	 1.360542598587865e+00	 7.300744776373773e-02	 1.887995735773673e+00
1	 1.358996258908729e+00	 9.764946632595396e-02	 1.883159945922635e+00
1	 1.356988562983906e+00	 1.224266716558425e-01	 1.866876900536864e+00
1	 1.354511284620453e+00	 1.473276275428128e-01	 1.838952552264299e+00
1	 1.351556517531384e+00	 1.723404477159608e-01	 1.799212360687021e+00
1	 1.348116701278348e+00	 1.974528038110959e-01	 1.747502580024289e+00
1	 1.344184647234633e+00	 2.226519349431120e-01	 1.683691514964540e+00
1	 1.339753564462805e+00	 2.479246589180152e-01	 1.607670735821794e+00
1	 1.375000000000000e+00	 0.000000000000000e+00	 1.751234780499844e+00
1	 1.374783591442656e+00	 2.439419398469526e-02	 1.779374475180885e+00
1	 1.374128176631064e+00	 4.895665622775984e-02	 1.797118907365044e+00
1	 1.373024640776572e+00	 7.367724086214431e-02	 1.804224010986447e+00
1	 1.371464114494739e+00	 9.854533298911061e-02	 1.800460585728311e+00
1	 1.369437999341071e+00	 1.235498521293624e-01	 1.785615611300843e+00
1	 1.366937993652964e+00	 1.486792571529464e-01	 1.759493556539694e+00
1	 1.363956118608690e+00	 1.739215527406027e-01	 1.721917675696552e+00
1	 1.360484744408075e+00	 1.992642974238827e-01	 1.672731283912056e+00
1	 1.356516616473704e+00	 2.246946132453406e-01	 1.611799003525499e+00
1	 1.352044881565965e+00	 2.501991970734234e-01	 1.539007972592905e+00
1	 1.229131710534368e+00	 2.274538155180211e-01	 2.645533377113239e+00
1	 1.224602830660197e+00	 2.506948487310240e-01	 2.579177219443817e+00
1	 1.219604854344699e+00	 2.739781000458331e-01	 2.497584466540028e+00
1	 1.214132786041956e+00	 2.972903932297759e-01	 2.400866562939139e+00
1	 1.208182087148427e+00	 3.206182221012702e-01	 2.289172328234523e+00
1	 1.201748697753769e+00	 3.439477685578606e-01	 2.162688468118384e+00
1	 1.194829057653032e+00	 3.672649221392482e-01	 2.021639929504490e+00
1	 1.187420126502869e+00	 3.905553010997262e-01	 1.866290091365318e+00
1	 1.179519403004286e+00	 4.138042749547273e-01	 1.696940783798192e+00
1	 1.171124942995283e+00	 4.369969884562962e-01	 1.513932128831169e+00
1	 1.162235376338345e+00	 4.601183869422883e-01	 1.317642197585492e+00
1	 1.241423027637528e+00	 2.297283536736933e-01	 2.489565136540326e+00
1	 1.236848858964224e+00	 2.532017972172809e-01	 2.428610938461957e+00
1	 1.231800902885296e+00	 2.767178810439017e-01	 2.352784794252727e+00
1	 1.226274113899371e+00	 3.002632971585613e-01	 2.262174227243548e+00
1	 1.220263908016873e+00	 3.238244043178657e-01	 2.156902816009035e+00
1	 1.213766184728358e+00	 3.473872462383388e-01	 2.037130764191878e+00
1	 1.206777348226831e+00	 3.709375713550829e-01	 1.903055322628385e+00
1	 1.199294327765508e+00	 3.944608541049375e-01	 1.754911055325044e+00
1	 1.191314597032411e+00	 4.179423176984929e-01	 1.592969941647859e+00
1	 1.182836192423920e+00	 4.413669583353181e-01	 1.417541308011855e+00
1	 1.173857730101146e+00	 4.647195708066494e-01	 1.228971583393031e+00
1	 1.253714344740687e+00	 2.320028918293363e-01	 2.344456867660387e+00
1	 1.249094887268250e+00	 2.557087457036991e-01	 2.288642607050633e+00
1	 1.243996951425893e+00	 2.794576620423040e-01	 2.218317358136586e+00
1	 1.238415441756786e+00	 3.032362010878337e-01	 2.133545110512567e+00
1	 1.232345728885320e+00	 3.270305865350823e-01	 2.034424607138994e+00
1	 1.225783671702949e+00	 3.508267239195527e-01	 1.921089972173117e+00
1	 1.218725638800629e+00	 3.746102205717475e-01	 1.793711199214980e+00
1	 1.211168529028148e+00	 3.983664071110527e-01	 1.652494491434489e+00
1	 1.203109791060537e+00	 4.220803604432159e-01	 1.497682445790119e+00
1	 1.194547441852557e+00	 4.457369282153292e-01	 1.329554074405686e+00
1	 1.185480083863948e+00	 4.693207546720106e-01	 1.148424657136130e+00
1	 1.266005661843847e+00	 2.342774299849499e-01	 2.209892260624271e+00
1	 1.261340915572276e+00	 2.582156941902787e-01	 2.158963547072135e+00
1	 1.256192999966490e+00	 2.821974430410401e-01	 2.093881219278280e+00
1	 1.250556769614201e+00	 3.062091050175934e-01	 2.014686109284695e+00
1	 1.244427549753766e+00	 3.302367687529200e-01	 1.921452518034265e+00
1	 1.237801158677538e+00	 3.542662016015020e-01	 1.814288900455204e+00
1	 1.230673929374427e+00	 3.782828697892420e-01	 1.693338418970685e+00
1	 1.223042730290788e+00	 4.022719601180717e-01	 1.558779356816410e+00
1	 1.214904985088662e+00	 4.262184031888958e-01	 1.410825383226585e+00
1	 1.206258691281194e+00	 4.501068980963296e-01	 1.249725663336559e+00
1	 1.197102437626749e+00	 4.739219385383718e-01	 1.075764806544455e+00
1	 1.278296978947007e+00	 2.365519681405341e-01	 2.085567171345682e+00
1	 1.273586943876303e+00	 2.607226426770197e-01	 2.039276952624312e+00
1	 1.268389048507087e+00	 2.849372240401096e-01	 1.979187013337638e+00
1	 1.262698097471615e+00	 3.091820089478399e-01	 1.905315393308133e+00
1	 1.256509370622212e+00	 3.334429509713790e-01	 1.817712333704055e+00
1	 1.249818645652128e+00	 3.577056792841868e-01	 1.716461018646660e+00
1	 1.242622219948226e+00	 3.819555190075664e-01	 1.601678193151514e+00
1	 1.234916931553427e+00	 4.061775131259946e-01	 1.473514648704090e+00
1	 1.226700179116788e+00	 4.303564459355328e-01	 1.332155568381796e+00
1	 1.217969940709831e+00	 4.544768679783192e-01	 1.177820724154319e+00
1	 1.208724791389550e+00	 4.785231224057330e-01	 1.010764519819656e+00
1	 1.290588296050166e+00	 2.388265062960890e-01	 1.971189042179179e+00
1	 1.285832972180329e+00	 2.632295911639221e-01	 1.929297324696051e+00
1	 1.280585097047684e+00	 2.876770050395130e-01	 1.873956399377532e+00
1	 1.274839425329030e+00	 3.121549128785735e-01	 1.805161868721286e+00
1	 1.268591191490658e+00	 3.366491331904589e-01	 1.722940285442644e+00
1	 1.261836132626718e+00	 3.611451569676073e-01	 1.627349949894505e+00
1	 1.254570510522024e+00	 3.856281682267207e-01	 1.518481591632093e+00
1	 1.246791132816067e+00	 4.100830661348213e-01	 1.396458926340852e+00
1	 1.238495373144913e+00	 4.344944886831269e-01	 1.261439079892594e+00
1	 1.229681190138469e+00	 4.588468378612980e-01	 1.113612871947844e+00
1	 1.220347145152352e+00	 4.831243062740942e-01	 9.532049522795051e-01
1	 1.302879613153326e+00	 2.411010444516146e-01	 1.866476355389955e+00
1	 1.298079000484355e+00	 2.657365396509859e-01	 1.828749937823397e+00
1	 1.292781145588281e+00	 2.904167860392501e-01	 1.777921539892039e+00
1	 1.286980753186445e+00	 3.151278168097941e-01	 1.713964671619271e+00
1	 1.280673012359105e+00	 3.398553154101601e-01	 1.636882558080111e+00
1	 1.273853619601308e+00	 3.645846346517633e-01	 1.546708991943772e+00
1	 1.266518801095822e+00	 3.893008174467049e-01	 1.443509077876542e+00
1	 1.258665334078706e+00	 4.139886191445518e-01	 1.327379859941859e+00
1	 1.250290567173038e+00	 4.386325314316781e-01	 1.198450823617038e+00
1	 1.241392439567106e+00	 4.632168077452660e-01	 1.056884264632837e+00
1	 1.231969498915152e+00	 4.877254901434555e-01	 9.028755175316722e-01
1	 1.315170930256486e+00	 2.433755826071108e-01	 1.771158117270208e+00
1	 1.310325028788382e+00	 2.682434881382111e-01	 1.737370336652770e+00
1	 1.304977194128878e+00	 2.931565670393207e-01	 1.690824609991911e+00
1	 1.299122081043860e+00	 3.181007207415019e-01	 1.631472690018582e+00
1	 1.292754833227551e+00	 3.430614976304824e-01	 1.559294824863848e+00
1	 1.285871106575899e+00	 3.680241123366550e-01	 1.474300665053489e+00
1	 1.278467091669621e+00	 3.929734666675191e-01	 1.376530069985679e+00
1	 1.270539535341346e+00	 4.178941721551863e-01	 1.266053804947753e+00
1	 1.262085761201164e+00	 4.427705741811864e-01	 1.142974120147361e+00
1	 1.253103688995743e+00	 4.675867776302233e-01	 1.007425203754256e+00
1	 1.243591852677954e+00	 4.923266740138165e-01	 8.595735015723518e-01
1	 1.327462247359646e+00	 2.456501207625777e-01	 1.684973370915667e+00
1	 1.322571057092408e+00	 2.707504366255978e-01	 1.654903860472928e+00
1	 1.317173242669475e+00	 2.958963480397251e-01	 1.612417333857543e+00
1	 1.311263408901274e+00	 3.210736246736966e-01	 1.557444112379265e+00
1	 1.304836654095997e+00	 3.462676798514259e-01	 1.489941808179998e+00
1	 1.297888593550488e+00	 3.714635900222821e-01	 1.409896285028470e+00
1	 1.290415382243419e+00	 3.966461158891632e-01	 1.317322526130512e+00
1	 1.282413736603985e+00	 4.217997251667246e-01	 1.212265399930923e+00
1	 1.273880955229289e+00	 4.469086169316517e-01	 1.094800315239010e+00
1	 1.264814938424380e+00	 4.719567475161698e-01	 9.650337574665107e-01
1	 1.255214206440755e+00	 4.969278578851778e-01	 8.231036983237927e-01
1	 1.339753564462805e+00	 2.479246589180152e-01	 1.607670735821794e+00
1	 1.334817085396434e+00	 2.732573851131458e-01	 1.581105193919453e+00
1	 1.329369291210072e+00	 2.986361290404630e-01	 1.542460546708256e+00
1	 1.323404736758689e+00	 3.240465286063783e-01	 1.491646000979066e+00
1	 1.316918474964443e+00	 3.494738620729904e-01	 1.428596864455357e+00
1	 1.309906080525078e+00	 3.749030677086448e-01	 1.353275559753890e+00
1	 1.302363672817217e+00	 4.003187651116372e-01	 1.265672552805916e+00
1	 1.294287937866625e+00	 4.257052781791670e-01	 1.165807186635287e+00
1	 1.285676149257414e+00	 4.510466596830741e-01	 1.053728411683853e+00
1	 1.276526187853017e+00	 4.763267174031054e-01	 9.295154042669220e-01
1	 1.266836560203556e+00	 5.015290417575390e-01	 7.932780652340550e-01
1	 1.352044881565965e+00	 2.501991970734234e-01	 1.539007972592905e+00
1	 1.347063113700461e+00	 2.757643336008552e-01	 1.515737942186284e+00
1	 1.341565339750669e+00	 3.013759100415347e-01	 1.480723780664186e+00
1	 1.335546064616104e+00	 3.270194325395472e-01	 1.433853888558109e+00
1	 1.329000295832889e+00	 3.526800442951761e-01	 1.375041591700991e+00
1	 1.321923567499668e+00	 3.783425453957430e-01	 1.304226207737128e+00
1	 1.314311963391016e+00	 4.039914143349411e-01	 1.221374034452274e+00
1	 1.306162139129264e+00	 4.296108311925129e-01	 1.126479250741288e+00
1	 1.297471343285539e+00	 4.551847024354536e-01	 1.019564721263092e+00
1	 1.288237437281654e+00	 4.806966872910303e-01	 9.006826961619889e-01
1	 1.278458913966357e+00	 5.061302256309002e-01	 7.699153976621707e-01
1	 1.162235376338345e+00	 4.601183869422883e-01	 1.317642197585492e+00
1	 1.152849922490885e+00	 4.831532429944503e-01	 1.149036114052226e+00
1	 1.142968404648257e+00	 5.060861843290319e-01	 9.681048711442173e-01
1	 1.132591262356013e+00	 5.289017228355558e-01	 7.754024524282827e-01
1	 1.121719562493458e+00	 5.515842846700590e-01	 5.715198974208040e-01
1	 1.110355008534519e+00	 5.741182412978676e-01	 3.570837407886422e-01
1	 1.098499948001281e+00	 5.964879413737912e-01	 1.327542435544694e-01
1	 1.086157378033213e+00	 6.186777433390787e-01	-1.007765777226331e-01
1	 1.073330949004241e+00	 6.406720486069893e-01	-3.427871160236581e-01
1	 1.060024966129602e+00	 6.624553352020790e-01	-5.925285236589076e-01
1	 1.046244389015035e+00	 6.840121917124017e-01	-8.492272354938594e-01
1	 1.173857730101146e+00	 4.647195708066494e-01	 1.228971583393031e+00
1	 1.164378421715943e+00	 4.879847754199314e-01	 1.068915491530366e+00
1	 1.154398088695481e+00	 5.111470461684536e-01	 8.966812393488608e-01
1	 1.143917174980766e+00	 5.341907400606339e-01	 7.127779017817127e-01
1	 1.132936758119894e+00	 5.571001275140689e-01	 5.177507378549336e-01
1	 1.121458558621532e+00	 5.798594237087382e-01	 3.121797954694987e-01
1	 1.109484947482980e+00	 6.024528207859984e-01	 9.667831575040597e-02
1	 1.097018951815104e+00	 6.248645207715108e-01	-1.281090579941065e-01
1	 1.084064258495567e+00	 6.470787690926668e-01	-3.615082599447122e-01
1	 1.070625215791757e+00	 6.690798885542671e-01	-6.028179616155790e-01
1	 1.056706832905469e+00	 6.908523136302467e-01	-8.513119017448456e-01
1	 1.185480083863948e+00	 4.693207546720106e-01	 1.148424657136130e+00
1	 1.175906920941005e+00	 4.928163078464028e-01	 9.965385158871294e-01
1	 1.165827772742723e+00	 5.162079080088365e-01	 8.326202636236377e-01
1	 1.155243087605563e+00	 5.394797572866247e-01	 6.571347520494777e-01
1	 1.144153953746409e+00	 5.626159703589233e-01	 4.705821577749326e-01
1	 1.132562108708666e+00	 5.856006061203647e-01	 2.734967505166714e-01
1	 1.120469946964856e+00	 6.084177001988529e-01	 6.644546832410209e-02
1	 1.107880525597237e+00	 6.310512982044613e-01	-1.499736960407455e-01
1	 1.094797567987208e+00	 6.534854895787139e-01	-3.751334918091606e-01
1	 1.081225465454313e+00	 6.757044419066560e-01	-6.083793826092754e-01
1	 1.067169276796399e+00	 6.976924355481020e-01	-8.490316855778764e-01
1	 1.197102437626749e+00	 4.739219385383718e-01	 1.075764806544455e+00
1	 1.187435420166073e+00	 4.976478402738645e-01	 9.316796440087757e-01
1	 1.177257456789986e+00	 5.212687698501810e-01	 7.757074976740157e-01
1	 1.166569000230403e+00	 5.447687745135282e-01	 6.082696614557782e-01
1	 1.155371149373001e+00	 5.681318132046219e-01	 4.298219072909613e-01
1	 1.143665658795923e+00	 5.913417885327469e-01	 2.408534146551339e-01
1	 1.131454946446909e+00	 6.143825796123552e-01	 4.188551446600675e-02
1	 1.118742099379610e+00	 6.372380756379310e-01	-1.665297494057560e-01
1	 1.105530877479165e+00	 6.598922100651305e-01	-3.838112362427321e-01
1	 1.091825715117267e+00	 6.823289952592448e-01	-6.093504958747928e-01
1	 1.077631720687823e+00	 7.045325574659680e-01	-8.425137194935148e-01
1	 1.208724791389550e+00	 4.785231224057330e-01	 1.010764519819656e+00
1	 1.198963919391144e+00	 5.024793727023167e-01	 8.741220075167156e-01
1	 1.188687140837268e+00	 5.263296316924868e-01	 7.257367431399795e-01
1	 1.177894912855287e+00	 5.500577917413444e-01	 5.659871090624885e-01
1	 1.166588344999672e+00	 5.736476560511649e-01	 3.952851307398112e-01
1	 1.154769208883302e+00	 5.970829709458854e-01	 2.140755655052370e-01
1	 1.142439945929137e+00	 6.203474590265043e-01	 2.283481301324702e-02
1	 1.129603673162223e+00	 6.434248530719191e-01	-1.779303503419365e-01
1	 1.116264186971437e+00	 6.662989305519170e-01	-3.876842092316048e-01
1	 1.102425964780622e+00	 6.889535486120343e-01	-6.058637141376739e-01
1	 1.088094164579742e+00	 7.113726793838446e-01	-8.318802462805053e-01
1	 1.220347145152352e+00	 4.831243062740942e-01	 9.532049522795051e-01
1	 1.210492418616221e+00	 5.073109051317592e-01	 8.236569996849374e-01
1	 1.200116824884569e+00	 5.313904935357540e-01	 6.825096568371817e-01
1	 1.189220825480215e+00	 5.553468089700732e-01	 5.300990223482405e-01
1	 1.177805540626420e+00	 5.791634988985520e-01	 3.667940145789545e-01
1	 1.165872758970802e+00	 6.028241533597791e-01	 1.929956177305112e-01
1	 1.153424945411542e+00	 6.263123384413013e-01	 9.135956752199692e-03
1	 1.140465246945077e+00	 6.496116305064259e-01	-1.843227974923698e-01
1	 1.126997496464023e+00	 6.727056510390734e-01	-3.868896899622047e-01
1	 1.113026214444376e+00	 6.955781019650239e-01	-5.980464058289852e-01
1	 1.098556608472156e+00	 7.182128013017320e-01	-8.172488518592411e-01
1	 1.231969498915152e+00	 4.877254901434555e-01	 9.028755175316722e-01
1	 1.222020917841303e+00	 5.121424375621921e-01	 7.800838857394008e-01
1	 1.211546508931890e+00	 5.364513553799823e-01	 6.458353802298297e-01
1	 1.200546738105186e+00	 5.606358261997149e-01	 5.004244258680527e-01
1	 1.189022736253246e+00	 5.846793417467834e-01	 3.441774552109402e-01
1	 1.176976309058426e+00	 6.085653357744293e-01	 1.774523099695780e-01
1	 1.164409944894123e+00	 6.322772178567456e-01	 6.374783642494330e-04
1	 1.151326820728172e+00	 6.557984079414517e-01	-1.858488310605049e-01
1	 1.137730805956926e+00	 6.791123715265995e-01	-3.815597772741561e-01
1	 1.123626464108531e+00	 7.022026553182141e-01	-5.860211330236949e-01
1	 1.109019052365064e+00	 7.250529232196299e-01	-7.987326849454013e-01
1	 1.243591852677954e+00	 4.923266740138165e-01	 8.595735015723518e-01
1	 1.233549417066389e+00	 5.169739699936152e-01	 7.432094350098045e-01
1	 1.222976192979229e+00	 5.415122172251722e-01	 6.155301896807359e-01
1	 1.211872650730201e+00	 5.659248434302693e-01	 4.767891096142473e-01
1	 1.200239931880150e+00	 5.901951845958592e-01	 3.272707454346139e-01
1	 1.188079859146171e+00	 6.143065181898351e-01	 1.672904093233150e-01
1	 1.175394944376881e+00	 6.382420972728371e-01	-2.806427139408596e-03
1	 1.162188394511508e+00	 6.619851853769962e-01	-1.826448925505135e-01
1	 1.148464115450142e+00	 6.855190920144951e-01	-3.718216317325211e-01
1	 1.134226713773085e+00	 7.088272086716045e-01	-5.699058760367527e-01
1	 1.119481496258467e+00	 7.318930451375384e-01	-7.764406643959120e-01
1	 1.255214206440755e+00	 4.969278578851778e-01	 8.231036983237927e-01
1	 1.245077916291481e+00	 5.218055024260289e-01	 7.128475735173669e-01
1	 1.234405877026588e+00	 5.465730790713230e-01	 5.914171661319076e-01
1	 1.223198563355260e+00	 5.712138606617362e-01	 4.590253158017133e-01
1	 1.211457127507132e+00	 5.957110274457791e-01	 3.159152783156571e-01
1	 1.199183409234037e+00	 6.200477006059969e-01	 1.623604322593613e-01
1	 1.186379943859815e+00	 6.442069766895762e-01	-1.336164562647679e-03
1	 1.173049968295084e+00	 6.681719628130592e-01	-1.748423700772921e-01
1	 1.159197424943675e+00	 6.919258125027606e-01	-3.577977042516335e-01
1	 1.144826963438039e+00	 7.154517620251954e-01	-5.498142455416866e-01
1	 1.129943940152365e+00	 7.387331670554576e-01	-7.504776750358222e-01
1	 1.266836560203556e+00	 5.015290417575390e-01	 7.932780652340550e-01
1	 1.256606415516577e+00	 5.266370348594331e-01	 6.888190556862417e-01
1	 1.245835561073966e+00	 5.516339409184358e-01	 5.733258829679362e-01
1	 1.234524475980362e+00	 5.765028778941159e-01	 4.469714428944371e-01
1	 1.222674323134192e+00	 6.012268702965434e-01	 3.099582673577941e-01
1	 1.210286959322027e+00	 6.257888830229146e-01	 1.625183808796842e-01
1	 1.197364943342925e+00	 6.501718561069625e-01	 4.913013760635021e-03
1	 1.183911542078901e+00	 6.743587402496409e-01	-1.625678301734767e-01
1	 1.169930734437522e+00	 6.983325329913959e-01	-3.396059521341463e-01
1	 1.155427213103392e+00	 7.220763153789866e-01	-5.258556830127931e-01
1	 1.140406384046757e+00	 7.455732889733871e-01	-7.209447527055828e-01
1	 1.278458913966357e+00	 5.061302256309002e-01	 7.699153976621707e-01
1	 1.268134914741677e+00	 5.314685672938273e-01	 6.709511539615568e-01
1	 1.257265245121364e+00	 5.566948027665093e-01	 5.610921109049174e-01
1	 1.245850388605507e+00	 5.817918951274083e-01	 4.404717657759725e-01
1	 1.233891518761329e+00	 6.067427131481519e-01	 3.092524819374323e-01
1	 1.221390509410137e+00	 6.315300654405880e-01	 1.676254935735665e-01
1	 1.208349942826211e+00	 6.561367355249965e-01	 1.581077376337103e-02
1	 1.194773115862958e+00	 6.805455176867415e-01	-1.459432369521260e-01
1	 1.180664043931685e+00	 7.047392534804008e-01	-3.173600433260928e-01
1	 1.166027462769146e+00	 7.287008687329783e-01	-4.981356502342834e-01
1	 1.150868827941644e+00	 7.524134108913275e-01	-6.879392592149369e-01
1	 1.046244389015035e+00	 6.840121917124017e-01	-8.492272354938594e-01
1	 1.031994829112001e+00	 7.053273514082546e-01	-1.104969128627153e+00
1	 1.017282545054521e+00	 7.263857263794559e-01	-1.366510412910489e+00
1	 1.002114435865165e+00	 7.471724415374245e-01	-1.633004212351248e+00
1	 9.864980320304253e-01	 7.676728683263137e-01	-1.903586669847990e+00
1	 9.704414844585151e-01	 7.878726579898537e-01	-2.177380154938638e+00
1	 9.539535513453987e-01	 8.077577742387658e-01	-2.453496568869915e+00
1	 9.370435829877606e-01	 8.273145251659155e-01	-2.731040726450121e+00
1	 9.197215045943361e-01	 8.465295942593203e-01	-3.009113793299600e+00
1	 9.019977971594894e-01	 8.653900703672559e-01	-3.286816756475269e+00
1	 8.838834764750000e-01	 8.838834764750000e-01	-3.563253906021260e+00
1	 1.056706832905469e+00	 6.908523136302467e-01	-8.513119017448456e-01
1	 1.042314777402819e+00	 7.123806249235496e-01	-1.098898917282312e+00
1	 1.027455370504306e+00	 7.336495836448358e-01	-1.352419987613138e+00
1	 1.012135580222726e+00	 7.546441659546386e-01	-1.611076042195613e+00
1	 9.963630123494379e-01	 7.753495970115514e-01	-1.874050734022279e+00
1	 9.801458993017382e-01	 7.957513845717418e-01	-2.140513451155615e+00
1	 9.634930868575512e-01	 8.158353519830368e-01	-2.409622426115607e+00
1	 9.464140188165280e-01	 8.355876704192311e-01	-2.680527923885824e+00
1	 9.289187196394912e-01	 8.549948902032221e-01	-2.952375488457699e+00
1	 9.110177751307498e-01	 8.740439710717682e-01	-3.224309227180600e+00
1	 8.927223112400001e-01	 8.927223112400001e-01	-3.495475111734645e+00
1	 1.067169276796399e+00	 6.976924355481020e-01	-8.490316855778764e-01
1	 1.052634725694217e+00	 7.194338984386744e-01	-1.088843100844047e+00
1	 1.037628195954726e+00	 7.409134409099047e-01	-1.334720724487427e+00
1	 1.022156724580948e+00	 7.621158903714401e-01	-1.585912558128230e+00
1	 1.006227992669108e+00	 7.830263256963153e-01	-1.841649034023464e+00
1	 9.898503141455847e-01	 8.036301111531332e-01	-2.101145833019000e+00
1	 9.730326223702622e-01	 8.239129297268302e-01	-2.363606800886289e+00
1	 9.557844546457592e-01	 8.438608156721282e-01	-2.628226945099041e+00
1	 9.381159346849866e-01	 8.634601861468045e-01	-2.894195493258228e+00
1	 9.200377531021950e-01	 8.826978717761008e-01	-3.160698993707345e+00
1	 9.015611460049998e-01	 9.015611460049998e-01	-3.426924438403973e+00
1	 1.077631720687823e+00	 7.045325574659680e-01	-8.425137194935148e-01
1	 1.062954673986195e+00	 7.264871719536292e-01	-1.074917764899513e+00
1	 1.047801021405781e+00	 7.481772981746628e-01	-1.313517735315794e+00
1	 1.032177868939832e+00	 7.695876147878290e-01	-1.557607992593291e+00
1	 1.016092972989436e+00	 7.907030543806040e-01	-1.806465038710446e+00
1	 9.995547289900544e-01	 8.115088377340292e-01	-2.059350142693377e+00
1	 9.825721578835327e-01	 8.319905074701464e-01	-2.315512066456403e+00
1	 9.651548904754556e-01	 8.521339609246066e-01	-2.574189872890514e+00
1	 9.473131497308213e-01	 8.719254820900676e-01	-2.834615798680350e+00
1	 9.290577310738252e-01	 8.913517724802531e-01	-3.096018173650652e+00
1	 9.103999807700000e-01	 9.103999807700000e-01	-3.357624367940794e+00
1	 1.088094164579742e+00	 7.113726793838446e-01	-8.318802462805053e-01
1	 1.073274622278753e+00	 7.335404454684142e-01	-1.057234530205440e+00
1	 1.057973846857473e+00	 7.554411554391099e-01	-1.288912089119645e+00
1	 1.042199013299377e+00	 7.770593392038053e-01	-1.526252953710170e+00
1	 1.025957953310421e+00	 7.983797830644190e-01	-1.768579006601389e+00
1	 1.009259143835148e+00	 8.193875643144291e-01	-2.015196420721610e+00
1	 9.921116933973619e-01	 8.400680852129850e-01	-2.265398197128356e+00
1	 9.745253263056164e-01	 8.604071061766666e-01	-2.518466786876359e+00
1	 9.565103647769959e-01	 8.803907780330110e-01	-2.773676780665636e+00
1	 9.380777090456406e-01	 9.000056731842258e-01	-3.030297649313629e+00
1	 9.192388155350000e-01	 9.192388155350000e-01	-3.287596517567847e+00
1	 1.098556608472156e+00	 7.182128013017320e-01	-8.172488518592411e-01
1	 1.083594570571891e+00	 7.405937189830295e-01	-1.035900765299071e+00
1	 1.068146672309800e+00	 7.627050127032456e-01	-1.261001004671888e+00
1	 1.052220157659584e+00	 7.845310636193691e-01	-1.491934597860350e+00
1	 1.035822933632064e+00	 8.060565117477595e-01	-1.728068138747093e+00
1	 1.018963558680864e+00	 8.272662908943328e-01	-1.968752039435417e+00
1	 1.001651228911751e+00	 8.481456629553464e-01	-2.213322882469227e+00
1	 9.838957621362415e-01	 8.686802514283076e-01	-2.461105858877863e+00
1	 9.657075798235105e-01	 8.888560739756349e-01	-2.711417277024587e+00
1	 9.470976870176407e-01	 9.086595738880187e-01	-2.963567126530733e+00
1	 9.280776503000001e-01	 9.280776503000001e-01	-3.216861680994558e+00
1	 1.109019052365064e+00	 7.250529232196299e-01	-7.987326849454013e-01
1	 1.093914518865609e+00	 7.476469924974751e-01	-1.011019787074608e+00
1	 1.078319497762762e+00	 7.699688699670706e-01	-1.229878032112383e+00
1	 1.062241302020453e+00	 7.920027880345202e-01	-1.454736792505169e+00
1	 1.045687913954364e+00	 8.137332404306257e-01	-1.685006722951143e+00
1	 1.028667973527204e+00	 8.351450174737410e-01	-1.920081828814407e+00
1	 1.011190764426698e+00	 8.562232406972299e-01	-2.159341635081350e+00
1	 9.932661979673315e-01	 8.769533966795300e-01	-2.402153442911785e+00
1	 9.749047948703654e-01	 8.973213699179398e-01	-2.647874659990001e+00
1	 9.561176649898260e-01	 9.173134745916315e-01	-2.895855190161572e+00
1	 9.369164850650002e-01	 9.369164850650001e-01	-3.145439867262237e+00
1	 1.119481496258467e+00	 7.318930451375384e-01	-7.764406643959120e-01
1	 1.104234467159906e+00	 7.547002660117507e-01	-9.826910501123417e-01
1	 1.088492323216361e+00	 7.772327272305846e-01	-1.195633224379427e+00
1	 1.072262446381982e+00	 7.994745124492590e-01	-1.414740269873706e+00
1	 1.055552894277321e+00	 8.214099691130178e-01	-1.639466269902933e+00
1	 1.038372388374167e+00	 8.430237440526529e-01	-1.869248195287564e+00
1	 1.020730299942205e+00	 8.643008184386362e-01	-2.103507892329655e+00
1	 1.002636633798886e+00	 8.852265419303337e-01	-2.341654160134465e+00
1	 9.841020099175596e-01	 9.057866658599246e-01	-2.583084904701964e+00
1	 9.651376429621962e-01	 9.259673752950645e-01	-2.827189356472950e+00
1	 9.457553198299999e-01	 9.457553198299999e-01	-3.073350337410624e+00
1	 1.129943940152365e+00	 7.387331670554576e-01	-7.504776750358222e-01
1	 1.114554415454784e+00	 7.617535395258563e-01	-9.510103254894121e-01
1	 1.098665148670595e+00	 7.844965844937873e-01	-1.158353299117229e+00
1	 1.082283590744174e+00	 8.069462368635849e-01	-1.372022772112514e+00
1	 1.065417874600936e+00	 8.290866977949353e-01	-1.591515641747850e+00
1	 1.048076803221754e+00	 8.509024706310688e-01	-1.816311233934635e+00
1	 1.030269835458270e+00	 8.723783961795647e-01	-2.045873112417341e+00
1	 1.012007069630905e+00	 8.934996871807190e-01	-2.279650979066877e+00
1	 9.932992249650937e-01	 9.142519618015905e-01	-2.517082653887915e+00
1	 9.741576209347511e-01	 9.346212759983175e-01	-2.757596122610699e+00
1	 9.545941545949999e-01	 9.545941545949999e-01	-3.000611639107674e+00
1	 1.140406384046757e+00	 7.455732889733871e-01	-7.209447527055828e-01
1	 1.124874363750242e+00	 7.688068130397925e-01	-9.160698697479621e-01
1	 1.108837974125464e+00	 7.917604417566795e-01	-1.118121791671035e+00
1	 1.092304735107027e+00	 8.144179612774985e-01	-1.326659188445210e+00
1	 1.075282854925209e+00	 8.367634264763789e-01	-1.541221173580014e+00
1	 1.057781218069964e+00	 8.587811972089886e-01	-1.761328834511365e+00
1	 1.039809370974894e+00	 8.804559739200161e-01	-1.986486865173335e+00
1	 1.021377505463388e+00	 9.017728324306855e-01	-2.216185291403607e+00
1	 1.002496440012967e+00	 9.227172577429366e-01	-2.449901278982688e+00
1	 9.831775989074915e-01	 9.432751767013908e-01	-2.687101013348396e+00
1	 9.634329893600002e-01	 9.634329893600002e-01	-2.927241639373010e+00
1	 1.150868827941644e+00	 7.524134108913275e-01	-6.879392592149369e-01
1	 1.135194312046280e+00	 7.758600865535584e-01	-8.779585846466362e-01
1	 1.119010799580969e+00	 7.990242990192602e-01	-1.075019199737124e+00
1	 1.102325879470541e+00	 8.218896856909992e-01	-1.278721684850926e+00
1	 1.085147835250138e+00	 8.444401551573477e-01	-1.488646788308313e+00
1	 1.067485632918797e+00	 8.666599237864125e-01	-1.704356781691543e+00
1	 1.049348906492078e+00	 8.885335516599897e-01	-1.925396917887241e+00
1	 1.030747941296336e+00	 9.100459776802332e-01	-2.151296983686670e+00
1	 1.011693655061181e+00	 9.311825536839639e-01	-2.381572937914363e+00
1	 9.921975768804164e-01	 9.519290774042841e-01	-2.615728625286048e+00
1	 9.722718241249999e-01	 9.722718241249999e-01	-2.853257555516477e+00
1	 8.838834764750000e-01	 8.838834764750000e-01	-3.563253906021260e+00
1	 8.653900703672558e-01	 9.019977971594894e-01	-3.861430098321755e+00
1	 8.465295942593203e-01	 9.197215045943362e-01	-4.157441851975247e+00
1	 8.273145251659157e-01	 9.370435829877607e-01	-4.450448134112561e+00
1	 8.077577742387659e-01	 9.539535513453987e-01	-4.739618160829014e+00
1	 7.878726579898540e-01	 9.704414844585149e-01	-5.024134516988981e+00
1	 7.676728683263140e-01	 9.864980320304252e-01	-5.303196195720799e+00
1	 7.471724415374250e-01	 1.002114435865165e+00	-5.576021538528193e+00
1	 7.263857263794565e-01	 1.017282545054521e+00	-5.841851057892457e+00
1	 7.053273514082554e-01	 1.031994829112000e+00	-6.099950125362219e+00
1	 6.840121917124017e-01	 1.046244389015035e+00	-6.349611509402808e+00
1	 8.927223112400001e-01	 8.927223112400001e-01	-3.495475111734645e+00
1	 8.740439710717682e-01	 9.110177751307497e-01	-3.789112414824792e+00
1	 8.549948902032222e-01	 9.289187196394916e-01	-4.080844067631053e+00
1	 8.355876704192313e-01	 9.464140188165279e-01	-4.369859798948699e+00
1	 8.158353519830368e-01	 9.634930868575508e-01	-4.655358705913816e+00
1	 7.957513845717418e-01	 9.801458993017379e-01	-4.936552254098557e+00
1	 7.753495970115517e-01	 9.963630123494376e-01	-5.212667202830534e+00
1	 7.546441659546392e-01	 1.012135580222726e+00	-5.482948437386575e+00
1	 7.336495836448365e-01	 1.027455370504305e+00	-5.746661690603453e+00
1	 7.123806249235501e-01	 1.042314777402819e+00	-6.003096137506837e+00
1	 6.908523136302465e-01	 1.056706832905469e+00	-6.251566847768760e+00
1	 9.015611460049998e-01	 9.015611460049998e-01	-3.426924438403973e+00
1	 8.826978717761006e-01	 9.200377531021950e-01	-3.716290172666290e+00
1	 8.634601861468045e-01	 9.381159346849864e-01	-4.004005822001729e+00
1	 8.438608156721283e-01	 9.557844546457592e-01	-4.289291370854433e+00
1	 8.239129297268304e-01	 9.730326223702622e-01	-4.571375301973315e+00
1	 8.036301111531335e-01	 9.898503141455844e-01	-4.849497478530555e+00
1	 7.830263256963154e-01	 1.006227992669108e+00	-5.122911956930809e+00
1	 7.621158903714405e-01	 1.022156724580948e+00	-5.390889712675900e+00
1	 7.409134409099053e-01	 1.037628195954725e+00	-5.652721262486288e+00
1	 7.194338984386750e-01	 1.052634725694217e+00	-5.907719166877042e+00
1	 6.976924355481020e-01	 1.067169276796399e+00	-6.155220398527904e+00
1	 9.103999807700000e-01	 9.103999807700000e-01	-3.357624367940794e+00
1	 8.913517724802530e-01	 9.290577310738252e-01	-3.642978067727976e+00
1	 8.719254820900674e-01	 9.473131497308210e-01	-3.926934118813067e+00
1	 8.521339609246068e-01	 9.651548904754556e-01	-4.208742270011746e+00
1	 8.319905074701465e-01	 9.825721578835326e-01	-4.487659908687876e+00
1	 8.115088377340296e-01	 9.995547289900545e-01	-4.762954826576984e+00
1	 7.907030543806044e-01	 1.016092972989435e+00	-5.033907921702218e+00
1	 7.695876147878296e-01	 1.032177868939832e+00	-5.299815819452445e+00
1	 7.481772981746633e-01	 1.047801021405781e+00	-5.559993396672903e+00
1	 7.264871719536298e-01	 1.062954673986194e+00	-5.813776193554729e+00
1	 7.045325574659680e-01	 1.077631720687823e+00	-6.060522699184578e+00
1	 9.192388155350000e-01	 9.192388155350000e-01	-3.287596517567847e+00
1	 9.000056731842259e-01	 9.380777090456406e-01	-3.569190230665393e+00
1	 8.803907780330109e-01	 9.565103647769959e-01	-3.849635692416808e+00
1	 8.604071061766667e-01	 9.745253263056164e-01	-4.128211938903373e+00
1	 8.400680852129850e-01	 9.921116933973620e-01	-4.404204794980974e+00
1	 8.193875643144292e-01	 1.009259143835148e+00	-4.676909525441640e+00
1	 7.983797830644193e-01	 1.025957953310421e+00	-4.945633427606833e+00
1	 7.770593392038057e-01	 1.042199013299377e+00	-5.209698349116537e+00
1	 7.554411554391103e-01	 1.057973846857472e+00	-5.468443115405664e+00
1	 7.335404454684151e-01	 1.073274622278753e+00	-5.721225852234132e+00
1	 7.113726793838446e-01	 1.088094164579742e+00	-5.967426189646790e+00
1	 9.280776503000001e-01	 9.280776503000001e-01	-3.216861680994558e+00
1	 9.086595738880183e-01	 9.470976870176407e-01	-3.494940253823410e+00
1	 8.888560739756349e-01	 9.657075798235105e-01	-3.772117020617890e+00
1	 8.686802514283077e-01	 9.838957621362414e-01	-4.047699841250740e+00
1	 8.481456629553463e-01	 1.001651228911750e+00	-4.321002524293194e+00
1	 8.272662908943332e-01	 1.018963558680864e+00	-4.591347365101529e+00
1	 8.060565117477597e-01	 1.035822933632063e+00	-4.858067630612972e+00
1	 7.845310636193695e-01	 1.052220157659584e+00	-5.120509975300850e+00
1	 7.627050127032463e-01	 1.068146672309799e+00	-5.378036773412822e+00
1	 7.405937189830302e-01	 1.083594570571890e+00	-5.630028353430751e+00
1	 7.182128013017320e-01	 1.098556608472156e+00	-5.875885121635664e+00
1	 9.369164850650002e-01	 9.369164850650001e-01	-3.145439867262237e+00
1	 9.173134745916314e-01	 9.561176649898259e-01	-3.420241216628237e+00
1	 8.973213699179396e-01	 9.749047948703653e-01	-3.694384336775894e+00
1	 8.769533966795300e-01	 9.932661979673313e-01	-3.967205461012242e+00
1	 8.562232406972300e-01	 1.011190764426698e+00	-4.238045940690050e+00
1	 8.351450174737411e-01	 1.028667973527204e+00	-4.506254671760944e+00
1	 8.137332404306261e-01	 1.045687913954363e+00	-4.771190473256160e+00
1	 7.920027880345210e-01	 1.062241302020452e+00	-5.032224402821766e+00
1	 7.699688699670710e-01	 1.078319497762762e+00	-5.288741995055704e+00
1	 7.476469924974758e-01	 1.093914518865608e+00	-5.540145409150033e+00
1	 7.250529232196300e-01	 1.109019052365064e+00	-5.785855473222630e+00
1	 9.457553198299999e-01	 9.457553198299999e-01	-3.073350337410624e+00
1	 9.259673752950643e-01	 9.651376429621963e-01	-3.345105709555598e+00
1	 9.057866658599246e-01	 9.841020099175595e-01	-3.616443641227502e+00
1	 8.852265419303337e-01	 1.002636633798885e+00	-3.886728301437519e+00
1	 8.643008184386362e-01	 1.020730299942204e+00	-4.155328155748617e+00
1	 8.430237440526532e-01	 1.038372388374167e+00	-4.421618282794083e+00
1	 8.214099691130180e-01	 1.055552894277321e+00	-4.684982647883690e+00
1	 7.994745124492595e-01	 1.072262446381982e+00	-4.944816319493244e+00
1	 7.772327272305850e-01	 1.088492323216360e+00	-5.200527614999846e+00
1	 7.547002660117512e-01	 1.104234467159906e+00	-5.451540162724444e+00
1	 7.318930451375383e-01	 1.119481496258467e+00	-5.697294868158684e+00
1	 9.545941545949999e-01	 9.545941545949999e-01	-3.000611639107674e+00
1	 9.346212759983176e-01	 9.741576209347513e-01	-3.269545856767357e+00
1	 9.142519618015904e-01	 9.932992249650935e-01	-3.538300712074848e+00
1	 8.934996871807190e-01	 1.012007069630904e+00	-3.806267884174375e+00
1	 8.723783961795650e-01	 1.030269835458270e+00	-4.072842536172775e+00
1	 8.509024706310692e-01	 1.048076803221754e+00	-4.337425523079814e+00
1	 8.290866977949357e-01	 1.065417874600936e+00	-4.599425561941136e+00
1	 8.069462368635854e-01	 1.082283590744173e+00	-4.858261350617531e+00
1	 7.844965844937880e-01	 1.098665148670594e+00	-5.113363622182463e+00
1	 7.617535395258571e-01	 1.114554415454784e+00	-5.364177122548178e+00
1	 7.387331670554576e-01	 1.129943940152365e+00	-5.610162499685614e+00
1	 9.634329893600002e-01	 9.634329893600002e-01	-2.927241639373010e+00
1	 9.432751767013909e-01	 9.831775989074915e-01	-3.193573337501982e+00
1	 9.227172577429366e-01	 1.002496440012967e+00	-3.459961115379509e+00
1	 9.017728324306855e-01	 1.021377505463388e+00	-3.725823748424881e+00
1	 8.804559739200162e-01	 1.039809370974894e+00	-3.990582692090008e+00
1	 8.587811972089889e-01	 1.057781218069964e+00	-4.253664182639064e+00
1	 8.367634264763789e-01	 1.075282854925208e+00	-4.514501305169602e+00
1	 8.144179612774990e-01	 1.092304735107027e+00	-4.772536015981268e+00
1	 7.917604417566800e-01	 1.108837974125464e+00	-5.027221106864216e+00
1	 7.688068130397931e-01	 1.124874363750241e+00	-5.278022099459831e+00
1	 7.455732889733871e-01	 1.140406384046757e+00	-5.524419058540987e+00
1	 9.722718241249999e-01	 9.722718241249999e-01	-2.853257555516477e+00
1	 9.519290774042841e-01	 9.921975768804165e-01	-3.117199406298392e+00
1	 9.311825536839636e-01	 1.011693655061181e+00	-3.381430214800933e+00
1	 9.100459776802337e-01	 1.030747941296336e+00	-3.645395450147304e+00
1	 8.885335516599900e-01	 1.049348906492078e+00	-3.908542465986899e+00
1	 8.666599237864129e-01	 1.067485632918797e+00	-4.170322495492050e+00
1	 8.444401551573482e-01	 1.085147835250138e+00	-4.430192618592352e+00
1	 8.218896856909996e-01	 1.102325879470541e+00	-4.687617689197097e+00
1	 7.990242990192610e-01	 1.119010799580969e+00	-4.942072210569035e+00
1	 7.758600865535591e-01	 1.135194312046279e+00	-5.193042147540153e+00
1	 7.524134108913274e-01	 1.150868827941644e+00	-5.440026664890178e+00
1	 6.840121917124017e-01	 1.046244389015035e+00	-6.349611509402808e+00
1	 6.624553352020789e-01	 1.060024966129602e+00	-6.630639203117126e+00
1	 6.406720486069893e-01	 1.073330949004241e+00	-6.902715131354362e+00
1	 6.186777433390788e-01	 1.086157378033213e+00	-7.165266382939212e+00
1	 5.964879413737916e-01	 1.098499948001280e+00	-7.417748044811939e+00
1	 5.741182412978680e-01	 1.110355008534519e+00	-7.659644792248066e+00
1	 5.515842846700593e-01	 1.121719562493458e+00	-7.890472312972258e+00
1	 5.289017228355563e-01	 1.132591262356013e+00	-8.109778559811286e+00
1	 5.060861843290325e-01	 1.142968404648257e+00	-8.317144827992648e+00
1	 4.831532429944511e-01	 1.152849922490885e+00	-8.512186654654753e+00
1	 4.601183869422882e-01	 1.162235376338345e+00	-8.694554539571302e+00
1	 6.908523136302465e-01	 1.056706832905469e+00	-6.251566847768760e+00
1	 6.690798885542670e-01	 1.070625215791757e+00	-6.532300482864580e+00
1	 6.470787690926667e-01	 1.084064258495567e+00	-6.804215329942367e+00
1	 6.248645207715108e-01	 1.097018951815105e+00	-7.066748205051579e+00
1	 6.024528207859987e-01	 1.109484947482980e+00	-7.319363677748327e+00
1	 5.798594237087384e-01	 1.121458558621532e+00	-7.561555622103937e+00
1	 5.571001275140695e-01	 1.132936758119894e+00	-7.792848603467438e+00
1	 5.341907400606344e-01	 1.143917174980766e+00	-8.012799095843249e+00
1	 5.111470461684543e-01	 1.154398088695481e+00	-8.220996526186003e+00
1	 4.879847754199321e-01	 1.164378421715942e+00	-8.417064143350025e+00
1	 4.647195708066494e-01	 1.173857730101146e+00	-8.600659710844333e+00
1	 6.976924355481020e-01	 1.067169276796399e+00	-6.155220398527904e+00
1	 6.757044419066557e-01	 1.081225465454312e+00	-6.435779402433827e+00
1	 6.534854895787137e-01	 1.094797567987208e+00	-6.707652580491418e+00
1	 6.310512982044615e-01	 1.107880525597236e+00	-6.970286251837148e+00
1	 6.084177001988532e-01	 1.120469946964856e+00	-7.223154247738925e+00
1	 5.856006061203651e-01	 1.132562108708666e+00	-7.465759424112943e+00
1	 5.626159703589236e-01	 1.144153953746409e+00	-7.697635011622658e+00
1	 5.394797572866252e-01	 1.155243087605563e+00	-7.918345798433778e+00
1	 5.162079080088372e-01	 1.165827772742723e+00	-8.127489142119032e+00
1	 4.928163078464036e-01	 1.175906920941005e+00	-8.324695808619472e+00
1	 4.693207546720107e-01	 1.185480083863948e+00	-8.509630637558766e+00
1	 7.045325574659680e-01	 1.077631720687823e+00	-6.060522699184578e+00
1	 6.823289952592447e-01	 1.091825715117267e+00	-6.341023020860258e+00
1	 6.598922100651304e-01	 1.105530877479165e+00	-6.612970464013211e+00
1	 6.372380756379310e-01	 1.118742099379610e+00	-6.875820633257756e+00
1	 6.143825796123554e-01	 1.131454946446909e+00	-7.129056407103379e+00
1	 5.913417885327474e-01	 1.143665658795923e+00	-7.372189412679161e+00
1	 5.681318132046224e-01	 1.155371149373001e+00	-7.604761339836898e+00
1	 5.447687745135287e-01	 1.166569000230403e+00	-7.826345089916851e+00
1	 5.212687698501816e-01	 1.177257456789986e+00	-8.036545755858263e+00
1	 4.976478402738654e-01	 1.187435420166072e+00	-8.235001431728659e+00
1	 4.739219385383718e-01	 1.197102437626749e+00	-8.421383851110321e+00
1	 7.113726793838446e-01	 1.088094164579742e+00	-5.967426189646790e+00
1	 6.889535486120340e-01	 1.102425964780622e+00	-6.247980433370296e+00
1	 6.662989305519171e-01	 1.116264186971437e+00	-6.520114731480779e+00
1	 6.434248530719193e-01	 1.129603673162223e+00	-6.783293762738333e+00
1	 6.203474590265048e-01	 1.142439945929137e+00	-7.037009244610661e+00
1	 5.970829709458856e-01	 1.154769208883302e+00	-7.280781370883527e+00
1	 5.736476560511651e-01	 1.166588344999672e+00	-7.514160090416946e+00
1	 5.500577917413448e-01	 1.177894912855286e+00	-7.736726222536709e+00
1	 5.263296316924875e-01	 1.188687140837267e+00	-7.948092405929397e+00
1	 5.024793727023174e-01	 1.198963919391144e+00	-8.147903879279154e+00
1	 4.785231224057330e-01	 1.208724791389550e+00	-8.335839093225619e+00
1	 7.182128013017320e-01	 1.098556608472156e+00	-5.875885121635664e+00
1	 6.955781019650238e-01	 1.113026214444376e+00	-6.156602674419831e+00
1	 6.727056510390736e-01	 1.126997496464024e+00	-6.429033200496742e+00
1	 6.496116305064261e-01	 1.140465246945077e+00	-6.692650247478201e+00
1	 6.263123384413014e-01	 1.153424945411542e+00	-6.946954169457611e+00
1	 6.028241533597797e-01	 1.165872758970803e+00	-7.191473528165816e+00
1	 5.791634988985525e-01	 1.177805540626420e+00	-7.425766337010381e+00
1	 5.553468089700738e-01	 1.189220825480215e+00	-7.649421143690245e+00
1	 5.313904935357544e-01	 1.200116824884568e+00	-7.862057948437917e+00
1	 5.073109051317600e-01	 1.210492418616221e+00	-8.063328956287684e+00
1	 4.831243062740943e-01	 1.220347145152352e+00	-8.252919163089350e+00
1	 7.250529232196300e-01	 1.109019052365064e+00	-5.785855473222630e+00
1	 7.022026553182140e-01	 1.123626464108531e+00	-6.066842626221296e+00
1	 6.791123715265995e-01	 1.137730805956926e+00	-6.339675657810836e+00
1	 6.557984079414519e-01	 1.151326820728172e+00	-6.603836784971048e+00
1	 6.322772178567455e-01	 1.164409944894123e+00	-6.858834801814798e+00
1	 6.085653357744295e-01	 1.176976309058425e+00	-7.104206444930403e+00
1	 5.846793417467839e-01	 1.189022736253246e+00	-7.339517603315743e+00
1	 5.606358261997154e-01	 1.200546738105186e+00	-7.564364368797210e+00
1	 5.364513553799830e-01	 1.211546508931889e+00	-7.778373924164737e+00
1	 5.121424375621928e-01	 1.222020917841302e+00	-7.981205267581696e+00
1	 4.877254901434555e-01	 1.231969498915153e+00	-8.172549773124523e+00
1	 7.318930451375383e-01	 1.119481496258467e+00	-5.697294868158684e+00
1	 7.088272086716046e-01	 1.134226713773085e+00	-5.978654932399755e+00
1	 6.855190920144951e-01	 1.148464115450143e+00	-6.251993767303812e+00
1	 6.619851853769962e-01	 1.162188394511507e+00	-6.516802065327739e+00
1	 6.382420972728374e-01	 1.175394944376881e+00	-6.772596869510122e+00
1	 6.143065181898355e-01	 1.188079859146170e+00	-7.018922903622675e+00
1	 5.901951845958594e-01	 1.200239931880150e+00	-7.255353748594404e+00
1	 5.659248434302697e-01	 1.211872650730201e+00	-7.481492861298960e+00
1	 5.415122172251726e-01	 1.222976192979229e+00	-7.696974433113977e+00
1	 5.169739699936161e-01	 1.233549417066389e+00	-7.901464086967108e+00
1	 4.923266740138165e-01	 1.243591852677954e+00	-8.094659412859750e+00
1	 7.387331670554576e-01	 1.129943940152365e+00	-5.610162499685614e+00
1	 7.154517620251952e-01	 1.144826963438039e+00	-5.891995916446165e+00
1	 6.919258125027606e-01	 1.159197424943675e+00	-6.165940983083065e+00
1	 6.681719628130595e-01	 1.173049968295084e+00	-6.431496679025407e+00
1	 6.442069766895764e-01	 1.186379943859815e+00	-6.688188110451919e+00
1	 6.200477006059973e-01	 1.199183409234037e+00	-6.935567805856753e+00
1	 5.957110274457796e-01	 1.211457127507132e+00	-7.173216859542472e+00
1	 5.712138606617366e-01	 1.223198563355260e+00	-7.400745919324356e+00
1	 5.465730790713239e-01	 1.234405877026588e+00	-7.617796016030214e+00
1	 5.218055024260299e-01	 1.245077916291480e+00	-7.824039233664382e+00
1	 4.969278578851778e-01	 1.255214206440755e+00	-8.019179220359737e+00
1	 7.455732889733871e-01	 1.140406384046757e+00	-5.524419058540987e+00
1	 7.220763153789865e-01	 1.155427213103392e+00	-5.806823504659041e+00
1	 6.983325329913959e-01	 1.169930734437522e+00	-6.081472467362167e+00
1	 6.743587402496412e-01	 1.183911542078901e+00	-6.347873029734758e+00
1	 6.501718561069627e-01	 1.197364943342925e+00	-6.605558180423482e+00
1	 6.257888830229149e-01	 1.210286959322026e+00	-6.854088075205905e+00
1	 6.012268702965438e-01	 1.222674323134191e+00	-7.093051148114942e+00
1	 5.765028778941165e-01	 1.234524475980362e+00	-7.322065068593791e+00
1	 5.516339409184363e-01	 1.245835561073966e+00	-7.540777542438170e+00
1	 5.266370348594338e-01	 1.256606415516577e+00	-7.748866955546447e+00
1	 5.015290417575390e-01	 1.266836560203556e+00	-7.946042860732597e+00
1	 7.524134108913274e-01	 1.150868827941644e+00	-5.440026664890178e+00
1	 7.287008687329781e-01	 1.166027462769146e+00	-5.723097153289942e+00
1	 7.047392534804007e-01	 1.180664043931685e+00	-5.998545012819742e+00
1	 6.805455176867415e-01	 1.194773115862958e+00	-6.265885251902222e+00
1	 6.561367355249966e-01	 1.208349942826211e+00	-6.524658565906981e+00
1	 6.315300654405884e-01	 1.221390509410137e+00	-6.774432565295358e+00
1	 6.067427131481523e-01	 1.233891518761329e+00	-7.014802854923085e+00
1	 5.817918951274087e-01	 1.245850388605507e+00	-7.245393961165202e+00
1	 5.566948027665101e-01	 1.257265245121364e+00	-7.465860104788953e+00
1	 5.314685672938282e-01	 1.268134914741677e+00	-7.675885818745437e+00
1	 5.061302256309000e-01	 1.278458913966357e+00	-7.875186411264444e+00
1	 4.601183869422882e-01	 1.162235376338345e+00	-8.694554539571302e+00
1	 4.369969884562961e-01	 1.171124942995283e+00	-8.905531385082167e+00
1	 4.138042749547273e-01	 1.179519403004286e+00	-9.103704378536362e+00
1	 3.905553010997264e-01	 1.187420126502869e+00	-9.288872609779283e+00
1	 3.672649221392484e-01	 1.194829057653032e+00	-9.460864697152696e+00
1	 3.439477685578608e-01	 1.201748697753768e+00	-9.619538707828781e+00
1	 3.206182221012706e-01	 1.208182087148427e+00	-9.764781954317014e+00
1	 2.972903932297764e-01	 1.214132786041956e+00	-9.896510672421579e+00
1	 2.739781000458337e-01	 1.219604854344699e+00	-1.001466958657537e+01
1	 2.506948487310247e-01	 1.224602830660197e+00	-1.011923136903846e+01
1	 2.274538155180211e-01	 1.229131710534368e+00	-1.021019599993157e+01
1	 4.647195708066494e-01	 1.173857730101146e+00	-8.600659710844333e+00
1	 4.413669583353180e-01	 1.182836192423920e+00	-8.813559920255305e+00
1	 4.179423176984929e-01	 1.191314597032411e+00	-9.013557145930154e+00
1	 3.944608541049377e-01	 1.199294327765508e+00	-9.200450846504827e+00
1	 3.709375713550830e-01	 1.206777348226831e+00	-9.374070721514432e+00
1	 3.473872462383391e-01	 1.213766184728358e+00	-9.534276598401046e+00
1	 3.238244043178661e-01	 1.220263908016873e+00	-9.680958193255313e+00
1	 3.002632971585618e-01	 1.226274113899371e+00	-9.814034750910077e+00
1	 2.767178810439023e-01	 1.231800902885296e+00	-9.933454570652072e+00
1	 2.532017972172816e-01	 1.236848858964223e+00	-1.003919442437973e+01
1	 2.297283536736934e-01	 1.241423027637528e+00	-1.013125887451011e+01
1	 4.693207546720107e-01	 1.185480083863948e+00	-8.509630637558766e+00
1	 4.457369282153291e-01	 1.194547441852557e+00	-8.724472174158853e+00
1	 4.220803604432159e-01	 1.203109791060537e+00	-8.926316014357683e+00
1	 3.983664071110528e-01	 1.211168529028148e+00	-9.114961888154625e+00
1	 3.746102205717478e-01	 1.218725638800630e+00	-9.290240470493837e+00
1	 3.508267239195530e-01	 1.225783671702948e+00	-9.452013235518230e+00
1	 3.270305865350828e-01	 1.232345728885319e+00	-9.600172182134488e+00
1	 3.032362010878344e-01	 1.238415441756786e+00	-9.734639436844658e+00
1	 2.794576620423047e-01	 1.243996951425893e+00	-9.855366740446001e+00
1	 2.557087457036998e-01	 1.249094887268250e+00	-9.962334825763147e+00
1	 2.320028918293363e-01	 1.253714344740687e+00	-1.005555269404499e+01
1	 4.739219385383718e-01	 1.197102437626749e+00	-8.421383851110321e+00
1	 4.501068980963295e-01	 1.206258691281194e+00	-8.638184154985698e+00
1	 4.262184031888958e-01	 1.214904985088661e+00	-8.841896340100112e+00
1	 4.022719601180718e-01	 1.223042730290787e+00	-9.032320313226538e+00
1	 3.782828697892422e-01	 1.230673929374427e+00	-9.209287622015268e+00
1	 3.542662016015024e-01	 1.237801158677538e+00	-9.372661277048449e+00
1	 3.302367687529205e-01	 1.244427549753766e+00	-9.522335442801458e+00
1	 3.062091050175939e-01	 1.250556769614200e+00	-9.658235003795477e+00
1	 2.821974430410407e-01	 1.256192999966490e+00	-9.780315012878692e+00
1	 2.582156941902795e-01	 1.261340915572276e+00	-9.888560029129966e+00
1	 2.342774299849499e-01	 1.266005661843847e+00	-9.982983353344164e+00
1	 4.785231224057330e-01	 1.208724791389550e+00	-8.335839093225619e+00
1	 4.544768679783190e-01	 1.217969940709831e+00	-8.554615101383082e+00
1	 4.303564459355328e-01	 1.226700179116788e+00	-8.760216734966235e+00
1	 4.061775131259946e-01	 1.234916931553427e+00	-8.952443985660965e+00
1	 3.819555190075666e-01	 1.242622219948226e+00	-9.131129174082723e+00
1	 3.577056792841872e-01	 1.249818645652129e+00	-9.296136740172601e+00
1	 3.334429509713793e-01	 1.256509370622212e+00	-9.447362900108946e+00
1	 3.091820089478404e-01	 1.262698097471615e+00	-9.584735176349039e+00
1	 2.849372240401104e-01	 1.268389048507087e+00	-9.708211808066814e+00
1	 2.607226426770205e-01	 1.273586943876302e+00	-9.817781049808147e+00
1	 2.365519681405341e-01	 1.278296978947007e+00	-9.913460366645772e+00
1	 4.831243062740943e-01	 1.220347145152352e+00	-8.252919163089350e+00
1	 4.588468378612978e-01	 1.229681190138469e+00	-8.473687328620967e+00
1	 4.344944886831269e-01	 1.238495373144913e+00	-8.681198911267447e+00
1	 4.100830661348214e-01	 1.246791132816067e+00	-8.875253898390815e+00
1	 3.856281682267209e-01	 1.254570510522024e+00	-9.055685286681090e+00
1	 3.611451569676077e-01	 1.261836132626718e+00	-9.222358841416957e+00
1	 3.366491331904594e-01	 1.268591191490658e+00	-9.375172719867608e+00
1	 3.121549128785740e-01	 1.274839425329030e+00	-9.514056965774255e+00
1	 2.876770050395138e-01	 1.280585097047684e+00	-9.638972882503495e+00
1	 2.632295911639229e-01	 1.285832972180329e+00	-9.749912293017763e+00
1	 2.388265062960890e-01	 1.290588296050166e+00	-9.846896695264535e+00
1	 4.877254901434555e-01	 1.231969498915153e+00	-8.172549773124523e+00
1	 4.632168077452659e-01	 1.241392439567105e+00	-8.395326083468737e+00
1	 4.386325314316782e-01	 1.250290567173038e+00	-8.604767535567406e+00
1	 4.139886191445520e-01	 1.258665334078706e+00	-8.800674025747783e+00
1	 3.893008174467052e-01	 1.266518801095822e+00	-8.982879132625861e+00
1	 3.645846346517638e-01	 1.273853619601308e+00	-9.151249845740695e+00
1	 3.398553154101606e-01	 1.280673012359104e+00	-9.305686155970612e+00
1	 3.151278168097947e-01	 1.286980753186445e+00	-9.446120514990103e+00
1	 2.904167860392506e-01	 1.292781145588281e+00	-9.572517171681943e+00
1	 2.657365396509867e-01	 1.298079000484355e+00	-9.684871393970534e+00
1	 2.411010444516146e-01	 1.302879613153326e+00	-9.783208584993675e+00
1	 4.923266740138165e-01	 1.243591852677954e+00	-8.094659412859750e+00
1	 4.675867776302232e-01	 1.253103688995743e+00	-8.319459407208990e+00
1	 4.427705741811864e-01	 1.262085761201164e+00	-8.530850090632962e+00
1	 4.178941721551864e-01	 1.270539535341346e+00	-8.728631184144675e+00
1	 3.929734666675194e-01	 1.278467091669621e+00	-8.912636756776850e+00
1	 3.680241123366553e-01	 1.285871106575899e+00	-9.082734924085758e+00
1	 3.430614976304829e-01	 1.292754833227551e+00	-9.238827406090705e+00
1	 3.181007207415024e-01	 1.299122081043860e+00	-9.380848952226915e+00
1	 2.931565670393215e-01	 1.304977194128878e+00	-9.508766641544129e+00
1	 2.682434881382119e-01	 1.310325028788381e+00	-9.622579066935373e+00
1	 2.433755826071108e-01	 1.315170930256486e+00	-9.722315412624678e+00
1	 4.969278578851778e-01	 1.255214206440755e+00	-8.019179220359737e+00
1	 4.719567475161696e-01	 1.264814938424380e+00	-8.246018006261949e+00
1	 4.469086169316517e-01	 1.273880955229289e+00	-8.459376745054545e+00
1	 4.217997251667246e-01	 1.282413736603985e+00	-8.659054900497313e+00
1	 3.966461158891635e-01	 1.290415382243419e+00	-8.844886943072982e+00
1	 3.714635900222824e-01	 1.297888593550488e+00	-9.016742018840612e+00
1	 3.462676798514263e-01	 1.304836654095997e+00	-9.174523475394235e+00
1	 3.210736246736973e-01	 1.311263408901275e+00	-9.318168252817456e+00
1	 2.958963480397257e-01	 1.317173242669475e+00	-9.447646148182200e+00
1	 2.707504366255986e-01	 1.322571057092408e+00	-9.562958962689825e+00
1	 2.456501207625777e-01	 1.327462247359646e+00	-9.664139540993578e+00
1	 5.015290417575390e-01	 1.266836560203556e+00	-7.946042860732597e+00
1	 4.763267174031054e-01	 1.276526187853017e+00	-8.174935129931564e+00
1	 4.510466596830741e-01	 1.285676149257414e+00	-8.390280230042896e+00
1	 4.257052781791671e-01	 1.294287937866625e+00	-8.591877287889876e+00
1	 4.003187651116374e-01	 1.302363672817217e+00	-8.779561088886675e+00
1	 3.749030677086451e-01	 1.309906080525078e+00	-8.953201716709735e+00
1	 3.494738620729909e-01	 1.316918474964443e+00	-9.112704047756965e+00
1	 3.240465286063789e-01	 1.323404736758689e+00	-9.258007108596081e+00
1	 2.986361290404637e-01	 1.329369291210072e+00	-9.389083305262833e+00
1	 2.732573851131466e-01	 1.334817085396434e+00	-9.505937533817571e+00
1	 2.479246589180153e-01	 1.339753564462806e+00	-9.608606182006628e+00
1	 5.061302256309000e-01	 1.278458913966357e+00	-7.875186411264444e+00
1	 4.806966872910303e-01	 1.288237437281654e+00	-8.106146454819813e+00
1	 4.551847024354536e-01	 1.297471343285539e+00	-8.323495722946687e+00
1	 4.296108311925131e-01	 1.306162139129264e+00	-8.527032928021546e+00
1	 4.039914143349413e-01	 1.314311963391015e+00	-8.716593086231251e+00
1	 3.783425453957433e-01	 1.321923567499668e+00	-8.892047128517326e+00
1	 3.526800442951766e-01	 1.329000295832889e+00	-9.053301364004485e+00
1	 3.270194325395477e-01	 1.335546064616104e+00	-9.200296804421200e+00
1	 3.013759100415353e-01	 1.341565339750669e+00	-9.333008358682896e+00
1	 2.757643336008559e-01	 1.347063113700460e+00	-9.451443907353740e+00
1	 2.501991970734234e-01	 1.352044881565965e+00	-9.555643267136940e+00
1	 2.274538155180211e-01	 1.229131710534368e+00	-1.021019599993157e+01
1	 2.042678302137041e-01	 1.233196924082991e+00	-1.032015954195317e+01
1	 1.811493612805352e-01	 1.236804313110804e+00	-1.041706308886812e+01
1	 1.581105024744471e-01	 1.239960107835634e+00	-1.050100903832126e+01
1	 1.351629610294562e-01	 1.242670903327850e+00	-1.057211905354750e+01
1	 1.123180473713980e-01	 1.244943635769421e+00	-1.063053316151741e+01
1	 8.958666633593650e-02	 1.246785558634639e+00	-1.067640881661621e+01
1	 6.697930985936418e-02	 1.248204218889501e+00	-1.070991993611663e+01
1	 4.450605110464890e-02	 1.249207433301722e+00	-1.073125591355903e+01
1	 2.217653997970472e-02	 1.249803264948056e+00	-1.074062061596740e+01
1	 0.000000000000000e+00	 1.250000000000000e+00	-1.073823137060591e+01
1	 2.297283536736934e-01	 1.241423027637528e+00	-1.013125887451011e+01
1	 2.063105085178029e-01	 1.245528893322062e+00	-1.024270483905055e+01
1	 1.829608548964180e-01	 1.249172356240531e+00	-1.034090503157104e+01
1	 1.596916075030363e-01	 1.252359708912939e+00	-1.042596275528885e+01
1	 1.365145906440207e-01	 1.255097612360361e+00	-1.049800144377438e+01
1	 1.134412278494712e-01	 1.257393072126586e+00	-1.055716371038344e+01
1	 9.048253300341476e-02	 1.259253414220649e+00	-1.060361036159729e+01
1	 6.764910296151375e-02	 1.260686261078208e+00	-1.063751938092798e+01
1	 4.495111161837246e-02	 1.261699507634656e+00	-1.065908488988133e+01
1	 2.239830538099112e-02	 1.262301297597516e+00	-1.066851609227055e+01
1	 0.000000000000000e+00	 1.262500000000000e+00	-1.066603620792919e+01
1	 2.320028918293363e-01	 1.253714344740687e+00	-1.005555269404499e+01
1	 2.083531868216939e-01	 1.257860862561134e+00	-1.016846659117794e+01
1	 1.847723485119567e-01	 1.261540399370259e+00	-1.026795472471537e+01
1	 1.612727125311870e-01	 1.264759309990245e+00	-1.035412121255268e+01
1	 1.378662202580929e-01	 1.267524321392872e+00	-1.042709115749143e+01
1	 1.145644083270384e-01	 1.269842508483751e+00	-1.048700964863877e+01
1	 9.137839967041286e-02	 1.271721269806659e+00	-1.053404072510227e+01
1	 6.831889606324743e-02	 1.273168303266915e+00	-1.056836630902507e+01
1	 4.539617213178213e-02	 1.274191581967590e+00	-1.059018511483406e+01
1	 2.262007078210258e-02	 1.274799330246976e+00	-1.059971154135098e+01
1	 0.000000000000000e+00	 1.275000000000000e+00	-1.059717455315676e+01
1	 2.342774299849499e-01	 1.266005661843847e+00	-9.982983353344164e+00
1	 2.103958651253771e-01	 1.270192831800205e+00	-1.009735111517974e+01
1	 1.865838421271515e-01	 1.273908442499986e+00	-1.019811873867702e+01
1	 1.628538175588991e-01	 1.277158911067550e+00	-1.028539106816270e+01
1	 1.392178498716727e-01	 1.279951030425384e+00	-1.035929477750951e+01
1	 1.156875888040997e-01	 1.282291944840916e+00	-1.041997732416522e+01
1	 9.227426633693080e-02	 1.284189125392670e+00	-1.046760586387283e+01
1	 6.898868916456520e-02	 1.285650345455622e+00	-1.050236613351549e+01
1	 4.584123264487796e-02	 1.286683656300524e+00	-1.052446130933001e+01
1	 2.284183618303908e-02	 1.287297362896436e+00	-1.053411084749556e+01
1	 0.000000000000000e+00	 1.287500000000000e+00	-1.053154931382405e+01
1	 2.365519681405341e-01	 1.278296978947007e+00	-9.913460366645772e+00
1	 2.124385434288524e-01	 1.282524801039276e+00	-1.002926833109849e+01
1	 1.883953357420022e-01	 1.286276485629713e+00	-1.013130723727896e+01
1	 1.644349225861726e-01	 1.289558512144856e+00	-1.021968257024365e+01
1	 1.405694794847602e-01	 1.292377739457896e+00	-1.029452247960850e+01
1	 1.168107692806550e-01	 1.294741381198081e+00	-1.035597668684902e+01
1	 9.317013300296850e-02	 1.296656980978679e+00	-1.040421535169906e+01
1	 6.965848226546710e-02	 1.298132387644329e+00	-1.043942790546429e+01
1	 4.628629315765993e-02	 1.299175730633459e+00	-1.046182185886249e+01
1	 2.306360158380064e-02	 1.299795395545896e+00	-1.047162159174963e+01
1	 0.000000000000000e+00	 1.300000000000000e+00	-1.046906713179221e+01
1	 2.388265062960890e-01	 1.290588296050166e+00	-9.846896695264535e+00
1	 2.144812217321199e-01	 1.294856770278347e+00	-9.964131590594102e+00
1	 1.902068293565090e-01	 1.298644528759439e+00	-1.006743380667448e+01
1	 1.660160276130074e-01	 1.301958113222162e+00	-1.015690938603937e+01
1	 1.419211090973555e-01	 1.304804448490407e+00	-1.023268786144317e+01
1	 1.179339497567045e-01	 1.307190817555246e+00	-1.029492111705684e+01
1	 9.406599966852608e-02	 1.309124836564689e+00	-1.034378220717904e+01
1	 7.032827536595314e-02	 1.310614429833036e+00	-1.037946414065790e+01
1	 4.673135367012803e-02	 1.311667804966393e+00	-1.040217863900116e+01
1	 2.328536698438725e-02	 1.312293428195356e+00	-1.041215487588066e+01
1	 0.000000000000000e+00	 1.312500000000000e+00	-1.040963820542315e+01
1	 2.411010444516146e-01	 1.302879613153326e+00	-9.783208584993675e+00
1	 2.165239000351797e-01	 1.307188739517419e+00	-9.901857515074971e+00
1	 1.920183229706717e-01	 1.311012571889167e+00	-1.000641529391681e+01
1	 1.675971326394038e-01	 1.314357714299468e+00	-1.009698844063340e+01
1	 1.432727387094584e-01	 1.317231157522919e+00	-1.017370778113416e+01
1	 1.190571302322480e-01	 1.319640253912411e+00	-1.023672726382096e+01
1	 9.496186633360344e-02	 1.321592692150699e+00	-1.028622273122797e+01
1	 7.099806846602327e-02	 1.323096472021744e+00	-1.032239065617397e+01
1	 4.717641418228224e-02	 1.324159879299327e+00	-1.034544685076618e+01
1	 2.350713238479890e-02	 1.324791460844816e+00	-1.035562515630665e+01
1	 0.000000000000000e+00	 1.325000000000000e+00	-1.035317612181993e+01
1	 2.433755826071108e-01	 1.315170930256486e+00	-9.722315412624678e+00
1	 2.185665783380317e-01	 1.319520708756490e+00	-9.842365842906114e+00
1	 1.938298165844906e-01	 1.323380615018894e+00	-9.948171654580349e+00
1	 1.691782376653614e-01	 1.326757315376773e+00	-1.003983976471364e+01
1	 1.446243683210689e-01	 1.329657866555430e+00	-1.011750220490973e+01
1	 1.201803107072856e-01	 1.332089690269576e+00	-1.018131489209759e+01
1	 9.585773299820063e-02	 1.334060547736709e+00	-1.023145635369887e+01
1	 7.166786156567753e-02	 1.335578514210451e+00	-1.026812641611531e+01
1	 4.762147469412262e-02	 1.336651953632262e+00	-1.029154486523301e+01
1	 2.372889778503561e-02	 1.337289493494276e+00	-1.030195008733655e+01
1	 0.000000000000000e+00	 1.337500000000000e+00	-1.029959769847451e+01
1	 2.456501207625777e-01	 1.327462247359646e+00	-9.664139540993578e+00
1	 2.206092566406758e-01	 1.331852677995562e+00	-9.785579285105591e+00
1	 1.956413101979653e-01	 1.335748658148621e+00	-9.892625808847784e+00
1	 1.707593426908806e-01	 1.339156916454079e+00	-9.985386350794348e+00
1	 1.459759979321872e-01	 1.342084575587941e+00	-1.006399406321188e+01
1	 1.213034911818173e-01	 1.344539126626741e+00	-1.012860673851126e+01
1	 9.675359966231767e-02	 1.346528403322719e+00	-1.017940548852422e+01
1	 7.233765466491589e-02	 1.348060556399157e+00	-1.021659338591421e+01
1	 4.806653520564912e-02	 1.349144027965196e+00	-1.024039407677073e+01
1	 2.395066318509738e-02	 1.349787526143736e+00	-1.025105037311986e+01
1	 0.000000000000000e+00	 1.350000000000000e+00	-1.024882283371258e+01
1	 2.479246589180153e-01	 1.339753564462806e+00	-9.608606182006628e+00
1	 2.226519349431121e-01	 1.344184647234633e+00	-9.731423388984256e+00
1	 1.974528038110961e-01	 1.348116701278348e+00	-9.839703505518969e+00
1	 1.723404477159611e-01	 1.351556517531384e+00	-9.933554017352419e+00
1	 1.473276275428132e-01	 1.354511284620453e+00	-1.001310911472325e+01
1	 1.224266716558430e-01	 1.356988562983906e+00	-1.007852837503967e+01
1	 9.764946632595450e-02	 1.358996258908729e+00	-1.012999539683177e+01
1	 7.300744776373835e-02	 1.360542598587865e+00	-1.016771639465708e+01
1	 4.851159571686176e-02	 1.361636102298130e+00	-1.019191876435887e+01
1	 2.417242858498419e-02	 1.362285558793196e+00	-1.020284962774575e+01
1	 0.000000000000000e+00	 1.362500000000000e+00	-1.020077436537094e+01
1	 2.501991970734234e-01	 1.352044881565965e+00	-9.555643267136940e+00
1	 2.246946132453406e-01	 1.356516616473704e+00	-9.679826409223439e+00
1	 1.992642974238829e-01	 1.360484744408075e+00	-9.789333193437210e+00
1	 1.739215527406030e-01	 1.363956118608690e+00	-9.884271280374723e+00
1	 1.486792571529468e-01	 1.366937993652964e+00	-9.964775817810754e+00
1	 1.235498521293628e-01	 1.369437999341071e+00	-1.003100808013411e+01
1	 9.854533298911115e-02	 1.371464114494739e+00	-1.008315405752644e+01
1	 7.367724086214492e-02	 1.373024640776572e+00	-1.012142300491796e+01
1	 4.895665622776053e-02	 1.374128176631064e+00	-1.014604596046854e+01
1	 2.439419398469604e-02	 1.374783591442656e+00	-1.015727424297269e+01
1	 0.000000000000000e+00	 1.375000000000000e+00	-1.015537793718343e+01
1	 1.375000000000000e+00	 0.000000000000000e+00	 1.751234780499844e+00
1	 1.374783591442656e+00	 2.439419398469526e-02	 1.779374475180885e+00
1	 1.374128176631064e+00	 4.895665622775984e-02	 1.797118907365044e+00
1	 1.373024640776572e+00	 7.367724086214431e-02	 1.804224010986447e+00
1	 1.371464114494739e+00	 9.854533298911061e-02	 1.800460585728311e+00
1	 1.369437999341071e+00	 1.235498521293624e-01	 1.785615611300843e+00
1	 1.366937993652964e+00	 1.486792571529464e-01	 1.759493556539694e+00
1	 1.363956118608690e+00	 1.739215527406027e-01	 1.721917675696552e+00
1	 1.360484744408075e+00	 1.992642974238827e-01	 1.672731283912056e+00
1	 1.356516616473704e+00	 2.246946132453406e-01	 1.611799003525499e+00
1	 1.352044881565965e+00	 2.501991970734234e-01	 1.539007972592905e+00
1	 1.387500000000000e+00	 0.000000000000000e+00	 1.650749437250833e+00
1	 1.387281624092118e+00	 2.461595938431963e-02	 1.678807619696010e+00
1	 1.386620250964008e+00	 4.940171673850166e-02	 1.696772056103877e+00
1	 1.385506682965300e+00	 7.434703396034295e-02	 1.704399988438813e+00
1	 1.383931970080787e+00	 9.944119965202716e-02	 1.701462972217120e+00
1	 1.381887435698295e+00	 1.246730326026292e-01	 1.687748171104823e+00
1	 1.379364702685561e+00	 1.500308867628339e-01	 1.663059647911908e+00
1	 1.376355719686112e+00	 1.755026577650253e-01	 1.627219644534303e+00
1	 1.372852787537955e+00	 2.010757910364976e-01	 1.580069843011256e+00
1	 1.368848585712971e+00	 2.267372915474652e-01	 1.521472599526122e+00
1	 1.364336198669367e+00	 2.524737352288170e-01	 1.451312142889707e+00
1	 1.400000000000000e+00	 0.000000000000000e+00	 1.557187163243599e+00
1	 1.399779656741585e+00	 2.483772478394402e-02	 1.585120727823407e+00
1	 1.399112325296970e+00	 4.984677724924350e-02	 1.603259323635357e+00
1	 1.397988725154069e+00	 7.501682705854158e-02	 1.611361511618022e+00
1	 1.396399825666909e+00	 1.003370663149437e-01	 1.609199620454552e+00
1	 1.394336872055636e+00	 1.257962130758961e-01	 1.596561021700773e+00
1	 1.391791411718328e+00	 1.513825163727214e-01	 1.573249402867543e+00
1	 1.388755320763768e+00	 1.770837627894480e-01	 1.539086031186395e+00
1	 1.385220830668143e+00	 2.028872846491123e-01	 1.493911000401473e+00
1	 1.381180554952629e+00	 2.287799698495898e-01	 1.437584452587171e+00
1	 1.376627515773255e+00	 2.547482733842105e-01	 1.369987766696444e+00
1	 1.412500000000000e+00	 0.000000000000000e+00	 1.470364160179901e+00
1	 1.412277689391056e+00	 2.505949018356840e-02	 1.498131145662027e+00
1	 1.411604399629950e+00	 5.029183775998533e-02	 1.516399273177453e+00
1	 1.410470767342881e+00	 7.568662015674019e-02	 1.524928433292351e+00
1	 1.408867681253106e+00	 1.012329329778603e-01	 1.523491744730296e+00
1	 1.406786308413095e+00	 1.269193935491629e-01	 1.511876810235474e+00
1	 1.404218120751266e+00	 1.527341459826088e-01	 1.489886971930405e+00
1	 1.401154921841658e+00	 1.786648678138706e-01	 1.457342559072954e+00
1	 1.397588873798637e+00	 2.046987782617271e-01	 1.414082120728868e+00
1	 1.393512524192677e+00	 2.308226481517144e-01	 1.359963635528813e+00
1	 1.388918832877628e+00	 2.570228115396040e-01	 1.294865690378587e+00
1	 1.425000000000000e+00	 0.000000000000000e+00	 1.390103078824589e+00
1	 1.424775722040532e+00	 2.528125558319277e-02	 1.417662628219614e+00
1	 1.424096473962949e+00	 5.073689827072717e-02	 1.436016834150999e+00
1	 1.422952809531734e+00	 7.635641325493886e-02	 1.444926927185568e+00
1	 1.421335536839377e+00	 1.021287996407769e-01	 1.444166832516864e+00
1	 1.419235744770672e+00	 1.280425740224298e-01	 1.433524406762840e+00
1	 1.416644829784374e+00	 1.540857755924963e-01	 1.412802675781380e+00
1	 1.413554522919780e+00	 1.802459728382932e-01	 1.381821066581832e+00
1	 1.409956916929438e+00	 2.065102718743419e-01	 1.340416626020468e+00
1	 1.405844493433116e+00	 2.328653264538391e-01	 1.288445218616149e+00
1	 1.401210149982486e+00	 2.592973496949976e-01	 1.225782695516882e+00
1	 1.437500000000000e+00	 0.000000000000000e+00	 1.316232738611550e+00
1	 1.437273754690013e+00	 2.550302098281715e-02	 1.343545060764505e+00
1	 1.436588548295966e+00	 5.118195878146901e-02	 1.361943025388288e+00
1	 1.435434851720629e+00	 7.702620635313746e-02	 1.371189213152795e+00
1	 1.433803392425724e+00	 1.030246663036934e-01	 1.371058371722489e+00
1	 1.431685181128366e+00	 1.291657544956966e-01	 1.361338633682749e+00
1	 1.429071538817652e+00	 1.554374052023837e-01	 1.341832736990716e+00
1	 1.425954123998137e+00	 1.818270778627159e-01	 1.312359241200451e+00
1	 1.422324960060546e+00	 2.083217654869567e-01	 1.272753732319767e+00
1	 1.418176462673946e+00	 2.349080047559637e-01	 1.222870008800740e+00
1	 1.413501467087830e+00	 2.615718878503911e-01	 1.162581240854522e+00
1	 1.450000000000000e+00	 0.000000000000000e+00	 1.248587861752807e+00
1	 1.449771787339498e+00	 2.572478638244153e-02	 1.275614194590276e+00
1	 1.449080622629002e+00	 5.162701929221086e-02	 1.294014692658413e+00
1	 1.447916893909566e+00	 7.769599945133610e-02	 1.303553296571395e+00
1	 1.446271248012145e+00	 1.039205329666100e-01	 1.304005592051701e+00
1	 1.444134617486178e+00	 1.302889349689635e-01	 1.295160009174394e+00
1	 1.441498247851101e+00	 1.567890348122712e-01	 1.276819025626253e+00
1	 1.438353725076727e+00	 1.834081828871385e-01	 1.248800367399436e+00
1	 1.434693003191961e+00	 2.101332590995715e-01	 1.210938199944647e+00
1	 1.430508431915167e+00	 2.369506830580883e-01	 1.163084302449632e+00
1	 1.425792784193659e+00	 2.638464260057847e-01	 1.105109217591857e+00
1	 1.462500000000000e+00	 0.000000000000000e+00	 1.187008820983047e+00
1	 1.462269819988988e+00	 2.594655178206591e-02	 1.213711396330874e+00
1	 1.461572696962056e+00	 5.207207980295267e-02	 1.232074259652904e+00
1	 1.460398936098544e+00	 7.836579254953473e-02	 1.241862721096415e+00
1	 1.458739103598641e+00	 1.048163996295265e-01	 1.242853219629372e+00
1	 1.456584053844107e+00	 1.314121154422303e-01	 1.234834503786919e+00
1	 1.453924956884720e+00	 1.581406644221587e-01	 1.217608817907371e+00
1	 1.450753326155549e+00	 1.849892879115611e-01	 1.190993087445307e+00
1	 1.447061046323683e+00	 2.119447527121864e-01	 1.154820096552561e+00
1	 1.442840401156778e+00	 2.389933613602129e-01	 1.108939650754954e+00
1	 1.438084101299973e+00	 2.661209641611783e-01	 1.053219717230118e+00
1	 1.475000000000000e+00	 0.000000000000000e+00	 1.131341400130685e+00
1	 1.474767852638482e+00	 2.616831718169029e-02	 1.157683410022490e+00
1	 1.474064771295128e+00	 5.251714031369450e-02	 1.175969491633056e+00
1	 1.472880978287565e+00	 7.903558564773337e-02	 1.185966333987827e+00
1	 1.471206959185211e+00	 1.057122662924431e-01	 1.187451244101575e+00
1	 1.469033490202154e+00	 1.325352959154971e-01	 1.180213309406788e+00
1	 1.466351665918510e+00	 1.594922940320462e-01	 1.164054567130761e+00
1	 1.463152927234607e+00	 1.865703929359837e-01	 1.138791174375221e+00
1	 1.459429089455712e+00	 2.137562463248012e-01	 1.104254572253278e+00
1	 1.455172370398780e+00	 2.410360396623376e-01	 1.060292637071834e+00
1	 1.450375418406773e+00	 2.683955023165718e-01	 1.006770811219663e+00
1	 1.487500000000000e+00	 0.000000000000000e+00	 1.081436566760991e+00
1	 1.487265885287981e+00	 2.639008258131467e-02	 1.107382131162272e+00
1	 1.486556845628220e+00	 5.296220082443635e-02	 1.125553270994241e+00
1	 1.485363020476627e+00	 7.970537874593198e-02	 1.135718063269969e+00
1	 1.483674814771857e+00	 1.066081329553596e-01	 1.137654697479225e+00
1	 1.481482926560319e+00	 1.336584763887640e-01	 1.131152619873865e+00
1	 1.478778374952471e+00	 1.608439236419336e-01	 1.116013686146178e+00
1	 1.475552528313897e+00	 1.881514979604064e-01	 1.092053316418373e+00
1	 1.471797132588047e+00	 2.155677399374159e-01	 1.059101646060442e+00
1	 1.467504339641173e+00	 2.430787179644622e-01	 1.017004665482983e+00
1	 1.462666735514058e+00	 2.706700404719652e-01	 9.656253417184347e-01
1	 1.500000000000000e+00	 0.000000000000000e+00	 1.037150256187058e+00
1	 1.499763917937484e+00	 2.661184798093904e-02	 1.062664392064130e+00
1	 1.499048919961329e+00	 5.340726133517817e-02	 1.080683384051982e+00
1	 1.497845062665731e+00	 8.037517184413061e-02	 1.090976706033031e+00
1	 1.496142670358577e+00	 1.075039996182762e-01	 1.093323444039532e+00
1	 1.493932362918601e+00	 1.347816568620308e-01	 1.087513422566703e+00
1	 1.491205083986601e+00	 1.621955532518211e-01	 1.073348340708398e+00
1	 1.487952129393420e+00	 1.897326029848289e-01	 1.050642912196341e+00
1	 1.484165175720690e+00	 2.173792335500308e-01	 1.019226003020607e+00
1	 1.479836308883957e+00	 2.451213962665869e-01	 9.789417599350405e-01
1	 1.474958052621828e+00	 2.729445786273588e-01	 9.296507228124616e-01
1	 1.352044881565965e+00	 2.501991970734234e-01	 1.539007972592905e+00
1	 1.347063113700461e+00	 2.757643336008552e-01	 1.515737942186284e+00
1	 1.341565339750669e+00	 3.013759100415347e-01	 1.480723780664186e+00
1	 1.335546064616104e+00	 3.270194325395472e-01	 1.433853888558109e+00
1	 1.329000295832889e+00	 3.526800442951761e-01	 1.375041591700991e+00
1	 1.321923567499668e+00	 3.783425453957430e-01	 1.304226207737128e+00
1	 1.314311963391016e+00	 4.039914143349411e-01	 1.221374034452274e+00
1	 1.306162139129264e+00	 4.296108311925129e-01	 1.126479250741288e+00
1	 1.297471343285539e+00	 4.551847024354536e-01	 1.019564721263092e+00
1	 1.288237437281654e+00	 4.806966872910303e-01	 9.006826961619889e-01
1	 1.278458913966357e+00	 5.061302256309002e-01	 7.699153976621707e-01
1	 1.364336198669367e+00	 2.524737352288170e-01	 1.451312142889707e+00
1	 1.359309142004773e+00	 2.782712820886430e-01	 1.430592424760165e+00
1	 1.353761388291581e+00	 3.041156910427638e-01	 1.398410231576483e+00
1	 1.347687392473848e+00	 3.299923364729382e-01	 1.354640839886078e+00
1	 1.341082116701665e+00	 3.558862265176344e-01	 1.299183551298622e+00
1	 1.333941054474572e+00	 3.817820230831492e-01	 1.231962787936717e+00
1	 1.326260253965098e+00	 4.076640635585734e-01	 1.152929114927963e+00
1	 1.318036340392143e+00	 4.335163842061925e-01	 1.062060180751441e+00
1	 1.309266537313843e+00	 4.593227451881562e-01	 9.593615664422437e-01
1	 1.299948686710394e+00	 4.850666571792523e-01	 8.448675349442265e-01
1	 1.290081267729169e+00	 5.107314095045163e-01	 7.186416722843576e-01
1	 1.376627515773255e+00	 2.547482733842105e-01	 1.369987766696444e+00
1	 1.371555170309656e+00	 2.807782305764259e-01	 1.351684719955058e+00
1	 1.365957436833121e+00	 3.068554720439740e-01	 1.322198183751760e+00
1	 1.359828720332250e+00	 3.329652404062867e-01	 1.281390496212992e+00
1	 1.353163937571098e+00	 3.590924087400163e-01	 1.229147131017571e+00
1	 1.345958541450105e+00	 3.852215007704358e-01	 1.165377821478678e+00
1	 1.338208544539750e+00	 4.113367127820325e-01	 1.090017616829573e+00
1	 1.329910541655500e+00	 4.374219372196355e-01	 1.003027861521089e+00
1	 1.321061731342504e+00	 4.634607879405481e-01	 9.043970884889427e-01
1	 1.311659936139337e+00	 4.894366270670794e-01	 7.941418175922710e-01
1	 1.301703621492001e+00	 5.153325933776431e-01	 6.723072507647555e-01
1	 1.388918832877628e+00	 2.570228115396040e-01	 1.294865690378587e+00
1	 1.383801198615110e+00	 2.832851790642043e-01	 1.278849222124802e+00
1	 1.378153485375291e+00	 3.095952530451653e-01	 1.251925650429722e+00
1	 1.371970048191311e+00	 3.359381443395925e-01	 1.213944555635455e+00
1	 1.365245758441190e+00	 3.622985909623221e-01	 1.164777774571067e+00
1	 1.357976028426266e+00	 3.886609784576026e-01	 1.104320552964672e+00
1	 1.350156835114969e+00	 4.150093620053185e-01	 1.032492635164171e+00
1	 1.341784742919335e+00	 4.413274902328413e-01	 9.492392819694493e-01
1	 1.332856925371522e+00	 4.675988306926294e-01	 8.545322074883714e-01
1	 1.323371185568486e+00	 4.938065969545113e-01	 7.483704261301769e-01
1	 1.313325975254853e+00	 5.199337772502799e-01	 6.307810011461297e-01
1	 1.401210149982486e+00	 2.592973496949976e-01	 1.225782695516882e+00
1	 1.396047226921136e+00	 2.857921275519781e-01	 1.211926136347708e+00
1	 1.390349533918090e+00	 3.123350340463378e-01	 1.187436328596094e+00
1	 1.384111376051029e+00	 3.389110482728556e-01	 1.152150270702876e+00
1	 1.377327579311940e+00	 3.655047731845517e-01	 1.105926348700001e+00
1	 1.369993515403056e+00	 3.921004561446497e-01	 1.048645516659510e+00
1	 1.362105125690758e+00	 4.186820112284312e-01	 9.802124195000506e-01
1	 1.353658944183649e+00	 4.452330432458106e-01	 9.005564489484239e-01
1	 1.344652119400897e+00	 4.717368734443999e-01	 8.096327235227632e-01
1	 1.335082434997839e+00	 4.981765668415484e-01	 7.074229835636221e-01
1	 1.324948329017727e+00	 5.245349611224271e-01	 5.939363925925881e-01
1	 1.413501467087830e+00	 2.615718878503911e-01	 1.162581240854522e+00
1	 1.408293255227734e+00	 2.882990760397471e-01	 1.150761225786354e+00
1	 1.402545582461518e+00	 3.150748150474914e-01	 1.128579351863231e+00
1	 1.396252703911406e+00	 3.418839522060762e-01	 1.095860206919504e+00
1	 1.389409400183348e+00	 3.687109554067051e-01	 1.052448907389108e+00
1	 1.382011002380474e+00	 3.955399338315773e-01	 9.982123065057826e-01
1	 1.374053416267115e+00	 4.223546604513709e-01	 9.330401498553320e-01
1	 1.365533145448441e+00	 4.491385962585428e-01	 8.568461690716460e-01
1	 1.356447313430629e+00	 4.758749161958595e-01	 7.695691044976067e-01
1	 1.346793684427397e+00	 5.025465367281904e-01	 6.711736477503017e-01
1	 1.336570682780620e+00	 5.291361449940847e-01	 5.616512953408066e-01
1	 1.425792784193659e+00	 2.638464260057847e-01	 1.105109217591857e+00
1	 1.420539283534902e+00	 2.908060245275114e-01	 1.095205572114996e+00
1	 1.414741631005576e+00	 3.178145960486264e-01	 1.075209056132751e+00
1	 1.408394031772441e+00	 3.448568561392540e-01	 1.044932013737762e+00
1	 1.401491221055414e+00	 3.719171376287824e-01	 1.004206468278865e+00
1	 1.394028489358520e+00	 3.989794115183852e-01	 9.528853580343259e-01
1	 1.386001706844041e+00	 4.260273096741372e-01	 8.908437241785875e-01
1	 1.377407346713711e+00	 4.530441492710384e-01	 8.179798418281620e-01
1	 1.368242507460718e+00	 4.800129589470085e-01	 7.342162849423821e-01
1	 1.358504933857160e+00	 5.069165066144373e-01	 6.395009159321593e-01
1	 1.348193036543535e+00	 5.337373288652523e-01	 5.338077909986286e-01
1	 1.438084101299973e+00	 2.661209641611783e-01	 1.053219717230118e+00
1	 1.432785311842642e+00	 2.933129730152711e-01	 1.045115348232730e+00
1	 1.426937679550262e+00	 3.205543770497423e-01	 1.027184757275490e+00
1	 1.420535359634135e+00	 3.478297600723892e-01	 9.992282072955041e-01
1	 1.413573041928139e+00	 3.751233198507835e-01	 9.610648005434403e-01
1	 1.406045976337195e+00	 4.024188892050735e-01	 9.125337414587047e-01
1	 1.397949997421535e+00	 4.296999588967306e-01	 8.534955567278854e-01
1	 1.389281547979460e+00	 4.569497022832971e-01	 7.838332633057320e-01
1	 1.380037701491165e+00	 4.841510016978469e-01	 7.034534751291691e-01
1	 1.370216183287127e+00	 5.112864765002894e-01	 6.122874392916027e-01
1	 1.359815390306469e+00	 5.383385127359304e-01	 5.102919925719422e-01
1	 1.450375418406773e+00	 2.683955023165718e-01	 1.006770811219663e+00
1	 1.445031340150954e+00	 2.958199215030261e-01	 1.000351602533627e+00
1	 1.439133728095578e+00	 3.232941580508395e-01	 9.843705401158488e-01
1	 1.432676687496486e+00	 3.508026640054819e-01	 9.586159642005233e-01
1	 1.425654862801522e+00	 3.783295020727082e-01	 9.228942235545365e-01
1	 1.418063463316499e+00	 4.058583668916420e-01	 8.770309652903876e-01
1	 1.409898287999598e+00	 4.333726081191508e-01	 8.208723867017269e-01
1	 1.401155749245687e+00	 4.608552552953189e-01	 7.542864398942499e-01
1	 1.391832895521968e+00	 4.882890444483744e-01	 6.771639798971389e-01
1	 1.381927432717298e+00	 5.156564463857464e-01	 5.894198469370899e-01
1	 1.371437744069425e+00	 5.429396966061187e-01	 4.909938736427260e-01
1	 1.462666735514058e+00	 2.706700404719652e-01	 9.656253417184347e-01
1	 1.457277368459836e+00	 2.983268699907763e-01	 9.607800540540177e-01
1	 1.451329776641522e+00	 3.260339390519178e-01	 9.466350580556007e-01
1	 1.444818015359496e+00	 3.537755679385318e-01	 9.229669257124915e-01
1	 1.437736683675562e+00	 3.815356842945568e-01	 8.895694156966036e-01
1	 1.430080950296430e+00	 4.092978445780909e-01	 8.462547898556021e-01
1	 1.421846578578230e+00	 4.370452573413978e-01	 7.928550965188721e-01
1	 1.413029950512391e+00	 4.647608083071040e-01	 7.292234113823093e-01
1	 1.403628089553128e+00	 4.924270871985911e-01	 6.552350266118975e-01
1	 1.393638682147674e+00	 5.200264162708083e-01	 5.707885787633664e-01
1	 1.383060097832401e+00	 5.475408804758173e-01	 4.758071061599724e-01
1	 1.474958052621828e+00	 2.729445786273588e-01	 9.296507228124616e-01
1	 1.469523396769290e+00	 3.008338184785218e-01	 9.262708978623699e-01
1	 1.463525825188096e+00	 3.287737200529772e-01	 9.138513427164822e-01
1	 1.456959343223164e+00	 3.567484718715391e-01	 8.921570117157824e-01
1	 1.449818504550261e+00	 3.847418665163292e-01	 8.609692327413179e-01
1	 1.442098437276991e+00	 4.127373222644202e-01	 8.200870501364133e-01
1	 1.433794869157430e+00	 4.407179065634715e-01	 7.693285391841553e-01
1	 1.424904151779575e+00	 4.686663613186522e-01	 7.085320828989041e-01
1	 1.415423283584646e+00	 4.965651299484973e-01	 6.375576017268905e-01
1	 1.405349931578255e+00	 5.243963861554752e-01	 5.562877266687198e-01
1	 1.394682451595397e+00	 5.521420643450261e-01	 4.646289063410504e-01
1	 1.278458913966357e+00	 5.061302256309002e-01	 7.699153976621707e-01
1	 1.268134914741677e+00	 5.314685672938273e-01	 6.709511539615568e-01
1	 1.257265245121364e+00	 5.566948027665093e-01	 5.610921109049174e-01
1	 1.245850388605507e+00	 5.817918951274083e-01	 4.404717657759725e-01
1	 1.233891518761329e+00	 6.067427131481519e-01	 3.092524819374323e-01
1	 1.221390509410137e+00	 6.315300654405880e-01	 1.676254935735665e-01
1	 1.208349942826211e+00	 6.561367355249965e-01	 1.581077376337103e-02
1	 1.194773115862958e+00	 6.805455176867415e-01	-1.459432369521260e-01
1	 1.180664043931685e+00	 7.047392534804008e-01	-3.173600433260928e-01
1	 1.166027462769146e+00	 7.287008687329783e-01	-4.981356502342834e-01
1	 1.150868827941644e+00	 7.524134108913275e-01	-6.879392592149369e-01
1	 1.290081267729169e+00	 5.107314095045163e-01	 7.186416722843576e-01
1	 1.279663413966696e+00	 5.363000997284292e-01	 6.241914727478628e-01
1	 1.268694929168601e+00	 5.617556646147478e-01	 5.189981313741765e-01
1	 1.257176301230428e+00	 5.870809123608272e-01	 4.031682795693304e-01
1	 1.245108714388191e+00	 6.122585559998535e-01	 2.768367449605378e-01
1	 1.232494059497939e+00	 6.372712478583265e-01	 1.401666539308925e-01
1	 1.219334942309169e+00	 6.621016149430717e-01	-6.650597308897443e-03
1	 1.205634689646682e+00	 6.867322951238657e-01	-1.633955064843224e-01
1	 1.191397353425526e+00	 7.111459739694163e-01	-3.298207662643979e-01
1	 1.176627712434604e+00	 7.353254220869723e-01	-5.056517039014138e-01
1	 1.161331271836279e+00	 7.592535328092679e-01	-6.905868598279122e-01
1	 1.301703621492001e+00	 5.153325933776431e-01	 6.723072507647555e-01
1	 1.291191913191545e+00	 5.411316321624557e-01	 5.821697900076883e-01
1	 1.280124613215495e+00	 5.668165264623538e-01	 4.814395461741778e-01
1	 1.268502213854855e+00	 5.923699295935861e-01	 3.701966401169651e-01
1	 1.256325910014428e+00	 6.177743988508976e-01	 2.485487276310669e-01
1	 1.243597609585001e+00	 6.430124302754390e-01	 1.166311986951653e-01
1	 1.230319941791294e+00	 6.680664943605835e-01	-2.539274960584745e-02
1	 1.216496263429501e+00	 6.929190725605179e-01	-1.773321703803186e-01
1	 1.202130662918409e+00	 7.175526944580828e-01	-3.389685574435903e-01
1	 1.187227962099074e+00	 7.419499754407718e-01	-5.100561710685196e-01
1	 1.171793715729913e+00	 7.660936547271976e-01	-6.903224999763079e-01
1	 1.313325975254853e+00	 5.199337772502799e-01	 6.307810011461297e-01
1	 1.302720412416223e+00	 5.459631645959069e-01	 5.447603181745380e-01
1	 1.291554297262048e+00	 5.718773883093278e-01	 4.482959466093772e-01
1	 1.279828126478787e+00	 5.976589468256857e-01	 3.414418426410973e-01
1	 1.267543105640037e+00	 6.232902417012837e-01	 2.242788444747069e-01
1	 1.254701159671323e+00	 6.487536126919254e-01	 9.691496722112011e-02
1	 1.241304941272585e+00	 6.740313737775310e-01	-4.051442344665832e-02
1	 1.227357837211414e+00	 6.991058499966986e-01	-1.878465633012572e-01
1	 1.212863972410334e+00	 7.239594149464007e-01	-3.448913708029270e-01
1	 1.197828211762553e+00	 7.485745287943757e-01	-5.114316602261367e-01
1	 1.182256159622547e+00	 7.729337766451166e-01	-6.872234883450935e-01
1	 1.324948329017727e+00	 5.245349611224271e-01	 5.939363925925881e-01
1	 1.314248911640731e+00	 5.507946970287825e-01	 5.118416832807329e-01
1	 1.302983981308260e+00	 5.769382501556699e-01	 4.194511488507119e-01
1	 1.291154039102225e+00	 6.029479640571251e-01	 3.167929176192767e-01
1	 1.278760301265018e+00	 6.288060845510121e-01	 2.039213551214237e-01
1	 1.265804709756905e+00	 6.544947951077862e-01	 8.091745362289737e-02
1	 1.252289940753044e+00	 6.799962531939144e-01	-5.211089457801896e-02
1	 1.238219410992422e+00	 7.052926274324078e-01	-1.950287450079388e-01
1	 1.223597281901301e+00	 7.303661354343699e-01	-3.476740741786797e-01
1	 1.208428461425044e+00	 7.551990821477844e-01	-5.098578813213736e-01
1	 1.192718603514182e+00	 7.797738985630251e-01	-6.813644210339064e-01
1	 1.336570682780620e+00	 5.291361449940847e-01	 5.616512953408066e-01
1	 1.325777410865070e+00	 5.556262294610830e-01	 4.832967330618235e-01
1	 1.314413665354130e+00	 5.819991120013793e-01	 3.947930102457535e-01
1	 1.302479951725169e+00	 6.082369812879048e-01	 2.961427553384762e-01
1	 1.289977496889373e+00	 6.343219274000825e-01	 1.873741971270836e-01
1	 1.276908259841745e+00	 6.602359775230207e-01	 6.854164787145431e-02
1	 1.263274940232669e+00	 6.859611326097342e-01	-6.027412480766767e-02
1	 1.249080984772522e+00	 7.114794048676448e-01	-1.989656427478906e-01
1	 1.234330591391309e+00	 7.367728559219902e-01	-3.473985834824478e-01
1	 1.219028711086545e+00	 7.618236355009983e-01	-5.054117717815731e-01
1	 1.203181047404816e+00	 7.866140204809229e-01	-6.728172994955519e-01
1	 1.348193036543535e+00	 5.337373288652523e-01	 5.338077909986286e-01
1	 1.337305910089237e+00	 5.604577618928078e-01	 4.590123549865988e-01
1	 1.325843349399657e+00	 5.870599738464568e-01	 3.742132551300660e-01
1	 1.313805864347619e+00	 6.135259985180249e-01	 2.793879395239999e-01
1	 1.301194692513100e+00	 6.398377702484953e-01	 1.745388274420770e-01
1	 1.288011809925847e+00	 6.659771599376293e-01	 5.969388511110757e-02
1	 1.274259939711461e+00	 6.919260120249896e-01	-6.509290484659089e-02
1	 1.259942558551717e+00	 7.176661823024106e-01	-1.997411862773738e-01
1	 1.245063900880360e+00	 7.431795764092617e-01	-3.441439899393116e-01
1	 1.229628960747055e+00	 7.684481888540168e-01	-4.981676160194051e-01
1	 1.213643491294451e+00	 7.934541423988104e-01	-6.616516423742071e-01
1	 1.359815390306469e+00	 5.383385127359304e-01	 5.102919925719422e-01
1	 1.348834409313236e+00	 5.652892943239575e-01	 4.388793036189476e-01
1	 1.337273033444844e+00	 5.921208356909020e-01	 3.576073095713107e-01
1	 1.325131776969575e+00	 6.188150157474851e-01	 2.664285895002694e-01
1	 1.312411888136201e+00	 6.453536130962503e-01	 1.653200720098938e-01
1	 1.299115360009208e+00	 6.717183423516120e-01	 5.428370270338431e-02
1	 1.285244939189419e+00	 6.978908914396811e-01	-6.665298982601567e-02
1	 1.270804132330007e+00	 7.238529597367049e-01	-1.974364359593996e-01
1	 1.255797210368453e+00	 7.495862968961844e-01	-3.379866808009544e-01
1	 1.240229210406577e+00	 7.750727422068403e-01	-4.881971588096173e-01
1	 1.224105935183085e+00	 8.002942643166867e-01	-6.479345916083471e-01
1	 1.371437744069425e+00	 5.429396966061187e-01	 4.909938736427260e-01
1	 1.360362908537064e+00	 5.701208267545316e-01	 4.227920367578697e-01
1	 1.348702717489688e+00	 5.971816975347151e-01	 3.448741445161930e-01
1	 1.336457689591036e+00	 6.241040329762855e-01	 2.571682103772645e-01
1	 1.323629083758674e+00	 6.508694559433473e-01	 1.596259830132122e-01
1	 1.310218910091828e+00	 6.774595247649685e-01	 5.222370453987843e-02
1	 1.296229938666545e+00	 7.038557708538085e-01	-6.503722792361211e-02
1	 1.281665706107390e+00	 7.300397371705269e-01	-1.921297043481203e-01
1	 1.266530519855588e+00	 7.559930173827586e-01	-3.290004539207675e-01
1	 1.250829460065109e+00	 7.816972955594688e-01	-4.755697129007475e-01
1	 1.234568379070720e+00	 8.071343862345530e-01	-6.317310131386491e-01
1	 1.383060097832401e+00	 5.475408804758173e-01	 4.758071061599724e-01
1	 1.371891407760723e+00	 5.749523591845306e-01	 4.106485598393721e-01
1	 1.360132401534192e+00	 6.022425593778959e-01	 3.359161268459539e-01
1	 1.347783602212004e+00	 6.293930502044260e-01	 2.515135507906545e-01
1	 1.334846279380521e+00	 6.563852987897866e-01	 1.573677033175581e-01
1	 1.321322460173709e+00	 6.832007071776993e-01	 5.342943219643861e-02
1	 1.307214938142837e+00	 7.098206502673718e-01	-6.032568250443499e-02
1	 1.292527279883867e+00	 7.362265146038777e-01	-1.838966716429936e-01
1	 1.277263829341764e+00	 7.623997378689840e-01	-3.172566265521009e-01
1	 1.261429709722652e+00	 7.883218489119022e-01	-4.603522612011444e-01
1	 1.245030822957354e+00	 8.139745081524086e-01	-6.131035925380840e-01
1	 1.394682451595397e+00	 5.521420643450261e-01	 4.646289063410504e-01
1	 1.383419906984210e+00	 5.797838916139538e-01	 4.023502781182575e-01
1	 1.371562085578352e+00	 6.073034212204445e-01	 3.306388778791214e-01
1	 1.359109514832477e+00	 6.346820674319068e-01	 2.493744677548763e-01
1	 1.346063475001740e+00	 6.619011416355681e-01	 1.584593376929167e-01
1	 1.332426010254849e+00	 6.889418895898038e-01	 5.781924252966118e-02
1	 1.318199937618296e+00	 7.157855296803712e-01	-5.259574815477712e-02
1	 1.303388853659439e+00	 7.424132920367565e-01	-1.728104953702609e-01
1	 1.287997138826982e+00	 7.688064583548604e-01	-3.028241387066102e-01
1	 1.272029959379205e+00	 7.949464022641402e-01	-4.426095538556414e-01
1	 1.255493266842989e+00	 8.208146300702533e-01	-5.921129258606234e-01
1	 1.150868827941644e+00	 7.524134108913275e-01	-6.879392592149369e-01
1	 1.135194312046280e+00	 7.758600865535584e-01	-8.779585846466362e-01
1	 1.119010799580969e+00	 7.990242990192602e-01	-1.075019199737124e+00
1	 1.102325879470541e+00	 8.218896856909992e-01	-1.278721684850926e+00
1	 1.085147835250138e+00	 8.444401551573477e-01	-1.488646788308313e+00
1	 1.067485632918797e+00	 8.666599237864125e-01	-1.704356781691543e+00
1	 1.049348906492078e+00	 8.885335516599897e-01	-1.925396917887241e+00
1	 1.030747941296336e+00	 9.100459776802332e-01	-2.151296983686670e+00
1	 1.011693655061181e+00	 9.311825536839639e-01	-2.381572937914363e+00
1	 9.921975768804164e-01	 9.519290774042841e-01	-2.615728625286048e+00
1	 9.722718241249999e-01	 9.722718241249999e-01	-2.853257555516477e+00
1	 1.161331271836279e+00	 7.592535328092679e-01	-6.905868598279122e-01
1	 1.145514260342112e+00	 7.829133600673248e-01	-8.758354111767568e-01
1	 1.129183625036312e+00	 8.062881562818414e-01	-1.068161805497727e+00
1	 1.112347023833931e+00	 8.293614101044999e-01	-1.267196812295583e+00
1	 1.095012815574977e+00	 8.521168838383165e-01	-1.472551302224105e+00
1	 1.077190047767566e+00	 8.745386503638365e-01	-1.683817478508015e+00
1	 1.058888442009220e+00	 8.966111293999636e-01	-1.900570210862559e+00
1	 1.040118377129261e+00	 9.183191229297812e-01	-2.122368464555305e+00
1	 1.020890870109385e+00	 9.396478496249905e-01	-2.348756816408561e+00
1	 1.001217554853339e+00	 9.605829781071776e-01	-2.579267048766880e+00
1	 9.811106588900002e-01	 9.811106588899999e-01	-2.813419811761738e+00
1	 1.171793715729913e+00	 7.660936547271976e-01	-6.903224999763079e-01
1	 1.155834208636955e+00	 7.899666335812606e-01	-8.710095035585957e-01
1	 1.139356450490695e+00	 8.135520135447331e-01	-1.058810186464245e+00
1	 1.122368168196411e+00	 8.368331345184133e-01	-1.253385105179698e+00
1	 1.104877795898975e+00	 8.597936125197603e-01	-1.454374850192726e+00
1	 1.086894462615585e+00	 8.824173769417563e-01	-1.661401154961849e+00
1	 1.068427977525723e+00	 9.046887071404149e-01	-1.874068107154405e+00
1	 1.049488812961676e+00	 9.265922681797479e-01	-2.091963455611828e+00
1	 1.030088085157229e+00	 9.481131455663370e-01	-2.314660005659246e+00
1	 1.010237532826072e+00	 9.692368788102509e-01	-2.541717094598350e+00
1	 9.899494936549997e-01	 9.899494936549997e-01	-2.772682138518009e+00
1	 1.182256159622547e+00	 7.729337766451166e-01	-6.872234883450935e-01
1	 1.166154156930807e+00	 7.970199070953664e-01	-8.635526157966443e-01
1	 1.149529275944117e+00	 8.208158708079358e-01	-1.047030560995037e+00
1	 1.132389312557980e+00	 8.443048589327393e-01	-1.237347275926579e+00
1	 1.114742776222132e+00	 8.674703412016775e-01	-1.434172679099352e+00
1	 1.096598877462853e+00	 8.902961035201722e-01	-1.637157643453896e+00
1	 1.077967513041584e+00	 9.127662848813437e-01	-1.845935086322735e+00
1	 1.058859248793580e+00	 9.348654134301332e-01	-2.060121155702902e+00
1	 1.039285300204712e+00	 9.565784415080028e-01	-2.279316506267929e+00
1	 1.019257510798614e+00	 9.778907795135040e-01	-2.503107657764370e+00
1	 9.987883284199998e-01	 9.987883284199998e-01	-2.731068427720630e+00
1	 1.192718603514182e+00	 7.797738985630251e-01	-6.813644210339064e-01
1	 1.176474105223669e+00	 8.040731806096418e-01	-8.535339842111090e-01
1	 1.159702101396579e+00	 8.280797280714499e-01	-1.032886823997309e+00
1	 1.142410456918639e+00	 8.517765833474782e-01	-1.219141906699052e+00
1	 1.124607756544448e+00	 8.751470698840697e-01	-1.411998097341949e+00
1	 1.106303292309371e+00	 8.981748300990842e-01	-1.611135027879663e+00
1	 1.087507048556805e+00	 9.208438626227500e-01	-1.816214067241152e+00
1	 1.068229684624973e+00	 9.431385586809372e-01	-2.026879388276968e+00
1	 1.048482515251834e+00	 9.650437374499877e-01	-2.242759125832482e+00
1	 1.028277488770966e+00	 9.865446802169371e-01	-2.463466619389714e+00
1	 1.007627163185000e+00	 1.007627163185000e+00	-2.688601732991364e+00
1	 1.203181047404816e+00	 7.866140204809229e-01	-6.728172994955519e-01
1	 1.186794053515542e+00	 8.111264541240873e-01	-8.410204369024141e-01
1	 1.169874926848081e+00	 8.353435853352749e-01	-1.016440647946763e+00
1	 1.152431601278387e+00	 8.592483077626292e-01	-1.198825542019534e+00
1	 1.134472736865924e+00	 8.828237985669359e-01	-1.387902559113322e+00
1	 1.116007707155137e+00	 9.060535566784921e-01	-1.583379719651323e+00
1	 1.097046584071386e+00	 9.289214403646335e-01	-1.784946475952806e+00
1	 1.077600120455857e+00	 9.514117039321597e-01	-1.992274661184253e+00
1	 1.057679730298597e+00	 9.735090333922922e-01	-2.205019530816861e+00
1	 1.037297466743129e+00	 9.951985809205499e-01	-2.422820890820857e+00
1	 1.016465997950000e+00	 1.016465997950000e+00	-2.645304306086819e+00
1	 1.213643491294451e+00	 7.934541423988104e-01	-6.616516423742071e-01
1	 1.197114001806424e+00	 8.181797276387025e-01	-8.260764975538155e-01
1	 1.180047752298623e+00	 8.426074425994110e-01	-9.977515786820337e-01
1	 1.162452745637224e+00	 8.667200321781930e-01	-1.176452776599335e+00
1	 1.144337717186559e+00	 8.905005272502764e-01	-1.361935744323751e+00
1	 1.125712122000154e+00	 9.139322832583960e-01	-1.553936529787496e+00
1	 1.106586119585325e+00	 9.369990181069947e-01	-1.752172310016592e+00
1	 1.086970556286230e+00	 9.596848491838008e-01	-1.956342223383531e+00
1	 1.066876945345000e+00	 9.819743293349166e-01	-2.166128295737981e+00
1	 1.046317444715101e+00	 1.003852481624343e+00	-2.381196455426765e+00
1	 1.025304832715000e+00	 1.025304832715000e+00	-2.601197631461615e+00
1	 1.224105935183085e+00	 8.002942643166867e-01	-6.479345916083471e-01
1	 1.207433950096316e+00	 8.252330011534879e-01	-8.087644839107149e-01
1	 1.190220577748204e+00	 8.498712998638577e-01	-9.768771262866436e-01
1	 1.172473889995152e+00	 8.741917565941695e-01	-1.152076338663885e+00
1	 1.154202697506354e+00	 8.981772559340911e-01	-1.334145634425048e+00
1	 1.135416536844419e+00	 9.218110098387959e-01	-1.522848737306172e+00
1	 1.116125655098625e+00	 9.450765958498334e-01	-1.717930199553494e+00
1	 1.096340992116092e+00	 9.679579944358603e-01	-1.919116118740931e+00
1	 1.076074160391042e+00	 9.904396252778599e-01	-2.126114949830052e+00
1	 1.055337422686883e+00	 1.012506382328315e+00	-2.338618408256019e+00
1	 1.034143667480000e+00	 1.034143667480000e+00	-2.556302459059038e+00
1	 1.234568379070720e+00	 8.071343862345530e-01	-6.317310131386491e-01
1	 1.217753898385218e+00	 8.322862746684426e-01	-7.891446012526383e-01
1	 1.200393403196825e+00	 8.571351571286158e-01	-9.538728513497744e-01
1	 1.182495034352168e+00	 8.816634810105580e-01	-1.125747169041219e+00
1	 1.164067677825308e+00	 9.058539846183804e-01	-1.304578584379147e+00
1	 1.145120951687934e+00	 9.296897364196918e-01	-1.490158154139940e+00
1	 1.125665190611283e+00	 9.531541735931494e-01	-1.682257465188750e+00
1	 1.105711427945443e+00	 9.762311396883390e-01	-1.880629237093173e+00
1	 1.085271375436723e+00	 9.989049212211228e-01	-2.085008021336263e+00
1	 1.064357400658475e+00	 1.021160283032468e+00	-2.295110993677596e+00
1	 1.042982502245000e+00	 1.042982502245000e+00	-2.510638835434439e+00
1	 1.245030822957354e+00	 8.139745081524086e-01	-6.131035925380840e-01
1	 1.228073846673131e+00	 8.393395481835675e-01	-7.672750311523069e-01
1	 1.210566228644485e+00	 8.643990143936846e-01	-9.287924468778209e-01
1	 1.192516178708275e+00	 8.891352054273600e-01	-1.097514496262593e+00
1	 1.173932658143422e+00	 9.135307133031441e-01	-1.273279390997978e+00
1	 1.154825366530698e+00	 9.375684630010837e-01	-1.455905186778258e+00
1	 1.135204726123301e+00	 9.612317513369427e-01	-1.645190173072864e+00
1	 1.115081863774285e+00	 9.845042849412358e-01	-1.840913362736236e+00
1	 1.094468590482045e+00	 1.007370217164705e+00	-2.042835079567233e+00
1	 1.073377378629877e+00	 1.029814183736800e+00	-2.250697641123593e+00
1	 1.051821337010000e+00	 1.051821337010000e+00	-2.464226133309311e+00
1	 1.255493266842989e+00	 8.208146300702533e-01	-5.921129258606234e-01
1	 1.238393794960052e+00	 8.463928216988620e-01	-7.432120157967361e-01
1	 1.220739054091186e+00	 8.716628716590645e-01	-9.016878161103247e-01
1	 1.202537323063470e+00	 8.966069298445739e-01	-1.067425907908249e+00
1	 1.183797638460694e+00	 9.212074419883817e-01	-1.240291357866387e+00
1	 1.164529781372711e+00	 9.454471895829715e-01	-1.420128894827605e+00
1	 1.144744261634678e+00	 9.693093290812137e-01	-1.606763187151230e+00
1	 1.124452299602615e+00	 9.927774301945512e-01	-1.799999220489511e+00
1	 1.103665805527006e+00	 1.015835513108607e+00	-1.999622774856483e+00
1	 1.082397356601088e+00	 1.038468084441313e+00	-2.205400999045040e+00
1	 1.060660171775000e+00	 1.060660171775000e+00	-2.417083079647759e+00
1	 9.722718241249999e-01	 9.722718241249999e-01	-2.853257555516477e+00
1	 9.519290774042841e-01	 9.921975768804165e-01	-3.117199406298392e+00
1	 9.311825536839636e-01	 1.011693655061181e+00	-3.381430214800933e+00
1	 9.100459776802337e-01	 1.030747941296336e+00	-3.645395450147304e+00
1	 8.885335516599900e-01	 1.049348906492078e+00	-3.908542465986899e+00
1	 8.666599237864129e-01	 1.067485632918797e+00	-4.170322495492050e+00
1	 8.444401551573482e-01	 1.085147835250138e+00	-4.430192618592352e+00
1	 8.218896856909996e-01	 1.102325879470541e+00	-4.687617689197097e+00
1	 7.990242990192610e-01	 1.119010799580969e+00	-4.942072210569035e+00
1	 7.758600865535591e-01	 1.135194312046279e+00	-5.193042147540153e+00
1	 7.524134108913274e-01	 1.150868827941644e+00	-5.440026664890178e+00
1	 9.811106588900002e-01	 9.811106588899999e-01	-2.813419811761738e+00
1	 9.605829781071776e-01	 1.001217554853339e+00	-3.074048484131601e+00
1	 9.396478496249905e-01	 1.020890870109385e+00	-3.335119485317759e+00
1	 9.183191229297815e-01	 1.040118377129261e+00	-3.596099304460151e+00
1	 8.966111293999636e-01	 1.058888442009220e+00	-3.856455774982507e+00
1	 8.745386503638366e-01	 1.077190047767566e+00	-4.115659987713755e+00
1	 8.521168838383170e-01	 1.095012815574976e+00	-4.373188179730019e+00
1	 8.293614101045006e-01	 1.112347023833931e+00	-4.628523587165509e+00
1	 8.062881562818418e-01	 1.129183625036312e+00	-4.881158250618087e+00
1	 7.829133600673254e-01	 1.145514260342112e+00	-5.130594762260903e+00
1	 7.592535328092677e-01	 1.161331271836278e+00	-5.376347944358672e+00
1	 9.899494936549997e-01	 9.899494936549997e-01	-2.772682138518009e+00
1	 9.692368788102508e-01	 1.010237532826071e+00	-3.030155781309495e+00
1	 9.481131455663370e-01	 1.030088085157229e+00	-3.288223513189381e+00
1	 9.265922681797482e-01	 1.049488812961676e+00	-3.546372543095721e+00
1	 9.046887071404153e-01	 1.068427977525723e+00	-3.804090889515761e+00
1	 8.824173769417565e-01	 1.086894462615585e+00	-4.060869212764954e+00
1	 8.597936125197605e-01	 1.104877795898974e+00	-4.316202626433466e+00
1	 8.368331345184140e-01	 1.122368168196410e+00	-4.569592476740462e+00
1	 8.135520135447336e-01	 1.139356450490694e+00	-4.820548078878750e+00
1	 7.899666335812616e-01	 1.155834208636955e+00	-5.068588399876715e+00
1	 7.660936547271977e-01	 1.171793715729913e+00	-5.313243678048956e+00
1	 9.987883284199998e-01	 9.987883284199998e-01	-2.731068427720630e+00
1	 9.778907795135039e-01	 1.019257510798614e+00	-2.985540991125162e+00
1	 9.565784415080025e-01	 1.039285300204712e+00	-3.240757835831825e+00
1	 9.348654134301334e-01	 1.058859248793580e+00	-3.496226598328739e+00
1	 9.127662848813437e-01	 1.077967513041584e+00	-3.751455195279985e+00
1	 8.902961035201726e-01	 1.096598877462853e+00	-4.005953575967984e+00
1	 8.674703412016779e-01	 1.114742776222131e+00	-4.259235457314744e+00
1	 8.443048589327401e-01	 1.132389312557980e+00	-4.510820030709538e+00
1	 8.208158708079366e-01	 1.149529275944116e+00	-4.760233630175294e+00
1	 7.970199070953669e-01	 1.166154156930806e+00	-5.007011351812944e+00
1	 7.729337766451166e-01	 1.182256159622547e+00	-5.250698614961560e+00
1	 1.007627163185000e+00	 1.007627163185000e+00	-2.688601732991364e+00
1	 9.865446802169368e-01	 1.028277488770966e+00	-2.940223115878884e+00
1	 9.650437374499879e-01	 1.048482515251834e+00	-3.192737445488690e+00
1	 9.431385586809371e-01	 1.068229684624974e+00	-3.445672501301502e+00
1	 9.208438626227501e-01	 1.087507048556805e+00	-3.698555818821363e+00
1	 8.981748300990846e-01	 1.106303292309370e+00	-3.950916363160074e+00
1	 8.751470698840700e-01	 1.124607756544448e+00	-4.202286188578468e+00
1	 8.517765833474784e-01	 1.142410456918638e+00	-4.452202073692311e+00
1	 8.280797280714506e-01	 1.159702101396579e+00	-4.700207122320702e+00
1	 8.040731806096427e-01	 1.176474105223669e+00	-4.945852320322076e+00
1	 7.797738985630250e-01	 1.192718603514182e+00	-5.188698039219727e+00
1	 1.016465997950000e+00	 1.016465997950000e+00	-2.645304306086819e+00
1	 9.951985809205498e-01	 1.037297466743129e+00	-2.894220496921347e+00
1	 9.735090333922922e-01	 1.057679730298597e+00	-3.144176812934115e+00
1	 9.514117039321597e-01	 1.077600120455857e+00	-3.394720899464386e+00
1	 9.289214403646335e-01	 1.097046584071385e+00	-3.645399638806178e+00
1	 9.060535566784923e-01	 1.116007707155137e+00	-3.895760745888460e+00
1	 8.828237985669360e-01	 1.134472736865924e+00	-4.145354353256863e+00
1	 8.592483077626301e-01	 1.152431601278386e+00	-4.393734575539007e+00
1	 8.353435853352754e-01	 1.169874926848081e+00	-4.640461043812560e+00
1	 8.111264541240881e-01	 1.186794053515541e+00	-4.885100400621786e+00
1	 7.866140204809230e-01	 1.203181047404816e+00	-5.127227746803286e+00
1	 1.025304832715000e+00	 1.025304832715000e+00	-2.601197631461615e+00
1	 1.003852481624343e+00	 1.046317444715101e+00	-2.847550843142805e+00
1	 9.819743293349165e-01	 1.066876945345000e+00	-3.095089909950080e+00
1	 9.596848491838006e-01	 1.086970556286229e+00	-3.343382073114292e+00
1	 9.369990181069949e-01	 1.106586119585325e+00	-3.591993296705303e+00
1	 9.139322832583963e-01	 1.125712122000153e+00	-3.840489786336777e+00
1	 8.905005272502765e-01	 1.144337717186559e+00	-4.088439500484544e+00
1	 8.667200321781937e-01	 1.162452745637224e+00	-4.335413645070519e+00
1	 8.426074425994116e-01	 1.180047752298622e+00	-4.580988142165908e+00
1	 8.181797276387035e-01	 1.197114001806424e+00	-4.824745063956640e+00
1	 7.934541423988104e-01	 1.213643491294451e+00	-5.066274023485870e+00
1	 1.034143667480000e+00	 1.034143667480000e+00	-2.556302459059038e+00
1	 1.012506382328315e+00	 1.055337422686883e+00	-2.800231258001372e+00
1	 9.904396252778600e-01	 1.076074160391042e+00	-3.045490230650744e+00
1	 9.679579944358603e-01	 1.096340992116092e+00	-3.291665951084965e+00
1	 9.450765958498334e-01	 1.116125655098624e+00	-3.538343206930822e+00
1	 9.218110098387960e-01	 1.135416536844419e+00	-3.785106441998535e+00
1	 8.981772559340918e-01	 1.154202697506354e+00	-4.031541194810297e+00
1	 8.741917565941700e-01	 1.172473889995151e+00	-4.277235524139501e+00
1	 8.498712998638585e-01	 1.190220577748203e+00	-4.521781412843927e+00
1	 8.252330011534884e-01	 1.207433950096316e+00	-4.764776141528690e+00
1	 8.002942643166867e-01	 1.224105935183085e+00	-5.005823623903509e+00
1	 1.042982502245000e+00	 1.042982502245000e+00	-2.510638835434439e+00
1	 1.021160283032468e+00	 1.064357400658475e+00	-2.752278265176864e+00
1	 9.989049212211227e-01	 1.085271375436723e+00	-2.995390811722658e+00
1	 9.762311396883389e-01	 1.105711427945443e+00	-3.239582125639505e+00
1	 9.531541735931496e-01	 1.125665190611283e+00	-3.484455566457110e+00
1	 9.296897364196920e-01	 1.145120951687934e+00	-3.729613570113234e+00
1	 9.058539846183808e-01	 1.164067677825307e+00	-3.974659015543991e+00
1	 8.816634810105588e-01	 1.182495034352168e+00	-4.219196581993413e+00
1	 8.571351571286164e-01	 1.200393403196824e+00	-4.462834088751697e+00
1	 8.322862746684434e-01	 1.217753898385218e+00	-4.705183809244939e+00
1	 8.071343862345530e-01	 1.234568379070720e+00	-4.945863751687609e+00
1	 1.051821337010000e+00	 1.051821337010000e+00	-2.464226133309311e+00
1	 1.029814183736800e+00	 1.073377378629877e+00	-2.703707832931277e+00
1	 1.007370217164705e+00	 1.094468590482045e+00	-2.944804251644404e+00
1	 9.845042849412359e-01	 1.115081863774285e+00	-3.187139866612011e+00
1	 9.612317513369429e-01	 1.135204726123301e+00	-3.430336363956819e+00
1	 9.375684630010840e-01	 1.154825366530698e+00	-3.674013931878717e+00
1	 9.135307133031443e-01	 1.173932658143421e+00	-3.917792556136313e+00
1	 8.891352054273607e-01	 1.192516178708274e+00	-4.161293309921852e+00
1	 8.643990143936855e-01	 1.210566228644485e+00	-4.404139630259738e+00
1	 8.393395481835683e-01	 1.228073846673130e+00	-4.645958573234100e+00
1	 8.139745081524083e-01	 1.245030822957354e+00	-4.886382040599594e+00
1	 1.060660171775000e+00	 1.060660171775000e+00	-2.417083079647759e+00
1	 1.038468084441312e+00	 1.082397356601088e+00	-2.654535397251177e+00
1	 1.015835513108607e+00	 1.103665805527006e+00	-2.893742728945280e+00
1	 9.927774301945514e-01	 1.124452299602615e+00	-3.134348134842043e+00
1	 9.693093290812139e-01	 1.144744261634678e+00	-3.375991388480226e+00
1	 9.454471895829717e-01	 1.164529781372711e+00	-3.618310196452952e+00
1	 9.212074419883821e-01	 1.183797638460694e+00	-3.860941423589615e+00
1	 8.966069298445744e-01	 1.202537323063470e+00	-4.103522316171423e+00
1	 8.716628716590653e-01	 1.220739054091185e+00	-4.345691715726161e+00
1	 8.463928216988629e-01	 1.238393794960052e+00	-4.587091256087119e+00
1	 8.208146300702533e-01	 1.255493266842989e+00	-4.827366536608832e+00
1	 7.524134108913274e-01	 1.150868827941644e+00	-5.440026664890178e+00
1	 7.287008687329781e-01	 1.166027462769146e+00	-5.723097153289942e+00
1	 7.047392534804007e-01	 1.180664043931685e+00	-5.998545012819742e+00
1	 6.805455176867415e-01	 1.194773115862958e+00	-6.265885251902222e+00
1	 6.561367355249966e-01	 1.208349942826211e+00	-6.524658565906981e+00
1	 6.315300654405884e-01	 1.221390509410137e+00	-6.774432565295358e+00
1	 6.067427131481523e-01	 1.233891518761329e+00	-7.014802854923085e+00
1	 5.817918951274087e-01	 1.245850388605507e+00	-7.245393961165202e+00
1	 5.566948027665101e-01	 1.257265245121364e+00	-7.465860104788953e+00
1	 5.314685672938282e-01	 1.268134914741677e+00	-7.675885818745437e+00
1	 5.061302256309000e-01	 1.278458913966357e+00	-7.875186411264444e+00
1	 7.592535328092677e-01	 1.161331271836278e+00	-5.376347944358672e+00
1	 7.353254220869722e-01	 1.176627712434605e+00	-5.658139267488261e+00
1	 7.111459739694163e-01	 1.191397353425526e+00	-5.932434421214485e+00
1	 6.867322951238658e-01	 1.205634689646682e+00	-6.198756208332870e+00
1	 6.621016149430722e-01	 1.219334942309169e+00	-6.456652844507238e+00
1	 6.372712478583268e-01	 1.232494059497939e+00	-6.705699158027716e+00
1	 6.122585559998541e-01	 1.245108714388192e+00	-6.945497642531708e+00
1	 5.870809123608277e-01	 1.257176301230428e+00	-7.175679359493293e+00
1	 5.617556646147485e-01	 1.268694929168600e+00	-7.395904688530292e+00
1	 5.363000997284300e-01	 1.279663413966696e+00	-7.605863924803276e+00
1	 5.107314095045163e-01	 1.290081267729169e+00	-7.805277723974338e+00
1	 7.660936547271977e-01	 1.171793715729913e+00	-5.313243678048956e+00
1	 7.419499754407716e-01	 1.187227962099074e+00	-5.593837076733468e+00
1	 7.175526944580827e-01	 1.202130662918409e+00	-5.867060239439890e+00
1	 6.929190725605181e-01	 1.216496263429501e+00	-6.132443615581109e+00
1	 6.680664943605837e-01	 1.230319941791294e+00	-6.389542796787405e+00
1	 6.430124302754393e-01	 1.243597609585001e+00	-6.637939688727557e+00
1	 6.177743988508980e-01	 1.256325910014428e+00	-6.877243537671698e+00
1	 5.923699295935869e-01	 1.268502213854855e+00	-7.107091808740585e+00
1	 5.668165264623545e-01	 1.280124613215495e+00	-7.327150914011529e+00
1	 5.411316321624565e-01	 1.291191913191544e+00	-7.537116789857685e+00
1	 5.153325933776431e-01	 1.301703621492001e+00	-7.736715324071145e+00
1	 7.729337766451166e-01	 1.182256159622547e+00	-5.250698614961560e+00
1	 7.485745287943755e-01	 1.197828211762553e+00	-5.530173173190630e+00
1	 7.239594149464007e-01	 1.212863972410334e+00	-5.802402916791053e+00
1	 6.991058499966988e-01	 1.227357837211414e+00	-6.066925797960709e+00
1	 6.740313737775313e-01	 1.241304941272586e+00	-6.323304643799976e+00
1	 6.487536126919259e-01	 1.254701159671323e+00	-6.571128300634897e+00
1	 6.232902417012843e-01	 1.267543105640036e+00	-6.810012634834037e+00
1	 5.976589468256861e-01	 1.279828126478787e+00	-7.039601387202316e+00
1	 5.718773883093287e-01	 1.291554297262048e+00	-7.259566879240936e+00
1	 5.459631645959077e-01	 1.302720412416223e+00	-7.469610570751204e+00
1	 5.199337772502799e-01	 1.313325975254853e+00	-7.669463469413884e+00
1	 7.797738985630250e-01	 1.192718603514182e+00	-5.188698039219727e+00
1	 7.551990821477842e-01	 1.208428461425044e+00	-5.467130759826006e+00
1	 7.303661354343698e-01	 1.223597281901301e+00	-5.738443588552927e+00
1	 7.052926274324078e-01	 1.238219410992421e+00	-6.002181840335861e+00
1	 6.799962531939148e-01	 1.252289940753043e+00	-6.257915440946486e+00
1	 6.544947951077865e-01	 1.265804709756905e+00	-6.505240044244444e+00
1	 6.288060845510125e-01	 1.278760301265018e+00	-6.743778007650312e+00
1	 6.029479640571257e-01	 1.291154039102225e+00	-6.973179223058105e+00
1	 5.769382501556705e-01	 1.302983981308259e+00	-7.193121801595039e+00
1	 5.507946970287833e-01	 1.314248911640731e+00	-7.403312611805585e+00
1	 5.245349611224271e-01	 1.324948329017727e+00	-7.603487671971762e+00
1	 7.866140204809230e-01	 1.203181047404816e+00	-5.127227746803286e+00
1	 7.618236355009980e-01	 1.219028711086544e+00	-5.404693623850370e+00
1	 7.367728559219902e-01	 1.234330591391309e+00	-5.675164046174316e+00
1	 7.114794048676450e-01	 1.249080984772522e+00	-5.938191555053728e+00
1	 6.859611326097343e-01	 1.263274940232669e+00	-6.193353041701354e+00
1	 6.602359775230212e-01	 1.276908259841746e+00	-6.440250837859801e+00
1	 6.343219274000830e-01	 1.289977496889372e+00	-6.678513666321481e+00
1	 6.082369812879054e-01	 1.302479951725169e+00	-6.907797448724700e+00
1	 5.819991120013801e-01	 1.314413665354129e+00	-7.127785969150136e+00
1	 5.556262294610839e-01	 1.325777410865069e+00	-7.338191393192263e+00
1	 5.291361449940846e-01	 1.336570682780620e+00	-7.538754643297746e+00
1	 7.934541423988104e-01	 1.213643491294451e+00	-5.066274023485870e+00
1	 7.684481888540168e-01	 1.229628960747055e+00	-5.342846111536360e+00
1	 7.431795764092617e-01	 1.245063900880360e+00	-5.612546708985060e+00
1	 7.176661823024110e-01	 1.259942558551717e+00	-5.874935450587353e+00
1	 6.919260120249895e-01	 1.274259939711460e+00	-6.129596063212315e+00
1	 6.659771599376296e-01	 1.288011809925846e+00	-6.376137430187855e+00
1	 6.398377702484958e-01	 1.301194692513100e+00	-6.614194517248389e+00
1	 6.135259985180255e-01	 1.313805864347619e+00	-6.843429157570133e+00
1	 5.870599738464576e-01	 1.325843349399657e+00	-7.063530694531729e+00
1	 5.604577618928086e-01	 1.337305910089237e+00	-7.274216481973297e+00
1	 5.337373288652524e-01	 1.348193036543535e+00	-7.475232242822238e+00
1	 8.002942643166867e-01	 1.224105935183085e+00	-5.005823623903509e+00
1	 7.750727422068404e-01	 1.240229210406577e+00	-5.281573104326598e+00
1	 7.495862968961846e-01	 1.255797210368453e+00	-5.550574597363657e+00
1	 7.238529597367048e-01	 1.270804132330007e+00	-5.812394701786817e+00
1	 6.978908914396812e-01	 1.285244939189419e+00	-6.066623853664803e+00
1	 6.717183423516123e-01	 1.299115360009208e+00	-6.312877364851448e+00
1	 6.453536130962506e-01	 1.312411888136201e+00	-6.550796324732773e+00
1	 6.188150157474855e-01	 1.325131776969574e+00	-6.780048362847109e+00
1	 5.921208356909027e-01	 1.337273033444843e+00	-7.000328271130265e+00
1	 5.652892943239584e-01	 1.348834409313236e+00	-7.211358485653117e+00
1	 5.383385127359304e-01	 1.359815390306469e+00	-7.412889428798554e+00
1	 8.071343862345530e-01	 1.234568379070720e+00	-4.945863751687609e+00
1	 7.816972955594687e-01	 1.250829460065110e+00	-5.220859996157279e+00
1	 7.559930173827586e-01	 1.266530519855587e+00	-5.489231307268829e+00
1	 7.300397371705273e-01	 1.281665706107390e+00	-5.750551121642823e+00
1	 7.038557708538088e-01	 1.296229938666545e+00	-6.004416461305713e+00
1	 6.774595247649688e-01	 1.310218910091828e+00	-6.250448946706622e+00
1	 6.508694559433478e-01	 1.323629083758674e+00	-6.488295674625415e+00
1	 6.241040329762860e-01	 1.336457689591036e+00	-6.717629958715158e+00
1	 5.971816975347158e-01	 1.348702717489688e+00	-6.938151931543198e+00
1	 5.701208267545327e-01	 1.360362908537064e+00	-7.149589008091882e+00
1	 5.429396966061187e-01	 1.371437744069425e+00	-7.351696211742631e+00
1	 8.139745081524083e-01	 1.245030822957354e+00	-4.886382040599594e+00
1	 7.883218489119019e-01	 1.261429709722652e+00	-5.160692671924595e+00
1	 7.623997378689837e-01	 1.277263829341764e+00	-5.428500986055719e+00
1	 7.362265146038778e-01	 1.292527279883868e+00	-5.689387134474085e+00
1	 7.098206502673721e-01	 1.307214938142837e+00	-5.942954605029064e+00
1	 6.832007071776995e-01	 1.321322460173709e+00	-6.188831209857853e+00
1	 6.563852987897871e-01	 1.334846279380521e+00	-6.426669939807244e+00
1	 6.293930502044267e-01	 1.347783602212004e+00	-6.656149683227484e+00
1	 6.022425593778966e-01	 1.360132401534191e+00	-6.876975808112617e+00
1	 5.749523591845315e-01	 1.371891407760722e+00	-7.088880607641824e+00
1	 5.475408804758173e-01	 1.383060097832401e+00	-7.291623610220239e+00
1	 8.208146300702533e-01	 1.255493266842989e+00	-4.827366536608832e+00
1	 7.949464022641402e-01	 1.272029959379205e+00	-5.101057487028280e+00
1	 7.688064583548604e-01	 1.287997138826982e+00	-5.368368309500910e+00
1	 7.424132920367567e-01	 1.303388853659439e+00	-5.628885750455398e+00
1	 7.157855296803717e-01	 1.318199937618296e+00	-5.882219646432437e+00
1	 6.889418895898042e-01	 1.332426010254849e+00	-6.128003887272823e+00
1	 6.619011416355685e-01	 1.346063475001740e+00	-6.365897247396603e+00
1	 6.346820674319077e-01	 1.359109514832477e+00	-6.595584083168941e+00
1	 6.073034212204453e-01	 1.371562085578352e+00	-6.816774895436000e+00
1	 5.797838916139548e-01	 1.383419906984210e+00	-7.029206757376828e+00
1	 5.521420643450261e-01	 1.394682451595397e+00	-7.232643608845072e+00
1	 5.061302256309000e-01	 1.278458913966357e+00	-7.875186411264444e+00
1	 4.806966872910303e-01	 1.288237437281654e+00	-8.106146454819813e+00
1	 4.551847024354536e-01	 1.297471343285539e+00	-8.323495722946687e+00
1	 4.296108311925131e-01	 1.306162139129264e+00	-8.527032928021546e+00
1	 4.039914143349413e-01	 1.314311963391015e+00	-8.716593086231251e+00
1	 3.783425453957433e-01	 1.321923567499668e+00	-8.892047128517326e+00
1	 3.526800442951766e-01	 1.329000295832889e+00	-9.053301364004485e+00
1	 3.270194325395477e-01	 1.335546064616104e+00	-9.200296804421200e+00
1	 3.013759100415353e-01	 1.341565339750669e+00	-9.333008358682896e+00
1	 2.757643336008559e-01	 1.347063113700460e+00	-9.451443907353740e+00
1	 2.501991970734234e-01	 1.352044881565965e+00	-9.555643267136940e+00
1	 5.107314095045163e-01	 1.290081267729169e+00	-7.805277723974338e+00
1	 4.850666571792522e-01	 1.299948686710393e+00	-8.036264752787030e+00
1	 4.593227451881562e-01	 1.309266537313843e+00	-8.253653448861177e+00
1	 4.335163842061927e-01	 1.318036340392143e+00	-8.457243128634349e+00
1	 4.076640635585735e-01	 1.326260253965098e+00	-8.646869708946557e+00
1	 3.817820230831497e-01	 1.333941054474572e+00	-8.822405299976037e+00
1	 3.558862265176348e-01	 1.341082116701665e+00	-8.983757649649817e+00
1	 3.299923364729388e-01	 1.347687392473848e+00	-9.130869448213861e+00
1	 3.041156910427644e-01	 1.353761388291580e+00	-9.263717502307323e+00
1	 2.782712820886437e-01	 1.359309142004772e+00	-9.382311788430343e+00
1	 2.524737352288170e-01	 1.364336198669367e+00	-9.486694396122482e+00
1	 5.153325933776431e-01	 1.301703621492001e+00	-7.736715324071145e+00
1	 4.894366270670793e-01	 1.311659936139338e+00	-7.967751074413755e+00
1	 4.634607879405481e-01	 1.321061731342504e+00	-8.185202475680518e+00
1	 4.374219372196355e-01	 1.329910541655500e+00	-8.388869387027508e+00
1	 4.113367127820329e-01	 1.338208544539750e+00	-8.578588562321810e+00
1	 3.852215007704361e-01	 1.345958541450105e+00	-8.754233225341014e+00
1	 3.590924087400167e-01	 1.353163937571098e+00	-8.915712495438422e+00
1	 3.329652404062873e-01	 1.359828720332250e+00	-9.062970672533453e+00
1	 3.068554720439746e-01	 1.365957436833121e+00	-9.195986390946036e+00
1	 2.807782305764268e-01	 1.371555170309656e+00	-9.314771652134255e+00
1	 2.547482733842105e-01	 1.376627515773255e+00	-9.419370746819840e+00
1	 5.199337772502799e-01	 1.313325975254853e+00	-7.669463469413884e+00
1	 4.938065969545112e-01	 1.323371185568486e+00	-7.900569100489342e+00
1	 4.675988306926293e-01	 1.332856925371522e+00	-8.118105866213901e+00
1	 4.413274902328415e-01	 1.341784742919335e+00	-8.321874108747693e+00
1	 4.150093620053187e-01	 1.350156835114969e+00	-8.511711357048199e+00
1	 3.886609784576029e-01	 1.357976028426266e+00	-8.687491884597572e+00
1	 3.622985909623225e-01	 1.365245758441190e+00	-8.849126116587939e+00
1	 3.359381443395930e-01	 1.371970048191310e+00	-8.996559895596180e+00
1	 3.095952530451660e-01	 1.378153485375291e+00	-9.129773615439269e+00
1	 2.832851790642052e-01	 1.383801198615110e+00	-9.248781233439695e+00
1	 2.570228115396040e-01	 1.388918832877628e+00	-9.353629171749477e+00
1	 5.245349611224271e-01	 1.324948329017727e+00	-7.603487671971762e+00
1	 4.981765668415482e-01	 1.335082434997839e+00	-7.834683786161690e+00
1	 4.717368734443999e-01	 1.344652119400897e+00	-8.052327979312267e+00
1	 4.452330432458106e-01	 1.353658944183649e+00	-8.256221018445306e+00
1	 4.186820112284315e-01	 1.362105125690758e+00	-8.446201147301419e+00
1	 3.921004561446502e-01	 1.369993515403056e+00	-8.622143626854291e+00
1	 3.655047731845522e-01	 1.377327579311940e+00	-8.783960124273385e+00
1	 3.389110482728562e-01	 1.384111376051029e+00	-8.931597959540406e+00
1	 3.123350340463384e-01	 1.390349533918090e+00	-9.065039219580198e+00
1	 2.857921275519789e-01	 1.396047226921136e+00	-9.184299750304207e+00
1	 2.592973496949976e-01	 1.401210149982486e+00	-9.289428037378537e+00
1	 5.291361449940846e-01	 1.336570682780620e+00	-7.538754643297746e+00
1	 5.025465367281904e-01	 1.346793684427397e+00	-7.770061305529852e+00
1	 4.758749161958596e-01	 1.356447313430629e+00	-7.987834413518879e+00
1	 4.491385962585430e-01	 1.365533145448441e+00	-8.191875102521955e+00
1	 4.223546604513710e-01	 1.374053416267115e+00	-8.382022272329458e+00
1	 3.955399338315778e-01	 1.382011002380474e+00	-8.558152110816096e+00
1	 3.687109554067056e-01	 1.389409400183348e+00	-8.720177464933267e+00
1	 3.418839522060768e-01	 1.396252703911406e+00	-8.868047068517122e+00
1	 3.150748150474922e-01	 1.402545582461518e+00	-9.001744636943158e+00
1	 2.882990760397479e-01	 1.408293255227734e+00	-9.121287839191213e+00
1	 2.615718878503911e-01	 1.413501467087830e+00	-9.226727158297034e+00
1	 5.337373288652524e-01	 1.348193036543535e+00	-7.475232242822238e+00
1	 5.069165066144372e-01	 1.358504933857160e+00	-7.706668999103409e+00
1	 4.800129589470085e-01	 1.368242507460719e+00	-7.924591953633941e+00
1	 4.530441492710384e-01	 1.377407346713711e+00	-8.128802554744762e+00
1	 4.260273096741375e-01	 1.386001706844041e+00	-8.319140301061301e+00
1	 3.989794115183856e-01	 1.394028489358520e+00	-8.495482248335948e+00
1	 3.719171376287828e-01	 1.401491221055414e+00	-8.657742362715098e+00
1	 3.448568561392546e-01	 1.408394031772441e+00	-8.805870729982539e+00
1	 3.178145960486270e-01	 1.414741631005575e+00	-8.939852630979161e+00
1	 2.908060245275123e-01	 1.420539283534902e+00	-9.059707493927490e+00
1	 2.638464260057847e-01	 1.425792784193659e+00	-9.165487734798818e+00
1	 5.383385127359304e-01	 1.359815390306469e+00	-7.412889428798554e+00
1	 5.112864765002892e-01	 1.370216183287127e+00	-7.644475323955708e+00
1	 4.841510016978469e-01	 1.380037701491165e+00	-7.862568520020121e+00
1	 4.569497022832972e-01	 1.389281547979459e+00	-8.066970724649577e+00
1	 4.296999588967309e-01	 1.397949997421536e+00	-8.257521979556627e+00
1	 4.024188892050738e-01	 1.406045976337196e+00	-8.434100150861628e+00
1	 3.751233198507839e-01	 1.413573041928139e+00	-8.596620264872405e+00
1	 3.478297600723899e-01	 1.420535359634134e+00	-8.745033699001088e+00
1	 3.205543770497430e-01	 1.426937679550262e+00	-8.879327238183691e+00
1	 2.933129730152719e-01	 1.432785311842642e+00	-8.999522007696045e+00
1	 2.661209641611783e-01	 1.438084101299974e+00	-9.105672293663419e+00
1	 5.429396966061187e-01	 1.371437744069425e+00	-7.351696211742631e+00
1	 5.156564463857463e-01	 1.381927432717298e+00	-7.583449806411795e+00
1	 4.882890444483744e-01	 1.391832895521968e+00	-7.801733120485491e+00
1	 4.608552552953190e-01	 1.401155749245686e+00	-8.006348068567471e+00
1	 4.333726081191510e-01	 1.409898287999599e+00	-8.197135181127319e+00
1	 4.058583668916424e-01	 1.418063463316499e+00	-8.373973078605404e+00
1	 3.783295020727088e-01	 1.425654862801521e+00	-8.536777789938419e+00
1	 3.508026640054825e-01	 1.432676687496486e+00	-8.685501925380876e+00
1	 3.232941580508401e-01	 1.439133728095577e+00	-8.820133714154089e+00
1	 2.958199215030269e-01	 1.445031340150954e+00	-8.940695917978932e+00
1	 2.683955023165718e-01	 1.450375418406773e+00	-9.047244631948999e+00
1	 5.475408804758173e-01	 1.383060097832401e+00	-7.291623610220239e+00
1	 5.200264162708083e-01	 1.393638682147674e+00	-7.523562997121957e+00
1	 4.924270871985911e-01	 1.403628089553128e+00	-7.742055804592365e+00
1	 4.647608083071041e-01	 1.413029950512392e+00	-7.946904103121092e+00
1	 4.370452573413979e-01	 1.421846578578230e+00	-8.137948858973932e+00
1	 4.092978445780913e-01	 1.430080950296430e+00	-8.315069392276625e+00
1	 3.815356842945573e-01	 1.437736683675562e+00	-8.478182678512349e+00
1	 3.537755679385325e-01	 1.444818015359496e+00	-8.627242503474250e+00
1	 3.260339390519186e-01	 1.451329776641522e+00	-8.762238482366781e+00
1	 2.983268699907771e-01	 1.457277368459836e+00	-8.883194954275529e+00
1	 2.706700404719653e-01	 1.462666735514058e+00	-8.990169763619377e+00
1	 5.521420643450261e-01	 1.394682451595397e+00	-7.232643608845072e+00
1	 5.243963861554752e-01	 1.405349931578255e+00	-7.464786428381531e+00
1	 4.965651299484972e-01	 1.415423283584646e+00	-7.683507620251095e+00
1	 4.686663613186524e-01	 1.424904151779574e+00	-7.888609361045589e+00
1	 4.407179065634718e-01	 1.433794869157430e+00	-8.079933001190398e+00
1	 4.127373222644204e-01	 1.442098437276991e+00	-8.257358507227583e+00
1	 3.847418665163297e-01	 1.449818504550261e+00	-8.420803746506859e+00
1	 3.567484718715399e-01	 1.456959343223164e+00	-8.570223624488484e+00
1	 3.287737200529779e-01	 1.463525825188096e+00	-8.705609085515640e+00
1	 3.008338184785227e-01	 1.469523396769290e+00	-8.826985988435299e+00
1	 2.729445786273588e-01	 1.474958052621828e+00	-8.934413868839529e+00
1	 2.501991970734234e-01	 1.352044881565965e+00	-9.555643267136940e+00
1	 2.246946132453406e-01	 1.356516616473704e+00	-9.679826409223439e+00
1	 1.992642974238829e-01	 1.360484744408075e+00	-9.789333193437210e+00
1	 1.739215527406030e-01	 1.363956118608690e+00	-9.884271280374723e+00
1	 1.486792571529468e-01	 1.366937993652964e+00	-9.964775817810754e+00
1	 1.235498521293628e-01	 1.369437999341071e+00	-1.003100808013411e+01
1	 9.854533298911115e-02	 1.371464114494739e+00	-1.008315405752644e+01
1	 7.367724086214492e-02	 1.373024640776572e+00	-1.012142300491796e+01
1	 4.895665622776053e-02	 1.374128176631064e+00	-1.014604596046854e+01
1	 2.439419398469604e-02	 1.374783591442656e+00	-1.015727424297269e+01
1	 0.000000000000000e+00	 1.375000000000000e+00	-1.015537793718343e+01
1	 2.524737352288170e-01	 1.364336198669367e+00	-9.486694396122482e+00
1	 2.267372915474652e-01	 1.368848585712971e+00	-9.610954740039242e+00
1	 2.010757910364978e-01	 1.372852787537955e+00	-9.720528565650925e+00
1	 1.755026577650256e-01	 1.376355719686112e+00	-9.815523747443992e+00
1	 1.500308867628343e-01	 1.379364702685561e+00	-9.896075964261058e+00
1	 1.246730326026296e-01	 1.381887435698295e+00	-9.962347317727829e+00
1	 9.944119965202770e-02	 1.383931970080786e+00	-1.001452489991116e+01
1	 7.434703396034356e-02	 1.385506682965300e+00	-1.005281932041033e+01
1	 4.940171673850238e-02	 1.386620250964008e+00	-1.007746320278929e+01
1	 2.461595938432043e-02	 1.387281624092119e+00	-1.008870965990232e+01
1	 0.000000000000000e+00	 1.387500000000000e+00	-1.008683075724838e+01
1	 2.547482733842105e-01	 1.376627515773255e+00	-9.419370746819840e+00
1	 2.287799698495900e-01	 1.381180554952629e+00	-9.543714570900708e+00
1	 2.028872846491126e-01	 1.385220830668143e+00	-9.653363442591475e+00
1	 1.770837627894483e-01	 1.388755320763768e+00	-9.748425405998091e+00
1	 1.513825163727218e-01	 1.391791411718328e+00	-9.829036624237050e+00
1	 1.257962130758965e-01	 1.394336872055636e+00	-9.895359977090459e+00
1	 1.003370663149443e-01	 1.396399825666909e+00	-9.947583607379915e+00
1	 7.501682705854221e-02	 1.397988725154069e+00	-9.985919426426523e+00
1	 4.984677724924420e-02	 1.399112325296969e+00	-1.001060158866678e+01
1	 2.483772478394482e-02	 1.399779656741585e+00	-1.002188494512535e+01
1	 0.000000000000000e+00	 1.400000000000000e+00	-1.002004348502332e+01
1	 2.570228115396040e-01	 1.388918832877628e+00	-9.353629171749477e+00
1	 2.308226481517145e-01	 1.393512524192677e+00	-9.478062587646967e+00
1	 2.046987782617274e-01	 1.397588873798637e+00	-9.587794297584450e+00
1	 1.786648678138709e-01	 1.401154921841657e+00	-9.682932472192066e+00
1	 1.527341459826092e-01	 1.404218120751266e+00	-9.763613713308567e+00
1	 1.269193935491633e-01	 1.406786308413095e+00	-9.830001631095380e+00
1	 1.012329329778609e-01	 1.408867681253106e+00	-9.882285369355234e+00
1	 7.568662015674081e-02	 1.410470767342880e+00	-9.920678089589858e+00
1	 5.029183775998605e-02	 1.411604399629950e+00	-9.945415424024240e+00
1	 2.505949018356920e-02	 1.412277689391056e+00	-9.956753907448292e+00
1	 0.000000000000000e+00	 1.412500000000000e+00	-9.954969397294784e+00
1	 2.592973496949976e-01	 1.401210149982486e+00	-9.289428037378537e+00
1	 2.328653264538391e-01	 1.405844493433116e+00	-9.413956995912239e+00
1	 2.065102718743421e-01	 1.409956916929438e+00	-9.523779131207178e+00
1	 1.802459728382935e-01	 1.413554522919780e+00	-9.619002698456224e+00
1	 1.540857755924967e-01	 1.416644829784374e+00	-9.699764693867776e+00
1	 1.280425740224302e-01	 1.419235744770672e+00	-9.766229411462454e+00
1	 1.021287996407774e-01	 1.421335536839377e+00	-9.818586947560519e+00
1	 7.635641325493947e-02	 1.422952809531733e+00	-9.857051663659563e+00
1	 5.073689827072789e-02	 1.424096473962949e+00	-9.881860618085961e+00
1	 2.528125558319359e-02	 1.424775722040532e+00	-9.893271976421138e+00
1	 0.000000000000000e+00	 1.425000000000000e+00	-9.891563410260297e+00
1	 2.615718878503911e-01	 1.413501467087830e+00	-9.226727158297034e+00
1	 2.349080047559638e-01	 1.418176462673946e+00	-9.351357455047912e+00
1	 2.083217654869569e-01	 1.422324960060546e+00	-9.461277404886404e+00
1	 1.818270778627161e-01	 1.425954123998136e+00	-9.556595306701590e+00
1	 1.554374052023842e-01	 1.429071538817652e+00	-9.637448507875677e+00
1	 1.291657544956971e-01	 1.431685181128366e+00	-9.704001940982053e+00
1	 1.030246663036940e-01	 1.433803392425723e+00	-9.756446607659342e+00
1	 7.702620635313809e-02	 1.435434851720629e+00	-9.794998020525066e+00
1	 5.118195878146975e-02	 1.436588548295966e+00	-9.819894613668325e+00
1	 2.550302098281797e-02	 1.437273754690013e+00	-9.831396131870475e+00
1	 0.000000000000000e+00	 1.437500000000000e+00	-9.829782008249609e+00
1	 2.638464260057847e-01	 1.425792784193659e+00	-9.165487734798818e+00
1	 2.369506830580884e-01	 1.430508431915166e+00	-9.290225015462173e+00
1	 2.101332590995718e-01	 1.434693003191961e+00	-9.400249977930812e+00
1	 1.834081828871388e-01	 1.438353725076726e+00	-9.495670924980169e+00
1	 1.567890348122716e-01	 1.441498247851101e+00	-9.576625513087794e+00
1	 1.302889349689639e-01	 1.444134617486177e+00	-9.643279269245017e+00
1	 1.039205329666105e-01	 1.446271248012144e+00	-9.695824054430261e+00
1	 7.769599945133675e-02	 1.447916893909566e+00	-9.734476484769161e+00
1	 5.162701929221158e-02	 1.449080622629002e+00	-9.759476321076862e+00
1	 2.572478638244236e-02	 1.449771787339498e+00	-9.771084837077094e+00
1	 0.000000000000000e+00	 1.450000000000000e+00	-9.769583176132839e+00
1	 2.661209641611783e-01	 1.438084101299974e+00	-9.105672293663419e+00
1	 2.389933613602131e-01	 1.442840401156778e+00	-9.230522059173182e+00
1	 2.119447527121866e-01	 1.447061046323683e+00	-9.340659047792252e+00
1	 1.849892879115614e-01	 1.450753326155550e+00	-9.436191527393479e+00
1	 1.581406644221591e-01	 1.453924956884721e+00	-9.517257422550026e+00
1	 1.314121154422308e-01	 1.456584053844107e+00	-9.584022811668092e+00
1	 1.048163996295271e-01	 1.458739103598640e+00	-9.636680370266234e+00
1	 7.836579254953538e-02	 1.460398936098545e+00	-9.675447771587313e+00
1	 5.207207980295342e-02	 1.461572696962056e+00	-9.700566055392931e+00
1	 2.594655178206674e-02	 1.462269819988988e+00	-9.712297975380611e+00
1	 0.000000000000000e+00	 1.462500000000000e+00	-9.710926335194829e+00
1	 2.683955023165718e-01	 1.450375418406773e+00	-9.047244631948999e+00
1	 2.410360396623377e-01	 1.455172370398780e+00	-9.172212243384944e+00
1	 2.137562463248014e-01	 1.459429089455712e+00	-9.282468093364981e+00
1	 1.865703929359840e-01	 1.463152927234606e+00	-9.378120377056575e+00
1	 1.594922940320465e-01	 1.466351665918511e+00	-9.459307247171129e+00
1	 1.325352959154976e-01	 1.469033490202154e+00	-9.526195291620029e+00
1	 1.057122662924437e-01	 1.471206959185211e+00	-9.578977956801136e+00
1	 7.903558564773400e-02	 1.472880978287564e+00	-9.617873927863169e+00
1	 5.251714031369526e-02	 1.474064771295128e+00	-9.643125476949454e+00
1	 2.616831718169113e-02	 1.474767852638482e+00	-9.654996790007349e+00
1	 0.000000000000000e+00	 1.475000000000000e+00	-9.653772282270042e+00
1	 2.706700404719653e-01	 1.462666735514058e+00	-8.990169763619377e+00
1	 2.430787179644623e-01	 1.467504339641174e+00	-9.115260446908069e+00
1	 2.155677399374162e-01	 1.471797132588047e+00	-9.225641821143491e+00
1	 1.881514979604067e-01	 1.475552528313897e+00	-9.321421971937760e+00
1	 1.608439236419340e-01	 1.478778374952471e+00	-9.402739241190659e+00
1	 1.336584763887645e-01	 1.481482926560319e+00	-9.469760685465472e+00
1	 1.066081329553602e-01	 1.483674814771857e+00	-9.522680479479540e+00
1	 7.970537874593264e-02	 1.485363020476627e+00	-9.561718276215476e+00
1	 5.296220082443710e-02	 1.486556845628219e+00	-9.587117534807591e+00
1	 2.639008258131552e-02	 1.487265885287981e+00	-9.599143826932494e+00
1	 0.000000000000000e+00	 1.487500000000000e+00	-9.598083131946417e+00
1	 2.729445786273588e-01	 1.474958052621828e+00	-8.934413868839529e+00
1	 2.451213962665869e-01	 1.479836308883957e+00	-9.059632719259490e+00
1	 2.173792335500309e-01	 1.484165175720690e+00	-9.170146114072310e+00
1	 1.897326029848293e-01	 1.487952129393421e+00	-9.266061993406364e+00
1	 1.621955532518215e-01	 1.491205083986602e+00	-9.347518850373543e+00
1	 1.347816568620313e-01	 1.493932362918601e+00	-9.414684170357136e+00
1	 1.075039996182768e-01	 1.496142670358577e+00	-9.467752814897795e+00
1	 8.037517184413129e-02	 1.497845062665731e+00	-9.506945361842282e+00
1	 5.340726133517893e-02	 1.499048919961328e+00	-9.532506413059782e+00
1	 2.661184798093990e-02	 1.499763917937484e+00	-9.544702880598463e+00
1	 0.000000000000000e+00	 1.500000000000000e+00	-9.543822261658972e+00
1	 1.500000000000000e+00	 0.000000000000000e+00	 1.037150256187058e+00
1	 1.499763917937484e+00	 2.661184798093904e-02	 1.062664392064130e+00
1	 1.499048919961329e+00	 5.340726133517817e-02	 1.080683384051982e+00
1	 1.497845062665731e+00	 8.037517184413061e-02	 1.090976706033031e+00
1	 1.496142670358577e+00	 1.075039996182762e-01	 1.093323444039532e+00
1	 1.493932362918601e+00	 1.347816568620308e-01	 1.087513422566703e+00
1	 1.491205083986601e+00	 1.621955532518211e-01	 1.073348340708398e+00
1	 1.487952129393420e+00	 1.897326029848289e-01	 1.050642912196341e+00
1	 1.484165175720690e+00	 2.173792335500308e-01	 1.019226003020607e+00
1	 1.479836308883957e+00	 2.451213962665869e-01	 9.789417599350405e-01
1	 1.474958052621828e+00	 2.729445786273588e-01	 9.296507228124616e-01
1	 1.512500000000000e+00	 0.000000000000000e+00	 9.846043057046289e-01
1	 1.512261950586988e+00	 2.683361338056342e-02	 1.009714717445731e+00
1	 1.511540994294438e+00	 5.385232184592000e-02	 1.027565473142014e+00
1	 1.510327104854835e+00	 8.104496494232924e-02	 1.037927231672627e+00
1	 1.508610525945297e+00	 1.083998662811928e-01	 1.040579831249176e+00
1	 1.506381799276883e+00	 1.359048373352977e-01	 1.035313399844892e+00
1	 1.503631793020732e+00	 1.635471828617086e-01	 1.021929476672573e+00
1	 1.500351730472945e+00	 1.913137080092516e-01	 1.000242138935983e+00
1	 1.496533218853332e+00	 2.191907271626456e-01	 9.700791276739960e-01
1	 1.492168278126741e+00	 2.471640745687115e-01	 9.312829661400976e-01
1	 1.487249369729599e+00	 2.752191167827523e-01	 8.837120638164939e-01
1	 1.525000000000000e+00	 0.000000000000000e+00	 9.363753826602533e-01
1	 1.524759983236486e+00	 2.705537878018779e-02	 9.610544666005527e-01
1	 1.524033068627529e+00	 5.429738235666183e-02	 9.787074113501661e-01
1	 1.522809147043897e+00	 8.171475804052787e-02	 9.891060634407813e-01
1	 1.521078381531942e+00	 1.092957329441093e-01	 9.920310203551764e-01
1	 1.518831235635048e+00	 1.370280178085645e-01	 9.872727252338105e-01
1	 1.516058502054693e+00	 1.648988124715960e-01	 9.746325738449332e-01
1	 1.512751331552235e+00	 1.928948130336742e-01	 9.539240281844266e-01
1	 1.508901261985667e+00	 2.210022207752603e-01	 9.249737306652855e-01
1	 1.504500247369134e+00	 2.492067528708361e-01	 8.876226124764323e-01
1	 1.499540686836884e+00	 2.774936549381459e-01	 8.417269893432252e-01
1	 1.537500000000000e+00	 0.000000000000000e+00	 8.923581937018986e-01
1	 1.537258015885981e+00	 2.727714417981218e-02	 9.165790194366661e-01
1	 1.536525142960601e+00	 5.474244286740368e-02	 9.340052999175429e-01
1	 1.535291189232917e+00	 8.238455113872650e-02	 9.444100719198508e-01
1	 1.533546237118513e+00	 1.101915996070258e-01	 9.475746991163135e-01
1	 1.531280671993095e+00	 1.381511982818314e-01	 9.432899512187851e-01
1	 1.528485211088482e+00	 1.662504420814835e-01	 9.313570965865342e-01
1	 1.525150932631292e+00	 1.944759180580968e-01	 9.115890028076851e-01
1	 1.521269305117696e+00	 2.228137143878751e-01	 8.838112393525751e-01
1	 1.516832216611136e+00	 2.512494311729607e-01	 8.478631760146254e-01
1	 1.511832003943683e+00	 2.797681930935394e-01	 8.035990705026151e-01
1	 1.550000000000000e+00	 0.000000000000000e+00	 8.524508420372687e-01
1	 1.549756048535470e+00	 2.749890957943656e-02	 8.761871307038122e-01
1	 1.549017217293655e+00	 5.518750337814550e-02	 8.933585916581425e-01
1	 1.547773231421895e+00	 8.305434423692513e-02	 9.037394544475876e-01
1	 1.546014092705009e+00	 1.110874662699424e-01	 9.071118556862361e-01
1	 1.543730108351024e+00	 1.392743787550982e-01	 9.032669027855955e-01
1	 1.540911920122102e+00	 1.676020716913709e-01	 8.920057523435680e-01
1	 1.537550533710115e+00	 1.960570230825194e-01	 8.731406978373859e-01
1	 1.533637348249418e+00	 2.246252080004899e-01	 8.464962608565957e-01
1	 1.529164185852748e+00	 2.532921094750853e-01	 8.119102797261951e-01
1	 1.524123321049998e+00	 2.820427312489329e-01	 7.692349890139626e-01
1	 1.562500000000000e+00	 0.000000000000000e+00	 8.165546915714155e-01
1	 1.562254081184955e+00	 2.772067497906093e-02	 8.397807949997285e-01
1	 1.561509291626691e+00	 5.563256388888735e-02	 8.566699568958911e-01
1	 1.560255273610832e+00	 8.372413733512374e-02	 8.669976020469363e-01
1	 1.558481948291430e+00	 1.119833329328590e-01	 8.705466465976902e-01
1	 1.556179544708835e+00	 1.403975592283651e-01	 8.671085465204817e-01
1	 1.553338629155550e+00	 1.689537013012584e-01	 8.564843619239293e-01
1	 1.549950134788705e+00	 1.976381281069421e-01	 8.384858319841295e-01
1	 1.546005391380833e+00	 2.264367016131047e-01	 8.129364548702086e-01
1	 1.541496155093968e+00	 2.553347877772099e-01	 7.796725666475655e-01
1	 1.536414638155826e+00	 2.843172694043264e-01	 7.385444127815418e-01
1	 1.575000000000000e+00	 0.000000000000000e+00	 7.845742375139929e-01
1	 1.574752113834436e+00	 2.794244037868531e-02	 8.072651182047773e-01
1	 1.574001365959708e+00	 5.607762439962918e-02	 8.238451557857112e-01
1	 1.572737315799726e+00	 8.439393043332238e-02	 8.340909726924886e-01
1	 1.570949803877776e+00	 1.128791995957756e-01	 8.377862710331653e-01
1	 1.568628981066530e+00	 1.415207397016319e-01	 8.347228659434482e-01
1	 1.565765338188829e+00	 1.703053309111458e-01	 8.247017359511438e-01
1	 1.562349735867061e+00	 1.992192331313647e-01	 8.075340852692887e-01
1	 1.558373434511941e+00	 2.282481952257195e-01	 7.830424125245887e-01
1	 1.553828124334798e+00	 2.573774660793345e-01	 7.510615800362159e-01
1	 1.548705955261170e+00	 2.865918075597200e-01	 7.114398773951920e-01
1	 1.587500000000000e+00	 0.000000000000000e+00	 7.564169830995411e-01
1	 1.587250146483912e+00	 2.816420577830969e-02	 7.785481949904729e-01
1	 1.586493440292707e+00	 5.652268491037100e-02	 7.947929166666162e-01
1	 1.585219357988580e+00	 8.506372353152102e-02	 8.049289705643625e-01
1	 1.583417659464048e+00	 1.137750662586921e-01	 8.087408510355387e-01
1	 1.581078417424106e+00	 1.426439201748988e-01	 8.060207427313431e-01
1	 1.578192047221937e+00	 1.716569605210333e-01	 7.965695571550689e-01
1	 1.574749336945184e+00	 2.008003381557873e-01	 7.801979824379723e-01
1	 1.570741477642742e+00	 2.300596888383343e-01	 7.567275409782754e-01
1	 1.566160093575237e+00	 2.594201443814592e-01	 7.259916491887473e-01
1	 1.560997272366028e+00	 2.888663457151135e-01	 6.878366732293157e-01
1	 1.600000000000000e+00	 0.000000000000000e+00	 7.319933220865210e-01
1	 1.599748179133383e+00	 2.838597117793407e-02	 7.535409920698510e-01
1	 1.598985514625687e+00	 5.696774542111284e-02	 7.694248201170184e-01
1	 1.597701400177391e+00	 8.573351662971965e-02	 7.794238309620456e-01
1	 1.595885515050245e+00	 1.146709329216086e-01	 7.833233173338492e-01
1	 1.593527853781565e+00	 1.437671006481656e-01	 7.809158435086203e-01
1	 1.590618756254874e+00	 1.730085901309208e-01	 7.720022681802556e-01
1	 1.587148938023073e+00	 2.023814431802099e-01	 7.563927818369882e-01
1	 1.583109520773236e+00	 2.318711824509491e-01	 7.339079534160853e-01
1	 1.578492062815286e+00	 2.614628226835838e-01	 7.043797806112490e-01
1	 1.573288589470401e+00	 2.911408838705071e-01	 6.676527378341084e-01
1	 1.612500000000000e+00	 0.000000000000000e+00	 7.112164267214978e-01
1	 1.612246211782850e+00	 2.860773657755843e-02	 7.321572368780169e-01
1	 1.611477588958649e+00	 5.741280593185468e-02	 7.476551884028360e-01
1	 1.610183442366161e+00	 8.640330972791826e-02	 7.574905105710735e-01
1	 1.608353370636367e+00	 1.155667995845252e-01	 7.614493004794913e-01
1	 1.605977290138907e+00	 1.448902811214324e-01	 7.593245119036065e-01
1	 1.603045465287642e+00	 1.743602197408082e-01	 7.509169646125020e-01
1	 1.599548539100729e+00	 2.039625482046325e-01	 7.360363694613135e-01
1	 1.595477563903424e+00	 2.336826760635639e-01	 7.145023641643996e-01
1	 1.590824032054943e+00	 2.635055009857084e-01	 6.861455542514538e-01
1	 1.585579906574289e+00	 2.934154220259006e-01	 6.508085533318394e-01
1	 1.625000000000000e+00	 0.000000000000000e+00	 6.940021408742174e-01
1	 1.624744244432312e+00	 2.882950197718282e-02	 7.143133113905389e-01
1	 1.623969663291593e+00	 5.785786644259652e-02	 7.294009800279344e-01
1	 1.622665484554890e+00	 8.707310282611692e-02	 7.390465827943747e-01
1	 1.620821226222414e+00	 1.164626662474418e-01	 7.430370270068805e-01
1	 1.618426726496131e+00	 1.460134615946994e-01	 7.411656655868566e-01
1	 1.615472174320238e+00	 1.757118493506957e-01	 7.332332929426568e-01
1	 1.611948140178151e+00	 2.055436532290552e-01	 7.190491578906839e-01
1	 1.607845607033305e+00	 2.354941696761788e-01	 6.984319886472277e-01
1	 1.603156001294210e+00	 2.655481792878331e-01	 6.712110245202512e-01
1	 1.597871223677692e+00	 2.956899601812942e-01	 6.372270485487002e-01
1	 1.474958052621828e+00	 2.729445786273588e-01	 9.296507228124616e-01
1	 1.469523396769290e+00	 3.008338184785218e-01	 9.262708978623699e-01
1	 1.463525825188096e+00	 3.287737200529772e-01	 9.138513427164822e-01
1	 1.456959343223164e+00	 3.567484718715391e-01	 8.921570117157824e-01
1	 1.449818504550261e+00	 3.847418665163292e-01	 8.609692327413179e-01
1	 1.442098437276991e+00	 4.127373222644202e-01	 8.200870501364133e-01
1	 1.433794869157430e+00	 4.407179065634715e-01	 7.693285391841553e-01
1	 1.424904151779575e+00	 4.686663613186522e-01	 7.085320828989041e-01
1	 1.415423283584646e+00	 4.965651299484973e-01	 6.375576017268905e-01
1	 1.405349931578255e+00	 5.243963861554752e-01	 5.562877266687198e-01
1	 1.394682451595397e+00	 5.521420643450261e-01	 4.646289063410504e-01
1	 1.487249369729599e+00	 2.752191167827523e-01	 8.837120638164939e-01
1	 1.481769425078744e+00	 3.033407669662652e-01	 8.813527238644464e-01
1	 1.475721873734670e+00	 3.315135010540273e-01	 8.701787954500627e-01
1	 1.469100671086833e+00	 3.597213758045253e-01	 8.499482096084802e-01
1	 1.461900325424960e+00	 3.879480487380636e-01	 8.204346344826465e-01
1	 1.454115924257551e+00	 4.161767999506894e-01	 7.814288309827102e-01
1	 1.445743159736630e+00	 4.443905557854587e-01	 7.327399834181255e-01
1	 1.436778353046758e+00	 4.725719143300821e-01	 6.741969958940119e-01
1	 1.427218477616163e+00	 5.007031726982478e-01	 6.056497450740187e-01
1	 1.417061181008836e+00	 5.287663560399447e-01	 5.269702798025153e-01
1	 1.406304805358394e+00	 5.567432482139901e-01	 4.380539580553247e-01
1	 1.499540686836884e+00	 2.774936549381459e-01	 8.417269893432252e-01
1	 1.494015453387626e+00	 3.058477154540085e-01	 8.403204088573993e-01
1	 1.487917922280615e+00	 3.342532820550773e-01	 8.303224372960257e-01
1	 1.481241998949843e+00	 3.626942797375113e-01	 8.114840673781371e-01
1	 1.473982146299001e+00	 3.911542309597980e-01	 7.835713991224253e-01
1	 1.466133411237483e+00	 4.196162776369589e-01	 7.463670081515320e-01
1	 1.457691450315262e+00	 4.480632050074460e-01	 6.996712923533343e-01
1	 1.448652554313463e+00	 4.764774673415118e-01	 6.433037877229304e-01
1	 1.439013671647323e+00	 5.048412154479985e-01	 5.771044439942646e-01
1	 1.428772430439212e+00	 5.331363259244142e-01	 5.009348505340391e-01
1	 1.417927159121370e+00	 5.613444320829541e-01	 4.146794029191266e-01
1	 1.511832003943683e+00	 2.797681930935394e-01	 8.035990705026151e-01
1	 1.506261481695937e+00	 3.083546639417515e-01	 8.030791757932683e-01
1	 1.500113970825930e+00	 3.369930630561272e-01	 7.941891904715442e-01
1	 1.493383326812194e+00	 3.656671836704973e-01	 7.766732518571801e-01
1	 1.486063967172383e+00	 3.943604131815324e-01	 7.502899812239786e-01
1	 1.478150898216786e+00	 4.230557553232283e-01	 7.148138646589375e-01
1	 1.469639740893325e+00	 4.517358542294331e-01	 6.700366156303704e-01
1	 1.460526755579689e+00	 4.803830203529415e-01	 6.157685101201593e-01
1	 1.450808865678127e+00	 5.089792581977491e-01	 5.518396849353452e-01
1	 1.440483679869384e+00	 5.375062958088838e-01	 4.781013896513776e-01
1	 1.429549512884325e+00	 5.659456159519182e-01	 3.944271825602280e-01
1	 1.524123321049998e+00	 2.820427312489329e-01	 7.692349890139626e-01
1	 1.518507510003678e+00	 3.108616124294948e-01	 7.695373049482307e-01
1	 1.512310019370616e+00	 3.397328440571772e-01	 7.616889797029125e-01
1	 1.505524654673888e+00	 3.686400876034834e-01	 7.454273761092527e-01
1	 1.498145788045108e+00	 3.975665954032666e-01	 7.205037239131056e-01
1	 1.490168385195461e+00	 4.264952330094976e-01	 6.866845131011219e-01
1	 1.481588031470819e+00	 4.554085034514203e-01	 6.437528722562722e-01
1	 1.472400956845438e+00	 4.842885733643713e-01	 5.915099228287862e-01
1	 1.462604059708573e+00	 5.131173009474997e-01	 5.297760999434740e-01
1	 1.452194929299351e+00	 5.418762656933532e-01	 4.583924301753043e-01
1	 1.441171866647260e+00	 5.705467998208821e-01	 3.772217566184468e-01
1	 1.536414638155826e+00	 2.843172694043264e-01	 7.385444127815418e-01
1	 1.530753538310847e+00	 3.133685609172381e-01	 7.396060116295994e-01
1	 1.524506067914674e+00	 3.424726250582273e-01	 7.327346121251865e-01
1	 1.517665982534923e+00	 3.716129915364694e-01	 7.176608815799590e-01
1	 1.510227608917174e+00	 4.007727776250010e-01	 6.941287433355816e-01
1	 1.502185872173508e+00	 4.299347106957671e-01	 6.618967824712061e-01
1	 1.493536322047746e+00	 4.590811526734075e-01	 6.207396398298668e-01
1	 1.484275158110709e+00	 4.881941263758013e-01	 5.704493852801371e-01
1	 1.474399253738662e+00	 5.172553436972505e-01	 5.108368608394082e-01
1	 1.463906178729113e+00	 5.462462355778226e-01	 4.417329840699608e-01
1	 1.452794220410174e+00	 5.751479836898462e-01	 3.629900020251699e-01
1	 1.548705955261170e+00	 2.865918075597200e-01	 7.114398773951920e-01
1	 1.542999566617443e+00	 3.158755094049813e-01	 7.131993297063600e-01
1	 1.536702116458102e+00	 3.452124060592773e-01	 7.072416629008638e-01
1	 1.529807310395300e+00	 3.745858954694554e-01	 6.932909258594819e-01
1	 1.522309429788582e+00	 4.039789598467353e-01	 6.710838186166888e-01
1	 1.514203359150925e+00	 4.333741883820365e-01	 6.403711103657164e-01
1	 1.505484612624103e+00	 4.627538018953948e-01	 6.009190490420949e-01
1	 1.496149359375500e+00	 4.920996793872311e-01	 5.525107534315488e-01
1	 1.486194447768395e+00	 5.213933864470012e-01	 4.949475784337470e-01
1	 1.475617428158671e+00	 5.506162054622920e-01	 4.280504438720868e-01
1	 1.464416574173068e+00	 5.797491675588102e-01	 3.516611170790813e-01
1	 1.560997272366028e+00	 2.888663457151135e-01	 6.878366732293157e-01
1	 1.555245594923469e+00	 3.183824578927246e-01	 6.902340006421652e-01
1	 1.548898165000901e+00	 3.479521870603273e-01	 6.851283662424393e-01
1	 1.541948638255018e+00	 3.775587994024414e-01	 6.722372757477661e-01
1	 1.534391250659332e+00	 4.071851420684697e-01	 6.512902870194894e-01
1	 1.526220846127715e+00	 4.368136660683060e-01	 6.220304402836598e-01
1	 1.517432903199891e+00	 4.664264511173821e-01	 5.842156831605716e-01
1	 1.508023560639813e+00	 4.960052323986609e-01	 5.376202814779397e-01
1	 1.497989641797769e+00	 5.255314291967518e-01	 4.820362065037108e-01
1	 1.487328677588024e+00	 5.549861753467614e-01	 4.172744889676882e-01
1	 1.476038927935941e+00	 5.843503514277741e-01	 3.431665300537485e-01
1	 1.573288589470401e+00	 2.911408838705071e-01	 6.676527378341084e-01
1	 1.567491623228924e+00	 3.208894063804678e-01	 6.706293677299211e-01
1	 1.561094213543070e+00	 3.506919680613774e-01	 6.663155115432731e-01
1	 1.554089966114079e+00	 3.805317033354274e-01	 6.544222053322521e-01
1	 1.546473071529424e+00	 4.103913242902040e-01	 6.346719440175888e-01
1	 1.538238333103876e+00	 4.402531437545753e-01	 6.068001237397007e-01
1	 1.529381193775111e+00	 4.700991003393692e-01	 5.705564822258125e-01
1	 1.519897761903649e+00	 4.999107854100907e-01	 5.257065281706556e-01
1	 1.509784835826787e+00	 5.296694719465024e-01	 4.720329502710053e-01
1	 1.499039927017173e+00	 5.593561452312309e-01	 4.093369962619904e-01
1	 1.487661281698794e+00	 5.889515352967382e-01	 3.374398120892242e-01
1	 1.585579906574289e+00	 2.934154220259006e-01	 6.508085533318394e-01
1	 1.579737651533808e+00	 3.233963548682111e-01	 6.543072752456974e-01
1	 1.573290262084611e+00	 3.534317490624274e-01	 6.507263443395477e-01
1	 1.566231293972480e+00	 3.835046072684134e-01	 6.397703988061959e-01
1	 1.558554892398857e+00	 4.135975065119385e-01	 6.211549480156371e-01
1	 1.550255820079409e+00	 4.436926214408446e-01	 5.946078269302283e-01
1	 1.541329484349762e+00	 4.737717495613564e-01	 5.598706517034453e-01
1	 1.531771963167006e+00	 5.038163384215205e-01	 5.167002674935792e-01
1	 1.521580029855448e+00	 5.338075146962531e-01	 4.648701791365296e-01
1	 1.510751176446117e+00	 5.637261151157004e-01	 4.041719550042656e-01
1	 1.499283635461626e+00	 5.935527191657022e-01	 3.344165941352083e-01
1	 1.597871223677692e+00	 2.956899601812942e-01	 6.372270485487002e-01
1	 1.591983679838119e+00	 3.259033033559543e-01	 6.411919722570548e-01
1	 1.585486310625523e+00	 3.561715300634776e-01	 6.382864718432592e-01
1	 1.578372621830225e+00	 3.864775112013996e-01	 6.282088577722933e-01
1	 1.570636713267633e+00	 4.168036887336729e-01	 6.106677294673762e-01
1	 1.562273307054313e+00	 4.471320991271141e-01	 5.853834417071347e-01
1	 1.553277774923845e+00	 4.774443987833438e-01	 5.520895753524749e-01
1	 1.543646164429884e+00	 5.077218914329503e-01	 5.105344034618622e-01
1	 1.533375223883753e+00	 5.379455574460040e-01	 4.604823434427181e-01
1	 1.522462425874856e+00	 5.680960850001699e-01	 4.017153855438421e-01
1	 1.510905989224438e+00	 5.981539030346663e-01	 3.340344877275968e-01
1	 1.394682451595397e+00	 5.521420643450261e-01	 4.646289063410504e-01
1	 1.383419906984210e+00	 5.797838916139538e-01	 4.023502781182575e-01
1	 1.371562085578352e+00	 6.073034212204445e-01	 3.306388778791214e-01
1	 1.359109514832477e+00	 6.346820674319068e-01	 2.493744677548763e-01
1	 1.346063475001740e+00	 6.619011416355681e-01	 1.584593376929167e-01
1	 1.332426010254849e+00	 6.889418895898038e-01	 5.781924252966118e-02
1	 1.318199937618296e+00	 7.157855296803712e-01	-5.259574815477712e-02
1	 1.303388853659439e+00	 7.424132920367565e-01	-1.728104953702609e-01
1	 1.287997138826982e+00	 7.688064583548604e-01	-3.028241387066102e-01
1	 1.272029959379205e+00	 7.949464022641402e-01	-4.426095538556414e-01
1	 1.255493266842989e+00	 8.208146300702533e-01	-5.921129258606234e-01
1	 1.406304805358394e+00	 5.567432482139901e-01	 4.380539580553247e-01
1	 1.394948406207697e+00	 5.846154240430896e-01	 3.780446559800625e-01
1	 1.382991769622504e+00	 6.123642830626772e-01	 3.087486704065619e-01
1	 1.370435427452928e+00	 6.399710846590581e-01	 2.300285494609108e-01
1	 1.357280670622920e+00	 6.674169844810206e-01	 1.417688250252015e-01
1	 1.343529560335928e+00	 6.946830720015954e-01	 4.387701167879277e-02
1	 1.329184937093667e+00	 7.217504090930887e-01	-6.371547770577657e-02
1	 1.314250427434890e+00	 7.486000694693998e-01	-1.810525080123346e-01
1	 1.298730448312043e+00	 7.752131788405625e-01	-3.081524974135028e-01
1	 1.282630209035559e+00	 8.015709556162806e-01	-4.450077996667978e-01
1	 1.265955710728375e+00	 8.276547519880928e-01	-5.915841998086432e-01
1	 1.417927159121370e+00	 5.613444320829541e-01	 4.146794029191266e-01
1	 1.406476905431348e+00	 5.894469564722256e-01	 3.568259480074522e-01
1	 1.394421453666978e+00	 6.174251449049096e-01	 2.898306014901022e-01
1	 1.381761340073830e+00	 6.452601018862087e-01	 2.135388923059446e-01
1	 1.368497866244649e+00	 6.729328273264731e-01	 1.278177952507354e-01
1	 1.354633110417626e+00	 7.004242544133872e-01	 3.255679121771837e-02
1	 1.340169936569694e+00	 7.277152885058061e-01	-7.233115207471227e-02
1	 1.325112001211006e+00	 7.547868469020427e-01	-1.869086874959394e-01
1	 1.309463757797747e+00	 7.816198993262644e-01	-3.112132922599704e-01
1	 1.293230458692502e+00	 8.081955089684213e-01	-4.452565757091938e-01
1	 1.276418154614268e+00	 8.344948739059324e-01	-5.890236981940834e-01
1	 1.429549512884325e+00	 5.659456159519182e-01	 3.944271825602280e-01
1	 1.418005404655163e+00	 5.942784889013609e-01	 3.386188636085632e-01
1	 1.405851137711774e+00	 6.224860067471424e-01	 2.738121799433090e-01
1	 1.393087252695183e+00	 6.505491191133597e-01	 1.998358313823459e-01
1	 1.379715061866928e+00	 6.784486701719254e-01	 1.165394317121691e-01
1	 1.365736660499942e+00	 7.061654368251790e-01	 2.379462967252274e-02
1	 1.351154936046379e+00	 7.336801679185235e-01	-7.850384577880473e-02
1	 1.335973574987789e+00	 7.609736243346858e-01	-1.904372248738357e-01
1	 1.320197067284093e+00	 7.880266198119669e-01	-3.120618296812598e-01
1	 1.303830708350034e+00	 8.148200623205618e-01	-4.434083080738873e-01
1	 1.286880598500666e+00	 8.413349958237717e-01	-5.844809765171313e-01
1	 1.441171866647260e+00	 5.705467998208821e-01	 3.772217566184468e-01
1	 1.429533903879145e+00	 5.991100213304970e-01	 3.233505409203503e-01
1	 1.417280821756893e+00	 6.275468685893746e-01	 2.606232530051439e-01
1	 1.404413165316985e+00	 6.558381363405106e-01	 1.888519490376209e-01
1	 1.390932257489756e+00	 6.839645130173780e-01	 1.078690731282227e-01
1	 1.376840210582875e+00	 7.119066192369704e-01	 1.752863852006303e-02
1	 1.362139935523721e+00	 7.396450473312408e-01	-8.229266318951900e-02
1	 1.346835148765235e+00	 7.671604017673291e-01	-1.916944340680454e-01
1	 1.330930376771083e+00	 7.944333402976689e-01	-3.107516320340855e-01
1	 1.314430958008157e+00	 8.214446156727025e-01	-4.395137316877441e-01
1	 1.297343042387568e+00	 8.481751177416111e-01	-5.780039917134563e-01
1	 1.452794220410174e+00	 5.751479836898462e-01	 3.629900020251699e-01
1	 1.441062403103291e+00	 6.039415537596327e-01	 3.109504496594118e-01
1	 1.428710505802334e+00	 6.326077304316072e-01	 2.501959128029642e-01
1	 1.415739077939239e+00	 6.611271535676618e-01	 1.805219849841541e-01
1	 1.402149453113134e+00	 6.894803558628307e-01	 1.017441273786391e-01
1	 1.387943760666427e+00	 7.176478016487620e-01	 1.369890966996143e-02
1	 1.373124935001719e+00	 7.456099267439583e-01	-8.375481733845017e-02
1	 1.357696722543348e+00	 7.733471791999721e-01	-1.907348269550847e-01
1	 1.341663686258716e+00	 8.008400607833710e-01	-3.073345089597449e-01
1	 1.325031207666869e+00	 8.280691690248431e-01	-4.336219579599751e-01
1	 1.307805486274977e+00	 8.550152396594507e-01	-5.696391660968041e-01
1	 1.464416574173068e+00	 5.797491675588102e-01	 3.516611170790813e-01
1	 1.452590902327603e+00	 6.087730861887682e-01	 3.013502985990082e-01
1	 1.440140189848097e+00	 6.376685922738400e-01	 2.424644072696284e-01
1	 1.427064990561943e+00	 6.664161707948125e-01	 1.747827506895365e-01
1	 1.413366648737060e+00	 6.949961987082831e-01	 9.810398939461243e-02
1	 1.399047310750597e+00	 7.233889840605537e-01	 1.224743687598251e-02
1	 1.384109934480375e+00	 7.515748061566756e-01	-8.294570497045894e-02
1	 1.368558296322125e+00	 7.795339566326149e-01	-1.876111848757047e-01
1	 1.352396995746991e+00	 8.072467812690729e-01	-3.018606253490317e-01
1	 1.335631457326171e+00	 8.346937223769836e-01	-4.257805392074396e-01
1	 1.318267930162891e+00	 8.618553615772905e-01	-5.594314482566934e-01
1	 1.476038927935941e+00	 5.843503514277741e-01	 3.431665300537485e-01
1	 1.464119401552080e+00	 6.136046186179041e-01	 2.944839474172032e-01
1	 1.451569873894183e+00	 6.427294541160723e-01	 2.373650552692742e-01
1	 1.438390903185097e+00	 6.717051880219633e-01	 1.715730478113723e-01
1	 1.424583844361535e+00	 7.005120415537357e-01	 9.688996292842544e-02
1	 1.410150860835385e+00	 7.291301664723454e-01	 1.311804086028830e-02
1	 1.395094933959687e+00	 7.575396855693931e-01	-7.991897805102036e-02
1	 1.379419870101568e+00	 7.857207340652584e-01	-1.823746267662319e-01
1	 1.363130305235910e+00	 8.136535017547750e-01	-2.943785660961640e-01
1	 1.346231706986062e+00	 8.413182757291240e-01	-4.160355300362296e-01
1	 1.328730374051309e+00	 8.686954834951300e-01	-5.474243710790463e-01
1	 1.487661281698794e+00	 5.889515352967382e-01	 3.374398120892242e-01
1	 1.475647900776722e+00	 6.184361510470401e-01	 2.902873226771570e-01
1	 1.462999557940591e+00	 6.477903159583051e-01	 2.348361657015696e-01
1	 1.449716815808702e+00	 6.769942052491146e-01	 1.708335904554862e-01
1	 1.435801039986560e+00	 7.060278843991882e-01	 9.804518599011333e-02
1	 1.421254410920791e+00	 7.348713488841370e-01	 1.625629794749835e-02
1	 1.406079933439656e+00	 7.635045649821103e-01	-7.472661192171288e-02
1	 1.390281443881676e+00	 7.919075114979012e-01	-1.750746740962260e-01
1	 1.373863614725471e+00	 8.200602222404771e-01	-2.849353978174396e-01
1	 1.356831956646543e+00	 8.479428290812646e-01	-4.044315458460364e-01
1	 1.339192817940233e+00	 8.755356054129694e-01	-5.336601070471230e-01
1	 1.499283635461626e+00	 5.935527191657022e-01	 3.344165941352083e-01
1	 1.487176400001530e+00	 6.232676834761757e-01	 2.886983377152930e-01
1	 1.474429241987322e+00	 6.528511778005376e-01	 2.348179603685307e-01
1	 1.461042728432757e+00	 6.822832224762654e-01	 1.725069310500267e-01
1	 1.447018235612134e+00	 7.115437272446408e-01	 1.015145597522149e-01
1	 1.432357961006815e+00	 7.406125312959287e-01	 2.160947201805410e-02
1	 1.417064932920283e+00	 7.694694443948278e-01	-6.741897028558437e-02
1	 1.401143017662449e+00	 7.980942889305445e-01	-1.657593127857961e-01
1	 1.384596924215675e+00	 8.264669427261790e-01	-2.735767276991855e-01
1	 1.367432206307614e+00	 8.545673824334052e-01	-3.910118186132931e-01
1	 1.349655261829663e+00	 8.823757273308089e-01	-5.181795209702891e-01
1	 1.510905989224438e+00	 5.981539030346663e-01	 3.340344877275968e-01
1	 1.498704899226502e+00	 6.280992159053116e-01	 2.896568162269453e-01
1	 1.485858926034374e+00	 6.579120396427700e-01	 2.372525004013805e-01
1	 1.472368641057263e+00	 6.875722397034166e-01	 1.765373896407585e-01
1	 1.458235431238258e+00	 7.170595700900936e-01	 1.072446807358114e-01
1	 1.443461511093458e+00	 7.463537137077204e-01	 2.912644960224704e-02
1	 1.428049932401566e+00	 7.754343238075454e-01	-5.804486719328049e-02
1	 1.412004591443889e+00	 8.042810663631879e-01	-1.544750522652049e-01
1	 1.395330233706523e+00	 8.328736632118814e-01	-2.603467596297034e-01
1	 1.378032455969274e+00	 8.611919357855460e-01	-3.758182500997677e-01
1	 1.360117705719598e+00	 8.892158492486488e-01	-5.010222202791761e-01
1	 1.255493266842989e+00	 8.208146300702533e-01	-5.921129258606234e-01
1	 1.238393794960052e+00	 8.463928216988620e-01	-7.432120157967361e-01
1	 1.220739054091186e+00	 8.716628716590645e-01	-9.016878161103247e-01
1	 1.202537323063470e+00	 8.966069298445739e-01	-1.067425907908249e+00
1	 1.183797638460694e+00	 9.212074419883817e-01	-1.240291357866387e+00
1	 1.164529781372711e+00	 9.454471895829715e-01	-1.420128894827605e+00
1	 1.144744261634678e+00	 9.693093290812137e-01	-1.606763187151230e+00
1	 1.124452299602615e+00	 9.927774301945512e-01	-1.799999220489511e+00
1	 1.103665805527006e+00	 1.015835513108607e+00	-1.999622774856483e+00
1	 1.082397356601088e+00	 1.038468084441313e+00	-2.205400999045040e+00
1	 1.060660171775000e+00	 1.060660171775000e+00	-2.417083079647759e+00
1	 1.265955710728375e+00	 8.276547519880928e-01	-5.915841998086432e-01
1	 1.248713743246684e+00	 8.534460952142418e-01	-7.398889436523870e-01
1	 1.230911879537568e+00	 8.789267289246001e-01	-8.955606587962053e-01
1	 1.212558467418335e+00	 9.040786542619943e-01	-1.058505255053261e+00
1	 1.193662618777638e+00	 9.288841706738568e-01	-1.228608165815880e+00
1	 1.174234196214413e+00	 9.533259161651070e-01	-1.405734441022541e+00
1	 1.154283797145776e+00	 9.773869068257236e-01	-1.589728940318584e+00
1	 1.133822735430714e+00	 1.001050575448077e+00	-1.780416626641609e+00
1	 1.112863020571797e+00	 1.024300809052669e+00	-1.977602959658871e+00
1	 1.091417334572207e+00	 1.047121985145915e+00	-2.181074387674709e+00
1	 1.069499006540000e+00	 1.069499006540000e+00	-2.390598935820770e+00
1	 1.276418154614268e+00	 8.344948739059324e-01	-5.890236981940834e-01
1	 1.259033691533726e+00	 8.604993687296211e-01	-7.346563842540461e-01
1	 1.241084704984276e+00	 8.861905861901355e-01	-8.876463246297317e-01
1	 1.222579611773449e+00	 9.115503786794145e-01	-1.047919524344384e+00
1	 1.203527599094765e+00	 9.365608993593316e-01	-1.215381548689620e+00
1	 1.183938611056242e+00	 9.612046427472428e-01	-1.389917533386129e+00
1	 1.163823332656955e+00	 9.854644845702333e-01	-1.571392294391493e+00
1	 1.143193171258858e+00	 1.009323720701601e+00	-1.759650538135872e+00
1	 1.122060235616609e+00	 1.032766104996730e+00	-1.954517172170036e+00
1	 1.100437312543332e+00	 1.055775885850517e+00	-2.155797715400305e+00
1	 1.078337841305000e+00	 1.078337841305000e+00	-2.363278806275443e+00
1	 1.286880598500666e+00	 8.413349958237717e-01	-5.844809765171313e-01
1	 1.269353639821178e+00	 8.675526422450008e-01	-7.275609104603207e-01
1	 1.251257530431308e+00	 8.934544434556709e-01	-8.779884032890850e-01
1	 1.232600756128812e+00	 9.190221030968349e-01	-1.035709327435595e+00
1	 1.213392579412076e+00	 9.442376280448065e-01	-1.200649151000735e+00
1	 1.193643025898199e+00	 9.690833693293788e-01	-1.372712865913504e+00
1	 1.173362868168216e+00	 9.935420623147427e-01	-1.551785015200885e+00
1	 1.152563607087049e+00	 1.017596865955126e+00	-1.737729820695161e+00
1	 1.131257450661441e+00	 1.041231400940791e+00	-1.930391411713776e+00
1	 1.109457290514461e+00	 1.064429786555119e+00	-2.129594154438790e+00
1	 1.087176676070000e+00	 1.087176676070000e+00	-2.335143080907285e+00
1	 1.297343042387568e+00	 8.481751177416111e-01	-5.780039917134563e-01
1	 1.279673588109040e+00	 8.746059157603802e-01	-7.186475927795428e-01
1	 1.261430355878664e+00	 9.007183007212065e-01	-8.666290783338260e-01
1	 1.242621900484424e+00	 9.264938275142550e-01	-1.021913965927477e+00
1	 1.223257559729569e+00	 9.519143567302811e-01	-1.184447402923260e+00
1	 1.203347440740282e+00	 9.769620959115145e-01	-1.354154013438618e+00
1	 1.182902403679558e+00	 1.001619640059252e+00	-1.530937843873470e+00
1	 1.161934042915285e+00	 1.025870011208651e+00	-1.714682408889976e+00
1	 1.140454665706294e+00	 1.049696696884853e+00	-1.905250838926037e+00
1	 1.118477268485596e+00	 1.073083687259721e+00	-2.102486129516226e+00
1	 1.096015510835000e+00	 1.096015510835000e+00	-2.306211491873205e+00
1	 1.307805486274977e+00	 8.550152396594507e-01	-5.696391660968041e-01
1	 1.289993536397313e+00	 8.816591892757599e-01	-7.079600594638016e-01
1	 1.271603181326345e+00	 9.079821579867418e-01	-8.536091834495972e-01
1	 1.252643044840285e+00	 9.339655519316756e-01	-1.006571483769442e+00
1	 1.233122540047246e+00	 9.595910854157564e-01	-1.166811568865644e+00
1	 1.213051855582494e+00	 9.848408224936503e-01	-1.334273476400799e+00
1	 1.192441939190983e+00	 1.009697217803762e+00	-1.508880537819906e+00
1	 1.171304478743568e+00	 1.034143156462176e+00	-1.690535343384586e+00
1	 1.149651880751167e+00	 1.058161992828914e+00	-1.879119809302441e+00
1	 1.127497246456736e+00	 1.081737587964323e+00	-2.074495347767482e+00
1	 1.104854345600000e+00	 1.104854345600000e+00	-2.276503139901099e+00
1	 1.318267930162891e+00	 8.618553615772905e-01	-5.594314482566934e-01
1	 1.300313484685995e+00	 8.887124627911391e-01	-6.955405537413351e-01
1	 1.281776006774351e+00	 9.152460152522772e-01	-8.389682560145929e-01
1	 1.262664189196394e+00	 9.414372763490958e-01	-9.897187171664601e-01
1	 1.242987520365106e+00	 9.672678141012309e-01	-1.147775793731334e+00
1	 1.222756270424832e+00	 9.927195490757862e-01	-1.313102723479384e+00
1	 1.201981474702488e+00	 1.017774795548272e+00	-1.485641909771195e+00
1	 1.180674914571895e+00	 1.042416301715701e+00	-1.665314806409468e+00
1	 1.158849095796060e+00	 1.066627288772976e+00	-1.852021905148244e+00
1	 1.136517224427881e+00	 1.090391488668925e+00	-2.045642827212020e+00
1	 1.113693180365000e+00	 1.113693180365000e+00	-2.246036519346569e+00
1	 1.328730374051309e+00	 8.686954834951300e-01	-5.474243710790463e-01
1	 1.310633432975088e+00	 8.957657363065190e-01	-6.814299883449999e-01
1	 1.291948832222681e+00	 9.225098725178128e-01	-8.227445881352560e-01
1	 1.272685333552753e+00	 9.489090007665163e-01	-9.713913421281120e-01
1	 1.252852500683149e+00	 9.749445427867061e-01	-1.127373146993733e+00
1	 1.232460685267298e+00	 1.000598275657922e+00	-1.290672232214213e+00
1	 1.211521010214075e+00	 1.025852373292782e+00	-1.461249864970688e+00
1	 1.190045350400269e+00	 1.050689446969226e+00	-1.639046155557932e+00
1	 1.168046310840973e+00	 1.075092584717037e+00	-1.823979966018949e+00
1	 1.145537202399030e+00	 1.099045389373528e+00	-2.015948923884407e+00
1	 1.122532015130000e+00	 1.122532015130000e+00	-2.214829542065817e+00
1	 1.339192817940233e+00	 8.755356054129694e-01	-5.336601070471230e-01
1	 1.320953381264590e+00	 9.028190098218986e-01	-6.656679974847727e-01
1	 1.302121657671336e+00	 9.297737297833478e-01	-8.049752752897130e-01
1	 1.282706477909361e+00	 9.563807251839367e-01	-9.516239197886582e-01
1	 1.262717481001375e+00	 9.826212714721810e-01	-1.105635664705229e+00
1	 1.242165100109891e+00	 1.008477002240058e+00	-1.267011527722022e+00
1	 1.221060545725744e+00	 1.033929951037291e+00	-1.435731436622937e+00
1	 1.199415786228689e+00	 1.058962592222751e+00	-1.611753955998506e+00
1	 1.177243525885908e+00	 1.083557880661099e+00	-1.795016117733955e+00
1	 1.154557180370186e+00	 1.107699290078130e+00	-1.985433357693179e+00
1	 1.131370849895000e+00	 1.131370849895000e+00	-2.182899560169539e+00
1	 1.349655261829663e+00	 8.823757273308089e-01	-5.181795209702891e-01
1	 1.331273329554503e+00	 9.098722833372782e-01	-6.482929864028883e-01
1	 1.312294483120316e+00	 9.370375870488835e-01	-7.856962627087354e-01
1	 1.292727622266217e+00	 9.638524496013569e-01	-9.304499396193131e-01
1	 1.272582461319784e+00	 9.902980001576561e-01	-1.082594389552255e+00
1	 1.251869514952611e+00	 1.016355728822194e+00	-1.242149219612040e+00
1	 1.230600081237495e+00	 1.042007528781801e+00	-1.409112819693593e+00
1	 1.208786222057155e+00	 1.067235737476276e+00	-1.583462011189039e+00
1	 1.186440740930863e+00	 1.092023176605160e+00	-1.765151800040755e+00
1	 1.163577158341345e+00	 1.116353190782732e+00	-1.954115237076844e+00
1	 1.140209684660000e+00	 1.140209684660000e+00	-2.150263387718503e+00
1	 1.360117705719598e+00	 8.892158492486488e-01	-5.010222202791761e-01
1	 1.341593277844827e+00	 9.169255568526578e-01	-6.293421786418483e-01
1	 1.322467308569620e+00	 9.443014443144191e-01	-7.649423896159735e-01
1	 1.302748766623323e+00	 9.713241740187775e-01	-9.079018606460272e-01
1	 1.282447441638377e+00	 9.979747288431313e-01	-1.058279409061663e+00
1	 1.261573929795459e+00	 1.024234455404330e+00	-1.216113037197849e+00
1	 1.240139616749326e+00	 1.050085106526311e+00	-1.381419403149346e+00
1	 1.218156657885667e+00	 1.075508882729801e+00	-1.554193392173343e+00
1	 1.195637955975838e+00	 1.100488472549222e+00	-1.734407793002279e+00
1	 1.172597136312511e+00	 1.125007091487334e+00	-1.922013082521929e+00
1	 1.149048519425000e+00	 1.149048519425000e+00	-2.116937321417730e+00
1	 1.060660171775000e+00	 1.060660171775000e+00	-2.417083079647759e+00
1	 1.038468084441312e+00	 1.082397356601088e+00	-2.654535397251177e+00
1	 1.015835513108607e+00	 1.103665805527006e+00	-2.893742728945280e+00
1	 9.927774301945514e-01	 1.124452299602615e+00	-3.134348134842043e+00
1	 9.693093290812139e-01	 1.144744261634678e+00	-3.375991388480226e+00
1	 9.454471895829717e-01	 1.164529781372711e+00	-3.618310196452952e+00
1	 9.212074419883821e-01	 1.183797638460694e+00	-3.860941423589615e+00
1	 8.966069298445744e-01	 1.202537323063470e+00	-4.103522316171423e+00
1	 8.716628716590653e-01	 1.220739054091185e+00	-4.345691715726161e+00
1	 8.463928216988629e-01	 1.238393794960052e+00	-4.587091256087119e+00
1	 8.208146300702533e-01	 1.255493266842989e+00	-4.827366536608832e+00
1	 1.069499006540000e+00	 1.069499006540000e+00	-2.390598935820770e+00
1	 1.047121985145914e+00	 1.091417334572208e+00	-2.625626210813977e+00
1	 1.024300809052668e+00	 1.112863020571797e+00	-2.862504904258939e+00
1	 1.001050575448077e+00	 1.133822735430714e+00	-3.100893332476601e+00
1	 9.773869068257237e-01	 1.154283797145776e+00	-3.340446171686342e+00
1	 9.533259161651076e-01	 1.174234196214413e+00	-3.580815618008848e+00
1	 9.288841706738570e-01	 1.193662618777638e+00	-3.821652555367275e+00
1	 9.040786542619949e-01	 1.212558467418335e+00	-4.062607724130205e+00
1	 8.789267289246008e-01	 1.230911879537568e+00	-4.303332883382816e+00
1	 8.534460952142426e-01	 1.248713743246684e+00	-4.543481959822538e+00
1	 8.276547519880928e-01	 1.265955710728375e+00	-4.782712176453399e+00
1	 1.078337841305000e+00	 1.078337841305000e+00	-2.363278806275443e+00
1	 1.055775885850517e+00	 1.100437312543332e+00	-2.595980525626822e+00
1	 1.032766104996730e+00	 1.122060235616609e+00	-2.830629240792767e+00
1	 1.009323720701601e+00	 1.143193171258858e+00	-3.066898334905450e+00
1	 9.854644845702336e-01	 1.163823332656955e+00	-3.304457200455715e+00
1	 9.612046427472433e-01	 1.183938611056242e+00	-3.542972340326318e+00
1	 9.365608993593318e-01	 1.203527599094765e+00	-3.782108479046671e+00
1	 9.115503786794150e-01	 1.222579611773449e+00	-4.021529677473659e+00
1	 8.861905861901361e-01	 1.241084704984275e+00	-4.260900444121277e+00
1	 8.604993687296220e-01	 1.259033691533725e+00	-4.499886836444450e+00
1	 8.344948739059326e-01	 1.276418154614268e+00	-4.738157545528478e+00
1	 1.087176676070000e+00	 1.087176676070000e+00	-2.335143080907285e+00
1	 1.064429786555119e+00	 1.109457290514461e+00	-2.565616305073867e+00
1	 1.041231400940791e+00	 1.131257450661441e+00	-2.798131295590281e+00
1	 1.017596865955126e+00	 1.152563607087049e+00	-3.032376317621603e+00
1	 9.935420623147430e-01	 1.173362868168216e+00	-3.268035298067562e+00
1	 9.690833693293790e-01	 1.193643025898198e+00	-3.504788868265233e+00
1	 9.442376280448070e-01	 1.213392579412075e+00	-3.742315419216089e+00
1	 9.190221030968353e-01	 1.232600756128811e+00	-3.980292162900252e+00
1	 8.934544434556715e-01	 1.251257530431307e+00	-4.218396193232904e+00
1	 8.675526422450017e-01	 1.269353639821178e+00	-4.456305540273469e+00
1	 8.413349958237718e-01	 1.286880598500666e+00	-4.693700211414583e+00
1	 1.096015510835000e+00	 1.096015510835000e+00	-2.306211491873205e+00
1	 1.073083687259721e+00	 1.118477268485596e+00	-2.534550933075237e+00
1	 1.049696696884853e+00	 1.140454665706294e+00	-2.765026123854862e+00
1	 1.025870011208651e+00	 1.161934042915285e+00	-2.997340031102138e+00
1	 1.001619640059253e+00	 1.182902403679558e+00	-3.231190938663118e+00
1	 9.769620959115149e-01	 1.203347440740282e+00	-3.466273432335087e+00
1	 9.519143567302818e-01	 1.223257559729569e+00	-3.702279399670521e+00
1	 9.264938275142555e-01	 1.242621900484423e+00	-3.938899038505327e+00
1	 9.007183007212070e-01	 1.261430355878663e+00	-4.175821868096387e+00
1	 8.746059157603812e-01	 1.279673588109040e+00	-4.412737736781077e+00
1	 8.481751177416113e-01	 1.297343042387569e+00	-4.649337820157447e+00
1	 1.104854345600000e+00	 1.104854345600000e+00	-2.276503139901099e+00
1	 1.081737587964323e+00	 1.127497246456736e+00	-2.502801237265652e+00
1	 1.058161992828914e+00	 1.149651880751166e+00	-2.731328299023399e+00
1	 1.034143156462176e+00	 1.171304478743567e+00	-2.961801817808936e+00
1	 1.009697217803762e+00	 1.192441939190982e+00	-3.193934261210989e+00
1	 9.848408224936508e-01	 1.213051855582493e+00	-3.427433999669116e+00
1	 9.595910854157568e-01	 1.233122540047245e+00	-3.662006251443632e+00
1	 9.339655519316761e-01	 1.252643044840284e+00	-3.897354038925130e+00
1	 9.079821579867426e-01	 1.271603181326344e+00	-4.133179150494296e+00
1	 8.816591892757606e-01	 1.289993536397312e+00	-4.369183102143694e+00
1	 8.550152396594509e-01	 1.307805486274977e+00	-4.605068093129248e+00
1	 1.113693180365000e+00	 1.113693180365000e+00	-2.246036519346569e+00
1	 1.090391488668925e+00	 1.136517224427881e+00	-2.470383511069183e+00
1	 1.066627288772976e+00	 1.158849095796060e+00	-2.697051931884005e+00
1	 1.042416301715701e+00	 1.180674914571895e+00	-2.925773628379625e+00
1	 1.017774795548272e+00	 1.201981474702488e+00	-3.156275082807873e+00
1	 9.927195490757867e-01	 1.222756270424832e+00	-3.388278284475698e+00
1	 9.672678141012316e-01	 1.242987520365105e+00	-3.621501620456829e+00
1	 9.414372763490964e-01	 1.262664189196394e+00	-3.855660780236025e+00
1	 9.152460152522779e-01	 1.281776006774350e+00	-4.090469668819329e+00
1	 8.887124627911401e-01	 1.300313484685995e+00	-4.325641322817855e+00
1	 8.618553615772904e-01	 1.318267930162891e+00	-4.560888824039629e+00
1	 1.122532015130000e+00	 1.122532015130000e+00	-2.214829542065817e+00
1	 1.099045389373527e+00	 1.145537202399030e+00	-2.437313534731200e+00
1	 1.075092584717037e+00	 1.168046310840974e+00	-2.662210688790494e+00
1	 1.050689446969226e+00	 1.190045350400269e+00	-2.889267037053852e+00
1	 1.025852373292782e+00	 1.211521010214075e+00	-3.118222911350507e+00
1	 1.000598275657922e+00	 1.232460685267297e+00	-3.348813757995984e+00
1	 9.749445427867065e-01	 1.252852500683148e+00	-3.580770974807258e+00
1	 9.489090007665166e-01	 1.272685333552752e+00	-3.813822764622249e+00
1	 9.225098725178134e-01	 1.291948832222681e+00	-4.047695000176131e+00
1	 8.957657363065197e-01	 1.310633432975087e+00	-4.282112095135527e+00
1	 8.686954834951300e-01	 1.328730374051309e+00	-4.516797876087655e+00
1	 1.131370849895000e+00	 1.131370849895000e+00	-2.182899560169539e+00
1	 1.107699290078130e+00	 1.154557180370186e+00	-2.403606595364426e+00
1	 1.083557880661099e+00	 1.177243525885908e+00	-2.626817809023153e+00
1	 1.058962592222751e+00	 1.199415786228689e+00	-2.852293256376234e+00
1	 1.033929951037292e+00	 1.221060545725744e+00	-3.079786957613906e+00
1	 1.008477002240058e+00	 1.242165100109890e+00	-3.309047657994865e+00
1	 9.826212714721815e-01	 1.262717481001375e+00	-3.539819611714043e+00
1	 9.563807251839371e-01	 1.282706477909361e+00	-3.771843384824751e+00
1	 9.297737297833488e-01	 1.302121657671336e+00	-4.004856672384948e+00
1	 9.028190098218994e-01	 1.320953381264590e+00	-4.238595124918195e+00
1	 8.755356054129694e-01	 1.339192817940233e+00	-4.472793179247430e+00
1	 1.140209684660000e+00	 1.140209684660000e+00	-2.150263387718503e+00
1	 1.116353190782732e+00	 1.163577158341346e+00	-2.369277506062552e+00
1	 1.092023176605160e+00	 1.186440740930862e+00	-2.590886121341938e+00
1	 1.067235737476276e+00	 1.208786222057155e+00	-2.814863151215623e+00
1	 1.042007528781801e+00	 1.230600081237494e+00	-3.040976146767594e+00
1	 1.016355728822194e+00	 1.251869514952611e+00	-3.268986997810436e+00
1	 9.902980001576563e-01	 1.272582461319784e+00	-3.498652664141461e+00
1	 9.638524496013575e-01	 1.292727622266217e+00	-3.729725928383201e+00
1	 9.370375870488843e-01	 1.312294483120315e+00	-3.961956165891664e+00
1	 9.098722833372790e-01	 1.331273329554503e+00	-4.195090127109251e+00
1	 8.823757273308089e-01	 1.349655261829663e+00	-4.428872727679894e+00
1	 1.149048519425000e+00	 1.149048519425000e+00	-2.116937321417730e+00
1	 1.125007091487334e+00	 1.172597136312511e+00	-2.334340624131805e+00
1	 1.100488472549222e+00	 1.195637955975838e+00	-2.554428059775745e+00
1	 1.075508882729801e+00	 1.218156657885667e+00	-2.776987252137209e+00
1	 1.050085106526311e+00	 1.240139616749326e+00	-3.001799129360552e+00
1	 1.024234455404330e+00	 1.261573929795459e+00	-3.228638574985738e+00
1	 9.979747288431317e-01	 1.282447441638376e+00	-3.457275107116355e+00
1	 9.713241740187781e-01	 1.302748766623323e+00	-3.687473581682251e+00
1	 9.443014443144199e-01	 1.322467308569620e+00	-3.918994915590007e+00
1	 9.169255568526588e-01	 1.341593277844826e+00	-4.151596825423034e+00
1	 8.892158492486486e-01	 1.360117705719598e+00	-4.385034577264136e+00
1	 8.208146300702533e-01	 1.255493266842989e+00	-4.827366536608832e+00
1	 7.949464022641402e-01	 1.272029959379205e+00	-5.101057487028280e+00
1	 7.688064583548604e-01	 1.287997138826982e+00	-5.368368309500910e+00
1	 7.424132920367567e-01	 1.303388853659439e+00	-5.628885750455398e+00
1	 7.157855296803717e-01	 1.318199937618296e+00	-5.882219646432437e+00
1	 6.889418895898042e-01	 1.332426010254849e+00	-6.128003887272823e+00
1	 6.619011416355685e-01	 1.346063475001740e+00	-6.365897247396603e+00
1	 6.346820674319077e-01	 1.359109514832477e+00	-6.595584083168941e+00
1	 6.073034212204453e-01	 1.371562085578352e+00	-6.816774895436000e+00
1	 5.797838916139548e-01	 1.383419906984210e+00	-7.029206757376828e+00
1	 5.521420643450261e-01	 1.394682451595397e+00	-7.232643608845072e+00
1	 8.276547519880928e-01	 1.265955710728375e+00	-4.782712176453399e+00
1	 8.015709556162803e-01	 1.282630209035559e+00	-5.054821573251679e+00
1	 7.752131788405626e-01	 1.298730448312043e+00	-5.320673885062594e+00
1	 7.486000694693997e-01	 1.314250427434890e+00	-5.579862615412683e+00
1	 7.217504090930887e-01	 1.329184937093667e+00	-5.832004057324522e+00
1	 6.946830720015958e-01	 1.343529560335928e+00	-6.076738233951586e+00
1	 6.674169844810209e-01	 1.357280670622919e+00	-6.313729709148395e+00
1	 6.399710846590586e-01	 1.370435427452928e+00	-6.542668266071043e+00
1	 6.123642830626780e-01	 1.382991769622504e+00	-6.763269452973007e+00
1	 5.846154240430909e-01	 1.394948406207696e+00	-6.975274996406802e+00
1	 5.567432482139901e-01	 1.406304805358394e+00	-7.178453083049873e+00
1	 8.344948739059326e-01	 1.276418154614268e+00	-4.738157545528478e+00
1	 8.081955089684212e-01	 1.293230458692502e+00	-5.008746108013423e+00
1	 7.816198993262644e-01	 1.309463757797747e+00	-5.273199864846698e+00
1	 7.547868469020430e-01	 1.325112001211007e+00	-5.531118969607752e+00
1	 7.277152885058064e-01	 1.340169936569694e+00	-5.782126068200149e+00
1	 7.004242544133874e-01	 1.354633110417626e+00	-6.025867217241177e+00
1	 6.729328273264735e-01	 1.368497866244649e+00	-6.262012674207800e+00
1	 6.452601018862094e-01	 1.381761340073830e+00	-6.490257557532180e+00
1	 6.174251449049104e-01	 1.394421453666977e+00	-6.710322375892532e+00
1	 5.894469564722263e-01	 1.406476905431347e+00	-6.921953426972333e+00
1	 5.613444320829541e-01	 1.417927159121370e+00	-7.124923066952587e+00
1	 8.413349958237718e-01	 1.286880598500666e+00	-4.693700211414583e+00
1	 8.148200623205618e-01	 1.303830708350034e+00	-4.962827177935116e+00
1	 7.880266198119669e-01	 1.320197067284093e+00	-5.225940873140775e+00
1	 7.609736243346860e-01	 1.335973574987789e+00	-5.482647996230066e+00
1	 7.336801679185236e-01	 1.351154936046379e+00	-5.732577444913367e+00
1	 7.061654368251792e-01	 1.365736660499941e+00	-5.975381211858139e+00
1	 6.784486701719261e-01	 1.379715061866928e+00	-6.210735154688711e+00
1	 6.505491191133607e-01	 1.393087252695183e+00	-6.438339637830737e+00
1	 6.224860067471428e-01	 1.405851137711774e+00	-6.657920045525837e+00
1	 5.942784889013624e-01	 1.418005404655163e+00	-6.869227166352095e+00
1	 5.659456159519182e-01	 1.429549512884325e+00	-7.072037450559348e+00
1	 8.481751177416113e-01	 1.297343042387569e+00	-4.649337820157447e+00
1	 8.214446156727022e-01	 1.314430958008157e+00	-4.917060995876366e+00
1	 7.944333402976689e-01	 1.330930376771083e+00	-5.178891707642551e+00
1	 7.671604017673291e-01	 1.346835148765235e+00	-5.434443098366224e+00
1	 7.396450473312413e-01	 1.362139935523721e+00	-5.683350218935748e+00
1	 7.119066192369707e-01	 1.376840210582875e+00	-5.925270903012000e+00
1	 6.839645130173785e-01	 1.390932257489756e+00	-6.159886517153070e+00
1	 6.558381363405112e-01	 1.404413165316985e+00	-6.386902584655456e+00
1	 6.275468685893755e-01	 1.417280821756893e+00	-6.606049282516088e+00
1	 5.991100213304978e-01	 1.429533903879145e+00	-6.817081811912366e+00
1	 5.705467998208821e-01	 1.441171866647260e+00	-7.019780643553493e+00
1	 8.550152396594509e-01	 1.307805486274977e+00	-4.605068093129248e+00
1	 8.280691690248427e-01	 1.325031207666869e+00	-4.871443895885280e+00
1	 8.008400607833710e-01	 1.341663686258716e+00	-5.132047332523404e+00
1	 7.733471791999721e-01	 1.357696722543348e+00	-5.386497890203994e+00
1	 7.456099267439583e-01	 1.373124935001719e+00	-5.634436676731782e+00
1	 7.176478016487626e-01	 1.387943760666427e+00	-5.875527273985616e+00
1	 6.894803558628312e-01	 1.402149453113133e+00	-6.109456468432775e+00
1	 6.611271535676622e-01	 1.415739077939239e+00	-6.335934857208996e+00
1	 6.326077304316081e-01	 1.428710505802333e+00	-6.554697329245791e+00
1	 6.039415537596337e-01	 1.441062403103291e+00	-6.765503421903752e+00
1	 5.751479836898462e-01	 1.452794220410174e+00	-6.968137554508570e+00
1	 8.618553615772904e-01	 1.318267930162891e+00	-4.560888824039629e+00
1	 8.346937223769834e-01	 1.335631457326171e+00	-4.825972328389406e+00
1	 8.072467812690728e-01	 1.352396995746991e+00	-5.085402871822302e+00
1	 7.795339566326152e-01	 1.368558296322125e+00	-5.338806188655452e+00
1	 7.515748061566757e-01	 1.384109934480375e+00	-5.585829349640187e+00
1	 7.233889840605542e-01	 1.399047310750597e+00	-5.826141594306781e+00
1	 6.949961987082838e-01	 1.413366648737060e+00	-6.059435042127012e+00
1	 6.664161707948132e-01	 1.427064990561942e+00	-6.285425281068625e+00
1	 6.376685922738407e-01	 1.440140189848097e+00	-6.503851833101302e+00
1	 6.087730861887695e-01	 1.452590902327603e+00	-6.714478497172127e+00
1	 5.797491675588102e-01	 1.464416574173068e+00	-6.917093571090927e+00
1	 8.686954834951300e-01	 1.328730374051309e+00	-4.516797876087655e+00
1	 8.413182757291239e-01	 1.346231706986062e+00	-4.780642855613795e+00
1	 8.136535017547751e-01	 1.363130305235910e+00	-5.038953603151780e+00
1	 7.857207340652586e-01	 1.379419870101568e+00	-5.291362005375518e+00
1	 7.575396855693932e-01	 1.395094933959687e+00	-5.537521004233041e+00
1	 7.291301664723457e-01	 1.410150860835385e+00	-5.777105408478912e+00
1	 7.005120415537363e-01	 1.424583844361535e+00	-6.009812585737317e+00
1	 6.717051880219642e-01	 1.438390903185097e+00	-6.235363033761826e+00
1	 6.427294541160733e-01	 1.451569873894183e+00	-6.453500830527629e+00
1	 6.136046186179049e-01	 1.464119401552080e+00	-6.663993963733593e+00
1	 5.843503514277741e-01	 1.476038927935941e+00	-6.866634541197996e+00
1	 8.755356054129694e-01	 1.339192817940233e+00	-4.472793179247430e+00
1	 8.479428290812644e-01	 1.356831956646543e+00	-4.735452147214033e+00
1	 8.200602222404771e-01	 1.373863614725471e+00	-4.992694951698931e+00
1	 7.919075114979014e-01	 1.390281443881676e+00	-5.244159539154915e+00
1	 7.635045649821107e-01	 1.406079933439657e+00	-5.489504633127003e+00
1	 7.348713488841375e-01	 1.421254410920791e+00	-5.728410525239536e+00
1	 7.060278843991887e-01	 1.435801039986560e+00	-5.960579748405848e+00
1	 6.769942052491154e-01	 1.449716815808702e+00	-6.185737631018526e+00
1	 6.477903159583056e-01	 1.462999557940591e+00	-6.403632731830855e+00
1	 6.184361510470409e-01	 1.475647900776722e+00	-6.614037156166192e+00
1	 5.889515352967382e-01	 1.487661281698794e+00	-6.816746754980352e+00
1	 8.823757273308089e-01	 1.349655261829663e+00	-4.428872727679894e+00
1	 8.545673824334050e-01	 1.367432206307614e+00	-4.690396976112166e+00
1	 8.264669427261790e-01	 1.384596924215675e+00	-4.946622484505594e+00
1	 7.980942889305445e-01	 1.401143017662449e+00	-5.197193168666808e+00
1	 7.694694443948279e-01	 1.417064932920282e+00	-5.441773446222040e+00
1	 7.406125312959290e-01	 1.432357961006815e+00	-5.680049007318944e+00
1	 7.115437272446413e-01	 1.447018235612134e+00	-5.911727469223838e+00
1	 6.822832224762662e-01	 1.461042728432757e+00	-6.136538913662116e+00
1	 6.528511778005384e-01	 1.474429241987322e+00	-6.354236306687471e+00
1	 6.232676834761766e-01	 1.487176400001529e+00	-6.564595801774259e+00
1	 5.935527191657022e-01	 1.499283635461626e+00	-6.767416927700290e+00
1	 8.892158492486486e-01	 1.360117705719598e+00	-4.385034577264136e+00
1	 8.611919357855461e-01	 1.378032455969275e+00	-4.645474214524934e+00
1	 8.328736632118816e-01	 1.395330233706523e+00	-4.900731905012274e+00
1	 8.042810663631879e-01	 1.412004591443889e+00	-5.150457445548343e+00
1	 7.754343238075456e-01	 1.428049932401566e+00	-5.394320862344231e+00
1	 7.463537137077207e-01	 1.443461511093458e+00	-5.632013161671079e+00
1	 7.170595700900940e-01	 1.458235431238257e+00	-5.863246966079665e+00
1	 6.875722397034173e-01	 1.472368641057263e+00	-6.087757035106119e+00
1	 6.579120396427711e-01	 1.485858926034374e+00	-6.305300670322373e+00
1	 6.280992159053126e-01	 1.498704899226502e+00	-6.515658005483545e+00
1	 5.981539030346663e-01	 1.510905989224438e+00	-6.718632183381145e+00
1	 5.521420643450261e-01	 1.394682451595397e+00	-7.232643608845072e+00
1	 5.243963861554752e-01	 1.405349931578255e+00	-7.464786428381531e+00
1	 4.965651299484972e-01	 1.415423283584646e+00	-7.683507620251095e+00
1	 4.686663613186524e-01	 1.424904151779574e+00	-7.888609361045589e+00
1	 4.407179065634718e-01	 1.433794869157430e+00	-8.079933001190398e+00
1	 4.127373222644204e-01	 1.442098437276991e+00	-8.257358507227583e+00
1	 3.847418665163297e-01	 1.449818504550261e+00	-8.420803746506859e+00
1	 3.567484718715399e-01	 1.456959343223164e+00	-8.570223624488484e+00
1	 3.287737200529779e-01	 1.463525825188096e+00	-8.705609085515640e+00
1	 3.008338184785227e-01	 1.469523396769290e+00	-8.826985988435299e+00
1	 2.729445786273588e-01	 1.474958052621828e+00	-8.934413868839529e+00
1	 5.567432482139901e-01	 1.406304805358394e+00	-7.178453083049873e+00
1	 5.287663560399445e-01	 1.417061181008836e+00	-7.409827003153524e+00
1	 5.007031726982477e-01	 1.427218477616163e+00	-7.627838202964325e+00
1	 4.725719143300822e-01	 1.436778353046758e+00	-7.832288847167530e+00
1	 4.443905557854591e-01	 1.445743159736631e+00	-8.023020405019652e+00
1	 4.161767999506898e-01	 1.454115924257551e+00	-8.199913083839197e+00
1	 3.879480487380641e-01	 1.461900325424960e+00	-8.362885104352278e+00
1	 3.597213758045257e-01	 1.469100671086833e+00	-8.511891828194743e+00
1	 3.315135010540280e-01	 1.475721873734670e+00	-8.646924748522034e+00
1	 3.033407669662659e-01	 1.481769425078743e+00	-8.768010355201765e+00
1	 2.752191167827523e-01	 1.487249369729599e+00	-8.875208886451365e+00
1	 5.613444320829541e-01	 1.417927159121370e+00	-7.124923066952587e+00
1	 5.331363259244141e-01	 1.428772430439212e+00	-7.355544074503944e+00
1	 5.048412154479984e-01	 1.439013671647323e+00	-7.572861677584794e+00
1	 4.764774673415119e-01	 1.448652554313463e+00	-7.776677994626759e+00
1	 4.480632050074462e-01	 1.457691450315262e+00	-7.966834579182472e+00
1	 4.196162776369592e-01	 1.466133411237483e+00	-8.143211844743204e+00
1	 3.911542309597985e-01	 1.473982146299001e+00	-8.305728330856571e+00
1	 3.626942797375119e-01	 1.481241998949842e+00	-8.454339820939332e+00
1	 3.342532820550780e-01	 1.487917922280614e+00	-8.589038322833579e+00
1	 3.058477154540093e-01	 1.494015453387626e+00	-8.709850923673287e+00
1	 2.774936549381459e-01	 1.499540686836884e+00	-8.816838531016000e+00
1	 5.659456159519182e-01	 1.429549512884325e+00	-7.072037450559348e+00
1	 5.375062958088834e-01	 1.440483679869384e+00	-7.301921142515178e+00
1	 5.089792581977491e-01	 1.450808865678127e+00	-7.518561144308953e+00
1	 4.803830203529417e-01	 1.460526755579689e+00	-7.721759494609579e+00
1	 4.517358542294334e-01	 1.469639740893325e+00	-7.911357797572622e+00
1	 4.230557553232287e-01	 1.478150898216786e+00	-8.087236639102914e+00
1	 3.943604131815328e-01	 1.486063967172383e+00	-8.249314843857080e+00
1	 3.656671836704979e-01	 1.493383326812194e+00	-8.397548583477352e+00
1	 3.369930630561280e-01	 1.500113970825930e+00	-8.531930347198918e+00
1	 3.083546639417524e-01	 1.506261481695937e+00	-8.652487786491170e+00
1	 2.797681930935394e-01	 1.511832003943683e+00	-8.759282445778775e+00
1	 5.705467998208821e-01	 1.441171866647260e+00	-7.019780643553493e+00
1	 5.418762656933529e-01	 1.452194929299350e+00	-7.248942239525040e+00
1	 5.131173009474997e-01	 1.462604059708573e+00	-7.464920248488349e+00
1	 4.842885733643716e-01	 1.472400956845438e+00	-7.667516596650934e+00
1	 4.554085034514207e-01	 1.481588031470819e+00	-7.856572905893744e+00
1	 4.264952330094980e-01	 1.490168385195461e+00	-8.031969901592394e+00
1	 3.975665954032672e-01	 1.498145788045108e+00	-8.193626660615781e+00
1	 3.686400876034840e-01	 1.505524654673887e+00	-8.341499710087882e+00
1	 3.397328440571781e-01	 1.512310019370616e+00	-8.475581988149074e+00
1	 3.108616124294957e-01	 1.518507510003677e+00	-8.595901678469879e+00
1	 2.820427312489330e-01	 1.524123321049998e+00	-8.702520930654430e+00
1	 5.751479836898462e-01	 1.452794220410174e+00	-6.968137554508570e+00
1	 5.462462355778224e-01	 1.463906178729113e+00	-7.196591908836574e+00
1	 5.172553436972506e-01	 1.474399253738663e+00	-7.411923158823213e+00
1	 4.881941263758014e-01	 1.484275158110708e+00	-7.613933086300777e+00
1	 4.590811526734078e-01	 1.493536322047745e+00	-7.802463298786986e+00
1	 4.299347106957674e-01	 1.502185872173508e+00	-7.977394628976130e+00
1	 4.007727776250016e-01	 1.510227608917174e+00	-8.138646373842196e+00
1	 3.716129915364700e-01	 1.517665982534923e+00	-8.286175384033099e+00
1	 3.424726250582280e-01	 1.524506067914673e+00	-8.419975014885964e+00
1	 3.133685609172390e-01	 1.530753538310846e+00	-8.540073950909575e+00
1	 2.843172694043264e-01	 1.536414638155826e+00	-8.646534915960453e+00
1	 5.797491675588102e-01	 1.464416574173068e+00	-6.917093571090927e+00
1	 5.506162054622918e-01	 1.475617428158671e+00	-7.144855184441567e+00
1	 5.213933864470012e-01	 1.486194447768394e+00	-7.359554546594674e+00
1	 4.920996793872311e-01	 1.496149359375500e+00	-7.560993263853479e+00
1	 4.627538018953951e-01	 1.505484612624103e+00	-7.749012898047749e+00
1	 4.333741883820368e-01	 1.514203359150925e+00	-7.923494357803921e+00
1	 4.039789598467358e-01	 1.522309429788582e+00	-8.084357128858350e+00
1	 3.745858954694560e-01	 1.529807310395299e+00	-8.231558354185827e+00
1	 3.452124060592781e-01	 1.536702116458102e+00	-8.365091775367100e+00
1	 3.158755094049823e-01	 1.542999566617443e+00	-8.484986547132792e+00
1	 2.865918075597200e-01	 1.548705955261170e+00	-8.591305937401083e+00
1	 5.843503514277741e-01	 1.476038927935941e+00	-6.866634541197996e+00
1	 5.549861753467613e-01	 1.487328677588024e+00	-7.093717571702177e+00
1	 5.255314291967518e-01	 1.497989641797769e+00	-7.307799565878254e+00
1	 4.960052323986610e-01	 1.508023560639814e+00	-7.508681924082337e+00
1	 4.664264511173823e-01	 1.517432903199891e+00	-7.696206131871525e+00
1	 4.368136660683061e-01	 1.526220846127715e+00	-7.870253143159435e+00
1	 4.071851420684702e-01	 1.534391250659332e+00	-8.030742601842221e+00
1	 3.775587994024420e-01	 1.541948638255018e+00	-8.177631912761623e+00
1	 3.479521870603281e-01	 1.548898165000901e+00	-8.310915173519769e+00
1	 3.183824578927254e-01	 1.555245594923469e+00	-8.430621979176234e+00
1	 2.888663457151135e-01	 1.560997272366028e+00	-8.536816112233225e+00
1	 5.889515352967382e-01	 1.487661281698794e+00	-6.816746754980352e+00
1	 5.593561452312308e-01	 1.499039927017173e+00	-7.043165028937985e+00
1	 5.296694719465024e-01	 1.509784835826787e+00	-7.256643834684587e+00
1	 4.999107854100908e-01	 1.519897761903649e+00	-7.456984336923981e+00
1	 4.700991003393695e-01	 1.529381193775111e+00	-7.644027915072841e+00
1	 4.402531437545756e-01	 1.538238333103876e+00	-7.817655538404870e+00
1	 4.103913242902046e-01	 1.546473071529423e+00	-7.977786979091180e+00
1	 3.805317033354282e-01	 1.554089966114078e+00	-8.124379874094119e+00
1	 3.506919680613781e-01	 1.561094213543070e+00	-8.257428647523577e+00
1	 3.208894063804688e-01	 1.567491623228924e+00	-8.376963305575423e+00
1	 2.911408838705071e-01	 1.573288589470401e+00	-8.483048116549410e+00
1	 5.935527191657022e-01	 1.499283635461626e+00	-6.767416927700290e+00
1	 5.637261151157001e-01	 1.510751176446117e+00	-6.993183949869559e+00
1	 5.338075146962531e-01	 1.521580029855448e+00	-7.206073416977391e+00
1	 5.038163384215206e-01	 1.531771963167005e+00	-7.405886229061154e+00
1	 4.737717495613566e-01	 1.541329484349762e+00	-7.592463630223743e+00
1	 4.436926214408450e-01	 1.550255820079409e+00	-7.765686575868068e+00
1	 4.135975065119389e-01	 1.558554892398857e+00	-7.925474937250004e+00
1	 3.835046072684140e-01	 1.566231293972480e+00	-8.071786554398257e+00
1	 3.534317490624282e-01	 1.573290262084611e+00	-8.204616149102870e+00
1	 3.233963548682120e-01	 1.579737651533807e+00	-8.323994110182735e+00
1	 2.934154220259006e-01	 1.585579906574289e+00	-8.429985163617664e+00
1	 5.981539030346663e-01	 1.510905989224438e+00	-6.718632183381145e+00
1	 5.680960850001699e-01	 1.522462425874857e+00	-6.943761146872212e+00
1	 5.379455574460040e-01	 1.533375223883753e+00	-7.156074805521673e+00
1	 5.077218914329504e-01	 1.543646164429884e+00	-7.355373766355726e+00
1	 4.774443987833440e-01	 1.553277774923845e+00	-7.541499109663399e+00
1	 4.471320991271144e-01	 1.562273307054313e+00	-7.714331748420612e+00
1	 4.168036887336734e-01	 1.570636713267633e+00	-7.873791624451347e+00
1	 3.864775112014002e-01	 1.578372621830225e+00	-8.019836752466848e+00
1	 3.561715300634782e-01	 1.585486310625523e+00	-8.152462123775187e+00
1	 3.259033033559552e-01	 1.591983679838119e+00	-8.271698481962630e+00
1	 2.956899601812942e-01	 1.597871223677692e+00	-8.377610983220817e+00
1	 2.729445786273588e-01	 1.474958052621828e+00	-8.934413868839529e+00
1	 2.451213962665869e-01	 1.479836308883957e+00	-9.059632719259490e+00
1	 2.173792335500309e-01	 1.484165175720690e+00	-9.170146114072310e+00
1	 1.897326029848293e-01	 1.487952129393421e+00	-9.266061993406364e+00
1	 1.621955532518215e-01	 1.491205083986602e+00	-9.347518850373543e+00
1	 1.347816568620313e-01	 1.493932362918601e+00	-9.414684170357136e+00
1	 1.075039996182768e-01	 1.496142670358577e+00	-9.467752814897795e+00
1	 8.037517184413129e-02	 1.497845062665731e+00	-9.506945361842282e+00
1	 5.340726133517893e-02	 1.499048919961328e+00	-9.532506413059782e+00
1	 2.661184798093990e-02	 1.499763917937484e+00	-9.544702880598463e+00
1	 0.000000000000000e+00	 1.500000000000000e+00	-9.543822261658972e+00
1	 2.752191167827523e-01	 1.487249369729599e+00	-8.875208886451365e+00
1	 2.471640745687116e-01	 1.492168278126741e+00	-8.999889632353915e+00
1	 2.191907271626458e-01	 1.496533218853332e+00	-9.109901549721569e+00
1	 1.913137080092519e-01	 1.500351730472944e+00	-9.205353132869769e+00
1	 1.635471828617090e-01	 1.503631793020732e+00	-9.286383567898838e+00
1	 1.359048373352982e-01	 1.506381799276883e+00	-9.353161158320404e+00
1	 1.083998662811933e-01	 1.508610525945297e+00	-9.405881695216561e+00
1	 8.104496494232989e-02	 1.510327104854834e+00	-9.444766783694446e+00
1	 5.385232184592077e-02	 1.511540994294438e+00	-9.470062137033134e+00
1	 2.683361338056428e-02	 1.512261950586988e+00	-9.482035849481930e+00
1	 0.000000000000000e+00	 1.512500000000000e+00	-9.480976658163950e+00
1	 2.774936549381459e-01	 1.499540686836884e+00	-8.816838531016000e+00
1	 2.492067528708362e-01	 1.504500247369135e+00	-8.940994114252115e+00
1	 2.210022207752605e-01	 1.508901261985668e+00	-9.050518069254132e+00
1	 1.928948130336745e-01	 1.512751331552235e+00	-9.145519412264388e+00
1	 1.648988124715964e-01	 1.516058502054692e+00	-9.226137989809740e+00
1	 1.370280178085651e-01	 1.518831235635048e+00	-9.292542890779384e+00
1	 1.092957329441099e-01	 1.521078381531942e+00	-9.344930802965775e+00
1	 8.171475804052857e-02	 1.522809147043897e+00	-9.383524325928981e+00
1	 5.429738235666262e-02	 1.524033068627529e+00	-9.408570251674167e+00
1	 2.705537878018867e-02	 1.524759983236486e+00	-9.420337824185498e+00
1	 0.000000000000000e+00	 1.525000000000000e+00	-9.419116988349106e+00
1	 2.797681930935394e-01	 1.511832003943683e+00	-8.759282445778775e+00
1	 2.512494311729608e-01	 1.516832216611136e+00	-8.882925492544357e+00
1	 2.228137143878753e-01	 1.521269305117696e+00	-8.991974670624209e+00
1	 1.944759180580971e-01	 1.525150932631291e+00	-9.086539486714026e+00
1	 1.662504420814838e-01	 1.528485211088482e+00	-9.166760415999393e+00
1	 1.381511982818319e-01	 1.531280671993094e+00	-9.232807300795237e+00
1	 1.101915996070264e-01	 1.533546237118513e+00	-9.284877693573920e+00
1	 8.238455113872716e-02	 1.535291189232917e+00	-9.323195156341436e+00
1	 5.474244286740446e-02	 1.536525142960601e+00	-9.348007527942208e+00
1	 2.727714417981305e-02	 1.537258015885981e+00	-9.359585170420802e+00
1	 0.000000000000000e+00	 1.537500000000000e+00	-9.358219205051562e+00
1	 2.820427312489330e-01	 1.524123321049998e+00	-8.702520930654430e+00
1	 2.532921094750855e-01	 1.529164185852748e+00	-8.825663761672933e+00
1	 2.246252080004902e-01	 1.533637348249418e+00	-8.934251029271326e+00
1	 1.960570230825197e-01	 1.537550533710115e+00	-9.028392699886693e+00
1	 1.676020716913713e-01	 1.540911920122102e+00	-9.108229846364345e+00
1	 1.392743787550988e-01	 1.543730108351024e+00	-9.173933033265840e+00
1	 1.110874662699430e-01	 1.546014092705009e+00	-9.225700646488043e+00
1	 8.305434423692580e-02	 1.547773231421895e+00	-9.263757179250149e+00
1	 5.518750337814630e-02	 1.549017217293655e+00	-9.288351486120471e+00
1	 2.749890957943743e-02	 1.549756048535470e+00	-9.299755016296015e+00
1	 0.000000000000000e+00	 1.550000000000000e+00	-9.298260036823352e+00
1	 2.843172694043264e-01	 1.536414638155826e+00	-8.646534915960453e+00
1	 2.553347877772101e-01	 1.541496155093969e+00	-8.769189556257947e+00
1	 2.264367016131050e-01	 1.546005391380833e+00	-8.877327471021012e+00
1	 1.976381281069424e-01	 1.549950134788705e+00	-8.971059056453193e+00
1	 1.689537013012588e-01	 1.553338629155550e+00	-9.050525952804442e+00
1	 1.403975592283656e-01	 1.556179544708835e+00	-9.115899416452322e+00
1	 1.119833329328596e-01	 1.558481948291430e+00	-9.167378636212801e+00
1	 8.372413733512445e-02	 1.560255273610832e+00	-9.205189006035205e+00
1	 5.563256388888813e-02	 1.561509291626691e+00	-9.229580365843162e+00
1	 2.772067497906182e-02	 1.562254081184955e+00	-9.240825221819838e+00
1	 0.000000000000000e+00	 1.562500000000000e+00	-9.239216956902821e+00
1	 2.865918075597200e-01	 1.548705955261170e+00	-8.591305937401083e+00
1	 2.573774660793346e-01	 1.553828124334798e+00	-8.713484125693421e+00
1	 2.282481952257197e-01	 1.558373434511941e+00	-8.821184946275656e+00
1	 1.992192331313650e-01	 1.562349735867061e+00	-8.914519195856602e+00
1	 1.703053309111463e-01	 1.565765338188829e+00	-8.993629052556090e+00
1	 1.415207397016324e-01	 1.568628981066530e+00	-9.058686434861485e+00
1	 1.128791995957761e-01	 1.570949803877776e+00	-9.109891304728977e+00
1	 8.439393043332308e-02	 1.572737315799727e+00	-9.147469927080524e+00
1	 5.607762439962997e-02	 1.574001365959708e+00	-9.171673097549686e+00
1	 2.794244037868620e-02	 1.574752113834436e+00	-9.182774349857754e+00
1	 0.000000000000000e+00	 1.575000000000000e+00	-9.181068153663620e+00
1	 2.888663457151135e-01	 1.560997272366028e+00	-8.536816112233225e+00
1	 2.594201443814593e-01	 1.566160093575237e+00	-8.658529309943685e+00
1	 2.300596888383345e-01	 1.570741477642742e+00	-8.765805005425113e+00
1	 2.008003381557876e-01	 1.574749336945183e+00	-8.858754367321408e+00
1	 1.716569605210337e-01	 1.578192047221936e+00	-8.937520082785284e+00
1	 1.426439201748993e-01	 1.581078417424107e+00	-9.002274703409384e+00
1	 1.137750662586927e-01	 1.583417659464048e+00	-9.053218935214744e+00
1	 8.506372353152170e-02	 1.585219357988580e+00	-9.090579885041448e+00
1	 5.652268491037181e-02	 1.586493440292707e+00	-9.114609275287712e+00
1	 2.816420577831059e-02	 1.587250146483912e+00	-9.125581638460613e+00
1	 0.000000000000000e+00	 1.587500000000000e+00	-9.123792502459750e+00
1	 2.911408838705071e-01	 1.573288589470401e+00	-8.483048116549410e+00
1	 2.614628226835839e-01	 1.578492062815286e+00	-8.604307516474188e+00
1	 2.318711824509493e-01	 1.583109520773236e+00	-8.711169775409388e+00
1	 2.023814431802102e-01	 1.587148938023073e+00	-8.803746406033731e+00
1	 1.730085901309212e-01	 1.590618756254874e+00	-8.882180576371409e+00
1	 1.437671006481662e-01	 1.593527853781566e+00	-8.946645442796065e+00
1	 1.146709329216093e-01	 1.595885515050245e+00	-8.997342426998955e+00
1	 8.573351662972034e-02	 1.597701400177391e+00	-9.034499449365269e+00
1	 5.696774542111365e-02	 1.598985514625687e+00	-9.058369130790910e+00
1	 2.838597117793497e-02	 1.599748179133383e+00	-9.069226974490281e+00
1	 0.000000000000000e+00	 1.600000000000000e+00	-9.067369538790413e+00
1	 2.934154220259006e-01	 1.585579906574289e+00	-8.429985163617664e+00
1	 2.635055009857086e-01	 1.590824032054943e+00	-8.550801698255293e+00
1	 2.336826760635642e-01	 1.595477563903424e+00	-8.657261937372065e+00
1	 2.039625482046329e-01	 1.599548539100729e+00	-8.749477710429760e+00
1	 1.743602197408086e-01	 1.603045465287642e+00	-8.827592638817951e+00
1	 1.448902811214330e-01	 1.605977290138907e+00	-8.891780456025135e+00
1	 1.155667995845258e-01	 1.608353370636367e+00	-8.942243271679375e+00
1	 8.640330972791899e-02	 1.610183442366161e+00	-8.979209791997029e+00
1	 5.741280593185549e-02	 1.611477588958649e+00	-9.002933508762457e+00
1	 2.860773657755936e-02	 1.612246211782850e+00	-9.013690868471643e+00
1	 0.000000000000000e+00	 1.612500000000000e+00	-9.011779432712961e+00
1	 2.956899601812942e-01	 1.597871223677692e+00	-8.377610983220817e+00
1	 2.655481792878332e-01	 1.603156001294210e+00	-8.497995332781418e+00
1	 2.354941696761790e-01	 1.607845607033304e+00	-8.604064705344426e+00
1	 2.055436532290555e-01	 1.611948140178152e+00	-8.695931220532275e+00
1	 1.757118493506961e-01	 1.615472174320239e+00	-8.773738926228230e+00
1	 1.460134615946999e-01	 1.618426726496131e+00	-8.837662106008093e+00
1	 1.164626662474424e-01	 1.620821226222415e+00	-8.887903530343074e+00
1	 8.707310282611763e-02	 1.622665484554889e+00	-8.924692664206612e+00
1	 5.785786644259734e-02	 1.623969663291593e+00	-8.948283843299194e+00
1	 2.882950197718375e-02	 1.624744244432313e+00	-8.958954430605852e+00
1	 0.000000000000000e+00	 1.625000000000000e+00	-8.957002964436832e+00
1	 1.625000000000000e+00	 0.000000000000000e+00	 6.940021408742174e-01
1	 1.624744244432312e+00	 2.882950197718282e-02	 7.143133113905389e-01
1	 1.623969663291593e+00	 5.785786644259652e-02	 7.294009800279344e-01
1	 1.622665484554890e+00	 8.707310282611692e-02	 7.390465827943747e-01
1	 1.620821226222414e+00	 1.164626662474418e-01	 7.430370270068805e-01
1	 1.618426726496131e+00	 1.460134615946994e-01	 7.411656655868566e-01
1	 1.615472174320238e+00	 1.757118493506957e-01	 7.332332929426568e-01
1	 1.611948140178151e+00	 2.055436532290552e-01	 7.190491578906839e-01
1	 1.607845607033305e+00	 2.354941696761788e-01	 6.984319886472277e-01
1	 1.603156001294210e+00	 2.655481792878331e-01	 6.712110245202512e-01
1	 1.597871223677692e+00	 2.956899601812942e-01	 6.372270485487002e-01
1	 1.637500000000000e+00	 0.000000000000000e+00	 6.718866256449612e-01
1	 1.637242277081775e+00	 2.905126737680721e-02	 6.917099468613823e-01
1	 1.636461737624536e+00	 5.830292695333835e-02	 7.064865847323913e-01
1	 1.635147526743617e+00	 8.774289592431556e-02	 7.159985270872380e-01
1	 1.633289081808462e+00	 1.173585329103583e-01	 7.200329132495069e-01
1	 1.630876162853355e+00	 1.471366420679662e-01	 7.183829985587062e-01
1	 1.627898883352835e+00	 1.770634789605832e-01	 7.108491414814704e-01
1	 1.624347741255574e+00	 2.071247582534779e-01	 6.972398088613113e-01
1	 1.620213650163185e+00	 2.373056632887935e-01	 6.773725944344281e-01
1	 1.615487970533477e+00	 2.675908575899578e-01	 6.510752453325033e-01
1	 1.610162540781094e+00	 2.979644983366877e-01	 6.181866909073933e-01
1	 1.650000000000000e+00	 0.000000000000000e+00	 6.526013402824763e-01
1	 1.649740309731242e+00	 2.927303277643158e-02	 6.719170446211611e-01
1	 1.648953811957498e+00	 5.874798746408018e-02	 6.863616565854385e-01
1	 1.647629568932387e+00	 8.841268902251417e-02	 6.957177214182453e-01
1	 1.645756937394584e+00	 1.182543995732749e-01	 6.997726189270530e-01
1	 1.643325599210696e+00	 1.482598225412330e-01	 6.983195183246764e-01
1	 1.640325592385603e+00	 1.784151085704706e-01	 6.911583566538075e-01
1	 1.636747342333229e+00	 2.087058632779004e-01	 6.780968364409854e-01
1	 1.632581693293372e+00	 2.391171569014083e-01	 6.589514378018291e-01
1	 1.627819939773135e+00	 2.696335358920823e-01	 6.335484398093107e-01
1	 1.622453857884982e+00	 3.002390364920812e-01	 6.017249455463543e-01
1	 1.662500000000000e+00	 0.000000000000000e+00	 6.360824450153930e-01
1	 1.662238342380713e+00	 2.949479817605596e-02	 6.548712107837088e-01
1	 1.661445886290478e+00	 5.919304797482201e-02	 6.689632752754655e-01
1	 1.660111611121198e+00	 8.908248212071281e-02	 6.781417466135696e-01
1	 1.658224792980781e+00	 1.191502662361914e-01	 6.821942533754836e-01
1	 1.655775035568156e+00	 1.493830030144999e-01	 6.809138898441416e-01
1	 1.652752301418540e+00	 1.797667381803581e-01	 6.741001858286019e-01
1	 1.649146943411119e+00	 2.102869683023231e-01	 6.615600967960977e-01
1	 1.644949736423866e+00	 2.409286505140231e-01	 6.431090096306634e-01
1	 1.640151909013183e+00	 2.716762141942070e-01	 6.185717589201052e-01
1	 1.634745174989355e+00	 3.025135746474747e-01	 5.877836482781496e-01
1	 1.675000000000000e+00	 0.000000000000000e+00	 6.222680057371561e-01
1	 1.674736375030189e+00	 2.971656357568033e-02	 6.405109438176561e-01
1	 1.673937960623477e+00	 5.963810848556386e-02	 6.542303987091235e-01
1	 1.672593653310052e+00	 8.975227521891144e-02	 6.632100467583044e-01
1	 1.670692648567052e+00	 1.200461328991080e-01	 6.672377734132773e-01
1	 1.668224471925732e+00	 1.505061834877667e-01	 6.661066089732146e-01
1	 1.665179010451648e+00	 1.811183677902456e-01	 6.596156898861694e-01
1	 1.661546544489242e+00	 2.118680733267457e-01	 6.475712414313588e-01
1	 1.657317779554668e+00	 2.427401441266379e-01	 6.297875771937609e-01
1	 1.652483878253622e+00	 2.737188924963316e-01	 6.060881103218138e-01
1	 1.647036492094213e+00	 3.047881128028683e-01	 5.763063711597523e-01
1	 1.687500000000000e+00	 0.000000000000000e+00	 6.110979234258531e-01
1	 1.687234407679670e+00	 2.993832897530471e-02	 6.287765644592320e-01
1	 1.686430034956494e+00	 6.008316899630568e-02	 6.421037934476741e-01
1	 1.685075695498947e+00	 9.042206831711005e-02	 6.508638601868864e-01
1	 1.683160504153399e+00	 1.209419995620246e-01	 6.548449149161450e-01
1	 1.680673908283426e+00	 1.516293639610336e-01	 6.538399346537624e-01
1	 1.677605719484926e+00	 1.824699974001330e-01	 6.476476760511153e-01
1	 1.673946145567598e+00	 2.134491783511683e-01	 6.360736506957924e-01
1	 1.669685822685775e+00	 2.445516377392527e-01	 6.189311183632923e-01
1	 1.664815847494452e+00	 2.757615707984562e-01	 5.960420932963426e-01
1	 1.659327809199556e+00	 3.070626509582619e-01	 5.672383581872034e-01
1	 1.700000000000000e+00	 0.000000000000000e+00	 6.025138666778552e-01
1	 1.699732440329154e+00	 3.016009437492909e-02	 6.196101487171392e-01
1	 1.698922109289530e+00	 6.052822950704752e-02	 6.325259682123400e-01
1	 1.697557737687883e+00	 9.109186141530867e-02	 6.410461535180144e-01
1	 1.695628359739820e+00	 1.218378662249411e-01	 6.449591274105091e-01
1	 1.693123344641237e+00	 1.527525444343004e-01	 6.440578240940673e-01
1	 1.690032428518375e+00	 1.838216270100204e-01	 6.381406336885065e-01
1	 1.686345746646188e+00	 2.150302833755909e-01	 6.270123702222765e-01
1	 1.682053865817190e+00	 2.463631313518675e-01	 6.104852587210670e-01
1	 1.677147816735672e+00	 2.778042491005809e-01	 5.883799365584998e-01
1	 1.671619126305386e+00	 3.093371891136554e-01	 5.605264638272572e-01
1	 1.712500000000000e+00	 0.000000000000000e+00	 5.964592071962109e-01
1	 1.712230472978644e+00	 3.038185977455347e-02	 6.129554638114866e-01
1	 1.711414183622584e+00	 6.097329001778935e-02	 6.254411103018286e-01
1	 1.710039779876862e+00	 9.176165451350732e-02	 6.337015585786187e-01
1	 1.708096215326316e+00	 1.227337328878577e-01	 6.375255115315178e-01
1	 1.705572780999167e+00	 1.538757249075673e-01	 6.367058707882947e-01
1	 1.702459137551995e+00	 1.851732566199080e-01	 6.310406729118682e-01
1	 1.698745347725011e+00	 2.166113884000136e-01	 6.203340501507708e-01
1	 1.694421908948913e+00	 2.481746249644823e-01	 6.043972114231705e-01
1	 1.689479785977284e+00	 2.798469274027054e-01	 5.830494387876226e-01
1	 1.683910443411700e+00	 3.116117272690490e-01	 5.561190942410745e-01
1	 1.725000000000000e+00	 0.000000000000000e+00	 5.928789580838778e-01
1	 1.724728505628139e+00	 3.060362517417785e-02	 6.087579068980440e-01
1	 1.723906257955657e+00	 6.141835052853120e-02	 6.207950247743077e-01
1	 1.722521822065882e+00	 9.243144761170595e-02	 6.287763120701986e-01
1	 1.720564070912886e+00	 1.236295995507742e-01	 6.324907592002507e-01
1	 1.718022217357214e+00	 1.549989053808341e-01	 6.317312452307924e-01
1	 1.714885846585785e+00	 1.865248862297954e-01	 6.262954658604332e-01
1	 1.711144948804068e+00	 2.181924934244362e-01	 6.159868869939784e-01
1	 1.706789952080941e+00	 2.499861185770972e-01	 6.006157196791250e-01
1	 1.701811755219286e+00	 2.818896057048301e-01	 5.799999117448302e-01
1	 1.696201760518499e+00	 3.138862654244425e-01	 5.539661510634254e-01
1	 1.737499999999999e+00	 0.000000000000000e+00	 5.917197148005608e-01
1	 1.737226538277637e+00	 3.082539057380222e-02	 6.069644464374475e-01
1	 1.736398332288748e+00	 6.186341103927302e-02	 6.185350762546133e-01
1	 1.735003864254944e+00	 9.310124070990457e-02	 6.262181978395368e-01
1	 1.733031926499532e+00	 1.245254662136908e-01	 6.298030963832267e-01
1	 1.730471653715378e+00	 1.561220858541010e-01	 6.290826381894492e-01
1	 1.727312555619745e+00	 1.878765158396829e-01	 6.238541905111523e-01
1	 1.723544549883358e+00	 2.197735984488587e-01	 6.139205680124595e-01
1	 1.719157995213276e+00	 2.517976121897119e-01	 5.990910017140214e-01
1	 1.714143724461679e+00	 2.839322840069546e-01	 5.791821258455865e-01
1	 1.708493077625785e+00	 3.161608035798360e-01	 5.540189776086475e-01
1	 1.750000000000000e+00	 0.000000000000000e+00	 5.929295986499727e-01
1	 1.749724570927141e+00	 3.104715597342660e-02	 6.075235660771668e-01
1	 1.748890406621857e+00	 6.230847155001488e-02	 6.186101332354437e-01
1	 1.747485906444049e+00	 9.377103380810323e-02	 6.259764916235192e-01
1	 1.745499782086252e+00	 1.254213328766073e-01	 6.294122283050670e-01
1	 1.742921090073661e+00	 1.572452663273678e-01	 6.287102064102164e-01
1	 1.739739264653876e+00	 1.892281454495704e-01	 6.236674768987798e-01
1	 1.735944150962882e+00	 2.213547034732815e-01	 6.140862179736128e-01
1	 1.731526038345919e+00	 2.536091058023268e-01	 5.997746980893706e-01
1	 1.726475693704463e+00	 2.859749623090794e-01	 5.805482580649304e-01
1	 1.720784394733555e+00	 3.184353417352296e-01	 5.562303073821229e-01
1	 1.597871223677692e+00	 2.956899601812942e-01	 6.372270485487002e-01
1	 1.591983679838119e+00	 3.259033033559543e-01	 6.411919722570548e-01
1	 1.585486310625523e+00	 3.561715300634776e-01	 6.382864718432592e-01
1	 1.578372621830225e+00	 3.864775112013996e-01	 6.282088577722933e-01
1	 1.570636713267633e+00	 4.168036887336729e-01	 6.106677294673762e-01
1	 1.562273307054313e+00	 4.471320991271141e-01	 5.853834417071347e-01
1	 1.553277774923845e+00	 4.774443987833438e-01	 5.520895753524749e-01
1	 1.543646164429884e+00	 5.077218914329503e-01	 5.105344034618622e-01
1	 1.533375223883753e+00	 5.379455574460040e-01	 4.604823434427181e-01
1	 1.522462425874856e+00	 5.680960850001699e-01	 4.017153855438421e-01
1	 1.510905989224438e+00	 5.981539030346663e-01	 3.340344877275968e-01
1	 1.610162540781094e+00	 2.979644983366877e-01	 6.181866909073933e-01
1	 1.604229708142434e+00	 3.284102518436999e-01	 6.223183489747282e-01
1	 1.597682359166444e+00	 3.589113110645371e-01	 6.197687084895855e-01
1	 1.590513949687990e+00	 3.894504151344069e-01	 6.102329495056493e-01
1	 1.582718534136446e+00	 4.200098709554452e-01	 5.934160745004337e-01
1	 1.574290794029277e+00	 4.505715768134433e-01	 5.690343771047316e-01
1	 1.565226065498014e+00	 4.811170480054174e-01	 5.368169174134212e-01
1	 1.555520365692882e+00	 5.116274444444987e-01	 4.965069949929482e-01
1	 1.545170417912212e+00	 5.420836001959101e-01	 4.478636102742473e-01
1	 1.534173675303793e+00	 5.724660548848370e-01	 3.906629046604474e-01
1	 1.522528342987494e+00	 6.027550869038752e-01	 3.246995693947790e-01
1	 1.622453857884982e+00	 3.002390364920812e-01	 6.017249455463543e-01
1	 1.616475736447324e+00	 3.309172003314502e-01	 6.059925051353335e-01
1	 1.609878407708013e+00	 3.616510920656152e-01	 6.037664202883247e-01
1	 1.602655277546456e+00	 3.924233190674569e-01	 5.947387703647296e-01
1	 1.594800355005993e+00	 4.232160531772940e-01	 5.786109948062956e-01
1	 1.586308281004989e+00	 4.540110544998922e-01	 5.550953642208782e-01
1	 1.577174356072925e+00	 4.847896972276646e-01	 5.239164602808490e-01
1	 1.567394566956594e+00	 5.155329974562836e-01	 4.848126556073096e-01
1	 1.556965611941338e+00	 5.462216429461266e-01	 4.375375843692935e-01
1	 1.545884924733330e+00	 5.768360247698988e-01	 3.818615939510673e-01
1	 1.534150696751060e+00	 6.073562707735738e-01	 3.175731677392647e-01
1	 1.634745174989355e+00	 3.025135746474747e-01	 5.877836482781496e-01
1	 1.628721764752790e+00	 3.334241488192052e-01	 5.921569720290494e-01
1	 1.622074456250230e+00	 3.643908730667124e-01	 5.902228671979793e-01
1	 1.614796605405623e+00	 3.953962230005494e-01	 5.816703414967255e-01
1	 1.606882175876277e+00	 4.264222353992188e-01	 5.661973044763490e-01
1	 1.598325767981450e+00	 4.574505321864608e-01	 5.435120409866960e-01
1	 1.589122646648578e+00	 4.884623464500846e-01	 5.133346956660194e-01
1	 1.579268768221021e+00	 5.194385504683054e-01	 4.753987596868430e-01
1	 1.568760805971133e+00	 5.503596856966543e-01	 4.294525505269359e-01
1	 1.557596174163466e+00	 5.812059946553559e-01	 3.752606751418274e-01
1	 1.545773050515137e+00	 6.119574546437619e-01	 3.126054665963381e-01
1	 1.647036492094213e+00	 3.047881128028683e-01	 5.763063711597523e-01
1	 1.640967793058833e+00	 3.359310973069648e-01	 5.807559964299480e-01
1	 1.634270504793095e+00	 3.671306540678284e-01	 5.790830029096213e-01
1	 1.626937933265491e+00	 3.983691269336848e-01	 5.709733550593569e-01
1	 1.618963996747293e+00	 4.296284176212197e-01	 5.561214649425243e-01
1	 1.610343254958658e+00	 4.608900098731490e-01	 5.342316680816043e-01
1	 1.601070937224973e+00	 4.921349956726779e-01	 5.050197125425178e-01
1	 1.591142969486164e+00	 5.233441034805641e-01	 4.682142525273830e-01
1	 1.580556000001596e+00	 5.544977284474926e-01	 4.235583372835580e-01
1	 1.569307423594202e+00	 5.855759645412079e-01	 3.708108857281645e-01
1	 1.557395404279724e+00	 6.165586385144400e-01	 3.097481368509235e-01
1	 1.659327809199556e+00	 3.070626509582619e-01	 5.672383581872034e-01
1	 1.653213821365451e+00	 3.384380457947292e-01	 5.717354770595318e-01
1	 1.646466553336608e+00	 3.698704350689632e-01	 5.702934121160826e-01
1	 1.639079261126060e+00	 4.013420308668626e-01	 5.625951123315933e-01
1	 1.631045817619043e+00	 4.328345998432970e-01	 5.483315239646837e-01
1	 1.622360741936615e+00	 4.643294875599568e-01	 5.272030688315403e-01
1	 1.613019227802109e+00	 4.958076448954443e-01	 4.989211379883894e-01
1	 1.603017170752021e+00	 5.272496564930599e-01	 4.632095921567094e-01
1	 1.592351194032726e+00	 5.586357711986414e-01	 4.198062597373881e-01
1	 1.581018673025537e+00	 5.899459344274548e-01	 3.684644228352450e-01
1	 1.569017758044822e+00	 6.211598223856076e-01	 3.089542813616748e-01
1	 1.671619126305386e+00	 3.093371891136554e-01	 5.605264638272572e-01
1	 1.665459849672645e+00	 3.409449942824981e-01	 5.650429038533824e-01
1	 1.658662601880769e+00	 3.726102160701169e-01	 5.638022505486258e-01
1	 1.651220588987329e+00	 4.043149348000832e-01	 5.564844645547709e-01
1	 1.643127638491529e+00	 4.360407820654503e-01	 5.427770573097371e-01
1	 1.634378228915319e+00	 4.677689652468843e-01	 5.223765717587187e-01
1	 1.624967518379987e+00	 4.994802941183839e-01	 4.949900806381876e-01
1	 1.614891372018594e+00	 5.311552095057921e-01	 4.603366937194012e-01
1	 1.604146388064525e+00	 5.627738139501012e-01	 4.181490648954948e-01
1	 1.592729922457472e+00	 5.943159043140966e-01	 3.681748895550985e-01
1	 1.580640111810430e+00	 6.257610062572652e-01	 3.101783823148841e-01
1	 1.683910443411700e+00	 3.116117272690490e-01	 5.561190942410745e-01
1	 1.677705877980416e+00	 3.434519427702719e-01	 5.606272998876529e-01
1	 1.670858650425578e+00	 3.753499970712894e-01	 5.595591876397972e-01
1	 1.663361916849300e+00	 4.072878387333462e-01	 5.525917563646430e-01
1	 1.655209459364748e+00	 4.392469642876800e-01	 5.394091129849634e-01
1	 1.646395715894772e+00	 4.712084429339317e-01	 5.197039556474687e-01
1	 1.636915808958608e+00	 5.031529433414967e-01	 4.931790766115586e-01
1	 1.626765573285881e+00	 5.350607625187611e-01	 4.595488762973945e-01
1	 1.615941582096990e+00	 5.669118567018717e-01	 4.185408794143407e-01
1	 1.604441171890006e+00	 5.986858742011337e-01	 3.698972436339555e-01
1	 1.592262465576548e+00	 6.303621901294124e-01	 3.133762508840606e-01
1	 1.696201760518499e+00	 3.138862654244425e-01	 5.539661510634254e-01
1	 1.689951906288762e+00	 3.459588912580502e-01	 5.584391658304959e-01
1	 1.683054698971034e+00	 3.780897780724807e-01	 5.575153516791757e-01
1	 1.675503244711972e+00	 4.102607426666521e-01	 5.508687716828711e-01
1	 1.667291280238703e+00	 4.424531465099858e-01	 5.381801578959771e-01
1	 1.658413202874972e+00	 4.746479206210985e-01	 5.191383969984895e-01
1	 1.648864099537969e+00	 5.068255925647827e-01	 4.934420377927820e-01
1	 1.638639774553884e+00	 5.389663155319671e-01	 4.608008120426855e-01
1	 1.627736776130124e+00	 5.710498994539528e-01	 4.209371596124868e-01
1	 1.616152421323140e+00	 6.030558440885657e-01	 3.735877483905906e-01
1	 1.603884819343176e+00	 6.349633740020493e-01	 3.185049790782165e-01
1	 1.708493077625785e+00	 3.161608035798360e-01	 5.540189776086475e-01
1	 1.702197934597685e+00	 3.484658397458333e-01	 5.584304267912775e-01
1	 1.695250747517139e+00	 3.808295590736910e-01	 5.576232773364840e-01
1	 1.687644572575343e+00	 4.132336466000003e-01	 5.512686819441592e-01
1	 1.679373101113391e+00	 4.456593287323678e-01	 5.390440268072063e-01
1	 1.670430689855921e+00	 4.780873983083849e-01	 5.206344197512948e-01
1	 1.660812390118072e+00	 5.104982417882418e-01	 4.957342023428183e-01
1	 1.650513975822603e+00	 5.428718685454100e-01	 4.640484775057507e-01
1	 1.639531970163926e+00	 5.751879422063448e-01	 4.252946436410189e-01
1	 1.627863670756874e+00	 6.074258139763927e-01	 3.792039257532621e-01
1	 1.615507173110314e+00	 6.395645578751757e-01	 3.255228936686554e-01
1	 1.720784394733555e+00	 3.184353417352296e-01	 5.562303073821229e-01
1	 1.714443962907183e+00	 3.509727882336210e-01	 5.605543814476658e-01
1	 1.707446796063893e+00	 3.835693400749201e-01	 5.598368554337410e-01
1	 1.699785900439417e+00	 4.162065505333916e-01	 5.537459965422168e-01
1	 1.691454921988814e+00	 4.488655109548259e-01	 5.419558734898015e-01
1	 1.682448176837619e+00	 4.815268759957912e-01	 5.241478471614052e-01
1	 1.672760680698918e+00	 5.141708910118742e-01	 5.000120873323038e-01
1	 1.662388177092036e+00	 5.467774215590895e-01	 4.692491070498767e-01
1	 1.651327164198396e+00	 5.793259849590476e-01	 4.315713057038258e-01
1	 1.639574920191208e+00	 6.117957838646149e-01	 3.867045113093933e-01
1	 1.627129526877964e+00	 6.441657417487923e-01	 3.343895120903153e-01
1	 1.510905989224438e+00	 5.981539030346663e-01	 3.340344877275968e-01
1	 1.498704899226502e+00	 6.280992159053116e-01	 2.896568162269453e-01
1	 1.485858926034374e+00	 6.579120396427700e-01	 2.372525004013805e-01
1	 1.472368641057263e+00	 6.875722397034166e-01	 1.765373896407585e-01
1	 1.458235431238258e+00	 7.170595700900936e-01	 1.072446807358114e-01
1	 1.443461511093458e+00	 7.463537137077204e-01	 2.912644960224704e-02
1	 1.428049932401566e+00	 7.754343238075454e-01	-5.804486719328049e-02
1	 1.412004591443889e+00	 8.042810663631879e-01	-1.544750522652049e-01
1	 1.395330233706523e+00	 8.328736632118814e-01	-2.603467596297034e-01
1	 1.378032455969274e+00	 8.611919357855460e-01	-3.758182500997677e-01
1	 1.360117705719598e+00	 8.892158492486488e-01	-5.010222202791761e-01
1	 1.522528342987494e+00	 6.027550869038752e-01	 3.246995693947790e-01
1	 1.510233398451768e+00	 6.329307483347351e-01	 2.812848276620468e-01
1	 1.497288610081763e+00	 6.629729014853188e-01	 2.299808444727658e-01
1	 1.483694553682143e+00	 6.928612569308974e-01	 1.704912353281053e-01
1	 1.469452626864788e+00	 7.225754129358748e-01	 1.025364961063305e-01
1	 1.454565061180536e+00	 7.520948961198251e-01	 2.585557845638081e-02
1	 1.439034931883308e+00	 7.813992032205446e-01	-5.979258186654200e-02
1	 1.422866165225804e+00	 8.104678437960667e-01	-1.546275951107176e-01
1	 1.406063543197860e+00	 8.392803836977581e-01	-2.588462173714371e-01
1	 1.388632705631432e+00	 8.678164891377840e-01	-3.726210312410087e-01
1	 1.370580149610033e+00	 8.960559711664935e-01	-4.960992180035568e-01
1	 1.534150696751060e+00	 6.073562707735738e-01	 3.175731677392647e-01
1	 1.521761897677453e+00	 6.377622807647338e-01	 2.750510037931155e-01
1	 1.508718294129500e+00	 6.680337633284998e-01	 2.247758264962979e-01
1	 1.495020466307320e+00	 6.981502741590380e-01	 1.664391346363349e-01
1	 1.480669822491582e+00	 7.280912557823142e-01	 9.974884504422496e-02
1	 1.465668611267865e+00	 7.578360785325557e-01	 2.443091133288555e-02
1	 1.450019931365309e+00	 7.873640826341082e-01	-5.976910131098388e-02
1	 1.433727739008006e+00	 8.166546212294172e-01	-1.530844968948726e-01
1	 1.416796852689532e+00	 8.456871041839829e-01	-2.557259964929989e-01
1	 1.399232955293995e+00	 8.744410424902175e-01	-3.678803645810880e-01
1	 1.381042593500962e+00	 9.028960930843489e-01	-4.897091248833091e-01
1	 1.545773050515137e+00	 6.119574546437619e-01	 3.126054665963381e-01
1	 1.533290396903557e+00	 6.425938131953080e-01	 2.709071153420609e-01
1	 1.520147978177585e+00	 6.730946251723129e-01	 2.215908305789020e-01
1	 1.506346378932792e+00	 7.034392913878383e-01	 1.643361089127416e-01
1	 1.491887018118640e+00	 7.336070986294112e-01	 9.883840724368639e-02
1	 1.476772161355447e+00	 7.635772609459125e-01	 2.481080453205816e-02
1	 1.461004930847569e+00	 7.933289620482357e-01	-5.801437729880667e-02
1	 1.444589312790497e+00	 8.228413986632396e-01	-1.498840051606947e-01
1	 1.427530162181541e+00	 8.520938246705574e-01	-2.510226310990457e-01
1	 1.409833204956963e+00	 8.810655958428456e-01	-3.616310647326342e-01
1	 1.391505037392386e+00	 9.097362150022149e-01	-4.818850331938311e-01
1	 1.557395404279724e+00	 6.165586385144400e-01	 3.097481368509235e-01
1	 1.544818896130082e+00	 6.474253456264577e-01	 2.688063727106926e-01
1	 1.531577662226018e+00	 6.781554870167580e-01	 2.203806323466744e-01
1	 1.517672291558561e+00	 7.087283086172986e-01	 1.641385221509612e-01
1	 1.503104213745963e+00	 7.391229414771657e-01	 9.976315554236406e-02
1	 1.487875711443280e+00	 7.693184433598950e-01	 2.695485744971076e-02
1	 1.471989930330090e+00	 7.992938414629270e-01	-5.456716901197678e-02
1	 1.455450886573275e+00	 8.290281760975334e-01	-1.450632257334688e-01
1	 1.438263471673887e+00	 8.585005451574800e-01	-2.447715647238927e-01
1	 1.420433454620336e+00	 8.876901491956692e-01	-3.539069070660588e-01
1	 1.401967481284305e+00	 9.165763369200914e-01	-4.726590473813491e-01
1	 1.569017758044822e+00	 6.211598223856076e-01	 3.089542813616748e-01
1	 1.556347395357026e+00	 6.522568780581823e-01	 2.687033726592468e-01
1	 1.543007346274800e+00	 6.832163488618352e-01	 2.211013474071371e-01
1	 1.528998204184627e+00	 7.140173258474188e-01	 1.658040312633254e-01
1	 1.514321409373551e+00	 7.446387843255788e-01	 1.024823080271595e-01
1	 1.498979261531365e+00	 7.750596257745035e-01	 3.082386653662085e-02
1	 1.482974929812870e+00	 8.052587208781824e-01	-4.946508721222900e-02
1	 1.466312460356341e+00	 8.352149535322990e-01	-1.386581650065845e-01
1	 1.448996781166568e+00	 8.649072656447517e-01	-2.370071907230305e-01
1	 1.431033704284114e+00	 8.943147025486877e-01	-3.447406662000231e-01
1	 1.412429925176719e+00	 9.234164588379790e-01	-4.620623206491776e-01
1	 1.580640111810430e+00	 6.257610062572652e-01	 3.101783823148841e-01
1	 1.567875894584390e+00	 6.570884104904827e-01	 2.705540473373353e-01
1	 1.554437030323932e+00	 6.882772107075451e-01	 2.237103820852152e-01
1	 1.540324116810989e+00	 7.193063430781983e-01	 1.692915385470898e-01
1	 1.525538605001402e+00	 7.501546271746492e-01	 1.069562822530104e-01
1	 1.510082811619702e+00	 7.808008081897383e-01	 3.637978128913026e-02
1	 1.493959929295910e+00	 8.112236002940020e-01	-4.274463646240140e-02
1	 1.477174034139694e+00	 8.414017309675366e-01	-1.307037703618437e-01
1	 1.459730090659585e+00	 8.713139861323719e-01	-2.277628908826238e-01
1	 1.441633953948298e+00	 9.009392559019015e-01	-3.341641527937561e-01
1	 1.422892369069628e+00	 9.302565807558768e-01	-4.501250899298915e-01
1	 1.592262465576548e+00	 6.303621901294124e-01	 3.133762508840606e-01
1	 1.579404393812174e+00	 6.619199429233585e-01	 2.743156155470960e-01
1	 1.565866714373410e+00	 6.933380725538867e-01	 2.281663863167627e-01
1	 1.551650029437647e+00	 7.245953603096378e-01	 1.745611462324236e-01
1	 1.536755800629518e+00	 7.556704700243774e-01	 1.131466514666836e-01
1	 1.521186361708292e+00	 7.865419906055987e-01	 4.358566216720963e-02
1	 1.504944928779209e+00	 8.171884797103856e-01	-3.444125549865964e-02
1	 1.488035607923336e+00	 8.475885084032455e-01	-1.212339688194956e-01
1	 1.470463400152938e+00	 8.777207066203410e-01	-2.170710723381122e-01
1	 1.452234203612885e+00	 9.075638092553103e-01	-3.222082487280681e-01
1	 1.433354812963030e+00	 9.370967026737852e-01	-4.368767093258711e-01
1	 1.603884819343176e+00	 6.349633740020493e-01	 3.185049790782165e-01
1	 1.590932893040378e+00	 6.667514753568098e-01	 2.799465361253584e-01
1	 1.577296398423238e+00	 6.983989344008606e-01	 2.344292085901986e-01
1	 1.562975942064603e+00	 7.298843775417372e-01	 1.815741130065843e-01
1	 1.547972996257898e+00	 7.611863128747637e-01	 1.210161027338782e-01
1	 1.532289911797133e+00	 7.922831730220851e-01	 5.240564034214207e-02
1	 1.515929928262769e+00	 8.231533591273329e-01	-2.458935584740878e-02
1	 1.498897181707264e+00	 8.537752858394262e-01	-1.102817040078728e-01
1	 1.481196709646628e+00	 8.841274271086590e-01	-2.049632028876374e-01
1	 1.462834453277879e+00	 9.141883626089145e-01	-3.089029407567586e-01
1	 1.443817256856928e+00	 9.439368245917042e-01	-4.223456820959064e-01
1	 1.615507173110314e+00	 6.395645578751757e-01	 3.255228936686554e-01
1	 1.602461392269001e+00	 6.715830077908362e-01	 2.874064633380783e-01
1	 1.588726082473415e+00	 7.034597962484670e-01	 2.424598528331035e-01
1	 1.574301854691855e+00	 7.351733947744963e-01	 1.902928124147415e-01
1	 1.559190191886543e+00	 7.667021557258078e-01	 1.305283968738015e-01
1	 1.543393461886226e+00	 7.980243554391976e-01	 6.280487918173641e-02
1	 1.526914927746587e+00	 8.291182385448446e-01	-1.322235877527968e-02
1	 1.509758755491481e+00	 8.599620632760784e-01	-9.787897153719607e-02
1	 1.491930019140653e+00	 8.905341475973255e-01	-1.914698447811685e-01
1	 1.473434702943277e+00	 9.208129159627136e-01	-2.942773527054134e-01
1	 1.454279700751320e+00	 9.507769465096340e-01	-4.065596912610651e-01
1	 1.627129526877964e+00	 6.441657417487923e-01	 3.343895120903153e-01
1	 1.613989891498045e+00	 6.764145402254381e-01	 2.966562041864388e-01
1	 1.600155766523939e+00	 7.085206580967053e-01	 2.522204371465391e-01
1	 1.585627767319404e+00	 7.404624120079153e-01	 2.006806930436234e-01
1	 1.570407387515452e+00	 7.722179985775097e-01	 1.416483301108245e-01
1	 1.554497011975571e+00	 8.037655378569363e-01	 7.474953738615232e-02
1	 1.537899927230667e+00	 8.350831179629202e-01	-3.727306555490195e-04
1	 1.520620329275986e+00	 8.661488407132029e-01	-8.405685285737698e-02
1	 1.502663328635016e+00	 8.969408680863412e-01	-1.766206870614856e-01
1	 1.484034952609081e+00	 9.274374693167079e-01	-2.783597762902759e-01
1	 1.464742144646208e+00	 9.576170684275745e-01	-3.895456288989237e-01
1	 1.360117705719598e+00	 8.892158492486488e-01	-5.010222202791761e-01
1	 1.341593277844827e+00	 9.169255568526578e-01	-6.293421786418483e-01
1	 1.322467308569620e+00	 9.443014443144191e-01	-7.649423896159735e-01
1	 1.302748766623323e+00	 9.713241740187775e-01	-9.079018606460272e-01
1	 1.282447441638377e+00	 9.979747288431313e-01	-1.058279409061663e+00
1	 1.261573929795459e+00	 1.024234455404330e+00	-1.216113037197849e+00
1	 1.240139616749326e+00	 1.050085106526311e+00	-1.381419403149346e+00
1	 1.218156657885667e+00	 1.075508882729801e+00	-1.554193392173343e+00
1	 1.195637955975838e+00	 1.100488472549222e+00	-1.734407793002279e+00
1	 1.172597136312511e+00	 1.125007091487334e+00	-1.922013082521929e+00
1	 1.149048519425000e+00	 1.149048519425000e+00	-2.116937321417730e+00
1	 1.370580149610033e+00	 8.960559711664935e-01	-4.960992180035568e-01
1	 1.351913226135645e+00	 9.239788303679526e-01	-6.228398673313029e-01
1	 1.332640134019405e+00	 9.515653015797990e-01	-7.568299552999445e-01
1	 1.312769910980884e+00	 9.787958984359916e-01	-8.981629893329659e-01
1	 1.292312421957389e+00	 1.005651457528369e+00	-1.046912369622651e+00
1	 1.271278344638683e+00	 1.032113181986217e+00	-1.203130704260888e+00
1	 1.249679152261479e+00	 1.058162684270582e+00	-1.366849219340453e+00
1	 1.227527093714434e+00	 1.083782027983117e+00	-1.538077269439707e+00
1	 1.204835171020993e+00	 1.108953768493124e+00	-1.716801953157977e+00
1	 1.181617114283771e+00	 1.133660992191846e+00	-1.902987837564891e+00
1	 1.157887354190000e+00	 1.157887354190000e+00	-2.096576794573016e+00
1	 1.381042593500962e+00	 9.028960930843489e-01	-4.897091248833091e-01
1	 1.362233174427042e+00	 9.310321038830772e-01	-6.149454240756036e-01
1	 1.342812959469824e+00	 9.588291588448681e-01	-7.474006567284294e-01
1	 1.322791055339106e+00	 9.862676228527927e-01	-8.871826881603309e-01
1	 1.302177402277060e+00	 1.013328186213132e+00	-1.034379357781839e+00
1	 1.280982759482529e+00	 1.039991908567609e+00	-1.189057734734381e+00
1	 1.259218687774190e+00	 1.066240262014375e+00	-1.351263467846330e+00
1	 1.236897529543666e+00	 1.092055173236013e+00	-1.521020235714526e+00
1	 1.214032386066488e+00	 1.117419064436706e+00	-1.698329301981274e+00
1	 1.190637092255217e+00	 1.142314892896179e+00	-1.883169180074606e+00
1	 1.166726188955000e+00	 1.166726188955000e+00	-2.075495410824492e+00
1	 1.391505037392386e+00	 9.097362150022149e-01	-4.818850331938311e-01
1	 1.372553122719020e+00	 9.380853773980324e-01	-6.056902503476200e-01
1	 1.352985784920880e+00	 9.660930161096258e-01	-7.366841976066129e-01
1	 1.332812199697990e+00	 9.937393472691818e-01	-8.749889593053557e-01
1	 1.312042382597387e+00	 1.021004914897422e+00	-1.020706673668272e+00
1	 1.290687174326999e+00	 1.047870635148505e+00	-1.173918729443169e+00
1	 1.268758223287460e+00	 1.074317839757692e+00	-1.334685056208073e+00
1	 1.246267965373361e+00	 1.100328318488492e+00	-1.503043514553154e+00
1	 1.223229601112323e+00	 1.125884360379969e+00	-1.679009391606467e+00
1	 1.199657070226847e+00	 1.150968793600331e+00	-1.862575006573256e+00
1	 1.175565023720000e+00	 1.175565023720000e+00	-2.053709430101063e+00
1	 1.401967481284305e+00	 9.165763369200914e-01	-4.726590473813491e-01
1	 1.382873071011578e+00	 9.451386509128173e-01	-5.951048102627927e-01
1	 1.363158610372572e+00	 9.733568733740730e-01	-7.247093949618904e-01
1	 1.342833344057535e+00	 1.001211071685158e+00	-8.616089690593330e-01
1	 1.321907362918373e+00	 1.028681643581236e+00	-1.005919832332558e+00
1	 1.300391589172092e+00	 1.055749361728905e+00	-1.157737554859082e+00
1	 1.278297758801289e+00	 1.082395417500530e+00	-1.317136208159562e+00
1	 1.255638401203523e+00	 1.108601463740551e+00	-1.484167695971968e+00
1	 1.232426816158497e+00	 1.134349656322913e+00	-1.658861190522097e+00
1	 1.208677048198662e+00	 1.159622694304304e+00	-1.841222679358451e+00
1	 1.184403858485000e+00	 1.184403858485000e+00	-2.031234626960644e+00
1	 1.412429925176719e+00	 9.234164588379790e-01	-4.620623206491776e-01
1	 1.393193019304716e+00	 9.521919244274326e-01	-5.832186652960686e-01
1	 1.373331435824899e+00	 9.806207306382088e-01	-7.115042119837764e-01
1	 1.352854488417742e+00	 1.008682796100722e+00	-8.470690787864217e-01
1	 1.331772343240015e+00	 1.036358372264577e+00	-9.900435928237658e-01
1	 1.310096004017809e+00	 1.063628088308809e+00	-1.140537370299274e+00
1	 1.287837294315678e+00	 1.090472995242892e+00	-1.298638488953706e+00
1	 1.265008837034148e+00	 1.116874608992193e+00	-1.464412759912827e+00
1	 1.241624031205012e+00	 1.142814952265537e+00	-1.637903105187433e+00
1	 1.217697026170662e+00	 1.168276595008097e+00	-1.819129046289477e+00
1	 1.193242693250000e+00	 1.193242693250000e+00	-2.008086308566905e+00
1	 1.422892369069628e+00	 9.302565807558768e-01	-4.501250899298915e-01
1	 1.403512967598433e+00	 9.592451979418776e-01	-5.700605074672078e-01
1	 1.383504261277862e+00	 9.878845879020337e-01	-6.970957894150067e-01
1	 1.362875632778610e+00	 1.016154520515873e+00	-8.313948745165100e-01
1	 1.341637323562315e+00	 1.044035100947443e+00	-9.731019859836654e-01
1	 1.319800418864149e+00	 1.071506814888217e+00	-1.122340653924495e+00
1	 1.297376829830625e+00	 1.098550572984775e+00	-1.279212829571298e+00
1	 1.274379272865238e+00	 1.125147754243415e+00	-1.443798098672264e+00
1	 1.250821246251867e+00	 1.151280248207841e+00	-1.616153000695320e+00
1	 1.226717004142848e+00	 1.176930495711709e+00	-1.796310459700291e+00
1	 1.202081528015000e+00	 1.202081528015000e+00	-1.984279331872821e+00
1	 1.433354812963030e+00	 9.370967026737852e-01	-4.368767093258711e-01
1	 1.413832915892732e+00	 9.662984714561537e-01	-5.556581910727152e-01
1	 1.393677086731460e+00	 9.951484451655477e-01	-6.815104755678572e-01
1	 1.372896777140140e+00	 1.023626244930612e+00	-8.146111952421117e-01
1	 1.351502303885272e+00	 1.051711829629835e+00	-9.551183410235626e-01
1	 1.329504833711112e+00	 1.079385541467129e+00	-1.103169227598825e+00
1	 1.306916365346132e+00	 1.106628150726181e+00	-1.258879549869585e+00
1	 1.283749708696792e+00	 1.133420899494219e+00	-1.422342538348374e+00
1	 1.260018461299061e+00	 1.159745544149826e+00	-1.593628220530065e+00
1	 1.235736982115218e+00	 1.185584396415142e+00	-1.772782794484504e+00
1	 1.210920362780000e+00	 1.210920362780000e+00	-1.959828120051746e+00
1	 1.443817256856928e+00	 9.439368245917042e-01	-4.223456820959064e-01
1	 1.424152864187609e+00	 9.733517449702592e-01	-5.400387630381596e-01
1	 1.403849912185693e+00	 1.002412302428751e+00	-6.647738550353706e-01
1	 1.382917921502332e+00	 1.031097969344938e+00	-7.967421599849298e-01
1	 1.361367284208887e+00	 1.059388558311753e+00	-9.361153109457785e-01
1	 1.339209248558698e+00	 1.087264268045545e+00	-1.083044280668591e+00
1	 1.316455900862197e+00	 1.114705728467110e+00	-1.237658380724469e+00
1	 1.293120144528811e+00	 1.141694044744604e+00	-1.400064359355291e+00
1	 1.269215676346595e+00	 1.168210840091492e+00	-1.570345605466333e+00
1	 1.244756960087773e+00	 1.194238297118396e+00	-1.748561465393918e+00
1	 1.219759197545000e+00	 1.219759197545000e+00	-1.934746678214095e+00
1	 1.454279700751320e+00	 9.507769465096340e-01	-4.065596912610651e-01
1	 1.434472812483067e+00	 9.804050184841950e-01	-5.232284919602866e-01
1	 1.414022737640563e+00	 1.009676159691643e+00	-6.469107761632932e-01
1	 1.392939065865185e+00	 1.038569693758851e+00	-7.778111936940724e-01
1	 1.371232264533160e+00	 1.067065286993196e+00	-9.161148968676536e-01
1	 1.348913663406908e+00	 1.095142994623464e+00	-1.061986392714707e+00
1	 1.325995436378822e+00	 1.122783306207561e+00	-1.215568485216888e+00
1	 1.302490580361295e+00	 1.149967189994570e+00	-1.376981316052066e+00
1	 1.278412891394469e+00	 1.176676136032838e+00	-1.546321511652179e+00
1	 1.253776938060513e+00	 1.202892197821469e+00	-1.723661443590369e+00
1	 1.228598032310000e+00	 1.228598032310000e+00	-1.909048608445536e+00
1	 1.464742144646208e+00	 9.576170684275745e-01	-3.895456288989237e-01
1	 1.444792760779105e+00	 9.874582919979614e-01	-5.052528959044666e-01
1	 1.424195563096069e+00	 1.016940016954224e+00	-6.279453773446063e-01
1	 1.402960210228699e+00	 1.046041418172352e+00	-7.578410520343968e-01
1	 1.381097244858090e+00	 1.074742015674165e+00	-8.951384713031765e-01
1	 1.358618078255741e+00	 1.103021721200889e+00	-1.040015555330106e+00
1	 1.335534971896006e+00	 1.130860883947535e+00	-1.192628478911164e+00
1	 1.311861016194242e+00	 1.158240335244118e+00	-1.353110655530360e+00
1	 1.287610106442683e+00	 1.185141431973866e+00	-1.521571827917167e+00
1	 1.262796916033438e+00	 1.211546098524362e+00	-1.698097272488225e+00
1	 1.237436867075000e+00	 1.237436867075000e+00	-1.882747124200746e+00
1	 1.149048519425000e+00	 1.149048519425000e+00	-2.116937321417730e+00
1	 1.125007091487334e+00	 1.172597136312511e+00	-2.334340624131805e+00
1	 1.100488472549222e+00	 1.195637955975838e+00	-2.554428059775745e+00
1	 1.075508882729801e+00	 1.218156657885667e+00	-2.776987252137209e+00
1	 1.050085106526311e+00	 1.240139616749326e+00	-3.001799129360552e+00
1	 1.024234455404330e+00	 1.261573929795459e+00	-3.228638574985738e+00
1	 9.979747288431317e-01	 1.282447441638376e+00	-3.457275107116355e+00
1	 9.713241740187781e-01	 1.302748766623323e+00	-3.687473581682251e+00
1	 9.443014443144199e-01	 1.322467308569620e+00	-3.918994915590007e+00
1	 9.169255568526588e-01	 1.341593277844826e+00	-4.151596825423034e+00
1	 8.892158492486486e-01	 1.360117705719598e+00	-4.385034577264136e+00
1	 1.157887354190000e+00	 1.157887354190000e+00	-2.096576794573016e+00
1	 1.133660992191846e+00	 1.181617114283772e+00	-2.312210547416900e+00
1	 1.108953768493124e+00	 1.204835171020993e+00	-2.530591546996122e+00
1	 1.083782027983116e+00	 1.227527093714434e+00	-2.751518970455442e+00
1	 1.058162684270582e+00	 1.249679152261479e+00	-2.974785058307350e+00
1	 1.032113181986218e+00	 1.271278344638683e+00	-3.200175720063998e+00
1	 1.005651457528369e+00	 1.292312421957389e+00	-3.427471169645171e+00
1	 9.787958984359921e-01	 1.312769910980883e+00	-3.656446586807473e+00
1	 9.515653015798000e-01	 1.332640134019404e+00	-3.886872800650041e+00
1	 9.239788303679534e-01	 1.351913226135644e+00	-4.118516991099761e+00
1	 8.960559711664935e-01	 1.370580149610033e+00	-4.351143404168063e+00
1	 1.166726188955000e+00	 1.166726188955000e+00	-2.075495410824492e+00
1	 1.142314892896179e+00	 1.190637092255217e+00	-2.289424876392534e+00
1	 1.117419064436706e+00	 1.214032386066488e+00	-2.506164293880305e+00
1	 1.092055173236014e+00	 1.236897529543666e+00	-2.725524269159169e+00
1	 1.066240262014376e+00	 1.259218687774190e+00	-2.947308232097762e+00
1	 1.039991908567610e+00	 1.280982759482529e+00	-3.171312997220134e+00
1	 1.013328186213133e+00	 1.302177402277059e+00	-3.397329355775214e+00
1	 9.862676228527935e-01	 1.322791055339106e+00	-3.625142695739799e+00
1	 9.588291588448689e-01	 1.342812959469824e+00	-3.854533646069626e+00
1	 9.310321038830781e-01	 1.362233174427042e+00	-4.085278741341319e+00
1	 9.028960930843491e-01	 1.381042593500963e+00	-4.317151102793342e+00
1	 1.175565023720000e+00	 1.175565023720000e+00	-2.053709430101063e+00
1	 1.150968793600331e+00	 1.199657070226847e+00	-2.265998398899367e+00
1	 1.125884360379969e+00	 1.223229601112323e+00	-2.481159625397681e+00
1	 1.100328318488492e+00	 1.246267965373361e+00	-2.699015022374751e+00
1	 1.074317839757692e+00	 1.268758223287460e+00	-2.919379088818002e+00
1	 1.047870635148505e+00	 1.290687174326999e+00	-3.142059426031591e+00
1	 1.021004914897422e+00	 1.312042382597387e+00	-3.366857286779159e+00
1	 9.937393472691824e-01	 1.332812199697989e+00	-3.593568154258675e+00
1	 9.660930161096266e-01	 1.352985784920880e+00	-3.821982347480643e+00
1	 9.380853773980332e-01	 1.372553122719020e+00	-4.051885649429276e+00
1	 9.097362150022150e-01	 1.391505037392387e+00	-4.283059954230206e+00
1	 1.184403858485000e+00	 1.184403858485000e+00	-2.031234626960644e+00
1	 1.159622694304304e+00	 1.208677048198662e+00	-2.241945461349971e+00
1	 1.134349656322913e+00	 1.232426816158497e+00	-2.455590468757379e+00
1	 1.108601463740551e+00	 1.255638401203522e+00	-2.672002749776984e+00
1	 1.082395417500531e+00	 1.278297758801290e+00	-2.891007754969646e+00
1	 1.055749361728906e+00	 1.300391589172092e+00	-3.112423756834638e+00
1	 1.028681643581237e+00	 1.321907362918372e+00	-3.336062356428907e+00
1	 1.001211071685159e+00	 1.342833344057535e+00	-3.561729021702426e+00
1	 9.733568733740733e-01	 1.363158610372571e+00	-3.789223654376667e+00
1	 9.451386509128182e-01	 1.382873071011578e+00	-4.018341181980041e+00
1	 9.165763369200917e-01	 1.401967481284305e+00	-4.248872171476618e+00
1	 1.193242693250000e+00	 1.193242693250000e+00	-2.008086308566905e+00
1	 1.168276595008097e+00	 1.217697026170663e+00	-2.217279985078094e+00
1	 1.142814952265537e+00	 1.241624031205012e+00	-2.429469368140119e+00
1	 1.116874608992193e+00	 1.265008837034148e+00	-2.644498629717035e+00
1	 1.090472995242892e+00	 1.287837294315678e+00	-2.862204057009707e+00
1	 1.063628088308809e+00	 1.310096004017808e+00	-3.082414480696388e+00
1	 1.036358372264577e+00	 1.331772343240015e+00	-3.304951739421669e+00
1	 1.008682796100723e+00	 1.352854488417742e+00	-3.529631177873342e+00
1	 9.806207306382095e-01	 1.373331435824898e+00	-3.756262175525553e+00
1	 9.521919244274334e-01	 1.393193019304715e+00	-3.984648702895454e+00
1	 9.234164588379790e-01	 1.412429925176719e+00	-4.214589901960193e+00
1	 1.202081528015000e+00	 1.202081528015000e+00	-1.984279331872821e+00
1	 1.176930495711710e+00	 1.226717004142848e+00	-2.192015481966490e+00
1	 1.151280248207841e+00	 1.250821246251867e+00	-2.402808498780176e+00
1	 1.125147754243415e+00	 1.274379272865238e+00	-2.616513511770978e+00
1	 1.098550572984775e+00	 1.297376829830625e+00	-2.832977532381857e+00
1	 1.071506814888217e+00	 1.319800418864148e+00	-3.052039838946639e+00
1	 1.044035100947444e+00	 1.341637323562315e+00	-3.273532399434163e+00
1	 1.016154520515874e+00	 1.362875632778610e+00	-3.497280329638413e+00
1	 9.878845879020346e-01	 1.383504261277861e+00	-3.723102384143158e+00
1	 9.592451979418788e-01	 1.403512967598433e+00	-3.950811477139065e+00
1	 9.302565807558767e-01	 1.422892369069627e+00	-4.180215229948960e+00
1	 1.210920362780000e+00	 1.210920362780000e+00	-1.959828120051746e+00
1	 1.185584396415142e+00	 1.235736982115218e+00	-2.166165069390402e+00
1	 1.159745544149826e+00	 1.260018461299061e+00	-2.375619680430489e+00
1	 1.133420899494219e+00	 1.283749708696792e+00	-2.588057928739004e+00
1	 1.106628150726181e+00	 1.306916365346132e+00	-2.803337440064207e+00
1	 1.079385541467129e+00	 1.329504833711111e+00	-3.021307832292431e+00
1	 1.051711829629836e+00	 1.351502303885272e+00	-3.241811096824053e+00
1	 1.023626244930612e+00	 1.372896777140139e+00	-3.464682017240722e+00
1	 9.951484451655483e-01	 1.393677086731459e+00	-3.689748622840458e+00
1	 9.662984714561544e-01	 1.413832915892731e+00	-3.916832674347075e+00
1	 9.370967026737852e-01	 1.433354812963030e+00	-4.145750178856360e+00
1	 1.219759197545000e+00	 1.219759197545000e+00	-1.934746678214095e+00
1	 1.194238297118396e+00	 1.244756960087773e+00	-2.139741484511349e+00
1	 1.168210840091492e+00	 1.269215676346595e+00	-2.347914390242542e+00
1	 1.141694044744604e+00	 1.293120144528811e+00	-2.559142108122734e+00
1	 1.114705728467110e+00	 1.316455900862197e+00	-2.773292770658739e+00
1	 1.087264268045545e+00	 1.339209248558698e+00	-2.990226229536288e+00
1	 1.059388558311753e+00	 1.361367284208887e+00	-3.209794395996625e+00
1	 1.031097969344938e+00	 1.382917921502331e+00	-3.431841620336634e+00
1	 1.002412302428751e+00	 1.403849912185693e+00	-3.656205108355706e+00
1	 9.733517449702599e-01	 1.424152864187609e+00	-3.882715372282053e+00
1	 9.439368245917042e-01	 1.443817256856928e+00	-4.111196713446191e+00
1	 1.228598032310000e+00	 1.228598032310000e+00	-1.909048608445536e+00
1	 1.202892197821469e+00	 1.253776938060513e+00	-2.112757097953821e+00
1	 1.176676136032838e+00	 1.278412891394469e+00	-2.319703775090038e+00
1	 1.149967189994570e+00	 1.302490580361294e+00	-2.529775983107226e+00
1	 1.122783306207561e+00	 1.325995436378822e+00	-2.742852256045011e+00
1	 1.095142994623465e+00	 1.348913663406907e+00	-2.958802575918051e+00
1	 1.067065286993196e+00	 1.371232264533159e+00	-3.177488672453418e+00
1	 1.038569693758852e+00	 1.392939065865184e+00	-3.398764363772226e+00
1	 1.009676159691643e+00	 1.414022737640563e+00	-3.622475936082096e+00
1	 9.804050184841961e-01	 1.434472812483067e+00	-3.848462560137943e+00
1	 9.507769465096340e-01	 1.454279700751320e+00	-4.076556741942263e+00
1	 1.237436867075000e+00	 1.237436867075000e+00	-1.882747124200746e+00
1	 1.211546098524362e+00	 1.262796916033438e+00	-2.085223926895941e+00
1	 1.185141431973866e+00	 1.287610106442683e+00	-2.290998663364662e+00
1	 1.158240335244119e+00	 1.311861016194243e+00	-2.499969203072240e+00
1	 1.130860883947535e+00	 1.335534971896005e+00	-2.712024378620373e+00
1	 1.103021721200889e+00	 1.358618078255741e+00	-2.927044201099259e+00
1	 1.074742015674166e+00	 1.381097244858090e+00	-3.144900119538754e+00
1	 1.046041418172353e+00	 1.402960210228699e+00	-3.365455323112289e+00
1	 1.016940016954224e+00	 1.424195563096068e+00	-3.588565084401637e+00
1	 9.874582919979624e-01	 1.444792760779105e+00	-3.814077141703134e+00
1	 9.576170684275745e-01	 1.464742144646208e+00	-4.041832118047729e+00
1	 8.892158492486486e-01	 1.360117705719598e+00	-4.385034577264136e+00
1	 8.611919357855461e-01	 1.378032455969275e+00	-4.645474214524934e+00
1	 8.328736632118816e-01	 1.395330233706523e+00	-4.900731905012274e+00
1	 8.042810663631879e-01	 1.412004591443889e+00	-5.150457445548343e+00
1	 7.754343238075456e-01	 1.428049932401566e+00	-5.394320862344231e+00
1	 7.463537137077207e-01	 1.443461511093458e+00	-5.632013161671079e+00
1	 7.170595700900940e-01	 1.458235431238257e+00	-5.863246966079665e+00
1	 6.875722397034173e-01	 1.472368641057263e+00	-6.087757035106119e+00
1	 6.579120396427711e-01	 1.485858926034374e+00	-6.305300670322373e+00
1	 6.280992159053126e-01	 1.498704899226502e+00	-6.515658005483545e+00
1	 5.981539030346663e-01	 1.510905989224438e+00	-6.718632183381145e+00
1	 8.960559711664935e-01	 1.370580149610033e+00	-4.351143404168063e+00
1	 8.678164891377838e-01	 1.388632705631433e+00	-4.610000551003758e+00
1	 8.392803836977581e-01	 1.406063543197860e+00	-4.863796390009050e+00
1	 8.104678437960666e-01	 1.422866165225804e+00	-5.112187255674720e+00
1	 7.813992032205448e-01	 1.439034931883307e+00	-5.354849383345787e+00
1	 7.520948961198254e-01	 1.454565061180535e+00	-5.591479639226427e+00
1	 7.225754129358753e-01	 1.469452626864787e+00	-5.821796137913216e+00
1	 6.928612569308982e-01	 1.483694553682143e+00	-6.045538746475383e+00
1	 6.629729014853196e-01	 1.497288610081763e+00	-6.262469475004507e+00
1	 6.329307483347361e-01	 1.510233398451768e+00	-6.472372754430861e+00
1	 6.027550869038751e-01	 1.522528342987494e+00	-6.675055603241557e+00
1	 9.028960930843491e-01	 1.381042593500963e+00	-4.317151102793342e+00
1	 8.744410424902173e-01	 1.399232955293995e+00	-4.574476490770769e+00
1	 8.456871041839830e-01	 1.416796852689532e+00	-4.826860344738228e+00
1	 8.166546212294176e-01	 1.433727739008007e+00	-5.073965449494867e+00
1	 7.873640826341083e-01	 1.450019931365309e+00	-5.315474165577593e+00
1	 7.578360785325561e-01	 1.465668611267865e+00	-5.551089138840066e+00
1	 7.280912557823146e-01	 1.480669822491582e+00	-5.780533899517663e+00
1	 6.981502741590386e-01	 1.495020466307319e+00	-6.003553349878801e+00
1	 6.680337633285006e-01	 1.508718294129499e+00	-6.219914140446608e+00
1	 6.377622807647348e-01	 1.521761897677452e+00	-6.429404935633420e+00
1	 6.073562707735738e-01	 1.534150696751061e+00	-6.631836570449600e+00
1	 9.097362150022150e-01	 1.391505037392387e+00	-4.283059954230206e+00
1	 8.810655958428457e-01	 1.409833204956963e+00	-4.538903170594914e+00
1	 8.520938246705574e-01	 1.427530162181541e+00	-4.789923781161587e+00
1	 8.228413986632397e-01	 1.444589312790497e+00	-5.035790935648014e+00
1	 7.933289620482358e-01	 1.461004930847569e+00	-5.276193037734464e+00
1	 7.635772609459127e-01	 1.476772161355446e+00	-5.510838434451092e+00
1	 7.336070986294119e-01	 1.491887018118641e+00	-5.739455996988853e+00
1	 7.034392913878393e-01	 1.506346378932792e+00	-5.961795592112957e+00
1	 6.730946251723136e-01	 1.520147978177585e+00	-6.177628444225834e+00
1	 6.425938131953089e-01	 1.533290396903557e+00	-6.386747388965467e+00
1	 6.119574546437619e-01	 1.545773050515137e+00	-6.588967020027608e+00
1	 9.165763369200917e-01	 1.401967481284305e+00	-4.248872171476618e+00
1	 8.876901491956691e-01	 1.420433454620336e+00	-4.503281693311798e+00
1	 8.585005451574801e-01	 1.438263471673887e+00	-4.752986710883864e+00
1	 8.290281760975334e-01	 1.455450886573275e+00	-4.997662655351398e+00
1	 7.992938414629273e-01	 1.471989930330090e+00	-5.237003893326124e+00
1	 7.693184433598954e-01	 1.487875711443280e+00	-5.470724396298909e+00
1	 7.391229414771665e-01	 1.503104213745964e+00	-5.698558303404857e+00
1	 7.087283086172992e-01	 1.517672291558560e+00	-5.920260376786548e+00
1	 6.781554870167587e-01	 1.531577662226018e+00	-6.135606349663298e+00
1	 6.474253456264587e-01	 1.544818896130081e+00	-6.344393168036257e+00
1	 6.165586385144400e-01	 1.557395404279724e+00	-6.546439127743633e+00
1	 9.234164588379790e-01	 1.412429925176719e+00	-4.214589901960193e+00
1	 8.943147025486875e-01	 1.431033704284114e+00	-4.467613129080370e+00
1	 8.649072656447517e-01	 1.448996781166568e+00	-4.716049145166018e+00
1	 8.352149535322991e-01	 1.466312460356341e+00	-4.959579581193472e+00
1	 8.052587208781826e-01	 1.482974929812870e+00	-5.197904688276880e+00
1	 7.750596257745040e-01	 1.498979261531365e+00	-5.430743987356570e+00
1	 7.446387843255793e-01	 1.514321409373550e+00	-5.657836814122888e+00
1	 7.140173258474193e-01	 1.528998204184626e+00	-5.878942758512331e+00
1	 6.832163488618361e-01	 1.543007346274800e+00	-6.093841998944659e+00
1	 6.522568780581836e-01	 1.556347395357025e+00	-6.302335532274059e+00
1	 6.211598223856076e-01	 1.569017758044822e+00	-6.504245301194804e+00
1	 9.302565807558767e-01	 1.422892369069627e+00	-4.180215229948960e+00
1	 9.009392559019015e-01	 1.441633953948297e+00	-4.431898516584377e+00
1	 8.713139861323717e-01	 1.459730090659585e+00	-4.679111094937738e+00
1	 8.414017309675366e-01	 1.477174034139694e+00	-4.921540715980831e+00
1	 8.112236002940023e-01	 1.493959929295910e+00	-5.158893438630966e+00
1	 7.808008081897385e-01	 1.510082811619702e+00	-5.390894259921458e+00
1	 7.501546271746498e-01	 1.525538605001402e+00	-5.617287642283836e+00
1	 7.193063430781990e-01	 1.540324116810988e+00	-5.837837937355775e+00
1	 6.882772107075457e-01	 1.554437030323931e+00	-6.052329706544247e+00
1	 6.570884104904839e-01	 1.567875894584390e+00	-6.260567939359220e+00
1	 6.257610062572652e-01	 1.580640111810430e+00	-6.462378171284165e+00
1	 9.370967026737852e-01	 1.433354812963030e+00	-4.145750178856360e+00
1	 9.075638092553103e-01	 1.452234203612885e+00	-4.396138864180932e+00
1	 8.777207066203410e-01	 1.470463400152938e+00	-4.642172570809620e+00
1	 8.475885084032457e-01	 1.488035607923335e+00	-4.883545091635095e+00
1	 8.171884797103856e-01	 1.504944928779209e+00	-5.119968218358268e+00
1	 7.865419906055990e-01	 1.521186361708291e+00	-5.351172352355288e+00
1	 7.556704700243780e-01	 1.536755800629518e+00	-5.576907014513426e+00
1	 7.245953603096386e-01	 1.551650029437648e+00	-5.796941253526274e+00
1	 6.933380725538877e-01	 1.565866714373410e+00	-6.011063952937161e+00
1	 6.619199429233596e-01	 1.579404393812174e+00	-6.219084037988797e+00
1	 6.303621901294124e-01	 1.592262465576548e+00	-6.420830584070885e+00
1	 9.439368245917042e-01	 1.443817256856928e+00	-4.111196713446191e+00
1	 9.141883626089141e-01	 1.462834453277879e+00	-4.360335150999490e+00
1	 8.841274271086591e-01	 1.481196709646628e+00	-4.605233583084704e+00
1	 8.537752858394263e-01	 1.498897181707264e+00	-4.845591768138182e+00
1	 8.231533591273332e-01	 1.515929928262769e+00	-5.081127157255650e+00
1	 7.922831730220854e-01	 1.532289911797133e+00	-5.311575485965770e+00
1	 7.611863128747642e-01	 1.547972996257898e+00	-5.536691266810667e+00
1	 7.298843775417380e-01	 1.562975942064603e+00	-5.756248182299762e+00
1	 6.983989344008616e-01	 1.577296398423238e+00	-5.970039378584663e+00
1	 6.667514753568107e-01	 1.590932893040377e+00	-6.177877660955462e+00
1	 6.349633740020493e-01	 1.603884819343176e+00	-6.379595592974733e+00
1	 9.507769465096340e-01	 1.454279700751320e+00	-4.076556741942263e+00
1	 9.208129159627132e-01	 1.473434702943277e+00	-4.324488327993111e+00
1	 8.905341475973253e-01	 1.491930019140653e+00	-4.568294141769520e+00
1	 8.599620632760784e-01	 1.509758755491480e+00	-4.807679832522861e+00
1	 8.291182385448447e-01	 1.526914927746587e+00	-5.042368438938783e+00
1	 7.980243554391980e-01	 1.543393461886226e+00	-5.272100962023010e+00
1	 7.667021557258082e-01	 1.559190191886543e+00	-5.496636840613379e+00
1	 7.351733947744968e-01	 1.574301854691855e+00	-5.715754329159961e+00
1	 7.034597962484678e-01	 1.588726082473414e+00	-5.929250778179418e+00
1	 6.715830077908371e-01	 1.602461392269001e+00	-6.136942818525529e+00
1	 6.395645578751757e-01	 1.615507173110314e+00	-6.338666451317100e+00
1	 9.576170684275745e-01	 1.464742144646208e+00	-4.041832118047729e+00
1	 9.274374693167079e-01	 1.484034952609081e+00	-4.288599318944700e+00
1	 8.969408680863412e-01	 1.502663328635016e+00	-4.531354256584740e+00
1	 8.661488407132029e-01	 1.520620329275986e+00	-4.769808397906713e+00
1	 8.350831179629206e-01	 1.537899927230666e+00	-5.003690298920064e+00
1	 8.037655378569366e-01	 1.554497011975572e+00	-5.232746158903703e+00
1	 7.722179985775102e-01	 1.570407387515452e+00	-5.456740279032573e+00
1	 7.404624120079161e-01	 1.585627767319404e+00	-5.675455425148162e+00
1	 7.085206580967063e-01	 1.600155766523939e+00	-5.888693095137091e+00
1	 6.764145402254393e-01	 1.613989891498045e+00	-6.096273692100583e+00
1	 6.441657417487923e-01	 1.627129526877964e+00	-6.298036605181507e+00
1	 5.981539030346663e-01	 1.510905989224438e+00	-6.718632183381145e+00
1	 5.680960850001699e-01	 1.522462425874857e+00	-6.943761146872212e+00
1	 5.379455574460040e-01	 1.533375223883753e+00	-7.156074805521673e+00
1	 5.077218914329504e-01	 1.543646164429884e+00	-7.355373766355726e+00
1	 4.774443987833440e-01	 1.553277774923845e+00	-7.541499109663399e+00
1	 4.471320991271144e-01	 1.562273307054313e+00	-7.714331748420612e+00
1	 4.168036887336734e-01	 1.570636713267633e+00	-7.873791624451347e+00
1	 3.864775112014002e-01	 1.578372621830225e+00	-8.019836752466848e+00
1	 3.561715300634782e-01	 1.585486310625523e+00	-8.152462123775187e+00
1	 3.259033033559552e-01	 1.591983679838119e+00	-8.271698481962630e+00
1	 2.956899601812942e-01	 1.597871223677692e+00	-8.377610983220817e+00
1	 6.027550869038751e-01	 1.522528342987494e+00	-6.675055603241557e+00
1	 5.724660548848367e-01	 1.534173675303793e+00	-6.899091011997351e+00
1	 5.420836001959101e-01	 1.545170417912212e+00	-7.110400764044407e+00
1	 5.116274444444988e-01	 1.555520365692882e+00	-7.308784500978657e+00
1	 4.811170480054178e-01	 1.565226065498014e+00	-7.494082371105147e+00
1	 4.505715768134437e-01	 1.574290794029277e+00	-7.666174387749178e+00
1	 4.200098709554459e-01	 1.582718534136446e+00	-7.824979623938619e+00
1	 3.894504151344075e-01	 1.590513949687990e+00	-7.970455254636909e+00
1	 3.589113110645378e-01	 1.597682359166444e+00	-8.102595458357982e+00
1	 3.284102518437008e-01	 1.604229708142433e+00	-8.221430190505314e+00
1	 2.979644983366877e-01	 1.610162540781094e+00	-8.327023841149133e+00
1	 6.073562707735738e-01	 1.534150696751061e+00	-6.631836570449600e+00
1	 5.768360247698988e-01	 1.545884924733330e+00	-6.854787906391215e+00
1	 5.462216429461266e-01	 1.556965611941338e+00	-7.065103033299673e+00
1	 5.155329974562838e-01	 1.567394566956594e+00	-7.262580613546382e+00
1	 4.847896972276649e-01	 1.577174356072925e+00	-7.447059850457139e+00
1	 4.540110544998927e-01	 1.586308281004989e+00	-7.618419845532567e+00
1	 4.232160531772945e-01	 1.594800355005994e+00	-7.776578791669703e+00
1	 3.924233190674576e-01	 1.602655277546456e+00	-7.921493013601962e+00
1	 3.616510920656160e-01	 1.609878407708013e+00	-8.053155867429178e+00
1	 3.309172003314512e-01	 1.616475736447324e+00	-8.171596511619247e+00
1	 3.002390364920813e-01	 1.622453857884982e+00	-8.276878562236563e+00
1	 6.119574546437619e-01	 1.545773050515137e+00	-6.588967020027608e+00
1	 5.812059946553556e-01	 1.557596174163466e+00	-6.810843551198233e+00
1	 5.503596856966543e-01	 1.568760805971133e+00	-7.020173125075552e+00
1	 5.194385504683057e-01	 1.579268768221021e+00	-7.216753411323412e+00
1	 4.884623464500848e-01	 1.589122646648578e+00	-7.400422655586063e+00
1	 4.574505321864613e-01	 1.598325767981450e+00	-7.571059035640265e+00
1	 4.264222353992193e-01	 1.606882175876276e+00	-7.728579853172921e+00
1	 3.953962230005502e-01	 1.614796605405623e+00	-7.872940572441815e+00
1	 3.643908730667133e-01	 1.622074456250230e+00	-8.004133717729513e+00
1	 3.334241488192061e-01	 1.628721764752790e+00	-8.122187642013140e+00
1	 3.025135746474747e-01	 1.634745174989355e+00	-8.227165179644782e+00
1	 6.165586385144400e-01	 1.557395404279724e+00	-6.546439127743633e+00
1	 5.855759645412076e-01	 1.569307423594202e+00	-6.767249914692879e+00
1	 5.544977284474925e-01	 1.580556000001596e+00	-6.975602804539637e+00
1	 5.233441034805644e-01	 1.591142969486163e+00	-7.171294461058786e+00
1	 4.921349956726781e-01	 1.601070937224973e+00	-7.354162159795499e+00
1	 4.608900098731494e-01	 1.610343254958658e+00	-7.524083143169459e+00
1	 4.296284176212204e-01	 1.618963996747293e+00	-7.680973810826421e+00
1	 3.983691269336854e-01	 1.626937933265491e+00	-7.824788756532263e+00
1	 3.671306540678292e-01	 1.634270504793095e+00	-7.955519663559802e+00
1	 3.359310973069657e-01	 1.640967793058833e+00	-8.073194071031400e+00
1	 3.047881128028683e-01	 1.647036492094213e+00	-8.177874024052979e+00
1	 6.211598223856076e-01	 1.569017758044822e+00	-6.504245301194804e+00
1	 5.899459344274547e-01	 1.581018673025537e+00	-6.723999203126718e+00
1	 5.586357711986415e-01	 1.592351194032726e+00	-6.931384080854464e+00
1	 5.272496564930597e-01	 1.603017170752021e+00	-7.126195579375748e+00
1	 4.958076448954447e-01	 1.613019227802109e+00	-7.308269991994752e+00
1	 4.643294875599572e-01	 1.622360741936614e+00	-7.477483614399656e+00
1	 4.328345998432976e-01	 1.631045817619043e+00	-7.633751933604614e+00
1	 4.013420308668634e-01	 1.639079261126060e+00	-7.777028663089896e+00
1	 3.698704350689641e-01	 1.646466553336608e+00	-7.907304636130279e+00
1	 3.384380457947301e-01	 1.653213821365451e+00	-8.024606569815532e+00
1	 3.070626509582619e-01	 1.659327809199556e+00	-8.128995712638815e+00
1	 6.257610062572652e-01	 1.580640111810430e+00	-6.462378171284165e+00
1	 5.943159043140965e-01	 1.592729922457472e+00	-6.681083851979128e+00
1	 5.627738139501012e-01	 1.604146388064524e+00	-6.887509198207276e+00
1	 5.311552095057922e-01	 1.614891372018594e+00	-7.081448823585067e+00
1	 4.994802941183842e-01	 1.624967518379987e+00	-7.262738027301739e+00
1	 4.677689652468848e-01	 1.634378228915318e+00	-7.431252147190397e+00
1	 4.360407820654509e-01	 1.643127638491529e+00	-7.586905747276798e+00
1	 4.043149348000838e-01	 1.651220588987329e+00	-7.729651651177869e+00
1	 3.726102160701177e-01	 1.658662601880768e+00	-7.859479833380488e+00
1	 3.409449942824992e-01	 1.665459849672645e+00	-7.976416180944113e+00
1	 3.093371891136554e-01	 1.671619126305386e+00	-8.080521138545263e+00
1	 6.303621901294124e-01	 1.592262465576548e+00	-6.420830584070885e+00
1	 5.986858742011336e-01	 1.604441171890006e+00	-6.638496517591444e+00
1	 5.669118567018716e-01	 1.615941582096991e+00	-6.843970627232355e+00
1	 5.350607625187613e-01	 1.626765573285882e+00	-7.037046482900816e+00
1	 5.031529433414970e-01	 1.636915808958607e+00	-7.217558378057146e+00
1	 4.712084429339320e-01	 1.646395715894772e+00	-7.385380681799476e+00
1	 4.392469642876805e-01	 1.655209459364748e+00	-7.540427025034989e+00
1	 4.072878387333470e-01	 1.663361916849300e+00	-7.682649332149482e+00
1	 3.753499970712901e-01	 1.670858650425577e+00	-7.812036710244285e+00
1	 3.434519427702728e-01	 1.677705877980415e+00	-7.928614208526260e+00
1	 3.116117272690490e-01	 1.683910443411700e+00	-8.032441460808911e+00
1	 6.349633740020493e-01	 1.603884819343176e+00	-6.379595592974733e+00
1	 6.030558440885656e-01	 1.616152421323141e+00	-6.596230069164640e+00
1	 5.710498994539527e-01	 1.627736776130124e+00	-6.800761056806469e+00
1	 5.389663155319673e-01	 1.638639774553884e+00	-6.992981070038146e+00
1	 5.068255925647830e-01	 1.648864099537968e+00	-7.172723385229594e+00
1	 4.746479206210989e-01	 1.658413202874972e+00	-7.339861392100346e+00
1	 4.424531465099864e-01	 1.667291280238702e+00	-7.494307778529439e+00
1	 4.102607426666527e-01	 1.675503244711971e+00	-7.636013560507141e+00
1	 3.780897780724816e-01	 1.683054698971034e+00	-7.764966969338682e+00
1	 3.459588912580512e-01	 1.689951906288762e+00	-7.881192208725880e+00
1	 3.138862654244425e-01	 1.696201760518499e+00	-7.984748094726225e+00
1	 6.395645578751757e-01	 1.615507173110314e+00	-6.338666451317100e+00
1	 6.074258139763925e-01	 1.627863670756874e+00	-6.554277581102562e+00
1	 5.751879422063448e-01	 1.639531970163926e+00	-6.757873386198410e+00
1	 5.428718685454100e-01	 1.650513975822602e+00	-6.949245313173571e+00
1	 5.104982417882420e-01	 1.660812390118072e+00	-7.128225610191283e+00
1	 4.780873983083853e-01	 1.670430689855921e+00	-7.294686677178817e+00
1	 4.456593287323683e-01	 1.679373101113391e+00	-7.448540249291028e+00
1	 4.132336466000011e-01	 1.687644572575344e+00	-7.589736425156139e+00
1	 3.808295590736919e-01	 1.695250747517139e+00	-7.718262552054278e+00
1	 3.484658397458342e-01	 1.702197934597684e+00	-7.834141980695002e+00
1	 3.161608035798359e-01	 1.708493077625785e+00	-7.937432702635457e+00
1	 6.441657417487923e-01	 1.627129526877964e+00	-6.298036605181507e+00
1	 6.117957838646149e-01	 1.639574920191208e+00	-6.512632325683186e+00
1	 5.793259849590476e-01	 1.651327164198396e+00	-6.715300717555055e+00
1	 5.467774215590897e-01	 1.662388177092036e+00	-6.905832148250050e+00
1	 5.141708910118744e-01	 1.672760680698918e+00	-7.084057826846789e+00
1	 4.815268759957917e-01	 1.682448176837619e+00	-7.249849153289612e+00
1	 4.488655109548267e-01	 1.691454921988814e+00	-7.403116900521041e+00
1	 4.162065505333923e-01	 1.699785900439417e+00	-7.543810241032994e+00
1	 3.835693400749210e-01	 1.707446796063892e+00	-7.671915630027637e+00
1	 3.509727882336220e-01	 1.714443962907183e+00	-7.787455557895592e+00
1	 3.184353417352296e-01	 1.720784394733555e+00	-7.890487185093790e+00
1	 2.956899601812942e-01	 1.597871223677692e+00	-8.377610983220817e+00
1	 2.655481792878332e-01	 1.603156001294210e+00	-8.497995332781418e+00
1	 2.354941696761790e-01	 1.607845607033304e+00	-8.604064705344426e+00
1	 2.055436532290555e-01	 1.611948140178152e+00	-8.695931220532275e+00
1	 1.757118493506961e-01	 1.615472174320239e+00	-8.773738926228230e+00
1	 1.460134615946999e-01	 1.618426726496131e+00	-8.837662106008093e+00
1	 1.164626662474424e-01	 1.620821226222415e+00	-8.887903530343074e+00
1	 8.707310282611763e-02	 1.622665484554889e+00	-8.924692664206612e+00
1	 5.785786644259734e-02	 1.623969663291593e+00	-8.948283843299194e+00
1	 2.882950197718375e-02	 1.624744244432313e+00	-8.958954430605852e+00
1	 0.000000000000000e+00	 1.625000000000000e+00	-8.957002964436832e+00
1	 2.979644983366877e-01	 1.610162540781094e+00	-8.327023841149133e+00
1	 2.675908575899578e-01	 1.615487970533476e+00	-8.446711962288436e+00
1	 2.373056632887938e-01	 1.620213650163185e+00	-8.552066328701088e+00
1	 2.071247582534782e-01	 1.624347741255574e+00	-8.643200246872322e+00
1	 1.770634789605836e-01	 1.627898883352835e+00	-8.720259243661790e+00
1	 1.471366420679667e-01	 1.630876162853355e+00	-8.783419351343628e+00
1	 1.173585329103589e-01	 1.633289081808462e+00	-8.832885336073900e+00
1	 8.774289592431626e-02	 1.635147526743617e+00	-8.868888882583377e+00
1	 5.830292695333918e-02	 1.636461737624537e+00	-8.891686747465666e+00
1	 2.905126737680813e-02	 1.637242277081775e+00	-8.901558892923443e+00
1	 0.000000000000000e+00	 1.637500000000000e+00	-8.898806612258761e+00
1	 3.002390364920813e-01	 1.622453857884982e+00	-8.276878562236563e+00
1	 2.696335358920826e-01	 1.627819939773135e+00	-8.395877176138402e+00
1	 2.391171569014086e-01	 1.632581693293372e+00	-8.500524512402846e+00
1	 2.087058632779007e-01	 1.636747342333230e+00	-8.590935028709467e+00
1	 1.784151085704711e-01	 1.640325592385602e+00	-8.667255693498173e+00
1	 1.482598225412336e-01	 1.643325599210697e+00	-8.729664248796881e+00
1	 1.182543995732755e-01	 1.645756937394584e+00	-8.778367416130811e+00
1	 8.841268902251494e-02	 1.647629568932387e+00	-8.813599058476763e+00
1	 5.874798746408103e-02	 1.648953811957498e+00	-8.835618310787604e+00
1	 2.927303277643252e-02	 1.649740309731242e+00	-8.844707691095731e+00
1	 0.000000000000000e+00	 1.650000000000000e+00	-8.841171203618044e+00
1	 3.025135746474747e-01	 1.634745174989355e+00	-8.227165179644782e+00
1	 2.716762141942071e-01	 1.640151909013182e+00	-8.345480855887352e+00
1	 2.409286505140234e-01	 1.644949736423866e+00	-8.449428958095986e+00
1	 2.102869683023234e-01	 1.649146943411119e+00	-8.539125060280504e+00
1	 1.797667381803585e-01	 1.652752301418539e+00	-8.614717535908701e+00
1	 1.493830030145004e-01	 1.655775035568155e+00	-8.676385798695994e+00
1	 1.191502662361921e-01	 1.658224792980780e+00	-8.724338486130469e+00
1	 8.908248212071354e-02	 1.660111611121198e+00	-8.758811598860094e+00
1	 5.919304797482287e-02	 1.661445886290479e+00	-8.780066608622443e+00
1	 2.949479817605690e-02	 1.662238342380713e+00	-8.788388546870346e+00
1	 0.000000000000000e+00	 1.662500000000000e+00	-8.784084085652928e+00
1	 3.047881128028683e-01	 1.647036492094213e+00	-8.177874024052979e+00
1	 2.737188924963317e-01	 1.652483878253622e+00	-8.295513185134437e+00
1	 2.427401441266382e-01	 1.657317779554668e+00	-8.398769674840302e+00
1	 2.118680733267460e-01	 1.661546544489241e+00	-8.487760149427158e+00
1	 1.811183677902460e-01	 1.665179010451648e+00	-8.562634351656570e+00
1	 1.505061834877673e-01	 1.668224471925732e+00	-8.623573329717521e+00
1	 1.200461328991086e-01	 1.670692648567053e+00	-8.670787598536831e+00
1	 8.975227521891216e-02	 1.672593653310051e+00	-8.704515256767280e+00
1	 5.963810848556471e-02	 1.673937960623477e+00	-8.725020072287036e+00
1	 2.971656357568129e-02	 1.674736375030189e+00	-8.732589548509916e+00
1	 0.000000000000000e+00	 1.675000000000000e+00	-8.727532983199023e+00
1	 3.070626509582619e-01	 1.659327809199556e+00	-8.128995712638815e+00
1	 2.757615707984564e-01	 1.664815847494451e+00	-8.245964638335142e+00
1	 2.445516377392530e-01	 1.669685822685776e+00	-8.348536967723433e+00
1	 2.134491783511686e-01	 1.673946145567598e+00	-8.436830405980928e+00
1	 1.824699974001335e-01	 1.677605719484926e+00	-8.510996030223069e+00
1	 1.516293639610341e-01	 1.680673908283426e+00	-8.571216486725334e+00
1	 1.209419995620252e-01	 1.683160504153399e+00	-8.617704130185288e+00
1	 9.042206831711082e-02	 1.685075695498947e+00	-8.650699118475423e+00
1	 6.008316899630655e-02	 1.686430034956494e+00	-8.670467475874041e+00
1	 2.993832897530567e-02	 1.687234407679669e+00	-8.677299137217471e+00
1	 0.000000000000000e+00	 1.687500000000000e+00	-8.671505984800568e+00
1	 3.093371891136554e-01	 1.671619126305386e+00	-8.080521138545263e+00
1	 2.778042491005809e-01	 1.677147816735672e+00	-8.196825970107970e+00
1	 2.463631313518678e-01	 1.682053865817191e+00	-8.298721426977460e+00
1	 2.150302833755913e-01	 1.686345746646188e+00	-8.386326230660796e+00
1	 1.838216270100210e-01	 1.690032428518376e+00	-8.459792758457782e+00
1	 1.527525444343010e-01	 1.693123344641238e+00	-8.519305219146196e+00
1	 1.218378662249418e-01	 1.695628359739820e+00	-8.565077770357213e+00
1	 9.109186141530945e-02	 1.697557737687884e+00	-8.597352591253646e+00
1	 6.052822950704838e-02	 1.698922109289530e+00	-8.616397923649862e+00
1	 3.016009437493006e-02	 1.699732440329154e+00	-8.622506094160654e+00
1	 0.000000000000000e+00	 1.700000000000000e+00	-8.615991529338695e+00
1	 3.116117272690490e-01	 1.683910443411700e+00	-8.032441460808911e+00
1	 2.798469274027056e-01	 1.689479785977283e+00	-8.148088205009611e+00
1	 2.481746249644826e-01	 1.694421908948912e+00	-8.249313917572357e+00
1	 2.166113884000138e-01	 1.698745347725011e+00	-8.336238304456565e+00
1	 1.851732566199084e-01	 1.702459137551994e+00	-8.409015009725596e+00
1	 1.538757249075678e-01	 1.705572780999167e+00	-8.467829769854189e+00
1	 1.227337328878583e-01	 1.708096215326316e+00	-8.512898509376942e+00
1	 9.176165451350807e-02	 1.710039779876861e+00	-8.544465391647883e+00
1	 6.097329001779021e-02	 1.711414183622584e+00	-8.562800838004589e+00
1	 3.038185977455445e-02	 1.712230472978645e+00	-8.568199528064193e+00
1	 0.000000000000000e+00	 1.712500000000000e+00	-8.560978393245456e+00
1	 3.138862654244425e-01	 1.696201760518499e+00	-7.984748094726225e+00
1	 2.818896057048302e-01	 1.701811755219286e+00	-8.099742627754592e+00
1	 2.499861185770973e-01	 1.706789952080941e+00	-8.200305569261431e+00
1	 2.181924934244365e-01	 1.711144948804068e+00	-8.286557578474415e+00
1	 1.865248862297958e-01	 1.714885846585784e+00	-8.358653533525670e+00
1	 1.549989053808347e-01	 1.718022217357214e+00	-8.416780664538802e+00
1	 1.236295995507749e-01	 1.720564070912886e+00	-8.461156627704211e+00
1	 9.243144761170670e-02	 1.722521822065882e+00	-8.492027534275147e+00
1	 6.141835052853206e-02	 1.723906257955657e+00	-8.509665947925601e+00
1	 3.060362517417883e-02	 1.724728505628139e+00	-8.514368863342035e+00
1	 0.000000000000000e+00	 1.725000000000000e+00	-8.506455678273722e+00
1	 3.161608035798359e-01	 1.708493077625785e+00	-7.937432702635457e+00
1	 2.839322840069549e-01	 1.714143724461679e+00	-8.051780773856880e+00
1	 2.517976121897121e-01	 1.719157995213276e+00	-8.151687767056996e+00
1	 2.197735984488592e-01	 1.723544549883358e+00	-8.237275264220116e+00
1	 1.878765158396833e-01	 1.727312555619745e+00	-8.308699345558734e+00
1	 1.561220858541015e-01	 1.730471653715379e+00	-8.366148701531314e+00
1	 1.245254662136915e-01	 1.733031926499532e+00	-8.409842685497868e+00
1	 9.310124070990533e-02	 1.735003864254944e+00	-8.440029321101608e+00
1	 6.186341103927389e-02	 1.736398332288747e+00	-8.456983277969002e+00
1	 3.082539057380321e-02	 1.737226538277638e+00	-8.461003828741477e+00
1	 0.000000000000000e+00	 1.737499999999999e+00	-8.452412799794981e+00
1	 3.184353417352296e-01	 1.720784394733555e+00	-7.890487185093790e+00
1	 2.859749623090795e-01	 1.726475693704463e+00	-8.004194420673080e+00
1	 2.536091058023270e-01	 1.731526038345919e+00	-8.103452142113685e+00
1	 2.213547034732818e-01	 1.735944150962882e+00	-8.188382824299621e+00
1	 1.892281454495708e-01	 1.739739264653876e+00	-8.259143718219768e+00
1	 1.572452663273684e-01	 1.742921090073661e+00	-8.315924942067991e+00
1	 1.254213328766080e-01	 1.745499782086253e+00	-8.358947512626511e+00
1	 9.377103380810400e-02	 1.747485906444048e+00	-8.388461331180160e+00
1	 6.230847155001576e-02	 1.748890406621857e+00	-8.404743137703630e+00
1	 3.104715597342760e-02	 1.749724570927141e+00	-8.408094446474202e+00
1	 0.000000000000000e+00	 1.750000000000000e+00	-8.398839475598674e+00
1	 1.750000000000000e+00	 0.000000000000000e+00	 5.929295986499727e-01
1	 1.749724570927141e+00	 3.104715597342660e-02	 6.075235660771668e-01
1	 1.748890406621857e+00	 6.230847155001488e-02	 6.186101332354437e-01
1	 1.747485906444049e+00	 9.377103380810323e-02	 6.259764916235192e-01
1	 1.745499782086252e+00	 1.254213328766073e-01	 6.294122283050670e-01
1	 1.742921090073661e+00	 1.572452663273678e-01	 6.287102064102164e-01
1	 1.739739264653876e+00	 1.892281454495704e-01	 6.236674768987798e-01
1	 1.735944150962882e+00	 2.213547034732815e-01	 6.140862179736128e-01
1	 1.731526038345919e+00	 2.536091058023268e-01	 5.997746980893706e-01
1	 1.726475693704463e+00	 2.859749623090794e-01	 5.805482580649304e-01
1	 1.720784394733555e+00	 3.184353417352296e-01	 5.562303073821229e-01
1	 1.762500000000000e+00	 0.000000000000000e+00	 5.906101259108527e-01
1	 1.762222603576645e+00	 3.126892137305098e-02	 6.049243578186210e-01
1	 1.761382480954966e+00	 6.275353206075669e-02	 6.158276021425432e-01
1	 1.759967948633153e+00	 9.444082690630186e-02	 6.231082228855900e-01
1	 1.757967637672972e+00	 1.263171995395239e-01	 6.265569186408004e-01
1	 1.755370526431943e+00	 1.583684468006347e-01	 6.259676012971191e-01
1	 1.752165973688007e+00	 1.905797750594578e-01	 6.211383061634450e-01
1	 1.748343752042406e+00	 2.229358084977041e-01	 6.118721299059915e-01
1	 1.743894081478562e+00	 2.554205994149417e-01	 5.979781922494745e-01
1	 1.738807662947248e+00	 2.880176406112040e-01	 5.792726169545493e-01
1	 1.733075711841326e+00	 3.207098798906232e-01	 5.555795271568442e-01
1	 1.775000000000000e+00	 0.000000000000000e+00	 5.901293079613374e-01
1	 1.774720636226143e+00	 3.149068677267536e-02	 6.041633377513520e-01
1	 1.773874555288057e+00	 6.319859257149853e-02	 6.148826915858207e-01
1	 1.772449990822214e+00	 9.511062000450050e-02	 6.220769046574675e-01
1	 1.770435493259618e+00	 1.272130662024405e-01	 6.255377859566953e-01
1	 1.767819962790108e+00	 1.594916272739015e-01	 6.250602951927662e-01
1	 1.764592682721967e+00	 1.919314046693453e-01	 6.204434512895929e-01
1	 1.760743353121696e+00	 2.245169135221267e-01	 6.114912688574514e-01
1	 1.756262124610897e+00	 2.572320930275563e-01	 5.980137185967075e-01
1	 1.751139632189640e+00	 2.900603189133286e-01	 5.798277071497273e-01
1	 1.745367028948611e+00	 3.229844180460166e-01	 5.567580714890692e-01
1	 1.787500000000000e+00	 0.000000000000000e+00	 5.914485716240596e-01
1	 1.787218668875638e+00	 3.171245217229974e-02	 6.052019424867715e-01
1	 1.786366629621130e+00	 6.364365308224038e-02	 6.157368500855280e-01
1	 1.784932033011234e+00	 9.578041310269911e-02	 6.228439995159309e-01
1	 1.782903348846188e+00	 1.281089328653570e-01	 6.263163090574350e-01
1	 1.780269399148155e+00	 1.606148077471684e-01	 6.259497853208640e-01
1	 1.777019391755757e+00	 1.932830342792328e-01	 6.215444301264201e-01
1	 1.773142954200753e+00	 2.260980185465493e-01	 6.129051755200932e-01
1	 1.768630167742926e+00	 2.590435866401711e-01	 5.998428428896438e-01
1	 1.763471601431642e+00	 2.921029972154534e-01	 5.821751217003202e-01
1	 1.757658346055410e+00	 3.252589562014102e-01	 5.597275629409335e-01
1	 1.800000000000000e+00	 0.000000000000000e+00	 5.945304151988002e-01
1	 1.799716701525128e+00	 3.193421757192412e-02	 6.080026798415200e-01
1	 1.798858703954184e+00	 6.408871359298220e-02	 6.183525970363620e-01
1	 1.797414075200213e+00	 9.645020620089774e-02	 6.253720405217129e-01
1	 1.795371204432684e+00	 1.290047995282736e-01	 6.288550367809091e-01
1	 1.792718835506084e+00	 1.617379882204352e-01	 6.285986384266746e-01
1	 1.789446100789376e+00	 1.946346638891202e-01	 6.244038294717762e-01
1	 1.785542555279577e+00	 2.276791235709719e-01	 6.160764589001304e-01
1	 1.780998210874648e+00	 2.608550802527859e-01	 6.034281985046619e-01
1	 1.775803570673254e+00	 2.941456755175779e-01	 5.862775205159207e-01
1	 1.769949663161724e+00	 3.275334943568037e-01	 5.644506901145093e-01
1	 1.812500000000000e+00	 0.000000000000000e+00	 5.993383715149954e-01
1	 1.812214734174612e+00	 3.215598297154849e-02	 6.125290918993611e-01
1	 1.811350778287220e+00	 6.453377410372405e-02	 6.226934857807448e-01
1	 1.809896117389150e+00	 9.711999929909636e-02	 6.296245943063060e-01
1	 1.807839060019105e+00	 1.299006661911902e-01	 6.331175511005152e-01
1	 1.805168271863896e+00	 1.628611686937021e-01	 6.329704538969678e-01
1	 1.801872809822825e+00	 1.959862934990077e-01	 6.289852682118280e-01
1	 1.797942156358166e+00	 2.292602285953945e-01	 6.209687594794626e-01
1	 1.793366254006062e+00	 2.626665738654007e-01	 6.087334496215581e-01
1	 1.788135539914474e+00	 2.961883538197025e-01	 5.920985935775567e-01
1	 1.782240980267553e+00	 3.298080325121973e-01	 5.708911708918051e-01
1	 1.825000000000000e+00	 0.000000000000000e+00	 6.058369725026488e-01
1	 1.824712766824093e+00	 3.237774837117288e-02	 6.187457195910846e-01
1	 1.823842852620237e+00	 6.497883461446587e-02	 6.287240681996691e-01
1	 1.822378159578045e+00	 9.778979239729499e-02	 6.355662256756702e-01
1	 1.820306915605452e+00	 1.307965328541067e-01	 6.390684317437988e-01
1	 1.817617708221590e+00	 1.639843491669689e-01	 6.390298283955882e-01
1	 1.814299518856104e+00	 1.973379231088951e-01	 6.352533619755933e-01
1	 1.810341757436523e+00	 2.308413336198172e-01	 6.275467138911648e-01
1	 1.805734297137171e+00	 2.644780674780155e-01	 6.157232559220380e-01
1	 1.800467509155304e+00	 2.982310321218272e-01	 5.996030256613121e-01
1	 1.794532297372897e+00	 3.320825706675907e-01	 5.790137171854568e-01
1	 1.837500000000000e+00	 0.000000000000000e+00	 6.139917152093115e-01
1	 1.837210799473569e+00	 3.259951377079726e-02	 6.266180687201078e-01
1	 1.836334926953235e+00	 6.542389512520771e-02	 6.364098607487871e-01
1	 1.834860201766898e+00	 9.845958549549363e-02	 6.431624636587359e-01
1	 1.832774771191723e+00	 1.316923995170233e-01	 6.466732222552445e-01
1	 1.830067144579166e+00	 1.651075296402358e-01	 6.467423219424592e-01
1	 1.826726227889211e+00	 1.986895527187826e-01	 6.431736892321125e-01
1	 1.822741358514645e+00	 2.324224386442398e-01	 6.357759210368068e-01
1	 1.818102340267972e+00	 2.662895610906304e-01	 6.243632387291329e-01
1	 1.812799478395743e+00	 3.002737104239518e-01	 6.087564625017254e-01
1	 1.806823614477755e+00	 3.343571088229843e-01	 5.887840011281580e-01
1	 1.850000000000000e+00	 0.000000000000000e+00	 6.237690291947635e-01
1	 1.849708832123041e+00	 3.282127917042164e-02	 6.361125773654376e-01
1	 1.848827001286216e+00	 6.586895563594955e-02	 6.457173118714399e-01
1	 1.847342243955709e+00	 9.912937859369225e-02	 6.523797689322997e-01
1	 1.845242626777920e+00	 1.325882661799398e-01	 6.558983974348869e-01
1	 1.842516580936625e+00	 1.662307101135026e-01	 6.560744253677886e-01
1	 1.839152936922149e+00	 2.000411823286701e-01	 6.527127587620725e-01
1	 1.835140959592534e+00	 2.340035436686624e-01	 6.456229095773606e-01
1	 1.830470383398466e+00	 2.681010547032451e-01	 6.346199485192893e-01
1	 1.825131447635792e+00	 3.023163887260764e-01	 6.195254783270105e-01
1	 1.819114931582128e+00	 3.366316469783779e-01	 6.001686226328050e-01
1	 1.862500000000000e+00	 0.000000000000000e+00	 6.351362452386558e-01
1	 1.862206864772507e+00	 3.304304457004600e-02	 6.471965845972356e-01
1	 1.861319075619178e+00	 6.631401614669137e-02	 6.566137707238984e-01
1	 1.859824286144479e+00	 9.979917169189090e-02	 6.631855025576652e-01
1	 1.857710482364042e+00	 1.334841328428564e-01	 6.667113320881328e-01
1	 1.854966017293967e+00	 1.673538905867695e-01	 6.669935290768003e-01
1	 1.851579645954916e+00	 2.013928119385575e-01	 6.638379784392965e-01
1	 1.847540560670190e+00	 2.355846486930850e-01	 6.570551067332442e-01
1	 1.842838426528654e+00	 2.699125483158599e-01	 6.464608337427463e-01
1	 1.837463416875449e+00	 3.043590670282010e-01	 6.318775447015105e-01
1	 1.831406248686016e+00	 3.389061851337714e-01	 6.131350782589070e-01
1	 1.875000000000000e+00	 0.000000000000000e+00	 6.480615652998463e-01
1	 1.874704897421970e+00	 3.326480996967039e-02	 6.598383004438001e-01
1	 1.873811149952121e+00	 6.675907665743323e-02	 6.690674571515964e-01
1	 1.872306328333207e+00	 1.004689647900895e-01	 6.755478959678513e-01
1	 1.870178337950090e+00	 1.343799995057729e-01	 6.790802710255723e-01
1	 1.867415453651191e+00	 1.684770710600364e-01	 6.794678930639130e-01
1	 1.864006354987513e+00	 2.027444415484450e-01	 6.765176252609644e-01
1	 1.859940161747613e+00	 2.371657537175077e-01	 6.700408083323262e-01
1	 1.855206469658534e+00	 2.717240419284748e-01	 6.598542108910619e-01
1	 1.849795386114716e+00	 3.064017453303257e-01	 6.457810006145352e-01
1	 1.843697565789419e+00	 3.411807232891650e-01	 6.276517313243943e-01
1	 1.720784394733555e+00	 3.184353417352296e-01	 5.562303073821229e-01
1	 1.714443962907183e+00	 3.509727882336210e-01	 5.605543814476658e-01
1	 1.707446796063893e+00	 3.835693400749201e-01	 5.598368554337410e-01
1	 1.699785900439417e+00	 4.162065505333916e-01	 5.537459965422168e-01
1	 1.691454921988814e+00	 4.488655109548259e-01	 5.419558734898015e-01
1	 1.682448176837619e+00	 4.815268759957912e-01	 5.241478471614052e-01
1	 1.672760680698918e+00	 5.141708910118742e-01	 5.000120873323038e-01
1	 1.662388177092036e+00	 5.467774215590895e-01	 4.692491070498767e-01
1	 1.651327164198396e+00	 5.793259849590476e-01	 4.315713057038258e-01
1	 1.639574920191208e+00	 6.117957838646149e-01	 3.867045113093933e-01
1	 1.627129526877964e+00	 6.441657417487923e-01	 3.343895120903153e-01
1	 1.733075711841326e+00	 3.207098798906232e-01	 5.555795271568442e-01
1	 1.726689991216679e+00	 3.534797367214088e-01	 5.595592460701219e-01
1	 1.719642844610636e+00	 3.863091210761491e-01	 5.586732461582783e-01
1	 1.711927228303469e+00	 4.191794544667827e-01	 5.525883026089441e-01
1	 1.703536742864199e+00	 4.520716931772842e-01	 5.409765785168713e-01
1	 1.694465663819255e+00	 4.849663536831973e-01	 5.235171128427007e-01
1	 1.684708971279676e+00	 5.178435402355064e-01	 4.998973362833667e-01
1	 1.674262378361351e+00	 5.506829745727694e-01	 4.698146067191171e-01
1	 1.663122358232710e+00	 5.834640277117502e-01	 4.329777553289028e-01
1	 1.651286169625344e+00	 6.161657537528370e-01	 3.891086339486174e-01
1	 1.638751880645368e+00	 6.487669256224087e-01	 3.379436537950487e-01
1	 1.745367028948611e+00	 3.229844180460166e-01	 5.567580714890692e-01
1	 1.738936019525595e+00	 3.559866852091919e-01	 5.603766845243094e-01
1	 1.731838893156713e+00	 3.890489020773594e-01	 5.593041634631537e-01
1	 1.724068556166777e+00	 4.221523584001311e-01	 5.532058000126852e-01
1	 1.715618563738773e+00	 4.552778753996662e-01	 5.417518634555203e-01
1	 1.706483150800026e+00	 4.884058313704840e-01	 5.246190859802676e-01
1	 1.696657261859521e+00	 5.215161894589655e-01	 5.014921777536369e-01
1	 1.686136579629713e+00	 5.545885275862120e-01	 4.720653634727528e-01
1	 1.674917552266045e+00	 5.876020704641420e-01	 4.360439315513648e-01
1	 1.662997419058485e+00	 6.205357236406640e-01	 3.931457865636278e-01
1	 1.650374234411771e+00	 6.533681094955353e-01	 3.431029951039060e-01
1	 1.757658346055410e+00	 3.252589562014102e-01	 5.597275629409335e-01
1	 1.751182047833929e+00	 3.584936336969702e-01	 5.629686707861917e-01
1	 1.744034941702122e+00	 3.917886830785507e-01	 5.616919599380008e-01
1	 1.736209884029342e+00	 4.251252623334367e-01	 5.555612469775342e-01
1	 1.727700384612536e+00	 4.584840576219720e-01	 5.442449189373654e-01
1	 1.718500637779927e+00	 4.918453090576508e-01	 5.274174160683971e-01
1	 1.708605552438449e+00	 5.251888386822515e-01	 5.047607461661214e-01
1	 1.698010780897124e+00	 5.584940805994180e-01	 4.759660222673644e-01
1	 1.686712746298402e+00	 5.917401132162234e-01	 4.407350149323794e-01
1	 1.674708668490632e+00	 6.249056935280959e-01	 3.987817097845439e-01
1	 1.661996588177176e+00	 6.579692933681721e-01	 3.498338605009163e-01
1	 1.769949663161724e+00	 3.275334943568037e-01	 5.644506901145093e-01
1	 1.763428076141683e+00	 3.610005821847440e-01	 5.672982351101883e-01
1	 1.756230990246865e+00	 3.945284640797232e-01	 5.658000339338508e-01
1	 1.748351211891164e+00	 4.280981662666999e-01	 5.596184362213720e-01
1	 1.739782205485490e+00	 4.616902398442015e-01	 5.484199580764743e-01
1	 1.730518124758961e+00	 4.952847867446978e-01	 5.318767623376547e-01
1	 1.720553843016463e+00	 5.288614879053642e-01	 5.096681722098750e-01
1	 1.709884982163583e+00	 5.623996336123871e-01	 4.814822101440864e-01
1	 1.698507940329780e+00	 5.958781559679937e-01	 4.470171532397716e-01
1	 1.686419917921784e+00	 6.292756634151330e-01	 4.059830958906665e-01
1	 1.673618941941580e+00	 6.625704772403191e-01	 3.581035099011409e-01
1	 1.782240980267553e+00	 3.298080325121973e-01	 5.708911708918051e-01
1	 1.775674104448857e+00	 3.635075306725129e-01	 5.733294276057601e-01
1	 1.768427038790941e+00	 3.972682450808769e-01	 5.715927935023999e-01
1	 1.760492539752241e+00	 4.310710701999204e-01	 5.653421592836531e-01
1	 1.751864026357632e+00	 4.648964220663550e-01	 5.542421812113681e-01
1	 1.742535611737127e+00	 4.987242644316255e-01	 5.379627589363956e-01
1	 1.732502133593562e+00	 5.325341371283038e-01	 5.161805484859870e-01
1	 1.721759183429090e+00	 5.663051866251195e-01	 4.885805023636216e-01
1	 1.710303134360180e+00	 6.000161987194534e-01	 4.548574280960626e-01
1	 1.698131167351941e+00	 6.336456333017750e-01	 4.147175559950023e-01
1	 1.685241295704983e+00	 6.671716611119766e-01	 3.678801063944174e-01
1	 1.794532297372897e+00	 3.320825706675907e-01	 5.790137171854568e-01
1	 1.787920132755449e+00	 3.660144791602774e-01	 5.810272833108727e-01
1	 1.780623087334351e+00	 4.000080260820117e-01	 5.790356218172140e-01
1	 1.772633867612575e+00	 4.340439741330983e-01	 5.726981723191964e-01
1	 1.763945847228964e+00	 4.681026042884321e-01	 5.616777420959566e-01
1	 1.754553098714425e+00	 5.021637421184332e-01	 5.456419815431642e-01
1	 1.744450424169746e+00	 5.362067863510702e-01	 5.242648965653962e-01
1	 1.733633384693645e+00	 5.702107396376150e-01	 4.972283899329766e-01
1	 1.722098328389602e+00	 6.041542414706025e-01	 4.642238229971467e-01
1	 1.709842416781103e+00	 6.380156031880218e-01	 4.249535885773363e-01
1	 1.696863649467388e+00	 6.717728449831445e-01	 3.791326853147258e-01
1	 1.806823614477755e+00	 3.343571088229843e-01	 5.887840011281580e-01
1	 1.800166161061462e+00	 3.685214276480370e-01	 5.903577886910261e-01
1	 1.792819135877093e+00	 4.027478070831276e-01	 5.880948440063252e-01
1	 1.784775195472166e+00	 4.370168780662335e-01	 5.816531632881401e-01
1	 1.776027668099485e+00	 4.713087865104332e-01	 5.706937154704362e-01
1	 1.766570585690856e+00	 5.056032198051217e-01	 5.548819153418671e-01
1	 1.756398714745015e+00	 5.398794355736636e-01	 5.338891353912726e-01
1	 1.745507585957248e+00	 5.741162926498736e-01	 5.073942484576202e-01
1	 1.733893522418045e+00	 6.082922842214408e-01	 4.750851926363328e-01
1	 1.721553666209272e+00	 6.423855730738739e-01	 4.366605493017018e-01
1	 1.708486003228792e+00	 6.763740288538224e-01	 3.918311245720106e-01
1	 1.819114931582128e+00	 3.366316469783779e-01	 6.001686226328050e-01
1	 1.812412189366892e+00	 3.710283761357918e-01	 6.012878494964472e-01
1	 1.805015184419169e+00	 4.054875880842249e-01	 5.987376953294348e-01
1	 1.796916523331014e+00	 4.399897819993261e-01	 5.921747204760188e-01
1	 1.788109488969196e+00	 4.745149687323580e-01	 5.812580659469112e-01
1	 1.778588072666419e+00	 5.090426974916901e-01	 5.656509242952263e-01
1	 1.768347005319369e+00	 5.435520847960839e-01	 5.450220509623838e-01
1	 1.757381787219899e+00	 5.780218456618955e-01	 5.190473082563942e-01
1	 1.745688716445509e+00	 6.124303269719682e-01	 4.874112334719852e-01
1	 1.733264915636445e+00	 6.467555429593308e-01	 4.498086220574509e-01
1	 1.720108356989195e+00	 6.809752127240108e-01	 4.059461161867858e-01
1	 1.831406248686016e+00	 3.389061851337714e-01	 6.131350782589070e-01
1	 1.824658217671743e+00	 3.735353246235422e-01	 6.137852599135818e-01
1	 1.817211232960577e+00	 4.082273690853030e-01	 6.109322906365942e-01
1	 1.809057851189117e+00	 4.429626859323761e-01	 6.042313022815159e-01
1	 1.800191309838096e+00	 4.777211509542068e-01	 5.933396181478900e-01
1	 1.790605559641113e+00	 5.124821751781390e-01	 5.779182216555637e-01
1	 1.780295295892808e+00	 5.472247340183306e-01	 5.576332672372748e-01
1	 1.769255988481599e+00	 5.819273986736807e-01	 5.321576256798722e-01
1	 1.757483910471995e+00	 6.165683697221850e-01	 5.011724554803831e-01
1	 1.744976165062624e+00	 6.511255128443929e-01	 4.643687911664484e-01
1	 1.731730710748600e+00	 6.855763965937093e-01	 4.214491389709776e-01
1	 1.843697565789419e+00	 3.411807232891650e-01	 6.276517313243943e-01
1	 1.836904245976013e+00	 3.760422731112877e-01	 6.278186729505810e-01
1	 1.829407281501320e+00	 4.109671500863628e-01	 6.246475950485203e-01
1	 1.821199179046478e+00	 4.459355898653836e-01	 6.177922082126880e-01
1	 1.812273130706186e+00	 4.809273331759791e-01	 6.069080280392966e-01
1	 1.802623046614941e+00	 5.159216528644683e-01	 5.916538416551500e-01
1	 1.792243586465333e+00	 5.508973832404047e-01	 5.716932182022798e-01
1	 1.781130189742346e+00	 5.858329516852289e-01	 5.466960555759562e-01
1	 1.769279104497502e+00	 6.207064124720912e-01	 5.163401550384576e-01
1	 1.756687414487809e+00	 6.554954827290598e-01	 4.803128147019998e-01
1	 1.743353064507004e+00	 6.901775804629183e-01	 4.383124323015523e-01
1	 1.627129526877964e+00	 6.441657417487923e-01	 3.343895120903153e-01
1	 1.613989891498045e+00	 6.764145402254381e-01	 2.966562041864388e-01
1	 1.600155766523939e+00	 7.085206580967053e-01	 2.522204371465391e-01
1	 1.585627767319404e+00	 7.404624120079153e-01	 2.006806930436234e-01
1	 1.570407387515452e+00	 7.722179985775097e-01	 1.416483301108245e-01
1	 1.554497011975571e+00	 8.037655378569363e-01	 7.474953738615232e-02
1	 1.537899927230667e+00	 8.350831179629202e-01	-3.727306555490195e-04
1	 1.520620329275986e+00	 8.661488407132029e-01	-8.405685285737698e-02
1	 1.502663328635016e+00	 8.969408680863412e-01	-1.766206870614856e-01
1	 1.484034952609081e+00	 9.274374693167079e-01	-2.783597762902759e-01
1	 1.464742144646208e+00	 9.576170684275745e-01	-3.895456288989237e-01
1	 1.638751880645368e+00	 6.487669256224087e-01	 3.379436537950487e-01
1	 1.625518390726798e+00	 6.812460726600401e-01	 3.003628581994047e-01
1	 1.611585450574138e+00	 7.135815199449438e-01	 2.562085240595811e-01
1	 1.596953679946601e+00	 7.457514292413342e-01	 2.050696711071458e-01
1	 1.581624583143993e+00	 7.777338414292114e-01	 1.465477790570719e-01
1	 1.565600562064543e+00	 8.095067202746747e-01	 8.025877600452208e-02
1	 1.548884926714374e+00	 8.410479973809957e-01	 5.835009510456818e-03
1	 1.531481903060134e+00	 8.723356181503270e-01	-7.707281316999955e-02
1	 1.513396638129045e+00	 9.033475885753565e-01	-1.687937294540617e-01
1	 1.494635202274586e+00	 9.340620226707022e-01	-2.696346841889649e-01
1	 1.475204588540842e+00	 9.644571903455147e-01	-3.798787645178977e-01
1	 1.650374234411771e+00	 6.533681094955353e-01	 3.431029951039060e-01
1	 1.637046889954552e+00	 6.860776050940667e-01	 3.056275819718071e-01
1	 1.623015134623337e+00	 7.186423817925500e-01	 2.617065200539180e-01
1	 1.608279592572798e+00	 7.510404464740931e-01	 2.109194428688078e-01
1	 1.592841778771534e+00	 7.832496842802550e-01	 1.528580314560924e-01
1	 1.576704112152514e+00	 8.152479026917873e-01	 8.712803632625148e-02
1	 1.559869926197083e+00	 8.470128767985073e-01	 1.335128477939240e-02
1	 1.542343476843282e+00	 8.785223955869790e-01	-6.883234012451650e-02
1	 1.524129947622075e+00	 9.097543090640229e-01	-1.597629628785744e-01
1	 1.505235451939092e+00	 9.406865760245012e-01	-2.597588351428671e-01
1	 1.485667032434476e+00	 9.712973122634445e-01	-3.691145256208022e-01
1	 1.661996588177176e+00	 6.579692933681721e-01	 3.498338605009163e-01
1	 1.648575389181304e+00	 6.909091375275175e-01	 3.124176887256622e-01
1	 1.634444818671535e+00	 7.237032436395238e-01	 2.686827487154159e-01
1	 1.619605505197995e+00	 7.563294637061926e-01	 2.181993623070981e-01
1	 1.604058974398076e+00	 7.887655271306413e-01	 1.605494900327359e-01
1	 1.587807662239485e+00	 8.209890851082737e-01	 9.532878642752088e-02
1	 1.570854925678792e+00	 8.529777562154547e-01	 2.214864336584113e-02
1	 1.553205050625430e+00	 8.847091730231600e-01	-5.936179246282103e-02
1	 1.534863257114104e+00	 9.161610295523409e-01	-1.495536420688291e-01
1	 1.515835701602599e+00	 9.473111293781052e-01	-2.487563709063800e-01
1	 1.496129476327111e+00	 9.781374341813636e-01	-3.572759340510596e-01
1	 1.673618941941580e+00	 6.625704772403191e-01	 3.581035099011409e-01
1	 1.660103888407058e+00	 6.957406699603933e-01	 3.207013996490585e-01
1	 1.645874502718734e+00	 7.287641054858656e-01	 2.771064135303443e-01
1	 1.630931417822192e+00	 7.616184809376318e-01	 2.268796346788798e-01
1	 1.615276170023616e+00	 7.942813699803695e-01	 1.695933796583788e-01
1	 1.598911212325456e+00	 8.267302675241344e-01	 1.048332869379411e-01
1	 1.581839925159500e+00	 8.589426356318381e-01	 3.220039603396760e-02
1	 1.564066624406578e+00	 8.908959504588688e-01	-4.868679673955800e-02
1	 1.545596566605134e+00	 9.225677500403102e-01	-1.381903202382741e-01
1	 1.526435951265105e+00	 9.539356827315140e-01	-2.366507626296417e-01
1	 1.506591920218745e+00	 9.849775560992717e-01	-3.443853721564790e-01
1	 1.685241295704983e+00	 6.671716611119766e-01	 3.678801063944174e-01
1	 1.671632387631811e+00	 7.005722023926938e-01	 3.304478125869807e-01
1	 1.657304186764933e+00	 7.338249673315752e-01	 2.869475675439842e-01
1	 1.642257330445389e+00	 7.669074981684119e-01	 2.369312871649698e-01
1	 1.626493365648157e+00	 7.997972128294403e-01	 1.799617190010455e-01
1	 1.610014762410427e+00	 8.324714499393688e-01	 1.156145637111218e-01
1	 1.592824924639209e+00	 8.649075150476579e-01	 4.348058980270195e-02
1	 1.574928198186726e+00	 8.970827278941063e-01	-3.683227256994812e-02
1	 1.556329876095164e+00	 9.289744705279305e-01	-1.256968732703518e-01
1	 1.537036200926610e+00	 9.605602360847276e-01	-2.234648339828185e-01
1	 1.517054364109380e+00	 9.918176780171698e-01	-3.304646048408130e-01
1	 1.696863649467388e+00	 6.717728449831445e-01	 3.791326853147258e-01
1	 1.683160886855564e+00	 7.054037348244186e-01	 3.416268720188156e-01
1	 1.668733870810132e+00	 7.388858291766527e-01	 2.981770842661342e-01
1	 1.653583243067586e+00	 7.721965153985318e-01	 2.483261407220544e-01
1	 1.637710561271698e+00	 8.053130556778525e-01	 1.916272933405933e-01
1	 1.621118312494399e+00	 8.382126323539776e-01	 1.276463816183755e-01
1	 1.603809924117917e+00	 8.708723944629133e-01	 5.596398273153652e-02
1	 1.585789771965874e+00	 9.032695053288717e-01	-2.382245684005097e-02
1	 1.567063185584193e+00	 9.353811910152019e-01	-1.120965229147366e-01
1	 1.547636450587117e+00	 9.671847894377464e-01	-2.092207833300667e-01
1	 1.527516807999014e+00	 9.986577999350574e-01	-3.155348007091172e-01
1	 1.708486003228792e+00	 6.763740288538224e-01	 3.918311245720106e-01
1	 1.694689386078318e+00	 7.102352672555683e-01	 3.542093402612602e-01
1	 1.680163554854331e+00	 7.439466910210980e-01	 3.107666297641629e-01
1	 1.664909155688782e+00	 7.774855326279917e-01	 2.610367830835127e-01
1	 1.648927756894240e+00	 8.108288985256076e-01	 2.045636284934770e-01
1	 1.632221862577370e+00	 8.439538147679603e-01	 1.409032194120568e-01
1	 1.614794923595626e+00	 8.768372738776048e-01	 6.962601973547880e-02
1	 1.596651345744023e+00	 9.094562827631659e-01	-9.680926928837763e-03
1	 1.577796495072223e+00	 9.417879115021248e-01	-9.741185903677740e-02
1	 1.558236700246622e+00	 9.738093427905699e-01	-1.939402049984402e-01
1	 1.537979251887649e+00	 1.005497921852934e+00	-2.996165523500057e-01
1	 1.720108356989195e+00	 6.809752127240108e-01	 4.059461161867858e-01
1	 1.706217885300071e+00	 7.150667996861424e-01	 3.681667698386855e-01
1	 1.691593238897530e+00	 7.490075528649108e-01	 3.246886358874055e-01
1	 1.676235068308979e+00	 7.827745498567924e-01	 2.750365428547951e-01
1	 1.660144952515781e+00	 8.163447413727047e-01	 2.187449657946243e-01
1	 1.643325412659340e+00	 8.496949971813165e-01	 1.553602456079627e-01
1	 1.625779923072334e+00	 8.828021532917318e-01	 8.444280938046247e-02
1	 1.607512919521170e+00	 9.156430601969879e-01	 5.569377011161114e-03
1	 1.588529804559253e+00	 9.481946319886988e-01	-8.166486096494380e-02
1	 1.568836949905128e+00	 9.804338961431981e-01	-1.776441096845728e-01
1	 1.548441695775283e+00	 1.012338043770800e+00	-2.827298957956729e-01
1	 1.731730710748600e+00	 6.855763965937093e-01	 4.214491389709776e-01
1	 1.717746384520824e+00	 7.198983321161414e-01	 3.834714769660935e-01
1	 1.703022922939729e+00	 7.540684147080918e-01	 3.399162745697923e-01
1	 1.687560980928176e+00	 7.880635670849330e-01	 2.902994646519468e-01
1	 1.671362148136322e+00	 8.218605842191440e-01	 2.341462380867453e-01
1	 1.654428962740312e+00	 8.554361795940472e-01	 1.709932953389059e-01
1	 1.636764922548042e+00	 8.887670327052954e-01	 1.003911016131938e-01
1	 1.618374493297319e+00	 9.218298376303385e-01	 2.190613067041952e-02
1	 1.599263114045282e+00	 9.546013524749239e-01	-6.487691797864120e-02
1	 1.579437199562634e+00	 9.870584494956315e-01	-1.603529440395616e-01
1	 1.558904139661917e+00	 1.019178165688655e+00	-2.648943291982813e-01
1	 1.743353064507004e+00	 6.901775804629183e-01	 4.383124323015523e-01
1	 1.729274883740578e+00	 7.247298645455649e-01	 4.000965160927732e-01
1	 1.714452606980928e+00	 7.591292765506406e-01	 3.564234331603557e-01
1	 1.698886893546374e+00	 7.933525843124138e-01	 3.068002852345910e-01
1	 1.682579343755863e+00	 8.273764270649256e-01	 2.507430466700765e-01
1	 1.665532512820283e+00	 8.611773620061519e-01	 1.877788481341544e-01
1	 1.647749922022751e+00	 8.947319121182951e-01	 1.174482663817877e-01
1	 1.629236067072467e+00	 9.280166150632179e-01	 3.930760505431652e-02
1	 1.609996423530313e+00	 9.610080729608007e-01	-4.706884897650493e-02
1	 1.590037449219140e+00	 9.936830028478698e-01	-1.420866094704960e-01
1	 1.569366583547552e+00	 1.026018287606500e+00	-2.461288307592923e-01
1	 1.464742144646208e+00	 9.576170684275745e-01	-3.895456288989237e-01
1	 1.444792760779105e+00	 9.874582919979614e-01	-5.052528959044666e-01
1	 1.424195563096069e+00	 1.016940016954224e+00	-6.279453773446063e-01
1	 1.402960210228699e+00	 1.046041418172352e+00	-7.578410520343968e-01
1	 1.381097244858090e+00	 1.074742015674165e+00	-8.951384713031765e-01
1	 1.358618078255741e+00	 1.103021721200889e+00	-1.040015555330106e+00
1	 1.335534971896006e+00	 1.130860883947535e+00	-1.192628478911164e+00
1	 1.311861016194242e+00	 1.158240335244118e+00	-1.353110655530360e+00
1	 1.287610106442683e+00	 1.185141431973866e+00	-1.521571827917167e+00
1	 1.262796916033438e+00	 1.211546098524362e+00	-1.698097272488225e+00
1	 1.237436867075000e+00	 1.237436867075000e+00	-1.882747124200746e+00
1	 1.475204588540842e+00	 9.644571903455147e-01	-3.798787645178977e-01
1	 1.455112709074938e+00	 9.945115655117275e-01	-4.947664833033739e-01
1	 1.434368388551411e+00	 1.024203874216805e+00	-6.166056448975478e-01
1	 1.412981354592089e+00	 1.053513142585853e+00	-7.456256456465202e-01
1	 1.390962225182928e+00	 1.082418744355134e+00	-8.820365342540046e-01
1	 1.368322493104510e+00	 1.110900447778312e+00	-1.026027760300234e+00
1	 1.345074507413148e+00	 1.138938461687509e+00	-1.177767011607980e+00
1	 1.321231452027168e+00	 1.166513480493667e+00	-1.337399149647617e+00
1	 1.296807321490887e+00	 1.193606727914892e+00	-1.505045251488466e+00
1	 1.271816894006361e+00	 1.220199999227256e+00	-1.680801766021637e+00
1	 1.246275701840000e+00	 1.246275701840000e+00	-1.864739791308380e+00
1	 1.485667032434476e+00	 9.712973122634445e-01	-3.691145256208022e-01
1	 1.465432657369780e+00	 1.001564839025664e+00	-4.832332564181404e-01
1	 1.444541214005794e+00	 1.031467731479696e+00	-6.042699790762485e-01
1	 1.423002498954569e+00	 1.060984866999766e+00	-7.324654120325146e-01
1	 1.400827205506926e+00	 1.090095473036578e+00	-8.680410045869296e-01
1	 1.378026907952530e+00	 1.118779174356233e+00	-1.011197637936896e+00
1	 1.354614042929651e+00	 1.147016039427960e+00	-1.162114414483035e+00
1	 1.330601887859582e+00	 1.174786625743633e+00	-1.320947544915129e+00
1	 1.306004536538730e+00	 1.202072023856238e+00	-1.487829341908471e+00
1	 1.280836871979093e+00	 1.228853899930329e+00	-1.662867328480905e+00
1	 1.255114536605000e+00	 1.255114536605000e+00	-1.846143468188898e+00
1	 1.496129476327111e+00	 9.781374341813636e-01	-3.572759340510596e-01
1	 1.475752605663633e+00	 1.008618112539770e+00	-4.706751763881392e-01
1	 1.454714039459216e+00	 1.038731588742899e+00	-5.909592735885109e-01
1	 1.433023643316138e+00	 1.068456591414092e+00	-7.183801727433207e-01
1	 1.410692185830083e+00	 1.097772201718495e+00	-8.531706290010485e-01
1	 1.387731322799798e+00	 1.126657900934648e+00	-9.955428594437928e-01
1	 1.364153578445512e+00	 1.155093617168889e+00	-1.145687284666406e+00
1	 1.339972323691486e+00	 1.183059770994018e+00	-1.303771367883184e+00
1	 1.315201751586213e+00	 1.210537319797904e+00	-1.469938560712855e+00
1	 1.289856849951636e+00	 1.237507800633582e+00	-1.644307364015514e+00
1	 1.263953371370000e+00	 1.263953371370000e+00	-1.826970511281683e+00
1	 1.506591920218745e+00	 9.849775560992717e-01	-3.443853721564790e-01
1	 1.486072553956495e+00	 1.015671386054045e+00	-4.571135943211096e-01
1	 1.464886864911678e+00	 1.045995446006413e+00	-5.766938417613748e-01
1	 1.443044787676797e+00	 1.075928315828831e+00	-7.033891987312438e-01
1	 1.420557166152399e+00	 1.105448930400887e+00	-8.374436334538271e-01
1	 1.397435737646315e+00	 1.134536627513560e+00	-9.790806051578242e-01
1	 1.373693113960733e+00	 1.163171194910295e+00	-1.128501758256767e+00
1	 1.349342759522880e+00	 1.191332916244822e+00	-1.285885713808985e+00
1	 1.324398966633336e+00	 1.219002615739889e+00	-1.451386967727934e+00
1	 1.298876827923988e+00	 1.246161701337016e+00	-1.625134904437370e+00
1	 1.272792206135000e+00	 1.272792206135000e+00	-1.807232933791659e+00
1	 1.517054364109380e+00	 9.918176780171698e-01	-3.304646048408130e-01
1	 1.496392502248367e+00	 1.022724659568490e+00	-4.425692723287473e-01
1	 1.475059690363180e+00	 1.053259303270238e+00	-5.614934365542577e-01
1	 1.453065932036545e+00	 1.083400040243982e+00	-6.875112293361292e-01
1	 1.430422146473876e+00	 1.113125659083753e+00	-8.208777411176843e-01
1	 1.407140152492082e+00	 1.142415354092968e+00	-9.618275814755798e-01
1	 1.383232649475314e+00	 1.171248772652179e+00	-1.110573526219014e+00
1	 1.358713195353763e+00	 1.199606061496045e+00	-1.267305261528838e+00
1	 1.333596181680099e+00	 1.227467911682194e+00	-1.432188234922732e+00
1	 1.307896805896150e+00	 1.254815602040628e+00	-1.605362622060175e+00
1	 1.281631040900000e+00	 1.281631040900000e+00	-1.786942417524977e+00
1	 1.527516807999014e+00	 9.986577999350574e-01	-3.155348007091172e-01
1	 1.506712450539249e+00	 1.029777933083105e+00	-4.270624036977814e-01
1	 1.485232515813721e+00	 1.060523160534374e+00	-5.453772697496064e-01
1	 1.463087076395382e+00	 1.090871764659546e+00	-6.707644904912358e-01
1	 1.440287126794510e+00	 1.120802387767094e+00	-8.034901895986836e-01
1	 1.416844567337098e+00	 1.150294080672872e+00	-9.438000370841344e-01
1	 1.392772184989253e+00	 1.179326350394540e+00	-1.091917849628611e+00
1	 1.368083631184136e+00	 1.207879206747686e+00	-1.248044287719126e+00
1	 1.342793396726501e+00	 1.235933207624818e+00	-1.412355659691760e+00
1	 1.316916783868122e+00	 1.263469502744421e+00	-1.585002842010862e+00
1	 1.290469875665000e+00	 1.290469875665000e+00	-1.766110324238284e+00
1	 1.537979251887649e+00	 1.005497921852934e+00	-2.996165523500057e-01
1	 1.517032398829141e+00	 1.036831206597890e+00	-4.106126322377723e-01
1	 1.495405341263303e+00	 1.067787017798821e+00	-5.283640303602968e-01
1	 1.473108220753309e+00	 1.098343489075522e+00	-6.531667121860854e-01
1	 1.450152107114305e+00	 1.128479116450908e+00	-7.852977474523515e-01
1	 1.426548982181364e+00	 1.158172807253272e+00	-9.250137785294095e-01
1	 1.402311720502552e+00	 1.187403928137378e+00	-1.072549574293600e+00
1	 1.377454067013998e+00	 1.216152351999745e+00	-1.228116680575226e+00
1	 1.351990611772543e+00	 1.244398503567761e+00	-1.391902177595636e+00
1	 1.325936761839904e+00	 1.272123403448393e+00	-1.564067554038763e+00
1	 1.299308710430000e+00	 1.299308710430000e+00	-1.744747706524730e+00
1	 1.548441695775283e+00	 1.012338043770800e+00	-2.827298957956729e-01
1	 1.527352347118043e+00	 1.043884480112846e+00	-3.932390708445323e-01
1	 1.505578166711924e+00	 1.075050875063579e+00	-5.104719022907628e-01
1	 1.483129365110326e+00	 1.105815213491911e+00	-6.347351452212843e-01
1	 1.460017087433259e+00	 1.136155845135198e+00	-7.663167300300453e-01
1	 1.436253397024878e+00	 1.166051533834168e+00	-9.054841851533821e-01
1	 1.411851256015211e+00	 1.195481505880694e+00	-1.052483144783998e+00
1	 1.386824502843350e+00	 1.224425497252223e+00	-1.207535952935872e+00
1	 1.361187826818225e+00	 1.252863799511024e+00	-1.370840374585220e+00
1	 1.334956739811496e+00	 1.280777304152546e+00	-1.542568423845908e+00
1	 1.308147545195000e+00	 1.308147545195000e+00	-1.722865318258732e+00
1	 1.558904139661917e+00	 1.019178165688655e+00	-2.648943291982813e-01
1	 1.537672295405955e+00	 1.050937753627970e+00	-3.749603193160115e-01
1	 1.515750992159585e+00	 1.082314732328648e+00	-4.917185812869342e-01
1	 1.493150509466432e+00	 1.113286937908712e+00	-6.154865772887087e-01
1	 1.469882067751373e+00	 1.143832573819961e+00	-7.465630146870893e-01
1	 1.445957811867642e+00	 1.173930260415559e+00	-8.852262234297713e-01
1	 1.421390791527228e+00	 1.203559083624488e+00	-1.031732617896102e+00
1	 1.396194938672191e+00	 1.232698642505121e+00	-1.186315254879005e+00
1	 1.370385041863546e+00	 1.261329095454607e+00	-1.349182498733479e+00
1	 1.343976717782898e+00	 1.289431204856878e+00	-1.520516803961102e+00
1	 1.316986379960000e+00	 1.316986379960000e+00	-1.700473624620058e+00
1	 1.569366583547552e+00	 1.026018287606500e+00	-2.461288307592923e-01
1	 1.547992243692877e+00	 1.057991027143265e+00	-3.557944814555664e-01
1	 1.525923817606285e+00	 1.089578589594028e+00	-4.721212912081904e-01
1	 1.503171653821628e+00	 1.120758662325927e+00	-5.954373484084513e-01
1	 1.479747048068645e+00	 1.151509302505199e+00	-7.260520553826701e-01
1	 1.455662226709656e+00	 1.181808986997448e+00	-8.642544607263324e-01
1	 1.430930327038606e+00	 1.211636661368759e+00	-1.010311675578295e+00
1	 1.405565374500522e+00	 1.240971787758436e+00	-1.164467385813808e+00
1	 1.379582256908508e+00	 1.269794391398509e+00	-1.326940471498065e+00
1	 1.352996695754110e+00	 1.298085105561391e+00	-1.497923744179031e+00
1	 1.325825214725000e+00	 1.325825214725000e+00	-1.677582811717003e+00
1	 1.237436867075000e+00	 1.237436867075000e+00	-1.882747124200746e+00
1	 1.211546098524362e+00	 1.262796916033438e+00	-2.085223926895941e+00
1	 1.185141431973866e+00	 1.287610106442683e+00	-2.290998663364662e+00
1	 1.158240335244119e+00	 1.311861016194243e+00	-2.499969203072240e+00
1	 1.130860883947535e+00	 1.335534971896005e+00	-2.712024378620373e+00
1	 1.103021721200889e+00	 1.358618078255741e+00	-2.927044201099259e+00
1	 1.074742015674166e+00	 1.381097244858090e+00	-3.144900119538754e+00
1	 1.046041418172353e+00	 1.402960210228699e+00	-3.365455323112289e+00
1	 1.016940016954224e+00	 1.424195563096068e+00	-3.588565084401637e+00
1	 9.874582919979624e-01	 1.444792760779105e+00	-3.814077141703134e+00
1	 9.576170684275745e-01	 1.464742144646208e+00	-4.041832118047729e+00
1	 1.246275701840000e+00	 1.246275701840000e+00	-1.864739791308380e+00
1	 1.220199999227256e+00	 1.271816894006361e+00	-2.065981981960259e+00
1	 1.193606727914892e+00	 1.296807321490887e+00	-2.270558855072700e+00
1	 1.166513480493667e+00	 1.321231452027167e+00	-2.478376787849693e+00
1	 1.138938461687509e+00	 1.345074507413148e+00	-2.689332979410174e+00
1	 1.110900447778313e+00	 1.368322493104510e+00	-2.903315632353939e+00
1	 1.082418744355135e+00	 1.390962225182927e+00	-3.120204179450949e+00
1	 1.053513142585854e+00	 1.412981354592089e+00	-3.339869554318568e+00
1	 1.024203874216806e+00	 1.434368388551411e+00	-3.562174504594501e+00
1	 9.945115655117286e-01	 1.455112709074937e+00	-3.786973945770957e+00
1	 9.644571903455147e-01	 1.475204588540842e+00	-4.014115353533366e+00
1	 1.255114536605000e+00	 1.255114536605000e+00	-1.846143468188898e+00
1	 1.228853899930329e+00	 1.280836871979093e+00	-2.046192273715170e+00
1	 1.202072023856238e+00	 1.306004536538730e+00	-2.249612432081535e+00
1	 1.174786625743633e+00	 1.330601887859582e+00	-2.456318748980526e+00
1	 1.147016039427960e+00	 1.354614042929651e+00	-2.666216711361145e+00
1	 1.118779174356233e+00	 1.378026907952529e+00	-2.879202635487212e+00
1	 1.090095473036578e+00	 1.400827205506926e+00	-3.095163861138102e+00
1	 1.060984866999767e+00	 1.423002498954568e+00	-3.313978991025895e+00
1	 1.031467731479697e+00	 1.444541214005793e+00	-3.535518174133982e+00
1	 1.001564839025664e+00	 1.465432657369779e+00	-3.759643431327147e+00
1	 9.712973122634446e-01	 1.485667032434477e+00	-3.986209021245144e+00
1	 1.263953371370000e+00	 1.263953371370000e+00	-1.826970511281683e+00
1	 1.237507800633582e+00	 1.289856849951636e+00	-2.025866293699363e+00
1	 1.210537319797904e+00	 1.315201751586213e+00	-2.228170022672006e+00
1	 1.183059770994018e+00	 1.339972323691486e+00	-2.433804854793121e+00
1	 1.155093617168889e+00	 1.364153578445512e+00	-2.642684487805409e+00
1	 1.126657900934648e+00	 1.387731322799797e+00	-2.854713275424276e+00
1	 1.097772201718496e+00	 1.410692185830083e+00	-3.069786389317589e+00
1	 1.068456591414093e+00	 1.433023643316137e+00	-3.287790027523522e+00
1	 1.038731588742900e+00	 1.454714039459216e+00	-3.508601668207436e+00
1	 1.008618112539770e+00	 1.475752605663632e+00	-3.732090367290180e+00
1	 9.781374341813637e-01	 1.496129476327111e+00	-3.958117098127736e+00
1	 1.272792206135000e+00	 1.272792206135000e+00	-1.807232933791659e+00
1	 1.246161701337015e+00	 1.298876827923988e+00	-2.005015214242088e+00
1	 1.219002615739890e+00	 1.324398966633336e+00	-2.206241959894876e+00
1	 1.191332916244822e+00	 1.349342759522880e+00	-2.410844602273362e+00
1	 1.163171194910296e+00	 1.373693113960733e+00	-2.618744974482530e+00
1	 1.134536627513560e+00	 1.397435737646315e+00	-2.829855393064583e+00
1	 1.105448930400887e+00	 1.420557166152399e+00	-3.044078788020061e+00
1	 1.075928315828831e+00	 1.443044787676796e+00	-3.261308880481550e+00
1	 1.045995446006414e+00	 1.464886864911678e+00	-3.481430407135887e+00
1	 1.015671386054046e+00	 1.486072553956495e+00	-3.704319390108473e+00
1	 9.849775560992720e-01	 1.506591920218745e+00	-3.929843450655173e+00
1	 1.281631040900000e+00	 1.281631040900000e+00	-1.786942417524977e+00
1	 1.254815602040628e+00	 1.307896805896150e+00	-1.983649899470420e+00
1	 1.227467911682194e+00	 1.333596181680099e+00	-2.183838291751243e+00
1	 1.199606061496045e+00	 1.358713195353763e+00	-2.387447226421354e+00
1	 1.171248772652179e+00	 1.383232649475313e+00	-2.594406598077130e+00
1	 1.142415354092968e+00	 1.407140152492081e+00	-2.804636613006949e+00
1	 1.113125659083754e+00	 1.430422146473875e+00	-3.018047887509901e+00
1	 1.083400040243983e+00	 1.453065932036545e+00	-3.234541595075697e+00
1	 1.053259303270239e+00	 1.475059690363180e+00	-3.454009661714288e+00
1	 1.022724659568491e+00	 1.496392502248366e+00	-3.676335008328488e+00
1	 9.918176780171699e-01	 1.517054364109380e+00	-3.901391838640078e+00
1	 1.290469875665000e+00	 1.290469875665000e+00	-1.766110324238284e+00
1	 1.263469502744421e+00	 1.316916783868122e+00	-1.961780915864065e+00
1	 1.235933207624818e+00	 1.342793396726501e+00	-2.160968790954494e+00
1	 1.207879206747686e+00	 1.368083631184136e+00	-2.363621709223444e+00
1	 1.179326350394540e+00	 1.392772184989253e+00	-2.569677554405828e+00
1	 1.150294080672872e+00	 1.416844567337098e+00	-2.779064350957052e+00
1	 1.120802387767094e+00	 1.440287126794510e+00	-2.991700330920904e+00
1	 1.090871764659547e+00	 1.463087076395382e+00	-3.207494050860469e+00
1	 1.060523160534375e+00	 1.485232515813721e+00	-3.426344558332231e+00
1	 1.029777933083107e+00	 1.506712450539249e+00	-3.648141606974820e+00
1	 9.986577999350573e-01	 1.527516807999014e+00	-3.872765918886577e+00
1	 1.299308710430000e+00	 1.299308710430000e+00	-1.744747706524730e+00
1	 1.272123403448393e+00	 1.325936761839904e+00	-1.939418542379459e+00
1	 1.244398503567761e+00	 1.351990611772543e+00	-2.137642964293789e+00
1	 1.216152351999746e+00	 1.377454067013998e+00	-2.339376788258187e+00
1	 1.187403928137379e+00	 1.402311720502552e+00	-2.544565816269744e+00
1	 1.158172807253272e+00	 1.426548982181363e+00	-2.753145820832644e+00
1	 1.128479116450909e+00	 1.450152107114305e+00	-2.965042580621334e+00
1	 1.098343489075523e+00	 1.473108220753309e+00	-3.180171967402484e+00
1	 1.067787017798822e+00	 1.495405341263302e+00	-3.398440083885717e+00
1	 1.036831206597892e+00	 1.517032398829141e+00	-3.619743451751761e+00
1	 1.005497921852934e+00	 1.537979251887649e+00	-3.843969248693881e+00
1	 1.308147545195000e+00	 1.308147545195000e+00	-1.722865318258732e+00
1	 1.280777304152546e+00	 1.334956739811497e+00	-1.916572780163396e+00
1	 1.252863799511024e+00	 1.361187826818225e+00	-2.113870061618076e+00
1	 1.224425497252224e+00	 1.386824502843349e+00	-2.314720964953375e+00
1	 1.195481505880695e+00	 1.411851256015210e+00	-2.519079140988948e+00
1	 1.166051533834168e+00	 1.436253397024877e+00	-2.726888041580747e+00
1	 1.136155845135198e+00	 1.460017087433259e+00	-2.938080924320869e+00
1	 1.105815213491912e+00	 1.483129365110326e+00	-3.152580909685488e+00
1	 1.075050875063580e+00	 1.505578166711923e+00	-3.370301090489810e+00
1	 1.043884480112846e+00	 1.527352347118043e+00	-3.591144693074176e+00
1	 1.012338043770800e+00	 1.548441695775283e+00	-3.815005289218012e+00
1	 1.316986379960000e+00	 1.316986379960000e+00	-1.700473624620058e+00
1	 1.289431204856878e+00	 1.343976717782898e+00	-1.893253361875476e+00
1	 1.261329095454607e+00	 1.370385041863546e+00	-2.089659084458152e+00
1	 1.232698642505121e+00	 1.396194938672191e+00	-2.289662512510513e+00
1	 1.203559083624488e+00	 1.421390791527228e+00	-2.493225077633230e+00
1	 1.173930260415560e+00	 1.445957811867642e+00	-2.700297843720266e+00
1	 1.143832573819962e+00	 1.469882067751372e+00	-2.910821480931613e+00
1	 1.113286937908713e+00	 1.493150509466432e+00	-3.124726293297671e+00
1	 1.082314732328649e+00	 1.515750992159584e+00	-3.341932300001418e+00
1	 1.050937753627971e+00	 1.537672295405955e+00	-3.562349369936494e+00
1	 1.019178165688655e+00	 1.558904139661917e+00	-3.785877408698017e+00
1	 1.325825214725000e+00	 1.325825214725000e+00	-1.677582811717003e+00
1	 1.298085105561391e+00	 1.352996695754110e+00	-1.869469760637714e+00
1	 1.269794391398509e+00	 1.379582256908508e+00	-2.065018794304032e+00
1	 1.240971787758436e+00	 1.405565374500522e+00	-2.264209483512421e+00
1	 1.211636661368759e+00	 1.430930327038606e+00	-2.467010973963893e+00
1	 1.181808986997448e+00	 1.455662226709656e+00	-2.673381875622914e+00
1	 1.151509302505200e+00	 1.479747048068645e+00	-2.883270206194635e+00
1	 1.120758662325928e+00	 1.503171653821628e+00	-3.096613389411561e+00
1	 1.089578589594029e+00	 1.525923817606285e+00	-3.313338308361280e+00
1	 1.057991027143266e+00	 1.547992243692877e+00	-3.533361413626622e+00
1	 1.026018287606500e+00	 1.569366583547552e+00	-3.756588885553307e+00
1	 9.576170684275745e-01	 1.464742144646208e+00	-4.041832118047729e+00
1	 9.274374693167079e-01	 1.484034952609081e+00	-4.288599318944700e+00
1	 8.969408680863412e-01	 1.502663328635016e+00	-4.531354256584740e+00
1	 8.661488407132029e-01	 1.520620329275986e+00	-4.769808397906713e+00
1	 8.350831179629206e-01	 1.537899927230666e+00	-5.003690298920064e+00
1	 8.037655378569366e-01	 1.554497011975572e+00	-5.232746158903703e+00
1	 7.722179985775102e-01	 1.570407387515452e+00	-5.456740279032573e+00
1	 7.404624120079161e-01	 1.585627767319404e+00	-5.675455425148162e+00
1	 7.085206580967063e-01	 1.600155766523939e+00	-5.888693095137091e+00
1	 6.764145402254393e-01	 1.613989891498045e+00	-6.096273692100583e+00
1	 6.441657417487923e-01	 1.627129526877964e+00	-6.298036605181507e+00
1	 9.644571903455147e-01	 1.475204588540842e+00	-4.014115353533366e+00
1	 9.340620226707020e-01	 1.494635202274587e+00	-4.259428055669476e+00
1	 9.033475885753567e-01	 1.513396638129045e+00	-4.500843874473773e+00
1	 8.723356181503269e-01	 1.531481903060134e+00	-4.738081083959388e+00
1	 8.410479973809958e-01	 1.548884926714374e+00	-4.970874701734458e+00
1	 8.095067202746751e-01	 1.565600562064542e+00	-5.198977021895596e+00
1	 7.777338414292119e-01	 1.581624583143993e+00	-5.422158054464480e+00
1	 7.457514292413349e-01	 1.596953679946601e+00	-5.640205871164442e+00
1	 7.135815199449446e-01	 1.611585450574138e+00	-5.852926858062894e+00
1	 6.812460726600413e-01	 1.625518390726798e+00	-6.060145876304356e+00
1	 6.487669256224087e-01	 1.638751880645368e+00	-6.261706332823556e+00
1	 9.712973122634446e-01	 1.485667032434477e+00	-3.986209021245144e+00
1	 9.406865760245010e-01	 1.505235451939093e+00	-4.230112982861773e+00
1	 9.097543090640229e-01	 1.524129947622075e+00	-4.470234582990308e+00
1	 8.785223955869794e-01	 1.542343476843282e+00	-4.706298824632989e+00
1	 8.470128767985073e-01	 1.559869926197083e+00	-4.938047112179875e+00
1	 8.152479026917877e-01	 1.576704112152514e+00	-5.165237763207521e+00
1	 7.832496842802557e-01	 1.592841778771534e+00	-5.387646428915780e+00
1	 7.510404464740938e-01	 1.608279592572798e+00	-5.605066423080237e+00
1	 7.186423817925509e-01	 1.623015134623336e+00	-5.817308960106290e+00
1	 6.860776050940676e-01	 1.637046889954551e+00	-6.024203303452016e+00
1	 6.533681094955354e-01	 1.650374234411771e+00	-6.225596826331394e+00
1	 9.781374341813637e-01	 1.496129476327111e+00	-3.958117098127736e+00
1	 9.473111293781052e-01	 1.515835701602599e+00	-4.200657117503400e+00
1	 9.161610295523410e-01	 1.534863257114104e+00	-4.439528457154931e+00
1	 8.847091730231601e-01	 1.553205050625430e+00	-4.674462772626768e+00
1	 8.529777562154551e-01	 1.570854925678792e+00	-4.905207781843758e+00
1	 8.209890851082741e-01	 1.587807662239485e+00	-5.131527756020998e+00
1	 7.887655271306419e-01	 1.604058974398075e+00	-5.353203921287736e+00
1	 7.563294637061935e-01	 1.619605505197995e+00	-5.570034770981272e+00
1	 7.237032436395248e-01	 1.634444818671535e+00	-5.781836289257740e+00
1	 6.909091375275186e-01	 1.648575389181304e+00	-5.988442087328055e+00
1	 6.579692933681720e-01	 1.661996588177175e+00	-6.189703454253455e+00
1	 9.849775560992720e-01	 1.506591920218745e+00	-3.929843450655173e+00
1	 9.539356827315137e-01	 1.526435951265105e+00	-4.171063392771135e+00
1	 9.225677500403102e-01	 1.545596566605134e+00	-4.408727514348796e+00
1	 8.908959504588690e-01	 1.564066624406578e+00	-4.642574048620644e+00
1	 8.589426356318386e-01	 1.581839925159500e+00	-4.872356955324913e+00
1	 8.267302675241348e-01	 1.598911212325456e+00	-5.097846390929134e+00
1	 7.942813699803704e-01	 1.615276170023616e+00	-5.318829091623275e+00
1	 7.616184809376328e-01	 1.630931417822191e+00	-5.535108669117689e+00
1	 7.287641054858667e-01	 1.645874502718734e+00	-5.746505819952406e+00
1	 6.957406699603945e-01	 1.660103888407058e+00	-5.952858449667333e+00
1	 6.625704772403191e-01	 1.673618941941579e+00	-6.154021713789691e+00
1	 9.918176780171699e-01	 1.517054364109380e+00	-3.901391838640078e+00
1	 9.605602360847276e-01	 1.537036200926611e+00	-4.141334660926492e+00
1	 9.289744705279306e-01	 1.556329876095164e+00	-4.377833716301216e+00
1	 8.970827278941061e-01	 1.574928198186726e+00	-4.610633742379124e+00
1	 8.649075150476579e-01	 1.592824924639208e+00	-4.839494870474623e+00
1	 8.324714499393694e-01	 1.610014762410427e+00	-5.064193075336307e+00
1	 7.997972128294406e-01	 1.626493365648157e+00	-5.284520539688259e+00
1	 7.669074981684126e-01	 1.642257330445388e+00	-5.500285933691217e+00
1	 7.338249673315762e-01	 1.657304186764933e+00	-5.711314610089310e+00
1	 7.005722023926947e-01	 1.671632387631810e+00	-5.917448716432721e+00
1	 6.671716611119766e-01	 1.685241295704983e+00	-6.118547226355142e+00
1	 9.986577999350573e-01	 1.527516807999014e+00	-3.872765918886577e+00
1	 9.671847894377462e-01	 1.547636450587116e+00	-4.111473696086908e+00
1	 9.353811910152018e-01	 1.567063185584193e+00	-4.346848970995424e+00
1	 9.032695053288720e-01	 1.585789771965874e+00	-4.578642913810226e+00
1	 8.708723944629133e-01	 1.603809924117917e+00	-4.806621758627741e+00
1	 8.382126323539778e-01	 1.621118312494398e+00	-5.030567232882349e+00
1	 8.053130556778535e-01	 1.637710561271698e+00	-5.250276903611121e+00
1	 7.721965153985323e-01	 1.653583243067585e+00	-5.465564440733755e+00
1	 7.388858291766537e-01	 1.668733870810132e+00	-5.676259798172942e+00
1	 7.054037348244198e-01	 1.683160886855564e+00	-5.882209314245692e+00
1	 6.717728449831446e-01	 1.696863649467388e+00	-6.083275733326129e+00
1	 1.005497921852934e+00	 1.537979251887649e+00	-3.843969248693881e+00
1	 9.738093427905699e-01	 1.558236700246622e+00	-4.081483196883536e+00
1	 9.417879115021248e-01	 1.577796495072223e+00	-4.315775134496825e+00
1	 9.094562827631661e-01	 1.596651345744022e+00	-4.546602593980938e+00
1	 8.768372738776050e-01	 1.614794923595625e+00	-4.773737844824250e+00
1	 8.439538147679604e-01	 1.632221862577369e+00	-4.996968302890433e+00
1	 8.108288985256082e-01	 1.648927756894240e+00	-5.216096858578052e+00
1	 7.774855326279926e-01	 1.664909155688782e+00	-5.430942124072190e+00
1	 7.439466910210989e-01	 1.680163554854331e+00	-5.641338600571705e+00
1	 7.102352672555692e-01	 1.694689386078317e+00	-5.847136766962469e+00
1	 6.763740288538225e-01	 1.708486003228792e+00	-6.048203091959907e+00
1	 1.012338043770800e+00	 1.548441695775283e+00	-3.815005289218012e+00
1	 9.804338961431978e-01	 1.568836949905128e+00	-4.051365789011651e+00
1	 9.481946319886988e-01	 1.588529804559253e+00	-4.284614012706804e+00
1	 9.156430601969882e-01	 1.607512919521170e+00	-4.514513786091555e+00
1	 8.828021532917325e-01	 1.625779923072334e+00	-4.740843348021987e+00
1	 8.496949971813170e-01	 1.643325412659341e+00	-4.963395739837051e+00
1	 8.163447413727055e-01	 1.660144952515780e+00	-5.181979115581002e+00
1	 7.827745498567932e-01	 1.676235068308980e+00	-5.396416973376008e+00
1	 7.490075528649117e-01	 1.691593238897529e+00	-5.606548308887169e+00
1	 7.150667996861435e-01	 1.706217885300070e+00	-5.812227692389139e+00
1	 6.809752127240106e-01	 1.720108356989195e+00	-6.013325271479704e+00
1	 1.019178165688655e+00	 1.558904139661917e+00	-3.785877408698017e+00
1	 9.870584494956313e-01	 1.579437199562634e+00	-4.021124027678025e+00
1	 9.546013524749237e-01	 1.599263114045282e+00	-4.253367363046245e+00
1	 9.218298376303387e-01	 1.618374493297318e+00	-4.482377466410775e+00
1	 8.887670327052957e-01	 1.636764922548042e+00	-4.707938481300696e+00
1	 8.554361795940475e-01	 1.654428962740311e+00	-4.929849012843738e+00
1	 8.218605842191447e-01	 1.671362148136321e+00	-5.147922420216134e+00
1	 7.880635670849336e-01	 1.687560980928176e+00	-5.361987032283256e+00
1	 7.540684147080928e-01	 1.703022922939728e+00	-5.571886287429717e+00
1	 7.198983321161423e-01	 1.717746384520824e+00	-5.777478799128893e+00
1	 6.855763965937093e-01	 1.731730710748600e+00	-5.978638349317574e+00
1	 1.026018287606500e+00	 1.569366583547552e+00	-3.756588885553307e+00
1	 9.936830028478698e-01	 1.590037449219140e+00	-3.990760399950559e+00
1	 9.610080729608007e-01	 1.609996423530313e+00	-4.222036896071456e+00
1	 9.280166150632180e-01	 1.629236067072467e+00	-4.450194585173565e+00
1	 8.947319121182953e-01	 1.647749922022751e+00	-4.675023452058083e+00
1	 8.611773620061525e-01	 1.665532512820283e+00	-4.896327605188731e+00
1	 8.273764270649263e-01	 1.682579343755863e+00	-5.113925551530444e+00
1	 7.933525843124147e-01	 1.698886893546373e+00	-5.327650396601579e+00
1	 7.591292765506416e-01	 1.714452606980927e+00	-5.537349970794688e+00
1	 7.247298645455660e-01	 1.729274883740578e+00	-5.742886883555512e+00
1	 6.901775804629183e-01	 1.743353064507004e+00	-5.944138507507356e+00
1	 6.441657417487923e-01	 1.627129526877964e+00	-6.298036605181507e+00
1	 6.117957838646149e-01	 1.639574920191208e+00	-6.512632325683186e+00
1	 5.793259849590476e-01	 1.651327164198396e+00	-6.715300717555055e+00
1	 5.467774215590897e-01	 1.662388177092036e+00	-6.905832148250050e+00
1	 5.141708910118744e-01	 1.672760680698918e+00	-7.084057826846789e+00
1	 4.815268759957917e-01	 1.682448176837619e+00	-7.249849153289612e+00
1	 4.488655109548267e-01	 1.691454921988814e+00	-7.403116900521041e+00
1	 4.162065505333923e-01	 1.699785900439417e+00	-7.543810241032994e+00
1	 3.835693400749210e-01	 1.707446796063892e+00	-7.671915630027637e+00
1	 3.509727882336220e-01	 1.714443962907183e+00	-7.787455557895592e+00
1	 3.184353417352296e-01	 1.720784394733555e+00	-7.890487185093790e+00
1	 6.487669256224087e-01	 1.638751880645368e+00	-6.261706332823556e+00
1	 6.161657537528369e-01	 1.651286169625344e+00	-6.475056455736903e+00
1	 5.834640277117503e-01	 1.663122358232710e+00	-6.676626093808125e+00
1	 5.506829745727695e-01	 1.674262378361350e+00	-6.866204928821792e+00
1	 5.178435402355067e-01	 1.684708971279677e+00	-7.043623291076225e+00
1	 4.849663536831978e-01	 1.694465663819255e+00	-7.208751514317030e+00
1	 4.520716931772849e-01	 1.703536742864199e+00	-7.361499124064514e+00
1	 4.191794544667834e-01	 1.711927228303469e+00	-7.501813870818355e+00
1	 3.863091210761500e-01	 1.719642844610636e+00	-7.629680620284280e+00
1	 3.534797367214098e-01	 1.726689991216679e+00	-7.745120113284823e+00
1	 3.207098798906232e-01	 1.733075711841326e+00	-7.848187608388942e+00
1	 6.533681094955354e-01	 1.650374234411771e+00	-6.225596826331394e+00
1	 6.205357236406640e-01	 1.662997419058485e+00	-6.437716331581934e+00
1	 5.876020704641420e-01	 1.674917552266045e+00	-6.638201119569723e+00
1	 5.545885275862121e-01	 1.686136579629713e+00	-6.826840175902413e+00
1	 5.215161894589658e-01	 1.696657261859521e+00	-7.003462944414112e+00
1	 4.884058313704844e-01	 1.706483150800025e+00	-7.167938687743425e+00
1	 4.552778753996668e-01	 1.715618563738773e+00	-7.320175681796639e+00
1	 4.221523584001318e-01	 1.724068556166777e+00	-7.460120255535780e+00
1	 3.890489020773603e-01	 1.731838893156712e+00	-7.587755688192371e+00
1	 3.559866852091929e-01	 1.738936019525595e+00	-7.703100976522831e+00
1	 3.229844180460166e-01	 1.745367028948611e+00	-7.806209485094788e+00
1	 6.579692933681720e-01	 1.661996588177175e+00	-6.189703454253455e+00
1	 6.249056935280957e-01	 1.674708668490631e+00	-6.400607007502463e+00
1	 5.917401132162232e-01	 1.686712746298402e+00	-6.600020557437652e+00
1	 5.584940805994181e-01	 1.698010780897124e+00	-6.787732383201699e+00
1	 5.251888386822519e-01	 1.708605552438449e+00	-6.963571034641571e+00
1	 4.918453090576513e-01	 1.718500637779927e+00	-7.127404698483741e+00
1	 4.584840576219726e-01	 1.727700384612536e+00	-7.279140398874456e+00
1	 4.251252623334376e-01	 1.736209884029342e+00	-7.418723043683315e+00
1	 3.917886830785516e-01	 1.744034941702122e+00	-7.546134328626401e+00
1	 3.584936336969712e-01	 1.751182047833929e+00	-7.661391511780669e+00
1	 3.252589562014102e-01	 1.757658346055410e+00	-7.764546071433585e+00
1	 6.625704772403191e-01	 1.673618941941579e+00	-6.154021713789691e+00
1	 6.292756634151327e-01	 1.686419917921784e+00	-6.363723675163800e+00
1	 5.958781559679939e-01	 1.698507940329780e+00	-6.562079315493261e+00
1	 5.623996336123873e-01	 1.709884982163583e+00	-6.748876197381868e+00
1	 5.288614879053646e-01	 1.720553843016463e+00	-6.923941969323507e+00
1	 4.952847867446983e-01	 1.730518124758960e+00	-7.087143737427323e+00
1	 4.616902398442022e-01	 1.739782205485489e+00	-7.238387271978384e+00
1	 4.280981662667007e-01	 1.748351211891163e+00	-7.377616060189665e+00
1	 3.945284640797241e-01	 1.756230990246865e+00	-7.504810217158954e+00
1	 3.610005821847450e-01	 1.763428076141683e+00	-7.619985267558043e+00
1	 3.275334943568037e-01	 1.769949663161724e+00	-7.723190810954763e+00
1	 6.671716611119766e-01	 1.685241295704983e+00	-6.118547226355142e+00
1	 6.336456333017748e-01	 1.698131167351941e+00	-6.327061658874977e+00
1	 6.000161987194534e-01	 1.710303134360181e+00	-6.524372442284529e+00
1	 5.663051866251195e-01	 1.721759183429090e+00	-6.710266412783501e+00
1	 5.325341371283041e-01	 1.732502133593562e+00	-6.884570310298955e+00
1	 4.987242644316259e-01	 1.742535611737127e+00	-7.047150155714949e+00
1	 4.648964220663556e-01	 1.751864026357632e+00	-7.197910463397625e+00
1	 4.310710701999212e-01	 1.760492539752242e+00	-7.336793300330260e+00
1	 3.972682450808779e-01	 1.768427038790942e+00	-7.463777203829378e+00
1	 3.635075306725140e-01	 1.775674104448856e+00	-7.578875970327073e+00
1	 3.298080325121973e-01	 1.782240980267553e+00	-7.682137328075308e+00
1	 6.717728449831446e-01	 1.696863649467388e+00	-6.083275733326129e+00
1	 6.380156031880218e-01	 1.709842416781104e+00	-6.290616411046050e+00
1	 6.041542414706024e-01	 1.722098328389602e+00	-6.486895122015699e+00
1	 5.702107396376153e-01	 1.733633384693645e+00	-6.671897966367958e+00
1	 5.362067863510706e-01	 1.744450424169746e+00	-6.845450768397642e+00
1	 5.021637421184337e-01	 1.754553098714425e+00	-7.007418459250647e+00
1	 4.681026042884328e-01	 1.763945847228964e+00	-7.157704295358779e+00
1	 4.340439741330990e-01	 1.772633867612575e+00	-7.296248923893550e+00
1	 4.000080260820126e-01	 1.780623087334350e+00	-7.423029307169282e+00
1	 3.660144791602783e-01	 1.787920132755449e+00	-7.538057518437356e+00
1	 3.320825706675907e-01	 1.794532297372897e+00	-7.641379421885743e+00
1	 6.763740288538225e-01	 1.708486003228792e+00	-6.048203091959907e+00
1	 6.423855730738738e-01	 1.721553666209272e+00	-6.254383507831124e+00
1	 6.082922842214408e-01	 1.733893522418045e+00	-6.449642669933025e+00
1	 5.741162926498737e-01	 1.745507585957248e+00	-6.633765932866371e+00
1	 5.398794355736638e-01	 1.756398714745015e+00	-6.806578198372272e+00
1	 5.056032198051220e-01	 1.766570585690856e+00	-6.967943303437665e+00
1	 4.713087865104338e-01	 1.776027668099485e+00	-7.117763244585556e+00
1	 4.370168780662343e-01	 1.784775195472166e+00	-7.255977249585359e+00
1	 4.027478070831286e-01	 1.792819135877093e+00	-7.382560708471200e+00
1	 3.685214276480380e-01	 1.800166161061461e+00	-7.497523976269775e+00
1	 3.343571088229843e-01	 1.806823614477755e+00	-7.600911060208834e+00
1	 6.809752127240106e-01	 1.720108356989195e+00	-6.013325271479704e+00
1	 6.467555429593308e-01	 1.733264915636446e+00	-6.218358644947653e+00
1	 6.124303269719683e-01	 1.745688716445509e+00	-6.412610527897827e+00
1	 5.780218456618959e-01	 1.757381787219899e+00	-6.595865520125190e+00
1	 5.435520847960841e-01	 1.768347005319369e+00	-6.767947594036386e+00
1	 5.090426974916905e-01	 1.778588072666419e+00	-6.928719488127771e+00
1	 4.745149687323587e-01	 1.788109488969196e+00	-7.078081937079488e+00
1	 4.399897819993270e-01	 1.796916523331014e+00	-7.215972749659890e+00
1	 4.054875880842257e-01	 1.805015184419168e+00	-7.342365746290078e+00
1	 3.710283761357929e-01	 1.812412189366892e+00	-7.457269568627343e+00
1	 3.366316469783779e-01	 1.819114931582128e+00	-7.560726373899146e+00
1	 6.855763965937093e-01	 1.731730710748600e+00	-5.978638349317574e+00
1	 6.511255128443928e-01	 1.744976165062624e+00	-6.182537633664333e+00
1	 6.165683697221850e-01	 1.757483910471994e+00	-6.375794260137464e+00
1	 5.819273986736807e-01	 1.769255988481598e+00	-6.558192064639353e+00
1	 5.472247340183309e-01	 1.780295295892808e+00	-6.729554083597652e+00
1	 5.124821751781393e-01	 1.790605559641113e+00	-6.889741952774092e+00
1	 4.777211509542074e-01	 1.800191309838096e+00	-7.038655143110478e+00
1	 4.429626859323769e-01	 1.809057851189117e+00	-7.176230044767325e+00
1	 4.082273690853040e-01	 1.817211232960577e+00	-7.302438911165953e+00
1	 3.735353246235432e-01	 1.824658217671742e+00	-7.417288675351993e+00
1	 3.389061851337714e-01	 1.831406248686016e+00	-7.520819651372182e+00
1	 6.901775804629183e-01	 1.743353064507004e+00	-5.944138507507356e+00
1	 6.554954827290597e-01	 1.756687414487810e+00	-6.146916396949342e+00
1	 6.207064124720911e-01	 1.769279104497503e+00	-6.339189549166634e+00
1	 5.858329516852290e-01	 1.781130189742346e+00	-6.520741027263929e+00
1	 5.508973832404049e-01	 1.792243586465333e+00	-6.691392925178318e+00
1	 5.159216528644688e-01	 1.802623046614941e+00	-6.851005771777636e+00
1	 4.809273331759799e-01	 1.812273130706186e+00	-6.999477772407893e+00
1	 4.459355898653843e-01	 1.821199179046478e+00	-7.136743899007106e+00
1	 4.109671500863636e-01	 1.829407281501319e+00	-7.262774840557763e+00
1	 3.760422731112888e-01	 1.836904245976013e+00	-7.377575826156417e+00
1	 3.411807232891650e-01	 1.843697565789419e+00	-7.481185333352374e+00
1	 3.184353417352296e-01	 1.720784394733555e+00	-7.890487185093790e+00
1	 2.859749623090795e-01	 1.726475693704463e+00	-8.004194420673080e+00
1	 2.536091058023270e-01	 1.731526038345919e+00	-8.103452142113685e+00
1	 2.213547034732818e-01	 1.735944150962882e+00	-8.188382824299621e+00
1	 1.892281454495708e-01	 1.739739264653876e+00	-8.259143718219768e+00
1	 1.572452663273684e-01	 1.742921090073661e+00	-8.315924942067991e+00
1	 1.254213328766080e-01	 1.745499782086253e+00	-8.358947512626511e+00
1	 9.377103380810400e-02	 1.747485906444048e+00	-8.388461331180160e+00
1	 6.230847155001576e-02	 1.748890406621857e+00	-8.404743137703630e+00
1	 3.104715597342760e-02	 1.749724570927141e+00	-8.408094446474202e+00
1	 0.000000000000000e+00	 1.750000000000000e+00	-8.398839475598674e+00
1	 3.207098798906232e-01	 1.733075711841326e+00	-7.848187608388942e+00
1	 2.880176406112042e-01	 1.738807662947247e+00	-7.961451964766388e+00
1	 2.554205994149419e-01	 1.743894081478562e+00	-8.060044632916581e+00
1	 2.229358084977045e-01	 1.748343752042406e+00	-8.144088350263267e+00
1	 1.905797750594583e-01	 1.752165973688006e+00	-8.213741654757863e+00
1	 1.583684468006353e-01	 1.755370526431943e+00	-8.269196924518885e+00
1	 1.263171995395246e-01	 1.757967637672972e+00	-8.310678355456487e+00
1	 9.444082690630262e-02	 1.759967948633152e+00	-8.338439891578393e+00
1	 6.275353206075759e-02	 1.761382480954967e+00	-8.352763122155155e+00
1	 3.126892137305198e-02	 1.762222603576644e+00	-8.353955159317985e+00
1	 0.000000000000000e+00	 1.762500000000000e+00	-8.342346508978293e+00
1	 3.229844180460166e-01	 1.745367028948611e+00	-7.806209485094788e+00
1	 2.900603189133288e-01	 1.751139632189640e+00	-7.919002817554388e+00
1	 2.572320930275566e-01	 1.756262124610897e+00	-8.016906435055759e+00
1	 2.245169135221270e-01	 1.760743353121696e+00	-8.100043301123563e+00
1	 1.919314046693457e-01	 1.764592682721967e+00	-8.168573196036041e+00
1	 1.594916272739021e-01	 1.767819962790108e+00	-8.222690705437016e+00
1	 1.272130662024412e-01	 1.770435493259618e+00	-8.262623144648394e+00
1	 9.511062000450128e-02	 1.772449990822214e+00	-8.288628433825217e+00
1	 6.319859257149944e-02	 1.773874555288057e+00	-8.300992938565146e+00
1	 3.149068677267637e-02	 1.774720636226143e+00	-8.300029289962234e+00
1	 0.000000000000000e+00	 1.775000000000000e+00	-8.286074197392367e+00
1	 3.252589562014102e-01	 1.757658346055410e+00	-7.764546071433585e+00
1	 2.921029972154534e-01	 1.763471601431642e+00	-7.876840825707832e+00
1	 2.590435866401714e-01	 1.768630167742926e+00	-7.974031898643164e+00
1	 2.260980185465497e-01	 1.773142954200753e+00	-8.056242444190413e+00
1	 1.932830342792332e-01	 1.777019391755757e+00	-8.123633441255564e+00
1	 1.606148077471690e-01	 1.780269399148155e+00	-8.176401631707803e+00
1	 1.281089328653577e-01	 1.782903348846188e+00	-8.214777391817115e+00
1	 9.578041310269989e-02	 1.784932033011234e+00	-8.239022552707063e+00
1	 6.364365308224128e-02	 1.786366629621130e+00	-8.249428184864550e+00
1	 3.171245217230076e-02	 1.787218668875638e+00	-8.246312361110407e+00
1	 0.000000000000000e+00	 1.787500000000000e+00	-8.230017911714320e+00
1	 3.275334943568037e-01	 1.769949663161724e+00	-7.723190810954763e+00
1	 2.941456755175780e-01	 1.775803570673254e+00	-7.834960006823374e+00
1	 2.608550802527862e-01	 1.780998210874648e+00	-7.931415530732000e+00
1	 2.276791235709723e-01	 1.785542555279576e+00	-8.012680692126231e+00
1	 1.946346638891207e-01	 1.789446100789376e+00	-8.078917625751078e+00
1	 1.617379882204359e-01	 1.792718835506084e+00	-8.130325179469715e+00
1	 1.290047995282743e-01	 1.795371204432684e+00	-8.167136733254747e+00
1	 9.645020620089854e-02	 1.797414075200213e+00	-8.189617965377373e+00
1	 6.408871359298313e-02	 1.798858703954184e+00	-8.198064581263997e+00
1	 3.193421757192514e-02	 1.799716701525127e+00	-8.192800019835355e+00
1	 0.000000000000000e+00	 1.800000000000000e+00	-8.174173151404421e+00
1	 3.298080325121973e-01	 1.782240980267553e+00	-7.682137328075308e+00
1	 2.961883538197027e-01	 1.788135539914474e+00	-7.793354543529456e+00
1	 2.626665738654010e-01	 1.793366254006063e+00	-7.889051989905086e+00
1	 2.292602285953949e-01	 1.797942156358166e+00	-7.969353097933745e+00
1	 1.959862934990082e-01	 1.801872809822824e+00	-8.034421116296127e+00
1	 1.628611686937026e-01	 1.805168271863896e+00	-8.084456949657454e+00
1	 1.299006661911908e-01	 1.807839060019105e+00	-8.119696925631612e+00
1	 9.711999929909716e-02	 1.809896117389149e+00	-8.140410507137055e+00
1	 6.453377410372496e-02	 1.811350778287220e+00	-8.146897966037288e+00
1	 3.215598297154953e-02	 1.812214734174612e+00	-8.139488033290695e+00
1	 0.000000000000000e+00	 1.812500000000000e+00	-8.118535540075730e+00
1	 3.320825706675907e-01	 1.794532297372897e+00	-7.641379421885743e+00
1	 2.982310321218273e-01	 1.800467509155304e+00	-7.752018777834585e+00
1	 2.644780674780159e-01	 1.805734297137171e+00	-7.846936081085341e+00
1	 2.308413336198176e-01	 1.810341757436522e+00	-7.926254850149883e+00
1	 1.973379231088956e-01	 1.814299518856103e+00	-7.990139406602143e+00
1	 1.639843491669695e-01	 1.817617708221590e+00	-8.038792663728030e+00
1	 1.307965328541074e-01	 1.820306915605452e+00	-8.072453841873642e+00
1	 9.778979239729581e-02	 1.822378159578045e+00	-8.091396127388386e+00
1	 6.497883461446680e-02	 1.823842852620236e+00	-8.095924291478088e+00
1	 3.237774837117391e-02	 1.824712766824093e+00	-8.086372284598360e+00
1	 0.000000000000000e+00	 1.825000000000000e+00	-8.063100821242339e+00
1	 3.343571088229843e-01	 1.806823614477755e+00	-7.600911060208834e+00
1	 3.002737104239519e-01	 1.812799478395743e+00	-7.710947205706152e+00
1	 2.662895610906306e-01	 1.818102340267972e+00	-7.805062750558458e+00
1	 2.324224386442401e-01	 1.822741358514645e+00	-7.883381268235784e+00
1	 1.986895527187831e-01	 1.826726227889211e+00	-7.946068113000538e+00
1	 1.651075296402364e-01	 1.830067144579166e+00	-7.993328159561414e+00
1	 1.316923995170240e-01	 1.832774771191723e+00	-8.025403467208124e+00
1	 9.845958549549444e-02	 1.834860201766898e+00	-8.042570885754035e+00
1	 6.542389512520864e-02	 1.836334926953235e+00	-8.045139620021789e+00
1	 3.259951377079830e-02	 1.837210799473569e+00	-8.033448768904242e+00
1	 0.000000000000000e+00	 1.837500000000000e+00	-8.007864854241079e+00
1	 3.366316469783779e-01	 1.819114931582128e+00	-7.560726373899146e+00
1	 3.023163887260765e-01	 1.825131447635791e+00	-7.670134471869279e+00
1	 2.681010547032454e-01	 1.830470383398466e+00	-7.763427081196878e+00
1	 2.340035436686628e-01	 1.835140959592535e+00	-7.840727798153559e+00
1	 2.000411823286705e-01	 1.839152936922148e+00	-7.902202970300252e+00
1	 1.662307101135032e-01	 1.842516580936626e+00	-7.948059387527342e+00
1	 1.325882661799405e-01	 1.845242626777920e+00	-7.978541895369631e+00
1	 9.912937859369306e-02	 1.847342243955709e+00	-7.993930948353303e+00
1	 6.586895563595048e-02	 1.848827001286216e+00	-7.994540120524448e+00
1	 3.282127917042268e-02	 1.849708832123040e+00	-7.980713589593561e+00
1	 0.000000000000000e+00	 1.850000000000000e+00	-7.952823610318611e+00
1	 3.389061851337714e-01	 1.831406248686016e+00	-7.520819651372182e+00
1	 3.043590670282013e-01	 1.837463416875449e+00	-7.629575364814793e+00
1	 2.699125483158602e-01	 1.842838426528653e+00	-7.722024287876573e+00
1	 2.355846486930855e-01	 1.847540560670190e+00	-7.798290008121397e+00
1	 2.013928119385580e-01	 1.851579645954916e+00	-7.858539827812058e+00
1	 1.673538905867701e-01	 1.854966017293967e+00	-7.902982406710331e+00
1	 1.334841328428570e-01	 1.857710482364042e+00	-7.931865324958970e+00
1	 9.979917169189172e-02	 1.859824286144479e+00	-7.945472584228464e+00
1	 6.631401614669230e-02	 1.861319075619177e+00	-7.944122064691519e+00
1	 3.304304457004707e-02	 1.862206864772507e+00	-7.928162954658547e+00
1	 0.000000000000000e+00	 1.862500000000000e+00	-7.897973168876023e+00
1	 3.411807232891650e-01	 1.843697565789419e+00	-7.481185333352374e+00
1	 3.064017453303258e-01	 1.849795386114716e+00	-7.589264812007135e+00
1	 2.717240419284751e-01	 1.855206469658534e+00	-7.680849713076737e+00
1	 2.371657537175081e-01	 1.859940161747613e+00	-7.756063584538351e+00
1	 2.027444415484455e-01	 1.864006354987513e+00	-7.815074645531757e+00
1	 1.684770710600370e-01	 1.867415453651191e+00	-7.858093381286110e+00
1	 1.343799995057737e-01	 1.870178337950090e+00	-7.885370055947670e+00
1	 1.004689647900904e-01	 1.872306328333207e+00	-7.897192161914002e+00
1	 6.675907665743416e-02	 1.873811149952121e+00	-7.893881823649778e+00
1	 3.326480996967145e-02	 1.874704897421970e+00	-7.875793173211686e+00
1	 0.000000000000000e+00	 1.875000000000000e+00	-7.843309713863727e+00
1	 1.875000000000000e+00	 0.000000000000000e+00	 6.480615652998463e-01
1	 1.874704897421970e+00	 3.326480996967039e-02	 6.598383004438001e-01
1	 1.873811149952121e+00	 6.675907665743323e-02	 6.690674571515964e-01
1	 1.872306328333207e+00	 1.004689647900895e-01	 6.755478959678513e-01
1	 1.870178337950090e+00	 1.343799995057729e-01	 6.790802710255723e-01
1	 1.867415453651191e+00	 1.684770710600364e-01	 6.794678930639130e-01
1	 1.864006354987513e+00	 2.027444415484450e-01	 6.765176252609644e-01
1	 1.859940161747613e+00	 2.371657537175077e-01	 6.700408083323262e-01
1	 1.855206469658534e+00	 2.717240419284748e-01	 6.598542108910619e-01
1	 1.849795386114716e+00	 3.064017453303257e-01	 6.457810006145352e-01
1	 1.843697565789419e+00	 3.411807232891650e-01	 6.276517313243943e-01
1	 1.887500000000000e+00	 0.000000000000000e+00	 6.585130980195373e-01
1	 1.887202930071432e+00	 3.348657536938452e-02	 6.705082522995135e-01
1	 1.886303224285065e+00	 6.720413716834120e-02	 6.799146109491150e-01
1	 1.884788370521935e+00	 1.011387578885170e-01	 6.865463191332400e-01
1	 1.882646193536138e+00	 1.352758661689670e-01	 6.902202306145339e-01
1	 1.879864890008415e+00	 1.696002515336150e-01	 6.907567564974467e-01
1	 1.876433064020110e+00	 2.040960711586639e-01	 6.879807416648491e-01
1	 1.872339762825035e+00	 2.387468587422663e-01	 6.817223651627196e-01
1	 1.867574512788415e+00	 2.735355355414151e-01	 6.718180603605493e-01
1	 1.862127355353983e+00	 3.084444236327496e-01	 6.581114502961434e-01
1	 1.855988882892821e+00	 3.434552614448158e-01	 6.404542932084563e-01
1	 1.900000000000000e+00	 0.000000000000000e+00	 6.695718095035302e-01
1	 1.899700962720899e+00	 3.370834076927819e-02	 6.818998636932170e-01
1	 1.898795298618027e+00	 6.764919767958150e-02	 6.916000150306714e-01
1	 1.897270412710705e+00	 1.018085509874021e-01	 6.985015605915481e-01
1	 1.895114049122259e+00	 1.361717328327159e-01	 7.024374122815726e-01
1	 1.892314326365756e+00	 1.707234320078171e-01	 7.032449313869856e-01
1	 1.888859773052877e+00	 2.054477007695455e-01	 7.007667857363311e-01
1	 1.884739363902691e+00	 2.403279637676972e-01	 6.948518255353444e-01
1	 1.879942555918602e+00	 2.753470291550062e-01	 6.853559735361486e-01
1	 1.874459324593640e+00	 3.104871019357721e-01	 6.721431248135697e-01
1	 1.868280199996709e+00	 3.457297996009814e-01	 6.550860510508518e-01
1	 1.912500000000000e+00	 0.000000000000000e+00	 6.812257942854107e-01
1	 1.912198995370370e+00	 3.393010616935138e-02	 6.939989844375030e-01
1	 1.911287372951007e+00	 6.809425819115406e-02	 7.041072331158296e-01
1	 1.909752454899517e+00	 1.024783440867449e-01	 7.113948591994808e-01
1	 1.907581904708456e+00	 1.370675994970198e-01	 7.157106940249067e-01
1	 1.904763762723215e+00	 1.718466124826427e-01	 7.169089018214189e-01
1	 1.901286482085814e+00	 2.067993303810899e-01	 7.148498177170372e-01
1	 1.897138964980580e+00	 2.419090687937999e-01	 7.094007991845175e-01
1	 1.892310599049096e+00	 2.771585227692481e-01	 7.004370864234735e-01
1	 1.886791293833689e+00	 3.125297802393932e-01	 6.878426668169748e-01
1	 1.880571517101082e+00	 3.480043377576615e-01	 6.715111382640433e-01
1	 1.925000000000000e+00	 0.000000000000000e+00	 6.934634561316382e-01
1	 1.924697028019846e+00	 3.415187156960411e-02	 7.067918318822759e-01
1	 1.923779447284006e+00	 6.853931870305893e-02	 7.174202558405406e-01
1	 1.922234497088370e+00	 1.031481371865453e-01	 7.252079411161503e-01
1	 1.920049760294728e+00	 1.379634661618787e-01	 7.300195024661686e-01
1	 1.917213199080792e+00	 1.729697929580919e-01	 7.317257626925098e-01
1	 1.913713191118923e+00	 2.081509599932970e-01	 7.302045716085634e-01
1	 1.909538566058704e+00	 2.434901738205749e-01	 7.253416332540492e-01
1	 1.904678642179897e+00	 2.789700163841410e-01	 7.170313366903601e-01
1	 1.899123263074128e+00	 3.145724585436129e-01	 7.051775853811997e-01
1	 1.892862834205940e+00	 3.502788759148565e-01	 6.896946198602063e-01
1	 1.937500000000000e+00	 0.000000000000000e+00	 7.062734980662920e-01
1	 1.937195060669326e+00	 3.437363697003634e-02	 7.202649790587068e-01
1	 1.936271521617023e+00	 6.898437921529610e-02	 7.315234869855916e-01
1	 1.934716539277264e+00	 1.038179302868033e-01	 7.399230040836557e-01
1	 1.932517615881075e+00	 1.388593328272925e-01	 7.453437951528690e-01
1	 1.929662635438486e+00	 1.740929734341646e-01	 7.476731999915831e-01
1	 1.926139900152201e+00	 2.095025896061670e-01	 7.468064334382538e-01
1	 1.921938167137059e+00	 2.450712788480219e-01	 7.426473885098503e-01
1	 1.917046685311006e+00	 2.807815099996848e-01	 7.351094378067654e-01
1	 1.911455232314958e+00	 3.166151368484312e-01	 7.241162280566084e-01
1	 1.905154151311284e+00	 3.525534140725660e-01	 7.096024623996232e-01
1	 1.950000000000000e+00	 0.000000000000000e+00	 7.196449127794829e-01
1	 1.949693093318812e+00	 3.459540237064810e-02	 7.344053432792060e-01
1	 1.948763595950059e+00	 6.942943972786557e-02	 7.464017302348238e-01
1	 1.947198581466201e+00	 1.044877233875190e-01	 7.555227023122197e-01
1	 1.944985471467495e+00	 1.397551994932612e-01	 7.616640435415449e-01
1	 1.942112071796298e+00	 1.752161539108608e-01	 7.647294718640207e-01
1	 1.938566609185650e+00	 2.108542192196997e-01	 7.646314203609518e-01
1	 1.934337768215650e+00	 2.466523838761410e-01	 7.612918164674283e-01
1	 1.929414728442420e+00	 2.825930036158795e-01	 7.546428541793375e-01
1	 1.923787201556179e+00	 3.186578151538481e-01	 7.446277539948447e-01
1	 1.917445468417113e+00	 3.548279522307903e-01	 7.312015050949005e-01
1	 1.962499999999999e+00	 0.000000000000000e+00	 7.335669734023200e-01
1	 1.962191125968301e+00	 3.481716777143939e-02	 7.492001751730523e-01
1	 1.961255670283113e+00	 6.987450024076731e-02	 7.620401764393465e-01
1	 1.959680623655179e+00	 1.051575164886924e-01	 7.719901319430038e-01
1	 1.957453327053991e+00	 1.406510661597848e-01	 7.789612166312196e-01
1	 1.954561508154227e+00	 1.763393343881805e-01	 7.828733903878017e-01
1	 1.950993318219269e+00	 2.122058488338951e-01	 7.836561605594238e-01
1	 1.946737369294472e+00	 2.482334889049322e-01	 7.812493373934970e-01
1	 1.941782771574142e+00	 2.844044972327250e-01	 7.756037772362131e-01
1	 1.936119170797790e+00	 3.207004934598635e-01	 7.666821081016826e-01
1	 1.929736785523427e+00	 3.571024903895291e-01	 7.544594320195238e-01
1	 1.975000000000000e+00	 0.000000000000000e+00	 7.480292246321963e-01
1	 1.974689158617796e+00	 3.503893317241022e-02	 7.646370481383667e-01
1	 1.973747744616185e+00	 7.031956075400138e-02	 7.784243913654073e-01
1	 1.972162665844200e+00	 1.058273095903234e-01	 7.893088170629411e-01
1	 1.969921182640562e+00	 1.415469328268634e-01	 7.972167652184186e-01
1	 1.967010944512274e+00	 1.774625148661237e-01	 8.020843040439737e-01
1	 1.963420027253059e+00	 2.135574784487534e-01	 8.038578739079768e-01
1	 1.959136970373529e+00	 2.498145939343955e-01	 8.024950191429491e-01
1	 1.954150814706171e+00	 2.862159908502214e-01	 7.979651024200173e-01
1	 1.948451140039792e+00	 3.227431717664775e-01	 7.902499961713725e-01
1	 1.942028102630227e+00	 3.593770285487826e-01	 7.793447453716954e-01
1	 1.987500000000000e+00	 0.000000000000000e+00	 7.630214741929693e-01
1	 1.987187191267294e+00	 3.526069857356055e-02	 7.807038481921971e-01
1	 1.986239818949276e+00	 7.076462126756775e-02	 7.955403039046248e-01
1	 1.984644708033262e+00	 1.064971026924121e-01	 8.074626962473437e-01
1	 1.982389038227208e+00	 1.424427994944970e-01	 8.164126067462670e-01
1	 1.979460380870438e+00	 1.785856953446905e-01	 8.223420808486652e-01
1	 1.975846736287019e+00	 2.149091080642744e-01	 8.252143533658532e-01
1	 1.971536571452820e+00	 2.513956989645308e-01	 8.250045567944586e-01
1	 1.966518857838506e+00	 2.880274844683688e-01	 8.217004070490438e-01
1	 1.960783109282185e+00	 3.247858500736903e-01	 8.153028609593301e-01
1	 1.954319419737511e+00	 3.616515667085508e-01	 8.058267397472109e-01
1	 2.000000000000000e+00	 0.000000000000000e+00	 7.785337846153846e-01
1	 1.999685223916798e+00	 3.548246397489042e-02	 7.973887642011295e-01
1	 1.998731893282386e+00	 7.120968178146642e-02	 8.133741947263096e-01
1	 1.997126750222366e+00	 1.071668957949584e-01	 8.264361096071040e-01
1	 1.994856893813928e+00	 1.433386661626855e-01	 8.365311107217964e-01
1	 1.991909817228721e+00	 1.797088758238808e-01	 8.436270921175759e-01
1	 1.988273445321150e+00	 2.162607376804582e-01	 8.477039470683045e-01
1	 1.983936172532344e+00	 2.529768039953384e-01	 8.487542530497443e-01
1	 1.978886900971149e+00	 2.898389780871670e-01	 8.467839290086597e-01
1	 1.973115078524969e+00	 3.268285283815016e-01	 8.418128591521211e-01
1	 1.966610736845282e+00	 3.639261048688338e-01	 8.338754773769781e-01
1	 1.843697565789419e+00	 3.411807232891650e-01	 6.276517313243943e-01
1	 1.836904245976013e+00	 3.760422731112877e-01	 6.278186729505810e-01
1	 1.829407281501320e+00	 4.109671500863628e-01	 6.246475950485203e-01
1	 1.821199179046478e+00	 4.459355898653836e-01	 6.177922082126880e-01
1	 1.812273130706186e+00	 4.809273331759791e-01	 6.069080280392966e-01
1	 1.802623046614941e+00	 5.159216528644683e-01	 5.916538416551500e-01
1	 1.792243586465333e+00	 5.508973832404047e-01	 5.716932182022798e-01
1	 1.781130189742346e+00	 5.858329516852289e-01	 5.466960555759562e-01
1	 1.769279104497502e+00	 6.207064124720912e-01	 5.163401550384576e-01
1	 1.756687414487809e+00	 6.554954827290598e-01	 4.803128147019998e-01
1	 1.743353064507004e+00	 6.901775804629183e-01	 4.383124323015523e-01
1	 1.855988882892821e+00	 3.434552614448158e-01	 6.404542932084563e-01
1	 1.849150274280280e+00	 3.785492215992383e-01	 6.399244737622268e-01
1	 1.841603330042052e+00	 4.137069310875700e-01	 6.362694476920371e-01
1	 1.833340506903817e+00	 4.489084937984764e-01	 6.291324391765057e-01
1	 1.824354951574237e+00	 4.841335153977702e-01	 6.181576713863811e-01
1	 1.814640533588709e+00	 5.193611305507440e-01	 6.029918542110821e-01
1	 1.804191877037770e+00	 5.545700324623478e-01	 5.832857206375184e-01
1	 1.793004391002975e+00	 5.897385046965644e-01	 5.586956041102652e-01
1	 1.781074298522854e+00	 6.248444552216972e-01	 5.288850484908130e-01
1	 1.768398663912796e+00	 6.598654526133346e-01	 4.935264415663349e-01
1	 1.754975418265163e+00	 6.947787643316375e-01	 4.523026624462042e-01
1	 1.868280199996709e+00	 3.457297996009814e-01	 6.550860510508518e-01
1	 1.861396302585124e+00	 3.810561700876036e-01	 6.537869223243461e-01
1	 1.853799378583433e+00	 4.164467120890913e-01	 6.495735722189020e-01
1	 1.845481834761856e+00	 4.518813977317833e-01	 6.420788334452826e-01
1	 1.836436772443023e+00	 4.873396976196745e-01	 6.309357382802594e-01
1	 1.826658020563224e+00	 5.228006082370322e-01	 6.157790273641330e-01
1	 1.816140167610950e+00	 5.582426816842028e-01	 5.962467118129073e-01
1	 1.804878592264319e+00	 5.936440577077110e-01	 5.719816810052509e-01
1	 1.792869492548874e+00	 6.289824979710139e-01	 5.426333476569438e-01
1	 1.780109913338382e+00	 6.642354224972196e-01	 5.078593210903352e-01
1	 1.766597772023832e+00	 6.993799481998669e-01	 4.673270989548554e-01
1	 1.880571517101082e+00	 3.480043377576615e-01	 6.715111382640433e-01
1	 1.873642330890543e+00	 3.835631185763834e-01	 6.693715745633179e-01
1	 1.865995427125461e+00	 4.191864930909272e-01	 6.645269829058763e-01
1	 1.857623162620597e+00	 4.548543016653039e-01	 6.565998976209207e-01
1	 1.848518593312543e+00	 4.905458798416917e-01	 6.452122596319130e-01
1	 1.838675507538488e+00	 5.262400859233329e-01	 6.299869462008723e-01
1	 1.828088458184871e+00	 5.619153309059697e-01	 6.105493586162527e-01
1	 1.816752793526378e+00	 5.975496107186689e-01	 5.865290602151232e-01
1	 1.804664686575561e+00	 6.331205407200413e-01	 5.575614563470230e-01
1	 1.791821162764569e+00	 6.686053923807149e-01	 5.232895071442216e-01
1	 1.778220125783012e+00	 7.039811320676065e-01	 4.833654632723059e-01
1	 1.892862834205940e+00	 3.502788759148565e-01	 6.896946198602063e-01
1	 1.885888359196539e+00	 3.860700670655777e-01	 6.866448810568070e-01
1	 1.878191475668137e+00	 4.219262740930773e-01	 6.810975508017880e-01
1	 1.869764490480039e+00	 4.578272055990384e-01	 6.726649563156932e-01
1	 1.860600414182798e+00	 4.937520620638225e-01	 6.609580447702366e-01
1	 1.850692994514499e+00	 5.296795636096463e-01	 6.455879338575825e-01
1	 1.840036748759534e+00	 5.655879801276484e-01	 6.261675248993332e-01
1	 1.828626994789152e+00	 6.014551637294382e-01	 6.023131709160663e-01
1	 1.816459880602917e+00	 6.372585834687796e-01	 5.736463912592866e-01
1	 1.803532412191354e+00	 6.729753622638208e-01	 5.397956236275527e-01
1	 1.789842479542702e+00	 7.085823159348567e-01	 5.003980035590861e-01
1	 1.905154151311284e+00	 3.525534140725660e-01	 7.096024623996232e-01
1	 1.898134387503110e+00	 3.885770155551868e-01	 7.055741581740699e-01
1	 1.890387524211462e+00	 4.246660550955419e-01	 6.992539760897105e-01
1	 1.881905818340181e+00	 4.608001095329867e-01	 6.902441257647957e-01
1	 1.872682235053787e+00	 4.969582442860664e-01	 6.781446563317943e-01
1	 1.862710481491260e+00	 5.331190412959723e-01	 6.625550277122201e-01
1	 1.851985039334939e+00	 5.692606293492392e-01	 6.430757489951839e-01
1	 1.840501196052641e+00	 6.053607167400185e-01	 6.193100763700626e-01
1	 1.828255074630939e+00	 6.413966262172286e-01	 5.908657622094428e-01
1	 1.815243661618739e+00	 6.773453321465369e-01	 5.573568460812186e-01
1	 1.801464833302902e+00	 7.131834998016169e-01	 5.184054777006250e-01
1	 1.917445468417113e+00	 3.548279522307903e-01	 7.312015050949005e-01
1	 1.910380415810258e+00	 3.910839640452103e-01	 7.261275603261841e-01
1	 1.902583572755435e+00	 4.274058360983207e-01	 7.189657615121596e-01
1	 1.894047146201024e+00	 4.637730134671488e-01	 7.093082884538470e-01
1	 1.884764055925510e+00	 5.001644265084235e-01	 6.967443861163335e-01
1	 1.874727968468767e+00	 5.365585189823108e-01	 6.808619564920408e-01
1	 1.863933329911085e+00	 5.729332785707417e-01	 6.612492221001238e-01
1	 1.852375397316846e+00	 6.092662697504101e-01	 6.374964536016194e-01
1	 1.840050268659630e+00	 6.455346689653881e-01	 6.091977531205006e-01
1	 1.826954911046724e+00	 6.817153020288634e-01	 5.759528840065995e-01
1	 1.813087187063613e+00	 7.177846836678874e-01	 5.373691369699154e-01
1	 1.929736785523427e+00	 3.571024903895291e-01	 7.544594320195238e-01
1	 1.922626444117981e+00	 3.935909125356485e-01	 7.482740532768571e-01
1	 1.914779621300055e+00	 4.301456171014137e-01	 7.402031868118720e-01
1	 1.906188474062569e+00	 4.667459174015250e-01	 7.298290687159805e-01
1	 1.896845876797968e+00	 5.033706087308940e-01	 7.167302318650315e-01
1	 1.886745455447024e+00	 5.399979966686618e-01	 7.004831182561040e-01
1	 1.875881620487973e+00	 5.766059277921560e-01	 6.806637674819043e-01
1	 1.864249598581766e+00	 6.131718227606131e-01	 6.568495738511959e-01
1	 1.851845462688989e+00	 6.496727117132586e-01	 6.286211037391141e-01
1	 1.838666160475309e+00	 6.860852719108005e-01	 5.955639638604574e-01
1	 1.824709540824834e+00	 7.223858675336682e-01	 5.572707103145182e-01
1	 1.942028102630227e+00	 3.593770285487826e-01	 7.793447453716954e-01
1	 1.934872472426280e+00	 3.960978610265014e-01	 7.719833884666792e-01
1	 1.926975669845323e+00	 4.328853981048212e-01	 7.629372841431691e-01
1	 1.918329801924813e+00	 4.697188213361148e-01	 7.517788092556521e-01
1	 1.908927697671160e+00	 5.065767909534776e-01	 7.380758749205805e-01
1	 1.898762942426027e+00	 5.434374743550253e-01	 7.213935592139042e-01
1	 1.887829911065603e+00	 5.802785770134823e-01	 7.012958204774860e-01
1	 1.876123799847400e+00	 6.170773757706272e-01	 6.773472837708974e-01
1	 1.863640656719016e+00	 6.538107544608398e-01	 6.491150920461857e-01
1	 1.850377409904492e+00	 6.904552417923476e-01	 6.161708126956097e-01
1	 1.836331894586565e+00	 7.269870513989594e-01	 5.780923892403038e-01
1	 1.954319419737511e+00	 3.616515667085508e-01	 8.058267397472109e-01
1	 1.947118500735156e+00	 3.986048095177688e-01	 7.972260783063396e-01
1	 1.939171718391239e+00	 4.356251791085429e-01	 7.871398144112600e-01
1	 1.930471129787760e+00	 4.726917252709185e-01	 7.751305485583934e-01
1	 1.921009518545086e+00	 5.097829731761744e-01	 7.607556587302766e-01
1	 1.910780429405780e+00	 5.468769520414016e-01	 7.435689533432561e-01
1	 1.899778201643975e+00	 5.839512262347204e-01	 7.231224092455268e-01
1	 1.887998001113750e+00	 6.209829287804526e-01	 6.989679873297744e-01
1	 1.875435850749710e+00	 6.579487972081314e-01	 6.706595173313039e-01
1	 1.862088659334276e+00	 6.948252116735054e-01	 6.377546424188878e-01
1	 1.847954248348806e+00	 7.315882352637606e-01	 5.998168132655722e-01
1	 1.966610736845282e+00	 3.639261048688338e-01	 8.338754773769781e-01
1	 1.959364529044608e+00	 4.011117580094511e-01	 8.239733723962597e-01
1	 1.951367766937805e+00	 4.383649601125791e-01	 8.127832444987175e-01
1	 1.942612457651407e+00	 4.756646292059362e-01	 7.998579991475898e-01
1	 1.933091339419748e+00	 5.129891553989847e-01	 7.847445681552501e-01
1	 1.922797916386281e+00	 5.503164297277904e-01	 7.669855827725545e-01
1	 1.911726492223089e+00	 5.876238754558706e-01	 7.461211362407689e-01
1	 1.899872202380815e+00	 6.248884817900893e-01	 7.216906283976623e-01
1	 1.887231044781072e+00	 6.620868399551341e-01	 6.932346839018223e-01
1	 1.873799908764660e+00	 6.991951815542736e-01	 6.602971346394627e-01
1	 1.859576602111558e+00	 7.361894191280726e-01	 6.224270559206816e-01
1	 1.743353064507004e+00	 6.901775804629183e-01	 4.383124323015523e-01
1	 1.729274883740578e+00	 7.247298645455649e-01	 4.000965160927732e-01
1	 1.714452606980928e+00	 7.591292765506406e-01	 3.564234331603557e-01
1	 1.698886893546374e+00	 7.933525843124138e-01	 3.068002852345910e-01
1	 1.682579343755863e+00	 8.273764270649256e-01	 2.507430466700765e-01
1	 1.665532512820283e+00	 8.611773620061519e-01	 1.877788481341544e-01
1	 1.647749922022751e+00	 8.947319121182951e-01	 1.174482663817877e-01
1	 1.629236067072467e+00	 9.280166150632179e-01	 3.930760505431652e-02
1	 1.609996423530313e+00	 9.610080729608007e-01	-4.706884897650493e-02
1	 1.590037449219140e+00	 9.936830028478698e-01	-1.420866094704960e-01
1	 1.569366583547552e+00	 1.026018287606500e+00	-2.461288307592923e-01
1	 1.754975418265163e+00	 6.947787643316375e-01	 4.523026624462042e-01
1	 1.740803382960041e+00	 7.295613969744104e-01	 4.137031675952818e-01
1	 1.725882291021801e+00	 7.641901383925472e-01	 3.697475049690221e-01
1	 1.710212806164218e+00	 7.986416015392133e-01	 3.199388315692015e-01
1	 1.693796539375036e+00	 8.328922699100104e-01	 2.637889253254405e-01
1	 1.676636062899880e+00	 8.669185444175695e-01	 2.008204829519121e-01
1	 1.658734921497089e+00	 9.006967915306421e-01	 1.305694253502764e-01
1	 1.640097640847259e+00	 9.342033924955047e-01	 5.258719542633755e-02
1	 1.620729733015010e+00	 9.674147934461709e-01	-3.355696724140655e-02
1	 1.600637698875349e+00	 1.000307556199713e+00	-1.282737907287524e-01
1	 1.579829027432933e+00	 1.032858409524087e+00	-2.319517900688284e-01
1	 1.766597772023832e+00	 6.993799481998669e-01	 4.673270989548554e-01
1	 1.752331882179924e+00	 7.343929294026761e-01	 4.283324984541402e-01
1	 1.737311975063022e+00	 7.692510002338026e-01	 3.840820583342709e-01
1	 1.721538718782361e+00	 8.039306187653088e-01	 3.340750054205913e-01
1	 1.705013734994474e+00	 8.384081127543593e-01	 2.778189376609652e-01
1	 1.687739612979730e+00	 8.726597268282392e-01	 2.148321361338669e-01
1	 1.669719920971688e+00	 9.066616709422494e-01	 1.446458860532088e-01
1	 1.650959214622339e+00	 9.403901699270792e-01	 6.680679156736119e-02
1	 1.631463042500044e+00	 9.738215139308771e-01	-1.912093129273185e-02
1	 1.611237948531963e+00	 1.006932109550961e+00	-1.135531994597944e-01
1	 1.590291471318810e+00	 1.039698531441169e+00	-2.168838615595620e-01
1	 1.778220125783012e+00	 7.039811320676065e-01	 4.833654632723059e-01
1	 1.763860381400227e+00	 7.392244618303614e-01	 4.439644561337474e-01
1	 1.748741659104592e+00	 7.743118620744064e-01	 3.994072798928756e-01
1	 1.732864631400799e+00	 8.092196359907015e-01	 3.491892454653466e-01
1	 1.716230930614176e+00	 8.439239555979724e-01	 2.928137869380726e-01
1	 1.698843163059831e+00	 8.784009092381607e-01	 2.297947877121382e-01
1	 1.680704920446545e+00	 9.126265503531157e-01	 1.596589170838559e-01
1	 1.661820788397706e+00	 9.465769473579415e-01	 8.194796199131704e-02
1	 1.642196351985415e+00	 9.802282344149192e-01	-3.778861801975841e-03
1	 1.621838198188981e+00	 1.013556662901614e+00	-9.794263512582835e-02
1	 1.600753915205181e+00	 1.046538653357745e+00	-2.009425136212483e-01
1	 1.789842479542702e+00	 7.085823159348567e-01	 5.003980035590861e-01
1	 1.775388880620949e+00	 7.440559942574663e-01	 4.605795089435886e-01
1	 1.760171343146511e+00	 7.793727239143585e-01	 4.157038709144232e-01
1	 1.744190544019534e+00	 8.145086532153905e-01	 3.652624984663784e-01
1	 1.727448126234142e+00	 8.494397984408504e-01	 3.087546776321801e-01
1	 1.709946713140184e+00	 8.841420916473343e-01	 2.456899117439856e-01
1	 1.691689919921663e+00	 9.185914297632422e-01	 1.755902735655322e-01
1	 1.672682362173361e+00	 9.527637247880916e-01	 9.799275395203605e-02
1	 1.652929661471120e+00	 9.866349548982979e-01	 1.245159122615641e-02
1	 1.632438447846405e+00	 1.020181216251673e+00	-8.145943486537416e-02
1	 1.611216359092047e+00	 1.053378775273816e+00	-1.841447609192404e-01
1	 1.801464833302902e+00	 7.131834998016169e-01	 5.184054777006250e-01
1	 1.786917379842092e+00	 7.488875266839913e-01	 4.781586292367854e-01
1	 1.771601027188778e+00	 7.844335857536594e-01	 4.329530307002603e-01
1	 1.755516456638565e+00	 8.197976704393758e-01	 3.822762028830428e-01
1	 1.738665321854372e+00	 8.549556412829922e-01	 3.256232992644967e-01
1	 1.721050263220789e+00	 8.898832740557597e-01	 2.624994603755139e-01
1	 1.702674919397040e+00	 9.245563091726281e-01	 1.924221814570782e-01
1	 1.683543935949303e+00	 9.589505022175293e-01	 1.149236780000201e-01
1	 1.663662970957163e+00	 9.930416753810126e-01	 2.955323327095033e-02
1	 1.643038697504234e+00	 1.026805769601136e+00	-6.412048840692774e-02
1	 1.621678802979408e+00	 1.060218897189382e+00	-1.665071790307514e-01
1	 1.813087187063613e+00	 7.177846836678874e-01	 5.373691369699154e-01
1	 1.798445879063653e+00	 7.537190591099358e-01	 4.966832772548436e-01
1	 1.783030711231393e+00	 7.894944475923085e-01	 4.511364406209323e-01
1	 1.766842369257893e+00	 8.250866876626581e-01	 4.002122731116365e-01
1	 1.749882517474867e+00	 8.604714841243986e-01	 3.434018108556924e-01
1	 1.732153813301645e+00	 8.956244564634370e-01	 2.802058485183124e-01
1	 1.713659918872676e+00	 9.305211885812739e-01	 2.101373224619796e-01
1	 1.694405509725534e+00	 9.651372796462546e-01	 1.327236931331944e-01
1	 1.674396280443541e+00	 9.994483958630631e-01	 4.750931069683717e-02
1	 1.653638947162468e+00	 1.033430322950004e+00	-4.594225240902255e-02
1	 1.632141246867263e+00	 1.067059019104442e+00	-1.480459185182013e-01
1	 1.824709540824834e+00	 7.223858675336682e-01	 5.572707103145182e-01
1	 1.809974378285636e+00	 7.585505915353004e-01	 5.161353855898098e-01
1	 1.794460395274358e+00	 7.945553094303062e-01	 4.702362487636620e-01
1	 1.778168281877518e+00	 8.303757048852366e-01	 4.190530843281746e-01
1	 1.761099713095627e+00	 8.659873269650693e-01	 3.620728259736805e-01
1	 1.743257363382755e+00	 9.013656388703668e-01	 2.987919391117010e-01
1	 1.724644918348573e+00	 9.364860679891791e-01	 2.287188195142058e-01
1	 1.705267083502052e+00	 9.713240570742675e-01	 1.513761925151398e-01
1	 1.685129589930255e+00	 1.005855116344450e+00	 6.630349671246116e-02
1	 1.664239196821106e+00	 1.040054876298278e+00	-2.694076425227337e-02
1	 1.642603690755613e+00	 1.073899141018997e+00	-1.287767184647127e-01
1	 1.836331894586565e+00	 7.269870513989594e-01	 5.780923892403038e-01
1	 1.821502877508037e+00	 7.633821239600846e-01	 5.364973442364642e-01
1	 1.805890079317670e+00	 7.996161712676525e-01	 4.902350551628361e-01
1	 1.789494194497439e+00	 8.356647221071117e-01	 4.387814579067408e-01
1	 1.772316908716650e+00	 8.715031698050042e-01	 3.816193983492189e-01
1	 1.754360913464116e+00	 9.071068212765480e-01	 3.182410289446405e-01
1	 1.735629917824729e+00	 9.424509473963442e-01	 2.481502228152207e-01
1	 1.716128657278858e+00	 9.775108345015684e-01	 1.708649897356744e-01
1	 1.695862899417306e+00	 1.012261836825173e+00	 8.591987786295757e-02
1	 1.674839446480150e+00	 1.046679429645957e+00	-7.131655307659635e-03
1	 1.653066134644457e+00	 1.080739262933047e+00	-1.087149194956115e-01
1	 1.847954248348806e+00	 7.315882352637606e-01	 5.998168132655722e-01
1	 1.833031376730859e+00	 7.682136563842887e-01	 5.577519862086034e-01
1	 1.817319763361331e+00	 8.046770331043469e-01	 5.111158975878233e-01
1	 1.800820107117657e+00	 8.409537393282837e-01	 4.593806473881261e-01
1	 1.783534104337938e+00	 8.770190126442036e-01	 4.020250080342932e-01
1	 1.765464463545728e+00	 9.128480036819814e-01	 3.385368350126513e-01
1	 1.746614917301145e+00	 9.484158268027688e-01	 2.684154963978971e-01
1	 1.726990231055951e+00	 9.836976119281569e-01	 1.911743055899047e-01
1	 1.706596208904692e+00	 1.018668557305231e+00	 1.063429410319458e-01
1	 1.685439696139599e+00	 1.053303982993040e+00	 1.346983629587417e-02
1	 1.663528578533797e+00	 1.087579384846591e+00	-8.787547630854220e-02
1	 1.859576602111558e+00	 7.361894191280726e-01	 6.224270559206816e-01
1	 1.844559875954101e+00	 7.730451888079128e-01	 5.798825736946722e-01
1	 1.828749447405340e+00	 8.097378949403902e-01	 5.328622378637858e-01
1	 1.812146019738172e+00	 8.462427565487523e-01	 4.808343249745946e-01
1	 1.794751299959490e+00	 8.825348554826673e-01	 4.232735480796062e-01
1	 1.776568013627593e+00	 9.185891860866668e-01	 3.596634813863722e-01
1	 1.757599916777820e+00	 9.543807062084535e-01	 2.894990051942833e-01
1	 1.737851804833333e+00	 9.898843893540332e-01	 2.122887553530548e-01
1	 1.717329518392415e+00	 1.025075277784627e+00	 1.275575609309549e-01
1	 1.696039945799453e+00	 1.059928536339529e+00	 3.484885338260435e-02
1	 1.673991022423631e+00	 1.094419506759630e+00	-6.627296973371355e-02
1	 1.569366583547552e+00	 1.026018287606500e+00	-2.461288307592923e-01
1	 1.547992243692877e+00	 1.057991027143265e+00	-3.557944814555664e-01
1	 1.525923817606285e+00	 1.089578589594028e+00	-4.721212912081904e-01
1	 1.503171653821628e+00	 1.120758662325927e+00	-5.954373484084513e-01
1	 1.479747048068645e+00	 1.151509302505199e+00	-7.260520553826701e-01
1	 1.455662226709656e+00	 1.181808986997448e+00	-8.642544607263324e-01
1	 1.430930327038606e+00	 1.211636661368759e+00	-1.010311675578295e+00
1	 1.405565374500522e+00	 1.240971787758436e+00	-1.164467385813808e+00
1	 1.379582256908508e+00	 1.269794391398509e+00	-1.326940471498065e+00
1	 1.352996695754110e+00	 1.298085105561391e+00	-1.497923744179031e+00
1	 1.325825214725000e+00	 1.325825214725000e+00	-1.677582811717003e+00
1	 1.579829027432933e+00	 1.032858409524087e+00	-2.319517900688284e-01
1	 1.558312191979597e+00	 1.065044300658442e+00	-3.413393789171473e-01
1	 1.536096643052833e+00	 1.096842446859411e+00	-4.573405761219185e-01
1	 1.513192798176722e+00	 1.128230386743245e+00	-5.802929295085643e-01
1	 1.489612028385866e+00	 1.159186031190622e+00	-7.105154189872723e-01
1	 1.465366641551668e+00	 1.189687713579582e+00	-8.483067489836027e-01
1	 1.440469862550032e+00	 1.219714239113318e+00	-9.939437240663328e-01
1	 1.414935810328952e+00	 1.249244933012061e+00	-1.147679720017877e+00
1	 1.388779471953618e+00	 1.278259687342719e+00	-1.309743261962602e+00
1	 1.362016673725522e+00	 1.306739006266193e+00	-1.480336720409332e+00
1	 1.334664049490250e+00	 1.334664049490250e+00	-1.659635135184360e+00
1	 1.590291471318810e+00	 1.039698531441169e+00	-2.168838615595620e-01
1	 1.568632140266901e+00	 1.072097574173214e+00	-3.260294393370811e-01
1	 1.546269468500037e+00	 1.104106304124489e+00	-4.417415147583361e-01
1	 1.523213942532522e+00	 1.135702111160359e+00	-5.643670277776015e-01
1	 1.499477008703824e+00	 1.166862759875942e+00	-6.942344670920124e-01
1	 1.475071056394428e+00	 1.197566440161714e+00	-8.316521229000020e-01
1	 1.450009398062197e+00	 1.227791816857975e+00	-9.769064221224913e-01
1	 1.424306246158092e+00	 1.257518078265884e+00	-1.130260358597588e+00
1	 1.397976686999389e+00	 1.286724983287230e+00	-1.291952030136006e+00
1	 1.371036651697523e+00	 1.315392906971395e+00	-1.462193293569672e+00
1	 1.343502884256000e+00	 1.343502884256000e+00	-1.641168548046982e+00
1	 1.600753915205181e+00	 1.046538653357745e+00	-2.009425136212483e-01
1	 1.578952088554790e+00	 1.079150847687581e+00	-3.098814242270006e-01
1	 1.556442293947896e+00	 1.111370161389263e+00	-4.253401531237576e-01
1	 1.533235086889028e+00	 1.143173835577269e+00	-5.476749664090653e-01
1	 1.509341989022520e+00	 1.174539488561158e+00	-6.772237941190588e-01
1	 1.484775471237937e+00	 1.205445166743843e+00	-8.143044435414830e-01
1	 1.459548933575101e+00	 1.235869394602729e+00	-9.592128942653397e-01
1	 1.433676681987940e+00	 1.265791223519906e+00	-1.112221687741791e+00
1	 1.407173902045819e+00	 1.295190279232040e+00	-1.273578423514165e+00
1	 1.380056629670115e+00	 1.324046807676997e+00	-1.443504373524029e+00
1	 1.352341719022250e+00	 1.352341719022250e+00	-1.622193225022299e+00
1	 1.611216359092047e+00	 1.053378775273816e+00	-1.841447609192404e-01
1	 1.589272036843264e+00	 1.086204121201542e+00	-2.929116597346139e-01
1	 1.566615119396410e+00	 1.118634018653731e+00	-4.081521204451229e-01
1	 1.543256231246241e+00	 1.150645559993975e+00	-5.302316705914417e-01
1	 1.519206969341953e+00	 1.182216217246272e+00	-6.594976154146687e-01
1	 1.494479886082193e+00	 1.213323893325969e+00	-7.962772119463172e-01
1	 1.469088469088744e+00	 1.243946972347583e+00	-9.408759241168639e-01
1	 1.443047117818499e+00	 1.274064368774127e+00	-1.093575771920162e+00
1	 1.416371117092909e+00	 1.303655575177150e+00	-1.254633787060653e+00
1	 1.389076607643296e+00	 1.332700708382998e+00	-1.424280586763252e+00
1	 1.361180553789000e+00	 1.361180553789000e+00	-1.602719076549365e+00
1	 1.621678802979408e+00	 1.060218897189382e+00	-1.665071790307514e-01
1	 1.599591985132323e+00	 1.093257394715098e+00	-2.751360506876886e-01
1	 1.576787944845580e+00	 1.125897875917895e+00	-3.901926426144886e-01
1	 1.553277375604159e+00	 1.158117284410476e+00	-5.120516803470689e-01
1	 1.529071949662122e+00	 1.189892945931280e+00	-6.410697794774795e-01
1	 1.504184300927196e+00	 1.221202619908093e+00	-7.775835807388972e-01
1	 1.478628004603125e+00	 1.252024550092534e+00	-9.219079653991371e-01
1	 1.452417553649766e+00	 1.282337514028546e+00	-1.074334364261241e+00
1	 1.425568332140659e+00	 1.312120871122559e+00	-1.235129172965752e+00
1	 1.398096585617068e+00	 1.341354609089400e+00	-1.404532285546231e+00
1	 1.370019388556250e+00	 1.370019388556250e+00	-1.582755757313991e+00
1	 1.632141246867263e+00	 1.067059019104442e+00	-1.480459185182013e-01
1	 1.609911933421967e+00	 1.100310668228250e+00	-2.565700940979005e-01
1	 1.586960770295406e+00	 1.133161733181755e+00	-3.714765551164249e-01
1	 1.563298519962784e+00	 1.165589008826773e+00	-4.931491628772017e-01
1	 1.538936929983029e+00	 1.197569674616187e+00	-6.219537797164177e-01
1	 1.513888715772949e+00	 1.229081346490214e+00	-7.582363652968453e-01
1	 1.488167540118244e+00	 1.260102127837583e+00	-9.023211525080532e-01
1	 1.461787989481743e+00	 1.290610659283165e+00	-1.054508916531306e+00
1	 1.434765547189069e+00	 1.320586167068268e+00	-1.215075350030279e+00
1	 1.407116563591429e+00	 1.350008509796201e+00	-1.384269556689305e+00
1	 1.378858223324000e+00	 1.378858223324000e+00	-1.562312674445943e+00
1	 1.642603690755613e+00	 1.073899141018997e+00	-1.287767184647127e-01
1	 1.620231881712195e+00	 1.107363941740996e+00	-2.372288921486054e-01
1	 1.597133595745887e+00	 1.140425590445309e+00	-3.520183154613769e-01
1	 1.573319664322116e+00	 1.173060733242866e+00	-4.735379244352992e-01
1	 1.548801910304673e+00	 1.205246403300989e+00	-6.021627657592842e-01
1	 1.523593130619449e+00	 1.236960073072333e+00	-7.382480544913451e-01
1	 1.497707075634103e+00	 1.268179705582731e+00	-8.821273106829103e-01
1	 1.471158425314429e+00	 1.298883804537982e+00	-1.034110588731876e+00
1	 1.443962762238138e+00	 1.329051463014275e+00	-1.194482812690732e+00
1	 1.416136541566381e+00	 1.358662410503402e+00	-1.363502230019858e+00
1	 1.387697058092250e+00	 1.387697058092250e+00	-1.541398995402921e+00
1	 1.653066134644457e+00	 1.080739262933047e+00	-1.087149194956115e-01
1	 1.630551830003009e+00	 1.114417215253336e+00	-2.171271646894061e-01
1	 1.607306421197023e+00	 1.147689447708559e+00	-3.318320151468773e-01
1	 1.583340808682154e+00	 1.180532457658756e+00	-4.532314217494263e-01
1	 1.558666890627054e+00	 1.212923131985688e+00	-5.817095543319402e-01
1	 1.533297545466696e+00	 1.244838799654449e+00	-7.176308210196545e-01
1	 1.507246611150701e+00	 1.276257283327976e+00	-8.613379657898650e-01
1	 1.480528861147824e+00	 1.307156949792999e+00	-1.013150258332816e+00
1	 1.453159977287867e+00	 1.337516758960583e+00	-1.173361789701632e+00
1	 1.425156519541922e+00	 1.367316311211003e+00	-1.342239886508910e+00
1	 1.396535892861000e+00	 1.396535892861000e+00	-1.520023655555079e+00
1	 1.663528578533797e+00	 1.087579384846591e+00	-8.787547630854220e-02
1	 1.640871778294408e+00	 1.121470488765272e+00	-1.962792612592339e-01
1	 1.617479246648815e+00	 1.154953304971504e+00	-3.109313911673747e-01
1	 1.593361953042898e+00	 1.188004182074440e+00	-4.322427730136119e-01
1	 1.568531870950172e+00	 1.220599860670283e+00	-5.606066397268830e-01
1	 1.543001960314693e+00	 1.252717526236562e+00	-6.963965313476334e-01
1	 1.516786146668037e+00	 1.284334861073320e+00	-8.399643537361989e-01
1	 1.489899296981929e+00	 1.315430095048214e+00	-9.916385291569624e-01
1	 1.462357192338255e+00	 1.345982054907189e+00	-1.151722252490398e+00
1	 1.434176497518053e+00	 1.375970211919004e+00	-1.320491866096781e+00
1	 1.405374727630250e+00	 1.405374727630250e+00	-1.498195365483397e+00
1	 1.673991022423631e+00	 1.094419506759630e+00	-6.627296973371355e-02
1	 1.651191726586392e+00	 1.128523762276803e+00	-1.746991726585390e-01
1	 1.627652072101263e+00	 1.162217162234144e+00	-2.893298370924611e-01
1	 1.603383097404348e+00	 1.195475906489921e+00	-4.105847684670325e-01
1	 1.578396851274028e+00	 1.228276589354776e+00	-5.388662038793138e-01
1	 1.552706375163437e+00	 1.260596252818672e+00	-6.745567552795252e-01
1	 1.526325682186112e+00	 1.292412438818762e+00	-8.180174295315148e-01
1	 1.499269732816743e+00	 1.323703240303628e+00	-9.695857399315673e-01
1	 1.471554407389304e+00	 1.354447350854096e+00	-1.129573923198752e+00
1	 1.443196475494775e+00	 1.384624112627405e+00	-1.298267275225285e+00
1	 1.414213562400000e+00	 1.414213562400000e+00	-1.475922618004332e+00
1	 1.325825214725000e+00	 1.325825214725000e+00	-1.677582811717003e+00
1	 1.298085105561391e+00	 1.352996695754110e+00	-1.869469760637714e+00
1	 1.269794391398509e+00	 1.379582256908508e+00	-2.065018794304032e+00
1	 1.240971787758436e+00	 1.405565374500522e+00	-2.264209483512421e+00
1	 1.211636661368759e+00	 1.430930327038606e+00	-2.467010973963893e+00
1	 1.181808986997448e+00	 1.455662226709656e+00	-2.673381875622914e+00
1	 1.151509302505200e+00	 1.479747048068645e+00	-2.883270206194635e+00
1	 1.120758662325928e+00	 1.503171653821628e+00	-3.096613389411561e+00
1	 1.089578589594029e+00	 1.525923817606285e+00	-3.313338308361280e+00
1	 1.057991027143266e+00	 1.547992243692877e+00	-3.533361413626622e+00
1	 1.026018287606500e+00	 1.569366583547552e+00	-3.756588885553307e+00
1	 1.334664049490250e+00	 1.334664049490250e+00	-1.659635135184360e+00
1	 1.306739006266193e+00	 1.362016673725522e+00	-1.850562744617465e+00
1	 1.278259687342720e+00	 1.388779471953618e+00	-2.045205329048028e+00
1	 1.249244933012061e+00	 1.414935810328952e+00	-2.243552725950869e+00
1	 1.219714239113318e+00	 1.440469862550032e+00	-2.445584122536904e+00
1	 1.189687713579582e+00	 1.465366641551668e+00	-2.651267904057153e+00
1	 1.159186031190623e+00	 1.489612028385866e+00	-2.860561557782527e+00
1	 1.128230386743246e+00	 1.513192798176721e+00	-3.073411633604196e+00
1	 1.096842446859412e+00	 1.536096643052833e+00	-3.289753761723138e+00
1	 1.065044300658443e+00	 1.558312191979596e+00	-3.509512727417704e+00
1	 1.032858409524087e+00	 1.579829027432933e+00	-3.732602602401171e+00
1	 1.343502884256000e+00	 1.343502884256000e+00	-1.641168548046982e+00
1	 1.315392906971395e+00	 1.371036651697524e+00	-1.831183133648283e+00
1	 1.286724983287230e+00	 1.397976686999389e+00	-2.024965243348363e+00
1	 1.257518078265884e+00	 1.424306246158092e+00	-2.222514893000342e+00
1	 1.227791816857975e+00	 1.450009398062197e+00	-2.423821224304345e+00
1	 1.197566440161714e+00	 1.475071056394428e+00	-2.628862312362640e+00
1	 1.166862759875943e+00	 1.499477008703824e+00	-2.837605030459085e+00
1	 1.135702111160360e+00	 1.523213942532522e+00	-3.050004973259591e+00
1	 1.104106304124490e+00	 1.546269468500036e+00	-3.266006439137255e+00
1	 1.072097574173215e+00	 1.568632140266900e+00	-3.485542471827198e+00
1	 1.039698531441169e+00	 1.590291471318810e+00	-3.708534961118194e+00
1	 1.352341719022250e+00	 1.352341719022250e+00	-1.622193225022299e+00
1	 1.324046807676997e+00	 1.380056629670115e+00	-1.811340194297439e+00
1	 1.295190279232041e+00	 1.407173902045819e+00	-2.004306902311333e+00
1	 1.265791223519906e+00	 1.433676681987940e+00	-2.201103456726800e+00
1	 1.235869394602730e+00	 1.459548933575101e+00	-2.401728868418700e+00
1	 1.205445166743843e+00	 1.484775471237936e+00	-2.606170818580463e+00
1	 1.174539488561159e+00	 1.509341989022520e+00	-2.814405484594381e+00
1	 1.143173835577269e+00	 1.533235086889027e+00	-3.026397426112944e+00
1	 1.111370161389264e+00	 1.556442293947895e+00	-3.242099532287977e+00
1	 1.079150847687582e+00	 1.578952088554790e+00	-3.461453030567497e+00
1	 1.046538653357745e+00	 1.600753915205181e+00	-3.684387556960745e+00
1	 1.361180553789000e+00	 1.361180553789000e+00	-1.602719076549365e+00
1	 1.332700708382998e+00	 1.389076607643297e+00	-1.791042952442115e+00
1	 1.303655575177150e+00	 1.416371117092909e+00	-1.983238453767770e+00
1	 1.274064368774127e+00	 1.443047117818499e+00	-2.179325695116537e+00
1	 1.243946972347583e+00	 1.469088469088743e+00	-2.379313472885629e+00
1	 1.213323893325970e+00	 1.494479886082192e+00	-2.583198992231155e+00
1	 1.182216217246271e+00	 1.519206969341952e+00	-2.790967654315114e+00
1	 1.150645559993975e+00	 1.543256231246240e+00	-3.002592905542697e+00
1	 1.118634018653732e+00	 1.566615119396410e+00	-3.218036149958777e+00
1	 1.086204121201543e+00	 1.589272036843264e+00	-3.437246725436365e+00
1	 1.053378775273816e+00	 1.611216359092047e+00	-3.660161943750019e+00
1	 1.370019388556250e+00	 1.370019388556250e+00	-1.582755757313991e+00
1	 1.341354609089400e+00	 1.398096585617068e+00	-1.770300201033673e+00
1	 1.312120871122559e+00	 1.425568332140659e+00	-1.961767835281886e+00
1	 1.282337514028547e+00	 1.452417553649766e+00	-2.157188698336884e+00
1	 1.252024550092534e+00	 1.478628004603124e+00	-2.356581290084819e+00
1	 1.221202619908093e+00	 1.504184300927196e+00	-2.559952259105690e+00
1	 1.189892945931281e+00	 1.529071949662122e+00	-2.767296151576980e+00
1	 1.158117284410477e+00	 1.553277375604159e+00	-2.978595223936879e+00
1	 1.125897875917896e+00	 1.576787944845579e+00	-3.193819320706387e+00
1	 1.093257394715099e+00	 1.599591985132322e+00	-3.412925818314204e+00
1	 1.060218897189382e+00	 1.621678802979408e+00	-3.635859635208542e+00
1	 1.378858223324000e+00	 1.378858223324000e+00	-1.562312674445943e+00
1	 1.350008509796201e+00	 1.407116563591429e+00	-1.749120507563181e+00
1	 1.320586167068267e+00	 1.434765547189069e+00	-1.939902780890630e+00
1	 1.290610659283165e+00	 1.461787989481743e+00	-2.134699374755999e+00
1	 1.260102127837583e+00	 1.488167540118244e+00	-2.333538412078579e+00
1	 1.229081346490215e+00	 1.513888715772948e+00	-2.536435905872231e+00
1	 1.197569674616187e+00	 1.538936929983029e+00	-2.743395470080377e+00
1	 1.165589008826774e+00	 1.563298519962784e+00	-2.954408095930018e+00
1	 1.133161733181756e+00	 1.586960770295405e+00	-3.169451995432368e+00
1	 1.100310668228251e+00	 1.609911933421966e+00	-3.388492513084488e+00
1	 1.067059019104442e+00	 1.632141246867263e+00	-3.611482106245479e+00
1	 1.387697058092250e+00	 1.387697058092250e+00	-1.541398995402921e+00
1	 1.358662410503402e+00	 1.416136541566380e+00	-1.727512221241667e+00
1	 1.329051463014275e+00	 1.443962762238138e+00	-1.917650827585431e+00
1	 1.298883804537982e+00	 1.471158425314429e+00	-2.111864456732666e+00
1	 1.268179705582731e+00	 1.497707075634103e+00	-2.310190775717404e+00
1	 1.236960073072333e+00	 1.523593130619448e+00	-2.512655084506689e+00
1	 1.205246403300989e+00	 1.548801910304673e+00	-2.719269989036559e+00
1	 1.173060733242868e+00	 1.573319664322116e+00	-2.930035141516226e+00
1	 1.140425590445310e+00	 1.597133595745886e+00	-3.144937049855931e+00
1	 1.107363941740996e+00	 1.620231881712195e+00	-3.363948957480827e+00
1	 1.073899141018997e+00	 1.642603690755613e+00	-3.587030794192682e+00
1	 1.396535892861000e+00	 1.396535892861000e+00	-1.520023655555079e+00
1	 1.367316311211003e+00	 1.425156519541922e+00	-1.705483479907779e+00
1	 1.337516758960583e+00	 1.453159977287867e+00	-1.895019321547800e+00
1	 1.307156949792999e+00	 1.480528861147824e+00	-2.088690506186221e+00
1	 1.276257283327977e+00	 1.507246611150701e+00	-2.286544167551791e+00
1	 1.244838799654449e+00	 1.533297545466696e+00	-2.488614816555315e+00
1	 1.212923131985688e+00	 1.558666890627054e+00	-2.694923976790652e+00
1	 1.180532457658757e+00	 1.583340808682153e+00	-2.905479889044233e+00
1	 1.147689447708560e+00	 1.607306421197023e+00	-3.120277286893408e+00
1	 1.114417215253337e+00	 1.630551830003009e+00	-3.339297244863754e+00
1	 1.080739262933047e+00	 1.653066134644457e+00	-3.562507099993871e+00
1	 1.405374727630250e+00	 1.405374727630250e+00	-1.498195365483397e+00
1	 1.375970211919004e+00	 1.434176497518053e+00	-1.683042216674643e+00
1	 1.345982054907189e+00	 1.462357192338255e+00	-1.872015424149679e+00
1	 1.315430095048214e+00	 1.489899296981929e+00	-2.065183919956269e+00
1	 1.284334861073321e+00	 1.516786146668037e+00	-2.262604228558676e+00
1	 1.252717526236562e+00	 1.543001960314692e+00	-2.464319997236052e+00
1	 1.220599860670284e+00	 1.568531870950172e+00	-2.670361594308033e+00
1	 1.188004182074441e+00	 1.593361953042897e+00	-2.880745778099248e+00
1	 1.154953304971505e+00	 1.617479246648815e+00	-3.095475438947395e+00
1	 1.121470488765273e+00	 1.640871778294407e+00	-3.314539415930700e+00
1	 1.087579384846591e+00	 1.663528578533797e+00	-3.537912389348828e+00
1	 1.414213562400000e+00	 1.414213562400000e+00	-1.475922618004332e+00
1	 1.384624112627405e+00	 1.443196475494774e+00	-1.660196166327573e+00
1	 1.354447350854096e+00	 1.471554407389304e+00	-1.848646117728681e+00
1	 1.323703240303628e+00	 1.499269732816743e+00	-2.041350934961423e+00
1	 1.292412438818763e+00	 1.526325682186112e+00	-2.238376458690523e+00
1	 1.260596252818672e+00	 1.552706375163436e+00	-2.439775399386463e+00
1	 1.228276589354776e+00	 1.578396851274027e+00	-2.645586898529936e+00
1	 1.195475906489922e+00	 1.603383097404348e+00	-2.855836162276860e+00
1	 1.162217162234145e+00	 1.627652072101262e+00	-3.070534170110497e+00
1	 1.128523762276804e+00	 1.651191726586391e+00	-3.289677460361631e+00
1	 1.094419506759630e+00	 1.673991022423631e+00	-3.513247993814950e+00
1	 1.026018287606500e+00	 1.569366583547552e+00	-3.756588885553307e+00
1	 9.936830028478698e-01	 1.590037449219140e+00	-3.990760399950559e+00
1	 9.610080729608007e-01	 1.609996423530313e+00	-4.222036896071456e+00
1	 9.280166150632180e-01	 1.629236067072467e+00	-4.450194585173565e+00
1	 8.947319121182953e-01	 1.647749922022751e+00	-4.675023452058083e+00
1	 8.611773620061525e-01	 1.665532512820283e+00	-4.896327605188731e+00
1	 8.273764270649263e-01	 1.682579343755863e+00	-5.113925551530444e+00
1	 7.933525843124147e-01	 1.698886893546373e+00	-5.327650396601579e+00
1	 7.591292765506416e-01	 1.714452606980927e+00	-5.537349970794688e+00
1	 7.247298645455660e-01	 1.729274883740578e+00	-5.742886883555512e+00
1	 6.901775804629183e-01	 1.743353064507004e+00	-5.944138507507356e+00
1	 1.032858409524087e+00	 1.579829027432933e+00	-3.732602602401171e+00
1	 1.000307556199713e+00	 1.600637698875349e+00	-3.965829393386187e+00
1	 9.674147934461709e-01	 1.620729733015011e+00	-4.196200939318197e+00
1	 9.342033924955050e-01	 1.640097640847259e+00	-4.423492633483701e+00
1	 9.006967915306425e-01	 1.658734921497089e+00	-4.647493707039016e+00
1	 8.669185444175702e-01	 1.676636062899880e+00	-4.868007580565259e+00
1	 8.328922699100108e-01	 1.693796539375036e+00	-5.084852139773281e+00
1	 7.986416015392142e-01	 1.710212806164218e+00	-5.297859935863952e+00
1	 7.641901383925483e-01	 1.725882291021801e+00	-5.506878311617540e+00
1	 7.295613969744115e-01	 1.740803382960041e+00	-5.711769454822198e+00
1	 6.947787643316375e-01	 1.754975418265163e+00	-5.912410381155428e+00
1	 1.039698531441169e+00	 1.590291471318810e+00	-3.708534961118194e+00
1	 1.006932109550961e+00	 1.611237948531963e+00	-3.940814417191199e+00
1	 9.738215139308771e-01	 1.631463042500044e+00	-4.170278682085709e+00
1	 9.403901699270795e-01	 1.650959214622338e+00	-4.396702333455134e+00
1	 9.066616709422495e-01	 1.669719920971687e+00	-4.619873850410743e+00
1	 8.726597268282396e-01	 1.687739612979729e+00	-4.839595966518465e+00
1	 8.384081127543602e-01	 1.705013734994474e+00	-5.055685946378622e+00
1	 8.039306187653098e-01	 1.721538718782360e+00	-5.267975786307093e+00
1	 7.692510002338034e-01	 1.737311975063022e+00	-5.476312340208136e+00
1	 7.343929294026771e-01	 1.752331882179924e+00	-5.680557372270747e+00
1	 6.993799481998668e-01	 1.766597772023833e+00	-5.880587538628043e+00
1	 1.046538653357745e+00	 1.600753915205181e+00	-3.684387556960745e+00
1	 1.013556662901614e+00	 1.621838198188981e+00	-3.915717117828066e+00
1	 9.802282344149195e-01	 1.642196351985414e+00	-4.144271816539555e+00
1	 9.465769473579416e-01	 1.661820788397706e+00	-4.369825417407750e+00
1	 9.126265503531162e-01	 1.680704920446545e+00	-4.592165649067371e+00
1	 8.784009092381612e-01	 1.698843163059831e+00	-4.811094558919308e+00
1	 8.439239555979734e-01	 1.716230930614175e+00	-5.026428790594347e+00
1	 8.092196359907021e-01	 1.732864631400798e+00	-5.237999784966925e+00
1	 7.743118620744075e-01	 1.748741659104592e+00	-5.445653905826380e+00
1	 7.392244618303623e-01	 1.763860381400226e+00	-5.649252491859084e+00
1	 7.039811320676067e-01	 1.778220125783012e+00	-5.848671837105886e+00
1	 1.053378775273816e+00	 1.611216359092047e+00	-3.660161943750019e+00
1	 1.020181216251672e+00	 1.632438447846405e+00	-3.890539098994015e+00
1	 9.866349548982980e-01	 1.652929661471120e+00	-4.118181990892968e+00
1	 9.527637247880920e-01	 1.672682362173361e+00	-4.342863572666156e+00
1	 9.185914297632424e-01	 1.691689919921662e+00	-4.564370824009556e+00
1	 8.841420916473348e-01	 1.709946713140184e+00	-4.782505106992745e+00
1	 8.494397984408509e-01	 1.727448126234142e+00	-4.997082444415188e+00
1	 8.145086532153912e-01	 1.744190544019534e+00	-5.207933721164234e+00
1	 7.793727239143596e-01	 1.760171343146511e+00	-5.414904809699533e+00
1	 7.440559942574673e-01	 1.775388880620949e+00	-5.617856621338395e+00
1	 7.085823159348565e-01	 1.789842479542702e+00	-5.816665085531231e+00
1	 1.060218897189382e+00	 1.621678802979408e+00	-3.635859635208542e+00
1	 1.026805769601136e+00	 1.643038697504233e+00	-3.865281923000536e+00
1	 9.930416753810124e-01	 1.663662970957163e+00	-4.092010810824711e+00
1	 9.589505022175296e-01	 1.683543935949304e+00	-4.315818443011058e+00
1	 9.245563091726284e-01	 1.702674919397039e+00	-4.536491051825020e+00
1	 8.898832740557604e-01	 1.721050263220789e+00	-4.753829314822475e+00
1	 8.549556412829928e-01	 1.738665321854372e+00	-4.967648634106956e+00
1	 8.197976704393767e-01	 1.755516456638565e+00	-5.177779338043693e+00
1	 7.844335857536603e-01	 1.771601027188778e+00	-5.384066806571474e+00
1	 7.488875266839924e-01	 1.786917379842091e+00	-5.586371521808124e+00
1	 7.131834998016169e-01	 1.801464833302902e+00	-5.784569046164008e+00
1	 1.067059019104442e+00	 1.632141246867263e+00	-3.611482106245479e+00
1	 1.033430322950004e+00	 1.653638947162467e+00	-3.839947112099842e+00
1	 9.994483958630631e-01	 1.674396280443540e+00	-4.065759840842214e+00
1	 9.651372796462548e-01	 1.694405509725534e+00	-4.288691630074988e+00
1	 9.305211885812740e-01	 1.713659918872676e+00	-4.508527966112147e+00
1	 8.956244564634376e-01	 1.732153813301645e+00	-4.725068842797719e+00
1	 8.604714841243993e-01	 1.749882517474867e+00	-4.938129041672267e+00
1	 8.250866876626589e-01	 1.766842369257893e+00	-5.147538334054082e+00
1	 7.894944475923095e-01	 1.783030711231393e+00	-5.353141606192715e+00
1	 7.537190591099371e-01	 1.798445879063653e+00	-5.554798909211468e+00
1	 7.177846836678873e-01	 1.813087187063613e+00	-5.752385436077913e+00
1	 1.073899141018997e+00	 1.642603690755613e+00	-3.587030794192682e+00
1	 1.040054876298278e+00	 1.664239196821106e+00	-3.814536149760680e+00
1	 1.005855116344450e+00	 1.685129589930255e+00	-4.039430605592891e+00
1	 9.713240570742678e-01	 1.705267083502052e+00	-4.261484694684470e+00
1	 9.364860679891795e-01	 1.724644918348573e+00	-4.480483158848883e+00
1	 9.013656388703671e-01	 1.743257363382755e+00	-4.696225309004830e+00
1	 8.659873269650699e-01	 1.761099713095627e+00	-4.908525306260117e+00
1	 8.303757048852374e-01	 1.778168281877517e+00	-5.117212364371455e+00
1	 7.945553094303071e-01	 1.794460395274357e+00	-5.322130874753181e+00
1	 7.585505915353016e-01	 1.809974378285635e+00	-5.523140455773254e+00
1	 7.223858675336681e-01	 1.824709540824833e+00	-5.720115928599570e+00
1	 1.080739262933047e+00	 1.653066134644457e+00	-3.562507099993871e+00
1	 1.046679429645956e+00	 1.674839446480151e+00	-3.789050481895553e+00
1	 1.012261836825172e+00	 1.695862899417306e+00	-4.013024591125419e+00
1	 9.775108345015685e-01	 1.716128657278857e+00	-4.234199158151562e+00
1	 9.424509473963443e-01	 1.735629917824729e+00	-4.452358181710043e+00
1	 9.071068212765485e-01	 1.754360913464115e+00	-4.667300290565866e+00
1	 8.715031698050051e-01	 1.772316908716650e+00	-4.878839025522121e+00
1	 8.356647221071125e-01	 1.789494194497438e+00	-5.086803042268828e+00
1	 7.996161712676533e-01	 1.805890079317670e+00	-5.291036236260889e+00
1	 7.633821239600858e-01	 1.821502877508038e+00	-5.491397791383451e+00
1	 7.269870513989594e-01	 1.836331894586565e+00	-5.687762154692923e+00
1	 1.087579384846591e+00	 1.663528578533797e+00	-3.537912389348828e+00
1	 1.053303982993040e+00	 1.685439696139599e+00	-3.763491518041913e+00
1	 1.018668557305232e+00	 1.706596208904692e+00	-3.986543246103746e+00
1	 9.836976119281569e-01	 1.726990231055951e+00	-4.206836503516175e+00
1	 9.484158268027693e-01	 1.746614917301144e+00	-4.424154547334494e+00
1	 9.128480036819818e-01	 1.765464463545728e+00	-4.638295324926919e+00
1	 8.770190126442042e-01	 1.783534104337938e+00	-4.849071756917357e+00
1	 8.409537393282845e-01	 1.800820107117657e+00	-5.056311940433639e+00
1	 8.046770331043480e-01	 1.817319763361330e+00	-5.259859273868170e+00
1	 7.682136563842901e-01	 1.833031376730859e+00	-5.459572504928585e+00
1	 7.315882352637607e-01	 1.847954248348806e+00	-5.655325704291355e+00
1	 1.094419506759630e+00	 1.673991022423631e+00	-3.513247993814950e+00
1	 1.059928536339529e+00	 1.696039945799453e+00	-3.737860632498678e+00
1	 1.025075277784627e+00	 1.717329518392415e+00	-3.959987982975103e+00
1	 9.898843893540332e-01	 1.737851804833332e+00	-4.179398176742307e+00
1	 9.543807062084537e-01	 1.757599916777820e+00	-4.395873730545179e+00
1	 9.185891860866674e-01	 1.776568013627593e+00	-4.609211911097980e+00
1	 8.825348554826680e-01	 1.794751299959490e+00	-4.819225018968393e+00
1	 8.462427565487531e-01	 1.812146019738171e+00	-5.025740592236060e+00
1	 8.097378949403913e-01	 1.828749447405340e+00	-5.228601531148633e+00
1	 7.730451888079141e-01	 1.844559875954101e+00	-5.427666145573010e+00
1	 7.361894191280726e-01	 1.859576602111558e+00	-5.622808127579968e+00
1	 6.901775804629183e-01	 1.743353064507004e+00	-5.944138507507356e+00
1	 6.554954827290597e-01	 1.756687414487810e+00	-6.146916396949342e+00
1	 6.207064124720911e-01	 1.769279104497503e+00	-6.339189549166634e+00
1	 5.858329516852290e-01	 1.781130189742346e+00	-6.520741027263929e+00
1	 5.508973832404049e-01	 1.792243586465333e+00	-6.691392925178318e+00
1	 5.159216528644688e-01	 1.802623046614941e+00	-6.851005771777636e+00
1	 4.809273331759799e-01	 1.812273130706186e+00	-6.999477772407893e+00
1	 4.459355898653843e-01	 1.821199179046478e+00	-7.136743899007106e+00
1	 4.109671500863636e-01	 1.829407281501319e+00	-7.262774840557763e+00
1	 3.760422731112888e-01	 1.836904245976013e+00	-7.377575826156417e+00
1	 3.411807232891650e-01	 1.843697565789419e+00	-7.481185333352374e+00
1	 6.947787643316375e-01	 1.754975418265163e+00	-5.912410381155428e+00
1	 6.598654526133345e-01	 1.768398663912796e+00	-6.113419165927007e+00
1	 6.248444552216971e-01	 1.781074298522854e+00	-6.304210325494671e+00
1	 5.897385046965644e-01	 1.793004391002975e+00	-6.484579305244879e+00
1	 5.545700324623483e-01	 1.804191877037771e+00	-6.654359463751997e+00
1	 5.193611305507445e-01	 1.814640533588709e+00	-6.813421462272416e+00
1	 4.841335153977708e-01	 1.824354951574237e+00	-6.961672497598392e+00
1	 4.489084937984773e-01	 1.833340506903816e+00	-7.099055389226780e+00
1	 4.137069310875708e-01	 1.841603330042052e+00	-7.225547532413560e+00
1	 3.785492215992395e-01	 1.849150274280280e+00	-7.341159729160074e+00
1	 3.434552614448158e-01	 1.855988882892821e+00	-7.445934909518933e+00
1	 6.993799481998668e-01	 1.766597772023833e+00	-5.880587538628043e+00
1	 6.642354224972193e-01	 1.780109913338382e+00	-6.079925635522755e+00
1	 6.289824979710141e-01	 1.792869492548873e+00	-6.269329876926097e+00
1	 5.936440577077111e-01	 1.804878592264319e+00	-6.448607966075031e+00
1	 5.582426816842031e-01	 1.816140167610950e+00	-6.617604412638526e+00
1	 5.228006082370326e-01	 1.826658020563224e+00	-6.776199907698650e+00
1	 4.873396976196750e-01	 1.836436772443023e+00	-6.924310547950945e+00
1	 4.518813977317842e-01	 1.845481834761856e+00	-7.061886919917441e+00
1	 4.164467120890923e-01	 1.853799378583433e+00	-7.188913055544358e+00
1	 3.810561700876046e-01	 1.861396302585124e+00	-7.305405270999684e+00
1	 3.457297996009814e-01	 1.868280199996709e+00	-7.411410900797415e+00
1	 7.039811320676067e-01	 1.778220125783012e+00	-5.848671837105886e+00
1	 6.686053923807149e-01	 1.791821162764569e+00	-6.046435733176163e+00
1	 6.331205407200413e-01	 1.804664686575561e+00	-6.234546266694760e+00
1	 5.975496107186692e-01	 1.816752793526378e+00	-6.412823276757997e+00
1	 5.619153309059700e-01	 1.828088458184871e+00	-6.581122312812785e+00
1	 5.262400859233336e-01	 1.838675507538488e+00	-6.739333995215053e+00
1	 4.905458798416924e-01	 1.848518593312543e+00	-6.887383230815733e+00
1	 4.548543016653047e-01	 1.857623162620597e+00	-7.025228294207508e+00
1	 4.191864930909281e-01	 1.865995427125461e+00	-7.152859785807935e+00
1	 3.835631185763844e-01	 1.873642330890543e+00	-7.270299478365102e+00
1	 3.480043377576615e-01	 1.880571517101082e+00	-7.377599063754592e+00
1	 7.085823159348565e-01	 1.789842479542702e+00	-5.816665085531231e+00
1	 6.729753622638208e-01	 1.803532412191355e+00	-6.012949388211557e+00
1	 6.372585834687796e-01	 1.816459880602917e+00	-6.199857608340245e+00
1	 6.014551637294383e-01	 1.828626994789152e+00	-6.377221601258281e+00
1	 5.655879801276489e-01	 1.840036748759533e+00	-6.544907847042390e+00
1	 5.296795636096469e-01	 1.850692994514499e+00	-6.702816796729405e+00
1	 4.937520620638231e-01	 1.860600414182798e+00	-6.850882079326076e+00
1	 4.578272055990393e-01	 1.869764490480038e+00	-6.989069580079231e+00
1	 4.219262740930783e-01	 1.878191475668138e+00	-7.117376400987764e+00
1	 3.860700670655788e-01	 1.885888359196539e+00	-7.235829714915268e+00
1	 3.502788759148565e-01	 1.892862834205940e+00	-7.344485524916519e+00
1	 7.131834998016169e-01	 1.801464833302902e+00	-5.784569046164008e+00
1	 6.773453321465368e-01	 1.815243661618740e+00	-5.979466531777152e+00
1	 6.413966262172285e-01	 1.828255074630939e+00	-6.165262064085010e+00
1	 6.053607167400187e-01	 1.840501196052642e+00	-6.341799397373616e+00
1	 5.692606293492394e-01	 1.851985039334938e+00	-6.508955835313938e+00
1	 5.331190412959727e-01	 1.862710481491259e+00	-6.666641562939073e+00
1	 4.969582442860671e-01	 1.872682235053787e+00	-6.814798845115132e+00
1	 4.608001095329875e-01	 1.881905818340180e+00	-6.953401101824992e+00
1	 4.246660550955427e-01	 1.890387524211462e+00	-7.082451871053552e+00
1	 3.885770155551879e-01	 1.898134387503110e+00	-7.201983670408202e+00
1	 3.525534140725660e-01	 1.905154151311284e+00	-7.312056768834476e+00
1	 7.177846836678873e-01	 1.813087187063613e+00	-5.752385436077913e+00
1	 6.817153020288633e-01	 1.826954911046724e+00	-5.945987096786526e+00
1	 6.455346689653881e-01	 1.840050268659631e+00	-6.130757843273990e+00
1	 6.092662697504103e-01	 1.852375397316846e+00	-6.306553213727327e+00
1	 5.729332785707419e-01	 1.863933329911085e+00	-6.473261230434884e+00
1	 5.365585189823112e-01	 1.874727968468767e+00	-6.630801717600421e+00
1	 5.001644265084243e-01	 1.884764055925510e+00	-6.779125491312553e+00
1	 4.637730134671497e-01	 1.894047146201024e+00	-6.918213431832207e+00
1	 4.274058360983216e-01	 1.902583572755435e+00	-7.048075448796397e+00
1	 3.910839640452114e-01	 1.910380415810258e+00	-7.168749350249301e+00
1	 3.548279522307902e-01	 1.917445468417113e+00	-7.280299626609561e+00
1	 7.223858675336681e-01	 1.824709540824833e+00	-5.720115928599570e+00
1	 6.860852719108003e-01	 1.838666160475309e+00	-5.912511017862487e+00
1	 6.496727117132584e-01	 1.851845462688989e+00	-6.096343200873823e+00
1	 6.131718227606133e-01	 1.864249598581766e+00	-6.271479686876065e+00
1	 5.766059277921564e-01	 1.875881620487973e+00	-6.437819113803573e+00
1	 5.399979966686622e-01	 1.886745455447023e+00	-6.595290852017392e+00
1	 5.033706087308947e-01	 1.896845876797968e+00	-6.743854185809097e+00
1	 4.667459174015257e-01	 1.906188474062568e+00	-6.883497382682309e+00
1	 4.301456171014146e-01	 1.914779621300055e+00	-7.014236660821515e+00
1	 3.935909125356498e-01	 1.922626444117981e+00	-7.136115065438537e+00
1	 3.571024903895291e-01	 1.929736785523427e+00	-7.249201264856480e+00
1	 7.269870513989594e-01	 1.836331894586565e+00	-5.687762154692923e+00
1	 6.904552417923476e-01	 1.850377409904493e+00	-5.879038231283028e+00
1	 6.538107544608396e-01	 1.863640656719015e+00	-6.062016436029300e+00
1	 6.170773757706274e-01	 1.876123799847400e+00	-6.236575538526813e+00
1	 5.802785770134827e-01	 1.887829911065603e+00	-6.402624691339854e+00
1	 5.434374743550259e-01	 1.898762942426027e+00	-6.560102719739493e+00
1	 5.065767909534783e-01	 1.908927697671160e+00	-6.708977294776837e+00
1	 4.697188213361155e-01	 1.918329801924813e+00	-6.849243999549688e+00
1	 4.328853981048221e-01	 1.926975669845323e+00	-6.980925298883535e+00
1	 3.960978610265026e-01	 1.934872472426280e+00	-7.104069422900174e+00
1	 3.593770285487826e-01	 1.942028102630226e+00	-7.218749175085494e+00
1	 7.315882352637607e-01	 1.847954248348806e+00	-5.655325704291355e+00
1	 6.948252116735053e-01	 1.862088659334276e+00	-5.845568674929172e+00
1	 6.579487972081315e-01	 1.875435850749710e+00	-6.027775890674056e+00
1	 6.209829287804527e-01	 1.887998001113750e+00	-6.201837572859437e+00
1	 5.839512262347207e-01	 1.899778201643975e+00	-6.367673289569466e+00
1	 5.468769520414020e-01	 1.910780429405780e+00	-6.525231231459506e+00
1	 5.097829731761752e-01	 1.921009518545087e+00	-6.674487376433660e+00
1	 4.726917252709194e-01	 1.930471129787759e+00	-6.815444552887020e+00
1	 4.356251791085438e-01	 1.939171718391240e+00	-6.948131411548141e+00
1	 3.986048095177700e-01	 1.947118500735156e+00	-7.072601316176586e+00
1	 3.616515667085508e-01	 1.954319419737511e+00	-7.188931163486091e+00
1	 7.361894191280726e-01	 1.859576602111558e+00	-5.622808127579968e+00
1	 6.991951815542736e-01	 1.873799908764660e+00	-5.812102288234862e+00
1	 6.620868399551343e-01	 1.887231044781072e+00	-5.993619948193242e+00
1	 6.248884817900895e-01	 1.899872202380815e+00	-6.167262673949243e+00
1	 5.876238754558710e-01	 1.911726492223089e+00	-6.332960351855010e+00
1	 5.503164297277909e-01	 1.922797916386281e+00	-6.490670450103018e+00
1	 5.129891553989854e-01	 1.933091339419748e+00	-6.640377175042159e+00
1	 4.756646292059370e-01	 1.942612457651407e+00	-6.782090531386217e+00
1	 4.383649601125800e-01	 1.951367766937804e+00	-6.915845296166893e+00
1	 4.011117580094523e-01	 1.959364529044608e+00	-7.041699916471630e+00
1	 3.639261048688338e-01	 1.966610736845282e+00	-7.159735341093002e+00
1	 3.411807232891650e-01	 1.843697565789419e+00	-7.481185333352374e+00
1	 3.064017453303258e-01	 1.849795386114716e+00	-7.589264812007135e+00
1	 2.717240419284751e-01	 1.855206469658534e+00	-7.680849713076737e+00
1	 2.371657537175081e-01	 1.859940161747613e+00	-7.756063584538351e+00
1	 2.027444415484455e-01	 1.864006354987513e+00	-7.815074645531757e+00
1	 1.684770710600370e-01	 1.867415453651191e+00	-7.858093381286110e+00
1	 1.343799995057737e-01	 1.870178337950090e+00	-7.885370055947670e+00
1	 1.004689647900904e-01	 1.872306328333207e+00	-7.897192161914002e+00
1	 6.675907665743416e-02	 1.873811149952121e+00	-7.893881823649778e+00
1	 3.326480996967145e-02	 1.874704897421970e+00	-7.875793173211686e+00
1	 0.000000000000000e+00	 1.875000000000000e+00	-7.843309713863727e+00
1	 3.434552614448158e-01	 1.855988882892821e+00	-7.445934909518933e+00
1	 3.084444236327498e-01	 1.862127355353983e+00	-7.554285728097523e+00
1	 2.735355355414154e-01	 1.867574512788415e+00	-7.645692904700642e+00
1	 2.387468587422667e-01	 1.872339762825035e+00	-7.720262923204628e+00
1	 2.040960711586644e-01	 1.876433064020110e+00	-7.778149476186448e+00
1	 1.696002515336156e-01	 1.879864890008415e+00	-7.819551005033401e+00
1	 1.352758661689677e-01	 1.882646193536137e+00	-7.844708148728509e+00
1	 1.011387578885178e-01	 1.884788370521935e+00	-7.853901120791603e+00
1	 6.720413716834214e-02	 1.886303224285065e+00	-7.847447033233304e+00
1	 3.348657536938560e-02	 1.887202930071432e+00	-7.825697185635398e+00
1	 0.000000000000000e+00	 1.887500000000000e+00	-7.789034336613463e+00
1	 3.457297996009814e-01	 1.868280199996709e+00	-7.411410900797415e+00
1	 3.104871019357723e-01	 1.874459324593641e+00	-7.519871001341943e+00
1	 2.753470291550064e-01	 1.879942555918602e+00	-7.610946222857491e+00
1	 2.403279637676975e-01	 1.884739363902691e+00	-7.684726092547694e+00
1	 2.054477007695459e-01	 1.888859773052877e+00	-7.741349863004917e+00
1	 1.707234320078177e-01	 1.892314326365756e+00	-7.781003997977970e+00
1	 1.361717328327167e-01	 1.895114049122259e+00	-7.803919557655114e+00
1	 1.018085509874029e-01	 1.897270412710705e+00	-7.810369503810706e+00
1	 6.764919767958245e-02	 1.898795298618027e+00	-7.800665944550888e+00
1	 3.370834076927928e-02	 1.899700962720899e+00	-7.775157337647319e+00
1	 0.000000000000000e+00	 1.900000000000000e+00	-7.734225670587591e+00
1	 3.480043377576615e-01	 1.880571517101082e+00	-7.377599063754592e+00
1	 3.125297802393933e-01	 1.886791293833689e+00	-7.486009565914018e+00
1	 2.771585227692485e-01	 1.892310599049096e+00	-7.576601625850770e+00
1	 2.419090687938004e-01	 1.897138964980581e+00	-7.649447919417043e+00
1	 2.067993303810904e-01	 1.901286482085814e+00	-7.704673344101487e+00
1	 1.718466124826434e-01	 1.904763762723215e+00	-7.742452450919693e+00
1	 1.370675994970205e-01	 1.907581904708456e+00	-7.763006766724193e+00
1	 1.024783440867457e-01	 1.909752454899516e+00	-7.766602028144676e+00
1	 6.809425819115501e-02	 1.911287372951007e+00	-7.753545347764152e+00
1	 3.393010616935248e-02	 1.912198995370370e+00	-7.724182332392266e+00
1	 0.000000000000000e+00	 1.912500000000000e+00	-7.678894172428304e+00
1	 3.502788759148565e-01	 1.892862834205940e+00	-7.344485524916519e+00
1	 3.145724585436130e-01	 1.899123263074128e+00	-7.452690643411628e+00
1	 2.789700163841413e-01	 1.904678642179897e+00	-7.542651280859029e+00
1	 2.434901738205753e-01	 1.909538566058704e+00	-7.614423365029709e+00
1	 2.081509599932976e-01	 1.913713191118922e+00	-7.668117521535654e+00
1	 1.729697929580925e-01	 1.917213199080792e+00	-7.703896452300045e+00
1	 1.379634661618794e-01	 1.920049760294728e+00	-7.721972195413338e+00
1	 1.031481371865461e-01	 1.922234497088370e+00	-7.722603288442839e+00
1	 6.853931870305990e-02	 1.923779447284006e+00	-7.706091856666902e+00
1	 3.415187156960520e-02	 1.924697028019846e+00	-7.672780646959451e+00
1	 0.000000000000000e+00	 1.925000000000000e+00	-7.623050027176719e+00
1	 3.525534140725660e-01	 1.905154151311284e+00	-7.312056768834476e+00
1	 3.166151368484313e-01	 1.911455232314958e+00	-7.419903733584699e+00
1	 2.807815099996850e-01	 1.917046685311005e+00	-7.509087557198304e+00
1	 2.450712788480224e-01	 1.921938167137059e+00	-7.579647520635758e+00
1	 2.095025896061675e-01	 1.926139900152201e+00	-7.631680059249073e+00
1	 1.740929734341652e-01	 1.929662635438486e+00	-7.665336088278098e+00
1	 1.388593328272932e-01	 1.932517615881074e+00	-7.680818200761770e+00
1	 1.038179302868042e-01	 1.934716539277265e+00	-7.678377760782942e+00
1	 6.898437921529707e-02	 1.936271521617023e+00	-7.658311914374409e+00
1	 3.437363697003744e-02	 1.937195060669326e+00	-7.620960539674456e+00
1	 0.000000000000000e+00	 1.937500000000000e+00	-7.566703157034196e+00
1	 3.548279522307902e-01	 1.917445468417113e+00	-7.280299626609561e+00
1	 3.186578151538482e-01	 1.923787201556179e+00	-7.387638605420623e+00
1	 2.825930036158798e-01	 1.929414728442421e+00	-7.475903019843137e+00
1	 2.466523838761414e-01	 1.934337768215650e+00	-7.545115603350862e+00
1	 2.108542192197002e-01	 1.938566609185649e+00	-7.595358681082618e+00
1	 1.752161539108614e-01	 1.942112071796298e+00	-7.626771442803602e+00
1	 1.397551994932619e-01	 1.944985471467495e+00	-7.639547079372043e+00
1	 1.044877233875199e-01	 1.947198581466201e+00	-7.633929806471579e+00
1	 6.942943972786655e-02	 1.948763595950059e+00	-7.610211798793912e+00
1	 3.459540237064921e-02	 1.949693093318812e+00	-7.568730057110940e+00
1	 0.000000000000000e+00	 1.950000000000000e+00	-7.509863229786692e+00
1	 3.571024903895291e-01	 1.929736785523427e+00	-7.249201264856480e+00
1	 3.207004934598637e-01	 1.936119170797790e+00	-7.355885288569236e+00
1	 2.844044972327253e-01	 1.941782771574142e+00	-7.443090423195457e+00
1	 2.482334889049326e-01	 1.946737369294472e+00	-7.510822952147441e+00
1	 2.122058488338956e-01	 1.950993318219269e+00	-7.559151168868132e+00
1	 1.763393343881811e-01	 1.954561508154227e+00	-7.588202597687722e+00
1	 1.406510661597856e-01	 1.957453327053991e+00	-7.598161069334359e+00
1	 1.051575164886933e-01	 1.959680623655180e+00	-7.589263675699190e+00
1	 6.987450024076833e-02	 1.961255670283113e+00	-7.561797627886019e+00
1	 3.481716777144051e-02	 1.962191125968301e+00	-7.516097040834331e+00
1	 0.000000000000000e+00	 1.962499999999999e+00	-7.452539666907164e+00
1	 3.593770285487826e-01	 1.942028102630226e+00	-7.218749175085494e+00
1	 3.227431717664778e-01	 1.948451140039792e+00	-7.324634065094672e+00
1	 2.862159908502217e-01	 1.954150814706171e+00	-7.410642705090052e+00
1	 2.498145939343959e-01	 1.959136970373530e+00	-7.476765023998617e+00
1	 2.135574784487539e-01	 1.963420027253059e+00	-7.523055360593863e+00
1	 1.774625148661244e-01	 1.967010944512274e+00	-7.549629632670175e+00
1	 1.415469328268642e-01	 1.969921182640562e+00	-7.556662352078449e+00
1	 1.058273095903243e-01	 1.972162665844200e+00	-7.544383511056427e+00
1	 7.031956075400238e-02	 1.973747744616185e+00	-7.513075364726037e+00
1	 3.503893317241133e-02	 1.974689158617795e+00	-7.463069133889398e+00
1	 0.000000000000000e+00	 1.975000000000000e+00	-7.394741651350278e+00
1	 3.616515667085508e-01	 1.954319419737511e+00	-7.188931163486091e+00
1	 3.247858500736904e-01	 1.960783109282185e+00	-7.293875461537179e+00
1	 2.880274844683691e-01	 1.966518857838506e+00	-7.378552981026302e+00
1	 2.513956989645312e-01	 1.971536571452820e+00	-7.442937390167561e+00
1	 2.149091080642749e-01	 1.975846736287019e+00	-7.487069148638194e+00
1	 1.785856953446911e-01	 1.979460380870439e+00	-7.511052625484807e+00
1	 1.424427994944977e-01	 1.982389038227207e+00	-7.515053054155391e+00
1	 1.064971026924130e-01	 1.984644708033262e+00	-7.499293350917933e+00
1	 7.076462126756874e-02	 1.986239818949276e+00	-7.464050822375062e+00
1	 3.526069857356168e-02	 1.987187191267294e+00	-7.409653787043149e+00
1	 0.000000000000000e+00	 1.987500000000000e+00	-7.336478135052991e+00
1	 3.639261048688338e-01	 1.966610736845282e+00	-7.159735341093002e+00
1	 3.268285283815017e-01	 1.973115078524969e+00	-7.263600241273494e+00
1	 2.898389780871672e-01	 1.978886900971149e+00	-7.346814538615932e+00
1	 2.529768039953388e-01	 1.983936172532344e+00	-7.409335732635884e+00
1	 2.162607376804587e-01	 1.988273445321150e+00	-7.451190478070060e+00
1	 1.797088758238815e-01	 1.991909817228721e+00	-7.472471651922053e+00
1	 1.433386661626862e-01	 1.994856893813928e+00	-7.473335248952373e+00
1	 1.071668957949593e-01	 1.997126750222366e+00	-7.453997132698849e+00
1	 7.120968178146743e-02	 1.998731893282386e+00	-7.414729668567515e+00
1	 3.548246397489156e-02	 1.999685223916798e+00	-7.355858264793320e+00
1	 0.000000000000000e+00	 2.000000000000000e+00	-7.277757846153845e+00
