x	y	stress_xx
 1.0000000000e+00	 0.0000000000e+00	 1.2903808606e+02
 9.9984261196e-01	 1.7741231987e-02	 1.2672172299e+02
 9.9936594664e-01	 3.5604840891e-02	 1.2223696656e+02
 9.9856337511e-01	 5.3583447897e-02	 1.1552922593e+02
 9.9742844690e-01	 7.1669333081e-02	 1.0654791569e+02
 9.9595490861e-01	 8.9854437912e-02	 9.5246817327e+01
 9.9413672265e-01	 1.0813036884e-01	 8.1584439516e+01
 9.9196808625e-01	 1.2648840200e-01	 6.5524374986e+01
 9.8944345047e-01	 1.4491948904e-01	 4.7035651767e+01
 9.8655753924e-01	 1.6341426419e-01	 2.6093076327e+01
 9.8330536840e-01	 1.8196305243e-01	 2.6775661163e+00
 1.0125000000e+00	 0.0000000000e+00	 1.3060627790e+02
 1.0123406446e+00	 1.7962997385e-02	 1.2612395201e+02
 1.0118580210e+00	 3.6049901398e-02	 1.1956304182e+02
 1.0110454173e+00	 5.4253240991e-02	 1.1088580285e+02
 1.0098963025e+00	 7.2565199739e-02	 1.0005881411e+02
 1.0084043450e+00	 9.0977618379e-02	 8.7053290518e+01
 1.0065634317e+00	 1.0948199844e-01	 7.1845390141e+01
 1.0043676873e+00	 1.2806950702e-01	 5.4416514458e+01
 1.0018114936e+00	 1.4673098265e-01	 3.4753599270e+01
 9.9888950849e-01	 1.6545694249e-01	 1.2849394101e+01
 9.9559668551e-01	 1.8423759058e-01	-1.1297272239e+01
 1.0250000000e+00	 0.0000000000e+00	 1.3100192464e+02
 1.0248386773e+00	 1.8184762783e-02	 1.2452934011e+02
 1.0243500953e+00	 3.6494961906e-02	 1.1606605704e+02
 1.0235274595e+00	 5.4923034086e-02	 1.0559087004e+02
 1.0223641581e+00	 7.3461066397e-02	 9.3087210050e+01
 1.0208537813e+00	 9.2100798847e-02	 7.8543408337e+01
 1.0189901407e+00	 1.1083362805e-01	 6.1952951665e+01
 1.0167672884e+00	 1.2965061203e-01	 4.3314726691e+01
 1.0141795367e+00	 1.4854247626e-01	 2.2633251530e+01
 1.0112214777e+00	 1.6749962078e-01	-8.1107617410e-02
 1.0078880026e+00	 1.8651212874e-01	-2.4811936860e+01
 1.0375000000e+00	 0.0000000000e+00	 1.3026738196e+02
 1.0373367099e+00	 1.8406528182e-02	 1.2197389520e+02
 1.0368421696e+00	 3.6940022414e-02	 1.1177574183e+02
 1.0360095017e+00	 5.5592827180e-02	 9.9667959421e+01
 1.0348320137e+00	 7.4356933056e-02	 8.5650529609e+01
 1.0333032177e+00	 9.3223979316e-02	 6.9728594443e+01
 1.0314168498e+00	 1.1218525765e-01	 5.1912660223e+01
 1.0291668895e+00	 1.3123171705e-01	 3.2218786925e+01
 1.0265475799e+00	 1.5035396986e-01	 1.0668761278e+01
 1.0235534470e+00	 1.6954229908e-01	-1.2709748424e+01
 1.0201793197e+00	 1.8878666689e-01	-3.7883057696e+01
 1.0500000000e+00	 0.0000000000e+00	 1.2844298874e+02
 1.0498347426e+00	 1.8628293580e-02	 1.1849191063e+02
 1.0493342440e+00	 3.7385082923e-02	 1.0672041021e+02
 1.0484915439e+00	 5.6262620276e-02	 9.3139482438e+01
 1.0472998693e+00	 7.5252799715e-02	 7.7765369173e+01
 1.0457526540e+00	 9.4347159785e-02	 6.0619728575e+01
 1.0438435588e+00	 1.1353688726e-01	 4.1729788376e+01
 1.0415664906e+00	 1.3281282207e-01	 2.1128481134e+01
 1.0389156230e+00	 1.5216546347e-01	-1.1454403009e+00
 1.0358854162e+00	 1.7158497738e-01	-2.5047308895e+01
 1.0324706368e+00	 1.9106120504e-01	-5.0526472825e+01
 1.0625000000e+00	 0.0000000000e+00	 1.2556718570e+02
 1.0623327752e+00	 1.8850058979e-02	 1.1411606609e+02
 1.0618263183e+00	 3.7830143432e-02	 1.0092704389e+02
 1.0609735861e+00	 5.6932413371e-02	 8.6026795976e+01
 1.0597677248e+00	 7.6148666375e-02	 6.9447544197e+01
 1.0582020904e+00	 9.5470340255e-02	 5.1227178550e+01
 1.0562702678e+00	 1.1488851686e-01	 3.1409360607e+01
 1.0539660917e+00	 1.3439392709e-01	 1.0043605391e+01
 1.0512836661e+00	 1.5397695708e-01	-1.2814659951e+01
 1.0482173855e+00	 1.7362765568e-01	-3.7104062296e+01
 1.0447619539e+00	 1.9333574319e-01	-6.2757275037e+01
 1.0750000000e+00	 0.0000000000e+00	 1.2167662573e+02
 1.0748308079e+00	 1.9071824378e-02	 1.0887752137e+02
 1.0743183926e+00	 3.8275203941e-02	 9.4421369714e+01
 1.0734556282e+00	 5.7602206467e-02	 7.8350263671e+01
 1.0722355804e+00	 7.7044533036e-02	 6.0712134613e+01
 1.0706515268e+00	 9.6593520725e-02	 4.1560830023e+01
 1.0686969769e+00	 1.1624014647e-01	 2.0956167753e+01
 1.0663656927e+00	 1.3597503212e-01	-1.0360347150e+00
 1.0636517093e+00	 1.5578845069e-01	-2.4343957582e+01
 1.0605493547e+00	 1.7567033398e-01	-4.8889804077e+01
 1.0570532710e+00	 1.9561028135e-01	-7.4589855164e+01
 1.0875000000e+00	 0.0000000000e+00	 1.1680627669e+02
 1.0873288405e+00	 1.9293589777e-02	 1.0280600377e+02
 1.0868104670e+00	 3.8720264451e-02	 8.7227931807e+01
 1.0859376704e+00	 5.8271999564e-02	 7.0129312991e+01
 1.0847034360e+00	 7.7940399697e-02	 5.1573527103e+01
 1.0831009631e+00	 9.7716701196e-02	 3.1630114200e+01
 1.0811236859e+00	 1.1759177608e-01	 1.0374780426e+01
 1.0787652938e+00	 1.3755613714e-01	-1.2110624631e+01
 1.0760197524e+00	 1.5759994430e-01	-3.5738160456e+01
 1.0728813239e+00	 1.7771301228e-01	-6.0413879334e+01
 1.0693445882e+00	 1.9788481950e-01	-8.6037942421e+01
 1.1000000000e+00	 0.0000000000e+00	 1.1098951708e+02
 1.0998268732e+00	 1.9515355176e-02	 9.5929889466e+01
 1.0993025413e+00	 3.9165324961e-02	 7.9370158742e+01
 1.0984197126e+00	 5.8941792661e-02	 6.1382488430e+01
 1.0971712916e+00	 7.8836266358e-02	 4.2045454482e+01
 1.0955503995e+00	 9.8839881668e-02	 2.1444033657e+01
 1.0935503949e+00	 1.1894340569e-01	-3.3043847288e-01
 1.0911648949e+00	 1.3913724216e-01	-2.3180341347e+01
 1.0883877955e+00	 1.5941143791e-01	-4.7001876403e+01
 1.0852132932e+00	 1.7975569058e-01	-7.1685208397e+01
 1.0816359053e+00	 2.0015935765e-01	-9.7114642000e+01
 1.1125000000e+00	 0.0000000000e+00	 1.0425822540e+02
 1.1123249058e+00	 1.9737120575e-02	 8.8276279401e+01
 1.1117946156e+00	 3.9610385471e-02	 7.0870426229e+01
 1.1109017548e+00	 5.9611585759e-02	 5.2127501111e+01
 1.1096391472e+00	 7.9732133020e-02	 3.2141032440e+01
 1.1079998358e+00	 9.9963062140e-02	 1.1011186420e+01
 1.1059771040e+00	 1.2029503530e-01	-1.1155322081e+01
 1.1035644960e+00	 1.4071834718e-01	-3.4245353869e+01
 1.1007558387e+00	 1.6122293152e-01	-5.8139506155e+01
 1.0975452624e+00	 1.8179836888e-01	-8.2712310693e+01
 1.0939272224e+00	 2.0243389581e-01	-1.0783247013e+02
 1.1250000000e+00	 0.0000000000e+00	 9.6642863436e+01
 1.1248229385e+00	 1.9958885975e-02	 7.9871070154e+01
 1.1242866900e+00	 4.0055445982e-02	 6.1750115604e+01
 1.1233837970e+00	 6.0281378857e-02	 4.2381275085e+01
 1.1221070028e+00	 8.0627999683e-02	 2.1872793818e+01
 1.1204492722e+00	 1.0108624261e-01	 3.3978844026e-01
 1.1184038130e+00	 1.2164666491e-01	-2.2095888689e+01
 1.1159640971e+00	 1.4229945221e-01	-4.5305823670e+01
 1.1131238818e+00	 1.6303442514e-01	-6.9155254843e+01
 1.1098772317e+00	 1.8384104718e-01	-9.3503327019e+01
 1.1062185395e+00	 2.0470843396e-01	-1.1820338678e+02
 9.8330536840e-01	 1.8196305243e-01	 2.6775661163e+00
 9.7968226449e-01	 2.0055587900e-01	 1.8320645426e+00
 9.7568388344e-01	 2.1918248006e-01	-2.5978400372e-01
 9.7130622879e-01	 2.3783231460e-01	-3.5637686206e+00
 9.6654566967e-01	 2.5649457770e-01	-8.0398492389e+00
 9.6139895816e-01	 2.7515821486e-01	-1.3642093303e+01
 9.5586324607e-01	 2.9381193773e-01	-2.0318639806e+01
 9.4993610115e-01	 3.1244424090e-01	-2.8011692182e+01
 9.4361552236e-01	 3.3104341998e-01	-3.6657541385e+01
 9.3689995435e-01	 3.4959759078e-01	-4.6186620327e+01
 9.2978830103e-01	 3.6809470956e-01	-5.6523590628e+01
 9.9559668551e-01	 1.8423759058e-01	-1.1297272239e+01
 9.9192829280e-01	 2.0306282749e-01	-1.2410214226e+01
 9.8787993198e-01	 2.2192226105e-01	-1.4485835672e+01
 9.8344755666e-01	 2.4080521853e-01	-1.7494917461e+01
 9.7862749055e-01	 2.5970075992e-01	-2.1403518050e+01
 9.7341644514e-01	 2.7859769255e-01	-2.6172925590e+01
 9.6781153666e-01	 2.9748458695e-01	-3.1759632395e+01
 9.6181030243e-01	 3.1634979391e-01	-3.8115332976e+01
 9.5541071639e-01	 3.3518146273e-01	-4.5186946704e+01
 9.4861120379e-01	 3.5396756067e-01	-5.2916666044e+01
 9.4141065480e-01	 3.7269589344e-01	-6.1242031122e+01
 1.0078880026e+00	 1.8651212874e-01	-2.4811936860e+01
 1.0041743211e+00	 2.0556977597e-01	-2.6300785754e+01
 1.0000759805e+00	 2.2466204205e-01	-2.8475792455e+01
 9.9558888452e-01	 2.4377812247e-01	-3.1312655173e+01
 9.9070931143e-01	 2.6290694214e-01	-3.4783437723e+01
 9.8543393212e-01	 2.8203717024e-01	-3.8856536789e+01
 9.7975982724e-01	 3.0115723617e-01	-4.3496666615e+01
 9.7368450370e-01	 3.2025534692e-01	-4.8664862038e+01
 9.6720591043e-01	 3.3931950548e-01	-5.4318500688e+01
 9.6032245323e-01	 3.5833753055e-01	-6.0411345049e+01
 9.5303300857e-01	 3.7729707731e-01	-6.6893604969e+01
 1.0201793197e+00	 1.8878666689e-01	-3.7883057696e+01
 1.0164203494e+00	 2.0807672446e-01	-3.9852356910e+01
 1.0122720291e+00	 2.2740182305e-01	-4.2238179908e+01
 1.0077302124e+00	 2.4675102640e-01	-4.5021070461e+01
 1.0027911323e+00	 2.6611312436e-01	-4.8179007939e+01
 9.9745141910e-01	 2.8547664792e-01	-5.1687389445e+01
 9.9170811782e-01	 3.0482988540e-01	-5.5519024509e+01
 9.8555870497e-01	 3.2416089993e-01	-5.9644142995e+01
 9.7900110447e-01	 3.4345754823e-01	-6.4030416784e+01
 9.7203370266e-01	 3.6270750044e-01	-6.8642995697e+01
 9.6465536234e-01	 3.8189826118e-01	-7.3444558065e+01
 1.0324706368e+00	 1.9106120504e-01	-5.0526472825e+01
 1.0286663777e+00	 2.1058367294e-01	-5.3077029528e+01
 1.0244680776e+00	 2.3014160405e-01	-5.5781117687e+01
 1.0198715402e+00	 2.4972393033e-01	-5.8624057430e+01
 1.0148729532e+00	 2.6931930658e-01	-6.1589657095e+01
 1.0094689061e+00	 2.8891612561e-01	-6.4660209945e+01
 1.0036564084e+00	 3.0850253462e-01	-6.7816498680e+01
 9.9743290624e-01	 3.2806645295e-01	-7.1037808082e+01
 9.9079629850e-01	 3.4759559099e-01	-7.4301946131e+01
 9.8374495210e-01	 3.6707747033e-01	-7.7585273829e+01
 9.7627771611e-01	 3.8649944506e-01	-8.0862743940e+01
 1.0447619539e+00	 1.9333574319e-01	-6.2757275037e+01
 1.0409124060e+00	 2.1309062143e-01	-6.5986336002e+01
 1.0366641262e+00	 2.3288138505e-01	-6.9112343425e+01
 1.0320128681e+00	 2.5269683426e-01	-7.2125327039e+01
 1.0269547741e+00	 2.7252548880e-01	-7.5014840612e+01
 1.0214863931e+00	 2.9235560329e-01	-7.7769972998e+01
 1.0156046990e+00	 3.1217518384e-01	-8.0379362257e+01
 1.0093071075e+00	 3.3197200596e-01	-8.2831212927e+01
 1.0025914925e+00	 3.5173363374e-01	-8.5113316519e+01
 9.9545620154e-01	 3.7144744021e-01	-8.7213075274e+01
 9.8790006988e-01	 3.9110062893e-01	-8.9117529189e+01
 1.0570532710e+00	 1.9561028135e-01	-7.4589855164e+01
 1.0531584344e+00	 2.1559756991e-01	-7.8591272385e+01
 1.0488601747e+00	 2.3562116605e-01	-8.2239234942e+01
 1.0441541960e+00	 2.5566973819e-01	-8.5528417743e+01
 1.0390365949e+00	 2.7573167103e-01	-8.8454039369e+01
 1.0335038801e+00	 2.9579508098e-01	-9.1011887201e+01
 1.0275529896e+00	 3.1584783306e-01	-9.3198340961e+01
 1.0211813088e+00	 3.3587755897e-01	-9.5010394497e+01
 1.0143866866e+00	 3.5587167649e-01	-9.6445675606e+01
 1.0071674510e+00	 3.7581741010e-01	-9.7502463755e+01
 9.9952242365e-01	 3.9570181280e-01	-9.8179705501e+01
 1.0693445882e+00	 1.9788481950e-01	-8.6037942421e+01
 1.0654044627e+00	 2.1810451840e-01	-9.0902329221e+01
 1.0610562233e+00	 2.3836094705e-01	-9.5168830922e+01
 1.0562955238e+00	 2.5864264212e-01	-9.8836705408e+01
 1.0511184158e+00	 2.7893785325e-01	-1.0190675823e+02
 1.0455213670e+00	 2.9923455867e-01	-1.0438138159e+02
 1.0395012801e+00	 3.1952048229e-01	-1.0626458709e+02
 1.0330555100e+00	 3.3978311198e-01	-1.0756203194e+02
 1.0261818806e+00	 3.6000971924e-01	-1.0828103805e+02
 1.0188787004e+00	 3.8018737999e-01	-1.0843060376e+02
 1.0111447774e+00	 4.0030299667e-01	-1.0802140776e+02
 1.0816359053e+00	 2.0015935765e-01	-9.7114642000e+01
 1.0776504910e+00	 2.2061146689e-01	-1.0292952026e+02
 1.0732522718e+00	 2.4110072805e-01	-1.0790785019e+02
 1.0684368517e+00	 2.6161554606e-01	-1.1205341255e+02
 1.0632002367e+00	 2.8214403547e-01	-1.1537252470e+02
 1.0575388540e+00	 3.0267403635e-01	-1.1787409312e+02
 1.0514495707e+00	 3.2319313151e-01	-1.1956965528e+02
 1.0449297113e+00	 3.4368866500e-01	-1.2047341008e+02
 1.0379770746e+00	 3.6414776199e-01	-1.2060223625e+02
 1.0305899498e+00	 3.8455734987e-01	-1.1997569803e+02
 1.0227671312e+00	 4.0490418054e-01	-1.1861603772e+02
 1.0939272224e+00	 2.0243389581e-01	-1.0783247013e+02
 1.0898965193e+00	 2.2311841537e-01	-1.1468240926e+02
 1.0854483204e+00	 2.4384050905e-01	-1.2046270967e+02
 1.0805781796e+00	 2.6458844999e-01	-1.2518161696e+02
 1.0752820576e+00	 2.8535021769e-01	-1.2885088763e+02
 1.0695563410e+00	 3.0611351404e-01	-1.3148585499e+02
 1.0633978613e+00	 3.2686578073e-01	-1.3310547991e+02
 1.0568039126e+00	 3.4759421801e-01	-1.3373238544e+02
 1.0497722687e+00	 3.6828580474e-01	-1.3339287440e+02
 1.0423011993e+00	 3.8892731976e-01	-1.3211692916e+02
 1.0343894849e+00	 4.0950536441e-01	-1.2993819283e+02
 1.1062185395e+00	 2.0470843396e-01	-1.1820338678e+02
 1.1021425476e+00	 2.2562536386e-01	-1.2617013496e+02
 1.0976443689e+00	 2.4658029005e-01	-1.3283954116e+02
 1.0927195074e+00	 2.6756135392e-01	-1.3822425972e+02
 1.0873638784e+00	 2.8855639991e-01	-1.4234141605e+02
 1.0815738280e+00	 3.0955299173e-01	-1.4521268573e+02
 1.0753461519e+00	 3.3053842995e-01	-1.4686435399e+02
 1.0686781139e+00	 3.5149977102e-01	-1.4732735440e+02
 1.0615674627e+00	 3.7242384749e-01	-1.4663728562e+02
 1.0540124487e+00	 3.9329728964e-01	-1.4483440525e+02
 1.0460118387e+00	 4.1410654828e-01	-1.4196359983e+02
 9.2978830103e-01	 3.6809470956e-01	-5.6523590628e+01
 9.2227993796e-01	 3.8652259440e-01	-6.8790353039e+01
 9.1437472369e-01	 4.0486894747e-01	-7.9078146769e+01
 9.0607300986e-01	 4.2312137827e-01	-8.7427340801e+01
 8.9737564997e-01	 4.4126742774e-01	-9.3885851904e+01
 8.8828400681e-01	 4.5929459304e-01	-9.8509109671e+01
 8.7879995838e-01	 4.7719035310e-01	-1.0135998149e+02
 8.6892590241e-01	 4.9494219468e-01	-1.0250865685e+02
 8.5866475920e-01	 5.1253763889e-01	-1.0203249058e+02
 8.4801997290e-01	 5.2996426817e-01	-1.0001580520e+02
 8.3699551121e-01	 5.4720975338e-01	-9.6549652492e+01
 9.4141065480e-01	 3.7269589344e-01	-6.1242031122e+01
 9.3380843719e-01	 3.9135412684e-01	-7.2929232754e+01
 9.2580440774e-01	 4.0992980932e-01	-8.2837006759e+01
 9.1739892249e-01	 4.2841039551e-01	-9.0999458006e+01
 9.0859284561e-01	 4.4678327059e-01	-9.7457447507e+01
 8.9938755690e-01	 4.6503577546e-01	-1.0225856888e+02
 8.8978495788e-01	 4.8315523252e-01	-1.0545708912e+02
 8.7978747621e-01	 5.0112897212e-01	-1.0711385303e+02
 8.6939806870e-01	 5.1894435938e-01	-1.0729615100e+02
 8.5862022257e-01	 5.3658882153e-01	-1.0607755013e+02
 8.4745795511e-01	 5.5404987530e-01	-1.0353768888e+02
 9.5303300857e-01	 3.7729707731e-01	-6.6893604969e+01
 9.4533693642e-01	 3.9618565927e-01	-7.7908626771e+01
 9.3723409180e-01	 4.1499067117e-01	-8.7338888163e+01
 9.2872483512e-01	 4.3369941274e-01	-9.5212351728e+01
 9.1981004124e-01	 4.5229911345e-01	-1.0156295853e+02
 9.1049110700e-01	 4.7077695788e-01	-1.0643061583e+02
 9.0076995736e-01	 4.8912011194e-01	-1.0986115340e+02
 8.9064904999e-01	 5.0731574955e-01	-1.1190624780e+02
 8.8013137819e-01	 5.2535107988e-01	-1.1262331426e+02
 8.6922047224e-01	 5.4321337488e-01	-1.1207536617e+02
 8.5792039901e-01	 5.6088999722e-01	-1.1033084227e+02
 9.6465536234e-01	 3.8189826118e-01	-7.3444558065e+01
 9.5686543566e-01	 4.0101719171e-01	-8.3698126629e+01
 9.4866377585e-01	 4.2005153301e-01	-9.2556904385e+01
 9.4005074775e-01	 4.3898842997e-01	-1.0004282905e+02
 9.3102723687e-01	 4.5781495630e-01	-1.0618305265e+02
 9.2159465709e-01	 4.7651814030e-01	-1.1100994029e+02
 9.1175495685e-01	 4.9508499136e-01	-1.1456104180e+02
 9.0151062378e-01	 5.1350252699e-01	-1.1687903553e+02
 8.9086468769e-01	 5.3175780036e-01	-1.1801164402e+02
 8.7982072191e-01	 5.4983792824e-01	-1.1801152138e+02
 8.6838284291e-01	 5.6773011914e-01	-1.1693611246e+02
 9.7627771611e-01	 3.8649944506e-01	-8.0862743940e+01
 9.6839393489e-01	 4.0584872414e-01	-9.0268772213e+01
 9.6009345990e-01	 4.2511239486e-01	-9.8465449493e+01
 9.5137666038e-01	 4.4427744721e-01	-1.0546880187e+02
 9.4224443250e-01	 4.6333079915e-01	-1.1129931854e+02
 9.3269820718e-01	 4.8225932271e-01	-1.1598196152e+02
 9.2273995634e-01	 5.0104987078e-01	-1.1954615236e+02
 9.1237219757e-01	 5.1968930443e-01	-1.2202573518e+02
 9.0159799719e-01	 5.3816452085e-01	-1.2345891575e+02
 8.9042097157e-01	 5.5646248159e-01	-1.2388817635e+02
 8.7884528680e-01	 5.7457024106e-01	-1.2336016649e+02
 9.8790006988e-01	 3.9110062893e-01	-8.9117529189e+01
 9.7992243412e-01	 4.1068025657e-01	-9.7592966554e+01
 9.7152314396e-01	 4.3017325671e-01	-1.0504012289e+02
 9.6270257301e-01	 4.4956646444e-01	-1.1146922189e+02
 9.5346162813e-01	 4.6884664200e-01	-1.1689421169e+02
 9.4380175727e-01	 4.8800050513e-01	-1.2133278538e+02
 9.3372495582e-01	 5.0701475019e-01	-1.2480638251e+02
 9.2323377135e-01	 5.2587608186e-01	-1.2734017117e+02
 9.1233130668e-01	 5.4457124134e-01	-1.2896301008e+02
 9.0102122124e-01	 5.6308703495e-01	-1.2970739055e+02
 8.8930773069e-01	 5.8141036298e-01	-1.2960935826e+02
 9.9952242365e-01	 3.9570181280e-01	-9.8179705501e+01
 9.9145093335e-01	 4.1551178900e-01	-1.0564439658e+02
 9.8295282801e-01	 4.3523411855e-01	-1.1225765923e+02
 9.7402848564e-01	 4.5485548167e-01	-1.1802402019e+02
 9.6467882376e-01	 4.7436248484e-01	-1.2295100403e+02
 9.5490530736e-01	 4.9374168754e-01	-1.2704916438e+02
 9.4470995530e-01	 5.1297962961e-01	-1.3033210002e+02
 9.3409534513e-01	 5.3206285930e-01	-1.3281645567e+02
 9.2306461617e-01	 5.5097796183e-01	-1.3452190677e+02
 9.1162147090e-01	 5.6971158830e-01	-1.3547112822e+02
 8.9977017459e-01	 5.8825048490e-01	-1.3568974667e+02
 1.0111447774e+00	 4.0030299667e-01	-1.0802140776e+02
 1.0029794326e+00	 4.2034332143e-01	-1.1439795932e+02
 9.9438251205e-01	 4.4029498039e-01	-1.2009586319e+02
 9.8535439826e-01	 4.6014449890e-01	-1.2511405090e+02
 9.7589601939e-01	 4.7987832769e-01	-1.2945373698e+02
 9.6600885745e-01	 4.9948286996e-01	-1.3311846055e+02
 9.5569495479e-01	 5.1894450902e-01	-1.3611411598e+02
 9.4495691892e-01	 5.3824963673e-01	-1.3844897199e+02
 9.3379792566e-01	 5.5738468231e-01	-1.4013367893e+02
 9.2222172056e-01	 5.7633614165e-01	-1.4118126378e+02
 9.1023261848e-01	 5.9509060682e-01	-1.4160711264e+02
 1.0227671312e+00	 4.0490418054e-01	-1.1861603772e+02
 1.0145079318e+00	 4.2517485386e-01	-1.2382969315e+02
 1.0058121961e+00	 4.4535584224e-01	-1.2853354862e+02
 9.9668031089e-01	 4.6543351612e-01	-1.3272103879e+02
 9.8711321501e-01	 4.8539417054e-01	-1.3638717771e+02
 9.7711240753e-01	 5.0522405237e-01	-1.3952861078e+02
 9.6667995426e-01	 5.2490938844e-01	-1.4214365958e+02
 9.5581849270e-01	 5.4443641416e-01	-1.4423235924e+02
 9.4453123515e-01	 5.6379140280e-01	-1.4579648777e+02
 9.3282197022e-01	 5.8296069500e-01	-1.4683958700e+02
 9.2069506237e-01	 6.0193072873e-01	-1.4736697486e+02
 1.0343894849e+00	 4.0950536441e-01	-1.2993819283e+02
 1.0260364310e+00	 4.3000638629e-01	-1.3391671368e+02
 1.0172418801e+00	 4.5041670408e-01	-1.3755048192e+02
 1.0080062235e+00	 4.7072253335e-01	-1.4082753035e+02
 9.9833041064e-01	 4.9091001338e-01	-1.4373677844e+02
 9.8821595761e-01	 5.1096523478e-01	-1.4626809452e+02
 9.7766495374e-01	 5.3087426785e-01	-1.4841235465e+02
 9.6668006647e-01	 5.5062319160e-01	-1.5016149794e+02
 9.5526454464e-01	 5.7019812328e-01	-1.5150857764e+02
 9.4342221988e-01	 5.8958524835e-01	-1.5244780773e+02
 9.3115750625e-01	 6.0877085065e-01	-1.5297460451e+02
 1.0460118387e+00	 4.1410654828e-01	-1.4196359983e+02
 1.0375649302e+00	 4.3483791872e-01	-1.4463715389e+02
 1.0286715642e+00	 4.5547756592e-01	-1.4712732907e+02
 1.0193321361e+00	 4.7601155058e-01	-1.4941684812e+02
 1.0095476063e+00	 4.9642585623e-01	-1.5148863830e+02
 9.9931950770e-01	 5.1670641719e-01	-1.5332590365e+02
 9.8864995322e-01	 5.3683914726e-01	-1.5491219772e+02
 9.7754164025e-01	 5.5680996903e-01	-1.5623149656e+02
 9.6599785412e-01	 5.7660484377e-01	-1.5726827137e+02
 9.5402246954e-01	 5.9620980170e-01	-1.5800756031e+02
 9.4161995014e-01	 6.1561097256e-01	-1.5843503904e+02
 8.3699551121e-01	 5.4720975338e-01	-9.6549652492e+01
 8.2559586329e-01	 5.6426188114e-01	-9.5546143711e+01
 8.1382603605e-01	 5.8110858112e-01	-9.5703588922e+01
 8.0169154870e-01	 5.9773795324e-01	-9.7002919798e+01
 7.8919842564e-01	 6.1413829468e-01	-9.9420718725e+01
 7.7635318758e-01	 6.3029812641e-01	-1.0292927242e+02
 7.6316284109e-01	 6.4620621941e-01	-1.0749664889e+02
 7.4963486641e-01	 6.6185162015e-01	-1.1308679757e+02
 7.3577720369e-01	 6.7722367543e-01	-1.1965967202e+02
 7.2159823775e-01	 6.9231205631e-01	-1.2717137477e+02
 7.0710678120e-01	 7.0710678120e-01	-1.3557432334e+02
 8.4745795511e-01	 5.5404987530e-01	-1.0353768888e+02
 8.3591581159e-01	 5.7131515466e-01	-1.0228957778e+02
 8.2399886151e-01	 5.8837243839e-01	-1.0209839686e+02
 8.1171269307e-01	 6.0520967766e-01	-1.0294900304e+02
 7.9906340596e-01	 6.2181502336e-01	-1.0482227722e+02
 7.8605760243e-01	 6.3817685299e-01	-1.0769516392e+02
 7.7270237661e-01	 6.5428379716e-01	-1.1154073213e+02
 7.5900530224e-01	 6.7012476541e-01	-1.1632825739e+02
 7.4497441875e-01	 6.8568897137e-01	-1.2202332467e+02
 7.3061821572e-01	 7.0096595702e-01	-1.2858795160e+02
 7.1594561597e-01	 7.1594561597e-01	-1.3598073126e+02
 8.5792039901e-01	 5.6088999722e-01	-1.1033084227e+02
 8.4623575989e-01	 5.7836842818e-01	-1.0887940829e+02
 8.3417168697e-01	 5.9563629565e-01	-1.0838328244e+02
 8.2173383743e-01	 6.1268140208e-01	-1.0883117635e+02
 8.0892838629e-01	 6.2949175205e-01	-1.1020819248e+02
 7.9576201728e-01	 6.4605557958e-01	-1.1249584978e+02
 7.8224191213e-01	 6.6236137490e-01	-1.1567212880e+02
 7.6837573808e-01	 6.7839791066e-01	-1.1971153600e+02
 7.5417163380e-01	 6.9415426732e-01	-1.2458518704e+02
 7.3963819370e-01	 7.0961985773e-01	-1.3026090881e+02
 7.2478445074e-01	 7.2478445074e-01	-1.3670335934e+02
 8.6838284291e-01	 5.6773011914e-01	-1.1693611246e+02
 8.5655570819e-01	 5.8542170169e-01	-1.1532114152e+02
 8.4434451242e-01	 6.0290015292e-01	-1.1456217164e+02
 8.3175498180e-01	 6.2015312650e-01	-1.1465170124e+02
 8.1879336662e-01	 6.3716848074e-01	-1.1557898006e+02
 8.0546643213e-01	 6.5393430616e-01	-1.1733002118e+02
 7.9178144765e-01	 6.7043895265e-01	-1.1988763053e+02
 7.7774617391e-01	 6.8667105592e-01	-1.2323145369e+02
 7.6336884885e-01	 7.0261956326e-01	-1.2733803999e+02
 7.4865817167e-01	 7.1827375844e-01	-1.3218092352e+02
 7.3362328551e-01	 7.3362328551e-01	-1.3773072065e+02
 8.7884528680e-01	 5.7457024106e-01	-1.2336016649e+02
 8.6687565648e-01	 5.9247497521e-01	-1.2162002215e+02
 8.5451733788e-01	 6.1016401018e-01	-1.2063880414e+02
 8.4177612616e-01	 6.2762485092e-01	-1.2041273217e+02
 8.2865834694e-01	 6.4484520942e-01	-1.2093513167e+02
 8.1517084698e-01	 6.6181303274e-01	-1.2219643237e+02
 8.0132098316e-01	 6.7851653039e-01	-1.2418418246e+02
 7.8711660974e-01	 6.9494420117e-01	-1.2688307819e+02
 7.7256606389e-01	 7.1108485921e-01	-1.3027500894e+02
 7.5767814965e-01	 7.2692765914e-01	-1.3433911763e+02
 7.4246212027e-01	 7.4246212027e-01	-1.3905187610e+02
 8.8930773069e-01	 5.8141036298e-01	-1.2960935826e+02
 8.7719560478e-01	 5.9952824872e-01	-1.2778104866e+02
 8.6469016333e-01	 6.1742786745e-01	-1.2661674427e+02
 8.5179727052e-01	 6.3509657533e-01	-1.2611632288e+02
 8.3852332726e-01	 6.5252193811e-01	-1.2627711653e+02
 8.2487526183e-01	 6.6969175932e-01	-1.2709389688e+02
 8.1086051868e-01	 6.8659410813e-01	-1.2855887423e+02
 7.9648704558e-01	 7.0321734642e-01	-1.3066171009e+02
 7.8176327894e-01	 7.1955015515e-01	-1.3338954359e+02
 7.6669812762e-01	 7.3558155984e-01	-1.3672703158e+02
 7.5130095504e-01	 7.5130095504e-01	-1.4065640221e+02
 8.9977017459e-01	 5.8825048490e-01	-1.3568974667e+02
 8.8751555307e-01	 6.0658152224e-01	-1.3380898762e+02
 8.7486298878e-01	 6.2469172471e-01	-1.3249939119e+02
 8.6181841488e-01	 6.4256829975e-01	-1.3176443222e+02
 8.4838830758e-01	 6.6019866679e-01	-1.3160538272e+02
 8.3457967667e-01	 6.7757048590e-01	-1.3202128418e+02
 8.2040005419e-01	 6.9467168587e-01	-1.3300893156e+02
 8.0585748141e-01	 7.1149049167e-01	-1.3456286927e+02
 7.9096049399e-01	 7.2801545109e-01	-1.3667539906e+02
 7.7571810559e-01	 7.4423546055e-01	-1.3933660010e+02
 7.6013978980e-01	 7.6013978980e-01	-1.4253436107e+02
 9.1023261848e-01	 5.9509060682e-01	-1.4160711264e+02
 8.9783550136e-01	 6.1363479575e-01	-1.3970838706e+02
 8.8503581423e-01	 6.3195558198e-01	-1.3828998838e+02
 8.7183955924e-01	 6.5004002416e-01	-1.3735892962e+02
 8.5825328790e-01	 6.6787539547e-01	-1.3692035840e+02
 8.4428409152e-01	 6.8544921248e-01	-1.3697751634e+02
 8.2993958971e-01	 7.0274926361e-01	-1.3753170841e+02
 8.1522791724e-01	 7.1976363692e-01	-1.3858228234e+02
 8.0015770903e-01	 7.3648074703e-01	-1.4012661835e+02
 7.8473808356e-01	 7.5288936125e-01	-1.4216012948e+02
 7.6897862457e-01	 7.6897862457e-01	-1.4467627249e+02
 9.2069506237e-01	 6.0193072873e-01	-1.4736697486e+02
 9.0815544965e-01	 6.2068806926e-01	-1.4548358882e+02
 8.9520863968e-01	 6.3921943924e-01	-1.4399163249e+02
 8.8186070360e-01	 6.5751174858e-01	-1.4290160017e+02
 8.6811826822e-01	 6.7555212415e-01	-1.4222245287e+02
 8.5398850636e-01	 6.9332793905e-01	-1.4196156513e+02
 8.3947912522e-01	 7.1082684135e-01	-1.4212467973e+02
 8.2459835306e-01	 7.2803678217e-01	-1.4271587086e+02
 8.0935492408e-01	 7.4494604297e-01	-1.4373751594e+02
 7.9375806153e-01	 7.6154326195e-01	-1.4519027647e+02
 7.7781745933e-01	 7.7781745933e-01	-1.4707308798e+02
 9.3115750625e-01	 6.0877085065e-01	-1.5297460451e+02
 9.1847539794e-01	 6.2774134277e-01	-1.5113874019e+02
 9.0538146513e-01	 6.4648329650e-01	-1.4960728160e+02
 8.9188184795e-01	 6.6498347299e-01	-1.4839414931e+02
 8.7798324854e-01	 6.8322885283e-01	-1.4751205770e+02
 8.6369292120e-01	 7.0120666563e-01	-1.4697244918e+02
 8.4901866073e-01	 7.1890441909e-01	-1.4678543461e+02
 8.3396878889e-01	 7.3630992742e-01	-1.4695974039e+02
 8.1855213912e-01	 7.5341133891e-01	-1.4750266259e+02
 8.0277803950e-01	 7.7019716265e-01	-1.4842002861e+02
 7.8665629409e-01	 7.8665629409e-01	-1.4971616646e+02
 9.4161995014e-01	 6.1561097256e-01	-1.5843503904e+02
 9.2879534623e-01	 6.3479461628e-01	-1.5667780469e+02
 9.1555429058e-01	 6.5374715376e-01	-1.5513976288e+02
 9.0190299231e-01	 6.7245519740e-01	-1.5383820732e+02
 8.8784822886e-01	 6.9090558151e-01	-1.5278954767e+02
 8.7339733604e-01	 7.0908539221e-01	-1.5200923138e+02
 8.5855819624e-01	 7.2698199683e-01	-1.5151166998e+02
 8.4333922472e-01	 7.4458307267e-01	-1.5131017026e+02
 8.2774935416e-01	 7.6187663485e-01	-1.5141687105e+02
 8.1179801747e-01	 7.7885106335e-01	-1.5184268581e+02
 7.9549512885e-01	 7.9549512885e-01	-1.5259725165e+02
 7.0710678120e-01	 7.0710678120e-01	-1.3557432334e+02
 6.9231205631e-01	 7.2159823775e-01	-1.3508149299e+02
 6.7722367543e-01	 7.3577720369e-01	-1.3258661821e+02
 6.6185162015e-01	 7.4963486641e-01	-1.2817451744e+02
 6.4620621941e-01	 7.6316284109e-01	-1.2193665075e+02
 6.3029812641e-01	 7.7635318758e-01	-1.1397071236e+02
 6.1413829468e-01	 7.8919842564e-01	-1.0438019233e+02
 5.9773795324e-01	 8.0169154870e-01	-9.3273910406e+01
 5.8110858112e-01	 8.1382603605e-01	-8.0765525457e+01
 5.6426188114e-01	 8.2559586329e-01	-6.6973023909e+01
 5.4720975338e-01	 8.3699551121e-01	-5.2018190844e+01
 7.1594561597e-01	 7.1594561597e-01	-1.3598073126e+02
 7.0096595702e-01	 7.3061821572e-01	-1.3563746291e+02
 6.8568897137e-01	 7.4497441875e-01	-1.3341802160e+02
 6.7012476541e-01	 7.5900530224e-01	-1.2940209782e+02
 6.5428379716e-01	 7.7270237661e-01	-1.2367563689e+02
 6.3817685299e-01	 7.8605760243e-01	-1.1633045589e+02
 6.2181502336e-01	 7.9906340596e-01	-1.0746383128e+02
 6.0520967766e-01	 8.1171269307e-01	-9.7178060524e+01
 5.8837243839e-01	 8.2399886151e-01	-8.5580000414e+01
 5.7131515466e-01	 8.3591581159e-01	-7.2780585761e+01
 5.5404987530e-01	 8.4745795511e-01	-5.8894331608e+01
 7.2478445074e-01	 7.2478445074e-01	-1.3670335934e+02
 7.0961985773e-01	 7.3963819370e-01	-1.3645738995e+02
 6.9415426732e-01	 7.5417163380e-01	-1.3445820691e+02
 6.7839791066e-01	 7.6837573808e-01	-1.3078048182e+02
 6.6236137490e-01	 7.8224191213e-01	-1.2550476135e+02
 6.4605557958e-01	 7.9576201728e-01	-1.1871710800e+02
 6.2949175205e-01	 8.0892838629e-01	-1.1050871340e+02
 6.1268140208e-01	 8.2173383743e-01	-1.0097548696e+02
 5.9563629565e-01	 8.3417168697e-01	-9.0217622826e+01
 5.7836842818e-01	 8.4623575989e-01	-7.8339148091e+01
 5.6088999722e-01	 8.5792039901e-01	-6.5447455686e+01
 7.3362328551e-01	 7.3362328551e-01	-1.3773072065e+02
 7.1827375844e-01	 7.4865817167e-01	-1.3753167509e+02
 7.0261956326e-01	 7.6336884885e-01	-1.3569956830e+02
 6.8667105592e-01	 7.7774617391e-01	-1.3230415812e+02
 6.7043895265e-01	 7.9178144765e-01	-1.2742070444e+02
 6.5393430616e-01	 8.0546643213e-01	-1.2112963339e+02
 6.3716848074e-01	 8.1879336662e-01	-1.1351617579e+02
 6.2015312650e-01	 8.3175498180e-01	-1.0466998247e+02
 6.0290015292e-01	 8.4434451242e-01	-9.4684719212e+01
 5.8542170169e-01	 8.5655570819e-01	-8.3657644159e+01
 5.6773011914e-01	 8.6838284291e-01	-7.1689170682e+01
 7.4246212027e-01	 7.4246212027e-01	-1.3905187610e+02
 7.2692765914e-01	 7.5767814965e-01	-1.3885117725e+02
 7.1108485921e-01	 7.7256606389e-01	-1.3713486296e+02
 6.9494420117e-01	 7.8711660974e-01	-1.3396787872e+02
 6.7851653039e-01	 8.0132098316e-01	-1.2942030548e+02
 6.6181303274e-01	 8.1517084698e-01	-1.2356704698e+02
 6.4484520942e-01	 8.2865834694e-01	-1.1648749282e+02
 6.2762485092e-01	 8.4177612616e-01	-1.0826516009e+02
 6.1016401018e-01	 8.5451733788e-01	-9.8987315762e+01
 5.9247497521e-01	 8.6687565648e-01	-8.8744582765e+01
 5.7457024106e-01	 8.7884528680e-01	-7.7630532402e+01
 7.5130095504e-01	 7.5130095504e-01	-1.4065640221e+02
 7.3558155984e-01	 7.6669812762e-01	-1.4040718636e+02
 7.1955015515e-01	 7.8176327894e-01	-1.3875718980e+02
 7.0321734642e-01	 7.9648704558e-01	-1.3576664343e+02
 6.8659410813e-01	 8.1086051868e-01	-1.3150055339e+02
 6.6969175932e-01	 8.2487526183e-01	-1.2602841090e+02
 6.5252193811e-01	 8.3852332726e-01	-1.1942387978e+02
 6.3509657533e-01	 8.5179727052e-01	-1.1176446377e+02
 6.1742786745e-01	 8.6469016333e-01	-1.0313115600e+02
 5.9952824872e-01	 8.7719560478e-01	-9.3608073222e+01
 5.8141036298e-01	 8.8930773069e-01	-8.3282077304e+01
 7.6013978980e-01	 7.6013978980e-01	-1.4253436107e+02
 7.4423546055e-01	 7.7571810559e-01	-1.4219139826e+02
 7.2801545109e-01	 7.9096049399e-01	-1.4055996950e+02
 7.1149049167e-01	 8.0585748141e-01	-1.3769568550e+02
 6.9467168587e-01	 8.2040005419e-01	-1.3365857798e+02
 6.7757048590e-01	 8.3457967667e-01	-1.2851283179e+02
 6.6019866679e-01	 8.4838830758e-01	-1.2232649632e+02
 6.4256829975e-01	 8.6181841488e-01	-1.1517117815e+02
 6.2469172471e-01	 8.7486298878e-01	-1.0712171719e+02
 6.0658152224e-01	 8.8751555307e-01	-9.8255848567e+01
 5.8825048490e-01	 8.9977017459e-01	-8.8653852691e+01
 7.6897862457e-01	 7.6897862457e-01	-1.4467627249e+02
 7.5288936125e-01	 7.8473808356e-01	-1.4419589141e+02
 7.3648074703e-01	 8.0015770903e-01	-1.4253692608e+02
 7.1976363692e-01	 8.1522791724e-01	-1.3975045816e+02
 7.0274926361e-01	 8.2993958971e-01	-1.3589164190e+02
 6.8544921248e-01	 8.4428409152e-01	-1.3101945823e+02
 6.6787539547e-01	 8.5825328790e-01	-1.2519644963e+02
 6.5004002416e-01	 8.7183955924e-01	-1.1848843774e+02
 6.3195558198e-01	 8.8503581423e-01	-1.1096422568e+02
 6.1363479575e-01	 8.9783550136e-01	-1.0269528719e+02
 5.9509060682e-01	 9.1023261848e-01	-9.3755444813e+01
 7.7781745933e-01	 7.7781745933e-01	-1.4707308798e+02
 7.6154326195e-01	 7.9375806153e-01	-1.4641310512e+02
 7.4494604297e-01	 8.0935492408e-01	-1.4468206962e+02
 7.2803678217e-01	 8.2459835306e-01	-1.4192662210e+02
 7.1082684135e-01	 8.3947912522e-01	-1.3819713303e+02
 6.9332793905e-01	 8.5398850636e-01	-1.3354747834e+02
 6.7555212415e-01	 8.6811826822e-01	-1.2803479745e+02
 6.5751174858e-01	 8.8186070360e-01	-1.2171923544e+02
 6.3921943924e-01	 8.9520863968e-01	-1.1466367111e+02
 6.2068806926e-01	 9.0815544965e-01	-1.0693343297e+02
 6.0193072873e-01	 9.2069506237e-01	-9.8596005064e+01
 7.8665629409e-01	 7.8665629409e-01	-1.4971616646e+02
 7.7019716265e-01	 8.0277803950e-01	-1.4883581928e+02
 7.5341133891e-01	 8.1855213912e-01	-1.4698968020e+02
 7.3630992742e-01	 8.3396878889e-01	-1.4422003388e+02
 7.1890441909e-01	 8.4901866073e-01	-1.4057255748e+02
 7.0120666563e-01	 8.6369292120e-01	-1.3609611753e+02
 6.8322885283e-01	 8.7798324854e-01	-1.3084255078e+02
 6.6498347299e-01	 8.9188184795e-01	-1.2486643046e+02
 6.4648329650e-01	 9.0538146513e-01	-1.1822481972e+02
 6.2774134277e-01	 9.1847539794e-01	-1.1097701407e+02
 6.0877085065e-01	 9.3115750625e-01	-1.0318427440e+02
 7.9549512885e-01	 7.9549512885e-01	-1.5259725165e+02
 7.7885106335e-01	 8.1179801747e-01	-1.5145713544e+02
 7.6187663485e-01	 8.2774935416e-01	-1.4945429292e+02
 7.4458307267e-01	 8.4333922472e-01	-1.4662673499e+02
 7.2698199683e-01	 8.5855819624e-01	-1.4301553298e+02
 7.0908539221e-01	 8.7339733604e-01	-1.3866463649e+02
 6.9090558151e-01	 8.8784822886e-01	-1.3362067655e+02
 6.7245519740e-01	 9.0190299231e-01	-1.2793275578e+02
 6.5374715376e-01	 9.1555429058e-01	-1.2165222677e+02
 6.3479461628e-01	 9.2879534623e-01	-1.1483246047e+02
 6.1561097256e-01	 9.4161995014e-01	-1.0752860616e+02
 5.4720975338e-01	 8.3699551121e-01	-5.2018190844e+01
 5.2996426817e-01	 8.4801997290e-01	-4.6516240039e+01
 5.1253763889e-01	 8.5866475920e-01	-4.2614168890e+01
 4.9494219468e-01	 8.6892590241e-01	-4.0433030461e+01
 4.7719035310e-01	 8.7879995838e-01	-4.0087140789e+01
 4.5929459304e-01	 8.8828400681e-01	-4.1683707314e+01
 4.4126742774e-01	 8.9737564997e-01	-4.5322500263e+01
 4.2312137827e-01	 9.0607300986e-01	-5.1095568203e+01
 4.0486894747e-01	 9.1437472369e-01	-5.9086998560e+01
 3.8652259440e-01	 9.2227993796e-01	-6.9372723539e+01
 3.6809470956e-01	 9.2978830103e-01	-8.2020371496e+01
 5.5404987530e-01	 8.4745795511e-01	-5.8894331608e+01
 5.3658882153e-01	 8.5862022257e-01	-5.4708004247e+01
 5.1894435938e-01	 8.6939806870e-01	-5.2176162792e+01
 5.0112897212e-01	 8.7978747621e-01	-5.1396489307e+01
 4.8315523252e-01	 8.8978495788e-01	-5.2460065446e+01
 4.6503577546e-01	 8.9938755690e-01	-5.5451094674e+01
 4.4678327059e-01	 9.0859284561e-01	-6.0446664489e+01
 4.2841039551e-01	 9.1739892249e-01	-6.7516549299e+01
 4.0992980932e-01	 9.2580440774e-01	-7.6723054294e+01
 3.9135412684e-01	 9.3380843719e-01	-8.8120900306e+01
 3.7269589344e-01	 9.4141065480e-01	-1.0175714931e+02
 5.6088999722e-01	 8.5792039901e-01	-6.5447455686e+01
 5.4321337488e-01	 8.6922047224e-01	-6.2347049342e+01
 5.2535107988e-01	 8.8013137819e-01	-6.0954534599e+01
 5.0731574955e-01	 8.9064904999e-01	-6.1344664826e+01
 4.8912011194e-01	 9.0076995736e-01	-6.3585726312e+01
 4.7077695788e-01	 9.1049110700e-01	-6.7739352812e+01
 4.5229911345e-01	 9.1981004124e-01	-7.3860377160e+01
 4.3369941274e-01	 9.2872483512e-01	-8.1996720112e+01
 4.1499067117e-01	 9.3723409180e-01	-9.2189316263e+01
 3.9618565927e-01	 9.4533693642e-01	-1.0447207661e+02
 3.7729707731e-01	 9.5303300857e-01	-1.1887188700e+02
 5.6773011914e-01	 8.6838284291e-01	-7.1689170682e+01
 5.4983792824e-01	 8.7982072191e-01	-6.9453284468e+01
 5.3175780036e-01	 8.9086468769e-01	-6.8977538398e+01
 5.1350252699e-01	 9.0151062378e-01	-7.0314183464e+01
 4.9508499136e-01	 9.1175495685e-01	-7.3509133747e+01
 4.7651814030e-01	 9.2159465709e-01	-7.8601871852e+01
 4.5781495630e-01	 9.3102723687e-01	-8.5625388547e+01
 4.3898842997e-01	 9.4005074775e-01	-9.4606156246e+01
 4.2005153301e-01	 9.4866377585e-01	-1.0556413571e+02
 4.0101719171e-01	 9.5686543566e-01	-1.1851281511e+02
 3.8189826118e-01	 9.6465536234e-01	-1.3345928036e+02
 5.7457024106e-01	 8.7884528680e-01	-7.7630532402e+01
 5.5646248159e-01	 8.9042097157e-01	-7.6045671660e+01
 5.3816452085e-01	 9.0159799719e-01	-7.6272083789e+01
 5.1968930443e-01	 9.1237219757e-01	-7.8339928501e+01
 5.0104987078e-01	 9.2273995634e-01	-8.2273155705e+01
 4.8225932271e-01	 9.3269820718e-01	-8.8089500473e+01
 4.6333079915e-01	 9.4224443250e-01	-9.5800509371e+01
 4.4427744721e-01	 9.5137666038e-01	-1.0541159730e+02
 4.2511239486e-01	 9.6009345990e-01	-1.1692213378e+02
 4.0584872414e-01	 9.6839393489e-01	-1.3032555737e+02
 3.8649944506e-01	 9.7627771611e-01	-1.4560951676e+02
 5.8141036298e-01	 8.8930773069e-01	-8.3282077304e+01
 5.6308703495e-01	 9.0102122124e-01	-8.2142281550e+01
 5.4457124134e-01	 9.1233130668e-01	-8.2863814971e+01
 5.2587608186e-01	 9.2323377135e-01	-8.5455142579e+01
 5.0701475019e-01	 9.3372495582e-01	-8.9918643754e+01
 4.8800050513e-01	 9.4380175727e-01	-9.6250695403e+01
 4.6884664200e-01	 9.5346162813e-01	-1.0444178371e+02
 4.4956646444e-01	 9.6270257301e-01	-1.1447664311e+02
 4.3017325671e-01	 9.7152314396e-01	-1.2633442095e+02
 4.1068025657e-01	 9.7992243412e-01	-1.3998886622e+02
 3.9110062893e-01	 9.8790006988e-01	-1.5540854033e+02
 5.8825048490e-01	 8.9977017459e-01	-8.8653852691e+01
 5.6971158830e-01	 9.1162147090e-01	-8.7760345192e+01
 5.5097796183e-01	 9.2306461617e-01	-8.8777184305e+01
 5.3206285930e-01	 9.3409534513e-01	-9.1691523089e+01
 5.1297962961e-01	 9.4470995530e-01	-9.6484550303e+01
 4.9374168754e-01	 9.5490530736e-01	-1.0313166048e+02
 4.7436248484e-01	 9.6467882376e-01	-1.1160264984e+02
 4.5485548167e-01	 9.7402848564e-01	-1.2186193625e+02
 4.3523411855e-01	 9.8295282801e-01	-1.3386880113e+02
 4.1551178900e-01	 9.9145093335e-01	-1.4757765132e+02
 3.9570181280e-01	 9.9952242365e-01	-1.6293829870e+02
 5.9509060682e-01	 9.1023261848e-01	-9.3755444813e+01
 5.7633614165e-01	 9.2222172056e-01	-9.2916302306e+01
 5.5738468231e-01	 9.3379792566e-01	-9.4035520805e+01
 5.3824963673e-01	 9.4495691892e-01	-9.7079310970e+01
 5.1894450902e-01	 9.5569495479e-01	-1.0200803774e+02
 4.9948286996e-01	 9.6600885745e-01	-1.0877647612e+02
 4.7987832769e-01	 9.7589601939e-01	-1.1733409002e+02
 4.6014449890e-01	 9.8535439826e-01	-1.2762533206e+02
 4.4029498039e-01	 9.9438251205e-01	-1.3958996166e+02
 4.2034332143e-01	 1.0029794326e+00	-1.5316337904e+02
 4.0030299667e-01	 1.0111447774e+00	-1.6827697260e+02
 6.0193072873e-01	 9.2069506237e-01	-9.8596005064e+01
 5.8296069500e-01	 9.3282197022e-01	-9.7625846233e+01
 5.6379140280e-01	 9.4453123515e-01	-9.8661093960e+01
 5.4443641416e-01	 9.5581849270e-01	-1.0164737346e+02
 5.2490938844e-01	 9.6667995426e-01	-1.0652458015e+02
 5.0522405237e-01	 9.7711240753e-01	-1.1322721996e+02
 4.8539417054e-01	 9.8711321501e-01	-1.2168476996e+02
 4.6543351612e-01	 9.9668031089e-01	-1.3182205692e+02
 4.4535584224e-01	 1.0058121961e+00	-1.4355965043e+02
 4.2517485386e-01	 1.0145079318e+00	-1.5681426816e+02
 4.0490418054e-01	 1.0227671312e+00	-1.7149918998e+02
 6.0877085065e-01	 9.3115750625e-01	-1.0318427440e+02
 5.8958524835e-01	 9.4342221988e-01	-1.0190396586e+02
 5.7019812328e-01	 9.5526454464e-01	-1.0267517325e+02
 5.5062319160e-01	 9.6668006647e-01	-1.0542328125e+02
 5.3087426785e-01	 9.7766495374e-01	-1.1006805814e+02
 5.1096523478e-01	 9.8821595761e-01	-1.1652407938e+02
 4.9091001338e-01	 9.9833041064e-01	-1.2470116907e+02
 4.7072253335e-01	 1.0080062235e+00	-1.3450485599e+02
 4.5041670408e-01	 1.0172418801e+00	-1.4583684098e+02
 4.3000638629e-01	 1.0260364310e+00	-1.5859547225e+02
 4.0950536441e-01	 1.0343894849e+00	-1.7267622552e+02
 6.1561097256e-01	 9.4161995014e-01	-1.0752860616e+02
 5.9620980170e-01	 9.5402246954e-01	-1.0576498477e+02
 5.7660484377e-01	 9.6599785412e-01	-1.0609808371e+02
 5.5680996903e-01	 9.7754164025e-01	-1.0843338054e+02
 5.3683914726e-01	 9.8864995322e-01	-1.1267084735e+02
 5.1670641719e-01	 9.9931950770e-01	-1.1870545651e+02
 4.9642585623e-01	 1.0095476063e+00	-1.2642770180e+02
 4.7601155058e-01	 1.0193321361e+00	-1.3572413107e+02
 4.5547756592e-01	 1.0286715642e+00	-1.4647788665e+02
 4.3483791872e-01	 1.0375649302e+00	-1.5856925004e+02
 4.1410654828e-01	 1.0460118387e+00	-1.7187618697e+02
 3.6809470956e-01	 9.2978830103e-01	-8.2020371496e+01
 3.4959759078e-01	 9.3689995435e-01	-4.9375853301e+01
 3.3104341998e-01	 9.4361552236e-01	-1.5722133345e+01
 3.1244424090e-01	 9.4993610115e-01	 1.8915817273e+01
 2.9381193773e-01	 9.5586324607e-01	 5.4508521177e+01
 2.7515821486e-01	 9.6139895816e-01	 9.1022230671e+01
 2.5649457770e-01	 9.6654566967e-01	 1.2841917889e+02
 2.3783231460e-01	 9.7130622879e-01	 1.6665784398e+02
 2.1918248006e-01	 9.7568388344e-01	 2.0569322403e+02
 2.0055587900e-01	 9.7968226449e-01	 2.4547712075e+02
 1.8196305243e-01	 9.8330536840e-01	 2.8595842952e+02
 3.7269589344e-01	 9.4141065480e-01	-1.0175714931e+02
 3.5396756067e-01	 9.4861120379e-01	-6.9074187312e+01
 3.3518146273e-01	 9.5541071639e-01	-3.5304755170e+01
 3.1634979391e-01	 9.6181030243e-01	-4.9623917925e-01
 2.9748458695e-01	 9.6781153666e-01	 3.5299948123e+01
 2.7859769255e-01	 9.7341644514e-01	 7.2028675997e+01
 2.5970075992e-01	 9.7862749055e-01	 1.0963141346e+02
 2.4080521853e-01	 9.8344755666e-01	 1.4804655478e+02
 2.2192226105e-01	 9.8787993198e-01	 1.8720975017e+02
 2.0306282749e-01	 9.9192829280e-01	 2.2705423935e+02
 1.8423759058e-01	 9.9559668551e-01	 2.6751118584e+02
 3.7729707731e-01	 9.5303300857e-01	-1.1887188700e+02
 3.5833753055e-01	 9.6032245323e-01	-8.6375144961e+01
 3.3931950548e-01	 9.6720591043e-01	-5.2714002266e+01
 3.2025534692e-01	 9.7368450370e-01	-1.7957872865e+01
 3.0115723617e-01	 9.7975982724e-01	 1.7820272565e+01
 2.8203717024e-01	 9.8543393212e-01	 5.4544285756e+01
 2.6290694214e-01	 9.9070931143e-01	 9.2135224716e+01
 2.4377812247e-01	 9.9558888452e-01	 1.3051173975e+02
 2.2466204205e-01	 1.0000759805e+00	 1.6959045911e+02
 2.0556977597e-01	 1.0041743211e+00	 2.0928637194e+02
 1.8651212874e-01	 1.0078880026e+00	 2.4951320611e+02
 3.8189826118e-01	 9.6465536234e-01	-1.3345928036e+02
 3.6270750044e-01	 9.7203370266e-01	-1.0136530083e+02
 3.4345754823e-01	 9.7900110447e-01	-6.8028351967e+01
 3.2416089993e-01	 9.8555870497e-01	-3.3539501826e+01
 3.0482988540e-01	 9.9170811782e-01	 2.0070841673e+00
 2.8547664792e-01	 9.9745141910e-01	 3.8514592514e+01
 2.6611312436e-01	 1.0027911323e+00	 7.5884010559e+01
 2.4675102640e-01	 1.0077302124e+00	 1.1401457225e+02
 2.2740182305e-01	 1.0122720291e+00	 1.5280419807e+02
 2.0807672446e-01	 1.0164203494e+00	 1.9214992667e+02
 1.8878666689e-01	 1.0201793197e+00	 2.3194833585e+02
 3.8649944506e-01	 9.7627771611e-01	-1.4560951676e+02
 3.6707747033e-01	 9.8374495210e-01	-1.1412710780e+02
 3.4759559099e-01	 9.9079629850e-01	-8.1322545462e+01
 3.2806645295e-01	 9.9743290624e-01	-4.7308191717e+01
 3.0850253462e-01	 1.0036564084e+00	-1.2199056324e+01
 2.8891612561e-01	 1.0094689061e+00	 2.3887721706e+01
 2.6931930658e-01	 1.0148729532e+00	 6.0833387242e+01
 2.4972393033e-01	 1.0198715402e+00	 9.8518073781e+01
 2.3014160405e-01	 1.0244680776e+00	 1.3682129698e+02
 2.1058367294e-01	 1.0286663777e+00	 1.7562243442e+02
 1.9106120504e-01	 1.0324706368e+00	 2.1480118912e+02
 3.9110062893e-01	 9.8790006988e-01	-1.5540854033e+02
 3.7144744021e-01	 9.9545620154e-01	-1.2473913948e+02
 3.5173363374e-01	 1.0025914925e+00	-9.2667807565e+01
 3.3197200596e-01	 1.0093071075e+00	-5.9327853003e+01
 3.1217518384e-01	 1.0156046990e+00	-2.4854791841e+01
 2.9235560329e-01	 1.0214863931e+00	 1.0614239121e+01
 2.7252548880e-01	 1.0269547741e+00	 4.6941058882e+01
 2.5269683426e-01	 1.0320128681e+00	 8.3987005241e+01
 2.3288138505e-01	 1.0366641262e+00	 1.2161348129e+02
 2.1309062143e-01	 1.0409124060e+00	 1.5968248270e+02
 1.9333574319e-01	 1.0447619539e+00	 1.9805710337e+02
 3.9570181280e-01	 9.9952242365e-01	-1.6293829870e+02
 3.7581741010e-01	 1.0071674510e+00	-1.3327631574e+02
 3.5587167649e-01	 1.0143866866e+00	-1.0213205115e+02
 3.3587755897e-01	 1.0211813088e+00	-6.9659424395e+01
 3.1584783306e-01	 1.0275529896e+00	-3.6014131573e+01
 2.9579508098e-01	 1.0335038801e+00	-1.3529909776e+00
 2.7573167103e-01	 1.0390365949e+00	 3.4166696075e+01
 2.5566973819e-01	 1.0441541960e+00	 7.0387765808e+01
 2.3562116605e-01	 1.0488601747e+00	 1.0715379080e+02
 2.1559756991e-01	 1.0531584344e+00	 1.4430965427e+02
 1.9561028135e-01	 1.0570532710e+00	 1.8170209733e+02
 4.0030299667e-01	 1.0111447774e+00	-1.6827697260e+02
 3.8018737999e-01	 1.0188787004e+00	-1.3981011273e+02
 3.6000971924e-01	 1.0261818806e+00	-1.0978006749e+02
 3.3978311198e-01	 1.0330555100e+00	-7.8361043640e+01
 3.1952048229e-01	 1.0395012801e+00	-4.5728602321e+01
 2.9923455867e-01	 1.0455213670e+00	-1.2058937943e+01
 2.7893785325e-01	 1.0511184158e+00	 2.2471822886e+01
 2.5864264212e-01	 1.0562955238e+00	 5.7688298787e+01
 2.3836094705e-01	 1.0610562233e+00	 9.3416504159e+01
 2.1810451840e-01	 1.0654044627e+00	 1.2948446992e+02
 1.9788481950e-01	 1.0693445882e+00	 1.6572283187e+02
 4.0490418054e-01	 1.0227671312e+00	-1.7149918998e+02
 3.8455734987e-01	 1.0305899498e+00	-1.4440875848e+02
 3.6414776199e-01	 1.0379770746e+00	-1.1567370361e+02
 3.4368866500e-01	 1.0449297113e+00	-8.5488206657e+01
 3.2319313151e-01	 1.0514495707e+00	-5.4047389546e+01
 3.0267403635e-01	 1.0575388540e+00	-2.1546527832e+01
 2.8214403547e-01	 1.0632002367e+00	 1.1819711537e+01
 2.6161554606e-01	 1.0684368517e+00	 4.5858003882e+01
 2.4110072805e-01	 1.0732522718e+00	 8.0377068459e+01
 2.2061146689e-01	 1.0776504910e+00	 1.1518833516e+02
 2.0015935765e-01	 1.0816359053e+00	 1.5010657357e+02
 4.0950536441e-01	 1.0343894849e+00	-1.7267622552e+02
 3.8892731976e-01	 1.0423011993e+00	-1.4713741543e+02
 3.6828580474e-01	 1.0497722687e+00	-1.1987202771e+02
 3.4759421801e-01	 1.0568039126e+00	-9.1093915956e+01
 3.2686578073e-01	 1.0633978613e+00	-6.1017468895e+01
 3.0611351404e-01	 1.0695563410e+00	-2.9856758197e+01
 2.8535021769e-01	 1.0752820576e+00	 2.1752842062e+00
 2.6458844999e-01	 1.0805781796e+00	 3.4867655375e+01
 2.4384050905e-01	 1.0854483204e+00	 6.8012033603e+01
 2.2311841537e-01	 1.0898965193e+00	 1.0140349055e+02
 2.0243389581e-01	 1.0939272224e+00	 1.3484116060e+02
 4.1410654828e-01	 1.0460118387e+00	-1.7187618697e+02
 3.9329728964e-01	 1.0540124487e+00	-1.4805835071e+02
 3.7242384749e-01	 1.0615674627e+00	-1.2243148351e+02
 3.5149977102e-01	 1.0686781139e+00	-9.5228819156e+01
 3.3053842995e-01	 1.0753461519e+00	-6.6683728969e+01
 3.0955299173e-01	 1.0815738280e+00	-3.7028805217e+01
 2.8855639991e-01	 1.0873638784e+00	-6.4949786413e+00
 2.6756135392e-01	 1.0927195074e+00	 2.4689325766e+01
 2.4658029005e-01	 1.0976443689e+00	 5.6298991034e+01
 2.2562536386e-01	 1.1021425476e+00	 8.8112965308e+01
 2.0470843396e-01	 1.1062185395e+00	 1.1991497106e+02
 1.8196305243e-01	 9.8330536840e-01	 2.8595842952e+02
 1.6341426419e-01	 9.8655753924e-01	 2.2494564321e+02
 1.4491948904e-01	 9.8944345047e-01	 1.6198825075e+02
 1.2648840200e-01	 9.9196808625e-01	 9.7785554796e+01
 1.0813036884e-01	 9.9413672265e-01	 3.3016248437e+01
 8.9854437912e-02	 9.9595490861e-01	-3.1663249891e+01
 7.1669333081e-02	 9.9742844690e-01	-9.5620282379e+01
 5.3583447897e-02	 9.9856337511e-01	-1.5824725927e+02
 3.5604840891e-02	 9.9936594664e-01	-2.1896278967e+02
 1.7741231987e-02	 9.9984261196e-01	-2.7721263886e+02
 0.0000000000e+00	 1.0000000000e+00	-3.3247051616e+02
 1.8423759058e-01	 9.9559668551e-01	 2.6751118584e+02
 1.6545694249e-01	 9.9888950849e-01	 2.1384052081e+02
 1.4673098265e-01	 1.0018114936e+00	 1.5799041617e+02
 1.2806950702e-01	 1.0043676873e+00	 1.0061003760e+02
 1.0948199844e-01	 1.0065634317e+00	 4.2330580180e+01
 9.0977618379e-02	 1.0084043450e+00	-1.6236329152e+01
 7.2565199739e-02	 1.0098963025e+00	-7.4500065586e+01
 5.4253240991e-02	 1.0110454173e+00	-1.3189227689e+02
 3.6049901398e-02	 1.0118580210e+00	-1.8786799174e+02
 1.7962997385e-02	 1.0123406446e+00	-2.4190656825e+02
 0.0000000000e+00	 1.0125000000e+00	-2.9351248627e+02
 1.8651212874e-01	 1.0078880026e+00	 2.4951320611e+02
 1.6749962078e-01	 1.0112214777e+00	 2.0249945649e+02
 1.4854247626e-01	 1.0141795367e+00	 1.5307985246e+02
 1.2965061203e-01	 1.0167672884e+00	 1.0185436453e+02
 1.1083362805e-01	 1.0189901407e+00	 4.9407583961e+01
 9.2100798847e-02	 1.0208537813e+00	-3.6928084016e+00
 7.3461066397e-02	 1.0223641581e+00	-5.6897424919e+01
 5.4923034086e-02	 1.0235274595e+00	-1.0967640526e+02
 3.6494961906e-02	 1.0243500953e+00	-1.6152050255e+02
 1.8184762783e-02	 1.0248386773e+00	-2.1194202339e+02
 0.0000000000e+00	 1.0250000000e+00	-2.6047562435e+02
 1.8878666689e-01	 1.0201793197e+00	 2.3194833585e+02
 1.6954229908e-01	 1.0235534470e+00	 1.9093106281e+02
 1.5035396986e-01	 1.0265475799e+00	 1.4728963488e+02
 1.3123171705e-01	 1.0291668895e+00	 1.0157573519e+02
 1.1218525765e-01	 1.0314168498e+00	 5.4328213015e+01
 9.3223979316e-02	 1.0333032177e+00	 6.0716179843e+00
 7.4356933056e-02	 1.0348320137e+00	-4.2685132383e+01
 5.5592827180e-02	 1.0360095017e+00	-9.1449950970e+01
 3.6940022414e-02	 1.0368421696e+00	-1.3974864541e+02
 1.8406528182e-02	 1.0373367099e+00	-1.8712584966e+02
 0.0000000000e+00	 1.0375000000e+00	-2.3314582472e+02
 1.9106120504e-01	 1.0324706368e+00	 2.1480118912e+02
 1.7158497738e-01	 1.0358854162e+00	 1.7914354152e+02
 1.5216546347e-01	 1.0389156230e+00	 1.4065126301e+02
 1.3281282207e-01	 1.0415664906e+00	 9.9828624748e+01
 1.1353688726e-01	 1.0438435588e+00	 5.7169565076e+01
 9.4347159785e-02	 1.0457526540e+00	 1.3156288145e+01
 7.5252799715e-02	 1.0472998693e+00	-3.1742018978e+01
 5.6262620276e-02	 1.0484915439e+00	-7.7070349375e+01
 3.7385082923e-02	 1.0493342440e+00	-1.2238891916e+02
 1.8628293580e-02	 1.0498347426e+00	-1.6727409073e+02
 0.0000000000e+00	 1.0500000000e+00	-2.1131917761e+02
 1.9333574319e-01	 1.0447619539e+00	 1.9805710337e+02
 1.7362765568e-01	 1.0482173855e+00	 1.6714470774e+02
 1.5397695708e-01	 1.0512836661e+00	 1.3319475350e+02
 1.3439392709e-01	 1.0539660917e+00	 9.6664944267e+01
 1.1488851686e-01	 1.0562702678e+00	 5.8005109181e+01
 9.5470340255e-02	 1.0582020904e+00	 1.7655864944e+01
 7.6148666375e-02	 1.0597677248e+00	-2.3952618279e+01
 5.6932413371e-02	 1.0609735861e+00	-6.6401745220e+01
 3.7830143432e-02	 1.0618263183e+00	-1.0928551725e+02
 1.8850058979e-02	 1.0623327752e+00	-1.5221144740e+02
 0.0000000000e+00	 1.0625000000e+00	-1.9480136939e+02
 1.9561028135e-01	 1.0570532710e+00	 1.8170209733e+02
 1.7567033398e-01	 1.0605493547e+00	 1.5494201247e+02
 1.5578845069e-01	 1.0636517093e+00	 1.2494872625e+02
 1.3597503212e-01	 1.0663656927e+00	 9.2134189728e+01
 1.1624014647e-01	 1.0686969769e+00	 5.6904896637e+01
 9.6593520725e-02	 1.0706515268e+00	 1.9660607787e+01
 7.7044533036e-02	 1.0722355804e+00	-1.9206834899e+01
 5.7602206467e-02	 1.0734556282e+00	-5.9314602571e+01
 3.8275203941e-02	 1.0743183926e+00	-1.0028988037e+02
 1.9071824378e-02	 1.0748308079e+00	-1.4177077437e+02
 0.0000000000e+00	 1.0750000000e+00	-1.8340712461e+02
 1.9788481950e-01	 1.0693445882e+00	 1.6572283187e+02
 1.7771301228e-01	 1.0728813239e+00	 1.4254256347e+02
 1.5759994430e-01	 1.0760197524e+00	 1.1594048465e+02
 1.3755613714e-01	 1.0787652938e+00	 8.6283580857e+01
 1.1759177608e-01	 1.0811236859e+00	 5.3935757443e+01
 9.7716701196e-02	 1.0831009631e+00	 1.9256625694e+01
 7.7940399697e-02	 1.0847034360e+00	-1.7399635800e+01
 5.8271999564e-02	 1.0859376704e+00	-5.5685341634e+01
 3.8720264451e-02	 1.0868104670e+00	-9.5260279974e+01
 1.9293589777e-02	 1.0873288405e+00	-1.3579261155e+02
 0.0000000000e+00	 1.0875000000e+00	-1.7695968661e+02
 2.0015935765e-01	 1.0816359053e+00	 1.5010657357e+02
 1.7975569058e-01	 1.0852132932e+00	 1.2995314480e+02
 1.5941143791e-01	 1.0883877955e+00	 1.0619609048e+02
 1.3913724216e-01	 1.0911648949e+00	 7.9158190449e+01
 1.1894340569e-01	 1.0935503949e+00	 4.9161483327e+01
 9.8839881668e-02	 1.0955503995e+00	 1.6526113123e+01
 7.8836266358e-02	 1.0971712916e+00	-1.8430762665e+01
 5.8941792661e-02	 1.0984197126e+00	-5.5396000337e+01
 3.9165324961e-02	 1.0993025413e+00	-9.4061430148e+01
 1.9515355176e-02	 1.0998268732e+00	-1.3412474744e+02
 0.0000000000e+00	 1.1000000000e+00	-1.7529033351e+02
 2.0243389581e-01	 1.0939272224e+00	 1.3484116060e+02
 1.8179836888e-01	 1.0975452624e+00	 1.1718023501e+02
 1.6122293152e-01	 1.1007558387e+00	 9.5740433564e+01
 1.4071834718e-01	 1.1035644960e+00	 7.0801064988e+01
 1.2029503530e-01	 1.1059771040e+00	 4.2642998428e+01
 9.9963062140e-02	 1.1079998358e+00	 1.1547569884e+01
 7.9732133020e-02	 1.1096391472e+00	-2.2204463648e+01
 5.9611585759e-02	 1.1109017548e+00	-5.8333918725e+01
 3.9610385471e-02	 1.1117946156e+00	-9.6564125658e+01
 1.9737120575e-02	 1.1123249058e+00	-1.3662181190e+02
 0.0000000000e+00	 1.1125000000e+00	-1.7823792675e+02
 2.0470843396e-01	 1.1062185395e+00	 1.1991497106e+02
 1.8384104718e-01	 1.1098772317e+00	 1.0423002408e+02
 1.6303442514e-01	 1.1131238818e+00	 8.4597296946e+01
 1.4229945221e-01	 1.1159640971e+00	 6.1253337220e+01
 1.2164666491e-01	 1.1184038130e+00	 3.4438518614e+01
 1.0108624261e-01	 1.1204492722e+00	 4.3960064018e+00
 8.0627999683e-02	 1.1221070028e+00	-2.8629243021e+01
 6.0281378857e-02	 1.1233837970e+00	-6.4391444400e+01
 4.0055445982e-02	 1.1242866900e+00	-1.0264490414e+02
 1.9958885975e-02	 1.1248229385e+00	-1.4314489607e+02
 0.0000000000e+00	 1.1250000000e+00	-1.8564848988e+02
 1.1250000000e+00	 0.0000000000e+00	 9.6642863436e+01
 1.1248229385e+00	 1.9958885975e-02	 7.9871070154e+01
 1.1242866900e+00	 4.0055445982e-02	 6.1750115604e+01
 1.1233837970e+00	 6.0281378857e-02	 4.2381275085e+01
 1.1221070028e+00	 8.0627999683e-02	 2.1872793818e+01
 1.1204492722e+00	 1.0108624261e-01	 3.3978844026e-01
 1.1184038130e+00	 1.2164666491e-01	-2.2095888689e+01
 1.1159640971e+00	 1.4229945221e-01	-4.5305823670e+01
 1.1131238818e+00	 1.6303442514e-01	-6.9155254843e+01
 1.1098772317e+00	 1.8384104718e-01	-9.3503327019e+01
 1.1062185395e+00	 2.0470843396e-01	-1.1820338678e+02
 1.1375000000e+00	 0.0000000000e+00	 9.1342534393e+01
 1.1373209711e+00	 2.0180651374e-02	 7.7632211487e+01
 1.1367787643e+00	 4.0500506492e-02	 6.2531268541e+01
 1.1358658392e+00	 6.0951171955e-02	 4.6119324904e+01
 1.1345748584e+00	 8.1523866346e-02	 2.8482373041e+01
 1.1328987086e+00	 1.0220942309e-01	 9.7127359907e+00
 1.1308305220e+00	 1.2299829452e-01	-1.0091006913e+01
 1.1283636981e+00	 1.4388055723e-01	-3.0824127415e+01
 1.1254919249e+00	 1.6484591875e-01	-5.2375890007e+01
 1.1222092009e+00	 1.8588372548e-01	-7.4629728904e+01
 1.1185098566e+00	 2.0698297212e-01	-9.7463461119e+01
 1.1500000000e+00	 0.0000000000e+00	 8.7498930387e+01
 1.1498190038e+00	 2.0402416774e-02	 7.6621999930e+01
 1.1492708386e+00	 4.0945567004e-02	 6.4313375448e+01
 1.1483478814e+00	 6.1620965054e-02	 5.0631376839e+01
 1.1470427139e+00	 8.2419733010e-02	 3.5640110523e+01
 1.1453481449e+00	 1.0333260356e-01	 1.9409482138e+01
 1.1432572311e+00	 1.2434992413e-01	 2.0151828703e+00
 1.1407632992e+00	 1.4546166226e-01	-1.6461351985e+01
 1.1378599681e+00	 1.6665741236e-01	-3.5933013539e+01
 1.1345411702e+00	 1.8792640379e-01	-5.6307120053e+01
 1.1308011737e+00	 2.0925751027e-01	-7.7485548891e+01
 1.1625000000e+00	 0.0000000000e+00	 8.5065038766e+01
 1.1623170364e+00	 2.0624182174e-02	 7.6800782730e+01
 1.1617629130e+00	 4.1390627515e-02	 6.7064131028e+01
 1.1608299236e+00	 6.2290758153e-02	 5.5892449104e+01
 1.1595105695e+00	 8.3315599674e-02	 4.3328312210e+01
 1.1577975813e+00	 1.0445578404e-01	 2.9419572642e+01
 1.1556839401e+00	 1.2570155374e-01	 1.4219405901e+01
 1.1531629003e+00	 1.4704276728e-01	-2.2136656636e+00
 1.1502280112e+00	 1.6846890598e-01	-1.9815773142e+01
 1.1468731394e+00	 1.8996908209e-01	-3.8517726561e+01
 1.1430924908e+00	 2.1153204843e-01	-5.8245066792e+01
 1.1750000000e+00	 0.0000000000e+00	 8.3995847535e+01
 1.1748150691e+00	 2.0845947575e-02	 7.8130594594e+01
 1.1742549873e+00	 4.1835688027e-02	 7.0752604777e+01
 1.1733119658e+00	 6.2960551253e-02	 6.1878623052e+01
 1.1719784251e+00	 8.4211466338e-02	 5.1530037057e+01
 1.1702470176e+00	 1.0557896451e-01	 3.9732998181e+01
 1.1681106491e+00	 1.2705318335e-01	 2.6518526812e+01
 1.1655625014e+00	 1.4862387231e-01	 1.1922600238e+01
 1.1625960543e+00	 1.7028039959e-01	-4.0137783096e+00
 1.1592051086e+00	 1.9201176039e-01	-2.1244530871e+01
 1.1553838079e+00	 2.1380658658e-01	-3.9718477639e+01
 1.1875000000e+00	 0.0000000000e+00	 8.4248240059e+01
 1.1873131017e+00	 2.1067712975e-02	 8.0575068874e+01
 1.1867470616e+00	 4.2280748539e-02	 7.5349168620e+01
 1.1857940079e+00	 6.3630344353e-02	 6.8566987221e+01
 1.1844462807e+00	 8.5107333003e-02	 6.0229057396e+01
 1.1826964540e+00	 1.0670214499e-01	 5.0340170934e+01
 1.1805373582e+00	 1.2840481296e-01	 3.8909542293e+01
 1.1779621024e+00	 1.5020497734e-01	 2.5950959961e+01
 1.1749640975e+00	 1.7209189320e-01	 1.1482923973e+01
 1.1715370779e+00	 1.9405443870e-01	-4.4712319657e+00
 1.1676751250e+00	 2.1608112474e-01	-2.1883235321e+01
 1.2000000000e+00	 0.0000000000e+00	 8.5780896345e+01
 1.1998111344e+00	 2.1289478376e-02	 8.4099354306e+01
 1.1992391360e+00	 4.2725809052e-02	 8.0825429082e+01
 1.1982760501e+00	 6.4300137453e-02	 7.5935584874e+01
 1.1969141363e+00	 8.6003199669e-02	 6.9409821782e+01
 1.1951458903e+00	 1.0782532546e-01	 6.1231902627e+01
 1.1929640672e+00	 1.2975644257e-01	 5.1389574210e+01
 1.1903617035e+00	 1.5178608236e-01	 3.9874781344e+01
 1.1873321406e+00	 1.7390338682e-01	 2.6683872018e+01
 1.1838690471e+00	 1.9609711700e-01	 1.1817791952e+01
 1.1799664421e+00	 2.1835566290e-01	-4.7177331778e+00
 1.2125000000e+00	 0.0000000000e+00	 8.8554200432e+01
 1.2123091670e+00	 2.1511243776e-02	 8.8670036897e+01
 1.2117312103e+00	 4.3170869564e-02	 8.7154163647e+01
 1.2107580923e+00	 6.4969930554e-02	 8.3963364790e+01
 1.2093819919e+00	 8.6899066335e-02	 7.9057420131e+01
 1.2075953267e+00	 1.0894850594e-01	 7.2399383938e+01
 1.2053907762e+00	 1.3110807219e-01	 6.3955863152e+01
 1.2027613046e+00	 1.5336718739e-01	 5.3697293369e+01
 1.1997001837e+00	 1.7571488043e-01	 4.1598210814e+01
 1.1962010164e+00	 1.9813979530e-01	 2.7637518469e+01
 1.1922577592e+00	 2.2063020105e-01	 1.1798744424e+01
 1.2250000000e+00	 0.0000000000e+00	 9.2530153454e+01
 1.2248071996e+00	 2.1733009177e-02	 9.4255066593e+01
 1.2242232846e+00	 4.3615930078e-02	 9.4309261013e+01
 1.2232401345e+00	 6.5639723655e-02	 9.2630135059e+01
 1.2218498475e+00	 8.7794933001e-02	 8.9157551007e+01
 1.2200447631e+00	 1.1007168642e-01	 8.3834165162e+01
 1.2178174853e+00	 1.3245970180e-01	 7.6605762379e+01
 1.2151609057e+00	 1.5494829242e-01	 6.7421593243e+01
 1.2120682269e+00	 1.7752637405e-01	 5.6234712087e+01
 1.2085329856e+00	 2.0018247361e-01	 4.3002313830e+01
 1.2045490763e+00	 2.2290473921e-01	 2.7686067552e+01
 1.2375000000e+00	 0.0000000000e+00	 9.7672291962e+01
 1.2373052323e+00	 2.1954774578e-02	 1.0082368839e+02
 1.2367153590e+00	 4.4060990591e-02	 1.0226566497e+02
 1.2357221767e+00	 6.6309516757e-02	 1.0191651969e+02
 1.2343177030e+00	 8.8690799668e-02	 9.9696490870e+01
 1.2324941994e+00	 1.1119486689e-01	 9.5528138049e+01
 1.2302441943e+00	 1.3381133141e-01	 8.9336732124e+01
 1.2275605068e+00	 1.5652939745e-01	 8.1050653057e+01
 1.2244362700e+00	 1.7933786766e-01	 7.0601793157e+01
 1.2208649548e+00	 2.0222515191e-01	 5.7925963814e+01
 1.2168403934e+00	 2.2517927736e-01	 4.2963303413e+01
 1.2500000000e+00	 0.0000000000e+00	 1.0394561116e+02
 1.2498032649e+00	 2.2176539980e-02	 1.0834637761e+02
 1.2492074333e+00	 4.4506051105e-02	 1.1099932166e+02
 1.2482042189e+00	 6.6979309859e-02	 1.1180391780e+02
 1.2467855586e+00	 8.9586666336e-02	 1.1066106519e+02
 1.2449436358e+00	 1.1231804737e-01	 1.0747351873e+02
 1.2426709033e+00	 1.3516296103e-01	 1.0214633425e+02
 1.2399601078e+00	 1.5811050247e-01	 9.4587326039e+01
 1.2368043131e+00	 1.8114936128e-01	 8.4707534657e+01
 1.2331969241e+00	 2.0426783021e-01	 7.2421702757e+01
 1.2291317105e+00	 2.2745381552e-01	 5.7648756495e+01
 1.1062185395e+00	 2.0470843396e-01	-1.1820338678e+02
 1.1021425476e+00	 2.2562536386e-01	-1.2617013496e+02
 1.0976443689e+00	 2.4658029005e-01	-1.3283954116e+02
 1.0927195074e+00	 2.6756135392e-01	-1.3822425972e+02
 1.0873638784e+00	 2.8855639991e-01	-1.4234141605e+02
 1.0815738280e+00	 3.0955299173e-01	-1.4521268573e+02
 1.0753461519e+00	 3.3053842995e-01	-1.4686435399e+02
 1.0686781139e+00	 3.5149977102e-01	-1.4732735440e+02
 1.0615674627e+00	 3.7242384749e-01	-1.4663728562e+02
 1.0540124487e+00	 3.9329728964e-01	-1.4483440525e+02
 1.0460118387e+00	 4.1410654828e-01	-1.4196359983e+02
 1.1185098566e+00	 2.0698297212e-01	-9.7463461119e+01
 1.1143885759e+00	 2.2813231235e-01	-1.0542923671e+02
 1.1098404175e+00	 2.4932007105e-01	-1.1216875485e+02
 1.1048608353e+00	 2.7053425785e-01	-1.1768934067e+02
 1.0994456993e+00	 2.9176258213e-01	-1.2200245184e+02
 1.0935913150e+00	 3.1299246941e-01	-1.2512376922e+02
 1.0872944425e+00	 3.3421107917e-01	-1.2707327009e+02
 1.0805523151e+00	 3.5540532403e-01	-1.2787528267e+02
 1.0733626567e+00	 3.7656189024e-01	-1.2755852072e+02
 1.0657236981e+00	 3.9766725953e-01	-1.2615609728e+02
 1.0576341925e+00	 4.1870773215e-01	-1.2370551666e+02
 1.1308011737e+00	 2.0925751027e-01	-7.7485548891e+01
 1.1266346042e+00	 2.3063926084e-01	-8.5383412506e+01
 1.1220364660e+00	 2.5205985205e-01	-9.2124736414e+01
 1.1170021632e+00	 2.7350716179e-01	-9.7711608978e+01
 1.1115275202e+00	 2.9496876435e-01	-1.0214991793e+02
 1.1056088019e+00	 3.1643194710e-01	-1.0544945256e+02
 1.0992427330e+00	 3.3788372839e-01	-1.0762399044e+02
 1.0924265164e+00	 3.5931087704e-01	-1.0869136751e+02
 1.0851578508e+00	 3.8069993299e-01	-1.0867353036e+02
 1.0774349476e+00	 4.0203722941e-01	-1.0759656964e+02
 1.0692565462e+00	 4.2330891602e-01	-1.0549073359e+02
 1.1430924908e+00	 2.1153204843e-01	-5.8245066792e+01
 1.1388806325e+00	 2.3314620932e-01	-6.6010236264e+01
 1.1342325145e+00	 2.5479963305e-01	-7.2687261127e+01
 1.1291434910e+00	 2.7648006572e-01	-7.8273082412e+01
 1.1236093411e+00	 2.9817494657e-01	-8.2768112632e+01
 1.1176262889e+00	 3.1987142478e-01	-8.6176349287e+01
 1.1111910236e+00	 3.4155637762e-01	-8.8505474958e+01
 1.1043007177e+00	 3.6321643005e-01	-8.9766942782e+01
 1.0969530448e+00	 3.8483797574e-01	-8.9976046127e+01
 1.0891461970e+00	 4.0640719929e-01	-8.9151971391e+01
 1.0808789000e+00	 4.2791009988e-01	-8.7317832903e+01
 1.1553838079e+00	 2.1380658658e-01	-3.9718477639e+01
 1.1511266608e+00	 2.3565315781e-01	-4.7288236236e+01
 1.1464285631e+00	 2.5753941405e-01	-5.3836964944e+01
 1.1412848189e+00	 2.7945296965e-01	-5.9356544052e+01
 1.1356911619e+00	 3.0138112879e-01	-6.3842002524e+01
 1.1296437759e+00	 3.2331090247e-01	-6.7291642689e+01
 1.1231393142e+00	 3.4522902683e-01	-6.9707153523e+01
 1.1161749189e+00	 3.6712198306e-01	-7.1093711314e+01
 1.1087482388e+00	 3.8897601848e-01	-7.1460066520e+01
 1.1008574464e+00	 4.1077716917e-01	-7.0818615699e+01
 1.0925012538e+00	 4.3251128375e-01	-6.9185457471e+01
 1.1676751250e+00	 2.1608112474e-01	-2.1883235321e+01
 1.1633726891e+00	 2.3816010630e-01	-2.9196844800e+01
 1.1586246116e+00	 2.6027919505e-01	-3.5555299223e+01
 1.1534261467e+00	 2.8242587358e-01	-4.0945501988e+01
 1.1477729828e+00	 3.0458731101e-01	-4.5357187290e+01
 1.1416612629e+00	 3.2675038015e-01	-4.8783055850e+01
 1.1350876048e+00	 3.4890167605e-01	-5.1218901224e+01
 1.1280491202e+00	 3.7102753607e-01	-5.2663725468e+01
 1.1205434329e+00	 3.9311406123e-01	-5.3119842950e+01
 1.1125686958e+00	 4.1514713906e-01	-5.2592971183e+01
 1.1041236075e+00	 4.3711246762e-01	-5.1092307562e+01
 1.1799664421e+00	 2.1835566290e-01	-4.7177331778e+00
 1.1756187174e+00	 2.4066705479e-01	-1.1716351372e+01
 1.1708206602e+00	 2.6301897605e-01	-1.7824488251e+01
 1.1655674746e+00	 2.8539877751e-01	-2.3024151564e+01
 1.1598548037e+00	 3.0779349323e-01	-2.7299866737e+01
 1.1536787499e+00	 3.3018985783e-01	-3.0638823524e+01
 1.1470358954e+00	 3.5257432527e-01	-3.3031015181e+01
 1.1399233214e+00	 3.7493308908e-01	-3.4469368934e+01
 1.1323386269e+00	 3.9725210398e-01	-3.4949866552e+01
 1.1242799453e+00	 4.1951710894e-01	-3.4471653831e+01
 1.1157459613e+00	 4.4171365148e-01	-3.3037137845e+01
 1.1922577592e+00	 2.2063020105e-01	 1.1798744424e+01
 1.1878647457e+00	 2.4317400327e-01	 5.1721417780e+00
 1.1830167087e+00	 2.6575875705e-01	-6.2748940562e-01
 1.1777088025e+00	 2.8837168144e-01	-5.5773399502e+00
 1.1719366245e+00	 3.1099967545e-01	-9.6568098606e+00
 1.1656962368e+00	 3.3362933551e-01	-1.2847665763e+01
 1.1589841859e+00	 3.5624697449e-01	-1.5134192782e+01
 1.1517975227e+00	 3.7883864208e-01	-1.6503339653e+01
 1.1441338209e+00	 4.0139014672e-01	-1.6944855829e+01
 1.1359911947e+00	 4.2388707882e-01	-1.6451419398e+01
 1.1273683150e+00	 4.4631483535e-01	-1.5018754589e+01
 1.2045490763e+00	 2.2290473921e-01	 2.7686067552e+01
 1.2001107741e+00	 2.4568095176e-01	 2.1486760995e+01
 1.1952127573e+00	 2.6849853805e-01	 1.6052044252e+01
 1.1898501303e+00	 2.9134458537e-01	 1.1409467110e+01
 1.1840184454e+00	 3.1420585767e-01	 7.5846741908e+00
 1.1777137238e+00	 3.3706881320e-01	 4.6012368483e+00
 1.1709324765e+00	 3.5991962371e-01	 2.4804887312e+00
 1.1636717240e+00	 3.8274419509e-01	 1.2413662158e+00
 1.1559290149e+00	 4.0552818947e-01	 9.0025494649e-01
 1.1477024441e+00	 4.2825704870e-01	 1.4708437224e+00
 1.1389906688e+00	 4.5091601921e-01	 2.9639869717e+00
 1.2168403934e+00	 2.2517927736e-01	 4.2963303413e+01
 1.2123568024e+00	 2.4818790024e-01	 3.7244900199e+01
 1.2074088058e+00	 2.7123831905e-01	 3.2229799111e+01
 1.2019914582e+00	 2.9431748930e-01	 2.7950216544e+01
 1.1961002663e+00	 3.1741203988e-01	 2.4436763400e+01
 1.1897312108e+00	 3.4050829088e-01	 2.1718266444e+01
 1.1828807671e+00	 3.6359227292e-01	 1.9821591453e+01
 1.1755459252e+00	 3.8664974809e-01	 1.8771469359e+01
 1.1677242090e+00	 4.0966623221e-01	 1.8590326636e+01
 1.1594136936e+00	 4.3262701858e-01	 1.9298121200e+01
 1.1506130226e+00	 4.5551720308e-01	 2.0912185112e+01
 1.2291317105e+00	 2.2745381552e-01	 5.7648756495e+01
 1.2246028307e+00	 2.5069484873e-01	 5.2463257501e+01
 1.2196048543e+00	 2.7397810005e-01	 4.7920834035e+01
 1.2141327860e+00	 2.9729039323e-01	 4.4058297315e+01
 1.2081820871e+00	 3.2061822210e-01	 4.0911148525e+01
 1.2017486978e+00	 3.4394776856e-01	 3.8513389749e+01
 1.1948290577e+00	 3.6726492214e-01	 3.6897334845e+01
 1.1874201265e+00	 3.9055530110e-01	 3.6093421465e+01
 1.1795194030e+00	 4.1380427495e-01	 3.6130025471e+01
 1.1711249430e+00	 4.3699698846e-01	 3.7033279064e+01
 1.1622353763e+00	 4.6011838694e-01	 3.8826893939e+01
 1.0460118387e+00	 4.1410654828e-01	-1.4196359983e+02
 1.0375649302e+00	 4.3483791872e-01	-1.4463715389e+02
 1.0286715642e+00	 4.5547756592e-01	-1.4712732907e+02
 1.0193321361e+00	 4.7601155058e-01	-1.4941684812e+02
 1.0095476063e+00	 4.9642585623e-01	-1.5148863830e+02
 9.9931950770e-01	 5.1670641719e-01	-1.5332590365e+02
 9.8864995322e-01	 5.3683914726e-01	-1.5491219772e+02
 9.7754164025e-01	 5.5680996903e-01	-1.5623149656e+02
 9.6599785412e-01	 5.7660484377e-01	-1.5726827137e+02
 9.5402246954e-01	 5.9620980170e-01	-1.5800756031e+02
 9.4161995014e-01	 6.1561097256e-01	-1.5843503904e+02
 1.0576341925e+00	 4.1870773215e-01	-1.2370551666e+02
 1.0490934295e+00	 4.3966945115e-01	-1.2615675598e+02
 1.0401012482e+00	 4.6053842777e-01	-1.2846025013e+02
 1.0306580488e+00	 4.8130056781e-01	-1.3060059422e+02
 1.0207648019e+00	 5.0194169907e-01	-1.3256251202e+02
 1.0104230578e+00	 5.2244759960e-01	-1.3433091933e+02
 9.9963495269e-01	 5.4280402667e-01	-1.3589098804e+02
 9.8840321402e-01	 5.6299674646e-01	-1.3722821063e+02
 9.7673116361e-01	 5.8301156425e-01	-1.3832846466e+02
 9.6462271920e-01	 6.0283435505e-01	-1.3917807684e+02
 9.5208239402e-01	 6.2245109447e-01	-1.3976388622e+02
 1.0692565462e+00	 4.2330891602e-01	-1.0549073359e+02
 1.0606219287e+00	 4.4450098358e-01	-1.0773356037e+02
 1.0515309323e+00	 4.6559928961e-01	-1.0986373003e+02
 1.0419839614e+00	 4.8658958503e-01	-1.1186767916e+02
 1.0319819975e+00	 5.0745754192e-01	-1.1373189814e+02
 1.0215266079e+00	 5.2818878201e-01	-1.1544298561e+02
 1.0106199522e+00	 5.4876890608e-01	-1.1698770401e+02
 9.9926478780e-01	 5.6918352389e-01	-1.1835303574e+02
 9.8746447310e-01	 5.8941828473e-01	-1.1952623960e+02
 9.7522296885e-01	 6.0945890840e-01	-1.2049490719e+02
 9.6254483791e-01	 6.2929121639e-01	-1.2124701889e+02
 1.0808789000e+00	 4.2791009988e-01	-8.7317832903e+01
 1.0721504279e+00	 4.4933251601e-01	-8.9365699354e+01
 1.0629606163e+00	 4.7066015145e-01	-9.1335468675e+01
 1.0533098740e+00	 4.9187860226e-01	-9.3215389155e+01
 1.0431991931e+00	 5.1297338476e-01	-9.4993688765e+01
 1.0326301579e+00	 5.3392996442e-01	-9.6658621031e+01
 1.0216049516e+00	 5.5473378549e-01	-9.8198512069e+01
 1.0101263616e+00	 5.7537030132e-01	-9.9601808520e+01
 9.9819778258e-01	 5.9582500522e-01	-1.0085712610e+02
 9.8582321851e-01	 6.1608346175e-01	-1.0195329842e+02
 9.7300728180e-01	 6.3613133830e-01	-1.0287942586e+02
 1.0925012538e+00	 4.3251128375e-01	-6.9185457471e+01
 1.0836789271e+00	 4.5416404844e-01	-7.1051384945e+01
 1.0743903004e+00	 4.7572101329e-01	-7.2873264161e+01
 1.0646357866e+00	 4.9716761948e-01	-7.4641126206e+01
 1.0544163887e+00	 5.1848922761e-01	-7.6344908612e+01
 1.0437337080e+00	 5.3967114683e-01	-7.7974492685e+01
 1.0325899511e+00	 5.6069866490e-01	-7.9519742196e+01
 1.0209879354e+00	 5.8155707875e-01	-8.0970543194e+01
 1.0089310921e+00	 6.0223172570e-01	-8.2316844747e+01
 9.9642346817e-01	 6.2270801510e-01	-8.3548700336e+01
 9.8346972568e-01	 6.4297146021e-01	-8.4656309660e+01
 1.1041236075e+00	 4.3711246762e-01	-5.1092307562e+01
 1.0952074264e+00	 4.5899558086e-01	-5.2788904734e+01
 1.0858199844e+00	 4.8078187513e-01	-5.4475007589e+01
 1.0759616992e+00	 5.0245663671e-01	-5.6142402038e+01
 1.0656335844e+00	 5.2400507045e-01	-5.7782708010e+01
 1.0548372581e+00	 5.4541232925e-01	-5.9387408356e+01
 1.0435749506e+00	 5.6666354432e-01	-6.0947879296e+01
 1.0318495091e+00	 5.8774385618e-01	-6.2455422229e+01
 1.0196644016e+00	 6.0863844618e-01	-6.3901296769e+01
 1.0070237178e+00	 6.2933256845e-01	-6.5276754792e+01
 9.9393216957e-01	 6.4981158213e-01	-6.6573075315e+01
 1.1157459613e+00	 4.4171365148e-01	-3.3037137845e+01
 1.1067359256e+00	 4.6382711329e-01	-3.4576617930e+01
 1.0972496685e+00	 4.8584273697e-01	-3.6138678228e+01
 1.0872876119e+00	 5.0774565394e-01	-3.7716832371e+01
 1.0768507800e+00	 5.2952091329e-01	-3.9304356371e+01
 1.0659408082e+00	 5.5115351166e-01	-4.0894309207e+01
 1.0545599501e+00	 5.7262842373e-01	-4.2479555127e+01
 1.0427110829e+00	 5.9393063361e-01	-4.4052787571e+01
 1.0303977110e+00	 6.1504516667e-01	-4.5606554599e+01
 1.0176239675e+00	 6.3595712180e-01	-4.7133285691e+01
 1.0043946135e+00	 6.5665170405e-01	-4.8625319790e+01
 1.1273683150e+00	 4.4631483535e-01	-1.5018754589e+01
 1.1182644248e+00	 4.6865864572e-01	-1.6412951673e+01
 1.1086793525e+00	 4.9090359881e-01	-1.7862338966e+01
 1.0986135245e+00	 5.1303467116e-01	-1.9362131561e+01
 1.0880679756e+00	 5.3503675614e-01	-2.0907236050e+01
 1.0770443583e+00	 5.5689469407e-01	-2.2492262899e+01
 1.0655449496e+00	 5.7859330314e-01	-2.4111540726e+01
 1.0535726567e+00	 6.0011741104e-01	-2.5759132420e+01
 1.0411310205e+00	 6.2145188715e-01	-2.7428853066e+01
 1.0282242171e+00	 6.4258167515e-01	-2.9114289598e+01
 1.0148570573e+00	 6.6349182596e-01	-3.0808822093e+01
 1.1389906688e+00	 4.5091601921e-01	 2.9639869717e+00
 1.1297929240e+00	 4.7349017814e-01	 1.7036024366e+00
 1.1201090366e+00	 4.9596446065e-01	 3.5586795323e-01
 1.1099394371e+00	 5.1832368839e-01	-1.0761075673e+00
 1.0992851712e+00	 5.4055259898e-01	-2.5888365727e+00
 1.0881479084e+00	 5.6263587648e-01	-4.1784571385e+00
 1.0765299490e+00	 5.8455818255e-01	-5.8407393069e+00
 1.0644342305e+00	 6.0630418848e-01	-7.5710935137e+00
 1.0518643300e+00	 6.2785860764e-01	-9.3645811055e+00
 1.0388244668e+00	 6.4920622850e-01	-1.1215926933e+01
 1.0253195012e+00	 6.7033194788e-01	-1.3119533985e+01
 1.1506130226e+00	 4.5551720308e-01	 2.0912185112e+01
 1.1413214233e+00	 4.7832171057e-01	 1.9774491589e+01
 1.1315387206e+00	 5.0102532249e-01	 1.8517724943e+01
 1.1212653497e+00	 5.2361270561e-01	 1.7143342779e+01
 1.1105023669e+00	 5.4606844183e-01	 1.5653250768e+01
 1.0992514584e+00	 5.6837705889e-01	 1.4049806389e+01
 1.0875149485e+00	 5.9052306196e-01	 1.2335820422e+01
 1.0752958043e+00	 6.1249096591e-01	 1.0514556125e+01
 1.0625976395e+00	 6.3426532812e-01	 8.5897260286e+00
 1.0494247165e+00	 6.5583078185e-01	 6.5654863129e+00
 1.0357819451e+00	 6.7717206979e-01	 4.4464287459e+00
 1.1622353763e+00	 4.6011838694e-01	 3.8826893939e+01
 1.1528499225e+00	 4.8315324299e-01	 3.7801104832e+01
 1.1429684046e+00	 5.0608618433e-01	 3.6624942841e+01
 1.1325912624e+00	 5.2890172284e-01	 3.5298238217e+01
 1.1217195625e+00	 5.5158428467e-01	 3.3821338009e+01
 1.1103550085e+00	 5.7411824130e-01	 3.2195117719e+01
 1.0984999480e+00	 5.9648794137e-01	 3.0420990532e+01
 1.0861573780e+00	 6.1867774334e-01	 2.8500914005e+01
 1.0733309490e+00	 6.4067204861e-01	 2.6437394081e+01
 1.0600249661e+00	 6.6245533520e-01	 2.4233486353e+01
 1.0462443890e+00	 6.8401219171e-01	 2.1892794490e+01
 9.4161995014e-01	 6.1561097256e-01	-1.5843503904e+02
 9.2879534623e-01	 6.3479461628e-01	-1.5667780469e+02
 9.1555429058e-01	 6.5374715376e-01	-1.5513976288e+02
 9.0190299231e-01	 6.7245519740e-01	-1.5383820732e+02
 8.8784822886e-01	 6.9090558151e-01	-1.5278954767e+02
 8.7339733604e-01	 7.0908539221e-01	-1.5200923138e+02
 8.5855819624e-01	 7.2698199683e-01	-1.5151166998e+02
 8.4333922472e-01	 7.4458307267e-01	-1.5131017026e+02
 8.2774935416e-01	 7.6187663485e-01	-1.5141687105e+02
 8.1179801747e-01	 7.7885106335e-01	-1.5184268581e+02
 7.9549512885e-01	 7.9549512885e-01	-1.5259725165e+02
 9.5208239402e-01	 6.2245109447e-01	-1.3976388622e+02
 9.3911529451e-01	 6.4184788979e-01	-1.3839825915e+02
 9.2572711602e-01	 6.6101101102e-01	-1.3720637088e+02
 9.1192413666e-01	 6.7992692181e-01	-1.3620472731e+02
 8.9771320917e-01	 6.9858231019e-01	-1.3540914461e+02
 8.8310175088e-01	 7.1696411878e-01	-1.3483467539e+02
 8.6809773175e-01	 7.3505957457e-01	-1.3449553827e+02
 8.5270966054e-01	 7.5285621791e-01	-1.3440505136e+02
 8.3694656920e-01	 7.7034193079e-01	-1.3457557010e+02
 8.2081799544e-01	 7.8750496405e-01	-1.3501842992e+02
 8.0433396361e-01	 8.0433396361e-01	-1.3574389413e+02
 9.6254483791e-01	 6.2929121639e-01	-1.2124701889e+02
 9.4943524280e-01	 6.4890116330e-01	-1.2026755158e+02
 9.3589994147e-01	 6.6827486828e-01	-1.1941762103e+02
 9.2194528102e-01	 6.8739864622e-01	-1.1871296008e+02
 9.0757818949e-01	 7.0625903887e-01	-1.1816880297e+02
 8.9280616572e-01	 7.2484284536e-01	-1.1779981583e+02
 8.7763726726e-01	 7.4313715231e-01	-1.1762002952e+02
 8.6208009637e-01	 7.6112936316e-01	-1.1764277527e+02
 8.4614378425e-01	 7.7880722673e-01	-1.1788062367e+02
 8.2983797340e-01	 7.9615886475e-01	-1.1834532730e+02
 8.1317279837e-01	 8.1317279837e-01	-1.1904776755e+02
 9.7300728180e-01	 6.3613133830e-01	-1.0287942586e+02
 9.5975519109e-01	 6.5595443681e-01	-1.0228084539e+02
 9.4607276692e-01	 6.7553872554e-01	-1.0176881106e+02
 9.3196642537e-01	 6.9487037063e-01	-1.0135829684e+02
 9.1744316981e-01	 7.1393576755e-01	-1.0106396624e+02
 9.0251058056e-01	 7.3272157193e-01	-1.0090010702e+02
 8.8717680277e-01	 7.5121473005e-01	-1.0088056721e+02
 8.7145053220e-01	 7.6940250841e-01	-1.0101869296e+02
 8.5534099929e-01	 7.8727252267e-01	-1.0132726855e+02
 8.3885795137e-01	 8.0481276545e-01	-1.0181845906e+02
 8.2201163313e-01	 8.2201163313e-01	-1.0250375608e+02
 9.8346972568e-01	 6.4297146021e-01	-8.4656309660e+01
 9.7007513938e-01	 6.6300771033e-01	-8.4433510363e+01
 9.5624559236e-01	 6.8280258280e-01	-8.4255439352e+01
 9.4198756973e-01	 7.0234209505e-01	-8.4136325491e+01
 9.2730815012e-01	 7.2161249623e-01	-8.4090272395e+01
 9.1221499541e-01	 7.4060029851e-01	-8.4131197287e+01
 8.9671633828e-01	 7.5929230779e-01	-8.4272770187e+01
 8.8082096802e-01	 7.7767565366e-01	-8.4528353848e+01
 8.6453821433e-01	 7.9573781861e-01	-8.4910944857e+01
 8.4787792934e-01	 8.1346666615e-01	-8.5433116287e+01
 8.3085046789e-01	 8.3085046789e-01	-8.6106962314e+01
 9.9393216957e-01	 6.4981158213e-01	-6.6573075315e+01
 9.8039508766e-01	 6.7006098384e-01	-6.6721111730e+01
 9.6641841781e-01	 6.9006644006e-01	-6.6873194344e+01
 9.5200871408e-01	 7.0981381946e-01	-6.7042820241e+01
 9.3717313044e-01	 7.2928922491e-01	-6.7243543633e+01
 9.2191941025e-01	 7.4847902509e-01	-6.7488918800e+01
 9.0625587379e-01	 7.6736988553e-01	-6.7792442382e+01
 8.9019140385e-01	 7.8594879891e-01	-6.8167495399e+01
 8.7373542937e-01	 8.0420311455e-01	-6.8627285384e+01
 8.5689790731e-01	 8.2212056685e-01	-6.9184789030e+01
 8.3968930266e-01	 8.3968930266e-01	-6.9852695715e+01
 1.0043946135e+00	 6.5665170405e-01	-4.8625319790e+01
 9.9071503595e-01	 6.7711425735e-01	-4.9139400014e+01
 9.7659124326e-01	 6.9733029732e-01	-4.9617944658e+01
 9.6202985844e-01	 7.1728554387e-01	-5.0073731934e+01
 9.4703811076e-01	 7.3696595359e-01	-5.0519776810e+01
 9.3162382509e-01	 7.5635775167e-01	-5.0969277972e+01
 9.1579540930e-01	 7.7544746327e-01	-5.1435563172e+01
 8.9956183968e-01	 7.9422194416e-01	-5.1932033296e+01
 8.8293264442e-01	 8.1266841049e-01	-5.2472105512e+01
 8.6591788528e-01	 8.3077446755e-01	-5.3069155893e+01
 8.4852813742e-01	 8.4852813742e-01	-5.3736461865e+01
 1.0148570573e+00	 6.6349182596e-01	-3.0808822093e+01
 1.0010349842e+00	 6.8416753086e-01	-3.1684301472e+01
 9.8676406871e-01	 7.0459415459e-01	-3.2485729801e+01
 9.7205100279e-01	 7.2475726829e-01	-3.3225178927e+01
 9.5690309108e-01	 7.4464268227e-01	-3.3915134412e+01
 9.4132823993e-01	 7.6423647825e-01	-3.4568446474e+01
 9.2533494481e-01	 7.8352504101e-01	-3.5198278326e+01
 9.0893227550e-01	 8.0249508941e-01	-3.5818052266e+01
 8.9212985946e-01	 8.2113370643e-01	-3.6441393822e+01
 8.7493786325e-01	 8.3942836826e-01	-3.7082074335e+01
 8.5736697218e-01	 8.5736697218e-01	-3.7753952346e+01
 1.0253195012e+00	 6.7033194788e-01	-1.3119533985e+01
 1.0113549325e+00	 6.9122080438e-01	-1.4351909123e+01
 9.9693689416e-01	 7.1185801185e-01	-1.5472751441e+01
 9.8207214715e-01	 7.3222899270e-01	-1.6493438537e+01
 9.6676807139e-01	 7.5231941096e-01	-1.7425936112e+01
 9.5103265477e-01	 7.7211520483e-01	-1.8282752807e+01
 9.3487448032e-01	 7.9160261875e-01	-1.9076891517e+01
 9.1830271133e-01	 8.1076823466e-01	-1.9821797448e+01
 9.0132707451e-01	 8.2959900237e-01	-2.0531303246e+01
 8.8395784122e-01	 8.4808226896e-01	-2.1219571536e+01
 8.6620580695e-01	 8.6620580695e-01	-2.1901035246e+01
 1.0357819451e+00	 6.7717206979e-01	 4.4464287459e+00
 1.0216748808e+00	 6.9827407789e-01	 2.8615256719e+00
 1.0071097196e+00	 7.1912186911e-01	 1.4246347837e+00
 9.9209329151e-01	 7.3970071712e-01	 1.2506098072e-01
 9.7663305171e-01	 7.5999613964e-01	-1.0486508196e+00
 9.6073706962e-01	 7.7999393141e-01	-2.1086743749e+00
 9.4441401583e-01	 7.9968019649e-01	-3.0678563424e+00
 9.2767314716e-01	 8.1904137991e-01	-3.9396662863e+00
 9.1052428955e-01	 8.3806429832e-01	-4.7381427641e+00
 8.9297781919e-01	 8.5673616966e-01	-5.4778358183e+00
 8.7504464171e-01	 8.7504464171e-01	-6.1737462395e+00
 1.0462443890e+00	 6.8401219171e-01	 2.1892794490e+01
 1.0319948291e+00	 7.0532735141e-01	 1.9959601134e+01
 1.0172825451e+00	 7.2638572638e-01	 1.8209926967e+01
 1.0021144359e+00	 7.4717244154e-01	 1.6633747991e+01
 9.8649803203e-01	 7.6767286833e-01	 1.5220110776e+01
 9.7044148446e-01	 7.8787265799e-01	 1.3957169964e+01
 9.5395355135e-01	 8.0775777424e-01	 1.2832231177e+01
 9.3704358299e-01	 8.2731452517e-01	 1.1831799087e+01
 9.1972150459e-01	 8.4652959426e-01	 1.0941630400e+01
 9.0199779716e-01	 8.6539007037e-01	 1.0146791410e+01
 8.8388347647e-01	 8.8388347647e-01	 9.4317197935e+00
 7.9549512885e-01	 7.9549512885e-01	-1.5259725165e+02
 7.7885106335e-01	 8.1179801747e-01	-1.5145713544e+02
 7.6187663485e-01	 8.2774935416e-01	-1.4945429292e+02
 7.4458307267e-01	 8.4333922472e-01	-1.4662673499e+02
 7.2698199683e-01	 8.5855819624e-01	-1.4301553298e+02
 7.0908539221e-01	 8.7339733604e-01	-1.3866463649e+02
 6.9090558151e-01	 8.8784822886e-01	-1.3362067655e+02
 6.7245519740e-01	 9.0190299231e-01	-1.2793275578e+02
 6.5374715376e-01	 9.1555429058e-01	-1.2165222677e+02
 6.3479461628e-01	 9.2879534623e-01	-1.1483246047e+02
 6.1561097256e-01	 9.4161995014e-01	-1.0752860616e+02
 8.0433396361e-01	 8.0433396361e-01	-1.3574389413e+02
 7.8750496405e-01	 8.2081799544e-01	-1.3481516006e+02
 7.7034193079e-01	 8.3694656920e-01	-1.3317102532e+02
 7.5285621791e-01	 8.5270966054e-01	-1.3084445595e+02
 7.3505957457e-01	 8.6809773175e-01	-1.2787099015e+02
 7.1696411878e-01	 8.8310175088e-01	-1.2428858068e+02
 6.9858231019e-01	 8.9771320917e-01	-1.2013742509e+02
 6.7992692181e-01	 9.1192413666e-01	-1.1545978485e+02
 6.6101101102e-01	 9.2572711602e-01	-1.1029979475e+02
 6.4184788979e-01	 9.3911529451e-01	-1.0470326400e+02
 6.2245109447e-01	 9.5208239402e-01	-9.8717470266e+01
 8.1317279837e-01	 8.1317279837e-01	-1.1904776755e+02
 7.9615886475e-01	 8.2983797340e-01	-1.1829066434e+02
 7.7880722673e-01	 8.4614378425e-01	-1.1696254425e+02
 7.6112936316e-01	 8.6208009637e-01	-1.1509141352e+02
 7.4313715231e-01	 8.7763726726e-01	-1.1270736938e+02
 7.2484284536e-01	 8.9280616572e-01	-1.0984246684e+02
 7.0625903887e-01	 9.0757818949e-01	-1.0653057540e+02
 6.8739864622e-01	 9.2194528102e-01	-1.0280722689e+02
 6.6827486828e-01	 9.3589994147e-01	-9.8709455418e+01
 6.4890116330e-01	 9.4943524280e-01	-9.4275630648e+01
 6.2929121639e-01	 9.6254483791e-01	-8.9545285517e+01
 8.2201163313e-01	 8.2201163313e-01	-1.0250375608e+02
 8.0481276545e-01	 8.3885795137e-01	-1.0187981391e+02
 7.8727252267e-01	 8.5534099929e-01	-1.0082639171e+02
 7.6940250841e-01	 8.7145053220e-01	-9.9366618191e+01
 7.5121473005e-01	 8.8717680277e-01	-9.7525238894e+01
 7.3272157193e-01	 9.0251058056e-01	-9.5328506882e+01
 7.1393576755e-01	 9.1744316981e-01	-9.2804065686e+01
 6.9487037063e-01	 9.3196642537e-01	-8.9980825389e+01
 6.7553872554e-01	 9.4607276692e-01	-8.6888832727e+01
 6.5595443681e-01	 9.5975519109e-01	-8.3559136110e+01
 6.3613133830e-01	 9.7300728180e-01	-8.0023646533e+01
 8.3085046789e-01	 8.3085046789e-01	-8.6106962314e+01
 8.1346666615e-01	 8.4787792934e-01	-8.5578938294e+01
 7.9573781861e-01	 8.6453821433e-01	-8.4760215020e+01
 7.7767565366e-01	 8.8082096802e-01	-8.3669123341e+01
 7.5929230779e-01	 8.9671633828e-01	-8.2325143489e+01
 7.4060029851e-01	 9.1221499541e-01	-8.0748819364e+01
 7.2161249623e-01	 9.2730815012e-01	-7.8961667332e+01
 7.0234209505e-01	 9.4198756973e-01	-7.6986080193e+01
 6.8280258280e-01	 9.5624559236e-01	-7.4845226998e+01
 6.6300771033e-01	 9.7007513938e-01	-7.2562949408e+01
 6.4297146021e-01	 9.8346972568e-01	-7.0163655343e+01
 8.3968930266e-01	 8.3968930266e-01	-6.9852695715e+01
 8.2212056685e-01	 8.5689790731e-01	-6.9384522245e+01
 8.0420311455e-01	 8.7373542937e-01	-6.8761761262e+01
 7.8594879891e-01	 8.9019140385e-01	-6.7998022910e+01
 7.6736988553e-01	 9.0625587379e-01	-6.7107605760e+01
 7.4847902509e-01	 9.2191941025e-01	-6.6105434393e+01
 7.2928922491e-01	 9.3717313044e-01	-6.5006993698e+01
 7.0981381946e-01	 9.5200871408e-01	-6.3828260350e+01
 6.9006644006e-01	 9.6641841781e-01	-6.2585631942e+01
 6.7006098384e-01	 9.8039508766e-01	-6.1295854276e+01
 6.4981158213e-01	 9.9393216957e-01	-5.9975947305e+01
 8.4852813742e-01	 8.4852813742e-01	-5.3736461865e+01
 8.3077446755e-01	 8.6591788528e-01	-5.3293197678e+01
 8.1266841049e-01	 8.8293264442e-01	-5.2828872102e+01
 7.9422194416e-01	 8.9956183968e-01	-5.2352449310e+01
 7.7544746327e-01	 9.1579540930e-01	-5.1873127250e+01
 7.5635775167e-01	 9.3162382509e-01	-5.1400298220e+01
 7.3696595359e-01	 9.4703811076e-01	-5.0943508327e+01
 7.1728554387e-01	 9.6202985844e-01	-5.0512416114e+01
 6.9733029732e-01	 9.7659124326e-01	-5.0116750626e+01
 6.7711425735e-01	 9.9071503595e-01	-4.9766269225e+01
 6.5665170405e-01	 1.0043946135e+00	-4.9470715409e+01
 8.5736697218e-01	 8.5736697218e-01	-3.7753952346e+01
 8.3942836826e-01	 8.7493786325e-01	-3.7301736078e+01
 8.2113370643e-01	 8.9212985946e-01	-3.6959478897e+01
 8.0249508941e-01	 9.0893227550e-01	-3.6731571431e+01
 7.8352504101e-01	 9.2533494481e-01	-3.6622189535e+01
 7.6423647825e-01	 9.4132823993e-01	-3.6635277564e+01
 7.4464268227e-01	 9.5690309108e-01	-3.6774532671e+01
 7.2475726829e-01	 9.7205100279e-01	-3.7043390223e+01
 7.0459415459e-01	 9.8676406871e-01	-3.7445010448e+01
 6.8416753086e-01	 1.0010349842e+00	-3.7982266361e+01
 6.6349182596e-01	 1.0148570573e+00	-3.8657733069e+01
 8.6620580695e-01	 8.6620580695e-01	-2.1901035246e+01
 8.4808226896e-01	 8.8395784122e-01	-2.1407041368e+01
 8.2959900237e-01	 9.0132707451e-01	-2.1151598118e+01
 8.1076823466e-01	 9.1830271133e-01	-2.1134592779e+01
 7.9160261875e-01	 9.3487448032e-01	-2.1355255238e+01
 7.7211520483e-01	 9.5103265477e-01	-2.1812163665e+01
 7.5231941096e-01	 9.6676807139e-01	-2.2503253331e+01
 7.3222899270e-01	 9.8207214715e-01	-2.3425828484e+01
 7.1185801185e-01	 9.9693689416e-01	-2.4576577200e+01
 6.9122080438e-01	 1.0113549325e+00	-2.5951589061e+01
 6.7033194788e-01	 1.0253195012e+00	-2.7546375534e+01
 8.7504464171e-01	 8.7504464171e-01	-6.1737462395e+00
 8.5673616966e-01	 8.9297781919e-01	-5.6061432235e+00
 8.3806429832e-01	 9.1052428955e-01	-5.4033270472e+00
 8.1904137991e-01	 9.2767314716e-01	-5.5607497208e+00
 7.9968019649e-01	 9.4441401583e-01	-6.0727689806e+00
 7.7999393141e-01	 9.6073706962e-01	-6.9326760889e+00
 7.5999613964e-01	 9.7663305171e-01	-8.1327288671e+00
 7.3970071712e-01	 9.9209329151e-01	-9.6641897075e+00
 7.1912186911e-01	 1.0071097196e+00	-1.1517368274e+01
 6.9827407789e-01	 1.0216748808e+00	-1.3681668565e+01
 6.7717206979e-01	 1.0357819451e+00	-1.6145639985e+01
 8.8388347647e-01	 8.8388347647e-01	 9.4317197935e+00
 8.6539007037e-01	 9.0199779716e-01	 1.0103809223e+01
 8.4652959426e-01	 9.1972150459e-01	 1.0287160268e+01
 8.2731452517e-01	 9.3704358299e-01	 9.9906901616e+00
 8.0775777424e-01	 9.5395355135e-01	 9.2248417199e+00
 7.8787265799e-01	 9.7044148446e-01	 8.0015336913e+00
 7.6767286833e-01	 9.8649803203e-01	 6.3341038033e+00
 7.4717244154e-01	 1.0021144359e+00	 4.2372449394e+00
 7.2638572638e-01	 1.0172825451e+00	 1.7269349207e+00
 7.0532735141e-01	 1.0319948291e+00	-1.1796395819e+00
 6.8401219171e-01	 1.0462443890e+00	-4.4641644382e+00
 6.1561097256e-01	 9.4161995014e-01	-1.0752860616e+02
 5.9620980170e-01	 9.5402246954e-01	-1.0576498477e+02
 5.7660484377e-01	 9.6599785412e-01	-1.0609808371e+02
 5.5680996903e-01	 9.7754164025e-01	-1.0843338054e+02
 5.3683914726e-01	 9.8864995322e-01	-1.1267084735e+02
 5.1670641719e-01	 9.9931950770e-01	-1.1870545651e+02
 4.9642585623e-01	 1.0095476063e+00	-1.2642770180e+02
 4.7601155058e-01	 1.0193321361e+00	-1.3572413107e+02
 4.5547756592e-01	 1.0286715642e+00	-1.4647788665e+02
 4.3483791872e-01	 1.0375649302e+00	-1.5856925004e+02
 4.1410654828e-01	 1.0460118387e+00	-1.7187618697e+02
 6.2245109447e-01	 9.5208239402e-01	-9.8717470266e+01
 6.0283435505e-01	 9.6462271920e-01	-9.7201893962e+01
 5.8301156425e-01	 9.7673116361e-01	-9.7568641012e+01
 5.6299674646e-01	 9.8840321402e-01	-9.9736033414e+01
 5.4280402667e-01	 9.9963495269e-01	-1.0361740889e+02
 5.2244759960e-01	 1.0104230578e+00	-1.0912156234e+02
 5.0194169907e-01	 1.0207648019e+00	-1.1615320152e+02
 4.8130056781e-01	 1.0306580488e+00	-1.2461341371e+02
 4.6053842777e-01	 1.0401012482e+00	-1.3440014001e+02
 4.3966945115e-01	 1.0490934295e+00	-1.4540865414e+02
 4.1870773215e-01	 1.0576341925e+00	-1.5753204234e+02
 6.2929121639e-01	 9.6254483791e-01	-8.9545285517e+01
 6.0945890840e-01	 9.7522296885e-01	-8.8379111297e+01
 5.8941828473e-01	 9.8746447310e-01	-8.8885203734e+01
 5.6918352389e-01	 9.9926478780e-01	-9.0994499182e+01
 5.4876890608e-01	 1.0106199522e+00	-9.4633463321e+01
 5.2818878201e-01	 1.0215266079e+00	-9.9724469198e+01
 5.0745754192e-01	 1.0319819975e+00	-1.0618618847e+02
 4.8658958503e-01	 1.0419839614e+00	-1.1393399303e+02
 4.6559928961e-01	 1.0515309323e+00	-1.2288036416e+02
 4.4450098358e-01	 1.0606219287e+00	-1.3293530634e+02
 4.2330891602e-01	 1.0692565462e+00	-1.4400676302e+02
 6.3613133830e-01	 9.7300728180e-01	-8.0023646533e+01
 6.1608346175e-01	 9.8582321851e-01	-7.9304960992e+01
 5.9582500522e-01	 9.9819778258e-01	-8.0052685672e+01
 5.7537030132e-01	 1.0101263616e+00	-8.2210148629e+01
 5.5473378549e-01	 1.0216049516e+00	-8.5716713481e+01
 5.3392996442e-01	 1.0326301579e+00	-9.0508094945e+01
 5.1297338476e-01	 1.0431991931e+00	-9.6516686571e+01
 4.9187860226e-01	 1.0533098740e+00	-1.0367189827e+02
 4.7066015145e-01	 1.0629606163e+00	-1.1190050121e+02
 4.4933251601e-01	 1.0721504279e+00	-1.2112697766e+02
 4.2791009988e-01	 1.0808789000e+00	-1.3127387346e+02
 6.4297146021e-01	 9.8346972568e-01	-7.0163655343e+01
 6.2270801510e-01	 9.9642346817e-01	-6.9987413839e+01
 6.0223172570e-01	 1.0089310921e+00	-7.1075792323e+01
 5.8155707875e-01	 1.0209879354e+00	-7.3384295010e+01
 5.6069866490e-01	 1.0325899511e+00	-7.6864960772e+01
 5.3967114683e-01	 1.0437337080e+00	-8.1466617067e+01
 5.1848922761e-01	 1.0544163887e+00	-8.7135145054e+01
 4.9716761948e-01	 1.0646357866e+00	-9.3813753926e+01
 4.7572101329e-01	 1.0743903004e+00	-1.0144326246e+02
 4.5416404844e-01	 1.0836789271e+00	-1.0996238580e+02
 4.3251128375e-01	 1.0925012538e+00	-1.1930802549e+02
 6.4981158213e-01	 9.9393216957e-01	-5.9975947305e+01
 6.2933256845e-01	 1.0070237178e+00	-6.0434105802e+01
 6.0863844618e-01	 1.0196644016e+00	-6.1959031846e+01
 5.8774385618e-01	 1.0318495091e+00	-6.4518197070e+01
 5.6666354432e-01	 1.0435749506e+00	-6.8076099952e+01
 5.4541232925e-01	 1.0548372581e+00	-7.2594458990e+01
 5.2400507045e-01	 1.0656335844e+00	-7.8032416066e+01
 5.0245663671e-01	 1.0759616992e+00	-8.4346748459e+01
 4.8078187513e-01	 1.0858199844e+00	-9.1492087933e+01
 4.5899558086e-01	 1.0952074264e+00	-9.9421145315e+01
 4.3711246762e-01	 1.1041236075e+00	-1.0808493898e+02
 6.5665170405e-01	 1.0043946135e+00	-4.9470715409e+01
 6.3595712180e-01	 1.0176239675e+00	-5.0652355456e+01
 6.1504516667e-01	 1.0303977110e+00	-5.2706725336e+01
 5.9393063361e-01	 1.0427110829e+00	-5.5613061883e+01
 5.7262842373e-01	 1.0545599501e+00	-5.9348114273e+01
 5.5115351166e-01	 1.0659408082e+00	-6.3886277270e+01
 5.2952091329e-01	 1.0768507800e+00	-6.9199733684e+01
 5.0774565394e-01	 1.0872876119e+00	-7.5258604911e+01
 4.8584273697e-01	 1.0972496685e+00	-8.2031108408e+01
 4.6382711329e-01	 1.1067359256e+00	-8.9483720910e+01
 4.4171365148e-01	 1.1157459613e+00	-9.7581346201e+01
 6.6349182596e-01	 1.0148570573e+00	-3.8657733069e+01
 6.4258167515e-01	 1.0282242171e+00	-4.0649180335e+01
 6.2145188715e-01	 1.0411310205e+00	-4.3323016457e+01
 6.0011741104e-01	 1.0535726567e+00	-4.6670047508e+01
 5.7859330314e-01	 1.0655449496e+00	-5.0679070912e+01
 5.5689469407e-01	 1.0770443583e+00	-5.5336949570e+01
 5.3503675614e-01	 1.0880679756e+00	-6.0628694221e+01
 5.1303467116e-01	 1.0986135245e+00	-6.6537553339e+01
 4.9090359881e-01	 1.1086793525e+00	-7.3045109809e+01
 4.6865864572e-01	 1.1182644248e+00	-8.0131383607e+01
 4.4631483535e-01	 1.1273683150e+00	-8.7774939675e+01
 6.7033194788e-01	 1.0253195012e+00	-2.7546375534e+01
 6.4920622850e-01	 1.0388244668e+00	-3.0431312295e+01
 6.2785860764e-01	 1.0518643300e+00	-3.3811880498e+01
 6.0630418848e-01	 1.0644342305e+00	-3.7690265488e+01
 5.8455818255e-01	 1.0765299490e+00	-4.2067116688e+01
 5.6263587648e-01	 1.0881479084e+00	-4.6941563375e+01
 5.4055259898e-01	 1.0992851712e+00	-5.2311237744e+01
 5.1832368839e-01	 1.1099394371e+00	-5.8172304945e+01
 4.9596446065e-01	 1.1201090366e+00	-6.4519499774e+01
 4.7349017814e-01	 1.1297929240e+00	-7.1346169602e+01
 4.5091601921e-01	 1.1389906688e+00	-7.8644323131e+01
 6.7717206979e-01	 1.0357819451e+00	-1.6145639985e+01
 6.5583078185e-01	 1.0494247165e+00	-2.0005211932e+01
 6.3426532812e-01	 1.0625976395e+00	-2.4177132865e+01
 6.1249096591e-01	 1.0752958043e+00	-2.8674783193e+01
 5.9052306196e-01	 1.0875149485e+00	-3.3510474032e+01
 5.6837705889e-01	 1.0992514584e+00	-3.8695405393e+01
 5.4606844183e-01	 1.1105023669e+00	-4.4239630703e+01
 5.2361270561e-01	 1.1212653497e+00	-5.0152027773e+01
 5.0102532249e-01	 1.1315387206e+00	-5.6440276258e+01
 4.7832171057e-01	 1.1413214233e+00	-6.3110841615e+01
 4.5551720308e-01	 1.1506130226e+00	-7.0168965508e+01
 6.8401219171e-01	 1.0462443890e+00	-4.4641644382e+00
 6.6245533520e-01	 1.0600249661e+00	-9.3770821443e+00
 6.4067204861e-01	 1.0733309490e+00	-1.4422437075e+01
 6.1867774334e-01	 1.0861573780e+00	-1.9624626025e+01
 5.9648794137e-01	 1.0984999480e+00	-2.5007437207e+01
 5.7411824130e-01	 1.1103550085e+00	-3.0593951587e+01
 5.5158428467e-01	 1.1217195625e+00	-3.6406449616e+01
 5.2890172284e-01	 1.1325912624e+00	-4.2466323863e+01
 5.0608618433e-01	 1.1429684046e+00	-4.8793998006e+01
 4.8315324299e-01	 1.1528499225e+00	-5.5408852563e+01
 4.6011838694e-01	 1.1622353763e+00	-6.2329157681e+01
 4.1410654828e-01	 1.0460118387e+00	-1.7187618697e+02
 3.9329728964e-01	 1.0540124487e+00	-1.4805835071e+02
 3.7242384749e-01	 1.0615674627e+00	-1.2243148351e+02
 3.5149977102e-01	 1.0686781139e+00	-9.5228819156e+01
 3.3053842995e-01	 1.0753461519e+00	-6.6683728969e+01
 3.0955299173e-01	 1.0815738280e+00	-3.7028805217e+01
 2.8855639991e-01	 1.0873638784e+00	-6.4949786413e+00
 2.6756135392e-01	 1.0927195074e+00	 2.4689325766e+01
 2.4658029005e-01	 1.0976443689e+00	 5.6298991034e+01
 2.2562536386e-01	 1.1021425476e+00	 8.8112965308e+01
 2.0470843396e-01	 1.1062185395e+00	 1.1991497106e+02
 4.1870773215e-01	 1.0576341925e+00	-1.5753204234e+02
 3.9766725953e-01	 1.0657236981e+00	-1.3522840635e+02
 3.7656189024e-01	 1.0733626567e+00	-1.1144880266e+02
 3.5540532403e-01	 1.0805523151e+00	-8.6394216698e+01
 3.3421107917e-01	 1.0872944425e+00	-6.0265579137e+01
 3.1299246941e-01	 1.0935913150e+00	-3.3262982014e+01
 2.9176258213e-01	 1.0994456993e+00	-5.5849246539e+00
 2.7053425785e-01	 1.1048608353e+00	 2.2572406966e+01
 2.4932007105e-01	 1.1098404175e+00	 5.1015824304e+01
 2.2813231235e-01	 1.1143885759e+00	 7.9555781094e+01
 2.0698297212e-01	 1.1185098566e+00	 1.0800697664e+02
 4.2330891602e-01	 1.0692565462e+00	-1.4400676302e+02
 4.0203722941e-01	 1.0774349476e+00	-1.2295359542e+02
 3.8069993299e-01	 1.0851578508e+00	-1.0075174294e+02
 3.5931087704e-01	 1.0924265164e+00	-7.7570495019e+01
 3.3788372839e-01	 1.0992427330e+00	-5.3578895261e+01
 3.1643194710e-01	 1.1056088019e+00	-2.8945088268e+01
 2.9496876435e-01	 1.1115275202e+00	-3.8356922086e+00
 2.7350716179e-01	 1.1170021632e+00	 2.1584799975e+01
 2.5205985205e-01	 1.1220364660e+00	 4.7154588145e+01
 2.3063926084e-01	 1.1266346042e+00	 7.2715099121e+01
 2.0925751027e-01	 1.1308011737e+00	 9.8111485546e+01
 4.2791009988e-01	 1.0808789000e+00	-1.3127387346e+02
 4.0640719929e-01	 1.0891461970e+00	-1.1121594900e+02
 3.8483797574e-01	 1.0969530448e+00	-9.0331028501e+01
 3.6321643005e-01	 1.1043007177e+00	-6.8757240028e+01
 3.4155637762e-01	 1.1111910236e+00	-4.6632275790e+01
 3.1987142478e-01	 1.1176262889e+00	-2.4092867933e+01
 2.9817494657e-01	 1.1236093411e+00	-1.2742859830e+00
 2.7648006572e-01	 1.1291434910e+00	 2.1690141787e+01
 2.5479963305e-01	 1.1342325145e+00	 4.4669481031e+01
 2.3314620932e-01	 1.1388806325e+00	 6.7535616329e+01
 2.1153204843e-01	 1.1430924908e+00	 9.0163647060e+01
 4.3251128375e-01	 1.0925012538e+00	-1.1930802549e+02
 4.1077716917e-01	 1.1008574464e+00	-9.9998263536e+01
 3.8897601848e-01	 1.1087482388e+00	-8.0177778965e+01
 3.6712198306e-01	 1.1161749189e+00	-5.9954055984e+01
 3.4522902683e-01	 1.1231393142e+00	-3.9433953995e+01
 3.2331090247e-01	 1.1296437759e+00	-1.8723310600e+01
 3.0138112879e-01	 1.1356911619e+00	 2.0734377993e+00
 2.7945296965e-01	 1.1412848189e+00	 2.2853616092e+01
 2.5753941405e-01	 1.1464285631e+00	 4.3516649792e+01
 2.3565315781e-01	 1.1511266608e+00	 6.3964382356e+01
 2.1380658658e-01	 1.1553838079e+00	 8.4101369463e+01
 4.3711246762e-01	 1.1041236075e+00	-1.0808493898e+02
 4.1514713906e-01	 1.1125686958e+00	-8.9284060592e+01
 3.9311406123e-01	 1.1205434329e+00	-7.0283488598e+01
 3.7102753607e-01	 1.1280491202e+00	-5.1160564524e+01
 3.4890167605e-01	 1.1350876048e+00	-3.1991817188e+01
 3.2675038015e-01	 1.1416612629e+00	-1.2852691196e+01
 3.0458731101e-01	 1.1477729828e+00	 6.1827109267e+00
 2.8242587358e-01	 1.1534261467e+00	 2.5041871878e+01
 2.6027919505e-01	 1.1586246116e+00	 4.3654087074e+01
 2.3816010630e-01	 1.1633726891e+00	 6.1950675716e+01
 2.1608112474e-01	 1.1676751250e+00	 7.9865174829e+01
 4.4171365148e-01	 1.1157459613e+00	-9.7581346201e+01
 4.1951710894e-01	 1.1242799453e+00	-7.9057549061e+01
 3.9725210398e-01	 1.1323386269e+00	-6.0640006787e+01
 3.7493308908e-01	 1.1399233214e+00	-4.2376403758e+01
 3.5257432527e-01	 1.1470358954e+00	-2.4313424733e+01
 3.3018985783e-01	 1.1536787499e+00	-6.4966072047e+00
 3.0779349323e-01	 1.1598548037e+00	 1.1029796535e+01
 2.8539877751e-01	 1.1655674746e+00	 2.8222947116e+01
 2.6301897605e-01	 1.1708206602e+00	 4.5041535203e+01
 2.4066705479e-01	 1.1756187174e+00	 6.1445887711e+01
 2.1835566290e-01	 1.1799664421e+00	 7.7398062897e+01
 4.4631483535e-01	 1.1273683150e+00	-8.7774939675e+01
 4.2388707882e-01	 1.1359911947e+00	-6.9303589735e+01
 4.0139014672e-01	 1.1441338209e+00	-5.1239519736e+01
 3.7883864208e-01	 1.1517975227e+00	-3.3601227415e+01
 3.5624697449e-01	 1.1589841859e+00	-1.6406024952e+01
 3.3362933551e-01	 1.1656962368e+00	 3.2998641826e-01
 3.1099967545e-01	 1.1719366245e+00	 1.6591935949e+01
 2.8837168144e-01	 1.1777088025e+00	 3.2366197162e+01
 2.6575875705e-01	 1.1830167087e+00	 4.7640396001e+01
 2.4317400327e-01	 1.1878647457e+00	 6.2403413530e+01
 2.2063020105e-01	 1.1922577592e+00	 7.6645383353e+01
 4.5091601921e-01	 1.1389906688e+00	-7.8644323131e+01
 4.2825704870e-01	 1.1477024441e+00	-6.0007662042e+01
 4.0552818947e-01	 1.1559290149e+00	-4.2074533278e+01
 3.8274419509e-01	 1.1636717240e+00	-2.4834704044e+01
 3.5991962371e-01	 1.1709324765e+00	-8.2765709893e+00
 3.3706881320e-01	 1.1777137238e+00	 7.6127444659e+00
 3.1420585767e-01	 1.1840184454e+00	 2.2847298776e+01
 2.9134458537e-01	 1.1898501303e+00	 3.7442227549e+01
 2.6849853805e-01	 1.1952127573e+00	 5.1413646117e+01
 2.4568095176e-01	 1.2001107741e+00	 6.4778550009e+01
 2.2290473921e-01	 1.2045490763e+00	 7.7554715940e+01
 4.5551720308e-01	 1.1506130226e+00	-7.0168965508e+01
 4.3262701858e-01	 1.1594136936e+00	-5.1155832795e+01
 4.0966623221e-01	 1.1677242090e+00	-3.3137856728e+01
 3.8664974809e-01	 1.1755459252e+00	-1.6076516260e+01
 3.6359227292e-01	 1.1828807671e+00	 6.8264284834e-02
 3.4050829088e-01	 1.1897312108e+00	 1.5337900687e+01
 3.1741203988e-01	 1.1961002663e+00	 2.9774936026e+01
 2.9431748930e-01	 1.2019914582e+00	 4.3422830851e+01
 2.7123831905e-01	 1.2074088058e+00	 5.6325757493e+01
 2.4818790024e-01	 1.2123568024e+00	 6.8528399592e+01
 2.2517927736e-01	 1.2168403934e+00	 8.0075757831e+01
 4.6011838694e-01	 1.1622353763e+00	-6.2329157681e+01
 4.3699698846e-01	 1.1711249430e+00	-4.2734726826e+01
 4.1380427495e-01	 1.1795194030e+00	-2.4422587703e+01
 3.9055530110e-01	 1.1874201265e+00	-7.3263600401e+00
 3.6726492214e-01	 1.1948290577e+00	 8.6220742612e+00
 3.4394776856e-01	 1.2017486978e+00	 2.3492238842e+01
 3.2061822210e-01	 1.2081820871e+00	 3.7354736046e+01
 2.9729039323e-01	 1.2141327860e+00	 5.0280927327e+01
 2.7397810005e-01	 1.2196048543e+00	 6.2342622603e+01
 2.5069484873e-01	 1.2246028307e+00	 7.3611780054e+01
 2.2745381552e-01	 1.2291317105e+00	 8.4160217756e+01
 2.0470843396e-01	 1.1062185395e+00	 1.1991497106e+02
 1.8384104718e-01	 1.1098772317e+00	 1.0423002408e+02
 1.6303442514e-01	 1.1131238818e+00	 8.4597296946e+01
 1.4229945221e-01	 1.1159640971e+00	 6.1253337220e+01
 1.2164666491e-01	 1.1184038130e+00	 3.4438518614e+01
 1.0108624261e-01	 1.1204492722e+00	 4.3960064018e+00
 8.0627999683e-02	 1.1221070028e+00	-2.8629243021e+01
 6.0281378857e-02	 1.1233837970e+00	-6.4391444400e+01
 4.0055445982e-02	 1.1242866900e+00	-1.0264490414e+02
 1.9958885975e-02	 1.1248229385e+00	-1.4314489607e+02
 0.0000000000e+00	 1.1250000000e+00	-1.8564848988e+02
 2.0698297212e-01	 1.1185098566e+00	 1.0800697664e+02
 1.8588372548e-01	 1.1222092009e+00	 9.2573949109e+01
 1.6484591875e-01	 1.1254919249e+00	 7.3801209307e+01
 1.4388055723e-01	 1.1283636981e+00	 5.1901445789e+01
 1.2299829452e-01	 1.1308305220e+00	 2.7090198851e+01
 1.0220942309e-01	 1.1328987086e+00	-4.1504502133e-01
 8.1523866346e-02	 1.1345748584e+00	-3.0395726598e+01
 6.0951171955e-02	 1.1358658392e+00	-6.2633051795e+01
 4.0500506492e-02	 1.1367787643e+00	-9.6908791057e+01
 2.0180651374e-02	 1.1373209711e+00	-1.3300603770e+02
 0.0000000000e+00	 1.1375000000e+00	-1.7070992319e+02
 2.0925751027e-01	 1.1308011737e+00	 9.8111485546e+01
 1.8792640379e-01	 1.1345411702e+00	 8.2795966810e+01
 1.6665741236e-01	 1.1378599681e+00	 6.4737494578e+01
 1.4546166226e-01	 1.1407632992e+00	 4.4125339231e+01
 1.2434992413e-01	 1.1432572311e+00	 2.1150660409e+01
 1.0333260356e-01	 1.1453481449e+00	-3.9942713661e+00
 8.2419733010e-02	 1.1470427139e+00	-3.1116822925e+01
 6.1620965054e-02	 1.1483478814e+00	-6.0024713741e+01
 4.0945567004e-02	 1.1492708386e+00	-9.0526695879e+01
 2.0402416774e-02	 1.1498190038e+00	-1.2243319660e+02
 0.0000000000e+00	 1.1500000000e+00	-1.5555692198e+02
 2.1153204843e-01	 1.1430924908e+00	 9.0163647060e+01
 1.8996908209e-01	 1.1468731394e+00	 7.4835563024e+01
 1.6846890598e-01	 1.1502280112e+00	 5.7350339949e+01
 1.4704276728e-01	 1.1531629003e+00	 3.7874256652e+01
 1.2570155374e-01	 1.1556839401e+00	 1.6574530260e+01
 1.0445578404e-01	 1.1577975813e+00	-6.3813367708e+00
 8.3315599674e-02	 1.1595105695e+00	-3.0826181428e+01
 6.2290758153e-02	 1.1608299236e+00	-5.6593774537e+01
 4.1390627515e-02	 1.1617629130e+00	-8.3519382934e+01
 2.0624182174e-02	 1.1623170364e+00	-1.1144029791e+02
 0.0000000000e+00	 1.1625000000e+00	-1.4019632878e+02
 2.1380658658e-01	 1.1553838079e+00	 8.4101369463e+01
 1.9201176039e-01	 1.1592051086e+00	 6.8634798086e+01
 1.7028039959e-01	 1.1625960543e+00	 5.1586307070e+01
 1.4862387231e-01	 1.1655625014e+00	 3.3099596664e+01
 1.2705318335e-01	 1.1681106491e+00	 1.3318365636e+01
 1.0557896451e-01	 1.1702470176e+00	-7.6142180180e+00
 8.4211466338e-02	 1.1719784251e+00	-2.9556020094e+01
 6.2960551253e-02	 1.1733119658e+00	-5.2366415320e+01
 4.1835688027e-02	 1.1742549873e+00	-7.5906733353e+01
 2.0845947575e-02	 1.1748150691e+00	-1.0004067462e+02
 0.0000000000e+00	 1.1750000000e+00	-1.2463469529e+02
 2.1608112474e-01	 1.1676751250e+00	 7.9865174829e+01
 1.9405443870e-01	 1.1715370779e+00	 6.4138171321e+01
 1.7209189320e-01	 1.1749640975e+00	 4.7394207079e+01
 1.5020497734e-01	 1.1779621024e+00	 2.9754803726e+01
 1.2840481296e-01	 1.1805373582e+00	 1.1340552441e+01
 1.0670214499e-01	 1.1826964540e+00	-7.7292933414e+00
 8.5107333003e-02	 1.1844462807e+00	-2.7337200813e+01
 6.3630344353e-02	 1.1857940079e+00	-4.7367715285e+01
 4.2280748539e-02	 1.1867470616e+00	-6.7707791561e+01
 2.1067712975e-02	 1.1873131017e+00	-8.8247098674e+01
 0.0000000000e+00	 1.1875000000e+00	-1.0887829770e+02
 2.1835566290e-01	 1.1799664421e+00	 7.7398062897e+01
 1.9609711700e-01	 1.1838690471e+00	 6.1292494021e+01
 1.7390338682e-01	 1.1873321406e+00	 4.4724983440e+01
 1.5178608236e-01	 1.1903617035e+00	 2.7795261599e+01
 1.2975644257e-01	 1.1929640672e+00	 1.0601210006e+01
 1.0782532546e-01	 1.1951458903e+00	-6.7614256828e+00
 8.6003199669e-02	 1.1969141363e+00	-2.4199300002e+01
 6.4300137453e-02	 1.1982760501e+00	-4.1621709074e+01
 4.2725809052e-02	 1.1992391360e+00	-5.8940808853e+01
 2.1289478376e-02	 1.1998111344e+00	-7.6071810215e+01
 0.0000000000e+00	 1.2000000000e+00	-9.2933151010e+01
 2.2063020105e-01	 1.1922577592e+00	 7.6645383353e+01
 1.9813979530e-01	 1.1962010164e+00	 6.0046770272e+01
 1.7571488043e-01	 1.1997001837e+00	 4.3531602036e+01
 1.5336718739e-01	 1.2027613046e+00	 2.7178193375e+01
 1.3110807219e-01	 1.2053907762e+00	 1.1062101738e+01
 1.0894850594e-01	 1.2075953267e+00	-4.7440407989e+00
 8.6899066335e-02	 1.2093819919e+00	-2.0170674871e+01
 6.4969930554e-02	 1.2107580923e+00	-3.5151440621e+01
 4.3170869564e-02	 1.2117312103e+00	-4.9623284278e+01
 2.1511243776e-02	 1.2123091670e+00	-6.3526544994e+01
 0.0000000000e+00	 1.2125000000e+00	-7.6805022504e+01
 2.2290473921e-01	 1.2045490763e+00	 7.7554715940e+01
 2.0018247361e-01	 1.2085329856e+00	 6.0352085076e+01
 1.7752637405e-01	 1.2120682269e+00	 4.3768947983e+01
 1.5494829242e-01	 1.2151609057e+00	 2.7862567639e+01
 1.3245970180e-01	 1.2178174853e+00	 1.2686551241e+01
 1.1007168642e-01	 1.2200447631e+00	-1.7092005861e+00
 8.7794933001e-02	 1.2218498475e+00	-1.5278525623e+01
 6.5639723655e-02	 1.2232401345e+00	-2.7979013698e+01
 4.3615930078e-02	 1.2242232846e+00	-3.9772003016e+01
 2.1733009177e-02	 1.2248071996e+00	-5.0622560108e+01
 0.0000000000e+00	 1.2250000000e+00	-6.0499444400e+01
 2.2517927736e-01	 1.2168403934e+00	 8.0075757831e+01
 2.0222515191e-01	 1.2208649548e+00	 6.2161499258e+01
 1.7933786766e-01	 1.2244362700e+00	 4.5393728700e+01
 1.5652939745e-01	 1.2275605068e+00	 2.9809010313e+01
 1.3381133141e-01	 1.2302441943e+00	 1.5439363521e+01
 1.1119486689e-01	 1.2324941994e+00	 2.3123280389e+00
 8.8690799668e-02	 1.2343177030e+00	-9.5489538886e+00
 6.6309516757e-02	 1.2357221767e+00	-2.0125639394e+01
 4.4060990591e-02	 1.2367153590e+00	-2.9403072433e+01
 2.1954774578e-02	 1.2373052323e+00	-3.7370658166e+01
 0.0000000000e+00	 1.2375000000e+00	-4.4021725713e+01
 2.2745381552e-01	 1.2291317105e+00	 8.4160217756e+01
 2.0426783021e-01	 1.2331969241e+00	 6.5429950677e+01
 1.8114936128e-01	 1.2368043131e+00	 4.8364382797e+01
 1.5811050247e-01	 1.2399601078e+00	 3.2979721794e+01
 1.3516296103e-01	 1.2426709033e+00	 1.9286750914e+01
 1.1231804737e-01	 1.2449436358e+00	 7.2910083908e+00
 8.9586666336e-02	 1.2467855586e+00	-3.0070176548e+00
 6.6979309859e-02	 1.2482042189e+00	-1.1611680754e+01
 4.4506051105e-02	 1.2492074333e+00	-1.8531955972e+01
 2.2176539980e-02	 1.2498032649e+00	-2.3781210021e+01
 0.0000000000e+00	 1.2500000000e+00	-2.7376963413e+01
 1.2500000000e+00	 0.0000000000e+00	 1.0394561116e+02
 1.2498032649e+00	 2.2176539980e-02	 1.0834637761e+02
 1.2492074333e+00	 4.4506051105e-02	 1.1099932166e+02
 1.2482042189e+00	 6.6979309859e-02	 1.1180391780e+02
 1.2467855586e+00	 8.9586666336e-02	 1.1066106519e+02
 1.2449436358e+00	 1.1231804737e-01	 1.0747351873e+02
 1.2426709033e+00	 1.3516296103e-01	 1.0214633425e+02
 1.2399601078e+00	 1.5811050247e-01	 9.4587326039e+01
 1.2368043131e+00	 1.8114936128e-01	 8.4707534657e+01
 1.2331969241e+00	 2.0426783021e-01	 7.2421702757e+01
 1.2291317105e+00	 2.2745381552e-01	 5.7648756495e+01
 1.2625000000e+00	 0.0000000000e+00	 1.0223923418e+02
 1.2623012976e+00	 2.2398305381e-02	 1.0519567157e+02
 1.2616995076e+00	 4.4951111618e-02	 1.0654351522e+02
 1.2606862611e+00	 6.7649102962e-02	 1.0619276074e+02
 1.2592534142e+00	 9.0482533003e-02	 1.0405476496e+02
 1.2573930721e+00	 1.1344122785e-01	 1.0004263523e+02
 1.2550976124e+00	 1.3651459064e-01	 9.4071631179e+01
 1.2523597089e+00	 1.5969160750e-01	 8.6059577307e+01
 1.2491723562e+00	 1.8296085490e-01	 7.5927284524e+01
 1.2455288933e+00	 2.0631050852e-01	 6.3598978578e+01
 1.2414230276e+00	 2.2972835367e-01	 4.9002733159e+01
 1.2750000000e+00	 0.0000000000e+00	 1.0011699378e+02
 1.2747993302e+00	 2.2620070782e-02	 1.0170626547e+02
 1.2741915820e+00	 4.5396172132e-02	 1.0182365294e+02
 1.2731683033e+00	 6.8318896063e-02	 1.0038950445e+02
 1.2717212698e+00	 9.1378399670e-02	 9.7325466321e+01
 1.2698425085e+00	 1.1456440833e-01	 9.2554831056e+01
 1.2675243214e+00	 1.3786622026e-01	 8.6002896245e+01
 1.2647593100e+00	 1.6127271253e-01	 7.7597332800e+01
 1.2615403994e+00	 1.8477234851e-01	 6.7268560818e+01
 1.2578608626e+00	 2.0835318682e-01	 5.4950131229e+01
 1.2537143447e+00	 2.3200289183e-01	 4.0579111237e+01
 1.2875000000e+00	 0.0000000000e+00	 9.7590984122e+01
 1.2872973629e+00	 2.2841836183e-02	 9.7888008211e+01
 1.2866836563e+00	 4.5841232645e-02	 9.6847411807e+01
 1.2856503455e+00	 6.8988689165e-02	 9.4399732213e+01
 1.2841891254e+00	 9.2274266337e-02	 9.0476741982e+01
 1.2822919448e+00	 1.1568758880e-01	 8.5011756354e+01
 1.2799510304e+00	 1.3921784987e-01	 7.7939949874e+01
 1.2771589111e+00	 1.6285381756e-01	 6.9198680830e+01
 1.2739084425e+00	 1.8658384213e-01	 5.8727822030e+01
 1.2701928318e+00	 2.1039586513e-01	 4.6470096274e+01
 1.2660056618e+00	 2.3427742998e-01	 3.2371414744e+01
 1.3000000000e+00	 0.0000000000e+00	 9.4672834349e+01
 1.2997953955e+00	 2.3063601584e-02	 9.3750369983e+01
 1.2991757306e+00	 4.6286293158e-02	 9.1622173594e+01
 1.2981323876e+00	 6.9658482265e-02	 8.8228812628e+01
 1.2966569810e+00	 9.3170133003e-02	 8.3512027299e+01
 1.2947413812e+00	 1.1681076928e-01	 7.7414997859e+01
 1.2923777395e+00	 1.4056947948e-01	 6.9882619440e+01
 1.2895585121e+00	 1.6443492259e-01	 6.0861783257e+01
 1.2862764856e+00	 1.8839533574e-01	 5.0301662868e+01
 1.2825248010e+00	 2.1243854343e-01	 3.8154004054e+01
 1.2782969789e+00	 2.3655196814e-01	 2.4373416746e+01
 1.3125000000e+00	 0.0000000000e+00	 9.1373730674e+01
 1.3122934282e+00	 2.3285366984e-02	 8.9302460318e+01
 1.3116678050e+00	 4.6731353670e-02	 8.6155038963e+01
 1.3106144298e+00	 7.0328275366e-02	 8.1881909852e+01
 1.3091248366e+00	 9.4065999669e-02	 7.6434626820e+01
 1.3071908176e+00	 1.1793394976e-01	 6.9766081905e+01
 1.3048044485e+00	 1.4192110910e-01	 6.1830738925e+01
 1.3019581132e+00	 1.6601602761e-01	 5.2584871983e+01
 1.2986445288e+00	 1.9020682936e-01	 4.1986807770e+01
 1.2948567703e+00	 2.1448122173e-01	 2.9997170406e+01
 1.2905882961e+00	 2.3882650630e-01	 1.6579127496e+01
 1.3250000000e+00	 0.0000000000e+00	 8.7704437302e+01
 1.3247914608e+00	 2.3507132385e-02	 8.4553045082e+01
 1.3241598793e+00	 4.7176414182e-02	 8.0452840711e+01
 1.3230964720e+00	 7.0998068466e-02	 7.5363993242e+01
 1.3215926922e+00	 9.4961866334e-02	 6.9247720454e+01
 1.3196402539e+00	 1.1905713023e-01	 6.2066477275e+01
 1.3172311575e+00	 1.4327273871e-01	 5.3784148608e+01
 1.3143577143e+00	 1.6759713264e-01	 4.4366245653e+01
 1.3110125719e+00	 1.9201832297e-01	 3.3780104784e+01
 1.3071887395e+00	 2.1652390004e-01	 2.1995087916e+01
 1.3028796132e+00	 2.4110104445e-01	 8.9827832444e+00
 1.3375000000e+00	 0.0000000000e+00	 8.3675316138e+01
 1.3372894935e+00	 2.3728897785e-02	 7.9510562539e+01
 1.3366519536e+00	 4.7621474694e-02	 7.4522156285e+01
 1.3355785142e+00	 7.1667861566e-02	 6.8679846459e+01
 1.3340605477e+00	 9.5857732998e-02	 6.1954369294e+01
 1.3320896903e+00	 1.2018031071e-01	 5.4317597893e+01
 1.3296578666e+00	 1.4462436832e-01	 4.5742694773e+01
 1.3267573154e+00	 1.6917823767e-01	 3.6204266529e+01
 1.3233806150e+00	 1.9382981658e-01	 2.5678519791e+01
 1.3195207088e+00	 2.1856657834e-01	 1.4143417660e+01
 1.3151709303e+00	 2.4337558261e-01	 1.5788356814e+00
 1.3500000000e+00	 0.0000000000e+00	 7.9296345420e+01
 1.3497875261e+00	 2.3950663185e-02	 7.4183138519e+01
 1.3491440280e+00	 4.8066535206e-02	 6.8369319608e+01
 1.3480605564e+00	 7.2337654665e-02	 6.1834076060e+01
 1.3465284033e+00	 9.6753599662e-02	 5.4557521120e+01
 1.3445391266e+00	 1.2130349118e-01	 4.6520805360e+01
 1.3420845756e+00	 1.4597599793e-01	 3.7706229433e+01
 1.3391569165e+00	 1.7075934269e-01	 2.8097357550e+01
 1.3357486581e+00	 1.9564131020e-01	 1.7679131048e+01
 1.3318526780e+00	 2.2060925664e-01	 6.4379814013e+00
 1.3274622474e+00	 2.4565012076e-01	-5.6380580387e+00
 1.3625000000e+00	 0.0000000000e+00	 7.4577137314e+01
 1.3622855588e+00	 2.4172428585e-02	 6.8578600751e+01
 1.3616361023e+00	 4.8511595717e-02	 6.2000432245e+01
 1.3605425986e+00	 7.3007447764e-02	 5.4831119627e+01
 1.3589962589e+00	 9.7649466326e-02	 4.7060015594e+01
 1.3569885630e+00	 1.2242667166e-01	 3.8677411357e+01
 1.3545112846e+00	 1.4732762754e-01	 2.9674610059e+01
 1.3515565175e+00	 1.7234044772e-01	 2.0043999546e+01
 1.3481167013e+00	 1.9745280381e-01	 9.7791240382e+00
 1.3441846472e+00	 2.2265193494e-01	-1.1252457782e+00
 1.3397535645e+00	 2.4792465892e-01	-1.2673044722e+01
 1.3750000000e+00	 0.0000000000e+00	 6.9526954552e+01
 1.3747835914e+00	 2.4394193985e-02	 6.2704492408e+01
 1.3741281766e+00	 4.8956656228e-02	 5.5421373970e+01
 1.3730246408e+00	 7.3677240862e-02	 4.7675253444e+01
 1.3714641145e+00	 9.8545332989e-02	 3.9464589175e+01
 1.3694379993e+00	 1.2354985213e-01	 3.0788679913e+01
 1.3669379937e+00	 1.4867925715e-01	 2.1647699339e+01
 1.3639561186e+00	 1.7392155274e-01	 1.2042728608e+01
 1.3604847444e+00	 1.9926429742e-01	 1.9757865915e+00
 1.3565166165e+00	 2.2469461325e-01	-8.5501424495e+00
 1.3520448816e+00	 2.5019919707e-01	-1.9531084048e+01
 1.2291317105e+00	 2.2745381552e-01	 5.7648756495e+01
 1.2246028307e+00	 2.5069484873e-01	 5.2463257501e+01
 1.2196048543e+00	 2.7397810005e-01	 4.7920834035e+01
 1.2141327860e+00	 2.9729039323e-01	 4.4058297315e+01
 1.2081820871e+00	 3.2061822210e-01	 4.0911148525e+01
 1.2017486978e+00	 3.4394776856e-01	 3.8513389749e+01
 1.1948290577e+00	 3.6726492214e-01	 3.6897334845e+01
 1.1874201265e+00	 3.9055530110e-01	 3.6093421465e+01
 1.1795194030e+00	 4.1380427495e-01	 3.6130025471e+01
 1.1711249430e+00	 4.3699698846e-01	 3.7033279064e+01
 1.1622353763e+00	 4.6011838694e-01	 3.8826893939e+01
 1.2414230276e+00	 2.2972835367e-01	 4.9002733159e+01
 1.2368488590e+00	 2.5320179722e-01	 4.4615186280e+01
 1.2318009029e+00	 2.7671788104e-01	 4.0791157941e+01
 1.2262741139e+00	 3.0026329716e-01	 3.7562597003e+01
 1.2202639080e+00	 3.2382440432e-01	 3.4960298631e+01
 1.2137661847e+00	 3.4738724624e-01	 3.3013739478e+01
 1.2067773482e+00	 3.7093757136e-01	 3.1750912861e+01
 1.1992943278e+00	 3.9446085410e-01	 3.1198164980e+01
 1.1913145970e+00	 4.1794231770e-01	 3.1380033288e+01
 1.1828361924e+00	 4.4136695834e-01	 3.2319088147e+01
 1.1738577301e+00	 4.6471957081e-01	 3.4035778918e+01
 1.2537143447e+00	 2.3200289183e-01	 4.0579111237e+01
 1.2490948873e+00	 2.5570874570e-01	 3.6958531750e+01
 1.2439969514e+00	 2.7945766204e-01	 3.3823552869e+01
 1.2384154418e+00	 3.0323620109e-01	 3.1201338776e+01
 1.2323457289e+00	 3.2703058654e-01	 2.9118054260e+01
 1.2257836717e+00	 3.5082672392e-01	 2.7598723823e+01
 1.2187256388e+00	 3.7461022057e-01	 2.6667090839e+01
 1.2111685290e+00	 3.9836640711e-01	 2.6345477659e+01
 1.2031097911e+00	 4.2208036044e-01	 2.6654647617e+01
 1.1945474419e+00	 4.4573692822e-01	 2.7613669894e+01
 1.1854800839e+00	 4.6932075467e-01	 2.9239788245e+01
 1.2660056618e+00	 2.3427742998e-01	 3.2371414744e+01
 1.2613409156e+00	 2.5821569419e-01	 2.9487722130e+01
 1.2561930000e+00	 2.8219744304e-01	 2.7013303448e+01
 1.2505567696e+00	 3.0620910502e-01	 2.4970613618e+01
 1.2444275498e+00	 3.3023676875e-01	 2.3381260487e+01
 1.2378011587e+00	 3.5426620160e-01	 2.2265887553e+01
 1.2306739294e+00	 3.7828286979e-01	 2.1644056792e+01
 1.2230427303e+00	 4.0227196012e-01	 2.1534132343e+01
 1.2149049851e+00	 4.2621840319e-01	 2.1953165833e+01
 1.2062586913e+00	 4.5010689810e-01	 2.2916784156e+01
 1.1971024376e+00	 4.7392193854e-01	 2.4439080534e+01
 1.2782969789e+00	 2.3655196814e-01	 2.4373416746e+01
 1.2735869439e+00	 2.6072264268e-01	 2.2197399896e+01
 1.2683890485e+00	 2.8493722404e-01	 2.0355875604e+01
 1.2626980975e+00	 3.0918200895e-01	 1.8866662773e+01
 1.2565093706e+00	 3.3344295097e-01	 1.7746883625e+01
 1.2498186457e+00	 3.5770567928e-01	 1.7012869747e+01
 1.2426222199e+00	 3.8195551901e-01	 1.6680068287e+01
 1.2349169316e+00	 4.0617751313e-01	 1.6762948909e+01
 1.2267001791e+00	 4.3035644594e-01	 1.7274912150e+01
 1.2179699407e+00	 4.5447686798e-01	 1.8228199813e+01
 1.2087247914e+00	 4.7852312241e-01	 1.9633808076e+01
 1.2905882961e+00	 2.3882650630e-01	 1.6579127496e+01
 1.2858329722e+00	 2.6322959116e-01	 1.5082411569e+01
 1.2805850970e+00	 2.8767700504e-01	 1.3846907925e+01
 1.2748394253e+00	 3.1215491288e-01	 1.2885870595e+01
 1.2685911915e+00	 3.3664913319e-01	 1.2212005457e+01
 1.2618361326e+00	 3.6114515697e-01	 1.1837399306e+01
 1.2545705105e+00	 3.8562816823e-01	 1.1773449126e+01
 1.2467911328e+00	 4.1008306613e-01	 1.2030792030e+01
 1.2384953731e+00	 4.3449448868e-01	 1.2619236348e+01
 1.2296811901e+00	 4.5884683786e-01	 1.3547694354e+01
 1.2203471452e+00	 4.8312430627e-01	 1.4824117142e+01
 1.3028796132e+00	 2.4110104445e-01	 8.9827832444e+00
 1.2980790005e+00	 2.6573653965e-01	 8.1377980977e+00
 1.2927811456e+00	 2.9041678604e-01	 7.4822035164e+00
 1.2869807532e+00	 3.1512781681e-01	 7.0247577945e+00
 1.2806730124e+00	 3.3985531541e-01	 6.7738177851e+00
 1.2738536196e+00	 3.6458463465e-01	 6.7372907105e+00
 1.2665188011e+00	 3.8930081745e-01	 6.9225862274e+00
 1.2586653341e+00	 4.1398861914e-01	 7.3365690649e+00
 1.2502905672e+00	 4.3863253143e-01	 7.9855125650e+00
 1.2413924396e+00	 4.6321680775e-01	 8.8750534641e+00
 1.2319694989e+00	 4.8772549014e-01	 1.0010148261e+01
 1.3151709303e+00	 2.4337558261e-01	 1.5788356814e+00
 1.3103250288e+00	 2.6824348814e-01	 1.3587857696e+00
 1.3049771941e+00	 2.9315656704e-01	 1.2577223149e+00
 1.2991220810e+00	 3.1810072074e-01	 1.2799750698e+00
 1.2927548332e+00	 3.4306149763e-01	 1.4296172930e+00
 1.2858711066e+00	 3.6802411234e-01	 1.7104400261e+00
 1.2784670917e+00	 3.9297346667e-01	 2.1259266735e+00
 1.2705395353e+00	 4.1789417216e-01	 2.6792280619e+00
 1.2620857612e+00	 4.4277057418e-01	 3.3731381603e+00
 1.2531036890e+00	 4.6758677763e-01	 4.2100706451e+00
 1.2435918527e+00	 4.9232667401e-01	 5.1920364969e+00
 1.3274622474e+00	 2.4565012076e-01	-5.6380580387e+00
 1.3225710571e+00	 2.7075043663e-01	-5.2592223694e+00
 1.3171732427e+00	 2.9589634804e-01	-4.8304261745e+00
 1.3112634089e+00	 3.2107362467e-01	-4.3517029147e+00
 1.3048366541e+00	 3.4626767985e-01	-3.8231993119e+00
 1.2978885936e+00	 3.7146359002e-01	-3.2451788748e+00
 1.2904153822e+00	 3.9664611589e-01	-2.6180250728e+00
 1.2824137366e+00	 4.2179972517e-01	-1.9422441237e+00
 1.2738809552e+00	 4.4690861693e-01	-1.2184673603e+00
 1.2648149384e+00	 4.7195674752e-01	-4.4745314543e-01
 1.2552142064e+00	 4.9692785789e-01	 3.6991169796e-01
 1.3397535645e+00	 2.4792465892e-01	-1.2673044722e+01
 1.3348170854e+00	 2.7325738511e-01	-1.1720654623e+01
 1.3293692912e+00	 2.9863612904e-01	-1.0785989738e+01
 1.3234047368e+00	 3.2404652861e-01	-9.8733832126e+00
 1.3169184750e+00	 3.4947386207e-01	-8.9871398858e+00
 1.3099060805e+00	 3.7490306771e-01	-8.1315178823e+00
 1.3023636728e+00	 4.0031876511e-01	-7.3107098009e+00
 1.2942879379e+00	 4.2570527818e-01	-6.5288236097e+00
 1.2856761493e+00	 4.5104665968e-01	-5.7898633603e+00
 1.2765261879e+00	 4.7632671740e-01	-5.0977098365e+00
 1.2668365602e+00	 5.0152904176e-01	-4.4561012629e+00
 1.3520448816e+00	 2.5019919707e-01	-1.9531084048e+01
 1.3470631137e+00	 2.7576433360e-01	-1.8029778309e+01
 1.3415653398e+00	 3.0137591004e-01	-1.6612579941e+01
 1.3355460646e+00	 3.2701943254e-01	-1.5288059973e+01
 1.3290002958e+00	 3.5268004430e-01	-1.4064621186e+01
 1.3219235675e+00	 3.7834254540e-01	-1.2950458023e+01
 1.3143119634e+00	 4.0399141433e-01	-1.1953516040e+01
 1.3061621391e+00	 4.2961083119e-01	-1.1081451170e+01
 1.2974713433e+00	 4.5518470244e-01	-1.0341589032e+01
 1.2882374373e+00	 4.8069668729e-01	-9.7408845664e+00
 1.2784589140e+00	 5.0613022563e-01	-9.2858822607e+00
 1.1622353763e+00	 4.6011838694e-01	 3.8826893939e+01
 1.1528499225e+00	 4.8315324299e-01	 3.7801104832e+01
 1.1429684046e+00	 5.0608618433e-01	 3.6624942841e+01
 1.1325912624e+00	 5.2890172284e-01	 3.5298238217e+01
 1.1217195625e+00	 5.5158428467e-01	 3.3821338009e+01
 1.1103550085e+00	 5.7411824130e-01	 3.2195117719e+01
 1.0984999480e+00	 5.9648794137e-01	 3.0420990532e+01
 1.0861573780e+00	 6.1867774334e-01	 2.8500914005e+01
 1.0733309490e+00	 6.4067204861e-01	 2.6437394081e+01
 1.0600249661e+00	 6.6245533520e-01	 2.4233486353e+01
 1.0462443890e+00	 6.8401219171e-01	 2.1892794490e+01
 1.1738577301e+00	 4.6471957081e-01	 3.4035778918e+01
 1.1643784217e+00	 4.8798477542e-01	 3.2825884445e+01
 1.1543980887e+00	 5.1114704617e-01	 3.1515981118e+01
 1.1439171750e+00	 5.3419074006e-01	 3.0106327473e+01
 1.1329367581e+00	 5.5710012751e-01	 2.8597522651e+01
 1.1214585586e+00	 5.7985942371e-01	 2.6990512842e+01
 1.1094849475e+00	 6.0245282079e-01	 2.5286596118e+01
 1.0970189518e+00	 6.2486452077e-01	 2.3487425569e+01
 1.0840642585e+00	 6.4707876909e-01	 2.1595010700e+01
 1.0706252158e+00	 6.6907988855e-01	 1.9611717005e+01
 1.0567068329e+00	 6.9085231363e-01	 1.7540263706e+01
 1.1854800839e+00	 4.6932075467e-01	 2.9239788245e+01
 1.1759069209e+00	 4.9281630785e-01	 2.7844841321e+01
 1.1658277727e+00	 5.1620790801e-01	 2.6399277373e+01
 1.1552430876e+00	 5.3947975729e-01	 2.4903775630e+01
 1.1441539537e+00	 5.6261597036e-01	 2.3359182047e+01
 1.1325621087e+00	 5.8560060612e-01	 2.1766510608e+01
 1.1204699470e+00	 6.0841770020e-01	 2.0126943803e+01
 1.1078805256e+00	 6.3105129820e-01	 1.8441832283e+01
 1.0947975680e+00	 6.5348548958e-01	 1.6712693656e+01
 1.0812254655e+00	 6.7570444191e-01	 1.4941210411e+01
 1.0671692768e+00	 6.9769243555e-01	 1.3129226978e+01
 1.1971024376e+00	 4.7392193854e-01	 2.4439080534e+01
 1.1874354202e+00	 4.9764784027e-01	 2.2858162851e+01
 1.1772574568e+00	 5.2126876985e-01	 2.1275076040e+01
 1.1665690002e+00	 5.4476877451e-01	 1.9690912653e+01
 1.1553711494e+00	 5.6813181320e-01	 1.8106760341e+01
 1.1436656588e+00	 5.9134178853e-01	 1.6523698063e+01
 1.1314549464e+00	 6.1438257961e-01	 1.4942792288e+01
 1.1187420994e+00	 6.3723807564e-01	 1.3365093191e+01
 1.1055308775e+00	 6.5989221007e-01	 1.1791630896e+01
 1.0918257151e+00	 6.8232899526e-01	 1.0223411779e+01
 1.0776317207e+00	 7.0453255747e-01	 8.6614148475e+00
 1.2087247914e+00	 4.7852312241e-01	 1.9633808076e+01
 1.1989639194e+00	 5.0247937270e-01	 1.7866028976e+01
 1.1886871408e+00	 5.2632963169e-01	 1.6143611886e+01
 1.1778949129e+00	 5.5005779174e-01	 1.4468055530e+01
 1.1665883450e+00	 5.7364765605e-01	 1.2840684281e+01
 1.1547692089e+00	 5.9708297095e-01	 1.1262639349e+01
 1.1424399459e+00	 6.2034745903e-01	 9.7348707442e+00
 1.1296036732e+00	 6.4342485307e-01	 8.2581300802e+00
 1.1162641870e+00	 6.6629893055e-01	 6.8329642895e+00
 1.1024259648e+00	 6.8895354861e-01	 5.4597103200e+00
 1.0880941646e+00	 7.1137267938e-01	 4.1384908706e+00
 1.2203471452e+00	 4.8312430627e-01	 1.4824117142e+01
 1.2104924186e+00	 5.0731090513e-01	 1.2868612539e+01
 1.2001168249e+00	 5.3139049354e-01	 1.1005110471e+01
 1.1892208255e+00	 5.5534680897e-01	 9.2355088909e+00
 1.1778055406e+00	 5.7916349890e-01	 7.5613640614e+00
 1.1658727590e+00	 6.0282415336e-01	 5.9838767928e+00
 1.1534249454e+00	 6.2631233844e-01	 4.5038802231e+00
 1.1404652469e+00	 6.4961163051e-01	 3.1218292627e+00
 1.1269974965e+00	 6.7270565104e-01	 1.8377918212e+00
 1.1130262144e+00	 6.9557810197e-01	 6.5144192379e-01
 1.0985566085e+00	 7.1821280130e-01	-4.3794519202e-01
 1.2319694989e+00	 4.8772549014e-01	 1.0010148261e+01
 1.2220209178e+00	 5.1214243756e-01	 7.8660796222e+00
 1.2115465089e+00	 5.3645135538e-01	 5.8597885880e+00
 1.2005467381e+00	 5.6063582620e-01	 3.9935655910e+00
 1.1890227363e+00	 5.8467934175e-01	 2.2691940946e+00
 1.1769763091e+00	 6.0856533577e-01	 6.8793193739e-01
 1.1644099449e+00	 6.3227721786e-01	-7.4950501800e-01
 1.1513268207e+00	 6.5579840794e-01	-2.0429567554e+00
 1.1377308060e+00	 6.7911237153e-01	-3.1928303337e+00
 1.1236264641e+00	 7.0220265532e-01	-4.2001083288e+00
 1.1090190524e+00	 7.2505292322e-01	-5.0663543631e+00
 1.2435918527e+00	 4.9232667401e-01	 5.1920364969e+00
 1.2335494171e+00	 5.1697396999e-01	 2.8585898654e+00
 1.2229761930e+00	 5.4151221723e-01	 7.0785466955e-01
 1.2118726507e+00	 5.6592484343e-01	-1.2574927360e+00
 1.2002399319e+00	 5.9019518460e-01	-3.0354462437e+00
 1.1880798591e+00	 6.1430651819e-01	-4.6246934847e+00
 1.1753949444e+00	 6.3824209727e-01	-6.0246362611e+00
 1.1621883945e+00	 6.6198518538e-01	-7.2354076897e+00
 1.1484641155e+00	 6.8551909201e-01	-8.2578858555e+00
 1.1342267138e+00	 7.0882720867e-01	-9.0937037881e+00
 1.1194814963e+00	 7.3189304514e-01	-9.7452556067e+00
 1.2552142064e+00	 4.9692785789e-01	 3.6991169796e-01
 1.2450779163e+00	 5.2180550243e-01	-2.1537032365e+00
 1.2344058770e+00	 5.4657307907e-01	-4.4504908231e+00
 1.2231985634e+00	 5.7121386066e-01	-6.5173951588e+00
 1.2114571275e+00	 5.9571102745e-01	-8.3521919198e+00
 1.1991834092e+00	 6.2004770061e-01	-9.9535166340e+00
 1.1863799439e+00	 6.4420697669e-01	-1.1320889144e+01
 1.1730499683e+00	 6.6817196281e-01	-1.2454733985e+01
 1.1591974249e+00	 6.9192581250e-01	-1.3356396433e+01
 1.1448269634e+00	 7.1545176203e-01	-1.4028153991e+01
 1.1299439402e+00	 7.3873316706e-01	-1.4473223143e+01
 1.2668365602e+00	 5.0152904176e-01	-4.4561012629e+00
 1.2566064155e+00	 5.2663703486e-01	-7.1706520506e+00
 1.2458355611e+00	 5.5163394092e-01	-9.6150550335e+00
 1.2345244760e+00	 5.7650287789e-01	-1.1785880956e+01
 1.2226743231e+00	 6.0122687030e-01	-1.3680691583e+01
 1.2102869593e+00	 6.2578888302e-01	-1.5298072695e+01
 1.1973649433e+00	 6.5017185611e-01	-1.6637662541e+01
 1.1839115421e+00	 6.7435874025e-01	-1.7700175404e+01
 1.1699307344e+00	 6.9833253299e-01	-1.8487420017e+01
 1.1554272131e+00	 7.2207631538e-01	-1.9002312543e+01
 1.1404063840e+00	 7.4557328897e-01	-1.9248883913e+01
 1.2784589140e+00	 5.0613022563e-01	-9.2858822607e+00
 1.2681349147e+00	 5.3146856729e-01	-1.2192114539e+01
 1.2572652451e+00	 5.5669480277e-01	-1.4785652363e+01
 1.2458503886e+00	 5.8179189513e-01	-1.7062699151e+01
 1.2338915188e+00	 6.0674271315e-01	-1.9020606940e+01
 1.2213905094e+00	 6.3153006544e-01	-2.0657914058e+01
 1.2083499428e+00	 6.5613673552e-01	-2.1974377506e+01
 1.1947731159e+00	 6.8054551769e-01	-2.2970999693e+01
 1.1806640439e+00	 7.0473925348e-01	-2.3650049173e+01
 1.1660274628e+00	 7.2870086873e-01	-2.4015075107e+01
 1.1508688279e+00	 7.5241341089e-01	-2.4070915179e+01
 1.0462443890e+00	 6.8401219171e-01	 2.1892794490e+01
 1.0319948291e+00	 7.0532735141e-01	 1.9959601134e+01
 1.0172825451e+00	 7.2638572638e-01	 1.8209926967e+01
 1.0021144359e+00	 7.4717244154e-01	 1.6633747991e+01
 9.8649803203e-01	 7.6767286833e-01	 1.5220110776e+01
 9.7044148446e-01	 7.8787265799e-01	 1.3957169964e+01
 9.5395355135e-01	 8.0775777424e-01	 1.2832231177e+01
 9.3704358299e-01	 8.2731452517e-01	 1.1831799087e+01
 9.1972150459e-01	 8.4652959426e-01	 1.0941630400e+01
 9.0199779716e-01	 8.6539007037e-01	 1.0146791410e+01
 8.8388347647e-01	 8.8388347647e-01	 9.4317197935e+00
 1.0567068329e+00	 6.9085231363e-01	 1.7540263706e+01
 1.0423147774e+00	 7.1238062492e-01	 1.5769370284e+01
 1.0274553705e+00	 7.3364958364e-01	 1.4125741238e+01
 1.0121355802e+00	 7.5464416595e-01	 1.2601731954e+01
 9.9636301235e-01	 7.7534959701e-01	 1.1188998304e+01
 9.8014589930e-01	 7.9575138457e-01	 9.8785253482e+00
 9.6349308686e-01	 8.1583535198e-01	 8.6606601497e+00
 9.4641401882e-01	 8.3558767042e-01	 7.5251485245e+00
 9.2891871964e-01	 8.5499489020e-01	 6.4611755308e+00
 9.1101777513e-01	 8.7404397107e-01	 5.4574094509e+00
 8.9272231124e-01	 8.9272231124e-01	 4.5020489942e+00
 1.0671692768e+00	 6.9769243555e-01	 1.3129226978e+01
 1.0526347257e+00	 7.1943389844e-01	 1.1541600770e+01
 1.0376281960e+00	 7.4091344091e-01	 1.0026136899e+01
 1.0221567246e+00	 7.6211589037e-01	 8.5775342830e+00
 1.0062279927e+00	 7.8302632570e-01	 7.1900191013e+00
 9.8985031415e-01	 8.0363011115e-01	 5.8573647979e+00
 9.7303262237e-01	 8.2391292973e-01	 4.5729149257e+00
 9.5578445465e-01	 8.4386081567e-01	 3.3296087184e+00
 9.3811593468e-01	 8.6346018615e-01	 2.1200092441e+00
 9.2003775310e-01	 8.8269787178e-01	 9.3633397545e-01
 9.0156114600e-01	 9.0156114600e-01	-2.2951241352e-01
 1.0776317207e+00	 7.0453255747e-01	 8.6614148475e+00
 1.0629546740e+00	 7.2648717195e-01	 7.2774132194e+00
 1.0478010214e+00	 7.4817729817e-01	 5.9115910561e+00
 1.0321778689e+00	 7.6958761479e-01	 4.5609560082e+00
 1.0160929730e+00	 7.9070305438e-01	 3.2222667056e+00
 9.9955472899e-01	 8.1150883773e-01	 1.8920441659e+00
 9.8257215788e-01	 8.3199050747e-01	 5.6658479479e-01
 9.6515489048e-01	 8.5213396092e-01	-7.5802508885e-01
 9.4731314973e-01	 8.7192548209e-01	-2.0858932827e+00
 9.2905773107e-01	 8.9135177248e-01	-3.4213043797e+00
 9.1039998077e-01	 9.1039998077e-01	-4.7687012021e+00
 1.0880941646e+00	 7.1137267938e-01	 4.1384908706e+00
 1.0732746223e+00	 7.3354044547e-01	 2.9778847104e+00
 1.0579738469e+00	 7.5544115544e-01	 1.7825619999e+00
 1.0421990133e+00	 7.7705933920e-01	 5.5180532942e-01
 1.0259579533e+00	 7.9837978306e-01	-7.1513098389e-01
 1.0092591438e+00	 8.1938756431e-01	-2.0190179768e+00
 9.9211169340e-01	 8.4006808521e-01	-3.3606487678e+00
 9.7452532631e-01	 8.6040710618e-01	-4.7408349455e+00
 9.5651036478e-01	 8.8039077803e-01	-6.1604026363e+00
 9.3807770905e-01	 9.0000567318e-01	-7.6201882734e+00
 9.1923881553e-01	 9.1923881553e-01	-9.1210340916e+00
 1.0985566085e+00	 7.1821280130e-01	-4.3794519202e-01
 1.0835945706e+00	 7.4059371898e-01	-1.3559491502e+00
 1.0681466723e+00	 7.6270501270e-01	-2.3605098954e+00
 1.0522201577e+00	 7.8453106362e-01	-3.4501027230e+00
 1.0358229336e+00	 8.0605651175e-01	-4.6230133377e+00
 1.0189635587e+00	 8.2726629089e-01	-5.8773433243e+00
 1.0016512289e+00	 8.4814566296e-01	-7.2110164882e+00
 9.8389576214e-01	 8.6868025143e-01	-8.6217860298e+00
 9.6570757982e-01	 8.8885607398e-01	-1.0107242509e+01
 9.4709768702e-01	 9.0865957389e-01	-1.1664822548e+01
 9.2807765030e-01	 9.2807765030e-01	-1.3291818225e+01
 1.1090190524e+00	 7.2505292322e-01	-5.0663543631e+00
 1.0939145189e+00	 7.4764699250e-01	-5.7230922686e+00
 1.0783194978e+00	 7.6996886997e-01	-6.5172013254e+00
 1.0622413020e+00	 7.9200278803e-01	-7.4449466078e+00
 1.0456879140e+00	 8.1373324043e-01	-8.5021885383e+00
 1.0286679735e+00	 8.3514501747e-01	-9.6843966504e+00
 1.0111907644e+00	 8.5622324070e-01	-1.0986665432e+01
 9.9326619797e-01	 8.7695339668e-01	-1.2403732160e+01
 9.7490479487e-01	 8.9732136992e-01	-1.3929996623e+01
 9.5611766499e-01	 9.1731347459e-01	-1.5559542613e+01
 9.3691648507e-01	 9.3691648507e-01	-1.7286161050e+01
 1.1194814963e+00	 7.3189304514e-01	-9.7452556067e+00
 1.1042344672e+00	 7.5470026601e-01	-1.0122586216e+01
 1.0884923232e+00	 7.7723272723e-01	-1.0687105255e+01
 1.0722624464e+00	 7.9947451245e-01	-1.1432898574e+01
 1.0555528943e+00	 8.2140996911e-01	-1.2353435034e+01
 1.0383723884e+00	 8.4302374405e-01	-1.3441588466e+01
 1.0207302999e+00	 8.6430081844e-01	-1.4689662911e+01
 1.0026366338e+00	 8.8522654193e-01	-1.6089420994e+01
 9.8410200992e-01	 9.0578666586e-01	-1.7632115270e+01
 9.6513764296e-01	 9.2596737530e-01	-1.9308522359e+01
 9.4575531983e-01	 9.4575531983e-01	-2.1108979647e+01
 1.1299439402e+00	 7.3873316706e-01	-1.4473223143e+01
 1.1145544155e+00	 7.6175353953e-01	-1.4553508480e+01
 1.0986651487e+00	 7.8449658449e-01	-1.4869830163e+01
 1.0822835907e+00	 8.0694623686e-01	-1.5414124948e+01
 1.0654178746e+00	 8.2908669779e-01	-1.6177502914e+01
 1.0480768032e+00	 8.5090247063e-01	-1.7150277529e+01
 1.0302698355e+00	 8.7237839618e-01	-1.8322000174e+01
 1.0120070696e+00	 8.9349968718e-01	-1.9681498943e+01
 9.9329922497e-01	 9.1425196180e-01	-2.1216921484e+01
 9.7415762093e-01	 9.3462127600e-01	-2.2915781633e+01
 9.5459415459e-01	 9.5459415459e-01	-2.4765009540e+01
 1.1404063840e+00	 7.4557328897e-01	-1.9248883913e+01
 1.1248743638e+00	 7.6880681304e-01	-1.9014970821e+01
 1.1088379741e+00	 7.9176044176e-01	-1.9064999327e+01
 1.0923047351e+00	 8.1441796128e-01	-1.9388786398e+01
 1.0752828549e+00	 8.3676342648e-01	-1.9975115205e+01
 1.0577812181e+00	 8.5878119721e-01	-2.0811773212e+01
 1.0398093710e+00	 8.8045597392e-01	-2.1885595888e+01
 1.0213775055e+00	 9.0177283243e-01	-2.3182515810e+01
 1.0024964400e+00	 9.2271725774e-01	-2.4687616877e+01
 9.8317759891e-01	 9.4327517670e-01	-2.6385193301e+01
 9.6343298936e-01	 9.6343298936e-01	-2.8258813020e+01
 1.1508688279e+00	 7.5241341089e-01	-2.4070915179e+01
 1.1351943120e+00	 7.7586008655e-01	-2.3506117703e+01
 1.1190107996e+00	 7.9902429902e-01	-2.3272250152e+01
 1.1023258795e+00	 8.2188968569e-01	-2.3357038194e+01
 1.0851478353e+00	 8.4444015516e-01	-2.3746969100e+01
 1.0674856329e+00	 8.6665992379e-01	-2.4427337751e+01
 1.0493489065e+00	 8.8853355166e-01	-2.5382299442e+01
 1.0307479413e+00	 9.1004597768e-01	-2.6594929182e+01
 1.0116936551e+00	 9.3118255368e-01	-2.8047287151e+01
 9.9219757688e-01	 9.5192907740e-01	-2.9720489925e+01
 9.7227182412e-01	 9.7227182412e-01	-3.1594787017e+01
 8.8388347647e-01	 8.8388347647e-01	 9.4317197935e+00
 8.6539007037e-01	 9.0199779716e-01	 1.0103809223e+01
 8.4652959426e-01	 9.1972150459e-01	 1.0287160268e+01
 8.2731452517e-01	 9.3704358299e-01	 9.9906901616e+00
 8.0775777424e-01	 9.5395355135e-01	 9.2248417199e+00
 7.8787265799e-01	 9.7044148446e-01	 8.0015336913e+00
 7.6767286833e-01	 9.8649803203e-01	 6.3341038033e+00
 7.4717244154e-01	 1.0021144359e+00	 4.2372449394e+00
 7.2638572638e-01	 1.0172825451e+00	 1.7269349207e+00
 7.0532735141e-01	 1.0319948291e+00	-1.1796395819e+00
 6.8401219171e-01	 1.0462443890e+00	-4.4641644382e+00
 8.9272231124e-01	 8.9272231124e-01	 4.5020489942e+00
 8.7404397107e-01	 9.1101777513e-01	 5.1144249083e+00
 8.5499489020e-01	 9.2891871964e-01	 5.3143495026e+00
 8.3558767042e-01	 9.4641401882e-01	 5.1064794899e+00
 8.1583535198e-01	 9.6349308686e-01	 4.4967571857e+00
 7.9575138457e-01	 9.8014589930e-01	 3.4923807715e+00
 7.7534959701e-01	 9.9636301235e-01	 2.1017683163e+00
 7.5464416595e-01	 1.0121355802e+00	 3.3451583555e-01
 7.3364958364e-01	 1.0274553705e+00	-1.7986502883e+00
 7.1238062492e-01	 1.0423147774e+00	-4.2859261559e+00
 6.9085231363e-01	 1.0567068329e+00	-7.1144880665e+00
 9.0156114600e-01	 9.0156114600e-01	-2.2951241352e-01
 8.8269787178e-01	 9.2003775310e-01	 2.9214748882e-01
 8.6346018615e-01	 9.3811593468e-01	 4.7631848411e-01
 8.4386081567e-01	 9.5578445465e-01	 3.2346046556e-01
 8.2391292973e-01	 9.7303262237e-01	-1.6491794567e-01
 8.0363011115e-01	 9.8985031415e-01	-9.8626946873e-01
 7.8302632570e-01	 1.0062279927e+00	-2.1370234291e+00
 7.6211589037e-01	 1.0221567246e+00	-3.6126060887e+00
 7.4091344091e-01	 1.0376281960e+00	-5.4074658673e+00
 7.1943389844e-01	 1.0526347257e+00	-7.5151032429e+00
 6.9769243555e-01	 1.0671692768e+00	-9.9281050845e+00
 9.1039998077e-01	 9.1039998077e-01	-4.7687012021e+00
 8.9135177248e-01	 9.2905773107e-01	-4.3678561883e+00
 8.7192548209e-01	 9.4731314973e-01	-4.2308237391e+00
 8.5213396092e-01	 9.6515489048e-01	-4.3612789333e+00
 8.3199050747e-01	 9.8257215788e-01	-4.7620819806e+00
 8.1150883773e-01	 9.9955472899e-01	-5.4352688619e+00
 7.9070305438e-01	 1.0160929730e+00	-6.3820461361e+00
 7.6958761479e-01	 1.0321778689e+00	-7.6027899229e+00
 7.4817729817e-01	 1.0478010214e+00	-9.0970490385e+00
 7.2648717195e-01	 1.0629546740e+00	-1.0863552225e+01
 7.0453255747e-01	 1.0776317207e+00	-1.2900219389e+01
 9.1923881553e-01	 9.1923881553e-01	-9.1210340916e+00
 9.0000567318e-01	 9.3807770905e-01	-8.8702339913e+00
 8.8039077803e-01	 9.5651036478e-01	-8.8108190844e+00
 8.6040710618e-01	 9.7452532631e-01	-8.9505393560e+00
 8.4006808521e-01	 9.9211169340e-01	-9.2965608519e+00
 8.1938756431e-01	 1.0092591438e+00	-9.8554371250e+00
 7.9837978306e-01	 1.0259579533e+00	-1.0633083828e+01
 7.7705933920e-01	 1.0421990133e+00	-1.1634756608e+01
 7.5544115544e-01	 1.0579738469e+00	-1.2865032414e+01
 7.3354044547e-01	 1.0732746223e+00	-1.4327794337e+01
 7.1137267938e-01	 1.0880941646e+00	-1.6026220019e+01
 9.2807765030e-01	 9.2807765030e-01	-1.3291818225e+01
 9.0865957389e-01	 9.4709768702e-01	-1.3219457323e+01
 8.8885607398e-01	 9.6570757982e-01	-1.3267267528e+01
 8.6868025143e-01	 9.8389576214e-01	-1.3447015379e+01
 8.4814566296e-01	 1.0016512289e+00	-1.3770111561e+01
 8.2726629089e-01	 1.0189635587e+00	-1.4247563384e+01
 8.0605651175e-01	 1.0358229336e+00	-1.4889929403e+01
 7.8453106362e-01	 1.0522201577e+00	-1.5707276462e+01
 7.6270501270e-01	 1.0681466723e+00	-1.6709139452e+01
 7.4059371898e-01	 1.0835945706e+00	-1.7904484000e+01
 7.1821280130e-01	 1.0985566085e+00	-1.9301672337e+01
 9.3691648507e-01	 9.3691648507e-01	-1.7286161050e+01
 9.1731347459e-01	 9.5611766499e-01	-1.7419829440e+01
 8.9732136992e-01	 9.7490479487e-01	-1.7603633794e+01
 8.7695339668e-01	 9.9326619797e-01	-1.7853300504e+01
 8.5622324070e-01	 1.0111907644e+00	-1.8184425425e+01
 8.3514501747e-01	 1.0286679735e+00	-1.8612407615e+01
 8.1373324043e-01	 1.0456879140e+00	-1.9152384205e+01
 7.9200278803e-01	 1.0622413020e+00	-1.9819166850e+01
 7.6996886997e-01	 1.0783194978e+00	-2.0627180162e+01
 7.4764699250e-01	 1.0939145189e+00	-2.1590402534e+01
 7.2505292322e-01	 1.1090190524e+00	-2.2722309706e+01
 9.4575531983e-01	 9.4575531983e-01	-2.1108979647e+01
 9.2596737530e-01	 9.6513764296e-01	-2.1475493307e+01
 9.0578666586e-01	 9.8410200992e-01	-2.1823253676e+01
 8.8522654193e-01	 1.0026366338e+00	-2.2171891880e+01
 8.6430081844e-01	 1.0207302999e+00	-2.2541131145e+01
 8.4302374405e-01	 1.0383723884e+00	-2.2950702001e+01
 8.2140996911e-01	 1.0555528943e+00	-2.3420257634e+01
 7.9947451245e-01	 1.0722624464e+00	-2.3969289976e+01
 7.7723272723e-01	 1.0884923232e+00	-2.4617047064e+01
 7.5470026601e-01	 1.1042344672e+00	-2.5382452230e+01
 7.3189304514e-01	 1.1194814963e+00	-2.6284025636e+01
 9.5459415459e-01	 9.5459415459e-01	-2.4765009540e+01
 9.3462127600e-01	 9.7415762093e-01	-2.5390439016e+01
 9.1425196180e-01	 9.9329922497e-01	-2.5929339997e+01
 8.9349968718e-01	 1.0120070696e+00	-2.6405194758e+01
 8.7237839618e-01	 1.0302698355e+00	-2.6841797697e+01
 8.5090247063e-01	 1.0480768032e+00	-2.7263152212e+01
 8.2908669779e-01	 1.0654178746e+00	-2.7693366762e+01
 8.0694623686e-01	 1.0822835907e+00	-2.8156550811e+01
 7.8449658449e-01	 1.0986651487e+00	-2.8676711359e+01
 7.6175353953e-01	 1.1145544155e+00	-2.9277650738e+01
 7.3873316706e-01	 1.1299439402e+00	-2.9982866365e+01
 9.6343298936e-01	 9.6343298936e-01	-2.8258813020e+01
 9.4327517670e-01	 9.8317759891e-01	-2.9168510792e+01
 9.2271725774e-01	 1.0024964400e+00	-2.9924988250e+01
 9.0177283243e-01	 1.0213775055e+00	-3.0555526704e+01
 8.8045597392e-01	 1.0398093710e+00	-3.1087937070e+01
 8.5878119721e-01	 1.0577812181e+00	-3.1550438624e+01
 8.3676342648e-01	 1.0752828549e+00	-3.1971535980e+01
 8.1441796128e-01	 1.0923047351e+00	-3.2379895120e+01
 7.9176044176e-01	 1.1088379741e+00	-3.2804219316e+01
 7.6880681304e-01	 1.1248743638e+00	-3.3273125778e+01
 7.4557328897e-01	 1.1404063840e+00	-3.3815023852e+01
 9.7227182412e-01	 9.7227182412e-01	-3.1594787017e+01
 9.5192907740e-01	 9.9219757688e-01	-3.2813413621e+01
 9.3118255368e-01	 1.0116936551e+00	-3.3813181926e+01
 9.1004597768e-01	 1.0307479413e+00	-3.4625121583e+01
 8.8853355166e-01	 1.0493489065e+00	-3.5281006855e+01
 8.6665992379e-01	 1.0674856329e+00	-3.5813217460e+01
 8.4444015516e-01	 1.0851478353e+00	-3.6254596663e+01
 8.2188968569e-01	 1.1023258795e+00	-3.6638307608e+01
 7.9902429902e-01	 1.1190107996e+00	-3.6997688859e+01
 7.7586008655e-01	 1.1351943120e+00	-3.7366110127e+01
 7.5241341089e-01	 1.1508688279e+00	-3.7776829146e+01
 6.8401219171e-01	 1.0462443890e+00	-4.4641644382e+00
 6.6245533520e-01	 1.0600249661e+00	-9.3770821443e+00
 6.4067204861e-01	 1.0733309490e+00	-1.4422437075e+01
 6.1867774334e-01	 1.0861573780e+00	-1.9624626025e+01
 5.9648794137e-01	 1.0984999480e+00	-2.5007437207e+01
 5.7411824130e-01	 1.1103550085e+00	-3.0593951587e+01
 5.5158428467e-01	 1.1217195625e+00	-3.6406449616e+01
 5.2890172284e-01	 1.1325912624e+00	-4.2466323863e+01
 5.0608618433e-01	 1.1429684046e+00	-4.8793998006e+01
 4.8315324299e-01	 1.1528499225e+00	-5.5408852563e+01
 4.6011838694e-01	 1.1622353763e+00	-6.2329157681e+01
 6.9085231363e-01	 1.0567068329e+00	-7.1144880665e+00
 6.6907988855e-01	 1.0706252158e+00	-1.1904844608e+01
 6.4707876909e-01	 1.0840642585e+00	-1.6924080655e+01
 6.2486452077e-01	 1.0970189518e+00	-2.2187902361e+01
 6.0245282079e-01	 1.1094849475e+00	-2.7711208850e+01
 5.7985942371e-01	 1.1214585586e+00	-3.3508034084e+01
 5.5710012751e-01	 1.1329367581e+00	-3.9591494145e+01
 5.3419074006e-01	 1.1439171750e+00	-4.5973740155e+01
 5.1114704617e-01	 1.1543980887e+00	-5.2665917034e+01
 4.8798477542e-01	 1.1643784217e+00	-5.9678128243e+01
 4.6471957081e-01	 1.1738577301e+00	-6.7019406594e+01
 6.9769243555e-01	 1.0671692768e+00	-9.9281050845e+00
 6.7570444191e-01	 1.0812254655e+00	-1.4532621136e+01
 6.5348548958e-01	 1.0947975680e+00	-1.9460791793e+01
 6.3105129820e-01	 1.1078805256e+00	-2.4719766602e+01
 6.0841770020e-01	 1.1204699470e+00	-3.0315691908e+01
 5.8560060612e-01	 1.1325621087e+00	-3.6253692759e+01
 5.6261597036e-01	 1.1441539537e+00	-4.2537860218e+01
 5.3947975729e-01	 1.1552430876e+00	-4.9171244074e+01
 5.1620790801e-01	 1.1658277727e+00	-5.6155850867e+01
 4.9281630785e-01	 1.1759069209e+00	-6.3492647158e+01
 4.6932075467e-01	 1.1854800839e+00	-7.1181567882e+01
 7.0453255747e-01	 1.0776317207e+00	-1.2900219389e+01
 6.8232899526e-01	 1.0918257151e+00	-1.7257457993e+01
 6.5989221007e-01	 1.1055308775e+00	-2.2031507668e+01
 6.3723807564e-01	 1.1187420994e+00	-2.7221091478e+01
 6.1438257961e-01	 1.1314549464e+00	-3.2823735333e+01
 5.9134178853e-01	 1.1436656588e+00	-3.8835789430e+01
 5.6813181320e-01	 1.1553711494e+00	-4.5252455110e+01
 5.4476877451e-01	 1.1665690002e+00	-5.2067816857e+01
 5.2126876985e-01	 1.1772574568e+00	-5.9274879124e+01
 4.9764784027e-01	 1.1874354202e+00	-6.6865607647e+01
 4.7392193854e-01	 1.1971024376e+00	-7.4830974884e+01
 7.1137267938e-01	 1.0880941646e+00	-1.6026220019e+01
 6.8895354861e-01	 1.1024259648e+00	-2.0076515731e+01
 6.6629893055e-01	 1.1162641870e+00	-2.4635207018e+01
 6.4342485307e-01	 1.1296036732e+00	-2.9692716836e+01
 6.2034745903e-01	 1.1424399459e+00	-3.5238079183e+01
 5.9708297095e-01	 1.1547692089e+00	-4.1258999603e+01
 5.7364765605e-01	 1.1665883450e+00	-4.7741921106e+01
 5.5005779174e-01	 1.1778949129e+00	-5.4672094983e+01
 5.2632963169e-01	 1.1886871408e+00	-6.2033655956e+01
 5.0247937270e-01	 1.1989639194e+00	-6.9809701087e+01
 4.7852312241e-01	 1.2087247914e+00	-7.7982371854e+01
 7.1821280130e-01	 1.0985566085e+00	-1.9301672337e+01
 6.9557810197e-01	 1.1130262144e+00	-2.2987063740e+01
 6.7270565104e-01	 1.1269974965e+00	-2.7270908159e+01
 6.4961163051e-01	 1.1404652469e+00	-3.2135451199e+01
 6.2631233844e-01	 1.1534249454e+00	-3.7561359803e+01
 6.0282415336e-01	 1.1658727590e+00	-4.3527821339e+01
 5.7916349890e-01	 1.1778055406e+00	-5.0012648121e+01
 5.5534680897e-01	 1.1892208255e+00	-5.6992386583e+01
 5.3139049354e-01	 1.2001168249e+00	-6.4442430298e+01
 5.0731090513e-01	 1.2104924186e+00	-7.2337136026e+01
 4.8312430627e-01	 1.2203471452e+00	-8.0649942004e+01
 7.2505292322e-01	 1.1090190524e+00	-2.2722309706e+01
 7.0220265532e-01	 1.1236264641e+00	-2.5986475111e+01
 6.7911237153e-01	 1.1377308060e+00	-2.9937667109e+01
 6.5579840794e-01	 1.1513268207e+00	-3.4550073243e+01
 6.3227721786e-01	 1.1644099449e+00	-3.9796114717e+01
 6.0856533577e-01	 1.1769763091e+00	-4.5646583621e+01
 5.8467934175e-01	 1.1890227363e+00	-5.2070785599e+01
 5.6063582620e-01	 1.2005467381e+00	-5.9036686933e+01
 5.3645135538e-01	 1.2115465089e+00	-6.6511064983e+01
 5.1214243756e-01	 1.2220209178e+00	-7.4459660955e+01
 4.8772549014e-01	 1.2319694989e+00	-8.2847333968e+01
 7.3189304514e-01	 1.1194814963e+00	-2.6284025636e+01
 7.0882720867e-01	 1.1342267138e+00	-2.9072221788e+01
 6.8551909201e-01	 1.1484641155e+00	-3.2634575831e+01
 6.6198518538e-01	 1.1621883945e+00	-3.6937333188e+01
 6.3824209727e-01	 1.1753949444e+00	-4.1944787239e+01
 6.1430651819e-01	 1.1880798591e+00	-4.7619454251e+01
 5.9019518460e-01	 1.2002399319e+00	-5.3922253746e+01
 5.6592484343e-01	 1.2118726507e+00	-6.0812693060e+01
 5.4151221723e-01	 1.2229761930e+00	-6.8249054779e+01
 5.1697396999e-01	 1.2335494171e+00	-7.6188585803e+01
 4.9232667401e-01	 1.2435918527e+00	-8.4587686776e+01
 7.3873316706e-01	 1.1299439402e+00	-2.9982866365e+01
 7.1545176203e-01	 1.1448269634e+00	-3.2241869985e+01
 6.9192581250e-01	 1.1591974249e+00	-3.5360760558e+01
 6.6817196281e-01	 1.1730499683e+00	-3.9297954105e+01
 6.4420697669e-01	 1.1863799439e+00	-4.4009730831e+01
 6.2004770061e-01	 1.1991834092e+00	-4.9450447308e+01
 5.9571102745e-01	 1.2114571275e+00	-5.5572754138e+01
 5.7121386066e-01	 1.2231985634e+00	-6.2327817553e+01
 5.4657307907e-01	 1.2344058770e+00	-6.9665543429e+01
 5.2180550243e-01	 1.2450779163e+00	-7.7534802238e+01
 4.9692785789e-01	 1.2552142064e+00	-8.5883653449e+01
 7.4557328897e-01	 1.1404063840e+00	-3.3815023852e+01
 7.2207631538e-01	 1.1554272131e+00	-3.5493075858e+01
 6.9833253299e-01	 1.1699307344e+00	-3.8115380217e+01
 6.7435874025e-01	 1.1839115421e+00	-4.1632633169e+01
 6.5017185611e-01	 1.1973649433e+00	-4.5993213222e+01
 6.2578888302e-01	 1.2102869593e+00	-5.1143430197e+01
 6.0122687030e-01	 1.2226743231e+00	-5.7027779749e+01
 5.7650287789e-01	 1.2345244760e+00	-6.3589201603e+01
 5.5163394092e-01	 1.2458355611e+00	-7.0769339744e+01
 5.2663703486e-01	 1.2566064155e+00	-7.8508802850e+01
 5.0152904176e-01	 1.2668365602e+00	-8.6747423285e+01
 7.5241341089e-01	 1.1508688279e+00	-3.7776829146e+01
 7.2870086873e-01	 1.1660274628e+00	-3.8823581414e+01
 7.0473925348e-01	 1.1806640439e+00	-4.0897624945e+01
 6.8054551769e-01	 1.1947731159e+00	-4.3942042820e+01
 6.5613673552e-01	 1.2083499428e+00	-4.7897420300e+01
 6.3153006544e-01	 1.2213905094e+00	-5.2702130312e+01
 6.0674271315e-01	 1.2338915188e+00	-5.8292624427e+01
 5.8179189513e-01	 1.2458503886e+00	-6.4603727338e+01
 5.5669480277e-01	 1.2572652451e+00	-7.1568932826e+01
 5.3146856729e-01	 1.2681349147e+00	-7.9120699286e+01
 5.0613022563e-01	 1.2784589140e+00	-8.7190742933e+01
 4.6011838694e-01	 1.1622353763e+00	-6.2329157681e+01
 4.3699698846e-01	 1.1711249430e+00	-4.2734726826e+01
 4.1380427495e-01	 1.1795194030e+00	-2.4422587703e+01
 3.9055530110e-01	 1.1874201265e+00	-7.3263600401e+00
 3.6726492214e-01	 1.1948290577e+00	 8.6220742612e+00
 3.4394776856e-01	 1.2017486978e+00	 2.3492238842e+01
 3.2061822210e-01	 1.2081820871e+00	 3.7354736046e+01
 2.9729039323e-01	 1.2141327860e+00	 5.0280927327e+01
 2.7397810005e-01	 1.2196048543e+00	 6.2342622603e+01
 2.5069484873e-01	 1.2246028307e+00	 7.3611780054e+01
 2.2745381552e-01	 1.2291317105e+00	 8.4160217756e+01
 4.6471957081e-01	 1.1738577301e+00	-6.7019406594e+01
 4.4136695834e-01	 1.1828361924e+00	-4.7166914205e+01
 4.1794231770e-01	 1.1913145970e+00	-2.8471344589e+01
 3.9446085410e-01	 1.1992943278e+00	-1.0879824410e+01
 3.7093757136e-01	 1.2067773482e+00	 5.6622529381e+00
 3.4738724624e-01	 1.2137661847e+00	 2.1210948145e+01
 3.2382440432e-01	 1.2202639080e+00	 3.5823500159e+01
 3.0026329716e-01	 1.2262741139e+00	 4.9558055310e+01
 2.7671788104e-01	 1.2318009029e+00	 6.2473402859e+01
 2.5320179722e-01	 1.2368488590e+00	 7.4628718300e+01
 2.2972835367e-01	 1.2414230276e+00	 8.6083315659e+01
 4.6932075467e-01	 1.1854800839e+00	-7.1181567882e+01
 4.4573692822e-01	 1.1945474419e+00	-5.1172204942e+01
 4.2208036044e-01	 1.2031097911e+00	-3.2196110967e+01
 3.9836640711e-01	 1.2111685290e+00	-1.4213715094e+01
 3.7461022057e-01	 1.2187256388e+00	 2.8162816533e+00
 3.5082672392e-01	 1.2257836717e+00	 1.8936679607e+01
 3.2703058654e-01	 1.2323457289e+00	 3.4191555009e+01
 3.0323620109e-01	 1.2384154418e+00	 4.8626037248e+01
 2.7945766204e-01	 1.2439969514e+00	 6.2286090021e+01
 2.5570874570e-01	 1.2490948873e+00	 7.5218297606e+01
 2.3200289183e-01	 1.2537143447e+00	 8.7469657313e+01
 4.7392193854e-01	 1.1971024376e+00	-7.4830974884e+01
 4.5010689810e-01	 1.2062586913e+00	-5.4762984206e+01
 4.2621840319e-01	 1.2149049851e+00	-3.5606273868e+01
 4.0227196012e-01	 1.2230427303e+00	-1.7334376978e+01
 3.7828286979e-01	 1.2306739294e+00	 8.0895736399e-02
 3.5426620160e-01	 1.2378011587e+00	 1.6669280936e+01
 3.3023676875e-01	 1.2444275498e+00	 3.2461887005e+01
 3.0620910502e-01	 1.2505567696e+00	 4.7491018792e+01
 2.8219744304e-01	 1.2561930000e+00	 6.1790003843e+01
 2.5821569419e-01	 1.2613409156e+00	 7.5393021107e+01
 2.3427742998e-01	 1.2660056618e+00	 8.8334933055e+01
 4.7852312241e-01	 1.2087247914e+00	-7.7982371854e+01
 4.5447686798e-01	 1.2179699407e+00	-5.7951161458e+01
 4.3035644594e-01	 1.2267001791e+00	-3.8710859922e+01
 4.0617751313e-01	 1.2349169316e+00	-2.0247911538e+01
 3.8195551901e-01	 1.2426222199e+00	-2.5470445347e+00
 3.5770567928e-01	 1.2498186457e+00	 1.4408605099e+01
 3.3344295097e-01	 1.2565093706e+00	 3.0637367105e+01
 3.0918200895e-01	 1.2626980975e+00	 4.6158908648e+01
 2.8493722404e-01	 1.2683890485e+00	 6.0994105066e+01
 2.6072264268e-01	 1.2735869439e+00	 7.5164910505e+01
 2.3655196814e-01	 1.2782969789e+00	 8.8694229223e+01
 4.8312430627e-01	 1.2203471452e+00	-8.0649942004e+01
 4.5884683786e-01	 1.2296811901e+00	-6.0748193106e+01
 4.3449448868e-01	 1.2384953731e+00	-4.1518552514e+01
 4.1008306613e-01	 1.2467911328e+00	-2.2960188435e+01
 3.8562816823e-01	 1.2545705105e+00	-5.0705598806e+00
 3.6114515697e-01	 1.2618361326e+00	 1.2154510064e+01
 3.3664913319e-01	 1.2685911915e+00	 2.8720756314e+01
 3.1215491288e-01	 1.2748394253e+00	 4.4635389861e+01
 2.8767700504e-01	 1.2805850970e+00	 5.9907012520e+01
 2.6322959116e-01	 1.2858329722e+00	 7.4545528999e+01
 2.3882650630e-01	 1.2905882961e+00	 8.8562056921e+01
 4.8772549014e-01	 1.2319694989e+00	-8.2847333968e+01
 4.6321680775e-01	 1.2413924396e+00	-6.3165103869e+01
 4.3863253143e-01	 1.2502905672e+00	-4.4037707976e+01
 4.1398861914e-01	 1.2586653341e+00	-2.5476856442e+01
 3.8930081745e-01	 1.2665188011e+00	-7.4925576313e+00
 3.6458463465e-01	 1.2738536196e+00	 9.9068585772e+00
 3.3985531541e-01	 1.2806730124e+00	 2.6714710877e+01
 3.1512781681e-01	 1.2869807532e+00	 4.2925930462e+01
 2.9041678604e-01	 1.2927811456e+00	 5.8537019252e+01
 2.6573653965e-01	 1.2980790005e+00	 7.3546002911e+01
 2.4110104445e-01	 1.3028796132e+00	 8.7952379151e+01
 4.9232667401e-01	 1.2435918527e+00	-8.4587686776e+01
 4.6758677763e-01	 1.2531036890e+00	-6.5212506945e+01
 4.4277057418e-01	 1.2620857612e+00	-4.6276370863e+01
 4.1789417216e-01	 1.2705395353e+00	-2.7803353764e+01
 3.9297346667e-01	 1.2784670917e+00	-9.8158370216e+00
 3.6802411234e-01	 1.2858711066e+00	 7.6655179336e+00
 3.4306149763e-01	 1.2927548332e+00	 2.4621787174e+01
 3.1810072074e-01	 1.2991220810e+00	 4.1035793518e+01
 2.9315656704e-01	 1.3049771941e+00	 5.6892107749e+01
 2.6824348814e-01	 1.3103250288e+00	 7.2177042106e+01
 2.4337558261e-01	 1.3151709303e+00	 8.6878636430e+01
 4.9692785789e-01	 1.2552142064e+00	-8.5883653449e+01
 4.7195674752e-01	 1.2648149384e+00	-6.6900623065e+01
 4.4690861693e-01	 1.2738809552e+00	-4.8242288386e+01
 4.2179972517e-01	 1.2824137366e+00	-2.9944917781e+01
 3.9664611589e-01	 1.2904153822e+00	-1.2043094193e+01
 3.7146359002e-01	 1.2978885936e+00	 5.4303597750e+00
 3.4626767985e-01	 1.3048366541e+00	 2.2444446345e+01
 3.2107362467e-01	 1.3112634089e+00	 3.8970046625e+01
 2.9589634804e-01	 1.3171732427e+00	 5.4979964323e+01
 2.7075043663e-01	 1.3225710571e+00	 7.0448959272e+01
 2.4565012076e-01	 1.3274622474e+00	 8.5353770979e+01
 5.0152904176e-01	 1.2668365602e+00	-8.6747423285e+01
 4.7632671740e-01	 1.2765261879e+00	-6.8239298485e+01
 4.5104665968e-01	 1.2856761493e+00	-4.9942924050e+01
 4.2570527818e-01	 1.2942879379e+00	-3.1906594264e+01
 4.0031876511e-01	 1.3023636728e+00	-1.4176926919e+01
 3.7490306771e-01	 1.3099060805e+00	 3.2012598904e+00
 3.4947386207e-01	 1.3169184750e+00	 2.0185058665e+01
 3.2404652861e-01	 1.3234047368e+00	 3.6733570872e+01
 2.9863612904e-01	 1.3293692912e+00	 5.2807992697e+01
 2.7325738511e-01	 1.3348170854e+00	 6.8371688142e+01
 2.4792465892e-01	 1.3397535645e+00	 8.3390249586e+01
 5.0613022563e-01	 1.2784589140e+00	-8.7190742933e+01
 4.8069668729e-01	 1.2882374373e+00	-6.9238022010e+01
 4.5518470244e-01	 1.2974713433e+00	-5.1385470542e+01
 4.2961083119e-01	 1.3061621391e+00	-3.3693246075e+01
 4.0399141433e-01	 1.3143119634e+00	-1.6219839077e+01
 3.7834254540e-01	 1.3219235675e+00	 9.7809803113e-01
 3.5268004430e-01	 1.3290002958e+00	 1.7845907673e+01
 3.2701943254e-01	 1.3355460646e+00	 3.4331069328e+01
 3.0137591004e-01	 1.3415653398e+00	 5.0383326850e+01
 2.7576433360e-01	 1.3470631137e+00	 6.5954800722e+01
 2.5019919707e-01	 1.3520448816e+00	 8.1000085212e+01
 2.2745381552e-01	 1.2291317105e+00	 8.4160217756e+01
 2.0426783021e-01	 1.2331969241e+00	 6.5429950677e+01
 1.8114936128e-01	 1.2368043131e+00	 4.8364382797e+01
 1.5811050247e-01	 1.2399601078e+00	 3.2979721794e+01
 1.3516296103e-01	 1.2426709033e+00	 1.9286750914e+01
 1.1231804737e-01	 1.2449436358e+00	 7.2910083908e+00
 8.9586666336e-02	 1.2467855586e+00	-3.0070176548e+00
 6.6979309859e-02	 1.2482042189e+00	-1.1611680754e+01
 4.4506051105e-02	 1.2492074333e+00	-1.8531955972e+01
 2.2176539980e-02	 1.2498032649e+00	-2.3781210021e+01
 0.0000000000e+00	 1.2500000000e+00	-2.7376963413e+01
 2.2972835367e-01	 1.2414230276e+00	 8.6083315659e+01
 2.0631050852e-01	 1.2455288933e+00	 6.8025242663e+01
 1.8296085490e-01	 1.2491723562e+00	 5.1522612653e+01
 1.5969160750e-01	 1.2523597089e+00	 3.6589523798e+01
 1.3651459064e-01	 1.2550976124e+00	 2.3235032042e+01
 1.1344122785e-01	 1.2573930721e+00	 1.1463322473e+01
 9.0482533003e-02	 1.2592534142e+00	 1.2738948489e+00
 6.7649102962e-02	 1.2606862611e+00	-7.3382385433e+00
 4.4951111618e-02	 1.2616995076e+00	-1.4382344470e+01
 2.2398305381e-02	 1.2623012976e+00	-1.9871751529e+01
 0.0000000000e+00	 1.2625000000e+00	-2.3823625824e+01
 2.3200289183e-01	 1.2537143447e+00	 8.7469657313e+01
 2.0835318682e-01	 1.2578608626e+00	 7.0043125175e+01
 1.8477234851e-01	 1.2615403994e+00	 5.4064733709e+01
 1.6127271253e-01	 1.2647593100e+00	 3.9546498665e+01
 1.3786622026e-01	 1.2675243214e+00	 2.6495770547e+01
 1.1456440833e-01	 1.2698425085e+00	 1.4915398072e+01
 9.1378399670e-02	 1.2717212698e+00	 4.8039044412e+00
 6.8318896063e-02	 1.2731683033e+00	-3.8443252466e+00
 4.5396172132e-02	 1.2741915820e+00	-1.1038847115e+01
 2.2620070782e-02	 1.2747993302e+00	-1.6792953781e+01
 0.0000000000e+00	 1.2750000000e+00	-2.1123463365e+01
 2.3427742998e-01	 1.2660056618e+00	 8.8334933055e+01
 2.1039586513e-01	 1.2701928318e+00	 7.1500473486e+01
 1.8658384213e-01	 1.2739084425e+00	 5.6008749256e+01
 1.6285381756e-01	 1.2771589111e+00	 4.1869719982e+01
 1.3921784987e-01	 1.2799510304e+00	 2.9089051963e+01
 1.1568758880e-01	 1.2822919448e+00	 1.7668273820e+01
 9.2274266337e-02	 1.2841891254e+00	 7.6049436623e+00
 6.8988689165e-02	 1.2856503455e+00	-1.1071738148e+00
 4.5841232645e-02	 1.2866836563e+00	-8.4779218190e+00
 2.2841836183e-02	 1.2872973629e+00	-1.4520559060e+01
 0.0000000000e+00	 1.2875000000e+00	-1.9251561915e+01
 2.3655196814e-01	 1.2782969789e+00	 8.8694229223e+01
 2.1243854343e-01	 1.2825248010e+00	 7.2413513318e+01
 1.8839533574e-01	 1.2862764856e+00	 5.7371969660e+01
 1.6443492259e-01	 1.2895585121e+00	 4.3577527272e+01
 1.4056947948e-01	 1.2923777395e+00	 3.1034188857e+01
 1.1681076928e-01	 1.2947413812e+00	 1.9742178749e+01
 9.3170133003e-02	 1.2966569810e+00	 9.6981010912e+00
 6.9658482265e-02	 1.2981323876e+00	 8.9510676618e-01
 4.6286293158e-02	 1.2991757306e+00	-6.6769323145e+00
 2.3063601584e-02	 1.2997953955e+00	-1.3031242970e+01
 0.0000000000e+00	 1.3000000000e+00	-1.8183965897e+01
 2.3882650630e-01	 1.2905882961e+00	 8.8562056921e+01
 2.1448122173e-01	 1.2948567703e+00	 7.2797851766e+01
 1.9020682936e-01	 1.2986445288e+00	 5.8171045366e+01
 1.6601602761e-01	 1.3019581132e+00	 4.4687560947e+01
 1.4192110910e-01	 1.3048044485e+00	 3.2349757637e+01
 1.1793394976e-01	 1.3071908176e+00	 2.1156570840e+01
 9.4065999669e-02	 1.3091248366e+00	 1.1103661535e+01
 7.0328275366e-02	 1.3106144298e+00	 2.1835731924e+00
 4.6731353670e-02	 1.3116678050e+00	-5.6141050195e+00
 2.3285366984e-02	 1.3122934282e+00	-1.2302569991e+01
 0.0000000000e+00	 1.3125000000e+00	-1.7897632629e+01
 2.4110104445e-01	 1.3028796132e+00	 8.7952379151e+01
 2.1652390004e-01	 1.3071887395e+00	 7.2668506488e+01
 1.9201832297e-01	 1.3110125719e+00	 5.8421998026e+01
 1.6759713264e-01	 1.3143577143e+00	 4.5216795288e+01
 1.4327273871e-01	 1.3172311575e+00	 3.3053633283e+01
 1.1905713023e-01	 1.3196402539e+00	 2.1930173395e+01
 9.4961866334e-02	 1.3215926922e+00	 1.1841143944e+01
 7.0998068466e-02	 1.3230964720e+00	 2.7784871967e+00
 4.7176414182e-02	 1.3241598793e+00	-5.2684883445e+00
 2.3507132385e-02	 1.3247914608e+00	-1.2312951549e+01
 0.0000000000e+00	 1.3250000000e+00	-1.8370389264e+01
 2.4337558261e-01	 1.3151709303e+00	 8.6878636430e+01
 2.1856657834e-01	 1.3195207088e+00	 7.2039933244e+01
 1.9382981658e-01	 1.3233806150e+00	 5.8140249880e+01
 1.6917823767e-01	 1.3267573154e+00	 4.5181569573e+01
 1.4462436832e-01	 1.3296578666e+00	 3.3163022117e+01
 1.2018031071e-01	 1.3320896903e+00	 2.2081009374e+01
 9.5857732998e-02	 1.3340605477e+00	 1.1929337199e+01
 7.1667861566e-02	 1.3355785142e+00	 2.6993526974e+00
 4.7621474694e-02	 1.3366519536e+00	-5.6199142813e+00
 2.3728897785e-02	 1.3372894935e+00	-1.3041606445e+01
 0.0000000000e+00	 1.3375000000e+00	-1.9580892147e+01
 2.4565012076e-01	 1.3274622474e+00	 8.5353770979e+01
 2.2060925664e-01	 1.3318526780e+00	 7.0926051918e+01
 1.9564131020e-01	 1.3357486581e+00	 5.7340651513e+01
 1.7075934269e-01	 1.3391569165e+00	 4.4597617478e+01
 1.4597599793e-01	 1.3420845756e+00	 3.2694492769e+01
 1.2130349118e-01	 1.3445391266e+00	 2.1626433809e+01
 9.6753599662e-02	 1.3465284033e+00	 1.1386333911e+01
 7.2337654665e-02	 1.3480605564e+00	 1.9649508829e+00
 4.8066535206e-02	 1.3491440280e+00	-6.6489621256e+00
 2.3950663185e-02	 1.3497875261e+00	-1.4468523467e+01
 0.0000000000e+00	 1.3500000000e+00	-2.1508588423e+01
 2.4792465892e-01	 1.3397535645e+00	 8.3390249586e+01
 2.2265193494e-01	 1.3441846472e+00	 6.9340271094e+01
 1.9745280381e-01	 1.3481167013e+00	 5.6037508076e+01
 1.7234044772e-01	 1.3515565175e+00	 4.3480094857e+01
 1.4732762754e-01	 1.3545112846e+00	 3.1664005421e+01
 1.2242667166e-01	 1.3569885630e+00	 2.0583164456e+01
 9.7649466326e-02	 1.3589962589e+00	 1.0229562366e+01
 7.3007447764e-02	 1.3605425986e+00	 5.9337336447e-01
 4.8511595717e-02	 1.3616361023e+00	-8.3369241969e+00
 2.4172428585e-02	 1.3622855588e+00	-1.6574426080e+01
 0.0000000000e+00	 1.3625000000e+00	-2.4133679762e+01
 2.5019919707e-01	 1.3520448816e+00	 8.1000085212e+01
 2.2469461325e-01	 1.3565166165e+00	 6.7295511305e+01
 1.9926429742e-01	 1.3604847444e+00	 5.4244604081e+01
 1.7392155274e-01	 1.3639561186e+00	 4.1843606008e+01
 1.4867925715e-01	 1.3669379937e+00	 3.0086939474e+01
 1.2354985213e-01	 1.3694379993e+00	 1.8967310752e+01
 9.8545332989e-02	 1.3714641145e+00	 8.4758167141e+00
 7.3677240862e-02	 1.3730246408e+00	-1.3979464783e+00
 4.8956656228e-02	 1.3741281766e+00	-1.0665773428e+01
 2.4394193985e-02	 1.3747835914e+00	-1.9340739020e+01
 0.0000000000e+00	 1.3750000000e+00	-2.7437088062e+01
 1.3750000000e+00	 0.0000000000e+00	 6.9526954552e+01
 1.3747835914e+00	 2.4394193985e-02	 6.2704492408e+01
 1.3741281766e+00	 4.8956656228e-02	 5.5421373970e+01
 1.3730246408e+00	 7.3677240862e-02	 4.7675253444e+01
 1.3714641145e+00	 9.8545332989e-02	 3.9464589175e+01
 1.3694379993e+00	 1.2354985213e-01	 3.0788679913e+01
 1.3669379937e+00	 1.4867925715e-01	 2.1647699339e+01
 1.3639561186e+00	 1.7392155274e-01	 1.2042728608e+01
 1.3604847444e+00	 1.9926429742e-01	 1.9757865915e+00
 1.3565166165e+00	 2.2469461325e-01	-8.5501424495e+00
 1.3520448816e+00	 2.5019919707e-01	-1.9531084048e+01
 1.3875000000e+00	 0.0000000000e+00	 6.5050610403e+01
 1.3872816241e+00	 2.4615959384e-02	 5.8656624459e+01
 1.3866202510e+00	 4.9401716739e-02	 5.1770503618e+01
 1.3855066830e+00	 7.4347033960e-02	 4.4390477213e+01
 1.3839319701e+00	 9.9441199652e-02	 3.6515714214e+01
 1.3818874357e+00	 1.2467303260e-01	 2.8146362961e+01
 1.3793647027e+00	 1.5003088676e-01	 1.9283588674e+01
 1.3763557197e+00	 1.7550265777e-01	 9.9296084186e+00
 1.3728527875e+00	 2.0107579104e-01	 8.7723195058e-02
 1.3688485857e+00	 2.2673729155e-01	-1.0237653180e+01
 1.3643361987e+00	 2.5247373523e-01	-2.1040968726e+01
 1.4000000000e+00	 0.0000000000e+00	 6.0423623472e+01
 1.3997796567e+00	 2.4837724784e-02	 5.4470857734e+01
 1.3991123253e+00	 4.9846777249e-02	 4.7995122294e+01
 1.3979887252e+00	 7.5016827059e-02	 4.0995215079e+01
 1.3963998257e+00	 1.0033706631e-01	 3.3471007535e+01
 1.3943368721e+00	 1.2579621308e-01	 2.5423487783e+01
 1.3917914117e+00	 1.5138251637e-01	 1.6854801072e+01
 1.3887553208e+00	 1.7708376279e-01	 7.7682871417e+00
 1.3852208307e+00	 2.0288728465e-01	-1.8314858687e+00
 1.3811805550e+00	 2.2877996985e-01	-1.1938691349e+01
 1.3766275158e+00	 2.5474827338e-01	-2.2546218349e+01
 1.4125000000e+00	 0.0000000000e+00	 5.5649977392e+01
 1.4122776894e+00	 2.5059490184e-02	 5.0150839443e+01
 1.4116043996e+00	 5.0291837760e-02	 4.4098523651e+01
 1.4104707673e+00	 7.5686620157e-02	 3.7492390176e+01
 1.4088676813e+00	 1.0123293298e-01	 3.0333005004e+01
 1.4067863084e+00	 1.2691939355e-01	 2.2622186487e+01
 1.4042181208e+00	 1.5273414598e-01	 1.4363048698e+01
 1.4011549218e+00	 1.7866486781e-01	 5.5600411646e+00
 1.3975888738e+00	 2.0469877826e-01	-3.7810154284e+00
 1.3935125242e+00	 2.3082264815e-01	-1.3652897995e+01
 1.3889188329e+00	 2.5702281154e-01	-2.4046954670e+01
 1.4250000000e+00	 0.0000000000e+00	 5.0733516116e+01
 1.4247757220e+00	 2.5281255583e-02	 4.5700088912e+01
 1.4240964740e+00	 5.0736898271e-02	 4.0083885850e+01
 1.4229528095e+00	 7.6356413255e-02	 3.3884823135e+01
 1.4213355368e+00	 1.0212879964e-01	 2.7104153562e+01
 1.4192357448e+00	 1.2804257402e-01	 1.9744516412e+01
 1.4166448298e+00	 1.5408577559e-01	 1.1809983671e+01
 1.4135545229e+00	 1.8024597284e-01	 3.3061021054e+00
 1.4099569169e+00	 2.0651027187e-01	-5.7600692644e+00
 1.4058444934e+00	 2.3286532645e-01	-1.5379926767e+01
 1.4012101500e+00	 2.5929734969e-01	-2.5543295198e+01
 1.4375000000e+00	 0.0000000000e+00	 4.5677949994e+01
 1.4372737547e+00	 2.5503020983e-02	 4.1122003141e+01
 1.4365885483e+00	 5.1181958781e-02	 3.5954276588e+01
 1.4354348517e+00	 7.7026206353e-02	 3.0175236547e+01
 1.4338033924e+00	 1.0302466630e-01	 2.3786815095e+01
 1.4316851811e+00	 1.2916575450e-01	 1.6792463381e+01
 1.4290715388e+00	 1.5543740520e-01	 9.1972006744e+00
 1.4259541240e+00	 1.8182707786e-01	 1.0076587594e+00
 1.4223249601e+00	 2.0832176549e-01	-7.7678788497e+00
 1.4181764627e+00	 2.3490800476e-01	-1.7119443370e+01
 1.4135014671e+00	 2.6157188785e-01	-2.7035353384e+01
 1.4500000000e+00	 0.0000000000e+00	 4.0486861525e+01
 1.4497717873e+00	 2.5724786382e-02	 3.6419862081e+01
 1.4490806226e+00	 5.1627019292e-02	 3.1712657854e+01
 1.4479168939e+00	 7.7695999451e-02	 2.6366259186e+01
 1.4462712480e+00	 1.0392053297e-01	 2.0383270099e+01
 1.4441346175e+00	 1.3028893497e-01	 1.3767944781e+01
 1.4414982479e+00	 1.5678903481e-01	 6.5262394315e+00
 1.4383537251e+00	 1.8340818289e-01	-1.3341410559e+00
 1.4346930032e+00	 2.1013325910e-01	-9.8037021566e+00
 1.4305084319e+00	 2.3695068306e-01	-1.8871125054e+01
 1.4257927842e+00	 2.6384642601e-01	-2.8523238793e+01
 1.4625000000e+00	 0.0000000000e+00	 3.5163710830e+01
 1.4622698200e+00	 2.5946551782e-02	 3.1596833632e+01
 1.4615726970e+00	 5.2072079803e-02	 2.7361890450e+01
 1.4603989361e+00	 7.8365792550e-02	 2.2460430017e+01
 1.4587391036e+00	 1.0481639963e-01	 1.6895721157e+01
 1.4565840538e+00	 1.3141211544e-01	 1.0672812488e+01
 1.4539249569e+00	 1.5814066442e-01	 3.7985870538e+00
 1.4507533262e+00	 1.8498928791e-01	-3.7181887493e+00
 1.4470610463e+00	 2.1194475271e-01	-1.1866822525e+01
 1.4428404012e+00	 2.3899336136e-01	-2.0634660112e+01
 1.4380841013e+00	 2.6612096416e-01	-3.0007057272e+01
 1.4750000000e+00	 0.0000000000e+00	 2.9711840830e+01
 1.4747678526e+00	 2.6168317182e-02	 2.6655978396e+01
 1.4740647713e+00	 5.2517140314e-02	 2.2904738273e+01
 1.4728809783e+00	 7.9035585648e-02	 1.8460202005e+01
 1.4712069592e+00	 1.0571226629e-01	 1.3326296240e+01
 1.4690334902e+00	 1.3253529592e-01	 7.5088556458e+00
 1.4663516659e+00	 1.5949229403e-01	 1.0156802705e+00
 1.4631529272e+00	 1.8657039294e-01	-6.1434132939e+00
 1.4594290895e+00	 2.1375624632e-01	-1.3956547585e+01
 1.4551723704e+00	 2.4103603966e-01	-2.2409747418e+01
 1.4503754184e+00	 2.6839550232e-01	-3.1486911109e+01
 1.4875000000e+00	 0.0000000000e+00	 2.4134482171e+01
 1.4872658853e+00	 2.6390082581e-02	 2.1600254179e+01
 1.4865568456e+00	 5.2962200824e-02	 1.8343872395e+01
 1.4853630205e+00	 7.9705378746e-02	 1.4367945723e+01
 1.4836748148e+00	 1.0660813296e-01	 9.6770518439e+00
 1.4814829266e+00	 1.3365847639e-01	 4.2778032962e+00
 1.4787783750e+00	 1.6084392364e-01	-1.8210924553e+00
 1.4755525283e+00	 1.8815149796e-01	-8.6087796494e+00
 1.4717971326e+00	 2.1556773994e-01	-1.6072208243e+01
 1.4675043396e+00	 2.4307871796e-01	-2.4196095981e+01
 1.4626667355e+00	 2.7067004047e-01	-3.2962899178e+01
 1.5000000000e+00	 0.0000000000e+00	 1.8434757908e+01
 1.4997639179e+00	 2.6611847981e-02	 1.6432520279e+01
 1.4990489200e+00	 5.3407261335e-02	 1.3681874923e+01
 1.4978450627e+00	 8.0375171844e-02	 1.0185952790e+01
 1.4961426704e+00	 1.0750399962e-01	 5.9499759667e+00
 1.4939323629e+00	 1.3478165686e-01	 9.8132688774e-01
 1.4912050840e+00	 1.6219555325e-01	-4.7103889149e+00
 1.4879521294e+00	 1.8973260298e-01	-1.1113287262e+01
 1.4841651757e+00	 2.1737923355e-01	-1.8213157703e+01
 1.4798363089e+00	 2.4512139627e-01	-2.5993424523e+01
 1.4749580526e+00	 2.7294457863e-01	-3.4435117088e+01
 1.3520448816e+00	 2.5019919707e-01	-1.9531084048e+01
 1.3470631137e+00	 2.7576433360e-01	-1.8029778309e+01
 1.3415653398e+00	 3.0137591004e-01	-1.6612579941e+01
 1.3355460646e+00	 3.2701943254e-01	-1.5288059973e+01
 1.3290002958e+00	 3.5268004430e-01	-1.4064621186e+01
 1.3219235675e+00	 3.7834254540e-01	-1.2950458023e+01
 1.3143119634e+00	 4.0399141433e-01	-1.1953516040e+01
 1.3061621391e+00	 4.2961083119e-01	-1.1081451170e+01
 1.2974713433e+00	 4.5518470244e-01	-1.0341589032e+01
 1.2882374373e+00	 4.8069668729e-01	-9.7408845664e+00
 1.2784589140e+00	 5.0613022563e-01	-9.2858822607e+00
 1.3643361987e+00	 2.5247373523e-01	-2.1040968726e+01
 1.3593091420e+00	 2.7827128209e-01	-1.9479570528e+01
 1.3537613883e+00	 3.0411569104e-01	-1.7961657174e+01
 1.3476873925e+00	 3.2999233647e-01	-1.6496388917e+01
 1.3410821167e+00	 3.5588622652e-01	-1.5092916830e+01
 1.3339410545e+00	 3.8178202308e-01	-1.3760345667e+01
 1.3262602540e+00	 4.0766406356e-01	-1.2507695576e+01
 1.3180363404e+00	 4.3351638421e-01	-1.1343862885e+01
 1.3092665373e+00	 4.5932274519e-01	-1.0277580150e+01
 1.2999486867e+00	 4.8506665718e-01	-9.3173757184e+00
 1.2900812677e+00	 5.1073140950e-01	-8.4715330258e+00
 1.3766275158e+00	 2.5474827338e-01	-2.2546218349e+01
 1.3715551703e+00	 2.8077823058e-01	-2.0933298831e+01
 1.3659574368e+00	 3.0685547204e-01	-1.9323997892e+01
 1.3598287203e+00	 3.3296524041e-01	-1.7728061968e+01
 1.3531639376e+00	 3.5909240874e-01	-1.6155385520e+01
 1.3459585415e+00	 3.8522150077e-01	-1.4615976793e+01
 1.3382085445e+00	 4.1133671278e-01	-1.3119921761e+01
 1.3299105417e+00	 4.3742193722e-01	-1.1677346397e+01
 1.3210617313e+00	 4.6346078794e-01	-1.0298377451e+01
 1.3116599361e+00	 4.8943662707e-01	-8.9931019156e+00
 1.3017036215e+00	 5.1533259338e-01	-7.7715254049e+00
 1.3889188329e+00	 2.5702281154e-01	-2.4046954670e+01
 1.3838011986e+00	 2.8328517906e-01	-2.2390855998e+01
 1.3781534854e+00	 3.0959525305e-01	-2.0699245874e+01
 1.3719700482e+00	 3.3593814434e-01	-1.8982453966e+01
 1.3652457584e+00	 3.6229859096e-01	-1.7251113343e+01
 1.3579760284e+00	 3.8866097846e-01	-1.5516129105e+01
 1.3501568351e+00	 4.1500936201e-01	-1.3788644514e+01
 1.3417847429e+00	 4.4132749023e-01	-1.2080004726e+01
 1.3328569254e+00	 4.6759883069e-01	-1.0401718275e+01
 1.3233711856e+00	 4.9380659695e-01	-8.7654164377e+00
 1.3133259753e+00	 5.1993377725e-01	-7.1828106709e+00
 1.4012101500e+00	 2.5929734969e-01	-2.5543295198e+01
 1.3960472269e+00	 2.8579212755e-01	-2.3852138612e+01
 1.3903495339e+00	 3.1233503405e-01	-2.2087057461e+01
 1.3841113761e+00	 3.3891104827e-01	-2.0258961763e+01
 1.3773275793e+00	 3.6550477318e-01	-1.8379218546e+01
 1.3699935154e+00	 3.9210045614e-01	-1.6459623303e+01
 1.3621051257e+00	 4.1868201123e-01	-1.4512368267e+01
 1.3536589442e+00	 4.4523304325e-01	-1.2550007596e+01
 1.3446521194e+00	 4.7173687344e-01	-1.0585419522e+01
 1.3350824350e+00	 4.9817656684e-01	-8.6317656111e+00
 1.3249483290e+00	 5.2453496112e-01	-6.7024472674e+00
 1.4135014671e+00	 2.6157188785e-01	-2.7035353384e+01
 1.4082932552e+00	 2.8829907604e-01	-2.5317046899e+01
 1.4025455825e+00	 3.1507481505e-01	-2.3487101005e+01
 1.3962527039e+00	 3.4188395221e-01	-2.1557003265e+01
 1.3894094002e+00	 3.6871095541e-01	-1.9538850140e+01
 1.3820110024e+00	 3.9553993383e-01	-1.7445321214e+01
 1.3740534163e+00	 4.2235466045e-01	-1.5289649603e+01
 1.3655331454e+00	 4.4913859626e-01	-1.3085588537e+01
 1.3564473134e+00	 4.7587491620e-01	-1.0847374180e+01
 1.3467936844e+00	 5.0254653673e-01	-8.5896847634e+00
 1.3365706828e+00	 5.2913614499e-01	-6.3275961478e+00
 1.4257927842e+00	 2.6384642601e-01	-2.8523238793e+01
 1.4205392835e+00	 2.9080602453e-01	-2.6785484568e+01
 1.4147416310e+00	 3.1781459605e-01	-2.4899056352e+01
 1.4083940318e+00	 3.4485685614e-01	-2.2876016526e+01
 1.4014912211e+00	 3.7191713763e-01	-2.0729186566e+01
 1.3940284894e+00	 3.9897941152e-01	-1.8472124021e+01
 1.3860017068e+00	 4.2602730967e-01	-1.6119094996e+01
 1.3774073467e+00	 4.5304414927e-01	-1.3685042131e+01
 1.3682425075e+00	 4.8001295895e-01	-1.1185548054e+01
 1.3585049339e+00	 5.0691650661e-01	-8.6367943865e+00
 1.3481930365e+00	 5.3373732887e-01	-6.0555163566e+00
 1.4380841013e+00	 2.6612096416e-01	-3.0007057272e+01
 1.4327853118e+00	 2.9331297302e-01	-2.8257358661e+01
 1.4269376796e+00	 3.2055437705e-01	-2.6322614353e+01
 1.4205353596e+00	 3.4782976007e-01	-2.4215458885e+01
 1.4135730419e+00	 3.7512331985e-01	-2.1949434449e+01
 1.4060459763e+00	 4.0241888921e-01	-1.9538970580e+01
 1.3979499974e+00	 4.2969995890e-01	-1.6999358691e+01
 1.3892815480e+00	 4.5694970228e-01	-1.4346721407e+01
 1.3800377015e+00	 4.8415100170e-01	-1.1597976651e+01
 1.3702161833e+00	 5.1128647650e-01	-8.7707964964e+00
 1.3598153903e+00	 5.3833851274e-01	-5.8835608368e+00
 1.4503754184e+00	 2.6839550232e-01	-3.1486911109e+01
 1.4450313402e+00	 2.9581992150e-01	-2.9732579416e+01
 1.4391337281e+00	 3.2329415805e-01	-2.7757476396e+01
 1.4326766875e+00	 3.5080266401e-01	-2.5574806148e+01
 1.4256548628e+00	 3.7832950207e-01	-2.3198827393e+01
 1.4180634633e+00	 4.0585836689e-01	-2.0644835823e+01
 1.4098982880e+00	 4.3337260812e-01	-1.7929140668e+01
 1.4011557492e+00	 4.6085525530e-01	-1.5069035361e+01
 1.3918328955e+00	 4.8828904445e-01	-1.2082762225e+01
 1.3819274327e+00	 5.1565644639e-01	-8.9894711787e+00
 1.3714377441e+00	 5.4293969661e-01	-5.8091724502e+00
 1.4626667355e+00	 2.7067004047e-01	-3.2962899178e+01
 1.4572773685e+00	 2.9832686999e-01	-3.1211060128e+01
 1.4513297766e+00	 3.2603393905e-01	-2.9203353963e+01
 1.4448180154e+00	 3.5377556794e-01	-2.6953551818e+01
 1.4377366837e+00	 3.8153568429e-01	-2.4476624853e+01
 1.4300809503e+00	 4.0929784458e-01	-2.1788729242e+01
 1.4218465786e+00	 4.3704525734e-01	-1.8907184730e+01
 1.4130299505e+00	 4.6476080831e-01	-1.5850446603e+01
 1.4036280896e+00	 4.9242708720e-01	-1.2638070973e+01
 1.3936386821e+00	 5.2002641627e-01	-9.2906733073e+00
 1.3830600978e+00	 5.4754088048e-01	-5.8298801993e+00
 1.4749580526e+00	 2.7294457863e-01	-3.4435117088e+01
 1.4695233968e+00	 3.0083381848e-01	-3.2692717025e+01
 1.4635258252e+00	 3.2877372005e-01	-3.0659968211e+01
 1.4569593432e+00	 3.5674847187e-01	-2.8351206349e+01
 1.4498185046e+00	 3.8474186652e-01	-2.5782111056e+01
 1.4420984373e+00	 4.1273732226e-01	-2.2969693451e+01
 1.4337948692e+00	 4.4071790656e-01	-1.9932276671e+01
 1.4249041518e+00	 4.6866636132e-01	-1.6689469128e+01
 1.4154232836e+00	 4.9656512995e-01	-1.3262130370e+01
 1.4053499316e+00	 5.2439638616e-01	-9.6723294282e+00
 1.3946824516e+00	 5.5214206435e-01	-5.9432956368e+00
 1.2784589140e+00	 5.0613022563e-01	-9.2858822607e+00
 1.2681349147e+00	 5.3146856729e-01	-1.2192114539e+01
 1.2572652451e+00	 5.5669480277e-01	-1.4785652363e+01
 1.2458503886e+00	 5.8179189513e-01	-1.7062699151e+01
 1.2338915188e+00	 6.0674271315e-01	-1.9020606940e+01
 1.2213905094e+00	 6.3153006544e-01	-2.0657914058e+01
 1.2083499428e+00	 6.5613673552e-01	-2.1974377506e+01
 1.1947731159e+00	 6.8054551769e-01	-2.2970999693e+01
 1.1806640439e+00	 7.0473925348e-01	-2.3650049173e+01
 1.1660274628e+00	 7.2870086873e-01	-2.4015075107e+01
 1.1508688279e+00	 7.5241341089e-01	-2.4070915179e+01
 1.2900812677e+00	 5.1073140950e-01	-8.4715330258e+00
 1.2796634140e+00	 5.3630009973e-01	-1.0972715737e+01
 1.2686949292e+00	 5.6175566461e-01	-1.3251471396e+01
 1.2571763012e+00	 5.8708091236e-01	-1.5302283290e+01
 1.2451087144e+00	 6.1225855600e-01	-1.7120422497e+01
 1.2324940595e+00	 6.3727124786e-01	-1.8701985917e+01
 1.2193349423e+00	 6.6210161494e-01	-2.0043930909e+01
 1.2056346896e+00	 6.8673229512e-01	-2.1144106229e+01
 1.1913973534e+00	 7.1114597397e-01	-2.2001278930e+01
 1.1766277124e+00	 7.3532542209e-01	-2.2615156966e+01
 1.1613312718e+00	 7.5925353281e-01	-2.2986407220e+01
 1.3017036215e+00	 5.1533259338e-01	-7.7715254049e+00
 1.2911919132e+00	 5.4113163216e-01	-9.8472989063e+00
 1.2801246132e+00	 5.6681652646e-01	-1.1789279250e+01
 1.2685022139e+00	 5.9236992959e-01	-1.3590250803e+01
 1.2563259100e+00	 6.1777439885e-01	-1.5243429291e+01
 1.2435976096e+00	 6.4301243028e-01	-1.6742500181e+01
 1.2303199418e+00	 6.6806649436e-01	-1.8081655570e+01
 1.2164962634e+00	 6.9291907256e-01	-1.9255629277e+01
 1.2021306629e+00	 7.1755269446e-01	-2.0259729858e+01
 1.1872279621e+00	 7.4194997544e-01	-2.1089871269e+01
 1.1717937157e+00	 7.6609365473e-01	-2.1742600902e+01
 1.3133259753e+00	 5.1993377725e-01	-7.1828106709e+00
 1.3027204124e+00	 5.4596316460e-01	-8.8133549413e+00
 1.2915542973e+00	 5.7187738831e-01	-1.0397149854e+01
 1.2798281265e+00	 5.9765894683e-01	-1.1925301505e+01
 1.2675431056e+00	 6.2329024170e-01	-1.3388995187e+01
 1.2547011597e+00	 6.4875361269e-01	-1.4779534135e+01
 1.2413049413e+00	 6.7403137378e-01	-1.6088378643e+01
 1.2273578372e+00	 6.9910585000e-01	-1.7307185284e+01
 1.2128639724e+00	 7.2395941495e-01	-1.8427845976e+01
 1.1978282118e+00	 7.4857452879e-01	-1.9442526628e+01
 1.1822561596e+00	 7.7293377665e-01	-2.0343705086e+01
 1.3249483290e+00	 5.2453496112e-01	-6.7024472674e+00
 1.3142489116e+00	 5.5079469703e-01	-7.8684629914e+00
 1.3029839813e+00	 5.7693825016e-01	-9.0732249532e+00
 1.2911540391e+00	 6.0294796406e-01	-1.0306181082e+01
 1.2787603013e+00	 6.2880608455e-01	-1.1556510498e+01
 1.2658047098e+00	 6.5449479511e-01	-1.2813162634e+01
 1.2522899408e+00	 6.7999625319e-01	-1.4064898561e+01
 1.2382194110e+00	 7.0529262743e-01	-1.5300334300e+01
 1.2235972819e+00	 7.3036613543e-01	-1.6507985885e+01
 1.2084284614e+00	 7.5519908215e-01	-1.7676315918e+01
 1.1927186035e+00	 7.7977389856e-01	-1.8793781328e+01
 1.3365706828e+00	 5.2913614499e-01	-6.3275961478e+00
 1.3257774109e+00	 5.5562622946e-01	-7.0102866220e+00
 1.3144136654e+00	 5.8199911200e-01	-7.8157111587e+00
 1.3024799517e+00	 6.0823698129e-01	-8.7316790957e+00
 1.2899774969e+00	 6.3432192740e-01	-9.7453870101e+00
 1.2769082598e+00	 6.6023597752e-01	-1.0843458216e+01
 1.2632749402e+00	 6.8596113261e-01	-1.2011986287e+01
 1.2490809848e+00	 7.1147940487e-01	-1.3236582429e+01
 1.2343305914e+00	 7.3677285592e-01	-1.4502426482e+01
 1.2190287111e+00	 7.6182363550e-01	-1.5794321306e+01
 1.2031810474e+00	 7.8661402048e-01	-1.7096750273e+01
 1.3481930365e+00	 5.3373732887e-01	-6.0555163566e+00
 1.3373059101e+00	 5.6045776189e-01	-6.2365701751e+00
 1.3258433494e+00	 5.8705997385e-01	-6.6228771485e+00
 1.3138058643e+00	 6.1352599852e-01	-7.2006270911e+00
 1.3011946925e+00	 6.3983777025e-01	-7.9550570515e+00
 1.2880118099e+00	 6.6597715994e-01	-8.8704911920e+00
 1.2742599397e+00	 6.9192601202e-01	-9.9303864937e+00
 1.2599425586e+00	 7.1766618230e-01	-1.1117384153e+01
 1.2450639009e+00	 7.4317957641e-01	-1.2413366475e+01
 1.2296289607e+00	 7.6844818885e-01	-1.3799519023e+01
 1.2136434913e+00	 7.9345414240e-01	-1.5256397736e+01
 1.3598153903e+00	 5.3833851274e-01	-5.8835608368e+00
 1.3488344093e+00	 5.6528929432e-01	-5.5451353169e+00
 1.3372730334e+00	 5.9212083569e-01	-5.4930510164e+00
 1.3251317770e+00	 6.1881501575e-01	-5.7118968024e+00
 1.3124118881e+00	 6.4535361310e-01	-6.1849726184e+00
 1.2991153600e+00	 6.7171834235e-01	-6.8943297469e+00
 1.2852449392e+00	 6.9789089144e-01	-7.8208186851e+00
 1.2708041323e+00	 7.2385295974e-01	-8.9441445336e+00
 1.2557972104e+00	 7.4958629690e-01	-1.0242929729e+01
 1.2402292104e+00	 7.7507274221e-01	-1.1694783886e+01
 1.2241059352e+00	 8.0029426432e-01	-1.3276380454e+01
 1.3714377441e+00	 5.4293969661e-01	-5.8091724502e+00
 1.3603629085e+00	 5.7012082675e-01	-4.9338777605e+00
 1.3487027175e+00	 5.9718169753e-01	-4.4246177523e+00
 1.3364576896e+00	 6.2410403298e-01	-4.2643984485e+00
 1.3236290838e+00	 6.5086945594e-01	-4.4346045375e+00
 1.3102189101e+00	 6.7745952476e-01	-4.9150400246e+00
 1.2962299387e+00	 7.0385577085e-01	-5.6839782639e+00
 1.2816657061e+00	 7.3003973717e-01	-6.7182213086e+00
 1.2665305199e+00	 7.5599301738e-01	-7.9931684320e+00
 1.2508294601e+00	 7.8169729556e-01	-9.4828935957e+00
 1.2345683791e+00	 8.0713438623e-01	-1.1160231559e+01
 1.3830600978e+00	 5.4754088048e-01	-5.8298801993e+00
 1.3718914078e+00	 5.7495235918e-01	-4.4007641539e+00
 1.3601324015e+00	 6.0224255938e-01	-3.4160168515e+00
 1.3477836022e+00	 6.2939305020e-01	-2.8570791148e+00
 1.3348462794e+00	 6.5638529879e-01	-2.7034416748e+00
 1.3213224602e+00	 6.8320070718e-01	-2.9326862137e+00
 1.3072149381e+00	 7.0982065027e-01	-3.5205375416e+00
 1.2925272799e+00	 7.3622651460e-01	-4.4409268767e+00
 1.2772638293e+00	 7.6239973787e-01	-5.6660661069e+00
 1.2614297097e+00	 7.8832184891e-01	-7.1665328166e+00
 1.2450308230e+00	 8.1397450815e-01	-8.9113657655e+00
 1.3946824516e+00	 5.5214206435e-01	-5.9432956368e+00
 1.3834199070e+00	 5.7978389161e-01	-3.9438291237e+00
 1.3715620856e+00	 6.0730342122e-01	-2.4657400424e+00
 1.3591095148e+00	 6.3468206743e-01	-1.4889212167e+00
 1.3460634750e+00	 6.6190114164e-01	-9.9099018241e-01
 1.3324260103e+00	 6.8894188959e-01	-9.4733062749e-01
 1.3181999376e+00	 7.1578552968e-01	-1.3311466992e+00
 1.3033888537e+00	 7.4241329204e-01	-2.1135301853e+00
 1.2879971388e+00	 7.6880645835e-01	-3.2635404689e+00
 1.2720299594e+00	 7.9494640226e-01	-4.7482970491e+00
 1.2554932668e+00	 8.2081463007e-01	-6.5330843065e+00
 1.1508688279e+00	 7.5241341089e-01	-2.4070915179e+01
 1.1351943120e+00	 7.7586008655e-01	-2.3506117703e+01
 1.1190107996e+00	 7.9902429902e-01	-2.3272250152e+01
 1.1023258795e+00	 8.2188968569e-01	-2.3357038194e+01
 1.0851478353e+00	 8.4444015516e-01	-2.3746969100e+01
 1.0674856329e+00	 8.6665992379e-01	-2.4427337751e+01
 1.0493489065e+00	 8.8853355166e-01	-2.5382299442e+01
 1.0307479413e+00	 9.1004597768e-01	-2.6594929182e+01
 1.0116936551e+00	 9.3118255368e-01	-2.8047287151e+01
 9.9219757688e-01	 9.5192907740e-01	-2.9720489925e+01
 9.7227182412e-01	 9.7227182412e-01	-3.1594787017e+01
 1.1613312718e+00	 7.5925353281e-01	-2.2986407220e+01
 1.1455142603e+00	 7.8291336007e-01	-2.2606394119e+01
 1.1291836250e+00	 8.0628815628e-01	-2.2485090306e+01
 1.1123470238e+00	 8.2936141010e-01	-2.2613623866e+01
 1.0950128156e+00	 8.5211688384e-01	-2.2982167902e+01
 1.0771900478e+00	 8.7453865036e-01	-2.3579973673e+01
 1.0588884420e+00	 8.9661112940e-01	-2.4395408955e+01
 1.0401183771e+00	 9.1831912293e-01	-2.5416001376e+01
 1.0208908701e+00	 9.3964784962e-01	-2.6628486522e+01
 1.0012175549e+00	 9.6058297811e-01	-2.8018860497e+01
 9.8111065889e-01	 9.8111065889e-01	-2.9572436610e+01
 1.1717937157e+00	 7.6609365473e-01	-2.1742600902e+01
 1.1558342086e+00	 7.8996663358e-01	-2.1574064635e+01
 1.1393564505e+00	 8.1355201354e-01	-2.1593264830e+01
 1.1223681682e+00	 8.3683313452e-01	-2.1794685271e+01
 1.1048777959e+00	 8.5979361252e-01	-2.2172134725e+01
 1.0868944626e+00	 8.8241737694e-01	-2.2718767369e+01
 1.0684279775e+00	 9.0468870714e-01	-2.3427106850e+01
 1.0494888130e+00	 9.2659226818e-01	-2.4289073859e+01
 1.0300880852e+00	 9.4811314557e-01	-2.5296017072e+01
 1.0102375328e+00	 9.6923687881e-01	-2.6438747251e+01
 9.8994949365e-01	 9.8994949365e-01	-2.7707574311e+01
 1.1822561596e+00	 7.7293377665e-01	-2.0343705086e+01
 1.1661541569e+00	 7.9701990710e-01	-2.0412628921e+01
 1.1495292759e+00	 8.2081587081e-01	-2.0599531096e+01
 1.1323893126e+00	 8.4430485893e-01	-2.0902205611e+01
 1.1147427762e+00	 8.6747034120e-01	-2.1318048064e+01
 1.0965988775e+00	 8.9029610352e-01	-2.1844063498e+01
 1.0779675130e+00	 9.1276628488e-01	-2.2476876328e+01
 1.0588592488e+00	 9.3486541343e-01	-2.3212742331e+01
 1.0392853002e+00	 9.5657844151e-01	-2.4047562601e+01
 1.0192575108e+00	 9.7789077951e-01	-2.4976899412e+01
 9.9878832842e-01	 9.9878832842e-01	-2.5995993877e+01
 1.1927186035e+00	 7.7977389856e-01	-1.8793781328e+01
 1.1764741052e+00	 8.0407318061e-01	-1.9125464240e+01
 1.1597021014e+00	 8.2807972807e-01	-1.9506550126e+01
 1.1424104569e+00	 8.5177658335e-01	-1.9938098918e+01
 1.1246077565e+00	 8.7514706988e-01	-2.0421045492e+01
 1.1063032923e+00	 8.9817483010e-01	-2.0956195070e+01
 1.0875070486e+00	 9.2084386262e-01	-2.1544219184e+01
 1.0682296846e+00	 9.4313855868e-01	-2.2185652234e+01
 1.0484825153e+00	 9.6504373745e-01	-2.2880888662e+01
 1.0282774888e+00	 9.8654468022e-01	-2.3630180767e+01
 1.0076271632e+00	 1.0076271632e+00	-2.4433637164e+01
 1.2031810474e+00	 7.8661402048e-01	-1.7096750273e+01
 1.1867940535e+00	 8.1112645412e-01	-1.7715830762e+01
 1.1698749268e+00	 8.3534358534e-01	-1.8316890782e+01
 1.1524316013e+00	 8.5924830776e-01	-1.8904213063e+01
 1.1344727369e+00	 8.8282379857e-01	-1.9482225441e+01
 1.1160077072e+00	 9.0605355668e-01	-2.0055483956e+01
 1.0970465841e+00	 9.2892144036e-01	-2.0628654995e+01
 1.0776001205e+00	 9.5141170393e-01	-2.1206496594e+01
 1.0576797303e+00	 9.7350903339e-01	-2.1793839010e+01
 1.0372974667e+00	 9.9519858092e-01	-2.2395564675e+01
 1.0164659980e+00	 1.0164659980e+00	-2.3016587680e+01
 1.2136434913e+00	 7.9345414240e-01	-1.5256397736e+01
 1.1971140018e+00	 8.1817972764e-01	-1.6186876615e+01
 1.1800477523e+00	 8.4260744260e-01	-1.7033033734e+01
 1.1624527456e+00	 8.6672003218e-01	-1.7802332599e+01
 1.1443377172e+00	 8.9050052725e-01	-1.8502648883e+01
 1.1257121220e+00	 9.1393228326e-01	-1.9142241355e+01
 1.1065861196e+00	 9.3699901811e-01	-1.9729720347e+01
 1.0869705563e+00	 9.5968484918e-01	-2.0274013962e+01
 1.0668769453e+00	 9.8197432933e-01	-2.0784332219e+01
 1.0463174447e+00	 1.0038524816e+00	-2.1270129348e+01
 1.0253048327e+00	 1.0253048327e+00	-2.1741064477e+01
 1.2241059352e+00	 8.0029426432e-01	-1.3276380454e+01
 1.2074339501e+00	 8.2523300115e-01	-1.4541642670e+01
 1.1902205777e+00	 8.4987129986e-01	-1.5657375229e+01
 1.1724738900e+00	 8.7419175659e-01	-1.6634181469e+01
 1.1542026975e+00	 8.9817725593e-01	-1.7483340934e+01
 1.1354165368e+00	 9.2181100984e-01	-1.8216768259e+01
 1.1161256551e+00	 9.4507659585e-01	-1.8846968112e+01
 1.0963409921e+00	 9.6795799444e-01	-1.9386986468e+01
 1.0760741604e+00	 9.9043962528e-01	-1.9850358492e+01
 1.0553374227e+00	 1.0125063823e+00	-2.0251053359e+01
 1.0341436675e+00	 1.0341436675e+00	-2.0603416357e+01
 1.2345683791e+00	 8.0713438623e-01	-1.1160231559e+01
 1.2177538984e+00	 8.3228627467e-01	-1.2783067079e+01
 1.2003934032e+00	 8.5713515713e-01	-1.4192230664e+01
 1.1824950344e+00	 8.8166348101e-01	-1.5401425570e+01
 1.1640676778e+00	 9.0585398462e-01	-1.6425292363e+01
 1.1451209517e+00	 9.2968973642e-01	-1.7279355872e+01
 1.1256651906e+00	 9.5315417359e-01	-1.7979966751e+01
 1.1057114279e+00	 9.7623113969e-01	-1.8544237971e+01
 1.0852713754e+00	 9.9890492122e-01	-1.8989976613e+01
 1.0643574007e+00	 1.0211602830e+00	-1.9335611396e+01
 1.0429825022e+00	 1.0429825022e+00	-1.9600116371e+01
 1.2450308230e+00	 8.1397450815e-01	-8.9113657655e+00
 1.2280738467e+00	 8.3933954818e-01	-1.0913989595e+01
 1.2105662286e+00	 8.6439901439e-01	-1.2639837980e+01
 1.1925161787e+00	 8.8913520543e-01	-1.4105675193e+01
 1.1739326581e+00	 9.1353071330e-01	-1.5329461042e+01
 1.1548253665e+00	 9.3756846300e-01	-1.6330286028e+01
 1.1352047261e+00	 9.6123175134e-01	-1.7128299658e+01
 1.1150818638e+00	 9.8450428494e-01	-1.7744632302e+01
 1.0944685905e+00	 1.0073702172e+00	-1.8201311071e+01
 1.0733773786e+00	 1.0298141837e+00	-1.8521170210e+01
 1.0518213370e+00	 1.0518213370e+00	-1.8727756593e+01
 1.2554932668e+00	 8.2081463007e-01	-6.5330843065e+00
 1.2383937950e+00	 8.4639282170e-01	-8.9371556669e+00
 1.2207390541e+00	 8.7166287166e-01	-1.1002360891e+01
 1.2025373231e+00	 8.9660692984e-01	-1.2748487333e+01
 1.1837976385e+00	 9.2120744199e-01	-1.4196773306e+01
 1.1645297814e+00	 9.4544718958e-01	-1.5369831573e+01
 1.1447442616e+00	 9.6930932908e-01	-1.6291564532e+01
 1.1244522996e+00	 9.9277743019e-01	-1.6987071599e+01
 1.1036658055e+00	 1.0158355131e+00	-1.7482549314e+01
 1.0823973566e+00	 1.0384680844e+00	-1.7805184786e+01
 1.0606601718e+00	 1.0606601718e+00	-1.7983043159e+01
 9.7227182412e-01	 9.7227182412e-01	-3.1594787017e+01
 9.5192907740e-01	 9.9219757688e-01	-3.2813413621e+01
 9.3118255368e-01	 1.0116936551e+00	-3.3813181926e+01
 9.1004597768e-01	 1.0307479413e+00	-3.4625121583e+01
 8.8853355166e-01	 1.0493489065e+00	-3.5281006855e+01
 8.6665992379e-01	 1.0674856329e+00	-3.5813217460e+01
 8.4444015516e-01	 1.0851478353e+00	-3.6254596663e+01
 8.2188968569e-01	 1.1023258795e+00	-3.6638307608e+01
 7.9902429902e-01	 1.1190107996e+00	-3.6997688859e+01
 7.7586008655e-01	 1.1351943120e+00	-3.7366110127e+01
 7.5241341089e-01	 1.1508688279e+00	-3.7776829146e+01
 9.8111065889e-01	 9.8111065889e-01	-2.9572436610e+01
 9.6058297811e-01	 1.0012175549e+00	-3.0803091886e+01
 9.3964784962e-01	 1.0208908701e+00	-3.1882688429e+01
 9.1831912293e-01	 1.0401183771e+00	-3.2835942888e+01
 8.9661112940e-01	 1.0588884420e+00	-3.3688109911e+01
 8.7453865036e-01	 1.0771900478e+00	-3.4464871390e+01
 8.5211688384e-01	 1.0950128156e+00	-3.5192223776e+01
 8.2936141010e-01	 1.1123470238e+00	-3.5896364227e+01
 8.0628815628e-01	 1.1291836250e+00	-3.6603576365e+01
 7.8291336007e-01	 1.1455142603e+00	-3.7340116426e+01
 7.5925353281e-01	 1.1613312718e+00	-3.8132100538e+01
 9.8994949365e-01	 9.8994949365e-01	-2.7707574311e+01
 9.6923687881e-01	 1.0102375328e+00	-2.8906500190e+01
 9.4811314557e-01	 1.0300880852e+00	-3.0021066475e+01
 9.2659226818e-01	 1.0494888130e+00	-3.1069764240e+01
 9.0468870714e-01	 1.0684279775e+00	-3.2071418378e+01
 8.8241737694e-01	 1.0868944626e+00	-3.3045104924e+01
 8.5979361252e-01	 1.1048777959e+00	-3.4010067245e+01
 8.3683313452e-01	 1.1223681682e+00	-3.4985631668e+01
 8.1355201354e-01	 1.1393564505e+00	-3.5991123112e+01
 7.8996663358e-01	 1.1558342086e+00	-3.7045781300e+01
 7.6609365473e-01	 1.1717937157e+00	-3.8168678100e+01
 9.9878832842e-01	 9.9878832842e-01	-2.5995993877e+01
 9.7789077951e-01	 1.0192575108e+00	-2.7120593546e+01
 9.5657844151e-01	 1.0392853002e+00	-2.8226461537e+01
 9.3486541343e-01	 1.0588592488e+00	-2.9325948458e+01
 9.1276628488e-01	 1.0779675130e+00	-3.0431536917e+01
 8.9029610352e-01	 1.0965988775e+00	-3.1555786614e+01
 8.6747034120e-01	 1.1147427762e+00	-3.2711279075e+01
 8.4430485893e-01	 1.1323893126e+00	-3.3910562426e+01
 8.2081587081e-01	 1.1495292759e+00	-3.5166096561e+01
 7.9701990710e-01	 1.1661541569e+00	-3.6490199080e+01
 7.7293377665e-01	 1.1822561596e+00	-3.7894992349e+01
 1.0076271632e+00	 1.0076271632e+00	-2.4433637164e+01
 9.8654468022e-01	 1.0282774888e+00	-2.5442434327e+01
 9.6504373745e-01	 1.0484825153e+00	-2.6497084688e+01
 9.4313855868e-01	 1.0682296846e+00	-2.7603881252e+01
 9.2084386262e-01	 1.0875070486e+00	-2.8769049516e+01
 8.9817483010e-01	 1.1063032923e+00	-2.9998720002e+01
 8.7514706988e-01	 1.1246077565e+00	-3.1298901237e+01
 8.5177658335e-01	 1.1424104569e+00	-3.2675453337e+01
 8.2807972807e-01	 1.1597021014e+00	-3.4134062382e+01
 8.0407318061e-01	 1.1764741052e+00	-3.5680215752e+01
 7.7977389856e-01	 1.1927186035e+00	-3.7319178572e+01
 1.0164659980e+00	 1.0164659980e+00	-2.3016587680e+01
 9.9519858092e-01	 1.0372974667e+00	-2.3869187594e+01
 9.7350903339e-01	 1.0576797303e+00	-2.4831209745e+01
 9.5141170393e-01	 1.0776001205e+00	-2.5902970234e+01
 9.2892144036e-01	 1.0970465841e+00	-2.7084520388e+01
 9.0605355668e-01	 1.1160077072e+00	-2.8375646445e+01
 8.8282379857e-01	 1.1344727369e+00	-2.9775870449e+01
 8.5924830776e-01	 1.1524316013e+00	-3.1284452340e+01
 8.3534358534e-01	 1.1698749268e+00	-3.2900393218e+01
 8.1112645412e-01	 1.1867940535e+00	-3.4622439745e+01
 7.8661402048e-01	 1.2031810474e+00	-3.6449089665e+01
 1.0253048327e+00	 1.0253048327e+00	-2.1741064477e+01
 1.0038524816e+00	 1.0463174447e+00	-2.2398116670e+01
 9.8197432933e-01	 1.0668769453e+00	-2.3227170562e+01
 9.5968484918e-01	 1.0869705563e+00	-2.4222643962e+01
 9.3699901811e-01	 1.1065861196e+00	-2.5378494824e+01
 9.1393228326e-01	 1.1257121220e+00	-2.6688247790e+01
 8.9050052725e-01	 1.1443377172e+00	-2.8145022703e+01
 8.6672003218e-01	 1.1624527456e+00	-2.9741564892e+01
 8.4260744260e-01	 1.1800477523e+00	-3.1470277003e+01
 8.1817972764e-01	 1.1971140018e+00	-3.3323252175e+01
 7.9345414240e-01	 1.2136434913e+00	-3.5292308297e+01
 1.0341436675e+00	 1.0341436675e+00	-2.0603416357e+01
 1.0125063823e+00	 1.0553374227e+00	-2.1026578935e+01
 9.9043962528e-01	 1.0760741604e+00	-2.1683358461e+01
 9.6795799444e-01	 1.0963409921e+00	-2.2562351044e+01
 9.4507659585e-01	 1.1161256551e+00	-2.3651499992e+01
 9.2181100984e-01	 1.1354165368e+00	-2.4938148916e+01
 8.9817725593e-01	 1.1542026975e+00	-2.6409097576e+01
 8.7419175659e-01	 1.1724738900e+00	-2.8050660053e+01
 8.4987129986e-01	 1.1902205777e+00	-2.9848724858e+01
 8.2523300115e-01	 1.2074339501e+00	-3.1788816551e+01
 8.0029426432e-01	 1.2241059352e+00	-3.3856158454e+01
 1.0429825022e+00	 1.0429825022e+00	-1.9600116371e+01
 1.0211602830e+00	 1.0643574007e+00	-1.9752021837e+01
 9.9890492122e-01	 1.0852713754e+00	-2.0198219792e+01
 9.7623113969e-01	 1.1057114279e+00	-2.0921559289e+01
 9.5315417359e-01	 1.1256651906e+00	-2.1904045705e+01
 9.2968973642e-01	 1.1451209517e+00	-2.3126920141e+01
 9.0585398462e-01	 1.1640676778e+00	-2.4570742301e+01
 8.8166348101e-01	 1.1824950344e+00	-2.6215476263e+01
 8.5713515713e-01	 1.2003934032e+00	-2.8040578568e+01
 8.3228627467e-01	 1.2177538984e+00	-3.0025087991e+01
 8.0713438623e-01	 1.2345683791e+00	-3.2147716400e+01
 1.0518213370e+00	 1.0518213370e+00	-1.8727756593e+01
 1.0298141837e+00	 1.0733773786e+00	-1.8571979107e+01
 1.0073702172e+00	 1.0944685905e+00	-1.8770253621e+01
 9.8450428494e-01	 1.1150818638e+00	-1.9299754891e+01
 9.6123175134e-01	 1.1352047261e+00	-2.0136625148e+01
 9.3756846300e-01	 1.1548253665e+00	-2.1256079517e+01
 9.1353071330e-01	 1.1739326581e+00	-2.2632515652e+01
 8.8913520543e-01	 1.1925161787e+00	-2.4239626828e+01
 8.6439901439e-01	 1.2105662286e+00	-2.6050517706e+01
 8.3933954818e-01	 1.2280738467e+00	-2.8037821979e+01
 8.1397450815e-01	 1.2450308230e+00	-3.0173821079e+01
 1.0606601718e+00	 1.0606601718e+00	-1.7983043159e+01
 1.0384680844e+00	 1.0823973566e+00	-1.7484067157e+01
 1.0158355131e+00	 1.1036658055e+00	-1.7398009528e+01
 9.9277743019e-01	 1.1244522996e+00	-1.7696441664e+01
 9.6930932908e-01	 1.1447442616e+00	-1.8349715563e+01
 9.4544718958e-01	 1.1645297814e+00	-1.9327094996e+01
 9.2120744199e-01	 1.1837976385e+00	-2.0596891622e+01
 8.9660692984e-01	 1.2025373231e+00	-2.2126605126e+01
 8.7166287166e-01	 1.2207390541e+00	-2.3883066380e+01
 8.4639282170e-01	 1.2383937950e+00	-2.5832582675e+01
 8.2081463007e-01	 1.2554932668e+00	-2.7941084004e+01
 7.5241341089e-01	 1.1508688279e+00	-3.7776829146e+01
 7.2870086873e-01	 1.1660274628e+00	-3.8823581414e+01
 7.0473925348e-01	 1.1806640439e+00	-4.0897624945e+01
 6.8054551769e-01	 1.1947731159e+00	-4.3942042820e+01
 6.5613673552e-01	 1.2083499428e+00	-4.7897420300e+01
 6.3153006544e-01	 1.2213905094e+00	-5.2702130312e+01
 6.0674271315e-01	 1.2338915188e+00	-5.8292624427e+01
 5.8179189513e-01	 1.2458503886e+00	-6.4603727338e+01
 5.5669480277e-01	 1.2572652451e+00	-7.1568932826e+01
 5.3146856729e-01	 1.2681349147e+00	-7.9120699286e+01
 5.0613022563e-01	 1.2784589140e+00	-8.7190742933e+01
 7.5925353281e-01	 1.1613312718e+00	-3.8132100538e+01
 7.3532542209e-01	 1.1766277124e+00	-3.9023063037e+01
 7.1114597397e-01	 1.1913973534e+00	-4.0905842219e+01
 6.8673229512e-01	 1.2056346896e+00	-4.3730054547e+01
 6.6210161494e-01	 1.2193349423e+00	-4.7442788783e+01
 6.3727124786e-01	 1.2324940595e+00	-5.1988865448e+01
 6.1225855600e-01	 1.2451087144e+00	-5.7311102620e+01
 5.8708091236e-01	 1.2571763012e+00	-6.3350586214e+01
 5.6175566461e-01	 1.2686949292e+00	-7.0046942885e+01
 5.3630009973e-01	 1.2796634140e+00	-7.7338613713e+01
 5.1073140950e-01	 1.2900812677e+00	-8.5163126932e+01
 7.6609365473e-01	 1.1717937157e+00	-3.8168678100e+01
 7.4194997544e-01	 1.1872279621e+00	-3.8950525833e+01
 7.1755269446e-01	 1.2021306629e+00	-4.0689041893e+01
 6.9291907256e-01	 1.2164962634e+00	-4.3340285434e+01
 6.6806649436e-01	 1.2303199418e+00	-4.6857758510e+01
 6.4301243028e-01	 1.2435976096e+00	-5.1192639813e+01
 6.1777439885e-01	 1.2563259100e+00	-5.6294025585e+01
 5.9236992959e-01	 1.2685022139e+00	-6.2109175999e+01
 5.6681652646e-01	 1.2801246132e+00	-6.8583765252e+01
 5.4113163216e-01	 1.2911919132e+00	-7.5662133693e+01
 5.1533259338e-01	 1.3017036215e+00	-8.3287540297e+01
 7.7293377665e-01	 1.1822561596e+00	-3.7894992349e+01
 7.4857452879e-01	 1.1978282118e+00	-3.8613160533e+01
 7.2395941495e-01	 1.2128639724e+00	-4.0253166226e+01
 6.9910585000e-01	 1.2273578372e+00	-4.2777422992e+01
 6.7403137378e-01	 1.2413049413e+00	-4.6145758361e+01
 6.4875361269e-01	 1.2547011597e+00	-5.0315622146e+01
 6.2329024170e-01	 1.2675431056e+00	-5.5242302763e+01
 5.9765894683e-01	 1.2798281265e+00	-6.0879149975e+01
 5.7187738831e-01	 1.2915542973e+00	-6.7177802468e+01
 5.4596316460e-01	 1.3027204124e+00	-7.4088418650e+01
 5.1993377725e-01	 1.3133259753e+00	-8.1559909124e+01
 7.7977389856e-01	 1.1927186035e+00	-3.7319178572e+01
 7.5519908215e-01	 1.2084284614e+00	-3.8017906142e+01
 7.3036613543e-01	 1.2235972819e+00	-3.9603949561e+01
 7.0529262743e-01	 1.2382194110e+00	-4.2045990842e+01
 6.7999625319e-01	 1.2522899408e+00	-4.5310097489e+01
 6.5449479511e-01	 1.2658047098e+00	-4.9359905678e+01
 6.2880608455e-01	 1.2787603013e+00	-5.4156812264e+01
 6.0294796406e-01	 1.2911540391e+00	-5.9660174174e+01
 5.7693825016e-01	 1.3029839813e+00	-6.5827513703e+01
 5.5079469703e-01	 1.3142489116e+00	-7.2614728253e+01
 5.2453496112e-01	 1.3249483290e+00	-7.9976303023e+01
 7.8661402048e-01	 1.2031810474e+00	-3.6449089665e+01
 7.6182363550e-01	 1.2190287111e+00	-3.7171460885e+01
 7.3677285592e-01	 1.2343305914e+00	-3.8746927362e+01
 7.1147940487e-01	 1.2490809848e+00	-4.1150355841e+01
 6.8596113261e-01	 1.2632749402e+00	-4.4353970526e+01
 6.6023597752e-01	 1.2769082598e+00	-4.8327511407e+01
 6.3432192740e-01	 1.2899774969e+00	-5.3038402233e+01
 6.0823698129e-01	 1.3024799517e+00	-5.8451926812e+01
 5.8199911200e-01	 1.3144136654e+00	-6.4531412288e+01
 5.5562622946e-01	 1.3257774109e+00	-7.1238418049e+01
 5.2913614499e-01	 1.3365706828e+00	-7.8532928870e+01
 7.9345414240e-01	 1.2136434913e+00	-3.5292308297e+01
 7.6844818885e-01	 1.2296289607e+00	-3.6080292579e+01
 7.4317957641e-01	 1.2450639009e+00	-3.7687444782e+01
 7.1766618230e-01	 1.2599425586e+00	-4.0094734833e+01
 6.9192601202e-01	 1.2742599397e+00	-4.3280462511e+01
 6.6597715994e-01	 1.2880118099e+00	-4.7220391211e+01
 6.3983777025e-01	 1.3011946925e+00	-5.1887892135e+01
 6.1352599852e-01	 1.3138058643e+00	-5.7254097769e+01
 5.8705997385e-01	 1.3258433494e+00	-6.3288063380e+01
 5.6045776189e-01	 1.3373059101e+00	-6.9956935330e+01
 5.3373732887e-01	 1.3481930365e+00	-7.7226124891e+01
 8.0029426432e-01	 1.2241059352e+00	-3.3856158454e+01
 7.7507274221e-01	 1.2402292104e+00	-3.4750648477e+01
 7.4958629690e-01	 1.2557972104e+00	-3.6430664797e+01
 7.2385295974e-01	 1.2708041323e+00	-3.8883201057e+01
 6.9789089144e-01	 1.2852449392e+00	-4.2092553575e+01
 6.7171834235e-01	 1.2991153600e+00	-4.6040430795e+01
 6.4535361310e-01	 1.3124118881e+00	-5.0706073977e+01
 6.1881501575e-01	 1.3251317770e+00	-5.6066388082e+01
 5.9212083569e-01	 1.3372730334e+00	-6.2096081744e+01
 5.6528929432e-01	 1.3488344093e+00	-6.8767815209e+01
 5.3833851274e-01	 1.3598153903e+00	-7.6052355043e+01
 8.0713438623e-01	 1.2345683791e+00	-3.2147716400e+01
 7.8169729556e-01	 1.2508294601e+00	-3.3188564610e+01
 7.5599301738e-01	 1.2665305199e+00	-3.4981575914e+01
 7.3003973717e-01	 1.2816657061e+00	-3.7519690229e+01
 7.0385577085e-01	 1.2962299387e+00	-4.0793123378e+01
 6.7745952476e-01	 1.3102189101e+00	-4.4789452497e+01
 6.5086945594e-01	 1.3236290838e+00	-4.9493713470e+01
 6.2410403298e-01	 1.3364576896e+00	-5.4888509470e+01
 5.9718169753e-01	 1.3487027175e+00	-6.0954129646e+01
 5.7012082675e-01	 1.3603629085e+00	-6.7668676896e+01
 5.4293969661e-01	 1.3714377441e+00	-7.5008203685e+01
 8.1397450815e-01	 1.2450308230e+00	-3.0173821079e+01
 7.8832184891e-01	 1.2614297097e+00	-3.1399874661e+01
 7.6239973787e-01	 1.2772638293e+00	-3.3344999506e+01
 7.3622651460e-01	 1.2925272799e+00	-3.6008006317e+01
 7.0982065027e-01	 1.3072149381e+00	-3.9384955331e+01
 6.8320070718e-01	 1.3213224602e+00	-4.3469217942e+01
 6.5638529879e-01	 1.3348462794e+00	-4.8251551126e+01
 6.2939305020e-01	 1.3477836022e+00	-5.3720183885e+01
 6.0224255938e-01	 1.3601324015e+00	-5.9860914855e+01
 5.7495235918e-01	 1.3718914078e+00	-6.6657220159e+01
 5.4754088048e-01	 1.3830600978e+00	-7.4090370516e+01
 8.2081463007e-01	 1.2554932668e+00	-2.7941084004e+01
 7.9494640226e-01	 1.2720299594e+00	-2.9390218388e+01
 7.6880645835e-01	 1.2879971388e+00	-3.1525596768e+01
 7.4241329204e-01	 1.3033888537e+00	-3.4351827025e+01
 7.1578552968e-01	 1.3181999376e+00	-3.7870740600e+01
 6.8894188959e-01	 1.3324260103e+00	-4.2081430571e+01
 6.6190114164e-01	 1.3460634750e+00	-4.6980303314e+01
 6.3468206743e-01	 1.3591095148e+00	-5.2561143077e+01
 6.0730342122e-01	 1.3715620856e+00	-5.8815188745e+01
 5.7978389161e-01	 1.3834199070e+00	-6.5731221967e+01
 5.5214206435e-01	 1.3946824516e+00	-7.3295665767e+01
 5.0613022563e-01	 1.2784589140e+00	-8.7190742933e+01
 4.8069668729e-01	 1.2882374373e+00	-6.9238022010e+01
 4.5518470244e-01	 1.2974713433e+00	-5.1385470542e+01
 4.2961083119e-01	 1.3061621391e+00	-3.3693246075e+01
 4.0399141433e-01	 1.3143119634e+00	-1.6219839077e+01
 3.7834254540e-01	 1.3219235675e+00	 9.7809803113e-01
 3.5268004430e-01	 1.3290002958e+00	 1.7845907673e+01
 3.2701943254e-01	 1.3355460646e+00	 3.4331069328e+01
 3.0137591004e-01	 1.3415653398e+00	 5.0383326850e+01
 2.7576433360e-01	 1.3470631137e+00	 6.5954800722e+01
 2.5019919707e-01	 1.3520448816e+00	 8.1000085212e+01
 5.1073140950e-01	 1.2900812677e+00	-8.5163126932e+01
 4.8506665718e-01	 1.2999486867e+00	-6.7759117536e+01
 4.5932274519e-01	 1.3092665373e+00	-5.0377890751e+01
 4.3351638421e-01	 1.3180363404e+00	-3.3081907077e+01
 4.0766406356e-01	 1.3262602540e+00	-1.5932178592e+01
 3.8178202308e-01	 1.3339410545e+00	 1.0119193046e+00
 3.5588622652e-01	 1.3410821167e+00	 1.7692822387e+01
 3.2999233647e-01	 1.3476873925e+00	 3.4054937780e+01
 3.0411569104e-01	 1.3537613883e+00	 5.0044789410e+01
 2.7827128209e-01	 1.3593091420e+00	 6.5611148427e+01
 2.5247373523e-01	 1.3643361987e+00	 8.0705148434e+01
 5.1533259338e-01	 1.3017036215e+00	-8.3287540297e+01
 4.8943662707e-01	 1.3116599361e+00	-6.6439367698e+01
 4.6346078794e-01	 1.3210617313e+00	-4.9537994543e+01
 4.3742193722e-01	 1.3299105417e+00	-3.2648150839e+01
 4.1133671278e-01	 1.3382085445e+00	-1.5833334231e+01
 3.8522150077e-01	 1.3459585415e+00	 8.4439534948e-01
 3.5909240874e-01	 1.3531639376e+00	 1.7324607677e+01
 3.3296524041e-01	 1.3598287203e+00	 3.3548680193e+01
 3.0685547204e-01	 1.3659574368e+00	 4.9459961380e+01
 2.8077823058e-01	 1.3715551703e+00	 6.5003919149e+01
 2.5474827338e-01	 1.3766275158e+00	 8.0128273961e+01
 5.1993377725e-01	 1.3133259753e+00	-8.1559909124e+01
 4.9380659695e-01	 1.3233711856e+00	-6.5274508570e+01
 4.6759883069e-01	 1.3328569254e+00	-4.8861290686e+01
 4.4132749023e-01	 1.3417847429e+00	-3.2387222425e+01
 4.1500936201e-01	 1.3501568351e+00	-1.5918251917e+01
 3.8866097846e-01	 1.3579760284e+00	 4.8091379196e-01
 3.6229859096e-01	 1.3652457584e+00	 1.6747018054e+01
 3.3593814434e-01	 1.3719700482e+00	 3.2818450158e+01
 3.0959525305e-01	 1.3781534854e+00	 4.8635426441e+01
 2.8328517906e-01	 1.3838011986e+00	 6.4140156451e+01
 2.5702281154e-01	 1.3889188329e+00	 7.9276993756e+01
 5.2453496112e-01	 1.3249483290e+00	-7.9976303023e+01
 4.9817656684e-01	 1.3350824350e+00	-6.4260426396e+01
 4.7173687344e-01	 1.3446521194e+00	-4.8343446084e+01
 4.4523304325e-01	 1.3536589442e+00	-3.2294534281e+01
 4.1868201123e-01	 1.3621051257e+00	-1.6182055449e+01
 3.9210045614e-01	 1.3699935154e+00	-7.3327306623e-02
 3.6550477318e-01	 1.3773275793e+00	 1.5965605600e+01
 3.3891104827e-01	 1.3841113761e+00	 3.1870184844e+01
 3.1233503405e-01	 1.3903495339e+00	 4.7577536779e+01
 2.8579212755e-01	 1.3960472269e+00	 6.3026656278e+01
 2.5929734969e-01	 1.4012101500e+00	 7.8158575045e+01
 5.2913614499e-01	 1.3365706828e+00	-7.8532928870e+01
 5.0254653673e-01	 1.3467936844e+00	-6.3393151064e+01
 4.7587491620e-01	 1.3564473134e+00	-4.7980278906e+01
 4.4913859626e-01	 1.3655331454e+00	-3.2365658962e+01
 4.2235466045e-01	 1.3740534163e+00	-1.6620038756e+01
 3.9553993383e-01	 1.3820110024e+00	-8.1331120543e-01
 3.6871095541e-01	 1.3894094002e+00	 1.4985728772e+01
 3.4188395221e-01	 1.3962527039e+00	 3.0709614417e+01
 3.1507481505e-01	 1.4025455825e+00	 4.6292423152e+01
 2.8829907604e-01	 1.4082932552e+00	 6.1669977722e+01
 2.6157188785e-01	 1.4135014671e+00	 7.6780031822e+01
 5.3373732887e-01	 1.3481930365e+00	-7.7226124891e+01
 5.0691650661e-01	 1.3585049339e+00	-6.2668849904e+01
 4.8001295895e-01	 1.3682425075e+00	-4.7767752058e+01
 4.5304414927e-01	 1.3774073467e+00	-3.2596322219e+01
 4.2602730967e-01	 1.3860017068e+00	-1.7227658572e+01
 3.9897941152e-01	 1.3940284894e+00	-1.7341946661e+00
 3.7191713763e-01	 1.4014912211e+00	 1.3812560756e+01
 3.4485685614e-01	 1.4083940318e+00	 2.9342270961e+01
 3.1781459605e-01	 1.4147416310e+00	 4.4786004435e+01
 2.9080602453e-01	 1.4205392835e+00	 6.0076453236e+01
 2.6384642601e-01	 1.4257927842e+00	 7.5148135769e+01
 5.3833851274e-01	 1.3598153903e+00	-7.6052355043e+01
 5.1128647650e-01	 1.3702161833e+00	-6.2083821815e+01
 4.8415100170e-01	 1.3800377015e+00	-4.7701966999e+01
 4.5694970228e-01	 1.3892815480e+00	-3.2982396457e+01
 4.2969995890e-01	 1.3979499974e+00	-1.8000527467e+01
 4.0241888921e-01	 1.4060459763e+00	-2.8313005358e+00
 3.7512331985e-01	 1.4135730419e+00	 1.2451097380e+01
 3.4782976007e-01	 1.4205353596e+00	 2.7773496946e+01
 3.2055437705e-01	 1.4269376796e+00	 4.3063996675e+01
 2.9331297302e-01	 1.4327853118e+00	 5.8252198320e+01
 2.6612096416e-01	 1.4380841013e+00	 7.3269426616e+01
 5.4293969661e-01	 1.3714377441e+00	-7.5008203685e+01
 5.1565644639e-01	 1.3819274327e+00	-6.1634491689e+01
 4.8828904445e-01	 1.3918328955e+00	-4.7779157863e+01
 4.6085525530e-01	 1.4011557492e+00	-3.3519894513e+01
 4.3337260812e-01	 1.4098982880e+00	-1.8934407245e+01
 4.0585836689e-01	 1.4180634633e+00	-4.1001107072e+00
 3.7832950207e-01	 1.4256548628e+00	 1.0906164633e+01
 3.5080266401e-01	 1.4326766875e+00	 2.6008453263e+01
 3.2329415805e-01	 1.4391337281e+00	 4.1131921692e+01
 2.9581992150e-01	 1.4450313402e+00	 5.6203120719e+01
 2.6839550232e-01	 1.4503754184e+00	 7.1150221963e+01
 5.4754088048e-01	 1.3830600978e+00	-7.4090370516e+01
 5.2002641627e-01	 1.3936386821e+00	-6.1317405110e+01
 4.9242708720e-01	 1.4036280896e+00	-4.7995685885e+01
 4.6476080831e-01	 1.4130299505e+00	-3.4204963757e+01
 4.3704525734e-01	 1.4218465786e+00	-2.0025202672e+01
 4.0929784458e-01	 1.4300809503e+00	-5.5362594337e+00
 3.8153568429e-01	 1.4377366837e+00	 9.1824258062e+00
 3.5377556794e-01	 1.4448180154e+00	 2.4052126858e+01
 3.2603393905e-01	 1.4513297766e+00	 3.8995115238e+01
 2.9832686999e-01	 1.4572773685e+00	 5.3934929146e+01
 2.7067004047e-01	 1.4626667355e+00	 6.8796626622e+01
 5.5214206435e-01	 1.3946824516e+00	-7.3295665767e+01
 5.2439638616e-01	 1.4053499316e+00	-6.1129223328e+01
 4.9656512995e-01	 1.4154232836e+00	-4.8348034101e+01
 4.6866636132e-01	 1.4249041518e+00	-3.5033880480e+01
 4.4071790656e-01	 1.4337948692e+00	-2.1268955515e+01
 4.1273732226e-01	 1.4420984373e+00	-7.1355269784e+00
 3.8474186652e-01	 1.4498185046e+00	 7.2843882717e+00
 3.5674847187e-01	 1.4569593432e+00	 2.1909337979e+01
 3.2877372005e-01	 1.4635258252e+00	 3.6658734754e+01
 3.0083381848e-01	 1.4695233968e+00	 5.1453141587e+01
 2.7294457863e-01	 1.4749580526e+00	 6.6214541483e+01
 2.5019919707e-01	 1.3520448816e+00	 8.1000085212e+01
 2.2469461325e-01	 1.3565166165e+00	 6.7295511305e+01
 1.9926429742e-01	 1.3604847444e+00	 5.4244604081e+01
 1.7392155274e-01	 1.3639561186e+00	 4.1843606008e+01
 1.4867925715e-01	 1.3669379937e+00	 3.0086939474e+01
 1.2354985213e-01	 1.3694379993e+00	 1.8967310752e+01
 9.8545332989e-02	 1.3714641145e+00	 8.4758167141e+00
 7.3677240862e-02	 1.3730246408e+00	-1.3979464783e+00
 4.8956656228e-02	 1.3741281766e+00	-1.0665773428e+01
 2.4394193985e-02	 1.3747835914e+00	-1.9340739020e+01
 0.0000000000e+00	 1.3750000000e+00	-2.7437088062e+01
 2.5247373523e-01	 1.3643361987e+00	 8.0705148434e+01
 2.2673729155e-01	 1.3688485857e+00	 6.7427138482e+01
 2.0107579104e-01	 1.3728527875e+00	 5.4641651070e+01
 1.7550265777e-01	 1.3763557197e+00	 4.2357751280e+01
 1.5003088676e-01	 1.3793647027e+00	 3.0582697947e+01
 1.2467303260e-01	 1.3818874357e+00	 1.9321998960e+01
 9.9441199652e-02	 1.3839319701e+00	 8.5794717375e+00
 7.4347033960e-02	 1.3855066830e+00	-1.6426917459e+00
 4.9401716739e-02	 1.3866202510e+00	-1.1343855993e+01
 2.4615959384e-02	 1.3872816241e+00	-2.0524869707e+01
 0.0000000000e+00	 1.3875000000e+00	-2.9187990784e+01
 2.5474827338e-01	 1.3766275158e+00	 8.0128273961e+01
 2.2877996985e-01	 1.3811805550e+00	 6.7360455672e+01
 2.0288728465e-01	 1.3852208307e+00	 5.4926174928e+01
 1.7708376279e-01	 1.3887553208e+00	 4.2847141443e+01
 1.5138251637e-01	 1.3917914117e+00	 3.1143273102e+01
 1.2579621308e-01	 1.3943368721e+00	 1.9832703129e+01
 1.0033706631e-01	 1.3963998257e+00	 8.9317948355e+00
 7.5016827059e-02	 1.3979887252e+00	-1.5448365399e+00
 4.9846777249e-02	 1.3991123253e+00	-1.1584295400e+01
 2.4837724784e-02	 1.3997796567e+00	-2.1175371296e+01
 0.0000000000e+00	 1.4000000000e+00	-3.0308498895e+01
 2.5702281154e-01	 1.3889188329e+00	 7.9276993756e+01
 2.3082264815e-01	 1.3935125242e+00	 6.7100775583e+01
 2.0469877826e-01	 1.3975888738e+00	 5.5101211782e+01
 1.7866486781e-01	 1.4011549218e+00	 4.3312483437e+01
 1.5273414598e-01	 1.4042181208e+00	 3.1766994792e+01
 1.2691939355e-01	 1.4067863084e+00	 2.0495332806e+01
 1.0123293298e-01	 1.4088676813e+00	 9.5262366644e+00
 7.5686620157e-02	 1.4104707673e+00	-1.1134231046e+00
 5.0291837760e-02	 1.4116043996e+00	-1.1398656292e+01
 2.5059490184e-02	 1.4122776894e+00	-2.1306355896e+01
 0.0000000000e+00	 1.4125000000e+00	-3.0815292690e+01
 2.5929734969e-01	 1.4012101500e+00	 7.8158575045e+01
 2.3286532645e-01	 1.4058444934e+00	 6.6653224067e+01
 2.0651027187e-01	 1.4099569169e+00	 5.5169690796e+01
 1.8024597284e-01	 1.4135545229e+00	 4.3754458982e+01
 1.5408577559e-01	 1.4166448298e+00	 3.2452251078e+01
 1.2804257402e-01	 1.4192357448e+00	 2.1305940687e+01
 1.0212879964e-01	 1.4213355368e+00	 1.0356477322e+01
 7.6356413255e-02	 1.4229528095e+00	-3.5717675319e-01
 5.0736898271e-02	 1.4240964740e+00	-1.0798097856e+01
 2.5281255583e-02	 1.4247757220e+00	-2.0931440753e+01
 0.0000000000e+00	 1.4250000000e+00	-3.0724467474e+01
 2.6157188785e-01	 1.4135014671e+00	 7.6780031822e+01
 2.3490800476e-01	 1.4181764627e+00	 6.6022748246e+01
 2.0832176549e-01	 1.4223249601e+00	 5.5134438826e+01
 1.8182707786e-01	 1.4259541240e+00	 4.4173725677e+01
 1.5543740520e-01	 1.4290715388e+00	 3.3197485692e+01
 1.2916575450e-01	 1.4316851811e+00	 2.2260716390e+01
 1.0302466630e-01	 1.4338033924e+00	 1.1416416373e+01
 7.7026206353e-02	 1.4354348517e+00	 7.1548035299e-01
 5.1181958781e-02	 1.4365885483e+00	-9.7933914494e+00
 2.5503020983e-02	 1.4372737547e+00	-2.0063769770e+01
 0.0000000000e+00	 1.4375000000e+00	-3.0051558989e+01
 2.6384642601e-01	 1.4257927842e+00	 7.5148135769e+01
 2.3695068306e-01	 1.4305084319e+00	 6.5214124213e+01
 2.1013325910e-01	 1.4346930032e+00	 5.4998184831e+01
 1.8340818289e-01	 1.4383537251e+00	 4.4570918041e+01
 1.5678903481e-01	 1.4414982479e+00	 3.4001195648e+01
 1.3028893497e-01	 1.4441346175e+00	 2.3355980553e+01
 1.0392053297e-01	 1.4462712480e+00	 1.2700163390e+01
 7.7695999451e-02	 1.4479168939e+00	 2.0964161383e+00
 5.1627019292e-02	 1.4490806226e+00	-8.3949373211e+00
 2.5724786382e-02	 1.4497717873e+00	-1.8716033903e+01
 0.0000000000e+00	 1.4500000000e+00	-2.8811567539e+01
 2.6612096416e-01	 1.4380841013e+00	 7.3269426616e+01
 2.3899336136e-01	 1.4428404012e+00	 6.4231964346e+01
 2.1194475271e-01	 1.4470610463e+00	 5.4763564053e+01
 1.8498928791e-01	 1.4507533262e+00	 4.4946648500e+01
 1.5814066442e-01	 1.4539249569e+00	 3.4861928955e+01
 1.3141211544e-01	 1.4565840538e+00	 2.4588179241e+01
 1.0481639963e-01	 1.4587391036e+00	 1.4202028977e+01
 7.8365792550e-02	 1.4603989361e+00	 3.7777762165e+00
 5.2072079803e-02	 1.4615726970e+00	-6.6127804654e+00
 2.5946551782e-02	 1.4622698200e+00	-1.6900490525e+01
 0.0000000000e+00	 1.4625000000e+00	-2.7018980867e+01
 2.6839550232e-01	 1.4503754184e+00	 7.1150221963e+01
 2.4103603966e-01	 1.4551723704e+00	 6.3080724247e+01
 2.1375624632e-01	 1.4594290895e+00	 5.4433121997e+01
 1.8657039294e-01	 1.4631529272e+00	 4.5301508325e+01
 1.5949229403e-01	 1.4663516659e+00	 3.5778282468e+01
 1.3253529592e-01	 1.4690334902e+00	 2.5953878628e+01
 1.0571226629e-01	 1.4712069592e+00	 1.5916516257e+01
 7.9035585648e-02	 1.4728809783e+00	 5.7519721244e+00
 5.2517140314e-02	 1.4740647713e+00	-4.4566256777e+00
 2.6168317182e-02	 1.4747678526e+00	-1.4628981792e+01
 0.0000000000e+00	 1.4750000000e+00	-2.4687795878e+01
 2.7067004047e-01	 1.4626667355e+00	 6.8796626622e+01
 2.4307871796e-01	 1.4675043396e+00	 6.1764709328e+01
 2.1556773994e-01	 1.4717971326e+00	 5.4009318195e+01
 1.8815149796e-01	 1.4755525283e+00	 4.5636068521e+01
 1.6084392364e-01	 1.4787783750e+00	 3.6748899829e+01
 1.3365847639e-01	 1.4814829266e+00	 2.7449759951e+01
 1.0660813296e-01	 1.4836748148e+00	 1.7838312778e+01
 7.9705378746e-02	 1.4853630205e+00	 8.0116701495e+00
 5.2962200824e-02	 1.4865568456e+00	-1.9358518472e+00
 2.6390082581e-02	 1.4872658853e+00	-1.1912952092e+01
 0.0000000000e+00	 1.4875000000e+00	-2.1831539260e+01
 2.7294457863e-01	 1.4749580526e+00	 6.6214541483e+01
 2.4512139627e-01	 1.4798363089e+00	 6.0288081072e+01
 2.1737923355e-01	 1.4841651757e+00	 5.3494529797e+01
 1.8973260298e-01	 1.4879521294e+00	 4.5950880673e+01
 1.6219555325e-01	 1.4912050840e+00	 3.7772469520e+01
 1.3478165686e-01	 1.4939323629e+00	 2.9072614718e+01
 1.0750399962e-01	 1.4961426704e+00	 1.9962282832e+01
 8.0375171844e-02	 1.4978450627e+00	 1.0549780716e+01
 5.3407261335e-02	 1.4990489200e+00	 9.4047446361e-01
 2.6611847981e-02	 1.4997639179e+00	-8.7634646188e+00
 0.0000000000e+00	 1.5000000000e+00	-1.8463287077e+01
 1.5000000000e+00	 0.0000000000e+00	 1.8434757908e+01
 1.4997639179e+00	 2.6611847981e-02	 1.6432520279e+01
 1.4990489200e+00	 5.3407261335e-02	 1.3681874923e+01
 1.4978450627e+00	 8.0375171844e-02	 1.0185952790e+01
 1.4961426704e+00	 1.0750399962e-01	 5.9499759667e+00
 1.4939323629e+00	 1.3478165686e-01	 9.8132688774e-01
 1.4912050840e+00	 1.6219555325e-01	-4.7103889149e+00
 1.4879521294e+00	 1.8973260298e-01	-1.1113287262e+01
 1.4841651757e+00	 2.1737923355e-01	-1.8213157703e+01
 1.4798363089e+00	 2.4512139627e-01	-2.5993424523e+01
 1.4749580526e+00	 2.7294457863e-01	-3.4435117088e+01
 1.5125000000e+00	 0.0000000000e+00	 2.0174273091e+01
 1.5122619506e+00	 2.6833613381e-02	 1.7410767629e+01
 1.5115409943e+00	 5.3852321846e-02	 1.4105521377e+01
 1.5103271049e+00	 8.1044964942e-02	 1.0253283673e+01
 1.5086105259e+00	 1.0839986628e-01	 5.8498902237e+00
 1.5063817993e+00	 1.3590483734e-01	 8.9232134216e-01
 1.5036317930e+00	 1.6354718286e-01	-4.6212419862e+00
 1.5003517305e+00	 1.9131370801e-01	-1.0691364660e+01
 1.4965332189e+00	 2.1919072716e-01	-1.7317307083e+01
 1.4921682781e+00	 2.4716407457e-01	-2.4496978315e+01
 1.4872493697e+00	 2.7521911678e-01	-3.2226893198e+01
 1.5250000000e+00	 0.0000000000e+00	 2.2648104979e+01
 1.5247599832e+00	 2.7055378780e-02	 1.9015149493e+01
 1.5240330686e+00	 5.4297382357e-02	 1.5043239718e+01
 1.5228091470e+00	 8.1714758041e-02	 1.0718830974e+01
 1.5210783815e+00	 1.0929573294e-01	 6.0284714733e+00
 1.5188312356e+00	 1.3702801781e-01	 9.5884974768e-01
 1.5160585021e+00	 1.6489881247e-01	-4.5031558590e+00
 1.5127513316e+00	 1.9289481303e-01	-1.0370425777e+01
 1.5089012620e+00	 2.2100222078e-01	-1.6655546059e+01
 1.5045002474e+00	 2.4920675287e-01	-2.3370753688e+01
 1.4995406868e+00	 2.7749365494e-01	-3.0527880572e+01
 1.5375000000e+00	 0.0000000000e+00	 2.5838329863e+01
 1.5372580159e+00	 2.7277144180e-02	 2.1230382419e+01
 1.5365251430e+00	 5.4742442867e-02	 1.6482481349e+01
 1.5352911892e+00	 8.2384551139e-02	 1.1572873412e+01
 1.5335462371e+00	 1.1019159961e-01	 6.4789158027e+00
 1.5312806720e+00	 1.3815119828e-01	 1.1771129137e+00
 1.5284852111e+00	 1.6625044208e-01	-4.3568406204e+00
 1.5251509326e+00	 1.9447591806e-01	-1.0148010475e+01
 1.5212693051e+00	 2.2281371439e-01	-1.6222166684e+01
 1.5168322166e+00	 2.5124943117e-01	-2.2605721132e+01
 1.5118320039e+00	 2.7976819309e-01	-2.9325658493e+01
 1.5500000000e+00	 0.0000000000e+00	 2.9727602310e+01
 1.5497560485e+00	 2.7498909579e-02	 2.4041676048e+01
 1.5490172173e+00	 5.5187503378e-02	 1.8411102537e+01
 1.5477732314e+00	 8.3054344237e-02	 1.2806003360e+01
 1.5460140927e+00	 1.1108746627e-01	 7.1946388298e+00
 1.5437301084e+00	 1.3927437876e-01	 1.5434342419e+00
 1.5409119201e+00	 1.6760207169e-01	-4.1829834259e+00
 1.5375505337e+00	 1.9605702308e-01	-1.0021737960e+01
 1.5336373482e+00	 2.2462520800e-01	-1.6011645138e+01
 1.5291641859e+00	 2.5329210948e-01	-2.2193142426e+01
 1.5241233210e+00	 2.8204273125e-01	-2.8608206940e+01
 1.5625000000e+00	 0.0000000000e+00	 3.4299132027e+01
 1.5622540812e+00	 2.7720674979e-02	 2.7434713396e+01
 1.5615092916e+00	 5.5632563889e-02	 2.0817348221e+01
 1.5602552736e+00	 8.3724137335e-02	 1.4409114293e+01
 1.5584819483e+00	 1.1198333293e-01	 8.1692669214e+00
 1.5561795447e+00	 1.4039755923e-01	 2.0542548224e+00
 1.5533386292e+00	 1.6895370130e-01	-3.9822494167e+00
 1.5499501348e+00	 1.9763812811e-01	-9.9893036125e+00
 1.5460053914e+00	 2.2643670161e-01	-1.6018634363e+01
 1.5414961551e+00	 2.5533478778e-01	-2.2124558986e+01
 1.5364146382e+00	 2.8431726940e-01	-2.8363890555e+01
 1.5750000000e+00	 0.0000000000e+00	 3.9536661838e+01
 1.5747521138e+00	 2.7942440379e-02	 3.1395632064e+01
 1.5740013660e+00	 5.6077624400e-02	 2.3689836584e+01
 1.5727373158e+00	 8.4393930433e-02	 1.6373388841e+01
 1.5709498039e+00	 1.1287919960e-01	 9.3966288301e+00
 1.5686289811e+00	 1.4152073970e-01	 2.7061287634e+00
 1.5657653382e+00	 1.7030533091e-01	-3.7552825936e+00
 1.5623497359e+00	 1.9921923313e-01	-1.0048475960e+01
 1.5583734345e+00	 2.2824819523e-01	-1.6237957051e+01
 1.5538281243e+00	 2.5737746608e-01	-2.2391780765e+01
 1.5487059553e+00	 2.8659180756e-01	-2.8581443387e+01
 1.5875000000e+00	 0.0000000000e+00	 4.5424446691e+01
 1.5872501465e+00	 2.8164205778e-02	 3.5911006343e+01
 1.5864934403e+00	 5.6522684910e-02	 2.7017544360e+01
 1.5852193580e+00	 8.5063723532e-02	 1.8690287406e+01
 1.5834176595e+00	 1.1377506626e-01	 1.0870747726e+01
 1.5810784174e+00	 1.4264392017e-01	 3.4957187417e+00
 1.5781920472e+00	 1.7165696052e-01	-3.5027066490e+00
 1.5747493369e+00	 2.0080033816e-01	-1.0197093804e+01
 1.5707414776e+00	 2.3005968884e-01	-1.6664598956e+01
 1.5661600936e+00	 2.5942014438e-01	-2.2986875686e+01
 1.5609972724e+00	 2.8886634572e-01	-2.9249954345e+01
 1.6000000000e+00	 0.0000000000e+00	 5.1947233654e+01
 1.5997481791e+00	 2.8385971178e-02	 4.0967830155e+01
 1.5989855146e+00	 5.6967745421e-02	 3.0789792832e+01
 1.5977014002e+00	 8.5733516630e-02	 2.1351537310e+01
 1.5958855151e+00	 1.1467093292e-01	 1.2585833604e+01
 1.5935278538e+00	 1.4376710065e-01	 4.4197917611e+00
 1.5906187563e+00	 1.7300859013e-01	-3.2251257611e+00
 1.5871489380e+00	 2.0238144318e-01	-1.0433063467e+01
 1.5831095208e+00	 2.3187118245e-01	-1.7293702530e+01
 1.5784920628e+00	 2.6146282268e-01	-2.3902159563e+01
 1.5732885895e+00	 2.9114088387e-01	-3.0358853333e+01
 1.6125000000e+00	 0.0000000000e+00	 5.9090242840e+01
 1.6122462118e+00	 2.8607736578e-02	 4.6553500791e+01
 1.6114775890e+00	 5.7412805932e-02	 3.4996234469e+01
 1.6101834424e+00	 8.6403309728e-02	 2.4349122449e+01
 1.6083533706e+00	 1.1556679958e-01	 1.4536276038e+01
 1.6059772901e+00	 1.4489028112e-01	 5.4752151092e+00
 1.6030454653e+00	 1.7436021974e-01	-2.9231253497e+00
 1.5995485391e+00	 2.0396254820e-01	-1.0754356184e+01
 1.5954775639e+00	 2.3368267606e-01	-1.8120560847e+01
 1.5908240321e+00	 2.6350550099e-01	-2.5130186490e+01
 1.5855799066e+00	 2.9341542203e-01	-3.1897898038e+01
 1.6250000000e+00	 0.0000000000e+00	 6.6839149216e+01
 1.6247442444e+00	 2.8829501977e-02	 5.2655803392e+01
 1.6239696633e+00	 5.7857866443e-02	 3.9626840196e+01
 1.6226654846e+00	 8.7073102826e-02	 2.7675273426e+01
 1.6208212262e+00	 1.1646266625e-01	 1.6716637279e+01
 1.6184267265e+00	 1.4601346159e-01	 6.6589524995e+00
 1.6154721743e+00	 1.7571184935e-01	-2.5972727983e+00
 1.6119481402e+00	 2.0554365323e-01	-1.1159005600e+01
 1.6078456070e+00	 2.3549416968e-01	-1.9140611809e+01
 1.6031560013e+00	 2.6554817929e-01	-2.6663739681e+01
 1.5978712237e+00	 2.9568996018e-01	-3.3857161322e+01
 1.4749580526e+00	 2.7294457863e-01	-3.4435117088e+01
 1.4695233968e+00	 3.0083381848e-01	-3.2692717025e+01
 1.4635258252e+00	 3.2877372005e-01	-3.0659968211e+01
 1.4569593432e+00	 3.5674847187e-01	-2.8351206349e+01
 1.4498185046e+00	 3.8474186652e-01	-2.5782111056e+01
 1.4420984373e+00	 4.1273732226e-01	-2.2969693451e+01
 1.4337948692e+00	 4.4071790656e-01	-1.9932276671e+01
 1.4249041518e+00	 4.6866636132e-01	-1.6689469128e+01
 1.4154232836e+00	 4.9656512995e-01	-1.3262130370e+01
 1.4053499316e+00	 5.2439638616e-01	-9.6723294282e+00
 1.3946824516e+00	 5.5214206435e-01	-5.9432956368e+00
 1.4872493697e+00	 2.7521911678e-01	-3.2226893198e+01
 1.4817694251e+00	 3.0334076697e-01	-3.0060412773e+01
 1.4757218737e+00	 3.3151350105e-01	-2.7791550515e+01
 1.4691006711e+00	 3.5972137580e-01	-2.5426623658e+01
 1.4619003254e+00	 3.8794804874e-01	-2.2972406845e+01
 1.4541159243e+00	 4.1617679995e-01	-2.0436123545e+01
 1.4457431597e+00	 4.4439055579e-01	-1.7825435020e+01
 1.4367783530e+00	 4.7257191433e-01	-1.5148426797e+01
 1.4272184776e+00	 5.0070317270e-01	-1.2413592638e+01
 1.4170611810e+00	 5.2876635604e-01	-9.6298159733e+00
 1.4063048054e+00	 5.5674324821e-01	-6.8063488435e+00
 1.4995406868e+00	 2.7749365494e-01	-3.0527880572e+01
 1.4940154534e+00	 3.0584771545e-01	-2.7854954397e+01
 1.4879179223e+00	 3.3425328206e-01	-2.5264345042e+01
 1.4812419989e+00	 3.6269427974e-01	-2.2754440700e+01
 1.4739821463e+00	 3.9115423096e-01	-2.0323210332e+01
 1.4661334112e+00	 4.1961627764e-01	-1.7968198902e+01
 1.4576914503e+00	 4.4806320501e-01	-1.5686524732e+01
 1.4486525543e+00	 4.7647746734e-01	-1.3474879091e+01
 1.4390136716e+00	 5.0484121545e-01	-1.1329528111e+01
 1.4287724304e+00	 5.3313632592e-01	-9.2463171114e+00
 1.4179271591e+00	 5.6134443208e-01	-7.2206774084e+00
 1.5118320039e+00	 2.7976819309e-01	-2.9325658493e+01
 1.5062614817e+00	 3.0835466394e-01	-2.6065928929e+01
 1.5001139708e+00	 3.3699306306e-01	-2.3070026338e+01
 1.4933833268e+00	 3.6566718367e-01	-2.0328497122e+01
 1.4860639672e+00	 3.9436041318e-01	-1.7830601429e+01
 1.4781508982e+00	 4.2305575532e-01	-1.5564312198e+01
 1.4696397409e+00	 4.5173585423e-01	-1.3516320850e+01
 1.4605267556e+00	 4.8038302035e-01	-1.1672049877e+01
 1.4508088657e+00	 5.0897925820e-01	-1.0015672571e+01
 1.4404836799e+00	 5.3750629581e-01	-8.5301400301e+00
 1.4295495129e+00	 5.6594561595e-01	-7.1972155954e+00
 1.5241233210e+00	 2.8204273125e-01	-2.8608206940e+01
 1.5185075100e+00	 3.1086161243e-01	-2.4683259343e+01
 1.5123100194e+00	 3.3973284406e-01	-2.1200537569e+01
 1.5055246547e+00	 3.6864008760e-01	-1.8142831363e+01
 1.4981457880e+00	 3.9756659540e-01	-1.5490786587e+01
 1.4901683852e+00	 4.2649523301e-01	-1.3222908062e+01
 1.4815880315e+00	 4.5540850345e-01	-1.1315573529e+01
 1.4724009568e+00	 4.8428857336e-01	-9.7430591571e+00
 1.4626040597e+00	 5.1311730095e-01	-8.4775769195e+00
 1.4521949293e+00	 5.4187626569e-01	-7.4893241040e+00
 1.4411718666e+00	 5.7054679982e-01	-6.7465451261e+00
 1.5364146382e+00	 2.8431726940e-01	-2.8363890555e+01
 1.5307535383e+00	 3.1336856092e-01	-2.3697191118e+01
 1.5245060679e+00	 3.4247262506e-01	-1.9648079773e+01
 1.5176659825e+00	 3.7161299154e-01	-1.6191672701e+01
 1.5102276089e+00	 4.0077277763e-01	-1.3300093736e+01
 1.5021858722e+00	 4.2993471070e-01	-1.0942480989e+01
 1.4935363220e+00	 4.5908115267e-01	-9.0850090332e+00
 1.4842751581e+00	 4.8819412638e-01	-7.6909272204e+00
 1.4743992537e+00	 5.1725534370e-01	-6.7206145738e+00
 1.4639061787e+00	 5.4624623558e-01	-6.1316516061e+00
 1.4527942204e+00	 5.7514798369e-01	-5.8789092807e+00
 1.5487059553e+00	 2.8659180756e-01	-2.8581443387e+01
 1.5429995666e+00	 3.1587550940e-01	-2.3098279442e+01
 1.5367021165e+00	 3.4521240606e-01	-1.8405101629e+01
 1.5298073104e+00	 3.7458589547e-01	-1.4469433680e+01
 1.5223094298e+00	 4.0397895985e-01	-1.1254967462e+01
 1.5142033592e+00	 4.3337418838e-01	-8.7215733690e+00
 1.5054846126e+00	 4.6275380190e-01	-6.8253306837e+00
 1.4961493594e+00	 4.9209967939e-01	-5.5185786022e+00
 1.4861944478e+00	 5.2139338645e-01	-4.7499885077e+00
 1.4756174282e+00	 5.5061620546e-01	-4.4646579100e+00
 1.4644165742e+00	 5.7974916756e-01	-4.6042263275e+00
 1.5609972724e+00	 2.8886634572e-01	-2.9249954345e+01
 1.5552455949e+00	 3.1838245789e-01	-2.2877377015e+01
 1.5488981650e+00	 3.4795218706e-01	-1.7464289706e+01
 1.5419486383e+00	 3.7755879940e-01	-1.2970702895e+01
 1.5343912507e+00	 4.0718514207e-01	-9.3519644132e+00
 1.5262208461e+00	 4.3681366607e-01	-6.5587735963e+00
 1.5174329032e+00	 4.6642645112e-01	-4.5372197601e+00
 1.5080235606e+00	 4.9600523240e-01	-3.2288458521e+00
 1.4979896418e+00	 5.2553142920e-01	-2.5707379626e+00
 1.4873286776e+00	 5.5498617535e-01	-2.4956412099e+00
 1.4760389279e+00	 5.8435035143e-01	-2.9321023186e+00
 1.5732885895e+00	 2.9114088387e-01	-3.0358853333e+01
 1.5674916232e+00	 3.2088940638e-01	-2.3025622433e+01
 1.5610942135e+00	 3.5069196806e-01	-1.6818559172e+01
 1.5540899661e+00	 3.8053170334e-01	-1.1690238115e+01
 1.5464730715e+00	 4.1039132429e-01	-7.5877489270e+00
 1.5382383331e+00	 4.4025314375e-01	-4.4527142737e+00
 1.5293811938e+00	 4.7009910034e-01	-2.2213363628e+00
 1.5198977619e+00	 4.9991078541e-01	-8.2447312672e-01
 1.5097848358e+00	 5.2966947195e-01	-1.8774484257e-01
 1.4990399270e+00	 5.5935614523e-01	-2.3167178505e-01
 1.4876612817e+00	 5.8895153530e-01	-8.7184328457e-01
 1.5855799066e+00	 2.9341542203e-01	-3.1897898038e+01
 1.5797376515e+00	 3.2339635487e-01	-2.3534429103e+01
 1.5732902621e+00	 3.5343174906e-01	-1.6461044934e+01
 1.5662312940e+00	 3.8350460727e-01	-1.0622959725e+01
 1.5585548924e+00	 4.1359750651e-01	-5.9590888515e+00
 1.5502558201e+00	 4.4369262144e-01	-2.4020704991e+00
 1.5413294843e+00	 4.7377174956e-01	 1.2167976732e-01
 1.5317719632e+00	 5.0381633842e-01	 1.6918803837e+00
 1.5215800299e+00	 5.3380751470e-01	 2.3942601875e+00
 1.5107511764e+00	 5.6372611512e-01	 2.3203991669e+00
 1.4992836355e+00	 5.9355271917e-01	 1.5675331367e+00
 1.5978712237e+00	 2.9568996018e-01	-3.3857161322e+01
 1.5919836798e+00	 3.2590330336e-01	-2.4395474674e+01
 1.5854863106e+00	 3.5617153006e-01	-1.6385093184e+01
 1.5783726218e+00	 3.8647751120e-01	-9.7639444754e+00
 1.5706367133e+00	 4.1680368873e-01	-4.4628515661e+00
 1.5622733071e+00	 4.4713209913e-01	-4.0555823069e-01
 1.5532777749e+00	 4.7744439878e-01	 2.4912084652e+00
 1.5436461644e+00	 5.0772189143e-01	 4.3176371881e+00
 1.5333752239e+00	 5.3794555745e-01	 5.1706918854e+00
 1.5224624259e+00	 5.6809608500e-01	 5.1539311041e+00
 1.5109059892e+00	 5.9815390303e-01	 4.3772866088e+00
 1.3946824516e+00	 5.5214206435e-01	-5.9432956368e+00
 1.3834199070e+00	 5.7978389161e-01	-3.9438291237e+00
 1.3715620856e+00	 6.0730342122e-01	-2.4657400424e+00
 1.3591095148e+00	 6.3468206743e-01	-1.4889212167e+00
 1.3460634750e+00	 6.6190114164e-01	-9.9099018241e-01
 1.3324260103e+00	 6.8894188959e-01	-9.4733062749e-01
 1.3181999376e+00	 7.1578552968e-01	-1.3311466992e+00
 1.3033888537e+00	 7.4241329204e-01	-2.1135301853e+00
 1.2879971388e+00	 7.6880645835e-01	-3.2635404689e+00
 1.2720299594e+00	 7.9494640226e-01	-4.7482970491e+00
 1.2554932668e+00	 8.2081463007e-01	-6.5330843065e+00
 1.4063048054e+00	 5.5674324821e-01	-6.8063488435e+00
 1.3949484062e+00	 5.8461542404e-01	-5.4115053847e+00
 1.3829917696e+00	 6.1236428306e-01	-4.3548735009e+00
 1.3704354275e+00	 6.3997108466e-01	-3.6247695438e+00
 1.3572806706e+00	 6.6741698448e-01	-3.2080445047e+00
 1.3435295603e+00	 6.9468307200e-01	-3.0901057753e+00
 1.3291849371e+00	 7.2175040909e-01	-3.2549471123e+00
 1.3142504274e+00	 7.4860006947e-01	-3.6851868406e+00
 1.2987304483e+00	 7.7521317884e-01	-4.3621142603e+00
 1.2826302090e+00	 8.0157095562e-01	-5.2657441564e+00
 1.2659557107e+00	 8.2765475199e-01	-6.3748792344e+00
 1.4179271591e+00	 5.6134443208e-01	-7.2206774084e+00
 1.4064769054e+00	 5.8944695647e-01	-6.5021526056e+00
 1.3944214537e+00	 6.1742514490e-01	-5.9417030655e+00
 1.3817613401e+00	 6.4526010189e-01	-5.5359669205e+00
 1.3684978662e+00	 6.7293282733e-01	-5.2809177865e+00
 1.3546331104e+00	 7.0042425441e-01	-5.1718670363e+00
 1.3401699366e+00	 7.2771528851e-01	-5.2034696615e+00
 1.3251120012e+00	 7.5478684690e-01	-5.3697337831e+00
 1.3094637578e+00	 7.8161989933e-01	-5.6640338434e+00
 1.2932304587e+00	 8.0819550897e-01	-6.0791274802e+00
 1.2764181546e+00	 8.3449487391e-01	-6.6071760551e+00
 1.4295495129e+00	 5.6594561595e-01	-7.1972155954e+00
 1.4180054047e+00	 5.9427848890e-01	-7.2249557110e+00
 1.4058511377e+00	 6.2248600675e-01	-7.2335904719e+00
 1.3930872527e+00	 6.5054911911e-01	-7.2279805238e+00
 1.3797150619e+00	 6.7844867017e-01	-7.2131139770e+00
 1.3657366605e+00	 7.0616543683e-01	-7.1940893806e+00
 1.3511549360e+00	 7.3368016792e-01	-7.1760977150e+00
 1.3359735750e+00	 7.6097362433e-01	-7.1644034893e+00
 1.3201970673e+00	 7.8802661981e-01	-7.1643250407e+00
 1.3038307084e+00	 8.1482006232e-01	-7.1812141427e+00
 1.2868805985e+00	 8.4133499582e-01	-7.2204350348e+00
 1.4411718666e+00	 5.7054679982e-01	-6.7465451261e+00
 1.4295339039e+00	 5.9911002133e-01	-7.5888035285e+00
 1.4172808218e+00	 6.2754686859e-01	-8.2376601869e+00
 1.4044131653e+00	 6.5583813634e-01	-8.7061013917e+00
 1.3909322575e+00	 6.8396451302e-01	-9.0080242313e+00
 1.3768402106e+00	 7.1190661924e-01	-9.1582004501e+00
 1.3621399355e+00	 7.3964504733e-01	-9.1722347987e+00
 1.3468351488e+00	 7.6716040177e-01	-9.0665179909e+00
 1.3309303768e+00	 7.9443334030e-01	-8.8581744268e+00
 1.3144309580e+00	 8.2144461567e-01	-8.5650048931e+00
 1.2973430424e+00	 8.4817511774e-01	-8.2054244955e+00
 1.4527942204e+00	 5.7514798369e-01	-5.8789092807e+00
 1.4410624031e+00	 6.0394155376e-01	-7.6023006323e+00
 1.4287105058e+00	 6.3260773043e-01	-8.9608088980e+00
 1.4157390779e+00	 6.6112715357e-01	-9.9754514674e+00
 1.4021494531e+00	 6.8948035586e-01	-1.0668931421e+01
 1.3879437607e+00	 7.1764780165e-01	-1.1065582450e+01
 1.3731249350e+00	 7.4560992674e-01	-1.1191303788e+01
 1.3576967225e+00	 7.7334717920e-01	-1.1073485292e+01
 1.3416636863e+00	 8.0084006078e-01	-1.0740922897e+01
 1.3250312077e+00	 8.2806916902e-01	-1.0223724761e+01
 1.3078054863e+00	 8.5501523966e-01	-9.5532084910e+00
 1.4644165742e+00	 5.7974916756e-01	-4.6042263275e+00
 1.4525909023e+00	 6.0877308619e-01	-7.2737786220e+00
 1.4401401898e+00	 6.3766859227e-01	-9.4097145516e+00
 1.4270649906e+00	 6.6641617079e-01	-1.1040990309e+01
 1.4133666487e+00	 6.9499619871e-01	-1.2199014430e+01
 1.3990473108e+00	 7.2338898406e-01	-1.2917573951e+01
 1.3841099345e+00	 7.5157480616e-01	-1.3232746139e+01
 1.3685582963e+00	 7.7953395663e-01	-1.3182795954e+01
 1.3523969957e+00	 8.0724678127e-01	-1.2808059541e+01
 1.3356314573e+00	 8.3469372238e-01	-1.2150814157e+01
 1.3182679302e+00	 8.6185536158e-01	-1.1255135070e+01
 1.4760389279e+00	 5.8435035143e-01	-2.9321023186e+00
 1.4641194016e+00	 6.1360461862e-01	-6.6113068691e+00
 1.4515698739e+00	 6.4272945412e-01	-9.5908449643e+00
 1.4383909032e+00	 6.7170518802e-01	-1.1907521482e+01
 1.4245838444e+00	 7.0051204155e-01	-1.3601352248e+01
 1.4101508608e+00	 7.2913016647e-01	-1.4715471607e+01
 1.3950949340e+00	 7.5753968557e-01	-1.5296021156e+01
 1.3794198701e+00	 7.8572073407e-01	-1.5392019847e+01
 1.3631303052e+00	 8.1365350175e-01	-1.5055215808e+01
 1.3462317070e+00	 8.4131827573e-01	-1.4339920385e+01
 1.3287303741e+00	 8.6869548350e-01	-1.3302825091e+01
 1.4876612817e+00	 5.8895153530e-01	-8.7184328457e-01
 1.4756479008e+00	 6.1843615105e-01	-5.6227027595e+00
 1.4629995579e+00	 6.4779031596e-01	-9.5104660300e+00
 1.4497168158e+00	 6.7699420525e-01	-1.2579698650e+01
 1.4358010400e+00	 7.0602788440e-01	-1.4878927871e+01
 1.4212544109e+00	 7.3487134888e-01	-1.6460531789e+01
 1.4060799334e+00	 7.6350456498e-01	-1.7380605291e+01
 1.3902814439e+00	 7.9190751150e-01	-1.7698803049e+01
 1.3738636147e+00	 8.2006022224e-01	-1.7478159945e+01
 1.3568319566e+00	 8.4794282908e-01	-1.6784889569e+01
 1.3391928179e+00	 8.7553560541e-01	-1.5688161570e+01
 1.4992836355e+00	 5.9355271917e-01	 1.5675331367e+00
 1.4871764000e+00	 6.2326768348e-01	-4.3155414601e+00
 1.4744292420e+00	 6.5285117780e-01	-9.1746495459e+00
 1.4610427284e+00	 6.8228322248e-01	-1.3062031386e+01
 1.4470182356e+00	 7.1154372724e-01	-1.6034632022e+01
 1.4323579610e+00	 7.4061253130e-01	-1.8153972147e+01
 1.4170649329e+00	 7.6946944439e-01	-1.9485991483e+01
 1.4011430177e+00	 7.9809428893e-01	-2.0100864889e+01
 1.3845969242e+00	 8.2646694273e-01	-2.0072791691e+01
 1.3674322063e+00	 8.5456738243e-01	-1.9479758934e+01
 1.3496552618e+00	 8.8237572733e-01	-1.8403279511e+01
 1.5109059892e+00	 5.9815390303e-01	 4.3772866088e+00
 1.4987048992e+00	 6.2809921591e-01	-2.6971652339e+00
 1.4858589260e+00	 6.5791203964e-01	-8.5892806766e+00
 1.4723686411e+00	 6.8757223970e-01	-1.3358890715e+01
 1.4582354312e+00	 7.1705957009e-01	-1.7071266697e+01
 1.4434615111e+00	 7.4635371371e-01	-1.9796973100e+01
 1.4280499324e+00	 7.7543432381e-01	-2.1611688516e+01
 1.4120045914e+00	 8.0428106636e-01	-2.2595995132e+01
 1.3953302337e+00	 8.3287366321e-01	-2.2835137219e+01
 1.3780324560e+00	 8.6119193579e-01	-2.2418749465e+01
 1.3601177057e+00	 8.8921584925e-01	-2.1440556216e+01
 1.2554932668e+00	 8.2081463007e-01	-6.5330843065e+00
 1.2383937950e+00	 8.4639282170e-01	-8.9371556669e+00
 1.2207390541e+00	 8.7166287166e-01	-1.1002360891e+01
 1.2025373231e+00	 8.9660692984e-01	-1.2748487333e+01
 1.1837976385e+00	 9.2120744199e-01	-1.4196773306e+01
 1.1645297814e+00	 9.4544718958e-01	-1.5369831573e+01
 1.1447442616e+00	 9.6930932908e-01	-1.6291564532e+01
 1.1244522996e+00	 9.9277743019e-01	-1.6987071599e+01
 1.1036658055e+00	 1.0158355131e+00	-1.7482549314e+01
 1.0823973566e+00	 1.0384680844e+00	-1.7805184786e+01
 1.0606601718e+00	 1.0606601718e+00	-1.7983043159e+01
 1.2659557107e+00	 8.2765475199e-01	-6.3748792344e+00
 1.2487137432e+00	 8.5344609521e-01	-8.4431432604e+00
 1.2309118795e+00	 8.7892672892e-01	-1.0320338731e+01
 1.2125584674e+00	 9.0407865426e-01	-1.2015330648e+01
 1.1936626188e+00	 9.2888417067e-01	-1.3537830321e+01
 1.1742341962e+00	 9.5332591617e-01	-1.4898361994e+01
 1.1542837971e+00	 9.7738690683e-01	-1.6108224652e+01
 1.1338227354e+00	 1.0010505754e+00	-1.7179449199e+01
 1.1128630206e+00	 1.0243008091e+00	-1.8124751263e+01
 1.0914173346e+00	 1.0471219851e+00	-1.8957479884e+01
 1.0694990065e+00	 1.0694990065e+00	-1.9691562430e+01
 1.2764181546e+00	 8.3449487391e-01	-6.6071760551e+00
 1.2590336915e+00	 8.6049936873e-01	-8.2645641666e+00
 1.2410847050e+00	 8.8619058619e-01	-9.8763588648e+00
 1.2225796118e+00	 9.1155037868e-01	-1.1440637846e+01
 1.2035275991e+00	 9.3656089936e-01	-1.2955727142e+01
 1.1839386111e+00	 9.6120464275e-01	-1.4420210450e+01
 1.1638233327e+00	 9.8546448457e-01	-1.5832937072e+01
 1.1431931713e+00	 1.0093237207e+00	-1.7193028388e+01
 1.1220602356e+00	 1.0327661050e+00	-1.8499882812e+01
 1.1004373125e+00	 1.0557758859e+00	-1.9753179171e+01
 1.0783378413e+00	 1.0783378413e+00	-2.0952878474e+01
 1.2868805985e+00	 8.4133499582e-01	-7.2204350348e+00
 1.2693536398e+00	 8.6755264225e-01	-8.3937092358e+00
 1.2512575304e+00	 8.9345444346e-01	-9.6645993870e+00
 1.2326007561e+00	 9.1902210310e-01	-1.1020527629e+01
 1.2133925794e+00	 9.4423762804e-01	-1.2448572985e+01
 1.1936430259e+00	 9.6908336933e-01	-1.3935522961e+01
 1.1733628682e+00	 9.9354206231e-01	-1.5467927155e+01
 1.1525636071e+00	 1.0175968660e+00	-1.7032152529e+01
 1.1312574507e+00	 1.0412314009e+00	-1.8614439991e+01
 1.1094572905e+00	 1.0644297866e+00	-2.0200961909e+01
 1.0871766761e+00	 1.0871766761e+00	-2.1777880168e+01
 1.2973430424e+00	 8.4817511774e-01	-8.2054244955e+00
 1.2796735881e+00	 8.7460591576e-01	-8.8231183359e+00
 1.2614303559e+00	 9.0071830072e-01	-9.6794265445e+00
 1.2426219005e+00	 9.2649382751e-01	-1.0751244264e+01
 1.2232575597e+00	 9.5191435673e-01	-1.2014538431e+01
 1.2033474407e+00	 9.7696209591e-01	-1.3444441220e+01
 1.1829024037e+00	 1.0016196401e+00	-1.5015348875e+01
 1.1619340429e+00	 1.0258700112e+00	-1.6701025287e+01
 1.1404546657e+00	 1.0496966969e+00	-1.8474709700e+01
 1.1184772685e+00	 1.0730836873e+00	-2.0309227813e+01
 1.0960155108e+00	 1.0960155108e+00	-2.2177105574e+01
 1.3078054863e+00	 8.5501523966e-01	-9.5532084910e+00
 1.2899935364e+00	 8.8165918928e-01	-9.5455703906e+00
 1.2716031813e+00	 9.0798215799e-01	-9.9153872081e+00
 1.2526430448e+00	 9.3396555193e-01	-1.0629152559e+01
 1.2331225400e+00	 9.5959108542e-01	-1.1651852971e+01
 1.2130518556e+00	 9.8484082249e-01	-1.2947102769e+01
 1.1924419392e+00	 1.0096972178e+00	-1.4477287669e+01
 1.1713044787e+00	 1.0341431565e+00	-1.6203716212e+01
 1.1496518808e+00	 1.0581619928e+00	-1.8086778070e+01
 1.1274972465e+00	 1.0817375880e+00	-2.0086108229e+01
 1.1048543456e+00	 1.1048543456e+00	-2.2160755965e+01
 1.3182679302e+00	 8.6185536158e-01	-1.1255135070e+01
 1.3003134847e+00	 8.8871246279e-01	-1.0554073891e+01
 1.2817760068e+00	 9.1524601525e-01	-1.0367201703e+01
 1.2626641892e+00	 9.4143727635e-01	-1.0650733076e+01
 1.2429875204e+00	 9.6726781410e-01	-1.1358802668e+01
 1.2227562704e+00	 9.9271954908e-01	-1.2443641155e+01
 1.2019814747e+00	 1.0177747955e+00	-1.3855763159e+01
 1.1806749146e+00	 1.0424163017e+00	-1.5544166058e+01
 1.1588490958e+00	 1.0666272888e+00	-1.7456538429e+01
 1.1365172244e+00	 1.0903914887e+00	-1.9539476782e+01
 1.1136931804e+00	 1.1136931804e+00	-2.1738709193e+01
 1.3287303741e+00	 8.6869548350e-01	-1.3302825091e+01
 1.3106334330e+00	 8.9576573631e-01	-1.1841857854e+01
 1.2919488322e+00	 9.2250987252e-01	-1.1029756978e+01
 1.2726853336e+00	 9.4890900077e-01	-1.0812577570e+01
 1.2528525007e+00	 9.7494454279e-01	-1.1133727924e+01
 1.2324606853e+00	 1.0005982757e+00	-1.1934186091e+01
 1.2115210102e+00	 1.0258523733e+00	-1.3152731732e+01
 1.1900453504e+00	 1.0506894470e+00	-1.4726191852e+01
 1.1680463108e+00	 1.0750925847e+00	-1.6589698889e+01
 1.1455372024e+00	 1.0990453894e+00	-1.8676959519e+01
 1.1225320151e+00	 1.1225320151e+00	-2.0920532414e+01
 1.3391928179e+00	 8.7553560541e-01	-1.5688161570e+01
 1.3209533813e+00	 9.0281900982e-01	-1.3402363209e+01
 1.3021216577e+00	 9.2977372978e-01	-1.1898100096e+01
 1.2827064779e+00	 9.5638072518e-01	-1.1111384649e+01
 1.2627174810e+00	 9.8262127147e-01	-1.0975021356e+01
 1.2421651001e+00	 1.0084770022e+00	-1.1418863600e+01
 1.2210605457e+00	 1.0339299510e+00	-1.2370089019e+01
 1.1994157862e+00	 1.0589625922e+00	-1.3753491723e+01
 1.1772435259e+00	 1.0835578807e+00	-1.5491789579e+01
 1.1545571804e+00	 1.1076992901e+00	-1.7505944577e+01
 1.1313708499e+00	 1.1313708499e+00	-1.9715494224e+01
 1.3496552618e+00	 8.8237572733e-01	-1.8403279511e+01
 1.3312733296e+00	 9.0987228334e-01	-1.5229234582e+01
 1.3122944831e+00	 9.3703758705e-01	-1.2967432022e+01
 1.2927276223e+00	 9.6385244960e-01	-1.1543955625e+01
 1.2725824613e+00	 9.9029800016e-01	-1.0881125773e+01
 1.2518695150e+00	 1.0163557288e+00	-1.0897796157e+01
 1.2306000812e+00	 1.0420075288e+00	-1.1509672236e+01
 1.2087862221e+00	 1.0672357375e+00	-1.2629649511e+01
 1.1864407409e+00	 1.0920231766e+00	-1.4168169540e+01
 1.1635771583e+00	 1.1163531908e+00	-1.6033591404e+01
 1.1402096847e+00	 1.1402096847e+00	-1.8132576228e+01
 1.3601177057e+00	 8.8921584925e-01	-2.1440556216e+01
 1.3415932778e+00	 9.1692555685e-01	-1.7316312455e+01
 1.3224673086e+00	 9.4430144431e-01	-1.4233101707e+01
 1.3027487666e+00	 9.7132417402e-01	-1.2107190563e+01
 1.2824474416e+00	 9.9797472884e-01	-1.0850532239e+01
 1.2615739298e+00	 1.0242344554e+00	-1.0371102823e+01
 1.2401396167e+00	 1.0500851065e+00	-1.0573262438e+01
 1.2181566579e+00	 1.0755088827e+00	-1.1358139157e+01
 1.1956379560e+00	 1.1004884725e+00	-1.2624033303e+01
 1.1725971363e+00	 1.1250070915e+00	-1.4266839548e+01
 1.1490485194e+00	 1.1490485194e+00	-1.6180484077e+01
 1.0606601718e+00	 1.0606601718e+00	-1.7983043159e+01
 1.0384680844e+00	 1.0823973566e+00	-1.7484067157e+01
 1.0158355131e+00	 1.1036658055e+00	-1.7398009528e+01
 9.9277743019e-01	 1.1244522996e+00	-1.7696441664e+01
 9.6930932908e-01	 1.1447442616e+00	-1.8349715563e+01
 9.4544718958e-01	 1.1645297814e+00	-1.9327094996e+01
 9.2120744199e-01	 1.1837976385e+00	-2.0596891622e+01
 8.9660692984e-01	 1.2025373231e+00	-2.2126605126e+01
 8.7166287166e-01	 1.2207390541e+00	-2.3883066380e+01
 8.4639282170e-01	 1.2383937950e+00	-2.5832582675e+01
 8.2081463007e-01	 1.2554932668e+00	-2.7941084004e+01
 1.0694990065e+00	 1.0694990065e+00	-1.9691562430e+01
 1.0471219851e+00	 1.0914173346e+00	-1.9425021193e+01
 1.0243008091e+00	 1.1128630206e+00	-1.9449143468e+01
 1.0010505754e+00	 1.1338227354e+00	-1.9748135463e+01
 9.7738690683e-01	 1.1542837971e+00	-2.0305327853e+01
 9.5332591617e-01	 1.1742341962e+00	-2.1103250322e+01
 9.2888417067e-01	 1.1936626188e+00	-2.2123709839e+01
 9.0407865426e-01	 1.2125584674e+00	-2.3347872109e+01
 8.7892672892e-01	 1.2309118795e+00	-2.4756345634e+01
 8.5344609521e-01	 1.2487137432e+00	-2.6329267798e+01
 8.2765475199e-01	 1.2659557107e+00	-2.8046392381e+01
 1.0783378413e+00	 1.0783378413e+00	-2.0952878474e+01
 1.0557758859e+00	 1.1004373125e+00	-2.0998541806e+01
 1.0327661050e+00	 1.1220602356e+00	-2.1214277162e+01
 1.0093237207e+00	 1.1431931713e+00	-2.1596766865e+01
 9.8546448457e-01	 1.1638233327e+00	-2.2142158020e+01
 9.6120464275e-01	 1.1839386111e+00	-2.2846081031e+01
 9.3656089936e-01	 1.2035275991e+00	-2.3703670622e+01
 9.1155037868e-01	 1.2225796118e+00	-2.4709589225e+01
 8.8619058619e-01	 1.2410847050e+00	-2.5858052546e+01
 8.6049936873e-01	 1.2590336915e+00	-2.7142857120e+01
 8.3449487391e-01	 1.2764181546e+00	-2.8557409657e+01
 1.0871766761e+00	 1.0871766761e+00	-2.1777880168e+01
 1.0644297866e+00	 1.1094572905e+00	-2.2213571936e+01
 1.0412314009e+00	 1.1312574507e+00	-2.2700367031e+01
 1.0175968660e+00	 1.1525636071e+00	-2.3247269054e+01
 9.9354206231e-01	 1.1733628682e+00	-2.3863083255e+01
 9.6908336933e-01	 1.1936430259e+00	-2.4556379584e+01
 9.4423762804e-01	 1.2133925794e+00	-2.5335457056e+01
 9.1902210310e-01	 1.2326007561e+00	-2.6208309663e+01
 8.9345444346e-01	 1.2512575304e+00	-2.7182594044e+01
 8.6755264225e-01	 1.2693536398e+00	-2.8265599110e+01
 8.4133499582e-01	 1.2868805985e+00	-2.9464217811e+01
 1.0960155108e+00	 1.0960155108e+00	-2.2177105574e+01
 1.0730836873e+00	 1.1184772685e+00	-2.3078766488e+01
 1.0496966969e+00	 1.1404546657e+00	-2.3914145546e+01
 1.0258700112e+00	 1.1619340429e+00	-2.4704416542e+01
 1.0016196401e+00	 1.1829024037e+00	-2.5470888404e+01
 9.7696209591e-01	 1.2033474407e+00	-2.6234913356e+01
 9.5191435673e-01	 1.2232575597e+00	-2.7017795191e+01
 9.2649382751e-01	 1.2426219005e+00	-2.7840698290e+01
 9.0071830072e-01	 1.2614303559e+00	-2.8724557974e+01
 8.7460591576e-01	 1.2796735881e+00	-2.9689992784e+01
 8.4817511774e-01	 1.2973430424e+00	-3.0757219259e+01
 1.1048543456e+00	 1.1048543456e+00	-2.2160755965e+01
 1.0817375880e+00	 1.1274972465e+00	-2.3602503849e+01
 1.0581619928e+00	 1.1496518808e+00	-2.4862130192e+01
 1.0341431565e+00	 1.1713044787e+00	-2.5972831512e+01
 1.0096972178e+00	 1.1924419392e+00	-2.6968269663e+01
 9.8484082249e-01	 1.2130518556e+00	-2.7882425637e+01
 9.5959108542e-01	 1.2331225400e+00	-2.8749452322e+01
 9.3396555193e-01	 1.2526430448e+00	-2.9603527178e+01
 9.0798215799e-01	 1.2716031813e+00	-3.0478705852e+01
 8.8165918928e-01	 1.2899935364e+00	-3.1408777681e+01
 8.5501523966e-01	 1.3078054863e+00	-3.2427124033e+01
 1.1136931804e+00	 1.1136931804e+00	-2.1738709193e+01
 1.0903914887e+00	 1.1365172244e+00	-2.3792896862e+01
 1.0666272888e+00	 1.1588490958e+00	-2.5550631990e+01
 1.0424163017e+00	 1.1806749146e+00	-2.7056989864e+01
 1.0177747955e+00	 1.2019814747e+00	-2.8357838089e+01
 9.9271954908e-01	 1.2227562704e+00	-2.9499636584e+01
 9.6726781410e-01	 1.2429875204e+00	-3.0529235342e+01
 9.4143727635e-01	 1.2626641892e+00	-3.1493671346e+01
 9.1524601525e-01	 1.2817760068e+00	-3.2439965979e+01
 8.8871246279e-01	 1.3003134847e+00	-3.3414924313e+01
 8.6185536158e-01	 1.3182679302e+00	-3.4464937573e+01
 1.1225320151e+00	 1.1225320151e+00	-2.0920532414e+01
 1.0990453894e+00	 1.1455372024e+00	-2.3657803274e+01
 1.0750925847e+00	 1.1680463108e+00	-2.5985763626e+01
 1.0506894470e+00	 1.1900453504e+00	-2.7961226966e+01
 1.0258523733e+00	 1.2115210102e+00	-2.9642122956e+01
 1.0005982757e+00	 1.2324606853e+00	-3.1087244127e+01
 9.7494454279e-01	 1.2528525007e+00	-3.2355989190e+01
 9.4890900077e-01	 1.2726853336e+00	-3.3508104707e+01
 9.2250987252e-01	 1.2919488322e+00	-3.4603426863e+01
 8.9576573631e-01	 1.3106334330e+00	-3.5701625068e+01
 8.6869548350e-01	 1.3287303741e+00	-3.6861949087e+01
 1.1313708499e+00	 1.1313708499e+00	-1.9715494224e+01
 1.1076992901e+00	 1.1545571804e+00	-2.3204835699e+01
 1.0835578807e+00	 1.1772435259e+00	-2.6173447192e+01
 1.0589625922e+00	 1.1994157862e+00	-2.8689743142e+01
 1.0339299510e+00	 1.2210605457e+00	-3.0823574937e+01
 1.0084770022e+00	 1.2421651001e+00	-3.2645924837e+01
 9.8262127147e-01	 1.2627174810e+00	-3.4228595351e+01
 9.5638072518e-01	 1.2827064779e+00	-3.5643896200e+01
 9.2977372978e-01	 1.3021216577e+00	-3.6964330964e+01
 9.0281900982e-01	 1.3209533813e+00	-3.8262285543e+01
 8.7553560541e-01	 1.3391928179e+00	-3.9609720472e+01
 1.1402096847e+00	 1.1402096847e+00	-1.8132576228e+01
 1.1163531908e+00	 1.1635771583e+00	-2.2441371117e+01
 1.0920231766e+00	 1.1864407409e+00	-2.6119421575e+01
 1.0672357375e+00	 1.2087862221e+00	-2.9246608905e+01
 1.0420075288e+00	 1.2306000812e+00	-3.1904569155e+01
 1.0163557288e+00	 1.2518695150e+00	-3.4176334749e+01
 9.9029800016e-01	 1.2725824613e+00	-3.6145970447e+01
 9.6385244960e-01	 1.2927276223e+00	-3.7898206102e+01
 9.3703758705e-01	 1.3122944831e+00	-3.9518068718e+01
 9.0987228334e-01	 1.3312733296e+00	-4.1090516272e+01
 8.8237572733e-01	 1.3496552618e+00	-4.2700075734e+01
 1.1490485194e+00	 1.1490485194e+00	-1.6180484077e+01
 1.1250070915e+00	 1.1725971363e+00	-2.1374559934e+01
 1.1004884725e+00	 1.1956379560e+00	-2.5829249496e+01
 1.0755088827e+00	 1.2181566579e+00	-2.9635769948e+01
 1.0500851065e+00	 1.2401396167e+00	-3.2887408084e+01
 1.0242344554e+00	 1.2615739298e+00	-3.5679110151e+01
 9.9797472884e-01	 1.2824474416e+00	-3.8107064872e+01
 9.7132417402e-01	 1.3027487666e+00	-4.0268282514e+01
 9.4430144431e-01	 1.3224673086e+00	-4.2260172849e+01
 9.1692555685e-01	 1.3415932778e+00	-4.4180124848e+01
 8.8921584925e-01	 1.3601177057e+00	-4.6125090908e+01
 8.2081463007e-01	 1.2554932668e+00	-2.7941084004e+01
 7.9494640226e-01	 1.2720299594e+00	-2.9390218388e+01
 7.6880645835e-01	 1.2879971388e+00	-3.1525596768e+01
 7.4241329204e-01	 1.3033888537e+00	-3.4351827025e+01
 7.1578552968e-01	 1.3181999376e+00	-3.7870740600e+01
 6.8894188959e-01	 1.3324260103e+00	-4.2081430571e+01
 6.6190114164e-01	 1.3460634750e+00	-4.6980303314e+01
 6.3468206743e-01	 1.3591095148e+00	-5.2561143077e+01
 6.0730342122e-01	 1.3715620856e+00	-5.8815188745e+01
 5.7978389161e-01	 1.3834199070e+00	-6.5731221967e+01
 5.5214206435e-01	 1.3946824516e+00	-7.3295665767e+01
 8.2765475199e-01	 1.2659557107e+00	-2.8046392381e+01
 8.0157095562e-01	 1.2826302090e+00	-2.9328084615e+01
 7.7521317884e-01	 1.2987304483e+00	-3.1253693062e+01
 7.4860006947e-01	 1.3142504274e+00	-3.3824827383e+01
 7.2175040909e-01	 1.3291849371e+00	-3.7040567110e+01
 6.9468307200e-01	 1.3435295603e+00	-4.0897507028e+01
 6.6741698448e-01	 1.3572806706e+00	-4.5389814625e+01
 6.3997108466e-01	 1.3704354275e+00	-5.0509298971e+01
 6.1236428306e-01	 1.3829917696e+00	-5.6245490270e+01
 5.8461542404e-01	 1.3949484062e+00	-6.2585729326e+01
 5.5674324821e-01	 1.4063048054e+00	-6.9515266044e+01
 8.3449487391e-01	 1.2764181546e+00	-2.8557409657e+01
 8.0819550897e-01	 1.2932304587e+00	-2.9647461172e+01
 7.8161989933e-01	 1.3094637578e+00	-3.1340154652e+01
 7.5478684690e-01	 1.3251120012e+00	-3.3634137289e+01
 7.2771528851e-01	 1.3401699366e+00	-3.6525769308e+01
 7.0042425441e-01	 1.3546331104e+00	-4.0009176587e+01
 6.7293282733e-01	 1.3684978662e+00	-4.4076313853e+01
 6.4526010189e-01	 1.3817613401e+00	-4.8717037819e+01
 6.1742514490e-01	 1.3944214537e+00	-5.3919189523e+01
 5.8944695647e-01	 1.4064769054e+00	-5.9668685120e+01
 5.6134443208e-01	 1.4179271591e+00	-6.5949614289e+01
 8.4133499582e-01	 1.2868805985e+00	-2.9464217811e+01
 8.1482006232e-01	 1.3038307084e+00	-3.0339019697e+01
 7.8802661981e-01	 1.3201970673e+00	-3.1776217109e+01
 7.6097362433e-01	 1.3359735750e+00	-3.3771529647e+01
 7.3368016792e-01	 1.3511549360e+00	-3.6318630040e+01
 7.0616543683e-01	 1.3657366605e+00	-3.9409203927e+01
 6.7844867017e-01	 1.3797150619e+00	-4.3033018761e+01
 6.5054911911e-01	 1.3930872527e+00	-4.7178001165e+01
 6.2248600675e-01	 1.4058511377e+00	-5.1830322049e+01
 5.9427848890e-01	 1.4180054047e+00	-5.6974488720e+01
 5.6594561595e-01	 1.4295495129e+00	-6.2593443215e+01
 8.4817511774e-01	 1.2973430424e+00	-3.0757219259e+01
 8.2144461567e-01	 1.3144309580e+00	-3.1393733246e+01
 7.9443334030e-01	 1.3309303768e+00	-3.2553399232e+01
 7.6716040177e-01	 1.3468351488e+00	-3.4229043261e+01
 7.3964504733e-01	 1.3621399355e+00	-3.6411681602e+01
 7.1190661924e-01	 1.3768402106e+00	-3.9090587632e+01
 6.8396451302e-01	 1.3909322575e+00	-4.2253366399e+01
 6.5583813634e-01	 1.4044131653e+00	-4.5886036168e+01
 6.2754686859e-01	 1.4172808218e+00	-4.9973116296e+01
 5.9911002133e-01	 1.4295339039e+00	-5.4497720664e+01
 5.7054679982e-01	 1.4411718666e+00	-5.9441655943e+01
 8.5501523966e-01	 1.3078054863e+00	-3.2427124033e+01
 8.2806916902e-01	 1.3250312077e+00	-3.2802864233e+01
 8.0084006078e-01	 1.3416636863e+00	-3.3663491717e+01
 7.7334717920e-01	 1.3576967225e+00	-3.4998972191e+01
 7.4560992674e-01	 1.3731249350e+00	-3.6797695753e+01
 7.1764780165e-01	 1.3879437607e+00	-3.9046550829e+01
 6.8948035586e-01	 1.4021494531e+00	-4.1731004329e+01
 6.6112715357e-01	 1.4157390779e+00	-4.4835187373e+01
 6.3260773043e-01	 1.4287105058e+00	-4.8341985894e+01
 6.0394155376e-01	 1.4410624031e+00	-5.2233135399e+01
 5.7514798369e-01	 1.4527942204e+00	-5.6489319177e+01
 8.6185536158e-01	 1.3182679302e+00	-3.4464937573e+01
 8.3469372238e-01	 1.3356314573e+00	-3.4557952946e+01
 8.0724678127e-01	 1.3523969957e+00	-3.5098546363e+01
 7.7953395663e-01	 1.3685582963e+00	-3.6073855620e+01
 7.5157480616e-01	 1.3841099345e+00	-3.7469674216e+01
 7.2338898406e-01	 1.3990473108e+00	-3.9270532276e+01
 6.9499619871e-01	 1.4133666487e+00	-4.1459782269e+01
 6.6641617079e-01	 1.4270649906e+00	-4.4019688876e+01
 6.3766859227e-01	 1.4401401898e+00	-4.6931522306e+01
 6.0877308619e-01	 1.4525909023e+00	-5.0175654383e+01
 5.7974916756e-01	 1.4644165742e+00	-5.3731656715e+01
 8.6869548350e-01	 1.3287303741e+00	-3.6861949087e+01
 8.4131827573e-01	 1.3462317070e+00	-3.6650806598e+01
 8.1365350175e-01	 1.3631303052e+00	-3.6850865790e+01
 7.8572073407e-01	 1.3794198701e+00	-3.7446468204e+01
 7.5753968557e-01	 1.3950949340e+00	-3.8420839615e+01
 7.2913016647e-01	 1.4101508608e+00	-3.9756177869e+01
 7.0051204155e-01	 1.4245838444e+00	-4.1433744133e+01
 6.7170518802e-01	 1.4383909032e+00	-4.3433956862e+01
 6.4272945412e-01	 1.4515698739e+00	-4.5736487822e+01
 6.1360461862e-01	 1.4641194016e+00	-4.8320359505e+01
 5.8435035143e-01	 1.4760389279e+00	-5.1164043261e+01
 8.7553560541e-01	 1.3391928179e+00	-3.9609720472e+01
 8.4794282908e-01	 1.3568319566e+00	-3.9073488907e+01
 8.2006022224e-01	 1.3738636147e+00	-3.8912993637e+01
 7.9190751150e-01	 1.3902814439e+00	-3.9109810870e+01
 7.6350456498e-01	 1.4060799334e+00	-3.9644626844e+01
 7.3487134888e-01	 1.4212544109e+00	-4.0497332549e+01
 7.0602788440e-01	 1.4358010400e+00	-4.1647120437e+01
 6.7699420525e-01	 1.4497168158e+00	-4.3072582481e+01
 6.4779031596e-01	 1.4629995579e+00	-4.4751808885e+01
 6.1843615105e-01	 1.4756479008e+00	-4.6662486815e+01
 5.8895153530e-01	 1.4876612817e+00	-4.8781998524e+01
 8.8237572733e-01	 1.3496552618e+00	-4.2700075734e+01
 8.5456738243e-01	 1.3674322063e+00	-4.1818310141e+01
 8.2646694273e-01	 1.3845969242e+00	-4.1277705218e+01
 7.9809428893e-01	 1.4011430177e+00	-4.1057102038e+01
 7.6946944439e-01	 1.4170649329e+00	-4.1134674842e+01
 7.4061253130e-01	 1.4323579610e+00	-4.1488032582e+01
 7.1154372724e-01	 1.4470182356e+00	-4.2094321069e+01
 6.8228322248e-01	 1.4610427284e+00	-4.2930325074e+01
 6.5285117780e-01	 1.4744292420e+00	-4.3972569723e+01
 6.2326768348e-01	 1.4871764000e+00	-4.5197420548e+01
 5.9355271917e-01	 1.4992836355e+00	-4.6581181600e+01
 8.8921584925e-01	 1.3601177057e+00	-4.6125090908e+01
 8.6119193579e-01	 1.3780324560e+00	-4.4877817638e+01
 8.3287366321e-01	 1.3953302337e+00	-4.3937998611e+01
 8.0428106636e-01	 1.4120045914e+00	-4.3281769259e+01
 7.7543432381e-01	 1.4280499324e+00	-4.2884818735e+01
 7.4635371371e-01	 1.4434615111e+00	-4.2722498200e+01
 7.1705957009e-01	 1.4582354312e+00	-4.2769928382e+01
 6.8757223970e-01	 1.4723686411e+00	-4.3002105691e+01
 6.5791203964e-01	 1.4858589260e+00	-4.3394006281e+01
 6.2809921591e-01	 1.4987048992e+00	-4.3920687418e+01
 5.9815390303e-01	 1.5109059892e+00	-4.4557385602e+01
 5.5214206435e-01	 1.3946824516e+00	-7.3295665767e+01
 5.2439638616e-01	 1.4053499316e+00	-6.1129223328e+01
 4.9656512995e-01	 1.4154232836e+00	-4.8348034101e+01
 4.6866636132e-01	 1.4249041518e+00	-3.5033880480e+01
 4.4071790656e-01	 1.4337948692e+00	-2.1268955515e+01
 4.1273732226e-01	 1.4420984373e+00	-7.1355269784e+00
 3.8474186652e-01	 1.4498185046e+00	 7.2843882717e+00
 3.5674847187e-01	 1.4569593432e+00	 2.1909337979e+01
 3.2877372005e-01	 1.4635258252e+00	 3.6658734754e+01
 3.0083381848e-01	 1.4695233968e+00	 5.1453141587e+01
 2.7294457863e-01	 1.4749580526e+00	 6.6214541483e+01
 5.5674324821e-01	 1.4063048054e+00	-6.9515266044e+01
 5.2876635604e-01	 1.4170611810e+00	-5.7264404888e+01
 5.0070317270e-01	 1.4272184776e+00	-4.4679829046e+01
 4.7257191433e-01	 1.4367783530e+00	-3.1822700901e+01
 4.4439055579e-01	 1.4457431597e+00	-1.8754206068e+01
 4.1617679995e-01	 1.4541159243e+00	-5.5353126606e+00
 3.8794804874e-01	 1.4619003254e+00	 7.7734609291e+00
 3.5972137580e-01	 1.4691006711e+00	 2.1112268627e+01
 3.3151350105e-01	 1.4757218737e+00	 3.4422148618e+01
 3.0334076697e-01	 1.4817694251e+00	 4.7645223755e+01
 2.7521911678e-01	 1.4872493697e+00	 6.0724889673e+01
 5.6134443208e-01	 1.4179271591e+00	-6.5949614289e+01
 5.3313632592e-01	 1.4287724304e+00	-5.3496058849e+01
 5.0484121545e-01	 1.4390136716e+00	-4.0985816895e+01
 4.7647746734e-01	 1.4486525543e+00	-2.8459699503e+01
 4.4806320501e-01	 1.4576914503e+00	-1.5958156975e+01
 4.1961627764e-01	 1.4661334112e+00	-3.5211323159e+00
 3.9115423096e-01	 1.4739821463e+00	 8.8120785614e+00
 3.6269427974e-01	 1.4812419989e+00	 2.1002959277e+01
 3.3425328206e-01	 1.4879179223e+00	 3.3013897528e+01
 3.0584771545e-01	 1.4940154534e+00	 4.4808301275e+01
 2.7749365494e-01	 1.4995406868e+00	 5.6350706191e+01
 5.6594561595e-01	 1.4295495129e+00	-6.2593443215e+01
 5.3750629581e-01	 1.4404836799e+00	-4.9821801851e+01
 5.0897925820e-01	 1.4508088657e+00	-3.7266595845e+01
 4.8038302035e-01	 1.4605267556e+00	-2.4948547121e+01
 4.5173585423e-01	 1.4696397409e+00	-1.2887636156e+01
 4.2305575532e-01	 1.4781508982e+00	-1.1030486947e+00
 3.9436041318e-01	 1.4860639672e+00	 1.0386872566e+01
 3.6566718367e-01	 1.4933833268e+00	 2.1564671196e+01
 3.3699306306e-01	 1.5001139708e+00	 3.2413815071e+01
 3.0835466394e-01	 1.5062614817e+00	 4.2918729207e+01
 2.7976819309e-01	 1.5118320039e+00	 5.3064823365e+01
 5.7054679982e-01	 1.4411718666e+00	-5.9441655943e+01
 5.4187626569e-01	 1.4521949293e+00	-4.6239327904e+01
 5.1311730095e-01	 1.4626040597e+00	-3.3522745281e+01
 4.8428857336e-01	 1.4724009568e+00	-2.1292796654e+01
 4.5540850345e-01	 1.4815880315e+00	-9.5492517428e+00
 4.2649523301e-01	 1.4901683852e+00	 1.7091995973e+00
 3.9756659540e-01	 1.4981457880e+00	 1.2484905135e+01
 3.6864008760e-01	 1.5055246547e+00	 2.2781205167e+01
 3.3973284406e-01	 1.5123100194e+00	 3.2602384933e+01
 3.1086161243e-01	 1.5185075100e+00	 4.1953624929e+01
 2.8204273125e-01	 1.5241233210e+00	 5.0840949490e+01
 5.7514798369e-01	 1.4527942204e+00	-5.6489319177e+01
 5.4624623558e-01	 1.4639061787e+00	-4.2746405294e+01
 5.1725534370e-01	 1.4743992537e+00	-2.9754826523e+01
 4.8819412638e-01	 1.4842751581e+00	-1.7495887778e+01
 4.5908115267e-01	 1.4935363220e+00	-5.9494008685e+00
 4.2993471070e-01	 1.5021858722e+00	 4.9061851351e+00
 4.0077277763e-01	 1.5102276089e+00	 1.5093652023e+01
 3.7161299154e-01	 1.5176659825e+00	 2.4636879913e+01
 3.4247262506e-01	 1.5245060679e+00	 3.3560714894e+01
 3.1336856092e-01	 1.5307535383e+00	 4.1890837650e+01
 2.8431726940e-01	 1.5364146382e+00	 4.9653633792e+01
 5.7974916756e-01	 1.4644165742e+00	-5.3731656715e+01
 5.5061620546e-01	 1.4756174282e+00	-3.9340873627e+01
 5.2139338645e-01	 1.4861944478e+00	-2.5963383541e+01
 4.9209967939e-01	 1.4961493594e+00	-1.3561151434e+01
 4.6275380190e-01	 1.5054846126e+00	-2.0942780401e+00
 4.3337418838e-01	 1.5142033592e+00	 8.4787793284e+00
 4.0397895985e-01	 1.5223094298e+00	 1.8200986141e+01
 3.7458589547e-01	 1.5298073104e+00	 2.7116511544e+01
 3.4521240606e-01	 1.5367021165e+00	 3.5270512068e+01
 3.1587550940e-01	 1.5429995666e+00	 4.2708919364e+01
 2.8659180756e-01	 1.5487059553e+00	 4.9478233060e+01
 5.8435035143e-01	 1.4760389279e+00	-5.1164043261e+01
 5.5498617535e-01	 1.4873286776e+00	-3.6020641024e+01
 5.2553142920e-01	 1.4979896418e+00	-2.2148943636e+01
 4.9600523240e-01	 1.5080235606e+00	-9.4918141109e+00
 4.6642645112e-01	 1.5174329032e+00	 2.0101168881e+00
 4.3681366607e-01	 1.5262208461e+00	 1.2418140659e+01
 4.0718514207e-01	 1.5343912507e+00	 2.1795161920e+01
 3.7755879940e-01	 1.5419486383e+00	 3.0205393976e+01
 3.4795218706e-01	 1.5488981650e+00	 3.7714059305e+01
 3.1838245789e-01	 1.5552455949e+00	 4.4387097189e+01
 2.8886634572e-01	 1.5609972724e+00	 5.0290879850e+01
 5.8895153530e-01	 1.4876612817e+00	-4.8781998524e+01
 5.5935614523e-01	 1.4990399270e+00	-3.2783681438e+01
 5.2966947195e-01	 1.5097848358e+00	-1.8312018086e+01
 4.9991078541e-01	 1.5198977619e+00	-5.2910019204e+00
 4.7009910034e-01	 1.5293811938e+00	 6.3579711123e+00
 4.4025314375e-01	 1.5382383331e+00	 1.6715703467e+01
 4.1039132429e-01	 1.5464730715e+00	 2.5864800410e+01
 3.8053170334e-01	 1.5540899661e+00	 3.3889280270e+01
 3.5069196806e-01	 1.5610942135e+00	 4.0874192706e+01
 3.2088940638e-01	 1.5674916232e+00	 4.6905246997e+01
 2.9114088387e-01	 1.5732885895e+00	 5.2068452187e+01
 5.9355271917e-01	 1.4992836355e+00	-4.6581181600e+01
 5.6372611512e-01	 1.5107511764e+00	-2.9628032101e+01
 5.3380751470e-01	 1.5215800299e+00	-1.4453102768e+01
 5.0381633842e-01	 1.5317719632e+00	-9.6174448603e-01
 4.7377174956e-01	 1.5413294843e+00	 1.0943651632e+01
 4.4369262144e-01	 1.5502558201e+00	 2.1363167265e+01
 4.1359750651e-01	 1.5585548924e+00	 3.0398875073e+01
 3.8350460727e-01	 1.5662312940e+00	 3.8154364837e+01
 3.5343174906e-01	 1.5732902621e+00	 4.4734280179e+01
 3.2339635487e-01	 1.5797376515e+00	 5.0243868263e+01
 2.9341542203e-01	 1.5855799066e+00	 5.4788544670e+01
 5.9815390303e-01	 1.5109059892e+00	-4.4557385602e+01
 5.6809608500e-01	 1.5224624259e+00	-2.6551791089e+01
 5.3794555745e-01	 1.5333752239e+00	-1.0572678747e+01
 5.0772189143e-01	 1.5436461644e+00	 3.4930213484e+00
 4.7744439878e-01	 1.5532777749e+00	 1.5761698335e+01
 4.4713209913e-01	 1.5622733071e+00	 2.6352486538e+01
 4.1680368873e-01	 1.5706367133e+00	 3.5386698232e+01
 3.8647751120e-01	 1.5783726218e+00	 4.2987266465e+01
 3.5617153006e-01	 1.5854863106e+00	 4.9278200987e+01
 3.2590330336e-01	 1.5919836798e+00	 5.4384060090e+01
 2.9568996018e-01	 1.5978712237e+00	 5.8429440914e+01
 2.7294457863e-01	 1.4749580526e+00	 6.6214541483e+01
 2.4512139627e-01	 1.4798363089e+00	 6.0288081072e+01
 2.1737923355e-01	 1.4841651757e+00	 5.3494529797e+01
 1.8973260298e-01	 1.4879521294e+00	 4.5950880673e+01
 1.6219555325e-01	 1.4912050840e+00	 3.7772469520e+01
 1.3478165686e-01	 1.4939323629e+00	 2.9072614718e+01
 1.0750399962e-01	 1.4961426704e+00	 1.9962282832e+01
 8.0375171844e-02	 1.4978450627e+00	 1.0549780716e+01
 5.3407261335e-02	 1.4990489200e+00	 9.4047446361e-01
 2.6611847981e-02	 1.4997639179e+00	-8.7634646188e+00
 0.0000000000e+00	 1.5000000000e+00	-1.8463287077e+01
 2.7521911678e-01	 1.4872493697e+00	 6.0724889673e+01
 2.4716407457e-01	 1.4921682781e+00	 5.4409323386e+01
 2.1919072716e-01	 1.4965332189e+00	 4.7703059118e+01
 1.9131370801e-01	 1.5003517305e+00	 4.0679371735e+01
 1.6354718286e-01	 1.5036317930e+00	 3.3410045194e+01
 1.3590483734e-01	 1.5063817993e+00	 2.5965168471e+01
 1.0839986628e-01	 1.5086105259e+00	 1.8412948631e+01
 8.1044964942e-02	 1.5103271049e+00	 1.0819541220e+01
 5.3852321846e-02	 1.5115409943e+00	 3.2488980548e+00
 2.6833613381e-02	 1.5122619506e+00	-4.2373676643e+00
 0.0000000000e+00	 1.5125000000e+00	-1.1580099103e+01
 2.7749365494e-01	 1.4995406868e+00	 5.6350706191e+01
 2.4920675287e-01	 1.5045002474e+00	 4.9370694612e+01
 2.2100222078e-01	 1.5089012620e+00	 4.2470835555e+01
 1.9289481303e-01	 1.5127513316e+00	 3.5681240545e+01
 1.6489881247e-01	 1.5160585021e+00	 2.9030691977e+01
 1.3702801781e-01	 1.5188312356e+00	 2.2546593666e+01
 1.0929573294e-01	 1.5210783815e+00	 1.6254929880e+01
 8.1714758041e-02	 1.5228091470e+00	 1.0180232660e+01
 5.4297382357e-02	 1.5240330686e+00	 4.3455571653e+00
 2.7055378780e-02	 1.5247599832e+00	-1.2275352414e+00
 0.0000000000e+00	 1.5250000000e+00	-6.5189865015e+00
 2.7976819309e-01	 1.5118320039e+00	 5.3064823365e+01
 2.5124943117e-01	 1.5168322166e+00	 4.5151743679e+01
 2.2281371439e-01	 1.5212693051e+00	 3.7784259821e+01
 1.9447591806e-01	 1.5251509326e+00	 3.0949861246e+01
 1.6625044208e-01	 1.5284852111e+00	 2.4634865670e+01
 1.3815119828e-01	 1.5312806720e+00	 1.8824522705e+01
 1.1019159961e-01	 1.5335462371e+00	 1.3503117437e+01
 8.2384551139e-02	 1.5352911892e+00	 8.6540733245e+00
 5.4742442867e-02	 1.5365251430e+00	 4.2600538623e+00
 2.7277144180e-02	 1.5372580159e+00	 3.0306249591e-01
 0.0000000000e+00	 1.5375000000e+00	-3.2354596987e+00
 2.8204273125e-01	 1.5241233210e+00	 5.0840949490e+01
 2.5329210948e-01	 1.5291641859e+00	 4.1732678831e+01
 2.2462520800e-01	 1.5336373482e+00	 3.3630170931e+01
 1.9605702308e-01	 1.5375505337e+00	 2.6478821351e+01
 1.6760207169e-01	 1.5409119201e+00	 2.0223007014e+01
 1.3927437876e-01	 1.5437301084e+00	 1.4806341443e+01
 1.1108746627e-01	 1.5460140927e+00	 1.0171921482e+01
 8.3054344237e-02	 1.5477732314e+00	 6.2625644714e+00
 5.5187503378e-02	 1.5490172173e+00	 3.0210350161e+00
 2.7498909579e-02	 1.5497560485e+00	 3.9026060779e-01
 0.0000000000e+00	 1.5500000000e+00	-1.6864645238e+00
 2.8431726940e-01	 1.5364146382e+00	 4.9653633792e+01
 2.5533478778e-01	 1.5414961551e+00	 3.9094341258e+01
 2.2643670161e-01	 1.5460053914e+00	 2.9995828673e+01
 1.9763812811e-01	 1.5499501348e+00	 2.2261913206e+01
 1.6895370130e-01	 1.5533386292e+00	 1.5795542294e+01
 1.4039755923e-01	 1.5561795447e+00	 1.0499199049e+01
 1.1198333293e-01	 1.5584819483e+00	 6.2752907482e+00
 8.3724137335e-02	 1.5602552736e+00	 3.0265190148e+00
 5.5632563889e-02	 1.5615092916e+00	 6.5623050761e-01
 2.7720674979e-02	 1.5622540812e+00	-9.3125283990e-01
 0.0000000000e+00	 1.5625000000e+00	-1.8303247950e+00
 2.8659180756e-01	 1.5487059553e+00	 4.9478233060e+01
 2.5737746608e-01	 1.5538281243e+00	 3.7218179976e+01
 2.2824819523e-01	 1.5583734345e+00	 2.6868896912e+01
 1.9921923313e-01	 1.5623497359e+00	 1.8293125864e+01
 1.7030533091e-01	 1.5657653382e+00	 1.1352883917e+01
 1.4152073970e-01	 1.5686289811e+00	 5.9100174031e+00
 1.1287919960e-01	 1.5709498039e+00	 1.8267308341e+00
 8.4393930433e-02	 1.5727373158e+00	-1.0339111618e+00
 5.6077624400e-02	 1.5740013660e+00	-2.8075103822e+00
 2.7942440379e-02	 1.5747521138e+00	-3.6278912597e+00
 0.0000000000e+00	 1.5750000000e+00	-3.6266876368e+00
 2.8886634572e-01	 1.5609972724e+00	 5.0290879850e+01
 2.5942014438e-01	 1.5661600936e+00	 3.6086227903e+01
 2.3005968884e-01	 1.5707414776e+00	 2.4237427683e+01
 2.0080033816e-01	 1.5747493369e+00	 1.4566637341e+01
 1.7165696052e-01	 1.5781920472e+00	 6.8954309540e+00
 1.4264392017e-01	 1.5810784174e+00	 1.0455000427e+00
 1.1377506626e-01	 1.5834176595e+00	-3.1606783503e+00
 8.5063723532e-02	 1.5852193580e+00	-5.8992091797e+00
 5.6522684910e-02	 1.5864934403e+00	-7.3441843033e+00
 2.8164205778e-02	 1.5872501465e+00	-7.6671261771e+00
 0.0000000000e+00	 1.5875000000e+00	-7.0364713810e+00
 2.9114088387e-01	 1.5732885895e+00	 5.2068452187e+01
 2.6146282268e-01	 1.5784920628e+00	 3.5681079048e+01
 2.3187118245e-01	 1.5831095208e+00	 2.2089846025e+01
 2.0238144318e-01	 1.5871489380e+00	 1.1076807236e+01
 1.7300859013e-01	 1.5906187563e+00	 2.4235696662e+00
 1.4376710065e-01	 1.5935278538e+00	-4.0878593070e+00
 1.1467093292e-01	 1.5958855151e+00	-8.6742659542e+00
 8.5733516630e-02	 1.5977014002e+00	-1.1550468360e+01
 5.6967745421e-02	 1.5989855146e+00	-1.2928600792e+01
 2.8385971178e-02	 1.5997481791e+00	-1.3017445898e+01
 0.0000000000e+00	 1.6000000000e+00	-1.2021815911e+01
 2.9341542203e-01	 1.5855799066e+00	 5.4788544670e+01
 2.6350550099e-01	 1.5908240321e+00	 3.5985866768e+01
 2.3368267606e-01	 1.5954775639e+00	 2.0414935530e+01
 2.0396254820e-01	 1.5995485391e+00	 7.8181696955e+00
 1.7436021974e-01	 1.6030454653e+00	-2.0623260002e+00
 1.4489028112e-01	 1.6059772901e+00	-9.4837686000e+00
 1.1556679958e-01	 1.6083533706e+00	-1.4701754331e+01
 8.6403309728e-02	 1.6101834424e+00	-1.7969368571e+01
 5.7412805932e-02	 1.6114775890e+00	-1.9536350762e+01
 2.8607736578e-02	 1.6122462118e+00	-1.9648316098e+01
 0.0000000000e+00	 1.6125000000e+00	-1.8546035314e+01
 2.9568996018e-01	 1.5978712237e+00	 5.8429440914e+01
 2.6554817929e-01	 1.6031560013e+00	 3.6984243023e+01
 2.3549416968e-01	 1.6078456070e+00	 1.9201824553e+01
 2.0554365323e-01	 1.6119481402e+00	 4.7854266986e+00
 1.7571184935e-01	 1.6154721743e+00	-6.5618939379e+00
 1.4601346159e-01	 1.6184267265e+00	-1.5136129712e+01
 1.1646266625e-01	 1.6208212262e+00	-2.1231243912e+01
 8.7073102826e-02	 1.6226654846e+00	-2.5138153669e+01
 5.7857866443e-02	 1.6239696633e+00	-2.7143776454e+01
 2.8829501977e-02	 1.6247442444e+00	-2.7530142232e+01
 0.0000000000e+00	 1.6250000000e+00	-2.6573572720e+01
 1.6250000000e+00	 0.0000000000e+00	 6.6839149216e+01
 1.6247442444e+00	 2.8829501977e-02	 5.2655803392e+01
 1.6239696633e+00	 5.7857866443e-02	 3.9626840196e+01
 1.6226654846e+00	 8.7073102826e-02	 2.7675273426e+01
 1.6208212262e+00	 1.1646266625e-01	 1.6716637279e+01
 1.6184267265e+00	 1.4601346159e-01	 6.6589524995e+00
 1.6154721743e+00	 1.7571184935e-01	-2.5972727983e+00
 1.6119481402e+00	 2.0554365323e-01	-1.1159005600e+01
 1.6078456070e+00	 2.3549416968e-01	-1.9140611809e+01
 1.6031560013e+00	 2.6554817929e-01	-2.6663739681e+01
 1.5978712237e+00	 2.9568996018e-01	-3.3857161322e+01
 1.6375000000e+00	 0.0000000000e+00	 1.7030996886e+01
 1.6372422771e+00	 2.9051267377e-02	 1.3985994560e+01
 1.6364617376e+00	 5.8302926953e-02	 1.0490937493e+01
 1.6351475267e+00	 8.7742895924e-02	 6.4655713480e+00
 1.6332890818e+00	 1.1735853291e-01	 1.8275553133e+00
 1.6308761629e+00	 1.4713664207e-01	-3.5073303528e+00
 1.6278988834e+00	 1.7706347896e-01	-9.6249565339e+00
 1.6243477413e+00	 2.0712475825e-01	-1.6612597383e+01
 1.6202136502e+00	 2.3730566329e-01	-2.4558662697e+01
 1.6154879705e+00	 2.6759085759e-01	-3.3552411021e+01
 1.6101625408e+00	 2.9796449834e-01	-4.3683644185e+01
 1.6500000000e+00	 0.0000000000e+00	-3.5261391300e+01
 1.6497403097e+00	 2.9273032776e-02	-2.6901376419e+01
 1.6489538120e+00	 5.8747987464e-02	-2.0569576594e+01
 1.6476295689e+00	 8.8412689023e-02	-1.6349394702e+01
 1.6457569374e+00	 1.1825439957e-01	-1.4320981293e+01
 1.6433255992e+00	 1.4825982254e-01	-1.4560788112e+01
 1.6403255924e+00	 1.7841510857e-01	-1.7141115665e+01
 1.6367473423e+00	 2.0870586328e-01	-2.2129657205e+01
 1.6325816933e+00	 2.3911715690e-01	-2.9589041678e+01
 1.6278199398e+00	 2.6963353589e-01	-3.9576378351e+01
 1.6224538579e+00	 3.0023903649e-01	-5.2142806004e+01
 1.6625000000e+00	 0.0000000000e+00	-8.9981991631e+01
 1.6622383424e+00	 2.9494798176e-02	-6.9956299581e+01
 1.6614458863e+00	 5.9193047975e-02	-5.3511298607e+01
 1.6601116111e+00	 8.9082482121e-02	-4.0733423234e+01
 1.6582247930e+00	 1.1915026624e-01	-3.1700569954e+01
 1.6557750356e+00	 1.4938300301e-01	-2.6481414220e+01
 1.6527523014e+00	 1.7976673818e-01	-2.5134735650e+01
 1.6491469434e+00	 2.1028696830e-01	-2.7708756001e+01
 1.6449497364e+00	 2.4092865051e-01	-3.4240494676e+01
 1.6401519090e+00	 2.7167621419e-01	-4.4755146665e+01
 1.6347451750e+00	 3.0251357465e-01	-5.9265488004e+01
 1.6750000000e+00	 0.0000000000e+00	-1.4707645267e+02
 1.6747363750e+00	 2.9716563576e-02	-1.1513025772e+02
 1.6739379606e+00	 5.9638108486e-02	-8.8292120649e+01
 1.6725936533e+00	 8.9752275219e-02	-6.6651393345e+01
 1.6706926486e+00	 1.2004613290e-01	-5.0283655877e+01
 1.6682244719e+00	 1.5050618349e-01	-3.9249799299e+01
 1.6651790105e+00	 1.8111836779e-01	-3.3595130718e+01
 1.6615465445e+00	 2.1186807333e-01	-3.3348507356e+01
 1.6573177796e+00	 2.4274014413e-01	-3.8521506542e+01
 1.6524838783e+00	 2.7371889250e-01	-4.9107638732e+01
 1.6470364921e+00	 3.0478811280e-01	-6.5081610799e+01
 1.6875000000e+00	 0.0000000000e+00	-2.0649203329e+02
 1.6872344077e+00	 2.9938328975e-02	-1.6237617111e+02
 1.6864300350e+00	 6.0083168996e-02	-1.2487118240e+02
 1.6850756955e+00	 9.0422068317e-02	-9.4069224697e+01
 1.6831605042e+00	 1.2094199956e-01	-7.0043500664e+01
 1.6806739083e+00	 1.5162936396e-01	-5.2847109027e+01
 1.6776057195e+00	 1.8246999740e-01	-4.2511931691e+01
 1.6739461456e+00	 2.1344917835e-01	-3.9047565923e+01
 1.6696858227e+00	 2.4455163774e-01	-4.2440310726e+01
 1.6648158475e+00	 2.7576157080e-01	-5.2652216661e+01
 1.6593278092e+00	 3.0706265096e-01	-6.9620208493e+01
 1.7000000000e+00	 0.0000000000e+00	-2.6817754352e+02
 1.6997324403e+00	 3.0160094375e-02	-2.1164834464e+02
 1.6989221093e+00	 6.0528229507e-02	-1.6320882525e+02
 1.6975577377e+00	 9.1091861415e-02	-1.2295383926e+02
 1.6956283597e+00	 1.2183786622e-01	-9.0954152296e+01
 1.6931233446e+00	 1.5275254443e-01	-6.7255063004e+01
 1.6900324285e+00	 1.8382162701e-01	-5.1875074348e+01
 1.6863457466e+00	 2.1503028338e-01	-4.4804625913e+01
 1.6820538658e+00	 2.4636313135e-01	-4.6004898518e+01
 1.6771478167e+00	 2.7780424910e-01	-5.5406702513e+01
 1.6716191263e+00	 3.0933718911e-01	-7.2909461271e+01
 1.7125000000e+00	 0.0000000000e+00	-3.3208328788e+02
 1.7122304730e+00	 3.0381859775e-02	-2.6290241729e+02
 1.7114141836e+00	 6.0973290018e-02	-2.0326654845e+02
 1.7100397799e+00	 9.1761654514e-02	-1.5327312474e+02
 1.7080962153e+00	 1.2273373289e-01	-1.1299041644e+02
 1.7055727810e+00	 1.5387572491e-01	-8.2455914529e+01
 1.7024591376e+00	 1.8517325662e-01	-6.1674788288e+01
 1.6987453477e+00	 2.1661138840e-01	-5.0618419654e+01
 1.6944219089e+00	 2.4817462496e-01	-4.9223027891e+01
 1.6894797860e+00	 2.7984692740e-01	-5.7388398007e+01
 1.6839104434e+00	 3.1161172727e-01	-7.4976726566e+01
 1.7250000000e+00	 0.0000000000e+00	-3.9816101127e+02
 1.7247285056e+00	 3.0603625174e-02	-3.1609531380e+02
 1.7239062580e+00	 6.1418350529e-02	-2.4500696713e+02
 1.7225218221e+00	 9.2431447612e-02	-1.8499589957e+02
 1.7205640709e+00	 1.2362959955e-01	-1.3612782897e+02
 1.7180222174e+00	 1.5499890538e-01	-9.8432431268e+01
 1.7148858466e+00	 1.8652488623e-01	-7.1901586292e+01
 1.7111449488e+00	 2.1819249342e-01	-5.6487716207e+01
 1.7067899521e+00	 2.4998611858e-01	-5.2102231946e+01
 1.7018117552e+00	 2.8188960570e-01	-5.8614103381e+01
 1.6962017605e+00	 3.1388626542e-01	-7.5848568868e+01
 1.7375000000e+00	 0.0000000000e+00	-4.6636384716e+02
 1.7372265383e+00	 3.0825390574e-02	-3.7118519843e+02
 1.7363983323e+00	 6.1863411039e-02	-2.8839377220e+02
 1.7350038643e+00	 9.3101240710e-02	-2.1809187944e+02
 1.7330319265e+00	 1.2452546621e-01	-1.6034262976e+02
 1.7304716537e+00	 1.5612208585e-01	-1.1516787675e+02
 1.7273125556e+00	 1.8787651584e-01	-8.2546254135e+01
 1.7235445499e+00	 2.1977359845e-01	-6.2411320048e+01
 1.7191579952e+00	 2.5179761219e-01	-5.4649827012e+01
 1.7141437245e+00	 2.8393228401e-01	-5.9100135423e+01
 1.7084930776e+00	 3.1616080358e-01	-7.5550788243e+01
 1.7500000000e+00	 0.0000000000e+00	-5.3664626794e+02
 1.7497245709e+00	 3.1047155973e-02	-4.2813143064e+02
 1.7488904066e+00	 6.2308471550e-02	-3.3339169192e+02
 1.7474859064e+00	 9.3771033808e-02	-2.5253164528e+02
 1.7454997821e+00	 1.2542133288e-01	-1.8561173746e+02
 1.7429210901e+00	 1.5724526633e-01	-1.3264599265e+02
 1.7397392647e+00	 1.8922814545e-01	-9.3599840832e+01
 1.7359441510e+00	 2.2135470347e-01	-6.8388069799e+01
 1.7315260383e+00	 2.5360910580e-01	-5.6872920376e+01
 1.7264756937e+00	 2.8597496231e-01	-5.8862344744e+01
 1.7207843947e+00	 3.1843534174e-01	-7.4108447642e+01
 1.5978712237e+00	 2.9568996018e-01	-3.3857161322e+01
 1.5919836798e+00	 3.2590330336e-01	-2.4395474674e+01
 1.5854863106e+00	 3.5617153006e-01	-1.6385093184e+01
 1.5783726218e+00	 3.8647751120e-01	-9.7639444754e+00
 1.5706367133e+00	 4.1680368873e-01	-4.4628515661e+00
 1.5622733071e+00	 4.4713209913e-01	-4.0555823069e-01
 1.5532777749e+00	 4.7744439878e-01	 2.4912084652e+00
 1.5436461644e+00	 5.0772189143e-01	 4.3176371881e+00
 1.5333752239e+00	 5.3794555745e-01	 5.1706918854e+00
 1.5224624259e+00	 5.6809608500e-01	 5.1539311041e+00
 1.5109059892e+00	 5.9815390303e-01	 4.3772866088e+00
 1.6101625408e+00	 2.9796449834e-01	-4.3683644185e+01
 1.6042297081e+00	 3.2841025184e-01	-3.6224247192e+01
 1.5976823592e+00	 3.5891131106e-01	-2.9510619980e+01
 1.5905139497e+00	 3.8945041513e-01	-2.3498144917e+01
 1.5827185341e+00	 4.2000987096e-01	-1.8138072767e+01
 1.5742907940e+00	 4.5057157681e-01	-1.3377573030e+01
 1.5652260655e+00	 4.8111704801e-01	-9.1598073378e+00
 1.5555203657e+00	 5.1162744444e-01	-5.4240264569e+00
 1.5451704179e+00	 5.4208360020e-01	-2.1056913229e+00
 1.5341736753e+00	 5.7246605488e-01	 8.6338167265e-01
 1.5225283430e+00	 6.0275508690e-01	 3.5548510932e+00
 1.6224538579e+00	 3.0023903649e-01	-5.2142806004e+01
 1.6164757364e+00	 3.3091720033e-01	-4.6887098691e+01
 1.6098784077e+00	 3.6165109207e-01	-4.1682784942e+01
 1.6026552775e+00	 3.9242331907e-01	-3.6502531348e+01
 1.5948003550e+00	 4.2321605318e-01	-3.1317815393e+01
 1.5863082810e+00	 4.5401105450e-01	-2.6099000468e+01
 1.5771743561e+00	 4.8478969723e-01	-2.0815419929e+01
 1.5673945670e+00	 5.1553299746e-01	-1.5435470094e+01
 1.5569656119e+00	 5.4622164295e-01	-9.9267119401e+00
 1.5458849247e+00	 5.7683602477e-01	-4.2559812387e+00
 1.5341506968e+00	 6.0735627077e-01	 1.6104932634e+00
 1.6347451750e+00	 3.0251357465e-01	-5.9265488004e+01
 1.6287217648e+00	 3.3342414882e-01	-5.6410326591e+01
 1.6220744563e+00	 3.6439087307e-01	-5.2923090027e+01
 1.6147966054e+00	 3.9539622300e-01	-4.8793562448e+01
 1.6068821759e+00	 4.2642223540e-01	-4.4013251571e+01
 1.5983257680e+00	 4.5745053219e-01	-3.8575488061e+01
 1.5891226466e+00	 4.8846234645e-01	-3.2475520097e+01
 1.5792687682e+00	 5.1943855047e-01	-2.5710602286e+01
 1.5687608060e+00	 5.5035968570e-01	-1.8280078134e+01
 1.5575961742e+00	 5.8120599466e-01	-1.0185455252e+01
 1.5457730505e+00	 6.1195745464e-01	-1.4304725070e+00
 1.6470364921e+00	 3.0478811280e-01	-6.5081610799e+01
 1.6409677931e+00	 3.3593109731e-01	-6.4819443351e+01
 1.6342705048e+00	 3.6713065407e-01	-6.3252395391e+01
 1.6269379333e+00	 3.9836912693e-01	-6.0387205658e+01
 1.6189639967e+00	 4.2962841762e-01	-5.6235220004e+01
 1.6103432550e+00	 4.6089000987e-01	-5.0812514838e+01
 1.6010709372e+00	 4.9213499567e-01	-4.4140001994e+01
 1.5911429695e+00	 5.2334410348e-01	-3.6243513548e+01
 1.5805560000e+00	 5.5449772845e-01	-2.7153865125e+01
 1.5693074236e+00	 5.8557596454e-01	-1.6906896411e+01
 1.5573954043e+00	 6.1655863851e-01	-5.5434876542e+00
 1.6593278092e+00	 3.0706265096e-01	-6.9620208493e+01
 1.6532138214e+00	 3.3843804579e-01	-7.2139205543e+01
 1.6464665533e+00	 3.6987043507e-01	-7.2690943165e+01
 1.6390792611e+00	 4.0134203087e-01	-7.1298955371e+01
 1.6310458176e+00	 4.3283459984e-01	-6.7994238330e+01
 1.6223607419e+00	 4.6432948756e-01	-6.2815397571e+01
 1.6130192278e+00	 4.9580764490e-01	-5.5808763013e+01
 1.6030171708e+00	 5.2724965649e-01	-4.7028469606e+01
 1.5923511940e+00	 5.5863577120e-01	-3.6536501587e+01
 1.5810186730e+00	 5.8994593443e-01	-2.4402698505e+01
 1.5690177580e+00	 6.2115982239e-01	-1.0704721431e+01
 1.6716191263e+00	 3.0933718911e-01	-7.2909461271e+01
 1.6654598497e+00	 3.4094499428e-01	-7.8393641645e+01
 1.6586626019e+00	 3.7261021607e-01	-8.1258380172e+01
 1.6512205890e+00	 4.0431493480e-01	-8.1543850330e+01
 1.6431276385e+00	 4.3604078207e-01	-7.9300514916e+01
 1.6343782289e+00	 4.6776896525e-01	-7.4589296750e+01
 1.6249675184e+00	 4.9948029412e-01	-6.7481703665e+01
 1.6148913720e+00	 5.3115520951e-01	-5.8059904958e+01
 1.6041463881e+00	 5.6277381395e-01	-4.6416756657e+01
 1.5927299225e+00	 5.9431590431e-01	-3.2655773290e+01
 1.5806401118e+00	 6.2576100626e-01	-1.6891044150e+01
 1.6839104434e+00	 3.1161172727e-01	-7.4976726566e+01
 1.6777058780e+00	 3.4345194277e-01	-8.3606078611e+01
 1.6708586504e+00	 3.7534999707e-01	-8.8973779657e+01
 1.6633619168e+00	 4.0728783873e-01	-9.1136490249e+01
 1.6552094594e+00	 4.3924696429e-01	-9.0163960156e+01
 1.6463957159e+00	 4.7120844293e-01	-8.6139222279e+01
 1.6369158090e+00	 5.0315294334e-01	-7.9158727467e+01
 1.6267655733e+00	 5.3506076252e-01	-6.9332416710e+01
 1.6159415821e+00	 5.6691185670e-01	-5.6783727507e+01
 1.6044411719e+00	 5.9868587420e-01	-4.1649531590e+01
 1.5922624656e+00	 6.3036219013e-01	-2.4080001593e+01
 1.6962017605e+00	 3.1388626542e-01	-7.5848568868e+01
 1.6899519063e+00	 3.4595889126e-01	-8.7799167287e+01
 1.6830546990e+00	 3.7808977807e-01	-9.5855662068e+01
 1.6755032447e+00	 4.1026074267e-01	-1.0009105173e+02
 1.6672912802e+00	 4.4245314651e-01	-1.0059419726e+02
 1.6584132029e+00	 4.7464792062e-01	-9.7470038937e+01
 1.6488640995e+00	 5.0682559256e-01	-9.0839740836e+01
 1.6386397746e+00	 5.3896631553e-01	-8.0840758689e+01
 1.6277367761e+00	 5.7104989945e-01	-6.7626827458e+01
 1.6161524213e+00	 6.0305584409e-01	-5.1367865213e+01
 1.6038848193e+00	 6.3496337400e-01	-3.2249790540e+01
 1.7084930776e+00	 3.1616080358e-01	-7.5550788243e+01
 1.7021979346e+00	 3.4846583975e-01	-9.0994906736e+01
 1.6952507475e+00	 3.8082955907e-01	-1.0192201494e+02
 1.6876445726e+00	 4.1323364660e-01	-1.0842130347e+02
 1.6793731011e+00	 4.4565932873e-01	-1.1060057257e+02
 1.6704306899e+00	 4.7808739831e-01	-1.0858647160e+02
 1.6608123901e+00	 5.1049824179e-01	-1.0252465298e+02
 1.6505139758e+00	 5.4287186855e-01	-9.2579835801e+01
 1.6395319702e+00	 5.7518794221e-01	-7.8935774609e+01
 1.6278636708e+00	 6.0742581398e-01	-6.1795129648e+01
 1.6155071731e+00	 6.3956455788e-01	-4.1379235351e+01
 1.7207843947e+00	 3.1843534174e-01	-7.4108447642e+01
 1.7144439629e+00	 3.5097278823e-01	-9.3214667514e+01
 1.7074467961e+00	 3.8356934007e-01	-1.0719031192e+02
 1.6997859004e+00	 4.1620655053e-01	-1.1614062085e+02
 1.6914549220e+00	 4.4886551095e-01	-1.2019216550e+02
 1.6824481768e+00	 4.8152687600e-01	-1.1949311022e+02
 1.6727606807e+00	 5.1417089101e-01	-1.1421337579e+02
 1.6623881771e+00	 5.4677742156e-01	-1.0454469864e+02
 1.6513271642e+00	 5.7932598496e-01	-9.0700580950e+01
 1.6395749202e+00	 6.1179578386e-01	-7.2916127506e+01
 1.6271295269e+00	 6.4416574175e-01	-5.1447765554e+01
 1.5109059892e+00	 5.9815390303e-01	 4.3772866088e+00
 1.4987048992e+00	 6.2809921591e-01	-2.6971652339e+00
 1.4858589260e+00	 6.5791203964e-01	-8.5892806766e+00
 1.4723686411e+00	 6.8757223970e-01	-1.3358890715e+01
 1.4582354312e+00	 7.1705957009e-01	-1.7071266697e+01
 1.4434615111e+00	 7.4635371371e-01	-1.9796973100e+01
 1.4280499324e+00	 7.7543432381e-01	-2.1611688516e+01
 1.4120045914e+00	 8.0428106636e-01	-2.2595995132e+01
 1.3953302337e+00	 8.3287366321e-01	-2.2835137219e+01
 1.3780324560e+00	 8.6119193579e-01	-2.2418749465e+01
 1.3601177057e+00	 8.8921584925e-01	-2.1440556216e+01
 1.5225283430e+00	 6.0275508690e-01	 3.5548510932e+00
 1.5102333985e+00	 6.3293074833e-01	-1.1538305184e+00
 1.4972886101e+00	 6.6297290149e-01	-5.2357090431e+00
 1.4836945537e+00	 6.9286125693e-01	-8.7286568297e+00
 1.4694526269e+00	 7.2257541294e-01	-1.1673566512e+01
 1.4545650612e+00	 7.5209489612e-01	-1.4114249562e+01
 1.4390349319e+00	 7.8139920322e-01	-1.6097316743e+01
 1.4228661652e+00	 8.1046784380e-01	-1.7672040735e+01
 1.4060635432e+00	 8.3928038370e-01	-1.8890201354e+01
 1.3886327056e+00	 8.6781648914e-01	-1.9805913946e+01
 1.3705801496e+00	 8.9605597117e-01	-2.0475441694e+01
 1.5341506968e+00	 6.0735627077e-01	 1.6104932634e+00
 1.5217618977e+00	 6.3776228076e-01	-5.5225963241e-01
 1.5087182941e+00	 6.6803376333e-01	-2.6352001650e+00
 1.4950204663e+00	 6.9815027416e-01	-4.6544881962e+00
 1.4806698225e+00	 7.2809125578e-01	-6.6269088020e+00
 1.4656686113e+00	 7.5783607853e-01	-8.5698161929e+00
 1.4500199314e+00	 7.8736408263e-01	-1.0501073095e+01
 1.4337277390e+00	 8.1665462123e-01	-1.2438985864e+01
 1.4167968527e+00	 8.4568710418e-01	-1.4402235634e+01
 1.3992329553e+00	 8.7444104249e-01	-1.6409805871e+01
 1.3810425935e+00	 9.0289609308e-01	-1.8480906705e+01
 1.5457730505e+00	 6.1195745464e-01	-1.4304725070e+00
 1.5332903969e+00	 6.4259381320e-01	-8.7120144952e-01
 1.5201479782e+00	 6.7309462517e-01	-7.7075889105e-01
 1.5063463789e+00	 7.0343929139e-01	-1.1238328112e+00
 1.4918870181e+00	 7.3360709863e-01	-1.9233657663e+00
 1.4767721614e+00	 7.6357726095e-01	-3.1605437757e+00
 1.4610049308e+00	 7.9332896205e-01	-4.8247941062e+00
 1.4445893128e+00	 8.2284139866e-01	-6.9037922226e+00
 1.4275301622e+00	 8.5209382467e-01	-9.3834781033e+00
 1.4098332050e+00	 8.8106559584e-01	-1.2248082050e+01
 1.3915050374e+00	 9.0973621500e-01	-1.5480160043e+01
 1.5573954043e+00	 6.1655863851e-01	-5.5434876542e+00
 1.5448188961e+00	 6.4742534563e-01	-2.0900393756e+00
 1.5315776622e+00	 6.7815548702e-01	 3.7410242865e-01
 1.5176722916e+00	 7.0872830862e-01	 1.8754864449e+00
 1.5031042137e+00	 7.3912294148e-01	 2.4447535346e+00
 1.4878757114e+00	 7.6931844336e-01	 2.1166032733e+00
 1.4719899303e+00	 7.9929384146e-01	 9.2973827700e-01
 1.4554508866e+00	 8.2902817610e-01	-1.0732139525e+00
 1.4382634717e+00	 8.5850054516e-01	-3.8458017522e+00
 1.4204334546e+00	 8.8769014920e-01	-7.3378724965e+00
 1.4019674813e+00	 9.1657633692e-01	-1.1495717984e+01
 1.5690177580e+00	 6.2115982239e-01	-1.0704721431e+01
 1.5563473954e+00	 6.5225687806e-01	-4.1887678471e+00
 1.5430073463e+00	 6.8321634886e-01	 8.1538273954e-01
 1.5289982042e+00	 7.1401732585e-01	 4.3552856942e+00
 1.5143214094e+00	 7.4463878433e-01	 6.4849119538e+00
 1.4989792615e+00	 7.7505962577e-01	 7.2645703755e+00
 1.4829749298e+00	 8.0525872088e-01	 6.7607946746e+00
 1.4663124604e+00	 8.3521495353e-01	 5.0461946857e+00
 1.4489967812e+00	 8.6490726564e-01	 2.1992719670e+00
 1.4310337043e+00	 8.9431470255e-01	-1.6957999346e+00
 1.4124299252e+00	 9.2341645884e-01	-6.5494299351e+00
 1.5806401118e+00	 6.2576100626e-01	-1.6891044150e+01
 1.5678758946e+00	 6.5708841049e-01	-7.1479698661e+00
 1.5544370303e+00	 6.8827721071e-01	 5.6861025051e-01
 1.5403241168e+00	 7.1930634308e-01	 6.3270333336e+00
 1.5255386050e+00	 7.5015462717e-01	 1.0204352645e+01
 1.5100828116e+00	 7.8080080819e-01	 1.2286216106e+01
 1.4939599293e+00	 8.1122360029e-01	 1.2666696342e+01
 1.4771740341e+00	 8.4140173097e-01	 1.1448071963e+01
 1.4597300907e+00	 8.7131398613e-01	 8.7405602158e+00
 1.4416339539e+00	 9.0093925590e-01	 4.6620015521e+00
 1.4228923691e+00	 9.3025658076e-01	-6.6250294735e-01
 1.5922624656e+00	 6.3036219013e-01	-2.4080001593e+01
 1.5794043938e+00	 6.6191994292e-01	-1.0948795519e+01
 1.5658667144e+00	 6.9333807255e-01	-3.5114038525e-01
 1.5516500294e+00	 7.2459536031e-01	 7.8018627268e+00
 1.5367558006e+00	 7.5567047002e-01	 1.3610107079e+01
 1.5211863617e+00	 7.8654199061e-01	 1.7184315364e+01
 1.5049449288e+00	 8.1718847971e-01	 1.8645813324e+01
 1.4880356079e+00	 8.4758850840e-01	 1.8126241656e+01
 1.4704634002e+00	 8.7772070662e-01	 1.5767206413e+01
 1.4522342036e+00	 9.0756380926e-01	 1.1719868688e+01
 1.4333548130e+00	 9.3709670267e-01	 6.1444748409e+00
 1.6038848193e+00	 6.3496337400e-01	-3.2249790540e+01
 1.5909328930e+00	 6.6675147536e-01	-1.5572941430e+01
 1.5772963984e+00	 6.9839893440e-01	-1.9292316364e+00
 1.5629759421e+00	 7.2988437754e-01	 8.7905843437e+00
 1.5479729963e+00	 7.6118631287e-01	 1.6709002720e+01
 1.5322899118e+00	 7.9228317302e-01	 2.1961562404e+01
 1.5159299283e+00	 8.2315335913e-01	 2.4696562686e+01
 1.4988971817e+00	 8.5377528584e-01	 2.5074706328e+01
 1.4811967096e+00	 8.8412742711e-01	 2.3268668416e+01
 1.4628344533e+00	 9.1418836261e-01	 1.9462591948e+01
 1.4438172569e+00	 9.4393682459e-01	 1.3851511781e+01
 1.6155071731e+00	 6.3956455788e-01	-4.1379235351e+01
 1.6024613923e+00	 6.7158300779e-01	-2.1002631100e+01
 1.5887260825e+00	 7.0345979625e-01	-4.1514473689e+00
 1.5743018547e+00	 7.3517339477e-01	 9.3036973762e+00
 1.5591901919e+00	 7.6670215573e-01	 1.9507670357e+01
 1.5433934619e+00	 7.9802435544e-01	 2.6620573741e+01
 1.5269149277e+00	 8.2911823854e-01	 3.0817406827e+01
 1.5097587555e+00	 8.5996206328e-01	 3.2287640901e+01
 1.4919300191e+00	 8.9053414760e-01	 3.1234707208e+01
 1.4734347029e+00	 9.2081291596e-01	 2.7875399240e+01
 1.4542797008e+00	 9.5077694651e-01	 2.2439191261e+01
 1.6271295269e+00	 6.4416574175e-01	-5.1447765554e+01
 1.6139898915e+00	 6.7641454023e-01	-2.7220596090e+01
 1.6001557665e+00	 7.0852065810e-01	-7.0039777955e+00
 1.5856277673e+00	 7.4046241201e-01	 9.3514008558e+00
 1.5704073875e+00	 7.7221799858e-01	 2.2012551136e+01
 1.5544970120e+00	 8.0376553786e-01	 3.1163890926e+01
 1.5378999272e+00	 8.3508311796e-01	 3.7006851858e+01
 1.5206203293e+00	 8.6614884071e-01	 3.9759386495e+01
 1.5026633286e+00	 8.9694086809e-01	 3.9655376080e+01
 1.4840349526e+00	 9.2743746932e-01	 3.6943940278e+01
 1.4647421446e+00	 9.5761706843e-01	 3.1888651167e+01
 1.3601177057e+00	 8.8921584925e-01	-2.1440556216e+01
 1.3415932778e+00	 9.1692555685e-01	-1.7316312455e+01
 1.3224673086e+00	 9.4430144431e-01	-1.4233101707e+01
 1.3027487666e+00	 9.7132417402e-01	-1.2107190563e+01
 1.2824474416e+00	 9.9797472884e-01	-1.0850532239e+01
 1.2615739298e+00	 1.0242344554e+00	-1.0371102823e+01
 1.2401396167e+00	 1.0500851065e+00	-1.0573262438e+01
 1.2181566579e+00	 1.0755088827e+00	-1.1358139157e+01
 1.1956379560e+00	 1.1004884725e+00	-1.2624033303e+01
 1.1725971363e+00	 1.1250070915e+00	-1.4266839548e+01
 1.1490485194e+00	 1.1490485194e+00	-1.6180484077e+01
 1.3705801496e+00	 8.9605597117e-01	-2.0475441694e+01
 1.3519132261e+00	 9.2397883037e-01	-1.7039829697e+01
 1.3326401340e+00	 9.5156530158e-01	-1.4317599759e+01
 1.3127699110e+00	 9.7879589844e-01	-1.2254224505e+01
 1.2923124220e+00	 1.0056514575e+00	-1.0792209816e+01
 1.2712783446e+00	 1.0321131820e+00	-9.8713141031e+00
 1.2496791523e+00	 1.0581626843e+00	-9.4287846790e+00
 1.2275270937e+00	 1.0837820280e+00	-9.3996098107e+00
 1.2048351710e+00	 1.1089537685e+00	-9.7167849006e+00
 1.1816171143e+00	 1.1336609922e+00	-1.0311591102e+01
 1.1578873542e+00	 1.1578873542e+00	-1.1113884563e+01
 1.3810425935e+00	 9.0289609308e-01	-1.8480906705e+01
 1.3622331744e+00	 9.3103210388e-01	-1.5918945331e+01
 1.3428129595e+00	 9.5882915884e-01	-1.3747374083e+01
 1.3227910553e+00	 9.8626762285e-01	-1.1940534528e+01
 1.3021774023e+00	 1.0133281862e+00	-1.0471134356e+01
 1.2809827595e+00	 1.0399919086e+00	-9.3103508169e+00
 1.2592186878e+00	 1.0662402620e+00	-8.4279434810e+00
 1.2368975295e+00	 1.0920551732e+00	-7.7923756964e+00
 1.2140323861e+00	 1.1174190644e+00	-7.3709439709e+00
 1.1906370923e+00	 1.1423148929e+00	-7.1299144731e+00
 1.1667261890e+00	 1.1667261890e+00	-7.0346657632e+00
 1.3915050374e+00	 9.0973621500e-01	-1.5480160043e+01
 1.3725531227e+00	 9.3808537740e-01	-1.3972694583e+01
 1.3529857849e+00	 9.6609301611e-01	-1.2537181258e+01
 1.3328121997e+00	 9.9373934727e-01	-1.1176501082e+01
 1.3120423826e+00	 1.0210049149e+00	-9.8932206186e+00
 1.2906871743e+00	 1.0478706351e+00	-8.6895806574e+00
 1.2687582233e+00	 1.0743178398e+00	-7.5674865537e+00
 1.2462679654e+00	 1.1003283185e+00	-6.5285003075e+00
 1.2232296011e+00	 1.1258843604e+00	-5.5738344414e+00
 1.1996570702e+00	 1.1509687936e+00	-4.7043477239e+00
 1.1755650237e+00	 1.1755650237e+00	-3.9205427702e+00
 1.4019674813e+00	 9.1657633692e-01	-1.1495717984e+01
 1.3828730710e+00	 9.4513865091e-01	-1.1219544757e+01
 1.3631586104e+00	 9.7335687337e-01	-1.0701337671e+01
 1.3428333441e+00	 1.0012110717e+00	-9.9721950714e+00
 1.3219073629e+00	 1.0286816436e+00	-9.0642071259e+00
 1.3003915892e+00	 1.0557493617e+00	-8.0103308258e+00
 1.2782977588e+00	 1.0823954175e+00	-6.8442590350e+00
 1.2556384012e+00	 1.1086014637e+00	-5.6002844020e+00
 1.2324268162e+00	 1.1343496563e+00	-4.3131589919e+00
 1.2086770482e+00	 1.1596226943e+00	-3.0179505417e+00
 1.1844038585e+00	 1.1844038585e+00	-1.7498962782e+00
 1.4124299252e+00	 9.2341645884e-01	-6.5494299351e+00
 1.3931930193e+00	 9.5219192443e-01	-7.6774162674e+00
 1.3733314358e+00	 9.8062073064e-01	-8.2537358224e+00
 1.3528544884e+00	 1.0086827961e+00	-8.3373893121e+00
 1.3317723432e+00	 1.0363583723e+00	-7.9896626923e+00
 1.3100960040e+00	 1.0636280883e+00	-7.2738895295e+00
 1.2878372943e+00	 1.0904729952e+00	-6.2551998800e+00
 1.2650088370e+00	 1.1168746090e+00	-5.0002572124e+00
 1.2416240312e+00	 1.1428149523e+00	-3.5769850254e+00
 1.2176970262e+00	 1.1682765950e+00	-2.0542849143e+00
 1.1932426932e+00	 1.1932426932e+00	-5.0174792703e-01
 1.4228923691e+00	 9.3025658076e-01	-6.6250294735e-01
 1.4035129676e+00	 9.5924519794e-01	-3.3637027417e+00
 1.3835042613e+00	 9.8788458790e-01	-5.2078599026e+00
 1.3628756328e+00	 1.0161545205e+00	-6.2815694910e+00
 1.3416373236e+00	 1.0440351009e+00	-6.6749926592e+00
 1.3198004189e+00	 1.0715068149e+00	-6.4815074131e+00
 1.2973768298e+00	 1.0985505730e+00	-5.7973384098e+00
 1.2743792729e+00	 1.1251477542e+00	-4.7211680439e+00
 1.2508212463e+00	 1.1512802482e+00	-3.3537312558e+00
 1.2267170041e+00	 1.1769304957e+00	-1.7973966613e+00
 1.2020815280e+00	 1.2020815280e+00	-1.5573673546e-01
 1.4333548130e+00	 9.3709670267e-01	 6.1444748409e+00
 1.4138329159e+00	 9.6629847146e-01	 1.7047097530e+00
 1.3936770867e+00	 9.9514844517e-01	-1.5768006969e+00
 1.3728967771e+00	 1.0236262449e+00	-3.8139446426e+00
 1.3515023039e+00	 1.0517118296e+00	-5.1254448600e+00
 1.3295048337e+00	 1.0793855415e+00	-5.6343989275e+00
 1.3069163653e+00	 1.1066281507e+00	-5.4677910113e+00
 1.2837497087e+00	 1.1334208995e+00	-4.7559782401e+00
 1.2600184613e+00	 1.1597455441e+00	-3.6321548845e+00
 1.2357369821e+00	 1.1855843964e+00	-2.2317977735e+00
 1.2109203628e+00	 1.2109203628e+00	-6.9209656671e-01
 1.4438172569e+00	 9.4393682459e-01	 1.3851511781e+01
 1.4241528642e+00	 9.7335174497e-01	 7.5114243231e+00
 1.4038499122e+00	 1.0024123024e+00	 2.6267301645e+00
 1.3829179215e+00	 1.0310979693e+00	-9.4345717130e-01
 1.3613672842e+00	 1.0593885583e+00	-3.3461153246e+00
 1.3392092486e+00	 1.0872642680e+00	-4.7337436394e+00
 1.3164559009e+00	 1.1147057285e+00	-5.2637579801e+00
 1.2931201445e+00	 1.1416940447e+00	-5.0978534979e+00
 1.2692156763e+00	 1.1682108401e+00	-4.4013393341e+00
 1.2447569601e+00	 1.1942382971e+00	-3.3424495199e+00
 1.2197591975e+00	 1.2197591975e+00	-2.0916345737e+00
 1.4542797008e+00	 9.5077694651e-01	 2.2439191261e+01
 1.4344728125e+00	 9.8040501848e-01	 1.4040515654e+01
 1.4140227376e+00	 1.0096761597e+00	 7.3903865694e+00
 1.3929390659e+00	 1.0385696938e+00	 2.3212075600e+00
 1.3712322645e+00	 1.0670652870e+00	-1.3419537382e+00
 1.3489136634e+00	 1.0951429946e+00	-3.7806874836e+00
 1.3259954364e+00	 1.1227833062e+00	-5.1825205004e+00
 1.3024905804e+00	 1.1499671900e+00	-5.7401565152e+00
 1.2784128914e+00	 1.1766761360e+00	-5.6506825110e+00
 1.2537769381e+00	 1.2028921978e+00	-5.1147462848e+00
 1.2285980323e+00	 1.2285980323e+00	-4.3357105743e+00
 1.4647421446e+00	 9.5761706843e-01	 3.1888651167e+01
 1.4447927608e+00	 9.8745829200e-01	 2.1276513168e+01
 1.4241955631e+00	 1.0169400170e+00	 1.2702174871e+01
 1.4029602102e+00	 1.0460414182e+00	 5.9716120512e+00
 1.3810972449e+00	 1.0747420157e+00	 8.8223133424e-01
 1.3586180783e+00	 1.1030217212e+00	-2.7763439623e+00
 1.3355349719e+00	 1.1308608839e+00	-5.2214377541e+00
 1.3118610162e+00	 1.1582403352e+00	-6.6764399519e+00
 1.2876101064e+00	 1.1851414320e+00	-7.3698855722e+00
 1.2627969160e+00	 1.2115460985e+00	-7.5345000964e+00
 1.2374368671e+00	 1.2374368671e+00	-7.4062173116e+00
 1.1490485194e+00	 1.1490485194e+00	-1.6180484077e+01
 1.1250070915e+00	 1.1725971363e+00	-2.1374559934e+01
 1.1004884725e+00	 1.1956379560e+00	-2.5829249496e+01
 1.0755088827e+00	 1.2181566579e+00	-2.9635769948e+01
 1.0500851065e+00	 1.2401396167e+00	-3.2887408084e+01
 1.0242344554e+00	 1.2615739298e+00	-3.5679110151e+01
 9.9797472884e-01	 1.2824474416e+00	-3.8107064872e+01
 9.7132417402e-01	 1.3027487666e+00	-4.0268282514e+01
 9.4430144431e-01	 1.3224673086e+00	-4.2260172849e+01
 9.1692555685e-01	 1.3415932778e+00	-4.4180124848e+01
 8.8921584925e-01	 1.3601177057e+00	-4.6125090908e+01
 1.1578873542e+00	 1.1578873542e+00	-1.1113884563e+01
 1.1336609922e+00	 1.1816171143e+00	-1.6226679077e+01
 1.1089537685e+00	 1.2048351710e+00	-2.0736606604e+01
 1.0837820280e+00	 1.2275270937e+00	-2.4699981225e+01
 1.0581626843e+00	 1.2496791523e+00	-2.8174977403e+01
 1.0321131820e+00	 1.2712783446e+00	-3.1221370338e+01
 1.0056514575e+00	 1.2923124220e+00	-3.3900269033e+01
 9.7879589844e-01	 1.3127699110e+00	-3.6273843924e+01
 9.5156530158e-01	 1.3326401340e+00	-3.8405050938e+01
 9.2397883037e-01	 1.3519132261e+00	-4.0357353872e+01
 8.9605597117e-01	 1.3705801496e+00	-4.2194446977e+01
 1.1667261890e+00	 1.1667261890e+00	-7.0346657632e+00
 1.1423148929e+00	 1.1906370923e+00	-1.1859320015e+01
 1.1174190644e+00	 1.2140323861e+00	-1.6216256762e+01
 1.0920551732e+00	 1.2368975295e+00	-2.0127289606e+01
 1.0662402620e+00	 1.2592186878e+00	-2.3615884985e+01
 1.0399919086e+00	 1.2809827595e+00	-2.6707051599e+01
 1.0133281862e+00	 1.3021774023e+00	-2.9427222078e+01
 9.8626762285e-01	 1.3227910553e+00	-3.1804127742e+01
 9.5882915884e-01	 1.3428129595e+00	-3.3866667357e+01
 9.3103210388e-01	 1.3622331744e+00	-3.5644770830e+01
 9.0289609308e-01	 1.3810425935e+00	-3.7169258812e+01
 1.1755650237e+00	 1.1755650237e+00	-3.9205427702e+00
 1.1509687936e+00	 1.1996570702e+00	-8.2548636058e+00
 1.1258843604e+00	 1.2232296011e+00	-1.2255277472e+01
 1.1003283185e+00	 1.2462679654e+00	-1.5909491034e+01
 1.0743178398e+00	 1.2687582233e+00	-1.9206657891e+01
 1.0478706351e+00	 1.2906871743e+00	-2.2137415663e+01
 1.0210049149e+00	 1.3120423826e+00	-2.4693914850e+01
 9.9373934727e-01	 1.3328121997e+00	-2.6869839332e+01
 9.6609301611e-01	 1.3529857849e+00	-2.8660418452e+01
 9.3808537740e-01	 1.3725531227e+00	-3.0062430679e+01
 9.0973621500e-01	 1.3915050374e+00	-3.1074198935e+01
 1.1844038585e+00	 1.1844038585e+00	-1.7498962782e+00
 1.1596226943e+00	 1.2086770482e+00	-5.3962170371e+00
 1.1343496563e+00	 1.2324268162e+00	-8.8411323769e+00
 1.1086014637e+00	 1.2556384012e+00	-1.2038626751e+01
 1.0823954175e+00	 1.2782977588e+00	-1.4943927258e+01
 1.0557493617e+00	 1.3003915892e+00	-1.7513687005e+01
 1.0286816436e+00	 1.3219073629e+00	-1.9706159775e+01
 1.0012110717e+00	 1.3428333441e+00	-2.1481364916e+01
 9.7335687337e-01	 1.3631586104e+00	-2.2801241399e+01
 9.4513865091e-01	 1.3828730710e+00	-2.3629790146e+01
 9.1657633692e-01	 1.4019674813e+00	-2.3933203807e+01
 1.1932426932e+00	 1.1932426932e+00	-5.0174792703e-01
 1.1682765950e+00	 1.2176970262e+00	-3.2667943322e+00
 1.1428149523e+00	 1.2416240312e+00	-5.9616569532e+00
 1.1168746090e+00	 1.2650088370e+00	-8.5069742084e+00
 1.0904729952e+00	 1.2878372943e+00	-1.0824424446e+01
 1.0636280883e+00	 1.3100960040e+00	-1.2837054228e+01
 1.0363583723e+00	 1.3317723432e+00	-1.4469597475e+01
 1.0086827961e+00	 1.3528544884e+00	-1.5648783395e+01
 9.8062073064e-01	 1.3733314358e+00	-1.6303631214e+01
 9.5219192443e-01	 1.3931930193e+00	-1.6365729891e+01
 9.2341645884e-01	 1.4124299252e+00	-1.5769501089e+01
 1.2020815280e+00	 1.2020815280e+00	-1.5573673546e-01
 1.1769304957e+00	 1.2267170041e+00	-1.8504977129e+00
 1.1512802482e+00	 1.2508212463e+00	-3.6050448421e+00
 1.1251477542e+00	 1.2743792729e+00	-5.3070383816e+00
 1.0985505730e+00	 1.2973768298e+00	-6.8449773425e+00
 1.0715068149e+00	 1.3198004189e+00	-8.1086713763e+00
 1.0440351009e+00	 1.3416373236e+00	-8.9897030747e+00
 1.0161545205e+00	 1.3628756328e+00	-9.3818776382e+00
 9.8788458790e-01	 1.3835042613e+00	-9.1816570034e+00
 9.5924519794e-01	 1.4035129676e+00	-8.2885756745e+00
 9.3025658076e-01	 1.4228923691e+00	-6.6056356940e+00
 1.2109203628e+00	 1.2109203628e+00	-6.9209656671e-01
 1.1855843964e+00	 1.2357369821e+00	-1.1316997798e+00
 1.1597455441e+00	 1.2600184613e+00	-1.7598347727e+00
 1.1334208995e+00	 1.2837497087e+00	-2.4315434615e+00
 1.1066281507e+00	 1.3069163653e+00	-3.0025068427e+00
 1.0793855415e+00	 1.3295048337e+00	-3.3296591942e+00
 1.0517118296e+00	 1.3515023039e+00	-3.2717922408e+00
 1.0236262449e+00	 1.3728967771e+00	-2.6901452915e+00
 9.9514844517e-01	 1.3936770867e+00	-1.4489775032e+00
 9.6629847146e-01	 1.4138329159e+00	 5.8388138702e-01
 9.3709670267e-01	 1.4333548130e+00	 3.5365052929e+00
 1.2197591975e+00	 1.2197591975e+00	-2.0916345737e+00
 1.1942382971e+00	 1.2447569601e+00	-1.0952264665e+00
 1.1682108401e+00	 1.2692156763e+00	-4.1489805657e-01
 1.1416940447e+00	 1.2931201445e+00	 1.2657508969e-01
 1.1147057285e+00	 1.3164559009e+00	 7.0597652461e-01
 1.0872642680e+00	 1.3392092486e+00	 1.4988936696e+00
 1.0593885583e+00	 1.3613672842e+00	 2.6789730419e+00
 1.0310979693e+00	 1.3829179215e+00	 4.4171908962e+00
 1.0024123024e+00	 1.4038499122e+00	 6.8811440517e+00
 9.7335174497e-01	 1.4241528642e+00	 1.0234365457e+01
 9.4393682459e-01	 1.4438172569e+00	 1.4635668787e+01
 1.2285980323e+00	 1.2285980323e+00	-4.3357105743e+00
 1.2028921978e+00	 1.2537769381e+00	-1.7263407306e+00
 1.1766761360e+00	 1.2784128914e+00	 4.4057337771e-01
 1.1499671900e+00	 1.3024905804e+00	 2.3741781406e+00
 1.1227833062e+00	 1.3259954364e+00	 4.2833758247e+00
 1.0951429946e+00	 1.3489136634e+00	 6.3759295109e+00
 1.0670652870e+00	 1.3712322645e+00	 8.8575789466e+00
 1.0385696938e+00	 1.3929390659e+00	 1.1931173186e+01
 1.0096761597e+00	 1.4140227376e+00	 1.5795825705e+01
 9.8040501848e-01	 1.4344728125e+00	 2.0646097444e+01
 9.5077694651e-01	 1.4542797008e+00	 2.6671212902e+01
 1.2374368671e+00	 1.2374368671e+00	-7.4062173116e+00
 1.2115460985e+00	 1.2627969160e+00	-3.0107269431e+00
 1.1851414320e+00	 1.2876101064e+00	 8.1707843829e-01
 1.1582403352e+00	 1.3118610162e+00	 4.3179301679e+00
 1.1308608839e+00	 1.3355349719e+00	 7.7325108046e+00
 1.1030217212e+00	 1.3586180783e+00	 1.1300420467e+01
 1.0747420157e+00	 1.3810972449e+00	 1.5259154516e+01
 1.0460414182e+00	 1.4029602102e+00	 1.9843099385e+01
 1.0169400170e+00	 1.4241955631e+00	 2.5282553167e+01
 9.8745829200e-01	 1.4447927608e+00	 3.1802777265e+01
 9.5761706843e-01	 1.4647421446e+00	 3.9623085117e+01
 8.8921584925e-01	 1.3601177057e+00	-4.6125090908e+01
 8.6119193579e-01	 1.3780324560e+00	-4.4877817638e+01
 8.3287366321e-01	 1.3953302337e+00	-4.3937998611e+01
 8.0428106636e-01	 1.4120045914e+00	-4.3281769259e+01
 7.7543432381e-01	 1.4280499324e+00	-4.2884818735e+01
 7.4635371371e-01	 1.4434615111e+00	-4.2722498200e+01
 7.1705957009e-01	 1.4582354312e+00	-4.2769928382e+01
 6.8757223970e-01	 1.4723686411e+00	-4.3002105691e+01
 6.5791203964e-01	 1.4858589260e+00	-4.3394006281e+01
 6.2809921591e-01	 1.4987048992e+00	-4.3920687418e+01
 5.9815390303e-01	 1.5109059892e+00	-4.4557385602e+01
 8.9605597117e-01	 1.3705801496e+00	-4.2194446977e+01
 8.6781648914e-01	 1.3886327056e+00	-4.0384320546e+01
 8.3928038370e-01	 1.4060635432e+00	-3.9396288395e+01
 8.1046784380e-01	 1.4228661652e+00	-3.9197936959e+01
 7.8139920322e-01	 1.4390349319e+00	-3.9754470462e+01
 7.5209489612e-01	 1.4545650612e+00	-4.1028897546e+01
 7.2257541294e-01	 1.4694526269e+00	-4.2982225395e+01
 6.9286125693e-01	 1.4836945537e+00	-4.5573659920e+01
 6.6297290149e-01	 1.4972886101e+00	-4.8760810551e+01
 6.3293074833e-01	 1.5102333985e+00	-5.2499898187e+01
 6.0275508690e-01	 1.5225283430e+00	-5.6745964888e+01
 9.0289609308e-01	 1.3810425935e+00	-3.7169258812e+01
 8.7444104249e-01	 1.3992329553e+00	-3.4776575429e+01
 8.4568710418e-01	 1.4167968527e+00	-3.3712022475e+01
 8.1665462123e-01	 1.4337277390e+00	-3.3934752998e+01
 7.8736408263e-01	 1.4500199314e+00	-3.5399621875e+01
 7.5783607853e-01	 1.4656686113e+00	-3.8057450000e+01
 7.2809125578e-01	 1.4806698225e+00	-4.1855304127e+01
 6.9815027416e-01	 1.4950204663e+00	-4.6736790196e+01
 6.6803376333e-01	 1.5087182941e+00	-5.2642357882e+01
 6.3776228076e-01	 1.5217618977e+00	-5.9509614091e+01
 6.0735627077e-01	 1.5341506968e+00	-6.7273643132e+01
 9.0973621500e-01	 1.3915050374e+00	-3.1074198935e+01
 8.8106559584e-01	 1.4098332050e+00	-2.8079698771e+01
 8.5209382467e-01	 1.4275301622e+00	-2.6910955336e+01
 8.2284139866e-01	 1.4445893128e+00	-2.7518801291e+01
 7.9332896205e-01	 1.4610049308e+00	-2.9847874694e+01
 7.6357726095e-01	 1.4767721614e+00	-3.3836959967e+01
 7.3360709863e-01	 1.4918870181e+00	-3.9419352642e+01
 7.0343929139e-01	 1.5063463789e+00	-4.6523244923e+01
 6.7309462517e-01	 1.5201479782e+00	-5.5072129031e+01
 6.4259381320e-01	 1.5332903969e+00	-6.4985215233e+01
 6.1195745464e-01	 1.5457730505e+00	-7.6177861439e+01
 9.1657633692e-01	 1.4019674813e+00	-2.3933203807e+01
 8.8769014920e-01	 1.4204334546e+00	-2.0318057746e+01
 8.5850054516e-01	 1.4382634717e+00	-1.9018073108e+01
 8.2902817610e-01	 1.4554508866e+00	-1.9975872646e+01
 7.9929384146e-01	 1.4719899303e+00	-2.3126007147e+01
 7.6931844336e-01	 1.4878757114e+00	-2.8395372459e+01
 7.3912294148e-01	 1.5031042137e+00	-3.5703658310e+01
 7.0872830862e-01	 1.5176722916e+00	-4.4963825231e+01
 6.7815548702e-01	 1.5315776622e+00	-5.6082605763e+01
 6.4742534563e-01	 1.5448188961e+00	-6.8961026022e+01
 6.1655863851e-01	 1.5573954043e+00	-8.3494943698e+01
 9.2341645884e-01	 1.4124299252e+00	-1.5769501089e+01
 8.9431470255e-01	 1.4310337043e+00	-1.1515297965e+01
 8.6490726564e-01	 1.4489967812e+00	-1.0057622023e+01
 8.3521495353e-01	 1.4663124604e+00	-1.1330994126e+01
 8.0525872088e-01	 1.4829749298e+00	-1.5260004465e+01
 7.7505962577e-01	 1.4989792615e+00	-2.1759804920e+01
 7.4463878433e-01	 1.5143214094e+00	-3.0736641157e+01
 7.1401732585e-01	 1.5289982042e+00	-4.2088420055e+01
 6.8321634886e-01	 1.5430073463e+00	-5.5705307850e+01
 6.5225687806e-01	 1.5563473954e+00	-7.1470354280e+01
 6.2115982239e-01	 1.5690177580e+00	-8.9260137959e+01
 9.3025658076e-01	 1.4228923691e+00	-6.6056356940e+00
 9.0093925590e-01	 1.4416339539e+00	-1.6943700052e+00
 8.7131398613e-01	 1.4597300907e+00	-5.3135617063e-02
 8.4140173097e-01	 1.4771740341e+00	-1.6084571347e+00
 8.1122360029e-01	 1.4939599293e+00	-6.2750880367e+00
 7.8080080819e-01	 1.5100828116e+00	-1.3956577649e+01
 7.5015462717e-01	 1.5255386050e+00	-2.4545885755e+01
 7.1930634308e-01	 1.5403241168e+00	-3.7926039670e+01
 6.8827721071e-01	 1.5544370303e+00	-5.3970828439e+01
 6.5708841049e-01	 1.5678758946e+00	-7.2545528606e+01
 6.2576100626e-01	 1.5806401118e+00	-9.3507655983e+01
 9.3709670267e-01	 1.4333548130e+00	 3.5365052929e+00
 9.0756380926e-01	 1.4522342036e+00	 9.1224452296e+00
 8.7772070662e-01	 1.4704634002e+00	 1.0972539269e+01
 8.4758850840e-01	 1.4880356079e+00	 9.1681557435e+00
 8.1718847971e-01	 1.5049449288e+00	 3.8042567204e+00
 7.8654199061e-01	 1.5211863617e+00	-5.0112428941e+00
 7.5567047002e-01	 1.5367558006e+00	-1.7158171707e+01
 7.2459536031e-01	 1.5516500294e+00	-3.2504847756e+01
 6.9333807255e-01	 1.5658667144e+00	-5.0908867863e+01
 6.6191994292e-01	 1.5794043938e+00	-7.2217934118e+01
 6.3036219013e-01	 1.5922624656e+00	-9.6270711065e+01
 9.4393682459e-01	 1.4438172569e+00	 1.4635668787e+01
 9.1418836261e-01	 1.4628344533e+00	 2.0913512247e+01
 8.8412742711e-01	 1.4811967096e+00	 2.2997217607e+01
 8.5377528584e-01	 1.4988971817e+00	 2.0975945062e+01
 8.2315335913e-01	 1.5159299283e+00	 1.4954253694e+01
 7.9228317302e-01	 1.5322899118e+00	 5.0513873294e+00
 7.6118631287e-01	 1.5479729963e+00	-8.5995028133e+00
 7.2988437754e-01	 1.5629759421e+00	-2.5852192069e+01
 6.9839893440e-01	 1.5772963984e+00	-4.6548265990e+01
 6.6675147536e-01	 1.5909328930e+00	-7.0518046628e+01
 6.3496337400e-01	 1.6038848193e+00	-9.7581554201e+01
 9.5077694651e-01	 1.4542797008e+00	 2.6671212902e+01
 9.2081291596e-01	 1.4734347029e+00	 3.3657817753e+01
 8.9053414760e-01	 1.4919300191e+00	 3.5999352378e+01
 8.5996206328e-01	 1.5097587555e+00	 3.3792669943e+01
 8.2911823854e-01	 1.5269149277e+00	 2.7151810568e+01
 7.9802435544e-01	 1.5433934619e+00	 1.6207214609e+01
 7.6670215573e-01	 1.5591901919e+00	 1.1048650290e+00
 7.3517339477e-01	 1.5743018547e+00	-1.7994633788e+01
 7.0345979625e-01	 1.5887260825e+00	-4.0917033171e+01
 6.7158300779e-01	 1.6024613923e+00	-6.7475465355e+01
 6.3956455788e-01	 1.6155071731e+00	-9.7471508704e+01
 9.5761706843e-01	 1.4647421446e+00	 3.9623085117e+01
 9.2743746932e-01	 1.4840349526e+00	 4.7334948434e+01
 8.9694086809e-01	 1.5026633286e+00	 4.9958011792e+01
 8.6614884071e-01	 1.5206203293e+00	 4.7596724557e+01
 8.3508311796e-01	 1.5378999272e+00	 4.0374494402e+01
 8.0376553786e-01	 1.5544970120e+00	 2.8432828654e+01
 7.7221799858e-01	 1.5704073875e+00	 1.1930397114e+01
 7.4046241201e-01	 1.5856277673e+00	-8.9579756056e+00
 7.0852065810e-01	 1.6001557665e+00	-3.4042379864e+01
 6.7641454023e-01	 1.6139898915e+00	-6.3118944224e+01
 6.4416574175e-01	 1.6271295269e+00	-9.5971003335e+01
 5.9815390303e-01	 1.5109059892e+00	-4.4557385602e+01
 5.6809608500e-01	 1.5224624259e+00	-2.6551791089e+01
 5.3794555745e-01	 1.5333752239e+00	-1.0572678747e+01
 5.0772189143e-01	 1.5436461644e+00	 3.4930213484e+00
 4.7744439878e-01	 1.5532777749e+00	 1.5761698335e+01
 4.4713209913e-01	 1.5622733071e+00	 2.6352486538e+01
 4.1680368873e-01	 1.5706367133e+00	 3.5386698232e+01
 3.8647751120e-01	 1.5783726218e+00	 4.2987266465e+01
 3.5617153006e-01	 1.5854863106e+00	 4.9278200987e+01
 3.2590330336e-01	 1.5919836798e+00	 5.4384060090e+01
 2.9568996018e-01	 1.5978712237e+00	 5.8429440914e+01
 6.0275508690e-01	 1.5225283430e+00	-5.6745964888e+01
 5.7246605488e-01	 1.5341736753e+00	-4.1677611937e+01
 5.4208360020e-01	 1.5451704179e+00	-2.7135518875e+01
 5.1162744444e-01	 1.5555203657e+00	-1.3129410634e+01
 4.8111704801e-01	 1.5652260655e+00	 3.3266372882e-01
 4.5057157681e-01	 1.5742907940e+00	 1.3244304202e+01
 4.2000987096e-01	 1.5827185341e+00	 2.5600726460e+01
 3.8945041513e-01	 1.5905139497e+00	 3.7398722432e+01
 3.5891131106e-01	 1.5976823592e+00	 4.8636615283e+01
 3.2841025184e-01	 1.6042297081e+00	 5.9314209300e+01
 2.9796449834e-01	 1.6101625408e+00	 6.9432735203e+01
 6.0735627077e-01	 1.5341506968e+00	-6.7273643132e+01
 5.7683602477e-01	 1.5458849247e+00	-5.5805323982e+01
 5.4622164295e-01	 1.5569656119e+00	-4.3381867512e+01
 5.1553299746e-01	 1.5673945670e+00	-3.0134341431e+01
 4.8478969723e-01	 1.5771743561e+00	-1.6193769226e+01
 4.5401105450e-01	 1.5863082810e+00	-1.6906149755e+00
 4.2321605318e-01	 1.5948003550e+00	 1.3245712119e+01
 3.9242331907e-01	 1.6026552775e+00	 2.8487331165e+01
 3.6165109207e-01	 1.6098784077e+00	 4.3908338892e+01
 3.3091720033e-01	 1.6164757364e+00	 5.9385233088e+01
 3.0023903649e-01	 1.6224538579e+00	 7.4797308630e+01
 6.1195745464e-01	 1.5457730505e+00	-7.6177861439e+01
 5.8120599466e-01	 1.5575961742e+00	-6.8957417305e+01
 5.5035968570e-01	 1.5687608060e+00	-5.9318839059e+01
 5.1943855047e-01	 1.5792687682e+00	-4.7513117864e+01
 4.8846234645e-01	 1.5891226466e+00	-3.3792820888e+01
 4.5745053219e-01	 1.5983257680e+00	-1.8411039176e+01
 4.2642223540e-01	 1.6068821759e+00	-1.6203682750e+00
 3.9539622300e-01	 1.6147966054e+00	 1.6328073268e+01
 3.6439087307e-01	 1.6220744563e+00	 3.5185582967e+01
 3.3342414882e-01	 1.6287217648e+00	 5.4706766963e+01
 3.0251357465e-01	 1.6347451750e+00	 7.4650382588e+01
 6.1655863851e-01	 1.5573954043e+00	-8.3494943698e+01
 5.8557596454e-01	 1.5693074236e+00	-8.1155711067e+01
 5.5449772845e-01	 1.5805560000e+00	-7.4953335969e+01
 5.2334410348e-01	 1.5911429695e+00	-6.5257345473e+01
 4.9213499567e-01	 1.6010709372e+00	-5.2440451720e+01
 4.6089000987e-01	 1.6103432550e+00	-3.6876967787e+01
 4.2962841762e-01	 1.6189639967e+00	-1.8941269250e+01
 3.9836912693e-01	 1.6269379333e+00	 9.9369072904e-01
 3.6713065407e-01	 1.6342705048e+00	 2.2557805707e+01
 3.3593109731e-01	 1.6409677931e+00	 4.5385173354e+01
 3.0478811280e-01	 1.6470364921e+00	 6.9115380455e+01
 6.2115982239e-01	 1.5690177580e+00	-8.9260137959e+01
 5.8994593443e-01	 1.5810186730e+00	-9.2421378356e+01
 5.5863577120e-01	 1.5923511940e+00	-9.0292056595e+01
 5.2724965649e-01	 1.6030171708e+00	-8.3358878940e+01
 4.9580764490e-01	 1.6130192278e+00	-7.2113334873e+01
 4.6432948756e-01	 1.6223607419e+00	-5.7049585800e+01
 4.3283459984e-01	 1.6310458176e+00	-3.8662412260e+01
 4.0134203087e-01	 1.6390792611e+00	-1.7445230170e+01
 3.6987043507e-01	 1.6464665533e+00	 6.1118143205e+00
 3.3843804579e-01	 1.6532138214e+00	 3.1523662846e+01
 3.0706265096e-01	 1.6593278092e+00	 5.8312068257e+01
 6.2576100626e-01	 1.5806401118e+00	-9.3507655983e+01
 5.9431590431e-01	 1.5927299225e+00	-1.0277496994e+02
 5.6277381395e-01	 1.6041463881e+00	-1.0534150269e+02
 5.3115520951e-01	 1.6148913720e+00	-1.0180981292e+02
 4.9948029412e-01	 1.6249675184e+00	-9.2788829983e+01
 4.6776896525e-01	 1.6343782289e+00	-7.8891220220e+01
 4.3604078207e-01	 1.6431276385e+00	-6.0730824398e+01
 4.0431493480e-01	 1.6512205890e+00	-3.8920179595e+01
 3.7261021607e-01	 1.6586626019e+00	-1.4068137513e+01
 3.4094499428e-01	 1.6654598497e+00	 1.3222410050e+01
 3.0933718911e-01	 1.6716191263e+00	 4.2356689136e+01
 6.3036219013e-01	 1.5922624656e+00	-9.6270711065e+01
 5.9868587420e-01	 1.6044411719e+00	-1.1223643697e+02
 5.6691185670e-01	 1.6159415821e+00	-1.2010798659e+02
 5.3506076252e-01	 1.6267655733e+00	-1.2060247328e+02
 5.0315294334e-01	 1.6369158090e+00	-1.1444495812e+02
 4.7120844293e-01	 1.6463957159e+00	-1.0236529838e+02
 4.3924696429e-01	 1.6552094594e+00	-8.5095079795e+01
 4.0728783873e-01	 1.6633619168e+00	-6.3364648377e+01
 3.7534999707e-01	 1.6708586504e+00	-3.7900256443e+01
 3.4345194277e-01	 1.6777058780e+00	-9.4213355896e+00
 3.1161172727e-01	 1.6839104434e+00	 2.1362091922e+01
 6.3496337400e-01	 1.6038848193e+00	-9.7581554201e+01
 6.0305584409e-01	 1.6161524213e+00	-1.2082515272e+02
 5.7104989945e-01	 1.6277367761e+00	-1.3459763805e+02
 5.3896631553e-01	 1.6386397746e+00	-1.3972940872e+02
 5.0682559256e-01	 1.6488640995e+00	-1.3706037780e+02
 4.7464792062e-01	 1.6584132029e+00	-1.2743630809e+02
 4.4245314651e-01	 1.6672912802e+00	-1.1170524357e+02
 4.1026074267e-01	 1.6755032447e+00	-9.0714055521e+01
 3.7808977807e-01	 1.6830546990e+00	-6.5305120306e+01
 3.4595889126e-01	 1.6899519063e+00	-3.6313143809e+01
 3.1388626542e-01	 1.6962017605e+00	-4.5621458875e+00
 6.3956455788e-01	 1.6155071731e+00	-9.7471508704e+01
 6.0742581398e-01	 1.6278636708e+00	-1.2855993335e+02
 5.7518794221e-01	 1.6395319702e+00	-1.4881641083e+02
 5.4287186855e-01	 1.6505139758e+00	-1.5918338277e+02
 5.1049824179e-01	 1.6608123901e+00	-1.6061436209e+02
 4.7808739831e-01	 1.6704306899e+00	-1.5406975945e+02
 4.4565932873e-01	 1.6793731011e+00	-1.4051281818e+02
 4.1323364660e-01	 1.6876445726e+00	-1.2090567885e+02
 3.8082955907e-01	 1.6952507475e+00	-9.6205592830e+01
 3.4846583975e-01	 1.7021979346e+00	-6.7361302114e+01
 3.1616080358e-01	 1.7084930776e+00	-3.5309600444e+01
 6.4416574175e-01	 1.6271295269e+00	-9.5971003335e+01
 6.1179578386e-01	 1.6395749202e+00	-1.3545905780e+02
 5.7932598496e-01	 1.6513271642e+00	-1.6277008899e+02
 5.4677742156e-01	 1.6623881771e+00	-1.7895736610e+02
 5.1417089101e-01	 1.6727606807e+00	-1.8508677663e+02
 4.8152687600e-01	 1.6824481768e+00	-1.8223214839e+02
 4.4886551095e-01	 1.6914549220e+00	-1.7147069212e+02
 4.1620655053e-01	 1.6997859004e+00	-1.5387858860e+02
 3.8356934007e-01	 1.7074467961e+00	-1.3052674199e+02
 3.5097278823e-01	 1.7144439629e+00	-1.0247671872e+02
 3.1843534174e-01	 1.7207843947e+00	-7.0776888925e+01
 2.9568996018e-01	 1.5978712237e+00	 5.8429440914e+01
 2.6554817929e-01	 1.6031560013e+00	 3.6984243023e+01
 2.3549416968e-01	 1.6078456070e+00	 1.9201824553e+01
 2.0554365323e-01	 1.6119481402e+00	 4.7854266986e+00
 1.7571184935e-01	 1.6154721743e+00	-6.5618939379e+00
 1.4601346159e-01	 1.6184267265e+00	-1.5136129712e+01
 1.1646266625e-01	 1.6208212262e+00	-2.1231243912e+01
 8.7073102826e-02	 1.6226654846e+00	-2.5138153669e+01
 5.7857866443e-02	 1.6239696633e+00	-2.7143776454e+01
 2.8829501977e-02	 1.6247442444e+00	-2.7530142232e+01
 0.0000000000e+00	 1.6250000000e+00	-2.6573572720e+01
 2.9796449834e-01	 1.6101625408e+00	 6.9432735203e+01
 2.6759085759e-01	 1.6154879705e+00	 5.1693678846e+01
 2.3730566329e-01	 1.6202136502e+00	 3.5526233633e+01
 2.0712475825e-01	 1.6243477413e+00	 2.0847901992e+01
 1.7706347896e-01	 1.6278988834e+00	 7.5742587305e+00
 1.4713664207e-01	 1.6308761629e+00	-4.3806377156e+00
 1.1735853291e-01	 1.6332890818e+00	-1.5103846455e+01
 8.7742895924e-02	 1.6351475267e+00	-2.4683159452e+01
 5.8302926953e-02	 1.6364617376e+00	-3.3206732458e+01
 2.9051267377e-02	 1.6372422771e+00	-4.0762732878e+01
 0.0000000000e+00	 1.6375000000e+00	-4.7439005633e+01
 3.0023903649e-01	 1.6224538579e+00	 7.4797308630e+01
 2.6963353589e-01	 1.6278199398e+00	 6.2041922943e+01
 2.3911715690e-01	 1.6325816933e+00	 4.8787541458e+01
 2.0870586328e-01	 1.6367473423e+00	 3.5163455182e+01
 1.7841510857e-01	 1.6403255924e+00	 2.1295313816e+01
 1.4825982254e-01	 1.6433255992e+00	 7.3048192238e+00
 1.1825439957e-01	 1.6457569374e+00	-6.6905487887e+00
 8.8412689023e-02	 1.6476295689e+00	-2.0577774466e+01
 5.8747987464e-02	 1.6489538120e+00	-3.4248516215e+01
 2.9273032776e-02	 1.6497403097e+00	-4.7599285362e+01
 0.0000000000e+00	 1.6500000000e+00	-6.0531594298e+01
 3.0251357465e-01	 1.6347451750e+00	 7.4650382588e+01
 2.7167621419e-01	 1.6401519090e+00	 6.8127381299e+01
 2.4092865051e-01	 1.6449497364e+00	 5.9054874827e+01
 2.1028696830e-01	 1.6491469434e+00	 4.7771525868e+01
 1.7976673818e-01	 1.6527523014e+00	 3.4610670824e+01
 1.4938300301e-01	 1.6557750356e+00	 1.9899301913e+01
 1.1915026624e-01	 1.6582247930e+00	 3.9571259430e+00
 8.9082482121e-02	 1.6601116111e+00	-1.2904298791e+01
 5.9193047975e-02	 1.6614458863e+00	-3.0382346642e+01
 2.9494798176e-02	 1.6622383424e+00	-4.8184029585e+01
 0.0000000000e+00	 1.6625000000e+00	-6.6026623377e+01
 3.0478811280e-01	 1.6470364921e+00	 6.9115380455e+01
 2.7371889250e-01	 1.6524838783e+00	 7.0045522057e+01
 2.4274014413e-01	 1.6573177796e+00	 6.6395296709e+01
 2.1186807333e-01	 1.6615465445e+00	 5.8710376020e+01
 1.8111836779e-01	 1.6651790105e+00	 4.7529448355e+01
 1.5050618349e-01	 1.6682244719e+00	 3.3382495901e+01
 1.2004613290e-01	 1.6706926486e+00	 1.6789192306e+01
 8.9752275219e-02	 1.6725936533e+00	-1.7425760631e+00
 5.9638108486e-02	 1.6739379606e+00	-2.1718063255e+01
 2.9716563576e-02	 1.6747363750e+00	-4.2656890329e+01
 0.0000000000e+00	 1.6750000000e+00	-6.4094145388e+01
 3.0706265096e-01	 1.6593278092e+00	 5.8312068257e+01
 2.7576157080e-01	 1.6648158475e+00	 6.7888984319e+01
 2.4455163774e-01	 1.6696858227e+00	 7.0873882682e+01
 2.1344917835e-01	 1.6739461456e+00	 6.8017133589e+01
 1.8246999740e-01	 1.6776057195e+00	 6.0060494516e+01
 1.5162936396e-01	 1.6806739083e+00	 4.7734688343e+01
 1.2094199956e-01	 1.6831605042e+00	 3.1757145622e+01
 9.0422068317e-02	 1.6850756955e+00	 1.2829915536e+01
 6.0083168996e-02	 1.6864300350e+00	-8.3622513310e+00
 2.9938328975e-02	 1.6872344077e+00	-3.1153646708e+01
 0.0000000000e+00	 1.6875000000e+00	-5.4899174495e+01
 3.0933718911e-01	 1.6716191263e+00	 4.2356689136e+01
 2.7780424910e-01	 1.6771478167e+00	 6.1747682166e+01
 2.4636313135e-01	 1.6820538658e+00	 7.2553794000e+01
 2.1503028338e-01	 1.6863457466e+00	 7.5727834203e+01
 1.8382162701e-01	 1.6900324285e+00	 7.2212396857e+01
 1.5275254443e-01	 1.6931233446e+00	 6.2936745880e+01
 1.2183786622e-01	 1.6956283597e+00	 4.8813907536e+01
 9.1091861415e-02	 1.6975577377e+00	 3.0737976321e+01
 6.0528229507e-02	 1.6989221093e+00	 9.5816384529e+00
 3.0160094375e-02	 1.6997324403e+00	-1.3806084582e+01
 0.0000000000e+00	 1.7000000000e+00	-3.8601871738e+01
 3.1161172727e-01	 1.6839104434e+00	 2.1362091922e+01
 2.7984692740e-01	 1.6894797860e+00	 5.1708904105e+01
 2.4817462496e-01	 1.6944219089e+00	 7.1496347463e+01
 2.1661138840e-01	 1.6987453477e+00	 8.1877461032e+01
 1.8517325662e-01	 1.7024591376e+00	 8.3993491890e+01
 1.5387572491e-01	 1.7055727810e+00	 7.8970093494e+01
 1.2273373289e-01	 1.7080962153e+00	 6.7913773953e+01
 9.1761654514e-02	 1.7100397799e+00	 5.1908601941e+01
 6.0973290018e-02	 1.7114141836e+00	 3.2013175615e+01
 3.0381859775e-02	 1.7122304730e+00	 9.2578577046e+00
 0.0000000000e+00	 1.7125000000e+00	-1.5357722154e+01
 3.1388626542e-01	 1.6962017605e+00	-4.5621458875e+00
 2.8188960570e-01	 1.7018117552e+00	 3.7857408204e+01
 2.4998611858e-01	 1.7067899521e+00	 6.7761082240e+01
 2.1819249342e-01	 1.7111449488e+00	 8.6499982925e+01
 1.8652488623e-01	 1.7148858466e+00	 9.5411874180e+01
 1.5499890538e-01	 1.7180222174e+00	 9.5816694276e+01
 1.2362959955e-01	 1.7205640709e+00	 8.9012365252e+01
 9.2431447612e-02	 1.7225218221e+00	 7.6270903846e+01
 6.1418350529e-02	 1.7239062580e+00	 5.8834840446e+01
 3.0603625174e-02	 1.7247285056e+00	 3.7913949922e+01
 0.0000000000e+00	 1.7250000000e+00	 1.4682295801e+01
 3.1616080358e-01	 1.7084930776e+00	-3.5309600444e+01
 2.8393228401e-01	 1.7141437245e+00	 2.0275513113e+01
 2.5179761219e-01	 1.7191579952e+00	 6.1405823820e+01
 2.1977359845e-01	 1.7235445499e+00	 8.9628390892e+01
 1.8787651584e-01	 1.7273125556e+00	 1.0647540505e+02
 1.5612208585e-01	 1.7304716537e+00	 1.1345903007e+02
 1.2452546621e-01	 1.7330319265e+00	 1.1206657864e+02
 9.3101240710e-02	 1.7350038643e+00	 1.0375603317e+02
 6.1863411039e-02	 1.7363983323e+00	 8.9951919299e+01
 3.0825390574e-02	 1.7372265383e+00	 7.2041536566e+01
 0.0000000000e+00	 1.7375000000e+00	 5.1371548146e+01
 3.1843534174e-01	 1.7207843947e+00	-7.0776888925e+01
 2.8597496231e-01	 1.7264756937e+00	-9.5681480895e-01
 2.5360910580e-01	 1.7315260383e+00	 5.2486745210e+01
 2.2135470347e-01	 1.7359441510e+00	 9.1294733033e+01
 1.8922814545e-01	 1.7397392647e+00	 1.1719172091e+02
 1.5724526633e-01	 1.7429210901e+00	 1.3188008296e+02
 1.2542133288e-01	 1.7454997821e+00	 1.3703454256e+02
 9.3771033808e-02	 1.7474859064e+00	 1.3429710790e+02
 6.2308471550e-02	 1.7488904066e+00	 1.2527240438e+02
 3.1047155973e-02	 1.7497245709e+00	 1.1152340919e+02
 0.0000000000e+00	 1.7500000000e+00	 9.4567590215e+01
 1.7500000000e+00	 0.0000000000e+00	-5.3664626794e+02
 1.7497245709e+00	 3.1047155973e-02	-4.2813143064e+02
 1.7488904066e+00	 6.2308471550e-02	-3.3339169192e+02
 1.7474859064e+00	 9.3771033808e-02	-2.5253164528e+02
 1.7454997821e+00	 1.2542133288e-01	-1.8561173746e+02
 1.7429210901e+00	 1.5724526633e-01	-1.3264599265e+02
 1.7397392647e+00	 1.8922814545e-01	-9.3599840832e+01
 1.7359441510e+00	 2.2135470347e-01	-6.8388069799e+01
 1.7315260383e+00	 2.5360910580e-01	-5.6872920376e+01
 1.7264756937e+00	 2.8597496231e-01	-5.8862344744e+01
 1.7207843947e+00	 3.1843534174e-01	-7.4108447642e+01
 1.7625000000e+00	 0.0000000000e+00	-3.6252688354e+02
 1.7622226036e+00	 3.1268921373e-02	-2.8928292737e+02
 1.7613824810e+00	 6.2753532061e-02	-2.2529999722e+02
 1.7599679486e+00	 9.4440826906e-02	-1.7061809576e+02
 1.7579676377e+00	 1.2631719954e-01	-1.2524613737e+02
 1.7553705264e+00	 1.5836844680e-01	-8.9160467425e+01
 1.7521659737e+00	 1.9057977506e-01	-6.2303461051e+01
 1.7483437520e+00	 2.2293580850e-01	-4.4582214225e+01
 1.7438940815e+00	 2.5542059941e-01	-3.5867340867e+01
 1.7388076629e+00	 2.8801764061e-01	-3.5991889205e+01
 1.7330757118e+00	 3.2070987989e-01	-4.4750390765e+01
 1.7750000000e+00	 0.0000000000e+00	-1.8411154901e+02
 1.7747206362e+00	 3.1490686773e-02	-1.4644686856e+02
 1.7738745553e+00	 6.3198592571e-02	-1.1359680776e+02
 1.7724499908e+00	 9.5110620005e-02	-8.5537664699e+01
 1.7704354933e+00	 1.2721306620e-01	-6.2227585647e+01
 1.7678199628e+00	 1.5949162727e-01	-4.3605872097e+01
 1.7645926827e+00	 1.9193140467e-01	-2.9592342438e+01
 1.7607433531e+00	 2.2451691352e-01	-2.0086755306e+01
 1.7562621246e+00	 2.5723209303e-01	-1.4968301759e+01
 1.7511396322e+00	 2.9006031891e-01	-1.4095173317e+01
 1.7453670289e+00	 3.2298441805e-01	-1.7304212772e+01
 1.7875000000e+00	 0.0000000000e+00	-1.4903992575e+00
 1.7872186689e+00	 3.1712452172e-02	 2.9308194301e-01
 1.7863666296e+00	 6.3643653082e-02	 1.6421032362e+00
 1.7849320330e+00	 9.5780413103e-02	 2.6432034040e+00
 1.7829033488e+00	 1.2810893287e-01	 3.3882560374e+00
 1.7802693991e+00	 1.6061480775e-01	 3.9743820109e+00
 1.7770193918e+00	 1.9328303428e-01	 4.5038319325e+00
 1.7731429542e+00	 2.2609801855e-01	 5.0838374800e+00
 1.7686301677e+00	 2.5904358664e-01	 5.8264306993e+00
 1.7634716014e+00	 2.9210299722e-01	 6.8482305263e+00
 1.7576583461e+00	 3.2525895620e-01	 8.2701959994e+00
 1.8000000000e+00	 0.0000000000e+00	 1.8524893462e+02
 1.7997167015e+00	 3.1934217572e-02	 1.5085558438e+02
 1.7988587040e+00	 6.4088713593e-02	 1.2034306740e+02
 1.7974140752e+00	 9.6450206201e-02	 9.3859909761e+01
 1.7953712044e+00	 1.2900479953e-01	 7.1547272235e+01
 1.7927188355e+00	 1.6173798822e-01	 5.3538089477e+01
 1.7894461008e+00	 1.9463466389e-01	 3.9956203532e+01
 1.7855425553e+00	 2.2767912357e-01	 3.0915496593e+01
 1.7809982109e+00	 2.6085508025e-01	 2.6519028210e+01
 1.7758035707e+00	 2.9414567552e-01	 2.6858182486e+01
 1.7699496632e+00	 3.2753349436e-01	 3.2011831031e+01
 1.8125000000e+00	 0.0000000000e+00	 3.7602123902e+02
 1.8122147342e+00	 3.2155982972e-02	 3.0516154291e+02
 1.8113507783e+00	 6.4533774104e-02	 2.4243444867e+02
 1.8098961174e+00	 9.7119999299e-02	 1.8804963767e+02
 1.8078390600e+00	 1.2990066619e-01	 1.4219684037e+02
 1.8051682719e+00	 1.6286116869e-01	 1.0504420920e+02
 1.8018728098e+00	 1.9598629350e-01	 7.6736709951e+01
 1.7979421564e+00	 2.2926022860e-01	 5.7394542571e+01
 1.7933662540e+00	 2.6266657387e-01	 4.7111602561e+01
 1.7881355399e+00	 2.9618835382e-01	 4.5953994841e+01
 1.7822409803e+00	 3.2980803251e-01	 5.3958612039e+01
 1.8250000000e+00	 0.0000000000e+00	 5.7074363504e+02
 1.8247127668e+00	 3.2377748371e-02	 4.6313402875e+02
 1.8238428526e+00	 6.4978834614e-02	 3.6784657366e+02
 1.8223781596e+00	 9.7789792397e-02	 2.8515129149e+02
 1.8203069156e+00	 1.3079653285e-01	 2.1528577962e+02
 1.8176177082e+00	 1.6398434917e-01	 1.5845282451e+02
 1.8142995189e+00	 1.9733792311e-01	 1.1481805763e+02
 1.8103417574e+00	 2.3084133362e-01	 8.4507670740e+01
 1.8057342971e+00	 2.6447806748e-01	 6.7606207683e+01
 1.8004675092e+00	 2.9823103212e-01	 6.4154450754e+01
 1.7945322974e+00	 3.3208257067e-01	 7.4147419822e+01
 1.8375000000e+00	 0.0000000000e+00	 7.6933549905e+02
 1.8372107995e+00	 3.2599513771e-02	 6.2469820650e+02
 1.8363349270e+00	 6.5423895125e-02	 4.9651166492e+02
 1.8348602018e+00	 9.8459585495e-02	 3.8510543809e+02
 1.8327747712e+00	 1.3169239952e-01	 2.9076430189e+02
 1.8300671446e+00	 1.6510752964e-01	 2.1372510494e+02
 1.8267262279e+00	 1.9868955272e-01	 1.5417369571e+02
 1.8227413585e+00	 2.3242243864e-01	 1.1224193847e+02
 1.8181023403e+00	 2.6628956109e-01	 8.8004841614e+01
 1.8127994784e+00	 3.0027371042e-01	 8.1477822266e+01
 1.8068236145e+00	 3.3435710882e-01	 9.2614131592e+01
 1.8500000000e+00	 0.0000000000e+00	 9.7171838653e+02
 1.8497088321e+00	 3.2821279170e-02	 7.8978126342e+02
 1.8488270013e+00	 6.5868955636e-02	 6.2836377688e+02
 1.8473422440e+00	 9.9129378594e-02	 4.8785425069e+02
 1.8452426268e+00	 1.3258826618e-01	 3.6858396472e+02
 1.8425165809e+00	 1.6623071011e-01	 2.7082326953e+02
 1.8391529369e+00	 2.0004118233e-01	 1.9477779094e+02
 1.8351409596e+00	 2.3400354367e-01	 1.4058475292e+02
 1.8304703834e+00	 2.6810105470e-01	 1.0830944838e+02
 1.8251314476e+00	 3.0231638873e-01	 9.7941887568e+01
 1.8191149316e+00	 3.3663164698e-01	 1.0939365488e+02
 1.8625000000e+00	 0.0000000000e+00	 1.1778159589e+03
 1.8622068648e+00	 3.3043044570e-02	 9.5831234150e+02
 1.8613190756e+00	 6.6314016147e-02	 7.6333873440e+02
 1.8598242861e+00	 9.9799171692e-02	 5.9334145495e+02
 1.8577104824e+00	 1.3348413284e-01	 4.4869762617e+02
 1.8549660173e+00	 1.6735389059e-01	 3.2971055160e+02
 1.8515796460e+00	 2.0139281194e-01	 2.3660520360e+02
 1.8475405607e+00	 2.3558464869e-01	 1.6952385936e+02
 1.8428384265e+00	 2.6991254832e-01	 1.2852191984e+02
 1.8374634169e+00	 3.0435906703e-01	 1.1356394757e+02
 1.8314062487e+00	 3.3890618513e-01	 1.2451996009e+02
 1.8750000000e+00	 0.0000000000e+00	 1.3875539134e+03
 1.8747048974e+00	 3.3264809970e-02	 1.1302224724e+03
 1.8738111500e+00	 6.6759076657e-02	 9.0137407370e+02
 1.8723063283e+00	 1.0046896479e-01	 7.0151227723e+02
 1.8701783380e+00	 1.3437999951e-01	 5.3105940148e+02
 1.8674154537e+00	 1.6847707106e-01	 3.9035116494e+02
 1.8640063550e+00	 2.0274444155e-01	 2.7963146437e+02
 1.8599401617e+00	 2.3716575372e-01	 1.9904732982e+02
 1.8552064697e+00	 2.7172404193e-01	 1.4864409736e+02
 1.8497953861e+00	 3.0640174533e-01	 1.2836084180e+02
 1.8436975658e+00	 3.4118072329e-01	 1.3802611169e+02
 1.7207843947e+00	 3.1843534174e-01	-7.4108447642e+01
 1.7144439629e+00	 3.5097278823e-01	-9.3214667514e+01
 1.7074467961e+00	 3.8356934007e-01	-1.0719031192e+02
 1.6997859004e+00	 4.1620655053e-01	-1.1614062085e+02
 1.6914549220e+00	 4.4886551095e-01	-1.2019216550e+02
 1.6824481768e+00	 4.8152687600e-01	-1.1949311022e+02
 1.6727606807e+00	 5.1417089101e-01	-1.1421337579e+02
 1.6623881771e+00	 5.4677742156e-01	-1.0454469864e+02
 1.6513271642e+00	 5.7932598496e-01	-9.0700580950e+01
 1.6395749202e+00	 6.1179578386e-01	-7.2916127506e+01
 1.6271295269e+00	 6.4416574175e-01	-5.1447765554e+01
 1.7330757118e+00	 3.2070987989e-01	-4.4750390765e+01
 1.7266899912e+00	 3.5347973672e-01	-6.0039091559e+01
 1.7196428446e+00	 3.8630912108e-01	-7.1678743029e+01
 1.7119272283e+00	 4.1917945447e-01	-7.9752111707e+01
 1.7035367429e+00	 4.5207169318e-01	-8.4357455152e+01
 1.6944656638e+00	 4.8496635368e-01	-8.5608686662e+01
 1.6847089713e+00	 5.1784354024e-01	-8.3635467386e+01
 1.6742623784e+00	 5.5068297457e-01	-7.8583221946e+01
 1.6631223582e+00	 5.8346402771e-01	-7.0613074129e+01
 1.6512861696e+00	 6.1616575375e-01	-5.9901699680e+01
 1.6387518806e+00	 6.4876692562e-01	-4.6641093738e+01
 1.7453670289e+00	 3.2298441805e-01	-1.7304212772e+01
 1.7389360195e+00	 3.5598668521e-01	-2.8474233121e+01
 1.7318388932e+00	 3.8904890208e-01	-3.7455072284e+01
 1.7240685562e+00	 4.2215235840e-01	-4.4307201952e+01
 1.7156185637e+00	 4.5527787540e-01	-4.9100800223e+01
 1.7064831508e+00	 4.8840583137e-01	-5.1915820132e+01
 1.6966572619e+00	 5.2151618946e-01	-5.2842011354e+01
 1.6861365796e+00	 5.5458852759e-01	-5.1978892814e+01
 1.6749175523e+00	 5.8760207046e-01	-4.9435674244e+01
 1.6629974191e+00	 6.2053572364e-01	-4.5331125008e+01
 1.6503742344e+00	 6.5336810950e-01	-3.9793388896e+01
 1.7576583461e+00	 3.2525895620e-01	 8.2701959994e+00
 1.7511820478e+00	 3.5849363370e-01	 1.5137001555e+00
 1.7440349417e+00	 3.9178868308e-01	-4.4922790501e+00
 1.7362098840e+00	 4.2512526233e-01	-9.7860933296e+00
 1.7277003846e+00	 4.5848405762e-01	-1.4410070598e+01
 1.7185006378e+00	 4.9184530906e-01	-1.8410488306e+01
 1.7086055524e+00	 5.2518883868e-01	-2.1837525504e+01
 1.6980107809e+00	 5.5849408060e-01	-2.4745193005e+01
 1.6867127463e+00	 5.9174011322e-01	-2.7191241089e+01
 1.6747086685e+00	 6.2490569353e-01	-2.9237044436e+01
 1.6619965882e+00	 6.5796929337e-01	-3.0947464046e+01
 1.7699496632e+00	 3.2753349436e-01	 3.2011831031e+01
 1.7634280761e+00	 3.6100058218e-01	 2.9957561912e+01
 1.7562309902e+00	 3.9452846408e-01	 2.7235906685e+01
 1.7483512119e+00	 4.2809816627e-01	 2.3830462396e+01
 1.7397822055e+00	 4.6169023984e-01	 1.9726526813e+01
 1.7305181248e+00	 4.9528478674e-01	 1.4911219328e+01
 1.7205538430e+00	 5.2886148791e-01	 9.3735977555e+00
 1.7098849822e+00	 5.6239963361e-01	 3.1047701078e+00
 1.6985079403e+00	 5.9587815597e-01	-3.9019995852e+00
 1.6864199179e+00	 6.2927566342e-01	-1.1651192343e+01
 1.6736189419e+00	 6.6257047724e-01	-2.0144943098e+01
 1.7822409803e+00	 3.2980803251e-01	 5.3958612039e+01
 1.7756741044e+00	 3.6350753067e-01	 5.6889299446e+01
 1.7684270388e+00	 3.9726824508e-01	 5.7755030196e+01
 1.7604925398e+00	 4.3107107020e-01	 5.6561182417e+01
 1.7518640264e+00	 4.6489642207e-01	 5.3320459706e+01
 1.7425356117e+00	 4.9872426443e-01	 4.8053105320e+01
 1.7325021336e+00	 5.3253413713e-01	 4.0787087094e+01
 1.7217591834e+00	 5.6630518663e-01	 3.1558250626e+01
 1.7103031344e+00	 6.0001619872e-01	 2.0410438333e+01
 1.6981311674e+00	 6.3364563330e-01	 7.3955721926e+00
 1.6852412957e+00	 6.6717166111e-01	-7.4263018588e+00
 1.7945322974e+00	 3.3208257067e-01	 7.4147419822e+01
 1.7879201328e+00	 3.6601447916e-01	 8.2339984753e+01
 1.7806230873e+00	 4.0000802608e-01	 8.7089936841e+01
 1.7726338676e+00	 4.3404397413e-01	 8.8424271066e+01
 1.7639458472e+00	 4.6810260429e-01	 8.6382881522e+01
 1.7545530987e+00	 5.0216374212e-01	 8.1018867960e+01
 1.7444504242e+00	 5.3620678635e-01	 7.2398788110e+01
 1.7336333847e+00	 5.7021073964e-01	 6.0602851750e+01
 1.7220983284e+00	 6.0415424147e-01	 4.5725052721e+01
 1.7098424168e+00	 6.3801560319e-01	 2.7873235419e+01
 1.6968636495e+00	 6.7177284498e-01	 7.1690926564e+00
 1.8068236145e+00	 3.3435710882e-01	 9.2614131592e+01
 1.8001661611e+00	 3.6852142765e-01	 1.0633984429e+02
 1.7928191359e+00	 4.0274780708e-01	 1.1526479587e+02
 1.7847751955e+00	 4.3701687807e-01	 1.1943743726e+02
 1.7760276681e+00	 4.7130878651e-01	 1.1892464214e+02
 1.7665705857e+00	 5.0560321981e-01	 1.1381210482e+02
 1.7563987147e+00	 5.3987943557e-01	 1.0420465935e+02
 1.7455075860e+00	 5.7411629265e-01	 9.0226513904e+01
 1.7338935224e+00	 6.0829228422e-01	 7.2021395491e+01
 1.7215536662e+00	 6.4238557307e-01	 4.9752600160e+01
 1.7084860032e+00	 6.7637402885e-01	 2.3602944504e+01
 1.8191149316e+00	 3.3663164698e-01	 1.0939365488e+02
 1.8124121894e+00	 3.7102837614e-01	 1.2891828756e+02
 1.8050151844e+00	 4.0548758808e-01	 1.4230312324e+02
 1.7969165233e+00	 4.3998978200e-01	 1.4961791125e+02
 1.7881094890e+00	 4.7451496873e-01	 1.5095629812e+02
 1.7785880727e+00	 5.0904269749e-01	 1.4643631617e+02
 1.7683470053e+00	 5.4355208480e-01	 1.3620076851e+02
 1.7573817872e+00	 5.7802184566e-01	 1.2041750335e+02
 1.7456887164e+00	 6.1243032697e-01	 9.9279571094e+01
 1.7332649156e+00	 6.4675554296e-01	 7.3005258228e+01
 1.7201083570e+00	 6.8097521272e-01	 4.1837992633e+01
 1.8314062487e+00	 3.3890618513e-01	 1.2451996009e+02
 1.8246582177e+00	 3.7353532462e-01	 1.5010393449e+02
 1.8172112330e+00	 4.0822736909e-01	 1.6822780360e+02
 1.8090578512e+00	 4.4296268593e-01	 1.7898246064e+02
 1.8001913098e+00	 4.7772115095e-01	 1.8248812256e+02
 1.7906055596e+00	 5.1248217518e-01	 1.7889490822e+02
 1.7802952959e+00	 5.4722473402e-01	 1.6838328875e+02
 1.7692559885e+00	 5.8192739867e-01	 1.5116440123e+02
 1.7574839105e+00	 6.1656836972e-01	 1.2748021797e+02
 1.7449761651e+00	 6.5112551284e-01	 9.7603563945e+01
 1.7317307107e+00	 6.8557639659e-01	 6.1837976151e+01
 1.8436975658e+00	 3.4118072329e-01	 1.3802611169e+02
 1.8369042460e+00	 3.7604227311e-01	 1.6992464180e+02
 1.8294072815e+00	 4.1096715009e-01	 1.9306111127e+02
 1.8211991790e+00	 4.4593558987e-01	 2.0754740589e+02
 1.8122731307e+00	 4.8092733318e-01	 2.1353011455e+02
 1.8026230466e+00	 5.1592165286e-01	 2.1119119628e+02
 1.7922435865e+00	 5.5089738324e-01	 2.0074849518e+02
 1.7811301897e+00	 5.8583295169e-01	 1.8245609311e+02
 1.7692791045e+00	 6.2070641247e-01	 1.5660449077e+02
 1.7566874145e+00	 6.5549548273e-01	 1.2352060873e+02
 1.7433530645e+00	 6.9017758046e-01	 8.3567600992e+01
 1.6271295269e+00	 6.4416574175e-01	-5.1447765554e+01
 1.6139898915e+00	 6.7641454023e-01	-2.7220596090e+01
 1.6001557665e+00	 7.0852065810e-01	-7.0039777955e+00
 1.5856277673e+00	 7.4046241201e-01	 9.3514008558e+00
 1.5704073875e+00	 7.7221799858e-01	 2.2012551136e+01
 1.5544970120e+00	 8.0376553786e-01	 3.1163890926e+01
 1.5378999272e+00	 8.3508311796e-01	 3.7006851858e+01
 1.5206203293e+00	 8.6614884071e-01	 3.9759386495e+01
 1.5026633286e+00	 8.9694086809e-01	 3.9655376080e+01
 1.4840349526e+00	 9.2743746932e-01	 3.6943940278e+01
 1.4647421446e+00	 9.5761706843e-01	 3.1888651167e+01
 1.6387518806e+00	 6.4876692562e-01	-4.6641093738e+01
 1.6255183907e+00	 6.8124607266e-01	-2.7948040274e+01
 1.6115854506e+00	 7.1358151994e-01	-1.2164373195e+01
 1.5969536799e+00	 7.4575142924e-01	 8.2387465708e-01
 1.5816245831e+00	 7.7773384143e-01	 1.1143746878e+01
 1.5656005621e+00	 8.0950672027e-01	 1.8935131564e+01
 1.5488849267e+00	 8.4104799738e-01	 2.4350455235e+01
 1.5314819031e+00	 8.7233561815e-01	 2.7554302507e+01
 1.5133966381e+00	 9.0334758858e-01	 2.8722962024e+01
 1.4946352023e+00	 9.3406202267e-01	 2.8043899791e+01
 1.4752045885e+00	 9.6445719035e-01	 2.5715161681e+01
 1.6503742344e+00	 6.5336810950e-01	-3.9793388896e+01
 1.6370468900e+00	 6.8607760509e-01	-2.6923704608e+01
 1.6230151346e+00	 7.1864238179e-01	-1.5877886684e+01
 1.6082795926e+00	 7.5104044647e-01	-6.5769354870e+00
 1.5928417788e+00	 7.8324968428e-01	 1.0666464152e+00
 1.5767041122e+00	 8.1524790269e-01	 7.1486830067e+00
 1.5598699262e+00	 8.4701287680e-01	 1.1773104783e+01
 1.5423434768e+00	 8.7852239559e-01	 1.5051679966e+01
 1.5241299476e+00	 9.0975430906e-01	 1.7103697428e+01
 1.5052354519e+00	 9.4068657602e-01	 1.8055602219e+01
 1.4856670324e+00	 9.7129731226e-01	 1.8040584969e+01
 1.6619965882e+00	 6.5796929337e-01	-3.0947464046e+01
 1.6485753892e+00	 6.9090913753e-01	-2.4184333539e+01
 1.6344448187e+00	 7.2370324364e-01	-1.8174865957e+01
 1.6196055052e+00	 7.5632946371e-01	-1.2874660246e+01
 1.6040589744e+00	 7.8876552713e-01	-8.2353524636e+00
 1.5878076622e+00	 8.2098908511e-01	-4.2047268328e+00
 1.5708549257e+00	 8.5297775622e-01	-7.2685046998e-01
 1.5532050506e+00	 8.8470917302e-01	 2.2577684328e+00
 1.5348632571e+00	 9.1616102955e-01	 4.8119993748e+00
 1.5158357016e+00	 9.4731112938e-01	 7.0018858815e+00
 1.4961294763e+00	 9.7813743418e-01	 8.8964202295e+00
 1.6736189419e+00	 6.6257047724e-01	-2.0144943098e+01
 1.6601038884e+00	 6.9574066996e-01	-1.9765650985e+01
 1.6458745027e+00	 7.2876410549e-01	-1.9084815881e+01
 1.6309314178e+00	 7.6161848094e-01	-1.8092274058e+01
 1.6152761700e+00	 7.9428136998e-01	-1.6778390983e+01
 1.5989112123e+00	 8.2673026752e-01	-1.5134112680e+01
 1.5818399252e+00	 8.5894263563e-01	-1.3151015844e+01
 1.5640666244e+00	 8.9089595046e-01	-1.0821356347e+01
 1.5455965666e+00	 9.2256775004e-01	-8.1381157564e+00
 1.5264359513e+00	 9.5393568273e-01	-5.0950455385e+00
 1.5065919202e+00	 9.8497755610e-01	-1.6867085668e+00
 1.6852412957e+00	 6.6717166111e-01	-7.4263018588e+00
 1.6716323876e+00	 7.0057220239e-01	-1.3702395531e+01
 1.6573041868e+00	 7.3382496733e-01	-1.8636427559e+01
 1.6422573304e+00	 7.6690749817e-01	-2.2252117756e+01
 1.6264933656e+00	 7.9979721283e-01	-2.4578165277e+01
 1.6100147624e+00	 8.3247144994e-01	-2.5648240771e+01
 1.5928249246e+00	 8.6490751505e-01	-2.5500952579e+01
 1.5749281982e+00	 8.9708272789e-01	-2.4179786449e+01
 1.5563298761e+00	 9.2897447053e-01	-2.1733018469e+01
 1.5370362009e+00	 9.6056023608e-01	-1.8213601108e+01
 1.5170543641e+00	 9.9181767802e-01	-1.3679022491e+01
 1.6968636495e+00	 6.7177284498e-01	 7.1690926564e+00
 1.6831608869e+00	 7.0540373482e-01	-6.0283541664e+00
 1.6687338708e+00	 7.3888582918e-01	-1.6857606195e+01
 1.6535832431e+00	 7.7219651540e-01	-2.5375920266e+01
 1.6377105613e+00	 8.0531305568e-01	-3.1649941629e+01
 1.6211183125e+00	 8.3821263235e-01	-3.5755637366e+01
 1.6038099241e+00	 8.7087239446e-01	-3.7778179343e+01
 1.5857897720e+00	 9.0326950533e-01	-3.7811776024e+01
 1.5670631856e+00	 9.3538119102e-01	-3.5959452899e+01
 1.5476364506e+00	 9.6718478944e-01	-3.2332781659e+01
 1.5275168080e+00	 9.9865779994e-01	-2.7051558718e+01
 1.7084860032e+00	 6.7637402885e-01	 2.3602944504e+01
 1.6946893861e+00	 7.1023526726e-01	 3.2236053423e+00
 1.6801635549e+00	 7.4394669102e-01	-1.3775497829e+01
 1.6649091557e+00	 7.7748553263e-01	-2.7484819421e+01
 1.6489277569e+00	 8.1082889853e-01	-3.8008571095e+01
 1.6322218626e+00	 8.4395381477e-01	-4.5464596907e+01
 1.6147949236e+00	 8.7683727388e-01	-4.9984173680e+01
 1.5966513457e+00	 9.0945628276e-01	-5.1711735782e+01
 1.5777964951e+00	 9.4178791150e-01	-5.0804524108e+01
 1.5582367002e+00	 9.7380934279e-01	-4.7432159657e+01
 1.5379792519e+00	 1.0054979219e+00	-4.1776142764e+01
 1.7201083570e+00	 6.8097521272e-01	 4.1837992633e+01
 1.7062178853e+00	 7.1506679969e-01	 1.4021503402e+01
 1.6915932389e+00	 7.4900755286e-01	-9.4165149784e+00
 1.6762350683e+00	 7.8277454986e-01	-2.8599381927e+01
 1.6601449525e+00	 8.1634474137e-01	-4.3668503527e+01
 1.6433254127e+00	 8.4969499718e-01	-5.4783189849e+01
 1.6257799231e+00	 8.8280215329e-01	-6.2120373398e+01
 1.6075129195e+00	 9.1564306020e-01	-6.5874227701e+01
 1.5885298046e+00	 9.4819463199e-01	-6.6255685883e+01
 1.5688369499e+00	 9.8043389614e-01	-6.3491859890e+01
 1.5484416958e+00	 1.0123380438e+00	-5.7825361851e+01
 1.7317307107e+00	 6.8557639659e-01	 6.1837976151e+01
 1.7177463845e+00	 7.1989833212e-01	 2.6334218788e+01
 1.7030229229e+00	 7.5406841471e-01	-3.8063612570e+00
 1.6875609809e+00	 7.8806356708e-01	-2.8739622533e+01
 1.6713621481e+00	 8.2186058422e-01	-4.8643801038e+01
 1.6544289627e+00	 8.5543617959e-01	-6.3719270177e+01
 1.6367649225e+00	 8.8876703271e-01	-7.4188177902e+01
 1.6183744933e+00	 9.2182983763e-01	-8.0293959951e+01
 1.5992631140e+00	 9.5460135247e-01	-8.2300729039e+01
 1.5794371996e+00	 9.8705844950e-01	-8.0492540931e+01
 1.5589041397e+00	 1.0191781657e+00	-7.5172539350e+01
 1.7433530645e+00	 6.9017758046e-01	 8.3567600992e+01
 1.7292748837e+00	 7.2472986455e-01	 4.0131460029e+01
 1.7144526070e+00	 7.5912927655e-01	 3.0299449983e+00
 1.6988868935e+00	 7.9335258431e-01	-2.7925022420e+01
 1.6825793438e+00	 8.2737642706e-01	-5.2948150925e+01
 1.6655325128e+00	 8.6117736201e-01	-7.2280482618e+01
 1.6477499220e+00	 8.9473191212e-01	-8.6188949471e+01
 1.6292360671e+00	 9.2801661506e-01	-9.4965782021e+01
 1.6099964235e+00	 9.6100807296e-01	-9.8927770178e+01
 1.5900374492e+00	 9.9368300285e-01	-9.8415377346e+01
 1.5693665835e+00	 1.0260182876e+00	-9.3791710236e+01
 1.4647421446e+00	 9.5761706843e-01	 3.1888651167e+01
 1.4447927608e+00	 9.8745829200e-01	 2.1276513168e+01
 1.4241955631e+00	 1.0169400170e+00	 1.2702174871e+01
 1.4029602102e+00	 1.0460414182e+00	 5.9716120512e+00
 1.3810972449e+00	 1.0747420157e+00	 8.8223133424e-01
 1.3586180783e+00	 1.1030217212e+00	-2.7763439623e+00
 1.3355349719e+00	 1.1308608839e+00	-5.2214377541e+00
 1.3118610162e+00	 1.1582403352e+00	-6.6764399519e+00
 1.2876101064e+00	 1.1851414320e+00	-7.3698855722e+00
 1.2627969160e+00	 1.2115460985e+00	-7.5345000964e+00
 1.2374368671e+00	 1.2374368671e+00	-7.4062173116e+00
 1.4752045885e+00	 9.6445719035e-01	 2.5715161681e+01
 1.4551127091e+00	 9.9451156551e-01	 1.5537299382e+01
 1.4343683886e+00	 1.0242038742e+00	 7.1402428399e+00
 1.4129813546e+00	 1.0535131426e+00	 3.6937616321e-01
 1.3909622252e+00	 1.0824187444e+00	-4.9374101277e+00
 1.3683224931e+00	 1.1109004478e+00	-8.9490958968e+00
 1.3450745074e+00	 1.1389384617e+00	-1.1840864533e+01
 1.3212314520e+00	 1.1665134805e+00	-1.3793396440e+01
 1.2968073215e+00	 1.1936067279e+00	-1.4992127264e+01
 1.2718168940e+00	 1.2201999992e+00	-1.5626475580e+01
 1.2462757018e+00	 1.2462757018e+00	-1.5889045068e+01
 1.4856670324e+00	 9.7129731226e-01	 1.8040584969e+01
 1.4654326574e+00	 1.0015648390e+00	 8.5282815245e+00
 1.4445412140e+00	 1.0314677315e+00	 5.4291736156e-01
 1.4230024990e+00	 1.0609848670e+00	-6.0311456509e+00
 1.4008272055e+00	 1.0900954730e+00	-1.1315974020e+01
 1.3780269080e+00	 1.1187791744e+00	-1.5439600582e+01
 1.3546140429e+00	 1.1470160394e+00	-1.8535525327e+01
 1.3306018879e+00	 1.1747866257e+00	-2.0742182037e+01
 1.3060045365e+00	 1.2020720239e+00	-2.2202374007e+01
 1.2808368720e+00	 1.2288538999e+00	-2.3062682410e+01
 1.2551145366e+00	 1.2551145366e+00	-2.3472851130e+01
 1.4961294763e+00	 9.7813743418e-01	 8.8964202295e+00
 1.4757526057e+00	 1.0086181125e+00	 2.7610679297e-01
 1.4547140395e+00	 1.0387315887e+00	-7.0680719835e+00
 1.4330236433e+00	 1.0684565914e+00	-1.3213198012e+01
 1.4106921858e+00	 1.0977722017e+00	-1.8241726494e+01
 1.3877313228e+00	 1.1266579009e+00	-2.2241183592e+01
 1.3641535784e+00	 1.1550936172e+00	-2.5303833432e+01
 1.3399723237e+00	 1.1830597710e+00	-2.7526316346e+01
 1.3152017516e+00	 1.2105373198e+00	-2.9009260495e+01
 1.2898568500e+00	 1.2375078006e+00	-2.9856869300e+01
 1.2639533714e+00	 1.2639533714e+00	-3.0176487296e+01
 1.5065919202e+00	 9.8497755610e-01	-1.6867085668e+00
 1.4860725540e+00	 1.0156713861e+00	-9.1933180709e+00
 1.4648868649e+00	 1.0459954460e+00	-1.5671599481e+01
 1.4430447877e+00	 1.0759283158e+00	-2.1160491244e+01
 1.4205571662e+00	 1.1054489304e+00	-2.5703259929e+01
 1.3974357376e+00	 1.1345366275e+00	-2.9347356196e+01
 1.3736931140e+00	 1.1631711949e+00	-3.2144246522e+01
 1.3493427595e+00	 1.1913329162e+00	-3.4149221512e+01
 1.3243989666e+00	 1.2190026157e+00	-3.5421181884e+01
 1.2988768279e+00	 1.2461617013e+00	-3.6022403378e+01
 1.2727922061e+00	 1.2727922061e+00	-3.6018282035e+01
 1.5170543641e+00	 9.9181767802e-01	-1.3679022491e+01
 1.4963925022e+00	 1.0227246596e+00	-1.9854801248e+01
 1.4750596904e+00	 1.0532593033e+00	-2.5247122456e+01
 1.4530659320e+00	 1.0834000402e+00	-2.9857185311e+01
 1.4304221465e+00	 1.1131256591e+00	-3.3689481671e+01
 1.4071401525e+00	 1.1424153541e+00	-3.6751808950e+01
 1.3832326495e+00	 1.1712487727e+00	-3.9055265110e+01
 1.3587131954e+00	 1.1996060615e+00	-4.0614225576e+01
 1.3335961817e+00	 1.2274679117e+00	-4.1446302049e+01
 1.3078968059e+00	 1.2548156020e+00	-4.1572283343e+01
 1.2816310409e+00	 1.2816310409e+00	-4.1016058523e+01
 1.5275168080e+00	 9.9865779994e-01	-2.7051558718e+01
 1.5067124505e+00	 1.0297779331e+00	-3.1683841357e+01
 1.4852325158e+00	 1.0605231605e+00	-3.5774661308e+01
 1.4630870764e+00	 1.0908717647e+00	-3.9287874420e+01
 1.4402871268e+00	 1.1208023878e+00	-4.2189603256e+01
 1.4168445673e+00	 1.1502940807e+00	-4.4448405556e+01
 1.3927721850e+00	 1.1793263504e+00	-4.6035431086e+01
 1.3680836312e+00	 1.2078792067e+00	-4.6924565703e+01
 1.3427933967e+00	 1.2359332076e+00	-4.7092561504e+01
 1.3169167839e+00	 1.2634695027e+00	-4.6519152076e+01
 1.2904698757e+00	 1.2904698757e+00	-4.5187151954e+01
 1.5379792519e+00	 1.0054979219e+00	-4.1776142764e+01
 1.5170323988e+00	 1.0368312066e+00	-4.4656603966e+01
 1.4954053413e+00	 1.0677870178e+00	-4.7234780354e+01
 1.4731082208e+00	 1.0983434891e+00	-4.9437572246e+01
 1.4501521071e+00	 1.1284791165e+00	-5.1193130053e+01
 1.4265489822e+00	 1.1581728073e+00	-5.2431176968e+01
 1.4023117205e+00	 1.1874039281e+00	-5.3083326301e+01
 1.3774540670e+00	 1.2161523520e+00	-5.3083391264e+01
 1.3519906118e+00	 1.2443985036e+00	-5.2367684997e+01
 1.3259367618e+00	 1.2721234034e+00	-5.0875308744e+01
 1.2993087104e+00	 1.2993087104e+00	-4.8548426128e+01
 1.5484416958e+00	 1.0123380438e+00	-5.7825361851e+01
 1.5273523471e+00	 1.0438844801e+00	-5.8749899063e+01
 1.5055781667e+00	 1.0750508751e+00	-5.9608569451e+01
 1.4831293651e+00	 1.1058152135e+00	-6.0291697762e+01
 1.4600170874e+00	 1.1361558451e+00	-6.0689851340e+01
 1.4362533970e+00	 1.1660515338e+00	-6.0694315744e+01
 1.4118512560e+00	 1.1954815059e+00	-6.0197571221e+01
 1.3868245028e+00	 1.2244254973e+00	-5.9093766806e+01
 1.3611878268e+00	 1.2528637995e+00	-5.7279188799e+01
 1.3349567398e+00	 1.2807773042e+00	-5.4652720410e+01
 1.3081475452e+00	 1.3081475452e+00	-5.1116289380e+01
 1.5589041397e+00	 1.0191781657e+00	-7.5172539350e+01
 1.5376722954e+00	 1.0509377536e+00	-7.3941159426e+01
 1.5157509922e+00	 1.0823147323e+00	-7.2877626360e+01
 1.4931505095e+00	 1.1132869379e+00	-7.1836061634e+01
 1.4698820678e+00	 1.1438325738e+00	-7.0669830771e+01
 1.4459578119e+00	 1.1739302604e+00	-6.9232170620e+01
 1.4213907915e+00	 1.2035590836e+00	-6.7376823627e+01
 1.3961949387e+00	 1.2326986425e+00	-6.4958674890e+01
 1.3703850419e+00	 1.2613290955e+00	-6.1834387691e+01
 1.3439767178e+00	 1.2894312049e+00	-5.7863033173e+01
 1.3169863800e+00	 1.3169863800e+00	-5.2906709859e+01
 1.5693665835e+00	 1.0260182876e+00	-9.3791710236e+01
 1.5479922437e+00	 1.0579910271e+00	-9.0208419864e+01
 1.5259238176e+00	 1.0895785896e+00	-8.7024039817e+01
 1.5031716538e+00	 1.1207586623e+00	-8.4056853164e+01
 1.4797470481e+00	 1.1515093025e+00	-8.1123397233e+01
 1.4556622267e+00	 1.1818089870e+00	-7.8039241300e+01
 1.4309303270e+00	 1.2116366614e+00	-7.4619777365e+01
 1.4055653745e+00	 1.2409717878e+00	-7.0681018829e+01
 1.3795822569e+00	 1.2697943914e+00	-6.6040401689e+01
 1.3529966958e+00	 1.2980851056e+00	-6.0517582864e+01
 1.3258252147e+00	 1.3258252147e+00	-5.3935230197e+01
 1.2374368671e+00	 1.2374368671e+00	-7.4062173116e+00
 1.2115460985e+00	 1.2627969160e+00	-3.0107269431e+00
 1.1851414320e+00	 1.2876101064e+00	 8.1707843829e-01
 1.1582403352e+00	 1.3118610162e+00	 4.3179301679e+00
 1.1308608839e+00	 1.3355349719e+00	 7.7325108046e+00
 1.1030217212e+00	 1.3586180783e+00	 1.1300420467e+01
 1.0747420157e+00	 1.3810972449e+00	 1.5259154516e+01
 1.0460414182e+00	 1.4029602102e+00	 1.9843099385e+01
 1.0169400170e+00	 1.4241955631e+00	 2.5282553167e+01
 9.8745829200e-01	 1.4447927608e+00	 3.1802777265e+01
 9.5761706843e-01	 1.4647421446e+00	 3.9623085117e+01
 1.2462757018e+00	 1.2462757018e+00	-1.5889045068e+01
 1.2201999992e+00	 1.2718168940e+00	-9.6465471848e+00
 1.1936067279e+00	 1.2968073215e+00	-4.5568958067e+00
 1.1665134805e+00	 1.3212314520e+00	-4.0379850153e-01
 1.1389384617e+00	 1.3450745074e+00	 3.0314964398e+00
 1.1109004478e+00	 1.3683224931e+00	 5.9692500864e+00
 1.0824187444e+00	 1.3909622252e+00	 8.6302799815e+00
 1.0535131426e+00	 1.4129813546e+00	 1.1235010716e+01
 1.0242038742e+00	 1.4343683886e+00	 1.4002534307e+01
 9.9451156551e-01	 1.4551127091e+00	 1.7149686595e+01
 9.6445719035e-01	 1.4752045885e+00	 2.0890145634e+01
 1.2551145366e+00	 1.2551145366e+00	-2.3472851130e+01
 1.2288538999e+00	 1.2808368720e+00	-1.5533794914e+01
 1.2020720239e+00	 1.3060045365e+00	-9.3238656341e+00
 1.1747866257e+00	 1.3306018879e+00	-4.6509452916e+00
 1.1470160394e+00	 1.3546140429e+00	-1.3179725781e+00
 1.1187791744e+00	 1.3780269080e+00	 8.7619017329e-01
 1.0900954730e+00	 1.4008272055e+00	 2.1358728739e+00
 1.0609848670e+00	 1.4230024990e+00	 2.6677024602e+00
 1.0314677315e+00	 1.4445412140e+00	 2.6797026681e+00
 1.0015648390e+00	 1.4654326574e+00	 2.3803948846e+00
 9.7129731226e-01	 1.4856670324e+00	 1.9779060741e+00
 1.2639533714e+00	 1.2639533714e+00	-3.0176487296e+01
 1.2375078006e+00	 1.2898568500e+00	-2.0688165509e+01
 1.2105373198e+00	 1.3152017516e+00	-1.3496556300e+01
 1.1830597710e+00	 1.3399723237e+00	-8.4334571784e+00
 1.1550936172e+00	 1.3641535784e+00	-5.3232618302e+00
 1.1266579009e+00	 1.3877313228e+00	-3.9837448657e+00
 1.0977722017e+00	 1.4106921858e+00	-4.2268778078e+00
 1.0684565914e+00	 1.4330236433e+00	-5.8596706269e+00
 1.0387315887e+00	 1.4547140395e+00	-8.6850329688e+00
 1.0086181125e+00	 1.4757526057e+00	-1.2502649113e+01
 9.7813743418e-01	 1.4961294763e+00	-1.7109860660e+01
 1.2727922061e+00	 1.2727922061e+00	-3.6018282035e+01
 1.2461617013e+00	 1.2988768279e+00	-2.5124918703e+01
 1.2190026157e+00	 1.3243989666e+00	-1.7087339922e+01
 1.1913329162e+00	 1.3493427595e+00	-1.1761005180e+01
 1.1631711949e+00	 1.3736931140e+00	-8.9915326510e+00
 1.1345366275e+00	 1.3974357376e+00	-8.6154024928e+00
 1.1054489304e+00	 1.4205571662e+00	-1.0460705343e+01
 1.0759283158e+00	 1.4430447877e+00	-1.4347930679e+01
 1.0459954460e+00	 1.4648868649e+00	-2.0090789435e+01
 1.0156713861e+00	 1.4860725540e+00	-2.7497065039e+01
 9.8497755610e-01	 1.5065919202e+00	-3.6369486845e+01
 1.2816310409e+00	 1.2816310409e+00	-4.1016058523e+01
 1.2548156020e+00	 1.3078968059e+00	-2.8858893600e+01
 1.2274679117e+00	 1.3335961817e+00	-2.0108247657e+01
 1.1996060615e+00	 1.3587131954e+00	-1.4642993872e+01
 1.1712487727e+00	 1.3832326495e+00	-1.2329749168e+01
 1.1424153541e+00	 1.4071401525e+00	-1.3023496799e+01
 1.1131256591e+00	 1.4304221465e+00	-1.6568267967e+01
 1.0834000402e+00	 1.4530659320e+00	-2.2797877509e+01
 1.0532593033e+00	 1.4750596904e+00	-3.1536708290e+01
 1.0227246596e+00	 1.4963925022e+00	-4.2600538565e+01
 9.9181767802e-01	 1.5170543641e+00	-5.5797406308e+01
 1.2904698757e+00	 1.2904698757e+00	-4.5187151954e+01
 1.2634695027e+00	 1.3169167839e+00	-3.1904523079e+01
 1.2359332076e+00	 1.3427933967e+00	-2.2570981369e+01
 1.2078792067e+00	 1.3680836312e+00	-1.7088570503e+01
 1.1793263504e+00	 1.3927721850e+00	-1.5344685053e+01
 1.1502940807e+00	 1.4168445673e+00	-1.7212613071e+01
 1.1208023878e+00	 1.4402871268e+00	-2.2552151439e+01
 1.0908717647e+00	 1.4630870764e+00	-3.1210289375e+01
 1.0605231605e+00	 1.4852325158e+00	-4.3021954971e+01
 1.0297779331e+00	 1.5067124505e+00	-5.7810819134e+01
 9.9865779994e-01	 1.5275168080e+00	-7.5390150943e+01
 1.2993087104e+00	 1.2993087104e+00	-4.8548426128e+01
 1.2721234034e+00	 1.3259367618e+00	-3.4275847609e+01
 1.2443985036e+00	 1.3519906118e+00	-2.4486924835e+01
 1.2161523520e+00	 1.3774540670e+00	-1.9106633756e+01
 1.1874039281e+00	 1.4023117205e+00	-1.8042929999e+01
 1.1581728073e+00	 1.4265489822e+00	-2.1187212166e+01
 1.1284791165e+00	 1.4501521071e+00	-2.8414871503e+01
 1.0983434891e+00	 1.4731082208e+00	-3.9585923709e+01
 1.0677870178e+00	 1.4954053413e+00	-5.4545717979e+01
 1.0368312066e+00	 1.5170323988e+00	-7.3125717785e+01
 1.0054979219e+00	 1.5379792519e+00	-9.5144347377e+01
 1.3081475452e+00	 1.3081475452e+00	-5.1116289380e+01
 1.2807773042e+00	 1.3349567398e+00	-3.5986528505e+01
 1.2528637995e+00	 1.3611878268e+00	-2.5867154482e+01
 1.2244254973e+00	 1.3868245028e+00	-2.0705842131e+01
 1.1954815059e+00	 1.4118512560e+00	-2.0430895932e+01
 1.1660515338e+00	 1.4362533970e+00	-2.4951634716e+01
 1.1361558451e+00	 1.4600170874e+00	-3.4158876252e+01
 1.1058152135e+00	 1.4831293651e+00	-4.7925517815e+01
 1.0750508751e+00	 1.5055781667e+00	-6.6107208097e+01
 1.0438844801e+00	 1.5273523471e+00	-8.8543105071e+01
 1.0123380438e+00	 1.5484416958e+00	-1.1505671376e+02
 1.3169863800e+00	 1.3169863800e+00	-5.2906709859e+01
 1.2894312049e+00	 1.3439767178e+00	-3.7049860648e+01
 1.2613290955e+00	 1.3703850419e+00	-2.6722449704e+01
 1.2326986425e+00	 1.3961949387e+00	-2.1894622012e+01
 1.2035590836e+00	 1.4213907915e+00	-2.2514822971e+01
 1.1739302604e+00	 1.4459578119e+00	-2.8510105160e+01
 1.1438325738e+00	 1.4698820678e+00	-3.9786548397e+01
 1.1132869379e+00	 1.4931505095e+00	-5.6229789546e+01
 1.0823147323e+00	 1.5157509922e+00	-7.7705657640e+01
 1.0509377536e+00	 1.5376722954e+00	-1.0406090906e+02
 1.0191781657e+00	 1.5589041397e+00	-1.3512405670e+02
 1.3258252147e+00	 1.3258252147e+00	-5.3935230197e+01
 1.2980851056e+00	 1.3529966958e+00	-3.7478784695e+01
 1.2697943914e+00	 1.3795822569e+00	-2.7063302756e+01
 1.2409717878e+00	 1.4055653745e+00	-2.2681175398e+01
 1.2116366614e+00	 1.4309303270e+00	-2.4300785161e+01
 1.1818089870e+00	 1.4556622267e+00	-3.1866735612e+01
 1.1515093025e+00	 1.4797470481e+00	-4.5300207441e+01
 1.1207586623e+00	 1.5031716538e+00	-6.4499437950e+01
 1.0895785896e+00	 1.5259238176e+00	-8.9340319733e+01
 1.0579910271e+00	 1.5479922437e+00	-1.1967711341e+02
 1.0260182876e+00	 1.5693665835e+00	-1.5534326831e+02
 9.5761706843e-01	 1.4647421446e+00	 3.9623085117e+01
 9.2743746932e-01	 1.4840349526e+00	 4.7334948434e+01
 8.9694086809e-01	 1.5026633286e+00	 4.9958011792e+01
 8.6614884071e-01	 1.5206203293e+00	 4.7596724557e+01
 8.3508311796e-01	 1.5378999272e+00	 4.0374494402e+01
 8.0376553786e-01	 1.5544970120e+00	 2.8432828654e+01
 7.7221799858e-01	 1.5704073875e+00	 1.1930397114e+01
 7.4046241201e-01	 1.5856277673e+00	-8.9579756056e+00
 7.0852065810e-01	 1.6001557665e+00	-3.4042379864e+01
 6.7641454023e-01	 1.6139898915e+00	-6.3118944224e+01
 6.4416574175e-01	 1.6271295269e+00	-9.5971003335e+01
 9.6445719035e-01	 1.4752045885e+00	 2.0890145634e+01
 9.3406202267e-01	 1.4946352023e+00	 2.4341239394e+01
 9.0334758858e-01	 1.5133966381e+00	 2.5402363567e+01
 8.7233561815e-01	 1.5314819031e+00	 2.4064215386e+01
 8.4104799738e-01	 1.5488849267e+00	 2.0328368888e+01
 8.0950672027e-01	 1.5656005621e+00	 1.4207065572e+01
 7.7773384143e-01	 1.5816245831e+00	 5.7229522218e+00
 7.4575142924e-01	 1.5969536799e+00	-5.0912310715e+00
 7.1358151994e-01	 1.6115854506e+00	-1.8193009375e+01
 6.8124607266e-01	 1.6255183907e+00	-3.3530574237e+01
 6.4876692562e-01	 1.6387518806e+00	-5.1043224023e+01
 9.7129731226e-01	 1.4856670324e+00	 1.9779060741e+00
 9.4068657602e-01	 1.5052354519e+00	 6.6670126146e-01
 9.0975430906e-01	 1.5241299476e+00	-3.7264957446e-01
 8.7852239559e-01	 1.5423434768e+00	-1.2619210425e+00
 8.4701287680e-01	 1.5598699262e+00	-2.1200177545e+00
 8.1524790269e-01	 1.5767041122e+00	-3.0625402223e+00
 7.8324968428e-01	 1.5928417788e+00	-4.2013780907e+00
 7.5104044647e-01	 1.6082795926e+00	-5.6443326773e+00
 7.1864238179e-01	 1.6230151346e+00	-7.4947704904e+00
 6.8607760509e-01	 1.6370468900e+00	-9.8513090994e+00
 6.5336810950e-01	 1.6503742344e+00	-1.2807536428e+01
 9.7813743418e-01	 1.4961294763e+00	-1.7109860660e+01
 9.4731112938e-01	 1.5158357016e+00	-2.3674371048e+01
 9.1616102955e-01	 1.5348632571e+00	-2.7341434299e+01
 8.8470917302e-01	 1.5532050506e+00	-2.8344043431e+01
 8.5297775622e-01	 1.5708549257e+00	-2.6920255149e+01
 8.2098908511e-01	 1.5878076622e+00	-2.3312118022e+01
 7.8876552713e-01	 1.6040589744e+00	-1.7764602727e+01
 7.5632946371e-01	 1.6196055052e+00	-1.0524541248e+01
 7.2370324364e-01	 1.6344448187e+00	-1.8395816941e+00
 6.9090913753e-01	 1.6485753892e+00	 8.0428349670e+00
 6.5796929337e-01	 1.6619965882e+00	 1.8876470289e+01
 9.8497755610e-01	 1.5065919202e+00	-3.6369486845e+01
 9.5393568273e-01	 1.5264359513e+00	-4.8668080077e+01
 9.2256775004e-01	 1.5455965666e+00	-5.5479108578e+01
 8.9089595046e-01	 1.5640666244e+00	-5.7145556456e+01
 8.5894263563e-01	 1.5818399252e+00	-5.4023333588e+01
 8.2673026752e-01	 1.5989112123e+00	-4.6479571691e+01
 7.9428136998e-01	 1.6152761700e+00	-3.4890897392e+01
 7.6161848094e-01	 1.6309314178e+00	-1.9641694079e+01
 7.2876410549e-01	 1.6458745027e+00	-1.1223641149e+00
 6.9574066996e-01	 1.6601038884e+00	 2.0272397367e+01
 6.6257047724e-01	 1.6736189419e+00	 4.4145306284e+01
 9.9181767802e-01	 1.5170543641e+00	-5.5797406308e+01
 9.6056023608e-01	 1.5370362009e+00	-7.4300912118e+01
 9.2897447053e-01	 1.5563298761e+00	-8.4761477158e+01
 8.9708272789e-01	 1.5749281982e+00	-8.7630874698e+01
 8.6490751505e-01	 1.5928249246e+00	-8.3381595735e+01
 8.3247144994e-01	 1.6100147624e+00	-7.2504518466e+01
 7.9979721283e-01	 1.6264933656e+00	-5.5506529874e+01
 7.6690749817e-01	 1.6422573304e+00	-3.2908116089e+01
 7.3382496733e-01	 1.6573041868e+00	-5.2409379855e+00
 7.0057220239e-01	 1.6716323876e+00	 2.6954591907e+01
 6.6717166111e-01	 1.6852412957e+00	 6.3131715549e+01
 9.9865779994e-01	 1.5275168080e+00	-7.5390150943e+01
 9.6718478944e-01	 1.5476364506e+00	-1.0055972407e+02
 9.3538119102e-01	 1.5670631856e+00	-1.1516500804e+02
 9.0326950533e-01	 1.5857897720e+00	-1.1976538805e+02
 8.7087239446e-01	 1.6038099241e+00	-1.1494869031e+02
 8.3821263235e-01	 1.6211183125e+00	-1.0132823028e+02
 8.0531305568e-01	 1.6377105613e+00	-7.9539788394e+01
 7.7219651540e-01	 1.6535832431e+00	-5.0238534628e+01
 7.3888582918e-01	 1.6687338708e+00	-1.4095923355e+01
 7.0540373482e-01	 1.6831608869e+00	 2.8203420683e+01
 6.7177284498e-01	 1.6968636495e+00	 7.5964804882e+01
 1.0054979219e+00	 1.5379792519e+00	-9.5144347377e+01
 9.7380934279e-01	 1.5582367002e+00	-1.2743173084e+02
 9.4178791150e-01	 1.5777964951e+00	-1.4666680992e+02
 9.0945628276e-01	 1.5966513457e+00	-1.5351542854e+02
 8.7683727388e-01	 1.6147949236e+00	-1.4867952764e+02
 8.4395381477e-01	 1.6322218626e+00	-1.3289357748e+02
 8.1082889853e-01	 1.6489277569e+00	-1.0692091288e+02
 7.7748553263e-01	 1.6649091557e+00	-7.1549997755e+01
 7.4394669102e-01	 1.6801635549e+00	-2.7590644856e+01
 7.1023526726e-01	 1.6946893861e+00	 2.4129783333e+01
 6.7637402885e-01	 1.7084860032e+00	 8.2770167609e+01
 1.0123380438e+00	 1.5484416958e+00	-1.1505671376e+02
 9.8043389614e-01	 1.5688369499e+00	-1.5490449321e+02
 9.4819463199e-01	 1.5885298046e+00	-1.7924461052e+02
 9.1564306020e-01	 1.6075129195e+00	-1.8884823850e+02
 8.8280215329e-01	 1.6257799231e+00	-1.8453023708e+02
 8.4969499718e-01	 1.6433254127e+00	-1.6714497480e+02
 8.1634474137e-01	 1.6601449525e+00	-1.3758202904e+02
 7.8277454986e-01	 1.6762350683e+00	-9.6761795837e+01
 7.4900755286e-01	 1.6915932389e+00	-4.5631040330e+01
 7.1506679969e-01	 1.7062178853e+00	 1.4841581844e+01
 6.8097521272e-01	 1.7201083570e+00	 8.3670002284e+01
 1.0191781657e+00	 1.5589041397e+00	-1.3512405670e+02
 9.8705844950e-01	 1.5794371996e+00	-1.8296590628e+02
 9.5460135247e-01	 1.5992631140e+00	-2.1287673585e+02
 9.2182983763e-01	 1.6183744933e+00	-2.2573194003e+02
 8.8876703271e-01	 1.6367649225e+00	-2.2245812607e+02
 8.5543617959e-01	 1.6544289627e+00	-2.0402832959e+02
 8.2186058422e-01	 1.6713621481e+00	-1.7145708505e+02
 7.8806356708e-01	 1.6875609809e+00	-1.2579538630e+02
 7.5406841471e-01	 1.7030229229e+00	-6.8125573132e+01
 7.1989833212e-01	 1.7177463845e+00	 4.4382115065e-01
 6.8557639659e-01	 1.7317307107e+00	 7.8783226608e+01
 1.0260182876e+00	 1.5693665835e+00	-1.5534326831e+02
 9.9368300285e-01	 1.5900374492e+00	-2.1160418829e+02
 9.6100807296e-01	 1.6099964235e+00	-2.4754209024e+02
 9.2801661506e-01	 1.6292360671e+00	-2.6413550566e+02
 8.9473191212e-01	 1.6477499220e+00	-2.6242164085e+02
 8.6117736201e-01	 1.6655325128e+00	-2.4349099199e+02
 8.2737642706e-01	 1.6825793438e+00	-2.0848179083e+02
 7.9335258431e-01	 1.6988868935e+00	-1.5857432139e+02
 7.5912927655e-01	 1.7144526070e+00	-9.4985147949e+01
 7.2472986455e-01	 1.7292748837e+00	-1.8961294294e+01
 6.9017758046e-01	 1.7433530645e+00	 6.8225586797e+01
 6.4416574175e-01	 1.6271295269e+00	-9.5971003335e+01
 6.1179578386e-01	 1.6395749202e+00	-1.3545905780e+02
 5.7932598496e-01	 1.6513271642e+00	-1.6277008899e+02
 5.4677742156e-01	 1.6623881771e+00	-1.7895736610e+02
 5.1417089101e-01	 1.6727606807e+00	-1.8508677663e+02
 4.8152687600e-01	 1.6824481768e+00	-1.8223214839e+02
 4.4886551095e-01	 1.6914549220e+00	-1.7147069212e+02
 4.1620655053e-01	 1.6997859004e+00	-1.5387858860e+02
 3.8356934007e-01	 1.7074467961e+00	-1.3052674199e+02
 3.5097278823e-01	 1.7144439629e+00	-1.0247671872e+02
 3.1843534174e-01	 1.7207843947e+00	-7.0776888925e+01
 6.4876692562e-01	 1.6387518806e+00	-5.1043224023e+01
 6.1616575375e-01	 1.6512861696e+00	-8.2076961752e+01
 5.8346402771e-01	 1.6631223582e+00	-1.0578914584e+02
 5.5068297457e-01	 1.6742623784e+00	-1.2286719883e+02
 5.1784354024e-01	 1.6847089713e+00	-1.3400521808e+02
 4.8496635368e-01	 1.6944656638e+00	-1.3990095715e+02
 4.5207169318e-01	 1.7035367429e+00	-1.4125289197e+02
 4.1917945447e-01	 1.7119272283e+00	-1.3875738701e+02
 3.8630912108e-01	 1.7196428446e+00	-1.3310597517e+02
 3.5347973672e-01	 1.7266899912e+00	-1.2498276336e+02
 3.2070987989e-01	 1.7330757118e+00	-1.1506197460e+02
 6.5336810950e-01	 1.6503742344e+00	-1.2807536428e+01
 6.2053572364e-01	 1.6629974191e+00	-3.3561664123e+01
 5.8760207046e-01	 1.6749175523e+00	-5.1793645959e+01
 5.5458852759e-01	 1.6861365796e+00	-6.7829119448e+01
 5.2151618946e-01	 1.6966572619e+00	-8.1994494316e+01
 4.8840583137e-01	 1.7064831508e+00	-9.4615578490e+01
 4.5527787540e-01	 1.7156185637e+00	-1.0601625350e+02
 4.2215235840e-01	 1.7240685562e+00	-1.1651720571e+02
 3.8904890208e-01	 1.7318388932e+00	-1.2643471921e+02
 3.5598668521e-01	 1.7389360195e+00	-1.3607953524e+02
 3.2298441805e-01	 1.7453670289e+00	-1.4575578253e+02
 6.5796929337e-01	 1.6619965882e+00	 1.8876470289e+01
 6.2490569353e-01	 1.6747086685e+00	 1.0188953854e+01
 5.9174011322e-01	 1.6867127463e+00	-7.2093874542e-01
 5.5849408060e-01	 1.6980107809e+00	-1.3821036397e+01
 5.2518883868e-01	 1.7086055524e+00	-2.9074077616e+01
 4.9184530906e-01	 1.7185006378e+00	-4.6437966749e+01
 4.5848405762e-01	 1.7277003846e+00	-6.5866044460e+01
 4.2512526233e-01	 1.7362098840e+00	-8.7307370375e+01
 3.9178868308e-01	 1.7440349417e+00	-1.1070701577e+02
 3.5849363370e-01	 1.7511820478e+00	-1.3600636416e+02
 3.2525895620e-01	 1.7576583461e+00	-1.6314341783e+02
 6.6257047724e-01	 1.6736189419e+00	 4.4145306284e+01
 6.2927566342e-01	 1.6864199179e+00	 4.9274173937e+01
 5.9587815597e-01	 1.6985079403e+00	 4.7489885744e+01
 5.6239963361e-01	 1.7098849822e+00	 3.9178527873e+01
 5.2886148791e-01	 1.7205538430e+00	 2.4737100260e+01
 4.9528478674e-01	 1.7305181248e+00	 4.5716443147e+00
 4.6169023984e-01	 1.7397822055e+00	-2.0904608860e+01
 4.2809816627e-01	 1.7483512119e+00	-5.1273059110e+01
 3.9452846408e-01	 1.7562309902e+00	-8.6111516813e+01
 3.6100058218e-01	 1.7634280761e+00	-1.2499593224e+02
 3.2753349436e-01	 1.7699496632e+00	-1.6750206633e+02
 6.6717166111e-01	 1.6852412957e+00	 6.3131715549e+01
 6.3364563330e-01	 1.6981311674e+00	 8.3790538712e+01
 6.0001619872e-01	 1.7103031344e+00	 9.2898056811e+01
 5.6630518663e-01	 1.7217591834e+00	 9.1190458062e+01
 5.3253413713e-01	 1.7325021336e+00	 7.9420629453e+01
 4.9872426443e-01	 1.7425356117e+00	 5.8354682213e+01
 4.6489642207e-01	 1.7518640264e+00	 2.8768532235e+01
 4.3107107020e-01	 1.7604925398e+00	-8.5554454435e+00
 3.9726824508e-01	 1.7684270388e+00	-5.2831670457e+01
 3.6350753067e-01	 1.7756741044e+00	-1.0327450307e+02
 3.2980803251e-01	 1.7822409803e+00	-1.5910126771e+02
 6.7177284498e-01	 1.6968636495e+00	 7.5964804882e+01
 6.3801560319e-01	 1.7098424168e+00	 1.1383194539e+02
 6.0415424147e-01	 1.7220983284e+00	 1.3556118067e+02
 5.7021073964e-01	 1.7336333847e+00	 1.4223506632e+02
 5.3620678635e-01	 1.7444504242e+00	 1.3495860413e+02
 5.0216374212e-01	 1.7545530987e+00	 1.1485417883e+02
 4.6810260429e-01	 1.7639458472e+00	 8.3056584015e+01
 4.3404397413e-01	 1.7726338676e+00	 4.0708164525e+01
 4.0000802608e-01	 1.7806230873e+00	-1.1045899162e+01
 3.6601447916e-01	 1.7879201328e+00	-7.1062141602e+01
 3.3208257067e-01	 1.7945322974e+00	-1.3820317728e+02
 6.7637402885e-01	 1.7084860032e+00	 8.2770167609e+01
 6.4238557307e-01	 1.7215536662e+00	 1.3948973581e+02
 6.0829228422e-01	 1.7338935224e+00	 1.7553529567e+02
 5.7411629265e-01	 1.7455075860e+00	 1.9233211175e+02
 5.3987943557e-01	 1.7563987147e+00	 1.9133360534e+02
 5.0560321981e-01	 1.7665705857e+00	 1.7401471587e+02
 4.7130878651e-01	 1.7760276681e+00	 1.4186538520e+02
 4.3701687807e-01	 1.7847751955e+00	 9.6384200580e+01
 4.0274780708e-01	 1.7928191359e+00	 3.9072229309e+01
 3.6852142765e-01	 1.8001661611e+00	-2.8572924926e+01
 3.3435710882e-01	 1.8068236145e+00	-1.0506281722e+02
 6.8097521272e-01	 1.7201083570e+00	 8.3670002284e+01
 6.4675554296e-01	 1.7332649156e+00	 1.6085278273e+02
 6.1243032697e-01	 1.7456887164e+00	 2.1287492526e+02
 5.7802184566e-01	 1.7573817872e+00	 2.4150081905e+02
 5.4355208480e-01	 1.7683470053e+00	 2.4852868456e+02
 5.0904269749e-01	 1.7785880727e+00	 2.3578237248e+02
 4.7451496873e-01	 1.7881094890e+00	 2.0510331909e+02
 4.3998978200e-01	 1.7969165233e+00	 1.5834270218e+02
 4.0548758808e-01	 1.8050151844e+00	 9.7353837890e+01
 3.7102837614e-01	 1.8124121894e+00	 2.3984855410e+01
 3.3663164698e-01	 1.8191149316e+00	-5.9928317515e+01
 6.8557639659e-01	 1.7317307107e+00	 7.8783226608e+01
 6.5112551284e-01	 1.7449761651e+00	 1.7800757274e+02
 6.1656836972e-01	 1.7574839105e+00	 2.4763312879e+02
 5.8192739867e-01	 1.7692559885e+00	 2.8975989649e+02
 5.4722473402e-01	 1.7802952959e+00	 3.0652734795e+02
 5.1248217518e-01	 1.7906055596e+00	 3.0010467500e+02
 4.7772115095e-01	 1.8001913098e+00	 2.7268122813e+02
 4.4296268593e-01	 1.8090578512e+00	 2.2645719733e+02
 4.0822736909e-01	 1.8172112330e+00	 1.6363458281e+02
 3.7353532462e-01	 1.8246582177e+00	 8.6408499264e+01
 3.3890618513e-01	 1.8314062487e+00	-3.0411472579e+00
 6.9017758046e-01	 1.7433530645e+00	 6.8225586797e+01
 6.5549548273e-01	 1.7566874145e+00	 1.9103828575e+02
 6.2070641247e-01	 1.7692791045e+00	 2.7986155041e+02
 5.8583295169e-01	 1.7811301897e+00	 3.3712755311e+02
 5.5089738324e-01	 1.7922435865e+00	 3.6531354112e+02
 5.1592165286e-01	 1.8026230466e+00	 3.6693054874e+02
 4.8092733318e-01	 1.8122731307e+00	 3.4451233200e+02
 4.4593558987e-01	 1.8211991790e+00	 3.0060458630e+02
 4.1096715009e-01	 1.8294072815e+00	 2.3775450246e+02
 3.7604227311e-01	 1.8369042460e+00	 1.5850071152e+02
 3.4118072329e-01	 1.8436975658e+00	 6.5363663333e+01
 3.1843534174e-01	 1.7207843947e+00	-7.0776888925e+01
 2.8597496231e-01	 1.7264756937e+00	-9.5681480895e-01
 2.5360910580e-01	 1.7315260383e+00	 5.2486745210e+01
 2.2135470347e-01	 1.7359441510e+00	 9.1294733033e+01
 1.8922814545e-01	 1.7397392647e+00	 1.1719172091e+02
 1.5724526633e-01	 1.7429210901e+00	 1.3188008296e+02
 1.2542133288e-01	 1.7454997821e+00	 1.3703454256e+02
 9.3771033808e-02	 1.7474859064e+00	 1.3429710790e+02
 6.2308471550e-02	 1.7488904066e+00	 1.2527240438e+02
 3.1047155973e-02	 1.7497245709e+00	 1.1152340919e+02
 0.0000000000e+00	 1.7500000000e+00	 9.4567590215e+01
 3.2070987989e-01	 1.7330757118e+00	-1.1506197460e+02
 2.8801764061e-01	 1.7388076629e+00	-5.1568556954e+01
 2.5542059941e-01	 1.7438940815e+00	 3.2151546495e-01
 2.2293580850e-01	 1.7483437520e+00	 4.1835578946e+01
 1.9057977506e-01	 1.7521659737e+00	 7.4189691528e+01
 1.5836844680e-01	 1.7553705264e+00	 9.8584495990e+01
 1.2631719954e-01	 1.7579676377e+00	 1.1620134846e+02
 9.4440826906e-02	 1.7599679486e+00	 1.2819872145e+02
 6.2753532061e-02	 1.7613824810e+00	 1.3570888749e+02
 3.1268921373e-02	 1.7622226036e+00	 1.3983488741e+02
 0.0000000000e+00	 1.7625000000e+00	 1.4164778467e+02
 3.2298441805e-01	 1.7453670289e+00	-1.4575578253e+02
 2.9006031891e-01	 1.7511396322e+00	-9.1501671241e+01
 2.5723209303e-01	 1.7562621246e+00	-4.4119620125e+01
 2.2451691352e-01	 1.7607433531e+00	-2.8903599353e+00
 1.9193140467e-01	 1.7645926827e+00	 3.2899116609e+01
 1.5949162727e-01	 1.7678199628e+00	 6.3953094884e+01
 1.2721306620e-01	 1.7704354933e+00	 9.0964834778e+01
 9.5110620005e-02	 1.7724499908e+00	 1.1461442878e+02
 6.3198592571e-02	 1.7738745553e+00	 1.3556682557e+02
 3.1490686773e-02	 1.7747206362e+00	 1.5447002159e+02
 0.0000000000e+00	 1.7750000000e+00	 1.7195342153e+02
 3.2525895620e-01	 1.7576583461e+00	-1.6314341783e+02
 2.9210299722e-01	 1.7634716014e+00	-1.2098015717e+02
 2.5904358664e-01	 1.7686301677e+00	-8.0998676772e+01
 2.2609801855e-01	 1.7731429542e+00	-4.2982352030e+01
 1.9328303428e-01	 1.7770193918e+00	-6.7158775943e+00
 1.6061480775e-01	 1.7802693991e+00	 2.8013935702e+01
 1.2810893287e-01	 1.7829033488e+00	 6.1417411923e+01
 9.5780413103e-02	 1.7849320330e+00	 9.3701311058e+01
 6.3643653082e-02	 1.7863666296e+00	 1.2506818142e+02
 3.1712452172e-02	 1.7872186689e+00	 1.5571576439e+02
 0.0000000000e+00	 1.7875000000e+00	 1.8583645205e+02
 3.2753349436e-01	 1.7699496632e+00	-1.6750206633e+02
 2.9414567552e-01	 1.7758035707e+00	-1.4022179237e+02
 2.6085508025e-01	 1.7809982109e+00	-1.1047316957e+02
 2.2767912357e-01	 1.7855425553e+00	-7.8536908599e+01
 1.9463466389e-01	 1.7894461008e+00	-4.4690168625e+01
 1.6173798822e-01	 1.7927188355e+00	-9.2057051110e+00
 1.2900479953e-01	 1.7953712044e+00	 2.7648923092e+01
 9.6450206201e-02	 1.7974140752e+00	 6.5612085829e+01
 6.4088713593e-02	 1.7988587040e+00	 1.0442875195e+02
 3.1934217572e-02	 1.7997167015e+00	 1.4385109735e+02
 0.0000000000e+00	 1.8000000000e+00	 1.8363905081e+02
 3.2980803251e-01	 1.7822409803e+00	-1.5910126771e+02
 2.9618835382e-01	 1.7881355399e+00	-1.4943834710e+02
 2.6266657387e-01	 1.7933662540e+00	-1.3269626869e+02
 2.2926022860e-01	 1.7979421564e+00	-1.0964787882e+02
 1.9598629350e-01	 1.8018728098e+00	-8.1057672176e+01
 1.6286116869e-01	 1.8051682719e+00	-4.7679303841e+01
 1.2990066619e-01	 1.8078390600e+00	-1.0253267222e+01
 9.7119999299e-02	 1.8098961174e+00	 3.0495257480e+01
 6.4533774104e-02	 1.8113507783e+00	 7.3858380806e+01
 3.2155982972e-02	 1.8122147342e+00	 1.1914730572e+02
 0.0000000000e+00	 1.8125000000e+00	 1.6569395289e+02
 3.3208257067e-01	 1.7945322974e+00	-1.3820317728e+02
 2.9823103212e-01	 1.8004675092e+00	-1.4883579002e+02
 2.6447806748e-01	 1.8057342971e+00	-1.4781694814e+02
 2.3084133362e-01	 1.8103417574e+00	-1.3640654096e+02
 1.9733792311e-01	 1.8142995189e+00	-1.1585137503e+02
 1.6398434917e-01	 1.8176177082e+00	-8.7381063727e+01
 1.3079653285e-01	 1.8203069156e+00	-5.2204188338e+01
 9.7789792397e-02	 1.8223781596e+00	-1.1504738469e+01
 6.4978834614e-02	 1.8238428526e+00	 3.3561162265e+01
 3.2377748371e-02	 1.8247127668e+00	 8.1868242054e+01
 0.0000000000e+00	 1.8250000000e+00	 1.3232477711e+02
 3.3435710882e-01	 1.8068236145e+00	-1.0506281722e+02
 3.0027371042e-01	 1.8127994784e+00	-1.3861448550e+02
 2.6628956109e-01	 1.8181023403e+00	-1.5598012852e+02
 2.3242243864e-01	 1.8227413585e+00	-1.5890168981e+02
 1.9868955272e-01	 1.8267262279e+00	-1.4910336664e+02
 1.6510752964e-01	 1.8300671446e+00	-1.2828589023e+02
 1.3169239952e-01	 1.8327747712e+00	-9.8121181964e+01
 9.8459585495e-02	 1.8348602018e+00	-6.0247396967e+01
 6.5423895125e-02	 1.8363349270e+00	-1.6264363233e+01
 3.2599513771e-02	 1.8372107995e+00	 3.2270579017e+01
 0.0000000000e+00	 1.8375000000e+00	 8.3846336130e+01
 3.3663164698e-01	 1.8191149316e+00	-5.9928317515e+01
 3.0231638873e-01	 1.8251314476e+00	-1.1896938298e+02
 2.6810105470e-01	 1.8304703834e+00	-1.5732681397e+02
 2.3400354367e-01	 1.8351409596e+00	-1.7721972059e+02
 2.0004118233e-01	 1.8391529369e+00	-1.8084486947e+02
 1.6623071011e-01	 1.8425165809e+00	-1.7036936731e+02
 1.3258826618e-01	 1.8452426268e+00	-1.4792382408e+02
 9.9129378594e-02	 1.8473422440e+00	-1.1559601065e+02
 6.5868955636e-02	 1.8488270013e+00	-7.5425021443e+01
 3.2821279170e-02	 1.8497088321e+00	-2.9395948056e+01
 0.0000000000e+00	 1.8500000000e+00	 2.0564933939e+01
 3.3890618513e-01	 1.8314062487e+00	-3.0411472579e+00
 3.0435906703e-01	 1.8374634169e+00	-9.0090198631e+01
 2.6991254832e-01	 1.8428384265e+00	-1.5199422356e+02
 2.3558464869e-01	 1.8475405607e+00	-1.9144470947e+02
 2.0139281194e-01	 1.8515796460e+00	-2.1110626807e+02
 1.6735389059e-01	 1.8549660173e+00	-2.1360773467e+02
 1.3348413284e-01	 1.8577104824e+00	-2.0153384994e+02
 9.9799171692e-02	 1.8598242861e+00	-1.7741754238e+02
 6.6314016147e-02	 1.8613190756e+00	-1.4373282424e+02
 3.3043044570e-02	 1.8622068648e+00	-1.0288830836e+02
 0.0000000000e+00	 1.8625000000e+00	-5.7221348613e+01
 3.4118072329e-01	 1.8436975658e+00	 6.5363663333e+01
 3.0640174533e-01	 1.8497953861e+00	-5.2161589845e+01
 2.7172404193e-01	 1.8552064697e+00	-1.4011591749e+02
 2.3716575372e-01	 1.8599401617e+00	-2.0165849086e+02
 2.0274444155e-01	 1.8640063550e+00	-2.3991713701e+02
 1.6847707106e-01	 1.8674154537e+00	-2.5797786588e+02
 1.3437999951e-01	 1.8701783380e+00	-2.5887508214e+02
 1.0046896479e-01	 1.8723063283e+00	-2.4558250294e+02
 6.6759076657e-02	 1.8738111500e+00	-2.2100479675e+02
 3.3264809970e-02	 1.8747048974e+00	-1.8796995213e+02
 0.0000000000e+00	 1.8750000000e+00	-1.4922237971e+02
 1.8750000000e+00	 0.0000000000e+00	 1.3875539134e+03
 1.8747048974e+00	 3.3264809970e-02	 1.1302224724e+03
 1.8738111500e+00	 6.6759076657e-02	 9.0137407370e+02
 1.8723063283e+00	 1.0046896479e-01	 7.0151227723e+02
 1.8701783380e+00	 1.3437999951e-01	 5.3105940148e+02
 1.8674154537e+00	 1.6847707106e-01	 3.9035116494e+02
 1.8640063550e+00	 2.0274444155e-01	 2.7963146437e+02
 1.8599401617e+00	 2.3716575372e-01	 1.9904732982e+02
 1.8552064697e+00	 2.7172404193e-01	 1.4864409736e+02
 1.8497953861e+00	 3.0640174533e-01	 1.2836084180e+02
 1.8436975658e+00	 3.4118072329e-01	 1.3802611169e+02
 1.8875000000e+00	 0.0000000000e+00	 1.0991107565e+03
 1.8872029301e+00	 3.3486575369e-02	 9.0063435348e+02
 1.8863032243e+00	 6.7204137168e-02	 7.2337986131e+02
 1.8847883705e+00	 1.0113875789e-01	 5.6772531075e+02
 1.8826461935e+00	 1.3527586617e-01	 4.3398765841e+02
 1.8798648900e+00	 1.6960025153e-01	 3.2241875114e+02
 1.8764330640e+00	 2.0409607116e-01	 2.3320139322e+02
 1.8723397628e+00	 2.3874685874e-01	 1.6644554634e+02
 1.8675745128e+00	 2.7353553554e-01	 1.2218469347e+02
 1.8621273554e+00	 3.0844442363e-01	 1.0037239823e+02
 1.8559888829e+00	 3.4345526144e-01	 1.0087909192e+02
 1.9000000000e+00	 0.0000000000e+00	 8.0510159020e+02
 1.8997009627e+00	 3.3708340769e-02	 6.6579766624e+02
 1.8987952986e+00	 6.7649197680e-02	 5.4055579867e+02
 1.8972704127e+00	 1.0180855099e-01	 4.2963003604e+02
 1.8951140491e+00	 1.3617173283e-01	 3.3323334439e+02
 1.8923143264e+00	 1.7072343201e-01	 2.5153488301e+02
 1.8888597731e+00	 2.0544770077e-01	 1.8465734904e+02
 1.8847393639e+00	 2.4032796377e-01	 1.3267441155e+02
 1.8799425559e+00	 2.7534702916e-01	 9.5608255841e+01
 1.8744593246e+00	 3.1048710194e-01	 7.3427259335e+01
 1.8682802000e+00	 3.4572979960e-01	 6.6043820978e+01
 1.9125000000e+00	 0.0000000000e+00	 5.0563554315e+02
 1.9121989954e+00	 3.3930106169e-02	 4.2581531618e+02
 1.9112873730e+00	 6.8094258191e-02	 3.5299658218e+02
 1.9097524549e+00	 1.0247834409e-01	 2.8731092417e+02
 1.9075819047e+00	 1.3706759950e-01	 2.2886866212e+02
 1.9047637627e+00	 1.7184661248e-01	 1.7775742849e+02
 1.9012864821e+00	 2.0679933038e-01	 1.3404077941e+02
 1.8971389650e+00	 2.4190906879e-01	 9.7756851854e+01
 1.8923105990e+00	 2.7715852277e-01	 6.8917077956e+01
 1.8867912938e+00	 3.1252978024e-01	 4.7504967561e+01
 1.8805715171e+00	 3.4800433776e-01	 3.3474970503e+01
 1.9250000000e+00	 0.0000000000e+00	 2.0081890967e+02
 1.9246970280e+00	 3.4151871570e-02	 1.8078753600e+02
 1.9237794473e+00	 6.8539318703e-02	 1.6079444862e+02
 1.9222344971e+00	 1.0314813719e-01	 1.4085025222e+02
 1.9200497603e+00	 1.3796346616e-01	 1.2096393888e+02
 1.9172131991e+00	 1.7296979296e-01	 1.0114275249e+02
 1.9137131911e+00	 2.0815095999e-01	 8.1392055386e+01
 1.9095385661e+00	 2.4349017382e-01	 6.1715198161e+01
 1.9046786422e+00	 2.7897001638e-01	 4.2113393715e+01
 1.8991232631e+00	 3.1457245854e-01	 2.2585596704e+01
 1.8928628342e+00	 3.5027887591e-01	 3.1283894817e+00
 1.9375000000e+00	 0.0000000000e+00	-1.0924475894e+02
 1.9371950607e+00	 3.4373636970e-02	-6.9188028196e+01
 1.9362715216e+00	 6.8984379215e-02	-3.5960745452e+01
 1.9347165393e+00	 1.0381793029e-01	-9.6718259835e+00
 1.9325176159e+00	 1.3885933283e-01	 9.5876871281e+00
 1.9296626354e+00	 1.7409297343e-01	 2.1745765367e+01
 1.9261399002e+00	 2.0950258961e-01	 2.6750506209e+01
 1.9219381671e+00	 2.4507127885e-01	 2.4571205118e+01
 1.9170466853e+00	 2.8078151000e-01	 1.5199379370e+01
 1.9114552323e+00	 3.1661513685e-01	-1.3502652267e+00
 1.9051541513e+00	 3.5255341407e-01	-2.5038933748e+01
 1.9500000000e+00	 0.0000000000e+00	-4.2445456646e+02
 1.9496930933e+00	 3.4595402371e-02	-3.2401623398e+02
 1.9487635960e+00	 6.9429439728e-02	-2.3718144744e+02
 1.9471985815e+00	 1.0448772339e-01	-1.6417721179e+02
 1.9449854715e+00	 1.3975519949e-01	-1.0519333738e+02
 1.9421120718e+00	 1.7521615391e-01	-6.0380030445e+01
 1.9385666092e+00	 2.1085421922e-01	-2.9845547314e+01
 1.9343377682e+00	 2.4665238388e-01	-1.3653930437e+01
 1.9294147284e+00	 2.8259300362e-01	-1.1822844637e+01
 1.9237872016e+00	 3.1865781515e-01	-2.4321532495e+01
 1.9174454684e+00	 3.5482795223e-01	-5.1068908009e+01
 1.9625000000e+00	 0.0000000000e+00	-7.4471218722e+02
 1.9621911260e+00	 3.4817167771e-02	-5.8360436286e+02
 1.9612556703e+00	 6.9874500241e-02	-4.4278233534e+02
 1.9596806237e+00	 1.0515751649e-01	-3.2258979626e+02
 1.9574533271e+00	 1.4065106616e-01	-2.2331407964e+02
 1.9545615082e+00	 1.7633933439e-01	-1.4518249562e+02
 1.9509933182e+00	 2.1220584883e-01	-8.8358760685e+01
 1.9467373693e+00	 2.4823348890e-01	-5.2939551707e+01
 1.9417827716e+00	 2.8440449723e-01	-3.8951211888e+01
 1.9361191708e+00	 3.2070049346e-01	-4.6346637485e+01
 1.9297367855e+00	 3.5710249039e-01	-7.5002374406e+01
 1.9750000000e+00	 0.0000000000e+00	-1.0699217847e+03
 1.9746891586e+00	 3.5038933172e-02	-8.4786204362e+02
 1.9737477446e+00	 7.0319560754e-02	-6.5268024715e+02
 1.9721626658e+00	 1.0582730959e-01	-4.8483539726e+02
 1.9699211826e+00	 1.4154693283e-01	-3.4471113158e+02
 1.9670109445e+00	 1.7746251487e-01	-2.3261081077e+02
 1.9634200273e+00	 2.1355747845e-01	-1.4875273482e+02
 1.9591369704e+00	 2.4981459393e-01	-9.3265524844e+01
 1.9541508147e+00	 2.8621599085e-01	-6.6183708286e+01
 1.9484511400e+00	 3.2274317177e-01	-6.7443545954e+01
 1.9420281026e+00	 3.5937702855e-01	-9.6879140117e+01
 1.9875000000e+00	 0.0000000000e+00	-1.3999899334e+03
 1.9871871913e+00	 3.5260698574e-02	-1.1167011784e+03
 1.9862398189e+00	 7.0764621268e-02	-8.6679411293e+02
 1.9846447080e+00	 1.0649710269e-01	-6.5084169878e+02
 1.9823890382e+00	 1.4244279949e-01	-4.6932268025e+02
 1.9794603809e+00	 1.7858569534e-01	-3.2261543498e+02
 1.9758467363e+00	 2.1490910806e-01	-2.1099198632e+02
 1.9715365715e+00	 2.5139569896e-01	-1.3461222251e+02
 1.9665188578e+00	 2.8802748447e-01	-9.3518370405e+01
 1.9607831093e+00	 3.2478585007e-01	-8.7629771703e+01
 1.9543194197e+00	 3.6165156671e-01	-1.1673801091e+02
 2.0000000000e+00	 0.0000000000e+00	-1.7348255433e+03
 1.9996852239e+00	 3.5482463975e-02	-1.3900358719e+03
 1.9987318933e+00	 7.1209681781e-02	-1.0850448894e+03
 1.9971267502e+00	 1.0716689579e-01	-8.2053819271e+02
 1.9948568938e+00	 1.4333866616e-01	-5.9708845800e+02
 1.9919098172e+00	 1.7970887582e-01	-4.1514806583e+02
 1.9882734453e+00	 2.1626073768e-01	-2.7504191885e+02
 1.9839361725e+00	 2.5297680400e-01	-1.7696050804e+02
 1.9788869010e+00	 2.8983897809e-01	-1.2095328391e+02
 1.9731150785e+00	 3.2682852838e-01	-1.0692239070e+02
 1.9666107368e+00	 3.6392610487e-01	-1.3461682242e+02
 1.8436975658e+00	 3.4118072329e-01	 1.3802611169e+02
 1.8369042460e+00	 3.7604227311e-01	 1.6992464180e+02
 1.8294072815e+00	 4.1096715009e-01	 1.9306111127e+02
 1.8211991790e+00	 4.4593558987e-01	 2.0754740589e+02
 1.8122731307e+00	 4.8092733318e-01	 2.1353011455e+02
 1.8026230466e+00	 5.1592165286e-01	 2.1119119628e+02
 1.7922435865e+00	 5.5089738324e-01	 2.0074849518e+02
 1.7811301897e+00	 5.8583295169e-01	 1.8245609311e+02
 1.7692791045e+00	 6.2070641247e-01	 1.5660449077e+02
 1.7566874145e+00	 6.5549548273e-01	 1.2352060873e+02
 1.7433530645e+00	 6.9017758046e-01	 8.3567600992e+01
 1.8559888829e+00	 3.4345526144e-01	 1.0087909192e+02
 1.8491502743e+00	 3.7854922160e-01	 1.2683087865e+02
 1.8416033300e+00	 4.1370693109e-01	 1.4612556113e+02
 1.8333405069e+00	 4.4890849380e-01	 1.5885020498e+02
 1.8243549516e+00	 4.8413351540e-01	 1.6511848822e+02
 1.8146405336e+00	 5.1936113055e-01	 1.6507120887e+02
 1.8041918770e+00	 5.5457003246e-01	 1.5887667549e+02
 1.7930043910e+00	 5.8973850470e-01	 1.4673097302e+02
 1.7810742985e+00	 6.2484445522e-01	 1.2885809676e+02
 1.7683986639e+00	 6.5986545261e-01	 1.0550994787e+02
 1.7549754183e+00	 6.9477876433e-01	 7.6966184996e+01
 1.8682802000e+00	 3.4572979960e-01	 6.6043820978e+01
 1.8613963026e+00	 3.8105617009e-01	 8.5690924796e+01
 1.8537993786e+00	 4.1644671209e-01	 1.0075720607e+02
 1.8454818348e+00	 4.5188139773e-01	 1.1130507781e+02
 1.8364367724e+00	 4.8733969762e-01	 1.1741554679e+02
 1.8266580206e+00	 5.2280060824e-01	 1.1918856306e+02
 1.8161401676e+00	 5.5824268168e-01	 1.1674328744e+02
 1.8048785923e+00	 5.9364405771e-01	 1.1021827142e+02
 1.7928694925e+00	 6.2898249797e-01	 9.9771544628e+01
 1.7801099133e+00	 6.6423542250e-01	 8.5580605225e+01
 1.7665977720e+00	 6.9937994820e-01	 6.7842309442e+01
 1.8805715171e+00	 3.4800433776e-01	 3.3474970503e+01
 1.8736423309e+00	 3.8356311858e-01	 4.6466470925e+01
 1.8659954271e+00	 4.1918649309e-01	 5.6925317973e+01
 1.8576231626e+00	 4.5485430167e-01	 6.4889436430e+01
 1.8485185933e+00	 4.9054587984e-01	 7.0407396676e+01
 1.8386755075e+00	 5.2624008592e-01	 7.3538607739e+01
 1.8280884582e+00	 5.6191533091e-01	 7.4353462857e+01
 1.8167527935e+00	 5.9754961072e-01	 7.2933434447e+01
 1.8046646866e+00	 6.3312054072e-01	 6.9371115657e+01
 1.7918211628e+00	 6.6860539238e-01	 6.3770205946e+01
 1.7782201258e+00	 7.0398113207e-01	 5.6245438486e+01
 1.8928628342e+00	 3.5027887591e-01	 3.1283894817e+00
 1.8858883592e+00	 3.8607006707e-01	 9.1202027210e+00
 1.8781914757e+00	 4.2192627409e-01	 1.4599966847e+01
 1.8697644905e+00	 4.5782720560e-01	 1.9581279542e+01
 1.8606004142e+00	 4.9375206206e-01	 2.4080505109e+01
 1.8506929945e+00	 5.2967956361e-01	 2.8116812495e+01
 1.8400367488e+00	 5.6558798013e-01	 3.1712200146e+01
 1.8286269948e+00	 6.0145516373e-01	 3.4891506923e+01
 1.8164598806e+00	 6.3725858347e-01	 3.7682408376e+01
 1.8035324122e+00	 6.7297536226e-01	 4.0115397776e+01
 1.7898424795e+00	 7.0858231593e-01	 4.2223751370e+01
 1.9051541513e+00	 3.5255341407e-01	-2.5038933748e+01
 1.8981343875e+00	 3.8857701556e-01	-2.6384231214e+01
 1.8903875242e+00	 4.2466605510e-01	-2.6248004977e+01
 1.8819058183e+00	 4.6080010953e-01	-2.4640826439e+01
 1.8726822351e+00	 4.9695824429e-01	-2.1578311518e+01
 1.8627104815e+00	 5.3311904130e-01	-1.7081236226e+01
 1.8519850393e+00	 5.6926062935e-01	-1.1175631343e+01
 1.8405011961e+00	 6.0536071674e-01	-3.8928546622e+00
 1.8282550746e+00	 6.4139662622e-01	 4.7303606055e+00
 1.8152436616e+00	 6.7734533215e-01	 1.4651882597e+01
 1.8014648333e+00	 7.1318349980e-01	 2.5824183875e+01
 1.9174454684e+00	 3.5482795223e-01	-5.1068908009e+01
 1.9103804158e+00	 3.9108396405e-01	-6.0082250225e+01
 1.9025835728e+00	 4.2740583610e-01	-6.5647007579e+01
 1.8940471462e+00	 4.6377301347e-01	-6.7797765572e+01
 1.8847640559e+00	 5.0016442651e-01	-6.6581898836e+01
 1.8747279685e+00	 5.3655851898e-01	-6.2059838892e+01
 1.8639333299e+00	 5.7293327857e-01	-5.4305287206e+01
 1.8523753973e+00	 6.0926626975e-01	-4.3405369726e+01
 1.8400502687e+00	 6.4553466897e-01	-2.9460729373e+01
 1.8269549110e+00	 6.8171530203e-01	-1.2585553258e+01
 1.8130871871e+00	 7.1778468367e-01	 7.0924681756e+00
 1.9297367855e+00	 3.5710249039e-01	-7.5002374406e+01
 1.9226264441e+00	 3.9359091254e-01	-9.2008371287e+01
 1.9147796213e+00	 4.3014561710e-01	-1.0362472726e+02
 1.9061884741e+00	 4.6674591740e-01	-1.0990988989e+02
 1.8968458768e+00	 5.0337060873e-01	-1.1094277527e+02
 1.8867454554e+00	 5.3999799667e-01	-1.0682318648e+02
 1.8758816205e+00	 5.7660592779e-01	-9.7672144000e+01
 1.8642495986e+00	 6.1317182276e-01	-8.3632121619e+01
 1.8518454627e+00	 6.4967271171e-01	-6.4867182446e+01
 1.8386661605e+00	 6.8608527191e-01	-4.1563009846e+01
 1.8247095408e+00	 7.2238586753e-01	-1.3926828828e+01
 1.9420281026e+00	 3.5937702855e-01	-9.6879140117e+01
 1.9348724724e+00	 3.9609786103e-01	-1.2219623756e+02
 1.9269756698e+00	 4.3288539810e-01	-1.4020814943e+02
 1.9183298019e+00	 4.6971882134e-01	-1.5099703625e+02
 1.9089276977e+00	 5.0657679095e-01	-1.5467314236e+02
 1.8987629424e+00	 5.4343747436e-01	-1.5137536393e+02
 1.8878299111e+00	 5.8027857701e-01	-1.4127169542e+02
 1.8761237998e+00	 6.1707737577e-01	-1.2455954610e+02
 1.8636406567e+00	 6.5381075446e-01	-1.0146591908e+02
 1.8503774099e+00	 6.9045524179e-01	-7.2247445564e+01
 1.8363318946e+00	 7.2698705140e-01	-3.7190268634e+01
 1.9543194197e+00	 3.6165156671e-01	-1.1673801091e+02
 1.9471185007e+00	 3.9860480952e-01	-1.5067864588e+02
 1.9391717184e+00	 4.3562517911e-01	-1.7542358070e+02
 1.9304711298e+00	 4.7269172527e-01	-1.9107854251e+02
 1.9210095185e+00	 5.0978297318e-01	-1.9778489480e+02
 1.9107804294e+00	 5.4687695204e-01	-1.9572035352e+02
 1.8997782016e+00	 5.8395122623e-01	-1.8509954860e+02
 1.8879980011e+00	 6.2098292878e-01	-1.6617442028e+02
 1.8754358507e+00	 6.5794879721e-01	-1.3923444044e+02
 1.8620886593e+00	 6.9482521167e-01	-1.0460665016e+02
 1.8479542483e+00	 7.3158823526e-01	-6.2655505657e+01
 1.9666107368e+00	 3.6392610487e-01	-1.3461682242e+02
 1.9593645290e+00	 4.0111175801e-01	-1.7748757318e+02
 1.9513677669e+00	 4.3836496011e-01	-2.0929667002e+02
 1.9426124577e+00	 4.7566462921e-01	-2.3017326314e+02
 1.9330913394e+00	 5.1298915540e-01	-2.4028962994e+02
 1.9227979164e+00	 5.5031642973e-01	-2.3986203800e+02
 1.9117264922e+00	 5.8762387546e-01	-2.2915142058e+02
 1.8998722024e+00	 6.2488848179e-01	-2.0846385190e+02
 1.8872310448e+00	 6.6208683996e-01	-1.7815081031e+02
 1.8737999088e+00	 6.9919518155e-01	-1.3860921873e+02
 1.8595766021e+00	 7.3618941913e-01	-9.0281253068e+01
 1.7433530645e+00	 6.9017758046e-01	 8.3567600992e+01
 1.7292748837e+00	 7.2472986455e-01	 4.0131460029e+01
 1.7144526070e+00	 7.5912927655e-01	 3.0299449983e+00
 1.6988868935e+00	 7.9335258431e-01	-2.7925022420e+01
 1.6825793438e+00	 8.2737642706e-01	-5.2948150925e+01
 1.6655325128e+00	 8.6117736201e-01	-7.2280482618e+01
 1.6477499220e+00	 8.9473191212e-01	-8.6188949471e+01
 1.6292360671e+00	 9.2801661506e-01	-9.4965782021e+01
 1.6099964235e+00	 9.6100807296e-01	-9.8927770178e+01
 1.5900374492e+00	 9.9368300285e-01	-9.8415377346e+01
 1.5693665835e+00	 1.0260182876e+00	-9.3791710236e+01
 1.7549754183e+00	 6.9477876433e-01	 7.6966184996e+01
 1.7408033830e+00	 7.2956139697e-01	 4.1443194553e+01
 1.7258822910e+00	 7.6419013839e-01	 1.0924554961e+01
 1.7102128062e+00	 7.9864160154e-01	-1.4737128008e+01
 1.6937965394e+00	 8.3289226991e-01	-3.5710358764e+01
 1.6766360629e+00	 8.6691854442e-01	-5.2184523721e+01
 1.6587349215e+00	 9.0069679153e-01	-6.4369547031e+01
 1.6400976408e+00	 9.3420339250e-01	-7.2495429165e+01
 1.6207297330e+00	 9.6741479345e-01	-7.6811668232e+01
 1.6006376989e+00	 1.0003075562e+00	-7.7586564920e+01
 1.5798290274e+00	 1.0328584095e+00	-7.5106412901e+01
 1.7665977720e+00	 6.9937994820e-01	 6.7842309442e+01
 1.7523318822e+00	 7.3439292940e-01	 4.0552887674e+01
 1.7373119751e+00	 7.6925100023e-01	 1.6955092517e+01
 1.7215387188e+00	 8.0393061877e-01	-3.0582011752e+00
 1.7050137350e+00	 8.3840811275e-01	-1.9609758515e+01
 1.6877396130e+00	 8.7265972683e-01	-3.2837824676e+01
 1.6697199210e+00	 9.0666167094e-01	-4.2895879076e+01
 1.6509592146e+00	 9.4039016993e-01	-4.9952302799e+01
 1.6314630425e+00	 9.7382151393e-01	-5.4189959133e+01
 1.6112379485e+00	 1.0069321096e+00	-5.5805687781e+01
 1.5902914713e+00	 1.0396985314e+00	-5.5009714070e+01
 1.7782201258e+00	 7.0398113207e-01	 5.6245438486e+01
 1.7638603814e+00	 7.3922446183e-01	 3.7503721039e+01
 1.7487416591e+00	 7.7431186207e-01	 2.1158112637e+01
 1.7328646314e+00	 8.0921963599e-01	 7.1413503542e+00
 1.7162309306e+00	 8.4392395560e-01	-4.6240475070e+00
 1.6988431631e+00	 8.7840090924e-01	-1.4225689232e+01
 1.6807049204e+00	 9.1262655035e-01	-2.1761161545e+01
 1.6618207884e+00	 9.4657694736e-01	-2.7337824849e+01
 1.6421963520e+00	 9.8022823441e-01	-3.1072551705e+01
 1.6218381982e+00	 1.0135566629e+00	-3.3091408800e+01
 1.6007539152e+00	 1.0465386534e+00	-3.3529283205e+01
 1.7898424795e+00	 7.0858231593e-01	 4.2223751370e+01
 1.7753888806e+00	 7.4405599426e-01	 3.2337754555e+01
 1.7601713431e+00	 7.7937272391e-01	 2.3569220668e+01
 1.7441905440e+00	 8.1450865322e-01	 1.5890350067e+01
 1.7274481262e+00	 8.4943979844e-01	 9.2684974742e+00
 1.7099467131e+00	 8.8414209165e-01	 3.6661969665e+00
 1.6916899199e+00	 9.1859142976e-01	-9.5878677067e-01
 1.6726823622e+00	 9.5276372479e-01	-4.6533805026e+00
 1.6529296615e+00	 9.8663495490e-01	-7.4690976024e+00
 1.6324384478e+00	 1.0201812163e+00	-9.4619063071e+00
 1.6112163591e+00	 1.0533787753e+00	-1.0692071299e+01
 1.8014648333e+00	 7.1318349980e-01	 2.5824183875e+01
 1.7869173798e+00	 7.4888752668e-01	 2.5095962574e+01
 1.7716010272e+00	 7.8443358575e-01	 2.4223102961e+01
 1.7555164566e+00	 8.1979767044e-01	 2.3216877463e+01
 1.7386653219e+00	 8.5495564128e-01	 2.2089038880e+01
 1.7210502632e+00	 8.8988327406e-01	 2.0851778701e+01
 1.7026749194e+00	 9.2455630917e-01	 1.9517682211e+01
 1.6835439359e+00	 9.5895050222e-01	 1.8099680612e+01
 1.6636629710e+00	 9.9304167538e-01	 1.6611000398e+01
 1.6430386975e+00	 1.0268057696e+00	 1.5065110278e+01
 1.6216788030e+00	 1.0602188972e+00	 1.3475665951e+01
 1.8130871871e+00	 7.1778468367e-01	 7.0924681756e+00
 1.7984458791e+00	 7.5371905911e-01	 1.5818268693e+01
 1.7830307112e+00	 7.8949444759e-01	 2.3153556331e+01
 1.7668423693e+00	 8.2508668766e-01	 2.9148291903e+01
 1.7498825175e+00	 8.6047148412e-01	 3.3858196374e+01
 1.7321538133e+00	 8.9562445646e-01	 3.7344643021e+01
 1.7136599189e+00	 9.3052118858e-01	 3.9674517135e+01
 1.6944055097e+00	 9.6513727965e-01	 4.0920043283e+01
 1.6743962804e+00	 9.9944839586e-01	 4.1158580420e+01
 1.6536389472e+00	 1.0334303230e+00	 4.0472385419e+01
 1.6321412469e+00	 1.0670590191e+00	 3.8948345858e+01
 1.8247095408e+00	 7.2238586753e-01	-1.3926828828e+01
 1.8099743783e+00	 7.5855059154e-01	 4.5435792105e+00
 1.7944603953e+00	 7.9455530943e-01	 2.0393516386e+01
 1.7781682819e+00	 8.3037570489e-01	 3.3711255541e+01
 1.7610997131e+00	 8.6598732697e-01	 4.4596064115e+01
 1.7432573634e+00	 9.0136563887e-01	 5.3158030642e+01
 1.7246449183e+00	 9.3648606799e-01	 5.9517829770e+01
 1.7052670835e+00	 9.7132405707e-01	 6.3806425621e+01
 1.6851295899e+00	 1.0058551163e+00	 6.6164713816e+01
 1.6642391968e+00	 1.0400548763e+00	 6.6743103010e+01
 1.6426036908e+00	 1.0738991410e+00	 6.5701037312e+01
 1.8363318946e+00	 7.2698705140e-01	-3.7190268634e+01
 1.8215028775e+00	 7.6338212396e-01	-8.6901846749e+00
 1.8058900793e+00	 7.9961617127e-01	 1.5975084778e+01
 1.7894941945e+00	 8.3566472211e-01	 3.6931755391e+01
 1.7723169087e+00	 8.7150316981e-01	 5.4322227393e+01
 1.7543609135e+00	 9.0710682128e-01	 6.8304846903e+01
 1.7356299178e+00	 9.4245094740e-01	 7.9053576979e+01
 1.7161286573e+00	 9.7751083450e-01	 8.6757578006e+01
 1.6958628994e+00	 1.0122618368e+00	 9.1620697789e+01
 1.6748394465e+00	 1.0466794296e+00	 9.3860872468e+01
 1.6530661346e+00	 1.0807392629e+00	 9.3709440166e+01
 1.8479542483e+00	 7.3158823526e-01	-6.2655505657e+01
 1.8330313767e+00	 7.6821365638e-01	-2.3846055888e+01
 1.8173197634e+00	 8.0467703310e-01	 9.9295554317e+00
 1.8008201071e+00	 8.4095373933e-01	 3.8835124556e+01
 1.7835341043e+00	 8.7701901264e-01	 6.3055778628e+01
 1.7654644635e+00	 9.1284800368e-01	 8.2797672316e+01
 1.7466149173e+00	 9.4841582680e-01	 9.8287565595e+01
 1.7269902311e+00	 9.8369761193e-01	 1.0977228207e+02
 1.7065962089e+00	 1.0186685573e+00	 1.1751804829e+02
 1.6854396961e+00	 1.0533039830e+00	 1.2180971536e+02
 1.6635285785e+00	 1.0875793848e+00	 1.2294986539e+02
 1.8595766021e+00	 7.3618941913e-01	-9.0281253068e+01
 1.8445598760e+00	 7.7304518881e-01	-4.0887991658e+01
 1.8287494474e+00	 8.0973789494e-01	 2.2874397862e+00
 1.8121460197e+00	 8.4624275655e-01	 3.9446062666e+01
 1.7947513000e+00	 8.8253485548e-01	 7.0815332774e+01
 1.7765680136e+00	 9.1858918609e-01	 9.6648772716e+01
 1.7575999168e+00	 9.5438070621e-01	 1.1722545711e+02
 1.7378518048e+00	 9.8988438935e-01	 1.3284934974e+02
 1.7173295184e+00	 1.0250752778e+00	 1.4384849318e+02
 1.6960399458e+00	 1.0599285363e+00	 1.5057405250e+02
 1.6739910224e+00	 1.0944195068e+00	 1.5339921598e+02
 1.5693665835e+00	 1.0260182876e+00	-9.3791710236e+01
 1.5479922437e+00	 1.0579910271e+00	-9.0208419864e+01
 1.5259238176e+00	 1.0895785896e+00	-8.7024039817e+01
 1.5031716538e+00	 1.1207586623e+00	-8.4056853164e+01
 1.4797470481e+00	 1.1515093025e+00	-8.1123397233e+01
 1.4556622267e+00	 1.1818089870e+00	-7.8039241300e+01
 1.4309303270e+00	 1.2116366614e+00	-7.4619777365e+01
 1.4055653745e+00	 1.2409717878e+00	-7.0681018829e+01
 1.3795822569e+00	 1.2697943914e+00	-6.6040401689e+01
 1.3529966958e+00	 1.2980851056e+00	-6.0517582864e+01
 1.3258252147e+00	 1.3258252147e+00	-5.3935230197e+01
 1.5798290274e+00	 1.0328584095e+00	-7.5106412901e+01
 1.5583121920e+00	 1.0650443007e+00	-7.1333275930e+01
 1.5360966431e+00	 1.0968424469e+00	-6.8228434062e+01
 1.5131927982e+00	 1.1282303867e+00	-6.5636308959e+01
 1.4896120284e+00	 1.1591860312e+00	-6.3398555715e+01
 1.4653666416e+00	 1.1896877136e+00	-6.1354720796e+01
 1.4404698626e+00	 1.2197142391e+00	-5.9342917985e+01
 1.4149358103e+00	 1.2492449330e+00	-5.7200517928e+01
 1.3887794720e+00	 1.2782596873e+00	-5.4764846755e+01
 1.3620166737e+00	 1.3067390063e+00	-5.1873889089e+01
 1.3346640495e+00	 1.3346640495e+00	-4.8366990720e+01
 1.5902914713e+00	 1.0396985314e+00	-5.5009714070e+01
 1.5686321403e+00	 1.0720975742e+00	-5.1184954774e+01
 1.5462694685e+00	 1.1041063041e+00	-4.8293710020e+01
 1.5232139425e+00	 1.1357021112e+00	-4.6206261210e+01
 1.4994770087e+00	 1.1668627599e+00	-4.4789111504e+01
 1.4750710564e+00	 1.1975664402e+00	-4.3905525080e+01
 1.4500093981e+00	 1.2277918169e+00	-4.3416089232e+01
 1.4243062462e+00	 1.2575180783e+00	-4.3179295774e+01
 1.3979766870e+00	 1.2867249833e+00	-4.3052137978e+01
 1.3710366517e+00	 1.3153929070e+00	-4.2890719135e+01
 1.3435028843e+00	 1.3435028843e+00	-4.2550868688e+01
 1.6007539152e+00	 1.0465386534e+00	-3.3529283205e+01
 1.5789520886e+00	 1.0791508477e+00	-2.9788415572e+01
 1.5564422939e+00	 1.1113701614e+00	-2.7242198263e+01
 1.5332350869e+00	 1.1431738356e+00	-2.5786499025e+01
 1.5093419890e+00	 1.1745394886e+00	-2.5312404677e+01
 1.4847754712e+00	 1.2054451667e+00	-2.5706642706e+01
 1.4595489336e+00	 1.2358693946e+00	-2.6852030521e+01
 1.4336766820e+00	 1.2657912235e+00	-2.8627949644e+01
 1.4071739020e+00	 1.2951902792e+00	-3.0910841875e+01
 1.3800566297e+00	 1.3240468077e+00	-3.3574724232e+01
 1.3523417190e+00	 1.3523417190e+00	-3.6491719319e+01
 1.6112163591e+00	 1.0533787753e+00	-1.0692071299e+01
 1.5892720368e+00	 1.0862041212e+00	-7.1679694376e+00
 1.5666151194e+00	 1.1186340187e+00	-5.0956495812e+00
 1.5432562312e+00	 1.1506455600e+00	-4.3962977510e+00
 1.5192069693e+00	 1.1822162172e+00	-4.9853251648e+00
 1.4944798861e+00	 1.2133238933e+00	-6.7726731722e+00
 1.4690884691e+00	 1.2439469723e+00	-9.6631506340e+00
 1.4430471178e+00	 1.2740643688e+00	-1.3556801834e+01
 1.4163711171e+00	 1.3036555752e+00	-1.8349302734e+01
 1.3890766076e+00	 1.3327007084e+00	-2.3932383130e+01
 1.3611805538e+00	 1.3611805538e+00	-3.0194272008e+01
 1.6216788030e+00	 1.0602188972e+00	 1.3475665951e+01
 1.5995919851e+00	 1.0932573947e+00	 1.6652699676e+01
 1.5767879448e+00	 1.1258978759e+00	 1.8124746316e+01
 1.5532773756e+00	 1.1581172844e+00	 1.7945564455e+01
 1.5290719497e+00	 1.1898929459e+00	 1.6175672725e+01
 1.5041843009e+00	 1.2212026199e+00	 1.2882160535e+01
 1.4786280046e+00	 1.2520245501e+00	 8.1384616149e+00
 1.4524175536e+00	 1.2823375140e+00	 2.0240914829e+00
 1.4255683321e+00	 1.3121208711e+00	-5.3756497746e+00
 1.3980965856e+00	 1.3413546091e+00	-1.3970007663e+01
 1.3700193886e+00	 1.3700193886e+00	-2.3663134384e+01
 1.6321412469e+00	 1.0670590191e+00	 3.8948345858e+01
 1.6099119334e+00	 1.1003106682e+00	 4.1650514879e+01
 1.5869607703e+00	 1.1331617332e+00	 4.2398342816e+01
 1.5632985200e+00	 1.1655890088e+00	 4.1220790694e+01
 1.5389369300e+00	 1.1975696746e+00	 3.8154556350e+01
 1.5138887158e+00	 1.2290813465e+00	 3.3243999871e+01
 1.4881675401e+00	 1.2601021278e+00	 2.6541027128e+01
 1.4617879895e+00	 1.2906106593e+00	 1.8104931720e+01
 1.4347655472e+00	 1.3205861671e+00	 8.0021959588e+00
 1.4071165636e+00	 1.3500085098e+00	-3.6937480948e+00
 1.3788582233e+00	 1.3788582233e+00	-1.6902796209e+01
 1.6426036908e+00	 1.0738991410e+00	 6.5701037312e+01
 1.6202318817e+00	 1.1073639417e+00	 6.7802987008e+01
 1.5971335957e+00	 1.1404255904e+00	 6.7705019113e+01
 1.5733196643e+00	 1.1730607332e+00	 6.5411549998e+01
 1.5488019103e+00	 1.2052464033e+00	 6.0935701304e+01
 1.5235931306e+00	 1.2369600731e+00	 5.4299339132e+01
 1.4977070756e+00	 1.2681797056e+00	 4.5533066659e+01
 1.4711584253e+00	 1.2988838045e+00	 3.4676169679e+01
 1.4439627622e+00	 1.3290514630e+00	 2.1776514968e+01
 1.4161365416e+00	 1.3586624105e+00	 6.8904017373e+00
 1.3876970581e+00	 1.3876970581e+00	-9.9176331278e+00
 1.6530661346e+00	 1.0807392629e+00	 9.3709440166e+01
 1.6305518300e+00	 1.1144172153e+00	 9.5088196033e+01
 1.6073064212e+00	 1.1476894477e+00	 9.4025163566e+01
 1.5833408087e+00	 1.1805324577e+00	 9.0500462587e+01
 1.5586668906e+00	 1.2129231320e+00	 8.4503878498e+01
 1.5332975455e+00	 1.2448387997e+00	 7.6035014289e+01
 1.5072466112e+00	 1.2762572833e+00	 6.5103391329e+01
 1.4805288611e+00	 1.3071569498e+00	 5.1728497661e+01
 1.4531599773e+00	 1.3375167590e+00	 3.5939782924e+01
 1.4251565195e+00	 1.3673163112e+00	 1.7776599473e+01
 1.3965358929e+00	 1.3965358929e+00	-2.7119102838e+00
 1.6635285785e+00	 1.0875793848e+00	 1.2294986539e+02
 1.6408717783e+00	 1.1214704888e+00	 1.2348477316e+02
 1.6174792466e+00	 1.1549533050e+00	 1.2133965769e+02
 1.5933619530e+00	 1.1880041821e+00	 1.1647058568e+02
 1.5685318710e+00	 1.2205998607e+00	 1.0884424174e+02
 1.5430019603e+00	 1.2527175262e+00	 9.8438192246e+01
 1.5167861467e+00	 1.2843348611e+00	 8.5241093496e+01
 1.4898992970e+00	 1.3154300950e+00	 6.9252841873e+01
 1.4623571923e+00	 1.3459820549e+00	 5.0484664537e+01
 1.4341764975e+00	 1.3759702119e+00	 2.8959149467e+01
 1.4053747276e+00	 1.4053747276e+00	 4.7102142146e+00
 1.6739910224e+00	 1.0944195068e+00	 1.5339921598e+02
 1.6511917266e+00	 1.1285237623e+00	 1.5297188360e+02
 1.6276520721e+00	 1.1622171622e+00	 1.4962986074e+02
 1.6033830974e+00	 1.1954759065e+00	 1.4330539986e+02
 1.5783968513e+00	 1.2282765894e+00	 1.3394231575e+02
 1.5527063752e+00	 1.2605962528e+00	 1.2149636050e+02
 1.5263256822e+00	 1.2924124388e+00	 1.0593553797e+02
 1.4992697328e+00	 1.3237032403e+00	 8.7240355118e+01
 1.4715544074e+00	 1.3544473509e+00	 6.5404007643e+01
 1.4431964755e+00	 1.3846241126e+00	 4.0432498210e+01
 1.4142135624e+00	 1.4142135624e+00	 1.2344685948e+01
 1.3258252147e+00	 1.3258252147e+00	-5.3935230197e+01
 1.2980851056e+00	 1.3529966958e+00	-3.7478784695e+01
 1.2697943914e+00	 1.3795822569e+00	-2.7063302756e+01
 1.2409717878e+00	 1.4055653745e+00	-2.2681175398e+01
 1.2116366614e+00	 1.4309303270e+00	-2.4300785161e+01
 1.1818089870e+00	 1.4556622267e+00	-3.1866735612e+01
 1.1515093025e+00	 1.4797470481e+00	-4.5300207441e+01
 1.1207586623e+00	 1.5031716538e+00	-6.4499437950e+01
 1.0895785896e+00	 1.5259238176e+00	-8.9340319733e+01
 1.0579910271e+00	 1.5479922437e+00	-1.1967711341e+02
 1.0260182876e+00	 1.5693665835e+00	-1.5534326831e+02
 1.3346640495e+00	 1.3346640495e+00	-4.8366990720e+01
 1.3067390063e+00	 1.3620166737e+00	-3.5286320217e+01
 1.2782596873e+00	 1.3887794720e+00	-2.6372840539e+01
 1.2492449330e+00	 1.4149358103e+00	-2.1653922677e+01
 1.2197142391e+00	 1.4404698626e+00	-2.1139832844e+01
 1.1896877136e+00	 1.4653666416e+00	-2.4823758934e+01
 1.1591860312e+00	 1.4896120284e+00	-3.2681928841e+01
 1.1282303867e+00	 1.5131927982e+00	-4.4673819233e+01
 1.0968424469e+00	 1.5360966431e+00	-6.0742452661e+01
 1.0650443007e+00	 1.5583121920e+00	-8.0814780143e+01
 1.0328584095e+00	 1.5798290274e+00	-1.0480214571e+02
 1.3435028843e+00	 1.3435028843e+00	-4.2550868688e+01
 1.3153929070e+00	 1.3710366517e+00	-3.2995971298e+01
 1.2867249833e+00	 1.3979766870e+00	-2.5758990469e+01
 1.2575180783e+00	 1.4243062462e+00	-2.0901917037e+01
 1.2277918169e+00	 1.4500093981e+00	-1.8476479488e+01
 1.1975664402e+00	 1.4750710564e+00	-1.8523969074e+01
 1.1668627599e+00	 1.4994770087e+00	-2.1075122314e+01
 1.1357021112e+00	 1.5232139425e+00	-2.6150061296e+01
 1.1041063041e+00	 1.5462694685e+00	-3.3758291692e+01
 1.0720975742e+00	 1.5686321403e+00	-4.3898757929e+01
 1.0396985314e+00	 1.5902914713e+00	-5.6559954478e+01
 1.3523417190e+00	 1.3523417190e+00	-3.6491719319e+01
 1.3240468077e+00	 1.3800566297e+00	-3.0609651943e+01
 1.2951902792e+00	 1.4071739020e+00	-2.5220244950e+01
 1.2657912235e+00	 1.4336766820e+00	-2.0419755956e+01
 1.2358693946e+00	 1.4595489336e+00	-1.6300962585e+01
 1.2054451667e+00	 1.4847754712e+00	-1.2952787900e+01
 1.1745394886e+00	 1.5093419890e+00	-1.0459949028e+01
 1.1431738356e+00	 1.5332350869e+00	-8.9026311732e+00
 1.1113701614e+00	 1.5564422939e+00	-8.3561889796e+00
 1.0791508477e+00	 1.5789520886e+00	-8.8908769480e+00
 1.0465386534e+00	 1.6007539152e+00	-1.0571610344e+01
 1.3611805538e+00	 1.3611805538e+00	-3.0194272008e+01
 1.3327007084e+00	 1.3890766076e+00	-2.8129226730e+01
 1.3036555752e+00	 1.4163711171e+00	-2.4755135841e+01
 1.2740643688e+00	 1.4430471178e+00	-2.0202177540e+01
 1.2439469723e+00	 1.4690884691e+00	-1.4603773504e+01
 1.2133238933e+00	 1.4944798861e+00	-8.0960162459e+00
 1.1822162172e+00	 1.5192069693e+00	-8.1708576267e-01
 1.1506455600e+00	 1.5432562312e+00	 7.0933405859e+00
 1.1186340187e+00	 1.5666151194e+00	 1.5494680980e+01
 1.0862041212e+00	 1.5892720368e+00	 2.4246040868e+01
 1.0533787753e+00	 1.6112163591e+00	 3.3206799629e+01
 1.3700193886e+00	 1.3700193886e+00	-2.3663134384e+01
 1.3413546091e+00	 1.3980965856e+00	-2.5556512408e+01
 1.3121208711e+00	 1.4255683321e+00	-2.4362233178e+01
 1.2823375140e+00	 1.4524175536e+00	-2.0244055984e+01
 1.2520245501e+00	 1.4786280046e+00	-1.3375649300e+01
 1.2212026199e+00	 1.5041843009e+00	-3.9398216774e+00
 1.1898929459e+00	 1.5290719497e+00	 7.8722917331e+00
 1.1581172844e+00	 1.5532773756e+00	 2.1862081328e+01
 1.1258978759e+00	 1.5767879448e+00	 3.7824347876e+01
 1.0932573947e+00	 1.5995919851e+00	 5.5548213835e+01
 1.0602188972e+00	 1.6216788030e+00	 7.4818054813e+01
 1.3788582233e+00	 1.3788582233e+00	-1.6902796209e+01
 1.3500085098e+00	 1.4071165636e+00	-2.2893279426e+01
 1.3205861671e+00	 1.4347655472e+00	-2.4040143954e+01
 1.2906106593e+00	 1.4617879895e+00	-2.0540397204e+01
 1.2601021278e+00	 1.4881675401e+00	-1.2607564836e+01
 1.2290813465e+00	 1.5138887158e+00	-4.7072674154e-01
 1.1975696746e+00	 1.5389369300e+00	 1.5626524730e+01
 1.1655890088e+00	 1.5632985200e+00	 3.5427196876e+01
 1.1331617332e+00	 1.5869607703e+00	 5.8662071097e+01
 1.1003106682e+00	 1.6099119334e+00	 8.5050931278e+01
 1.0670590191e+00	 1.6321412469e+00	 1.1430383736e+02
 1.3876970581e+00	 1.3876970581e+00	-9.9176331278e+00
 1.3586624105e+00	 1.4161365416e+00	-2.0141253406e+01
 1.3290514630e+00	 1.4439627622e+00	-2.3787510936e+01
 1.2988838045e+00	 1.4711584253e+00	-2.1086334647e+01
 1.2681797056e+00	 1.4977070756e+00	-1.2290725209e+01
 1.2369600731e+00	 1.5235931306e+00	 2.3244023432e+00
 1.2052464033e+00	 1.5488019103e+00	 2.2463486904e+01
 1.1730607332e+00	 1.5733196643e+00	 4.7811691328e+01
 1.1404255904e+00	 1.5971335957e+00	 7.8036364258e+01
 1.1073639417e+00	 1.6202318817e+00	 1.1278858312e+02
 1.0738991410e+00	 1.6426036908e+00	 1.5170476714e+02
 1.3965358929e+00	 1.3965358929e+00	-2.7119102838e+00
 1.3673163112e+00	 1.4251565195e+00	-1.7302116557e+01
 1.3375167590e+00	 1.4531599773e+00	-2.3603011531e+01
 1.3071569498e+00	 1.4805288611e+00	-2.1877125244e+01
 1.2762572833e+00	 1.5072466112e+00	-1.2416558460e+01
 1.2448387997e+00	 1.5332975455e+00	 4.4583665645e+00
 1.2129231320e+00	 1.5586668906e+00	 2.8400599136e+01
 1.1805324577e+00	 1.5833408087e+00	 5.9037986097e+01
 1.1476894477e+00	 1.6073064212e+00	 9.5975018809e+01
 1.1144172153e+00	 1.6305518300e+00	 1.3879468835e+02
 1.0807392629e+00	 1.6530661346e+00	 1.8706043536e+02
 1.4053747276e+00	 1.4053747276e+00	 4.7102142146e+00
 1.3759702119e+00	 1.4341764975e+00	-1.4377509041e+01
 1.3459820549e+00	 1.4623571923e+00	-2.3485356695e+01
 1.3154300950e+00	 1.4898992970e+00	-2.2908145531e+01
 1.2843348611e+00	 1.5167861467e+00	-1.2976708562e+01
 1.2527175262e+00	 1.5430019603e+00	 5.9436445838e+00
 1.2205998607e+00	 1.5685318710e+00	 3.3454843756e+01
 1.1880041821e+00	 1.5933619530e+00	 6.9127938242e+01
 1.1549533050e+00	 1.6174792466e+00	 1.1250512675e+02
 1.1214704888e+00	 1.6408717783e+00	 1.6310192241e+02
 1.0875793848e+00	 1.6635285785e+00	 2.2040943693e+02
 1.4142135624e+00	 1.4142135624e+00	 1.2344685948e+01
 1.3846241126e+00	 1.4431964755e+00	-1.1369030283e+01
 1.3544473509e+00	 1.4715544074e+00	-2.3433289884e+01
 1.3237032403e+00	 1.4992697328e+00	-2.4174887909e+01
 1.2924124388e+00	 1.5263256822e+00	-1.3963028670e+01
 1.2605962528e+00	 1.5527063752e+00	 6.7924028111e+00
 1.2282765894e+00	 1.5783968513e+00	 3.7642778244e+01
 1.1954759065e+00	 1.6033830974e+00	 7.8102858101e+01
 1.1622171622e+00	 1.6276520721e+00	 1.2765310247e+02
 1.1285237623e+00	 1.6511917266e+00	 1.8574214354e+02
 1.0944195068e+00	 1.6739910224e+00	 2.5178940157e+02
 1.0260182876e+00	 1.5693665835e+00	-1.5534326831e+02
 9.9368300285e-01	 1.5900374492e+00	-2.1160418829e+02
 9.6100807296e-01	 1.6099964235e+00	-2.4754209024e+02
 9.2801661506e-01	 1.6292360671e+00	-2.6413550566e+02
 8.9473191212e-01	 1.6477499220e+00	-2.6242164085e+02
 8.6117736201e-01	 1.6655325128e+00	-2.4349099199e+02
 8.2737642706e-01	 1.6825793438e+00	-2.0848179083e+02
 7.9335258431e-01	 1.6988868935e+00	-1.5857432139e+02
 7.5912927655e-01	 1.7144526070e+00	-9.4985147949e+01
 7.2472986455e-01	 1.7292748837e+00	-1.8961294294e+01
 6.9017758046e-01	 1.7433530645e+00	 6.8225586797e+01
 1.0328584095e+00	 1.5798290274e+00	-1.0480214571e+02
 1.0003075562e+00	 1.6006376989e+00	-1.5545617628e+02
 9.6741479345e-01	 1.6207297330e+00	-1.9092891869e+02
 9.3420339250e-01	 1.6400976408e+00	-2.1190991294e+02
 9.0069679153e-01	 1.6587349215e+00	-2.1913371092e+02
 8.6691854442e-01	 1.6766360629e+00	-2.1337598686e+02
 8.3289226991e-01	 1.6937965394e+00	-1.9544951161e+02
 7.9864160154e-01	 1.7102128062e+00	-1.6620002013e+02
 7.6419013839e-01	 1.7258822910e+00	-1.2650200202e+02
 7.2956139697e-01	 1.7408033830e+00	-7.7254444554e+01
 6.9477876433e-01	 1.7549754183e+00	-1.9376557066e+01
 1.0396985314e+00	 1.5902914713e+00	-5.6559954478e+01
 1.0069321096e+00	 1.6112379485e+00	-1.0031467800e+02
 9.7382151393e-01	 1.6314630425e+00	-1.3396648891e+02
 9.4039016993e-01	 1.6509592146e+00	-1.5791894203e+02
 9.0666167094e-01	 1.6697199210e+00	-1.7260705739e+02
 8.7265972683e-01	 1.6877396130e+00	-1.7849491355e+02
 8.3840811275e-01	 1.7050137350e+00	-1.7607313738e+02
 8.0393061877e-01	 1.7215387188e+00	-1.6585630942e+02
 7.6925100023e-01	 1.7373119751e+00	-1.4838030377e+02
 7.3439292940e-01	 1.7523318822e+00	-1.2419958177e+02
 6.9937994820e-01	 1.7665977720e+00	-9.3884458198e+01
 1.0465386534e+00	 1.6007539152e+00	-1.0571610344e+01
 1.0135566629e+00	 1.6218381982e+00	-4.6159950321e+01
 9.8022823441e-01	 1.6421963520e+00	-7.6661641115e+01
 9.4657694736e-01	 1.6618207884e+00	-1.0219719973e+02
 9.1262655035e-01	 1.6807049204e+00	-1.2290517573e+02
 8.7840090924e-01	 1.6988431631e+00	-1.3894121491e+02
 8.4392395560e-01	 1.7162309306e+00	-1.5047705212e+02
 8.0921963599e-01	 1.7328646314e+00	-1.5769944154e+02
 7.7431186207e-01	 1.7487416591e+00	-1.6080903313e+02
 7.3922446183e-01	 1.7638603814e+00	-1.6001920402e+02
 7.0398113207e-01	 1.7782201258e+00	-1.5555485374e+02
 1.0533787753e+00	 1.6112163591e+00	 3.3206799629e+01
 1.0201812163e+00	 1.6324384478e+00	 7.0272367642e+00
 9.8663495490e-01	 1.6529296615e+00	-1.9021038173e+01
 9.5276372479e-01	 1.6726823622e+00	-4.4778394312e+01
 9.1859142976e-01	 1.6916899199e+00	-7.0089912468e+01
 8.8414209165e-01	 1.7099467131e+00	-9.4805907040e+01
 8.4943979844e-01	 1.7274481262e+00	-1.1878240940e+02
 8.1450865322e-01	 1.7441905440e+00	-1.4188161062e+02
 7.7937272391e-01	 1.7601713431e+00	-1.6397226179e+02
 7.4405599426e-01	 1.7753888806e+00	-1.8493003052e+02
 7.0858231593e-01	 1.7898424795e+00	-2.0463781266e+02
 1.0602188972e+00	 1.6216788030e+00	 7.4818054813e+01
 1.0268057696e+00	 1.6430386975e+00	 5.9265616667e+01
 9.9304167538e-01	 1.6636629710e+00	 3.8948828654e+01
 9.5895050222e-01	 1.6835439359e+00	 1.4304635507e+01
 9.2455630917e-01	 1.7026749194e+00	-1.4221518461e+01
 8.8988327406e-01	 1.7210502632e+00	-4.6177657563e+01
 8.5495564128e-01	 1.7386653219e+00	-8.1107236556e+01
 8.1979767044e-01	 1.7555164566e+00	-1.1855108349e+02
 7.8443358575e-01	 1.7716010272e+00	-1.5804931151e+02
 7.4888752668e-01	 1.7869173798e+00	-1.9914318808e+02
 7.1318349980e-01	 1.8014648333e+00	-2.4137695086e+02
 1.0670590191e+00	 1.6321412469e+00	 1.1430383736e+02
 1.0334303230e+00	 1.6536389472e+00	 1.1057344214e+02
 9.9944839586e-01	 1.6743962804e+00	 9.7241634229e+01
 9.6513727965e-01	 1.6944055097e+00	 7.5019892715e+01
 9.3052118858e-01	 1.7136599189e+00	 4.4641300024e+01
 8.9562445646e-01	 1.7321538133e+00	 6.8571390981e+00
 8.6047148412e-01	 1.7498825175e+00	-3.7566534931e+01
 8.2508668766e-01	 1.7668423693e+00	-8.7852325636e+01
 7.8949444759e-01	 1.7830307112e+00	-1.4321490642e+02
 7.5371905911e-01	 1.7984458791e+00	-2.0286439032e+02
 7.1778468367e-01	 1.8130871871e+00	-2.6600963802e+02
 1.0738991410e+00	 1.6426036908e+00	 1.5170476714e+02
 1.0400548763e+00	 1.6642391968e+00	 1.6096850057e+02
 1.0058551163e+00	 1.6851295899e+00	 1.5585121425e+02
 9.7132405707e-01	 1.7052670835e+00	 1.3733619519e+02
 9.3648606799e-01	 1.7246449183e+00	 1.0644133210e+02
 9.0136563887e-01	 1.7432573634e+00	 6.4214289333e+01
 8.6598732697e-01	 1.7610997131e+00	 1.1727623793e+01
 8.3037570489e-01	 1.7781682819e+00	-4.9926122183e+01
 7.9455530943e-01	 1.7944603953e+00	-1.1963931936e+02
 7.5855059154e-01	 1.8099743783e+00	-1.9629411007e+02
 7.2238586753e-01	 1.8247095408e+00	-2.7876719648e+02
 1.0807392629e+00	 1.6530661346e+00	 1.8706043536e+02
 1.0466794296e+00	 1.6748394465e+00	 2.1046812875e+02
 1.0122618368e+00	 1.6958628994e+00	 2.1477156015e+02
 9.7751083450e-01	 1.7161286573e+00	 2.0122314992e+02
 9.4245094740e-01	 1.7356299178e+00	 1.7112281493e+02
 9.0710682128e-01	 1.7543609135e+00	 1.2581173070e+02
 8.7150316981e-01	 1.7723169087e+00	 6.6666004875e+01
 8.3566472211e-01	 1.7894941945e+00	-4.9096944065e+00
 7.9961617127e-01	 1.8058900793e+00	-8.7488512804e+01
 7.6338212396e-01	 1.8215028775e+00	-1.7962774523e+02
 7.2698705140e-01	 1.8363318946e+00	-2.7987509266e+02
 1.0875793848e+00	 1.6635285785e+00	 2.2040943693e+02
 1.0533039830e+00	 1.6854396961e+00	 2.5908922699e+02
 1.0186685573e+00	 1.7065962089e+00	 2.7399681423e+02
 9.8369761193e-01	 1.7269902311e+00	 2.6665112817e+02
 9.4841582680e-01	 1.7466149173e+00	 2.3863138822e+02
 9.1284800368e-01	 1.7654644635e+00	 1.9156946490e+02
 8.7701901264e-01	 1.7835341043e+00	 1.2714212130e+02
 8.4095373933e-01	 1.8008201071e+00	 4.7063188213e+01
 8.0467703310e-01	 1.8173197634e+00	-4.6924274387e+01
 7.6821365638e-01	 1.8330313767e+00	-1.5305577830e+02
 7.3158823526e-01	 1.8479542483e+00	-2.6955312115e+02
 1.0944195068e+00	 1.6739910224e+00	 2.5178940157e+02
 1.0599285363e+00	 1.6960399458e+00	 3.0684827280e+02
 1.0250752778e+00	 1.7173295184e+00	 3.3352126492e+02
 9.8988438935e-01	 1.7378518048e+00	 3.3359124165e+02
 9.5438070621e-01	 1.7575999168e+00	 3.0891405037e+02
 9.1858918609e-01	 1.7765680136e+00	 2.6140949330e+02
 8.8253485548e-01	 1.7947513000e+00	 1.9305214793e+02
 8.4624275655e-01	 1.8121460197e+00	 1.0586210013e+02
 8.0973789494e-01	 1.8287494474e+00	 1.8956526501e+00
 7.7304518881e-01	 1.8445598760e+00	-1.1676393007e+02
 7.3618941913e-01	 1.8595766021e+00	-2.4801558200e+02
 6.9017758046e-01	 1.7433530645e+00	 6.8225586797e+01
 6.5549548273e-01	 1.7566874145e+00	 1.9103828575e+02
 6.2070641247e-01	 1.7692791045e+00	 2.7986155041e+02
 5.8583295169e-01	 1.7811301897e+00	 3.3712755311e+02
 5.5089738324e-01	 1.7922435865e+00	 3.6531354112e+02
 5.1592165286e-01	 1.8026230466e+00	 3.6693054874e+02
 4.8092733318e-01	 1.8122731307e+00	 3.4451233200e+02
 4.4593558987e-01	 1.8211991790e+00	 3.0060458630e+02
 4.1096715009e-01	 1.8294072815e+00	 2.3775450246e+02
 3.7604227311e-01	 1.8369042460e+00	 1.5850071152e+02
 3.4118072329e-01	 1.8436975658e+00	 6.5363663333e+01
 6.9477876433e-01	 1.7549754183e+00	-1.9376557066e+01
 6.5986545261e-01	 1.7683986639e+00	 9.2154135865e+01
 6.2484445522e-01	 1.7810742985e+00	 1.7740442608e+02
 5.8973850470e-01	 1.7930043910e+00	 2.3818639928e+02
 5.5457003246e-01	 1.8041918770e+00	 2.7634942159e+02
 5.1936113055e-01	 1.8146405336e+00	 2.9377157828e+02
 4.8413351540e-01	 1.8243549516e+00	 2.9235126604e+02
 4.4890849380e-01	 1.8333405069e+00	 2.7399898565e+02
 4.1370693109e-01	 1.8416033300e+00	 2.4062937754e+02
 3.7854922160e-01	 1.8491502743e+00	 1.9415353961e+02
 3.4345526144e-01	 1.8559888829e+00	 1.3647166220e+02
 6.9937994820e-01	 1.7665977720e+00	-9.3884458198e+01
 6.6423542250e-01	 1.7801099133e+00	 3.4204303598e+00
 6.2898249797e-01	 1.7928694925e+00	 8.2073730172e+01
 5.9364405771e-01	 1.8048785923e+00	 1.4327383931e+02
 5.5824268168e-01	 1.8161401676e+00	 1.8824868673e+02
 5.2280060824e-01	 1.8266580206e+00	 2.1824987487e+02
 4.8733969762e-01	 1.8364367724e+00	 2.3454690767e+02
 4.5188139773e-01	 1.8454818348e+00	 2.3842153672e+02
 4.1644671209e-01	 1.8537993786e+00	 2.3116225605e+02
 3.8105617009e-01	 1.8613963026e+00	 2.1405897326e+02
 3.4572979960e-01	 1.8682802000e+00	 1.8839788231e+02
 7.0398113207e-01	 1.7782201258e+00	-1.5555485374e+02
 6.6860539238e-01	 1.7918211628e+00	-7.5361845601e+01
 6.3312054072e-01	 1.8046646866e+00	-6.2702569093e+00
 5.9754961072e-01	 1.8167527935e+00	 5.2310896303e+01
 5.6191533091e-01	 1.8280884582e+00	 1.0099442342e+02
 5.2624008592e-01	 1.8386755075e+00	 1.4041178352e+02
 4.9054587984e-01	 1.8485185933e+00	 1.7120992750e+02
 4.5485430167e-01	 1.8576231626e+00	 1.9404817689e+02
 4.1918649309e-01	 1.8659954271e+00	 2.0959515771e+02
 3.8356311858e-01	 1.8736423309e+00	 2.1852580574e+02
 3.4800433776e-01	 1.8805715171e+00	 2.2151845884e+02
 7.0858231593e-01	 1.7898424795e+00	-2.0463781266e+02
 6.7297536226e-01	 1.8035324122e+00	-1.4438653797e+02
 6.3725858347e-01	 1.8164598806e+00	-8.7763626019e+01
 6.0145516373e-01	 1.8286269948e+00	-3.4779355635e+01
 5.6558798013e-01	 1.8400367488e+00	 1.4570157512e+01
 5.2967956361e-01	 1.8506929945e+00	 6.0302445144e+01
 4.9375206206e-01	 1.8606004142e+00	 1.0244812129e+02
 4.5782720560e-01	 1.8697644905e+00	 1.4105027346e+02
 4.2192627409e-01	 1.8781914757e+00	 1.7616381572e+02
 3.8607006707e-01	 1.8858883592e+00	 2.0785480937e+02
 3.5027887591e-01	 1.8928628342e+00	 2.3619975689e+02
 7.1318349980e-01	 1.8014648333e+00	-2.4137695086e+02
 6.7734533215e-01	 1.8152436616e+00	-2.0384249054e+02
 6.4139662622e-01	 1.8282550746e+00	-1.6253895631e+02
 6.0536071674e-01	 1.8405011961e+00	-1.1807185753e+02
 5.6926062935e-01	 1.8519850393e+00	-7.1040160290e+01
 5.3311904130e-01	 1.8627104815e+00	-2.2034164593e+01
 4.9695824429e-01	 1.8726822351e+00	 2.8366502666e+01
 4.6080010953e-01	 1.8819058183e+00	 7.9594771025e+01
 4.2466605510e-01	 1.8903875242e+00	 1.3109787954e+02
 3.8857701556e-01	 1.8981343875e+00	 1.8233899435e+02
 3.5255341407e-01	 1.9051541513e+00	 2.3279868671e+02
 7.1778468367e-01	 1.8130871871e+00	-2.6600963802e+02
 6.8171530203e-01	 1.8269549110e+00	-2.5391370528e+02
 6.4553466897e-01	 1.8400502687e+00	-2.3072542779e+02
 6.0926626975e-01	 1.8523753973e+00	-1.9763962916e+02
 5.7293327857e-01	 1.8639333299e+00	-1.5585216810e+02
 5.3655851898e-01	 1.8747279685e+00	-1.0655519791e+02
 5.0016442651e-01	 1.8847640559e+00	-5.0932607724e+01
 4.6377301347e-01	 1.8940471462e+00	 9.8443332428e+00
 4.2740583610e-01	 1.9025835728e+00	 7.4621109877e+01
 3.9108396405e-01	 1.9103804158e+00	 1.4226385748e+02
 3.5482795223e-01	 1.9174454684e+00	 2.1166300673e+02
 7.2238586753e-01	 1.8247095408e+00	-2.7876719648e+02
 6.8608527191e-01	 1.8386661605e+00	-2.9477949654e+02
 6.4967271171e-01	 1.8518454627e+00	-2.9244892956e+02
 6.1317182276e-01	 1.8642495986e+00	-2.7355383023e+02
 5.7660592779e-01	 1.8758816205e+00	-2.3988110590e+02
 5.3999799667e-01	 1.8867454554e+00	-1.9321889898e+02
 5.0337060873e-01	 1.8968458768e+00	-1.3534949642e+02
 4.6674591740e-01	 1.9061884741e+00	-6.8042520817e+01
 4.3014561710e-01	 1.9147796213e+00	 6.9515662393e+00
 3.9359091254e-01	 1.9226264441e+00	 8.7907621486e+01
 3.5710249039e-01	 1.9297367855e+00	 1.7313161498e+02
 7.2698705140e-01	 1.8363318946e+00	-2.7987509266e+02
 6.9045524179e-01	 1.8503774099e+00	-3.2661463937e+02
 6.5381075446e-01	 1.8636406567e+00	-3.4783216398e+02
 6.1707737577e-01	 1.8761237998e+00	-3.4588381926e+02
 5.8027857701e-01	 1.8878299111e+00	-3.2314182818e+02
 5.4343747436e-01	 1.8987629424e+00	-2.8198456942e+02
 5.0657679095e-01	 1.9089276977e+00	-2.2478697467e+02
 4.6971882134e-01	 1.9183298019e+00	-1.5391128552e+02
 4.3288539810e-01	 1.9269756698e+00	-7.1698212650e+01
 3.9609786103e-01	 1.9348724724e+00	 1.9541465181e+01
 3.5937702855e-01	 1.9420281026e+00	 1.1753482953e+02
 7.3158823526e-01	 1.8479542483e+00	-2.6955312115e+02
 6.9482521167e-01	 1.8620886593e+00	-3.4958951226e+02
 6.5794879721e-01	 1.8754358507e+00	-3.9699474687e+02
 6.2098292878e-01	 1.8879980011e+00	-4.1469721019e+02
 5.8395122623e-01	 1.8997782016e+00	-4.0564881602e+02
 5.4687695204e-01	 1.9107804294e+00	-3.7281253499e+02
 5.0978297318e-01	 1.9210095185e+00	-3.1915029899e+02
 4.7269172527e-01	 1.9304711298e+00	-2.4761134247e+02
 4.3562517911e-01	 1.9391717184e+00	-1.6112103524e+02
 3.9860480952e-01	 1.9471185007e+00	-6.2570255008e+01
 3.6165156671e-01	 1.9543194197e+00	 4.5194658281e+01
 7.3618941913e-01	 1.8595766021e+00	-2.4801558200e+02
 6.9919518155e-01	 1.8737999088e+00	-3.6387023457e+02
 6.6208683996e-01	 1.8872310448e+00	-4.4005330395e+02
 6.2488848179e-01	 1.8998722024e+00	-4.8005992693e+02
 5.8762387546e-01	 1.9117264922e+00	-4.8741618877e+02
 5.5031642973e-01	 1.9227979164e+00	-4.6566411359e+02
 5.1298915540e-01	 1.9330913394e+00	-4.1834709480e+02
 4.7566462921e-01	 1.9426124577e+00	-3.4899583901e+02
 4.3836496011e-01	 1.9513677669e+00	-2.6111489006e+02
 4.0111175801e-01	 1.9593645290e+00	-1.5816979185e+02
 3.6392610487e-01	 1.9666107368e+00	-4.3574941343e+01
 3.4118072329e-01	 1.8436975658e+00	 6.5363663333e+01
 3.0640174533e-01	 1.8497953861e+00	-5.2161589845e+01
 2.7172404193e-01	 1.8552064697e+00	-1.4011591749e+02
 2.3716575372e-01	 1.8599401617e+00	-2.0165849086e+02
 2.0274444155e-01	 1.8640063550e+00	-2.3991713701e+02
 1.6847707106e-01	 1.8674154537e+00	-2.5797786588e+02
 1.3437999951e-01	 1.8701783380e+00	-2.5887508214e+02
 1.0046896479e-01	 1.8723063283e+00	-2.4558250294e+02
 6.6759076657e-02	 1.8738111500e+00	-2.2100479675e+02
 3.3264809970e-02	 1.8747048974e+00	-1.8796995213e+02
 0.0000000000e+00	 1.8750000000e+00	-1.4922237971e+02
 3.4345526144e-01	 1.8559888829e+00	 1.3647166220e+02
 3.0844442363e-01	 1.8621273554e+00	 2.5097358410e+01
 2.7353553554e-01	 1.8675745128e+00	-6.3186812316e+01
 2.3874685874e-01	 1.8723397628e+00	-1.3084620704e+02
 2.0409607116e-01	 1.8764330640e+00	-1.8032181610e+02
 1.6960025153e-01	 1.8798648900e+00	-2.1402206377e+02
 1.3527586617e-01	 1.8826461935e+00	-2.3431514468e+02
 1.0113875789e-01	 1.8847883705e+00	-2.4352191280e+02
 6.7204137168e-02	 1.8863032243e+00	-2.4390933475e+02
 3.3486575369e-02	 1.8872029301e+00	-2.3768451452e+02
 0.0000000000e+00	 1.8875000000e+00	-2.2698929209e+02
 3.4572979960e-01	 1.8682802000e+00	 1.8839788231e+02
 3.1048710194e-01	 1.8744593246e+00	 8.6862066865e+01
 2.7534702916e-01	 1.8799425559e+00	 1.9877371409e+00
 2.4032796377e-01	 1.8847393639e+00	-6.8003644464e+01
 2.0544770077e-01	 1.8888597731e+00	-1.2487312980e+02
 1.7072343201e-01	 1.8923143264e+00	-1.7035834100e+02
 1.3617173283e-01	 1.8951140491e+00	-2.0616791468e+02
 1.0180855099e-01	 1.8972704127e+00	-2.3397634652e+02
 6.7649197680e-02	 1.8987952986e+00	-2.5541924480e+02
 3.3708340769e-02	 1.8997009627e+00	-2.7208899811e+02
 0.0000000000e+00	 1.9000000000e+00	-2.8553085891e+02
 3.4800433776e-01	 1.8805715171e+00	 2.2151845884e+02
 3.1252978024e-01	 1.8867912938e+00	 1.3343636705e+02
 2.7715852277e-01	 1.8923105990e+00	 5.5638236351e+01
 2.4190906879e-01	 1.8971389650e+00	-1.2974509013e+01
 2.0679933038e-01	 1.9012864821e+00	-7.3489745365e+01
 1.7184661248e-01	 1.9047637627e+00	-1.2698094324e+02
 1.3706759950e-01	 1.9075819047e+00	-1.7450370280e+02
 1.0247834409e-01	 1.9097524549e+00	-2.1709253881e+02
 6.8094258191e-02	 1.9112873730e+00	-2.5575792034e+02
 3.3930106169e-02	 1.9121989954e+00	-2.9148356875e+02
 0.0000000000e+00	 1.9125000000e+00	-3.2522401483e+02
 3.5027887591e-01	 1.8928628342e+00	 2.3619975689e+02
 3.1457245854e-01	 1.8991232631e+00	 1.6511619848e+02
 2.7897001638e-01	 1.9046786422e+00	 9.7989203347e+01
 2.4349017382e-01	 1.9095385661e+00	 3.4393433570e+01
 2.0815095999e-01	 1.9137131911e+00	-2.6092442861e+01
 1.7296979296e-01	 1.9172131991e+00	-8.3884265858e+01
 1.3796346616e-01	 1.9200497603e+00	-1.3939099370e+02
 1.0314813719e-01	 1.9222344971e+00	-1.9301341331e+02
 6.8539318703e-02	 1.9237794473e+00	-2.4514295256e+02
 3.4151871570e-02	 1.9246970280e+00	-2.9616059595e+02
 0.0000000000e+00	 1.9250000000e+00	-3.4643590419e+02
 3.5255341407e-01	 1.9051541513e+00	 2.3279868671e+02
 3.1661513685e-01	 1.9114552323e+00	 1.8218986324e+02
 2.8078151000e-01	 1.9170466853e+00	 1.2925936187e+02
 2.4507127885e-01	 1.9219381671e+00	 7.4248488649e+01
 2.0950258961e-01	 1.9261399002e+00	 1.7395953002e+01
 1.7409297343e-01	 1.9296626354e+00	-4.1062849133e+01
 1.3885933283e-01	 1.9325176159e+00	-1.0089650492e+02
 1.0381793029e-01	 1.9347165393e+00	-1.6187820556e+02
 6.8984379215e-02	 1.9362715216e+00	-2.2378631766e+02
 3.4373636970e-02	 1.9371950607e+00	-2.8640490446e+02
 0.0000000000e+00	 1.9375000000e+00	-3.4952419684e+02
 3.5482795223e-01	 1.9174454684e+00	 2.1166300673e+02
 3.1865781515e-01	 1.9237872016e+00	 1.8493827077e+02
 2.8259300362e-01	 1.9294147284e+00	 1.4966182710e+02
 2.4665238388e-01	 1.9343377682e+00	 1.0673515862e+02
 2.1085421922e-01	 1.9385666092e+00	 5.7050638401e+01
 1.7521615391e-01	 1.9421120718e+00	 1.4886264232e+00
 1.3975519949e-01	 1.9449854715e+00	-5.9085243550e+01
 1.0448772339e-01	 1.9471985815e+00	-1.2382258118e+02
 6.9429439728e-02	 1.9487635960e+00	-1.9189455674e+02
 3.4595402371e-02	 1.9496930933e+00	-2.6249401601e+02
 0.0000000000e+00	 1.9500000000e+00	-3.3483739183e+02
 3.5710249039e-01	 1.9297367855e+00	 1.7313161498e+02
 3.2070049346e-01	 1.9361191708e+00	 1.7363517331e+02
 2.8440449723e-01	 1.9417827716e+00	 1.5940428423e+02
 2.4823348890e-01	 1.9467373693e+00	 1.3199426402e+02
 2.1220584883e-01	 1.9509933182e+00	 9.2944893429e+01
 1.7633933439e-01	 1.9545615082e+00	 4.3775344520e+01
 1.4065106616e-01	 1.9574533271e+00	-1.4020560688e+01
 1.0515751649e-01	 1.9596806237e+00	-7.8978749561e+01
 6.9874500241e-02	 1.9612556703e+00	-1.4966894897e+02
 3.4817167771e-02	 1.9621911260e+00	-2.2469838196e+02
 0.0000000000e+00	 1.9625000000e+00	-3.0271510945e+02
 3.5937702855e-01	 1.9420281026e+00	 1.1753482953e+02
 3.2274317177e-01	 1.9484511400e+00	 1.4854739238e+02
 2.8621599085e-01	 1.9541508147e+00	 1.5868916035e+02
 2.4981459393e-01	 1.9591369704e+00	 1.5016306005e+02
 2.1355747845e-01	 1.9634200273e+00	 1.2515014273e+02
 1.7746251487e-01	 1.9670109445e+00	 8.5802357388e+01
 1.4154693283e-01	 1.9699211826e+00	 3.4235796157e+01
 1.0582730959e-01	 1.9721626658e+00	-2.7475573278e+01
 7.0319560754e-02	 1.9737477446e+00	-9.7305678037e+01
 3.5038933172e-02	 1.9746891586e+00	-1.7328160699e+02
 0.0000000000e+00	 1.9750000000e+00	-2.5348837219e+02
 3.6165156671e-01	 1.9543194197e+00	 4.5194658281e+01
 3.2478585007e-01	 1.9607831093e+00	 1.0993503675e+02
 2.8802748447e-01	 1.9665188578e+00	 1.4771378980e+02
 2.5139569896e-01	 1.9715365715e+00	 1.6137534871e+02
 2.1490910806e-01	 1.9758467363e+00	 1.5373601387e+02
 1.7858569534e-01	 1.9794603809e+00	 1.2757458991e+02
 1.4244279949e-01	 1.9823890382e+00	 8.5623632637e+01
 1.0649710269e-01	 1.9846447080e+00	 3.0561326711e+01
 7.0764621268e-02	 1.9862398189e+00	-3.4995992413e+01
 3.5260698574e-02	 1.9871871913e+00	-1.0850066443e+02
 0.0000000000e+00	 1.9875000000e+00	-1.8747987517e+02
 3.6392610487e-01	 1.9666107368e+00	-4.3574941343e+01
 3.2682852838e-01	 1.9731150785e+00	 5.8051712181e+01
 2.8983897809e-01	 1.9788869010e+00	 1.2667057325e+02
 2.5297680400e-01	 1.9839361725e+00	 1.6576158666e+02
 2.1626073768e-01	 1.9882734453e+00	 1.7877039344e+02
 1.7970887582e-01	 1.9919098172e+00	 1.6909684361e+02
 1.4333866616e-01	 1.9948568938e+00	 1.4008425903e+02
 1.0716689579e-01	 1.9971267502e+00	 9.5009469739e+01
 7.1209681781e-02	 1.9987318933e+00	 3.7073640418e+01
 3.5482463975e-02	 1.9996852239e+00	-3.0606103487e+01
 0.0000000000e+00	 2.0000000000e+00	-1.0500424630e+02
