x	y	stress_yy
 1.000000000000000e+00	 0.000000000000000e+00	 2.738688960604821e+02
 9.998426119581704e-01	 1.774123198744521e-02	 2.428206200824949e+02
 9.993659466402713e-01	 3.560484089073321e-02	 2.107379377224269e+02
 9.985633751090949e-01	 5.358344789747921e-02	 1.776117793881354e+02
 9.974284469032259e-01	 7.166933308134273e-02	 1.434351986687853e+02
 9.959549086084808e-01	 8.985443791194039e-02	 1.082035109020340e+02
 9.941367226520526e-01	 1.081303688402291e-01	 7.191442962377559e+01
 9.919680862544972e-01	 1.264884019976692e-01	 3.456819997318210e+01
 9.894434504702301e-01	 1.449194890435835e-01	-3.832271914853568e+00
 9.865575392429453e-01	 1.634142641907508e-01	-4.328129453250416e+01
 9.833053683983746e-01	 1.819630524344169e-01	-8.377027266766360e+01
 1.012500000000000e+00	 0.000000000000000e+00	 2.752974297418028e+02
 1.012340644607676e+00	 1.796299738536411e-02	 2.434095507179183e+02
 1.011858020973390e+00	 3.604990139831822e-02	 2.104326597630837e+02
 1.011045417298220e+00	 5.425324099133014e-02	 1.763855796450980e+02
 1.009896302489983e+00	 7.256519973898737e-02	 1.412904468154767e+02
 1.008404344966822e+00	 9.097761837928382e-02	 1.051727945267725e+02
 1.006563431686269e+00	 1.094819984438203e-01	 6.806162548955469e+01
 1.004367687334138e+00	 1.280695070157070e-01	 2.998947303943215e+01
 1.001811493603026e+00	 1.467309826500149e-01	-9.007550198557521e+00
 9.988895084859243e-01	 1.654569424871888e-01	-4.888971713354337e+01
 9.955966855063876e-01	 1.842375905849211e-01	-8.961366546753429e+01
 1.025000000000000e+00	 0.000000000000000e+00	 2.739903951048174e+02
 1.024838677257182e+00	 1.818476278346252e-02	 2.416191498408625e+02
 1.024350095306508e+00	 3.649496190623553e-02	 2.081065526075446e+02
 1.023527459487344e+00	 5.492303408563875e-02	 1.734988192587838e+02
 1.022364158076741e+00	 7.346106639718697e-02	 1.378466493462053e+02
 1.020853781325163e+00	 9.210079884725078e-02	 1.012052545681956e+02
 1.018990140720485e+00	 1.108336280480742e-01	 6.363436853826916e+01
 1.016767288413778e+00	 1.296506120344168e-01	 2.519823674250121e+01
 1.014179536735822e+00	 1.485424762570972e-01	-1.403441437050628e+01
 1.011221477728904e+00	 1.674996207842254e-01	-5.399043013511491e+01
 1.007888002614400e+00	 1.865121287359399e-01	-9.459230311405688e+01
 1.037500000000000e+00	 0.000000000000000e+00	 2.700466220813483e+02
 1.037336709906687e+00	 1.840652818174046e-02	 2.375353736933999e+02
 1.036842169639627e+00	 3.694002241448514e-02	 2.038326169281308e+02
 1.036009501676469e+00	 5.559282718040499e-02	 1.690114794937105e+02
 1.034832013663499e+00	 7.435693305594146e-02	 1.331507230621196e+02
 1.033303217683504e+00	 9.322397931584123e-02	 9.633471780330848e+01
 1.031416849754700e+00	 1.121852576529908e-01	 5.865339013643845e+01
 1.029166889493419e+00	 1.312317170537988e-01	 2.020214246899549e+01
 1.026547579868618e+00	 1.503539698648304e-01	-1.891825617571540e+01
 1.023553446971883e+00	 1.695422990818606e-01	-5.860180959325146e+01
 1.020179319722413e+00	 1.887866668874734e-01	-9.873746467747689e+01
 1.050000000000000e+00	 0.000000000000000e+00	 2.635602347268340e+02
 1.049834742556193e+00	 1.862829358019793e-02	 2.312400856843971e+02
 1.049334243972746e+00	 3.738508292306705e-02	 1.976803775052651e+02
 1.048491543865594e+00	 5.626262027562888e-02	 1.629806857027699e+02
 1.047299869250256e+00	 7.525279971525092e-02	 1.272473509775560e+02
 1.045752654041845e+00	 9.434715978505519e-02	 9.059340056331718e+01
 1.043843558788917e+00	 1.135368872585703e-01	 5.313843480129196e+01
 1.041566490573060e+00	 1.328128220738529e-01	 1.500847761694378e+01
 1.038915623001414e+00	 1.521654634732144e-01	-2.366421024276271e+01
 1.035885416214862e+00	 1.715849773800943e-01	-6.274135614453706e+01
 1.032470636830427e+00	 1.910612050395216e-01	-1.020789393778824e+02
 1.062500000000000e+00	 0.000000000000000e+00	 2.546209280365753e+02
 1.062332775205699e+00	 1.885005897883492e-02	 2.228112971442262e+02
 1.061826318305864e+00	 3.783014343198125e-02	 1.897160876913479e+02
 1.060973586054718e+00	 5.693241337131042e-02	 1.554608753215072e+02
 1.059767724837014e+00	 7.614866637511535e-02	 1.201791137185728e+02
 1.058202090400185e+00	 9.547034025489266e-02	 8.401200346487860e+01
 1.056270267823133e+00	 1.148885168648125e-01	 4.710831824971022e+01
 1.053966091652700e+00	 1.343939270945790e-01	 9.624187005714942e+00
 1.051283666134210e+00	 1.539769570822494e-01	-2.827716920961348e+01
 1.048217385457841e+00	 1.736276556789267e-01	-6.642574650284570e+01
 1.044761953938439e+00	 1.933357431920845e-01	-1.046451142250684e+02
 1.075000000000000e+00	 0.000000000000000e+00	 2.433142254492200e+02
 1.074830807855204e+00	 1.907182437765143e-02	 2.123233912826379e+02
 1.074318392638983e+00	 3.827520394122774e-02	 1.800029196097126e+02
 1.073455628243843e+00	 5.760220646744962e-02	 1.465039541418697e+02
 1.072235580423771e+00	 7.704453303553466e-02	 1.119866117541457e+02
 1.070651526758527e+00	 9.659352072535370e-02	 7.661979953219543e+01
 1.068696976857348e+00	 1.162401464717175e-01	 4.058098139724098e+01
 1.066365692732341e+00	 1.359750321159773e-01	 4.055892792221724e+00
 1.063651709267006e+00	 1.557884506919352e-01	-3.276179779415387e+01
 1.060549354700821e+00	 1.756703339783577e-01	-6.967088136328304e+01
 1.057053271046452e+00	 1.956102813451620e-01	-1.064630555439897e+02
 1.087500000000000e+00	 0.000000000000000e+00	 2.297217185913888e+02
 1.087328840504711e+00	 1.929358977664748e-02	 1.998473317012623e+02
 1.086810466972101e+00	 3.872026445080654e-02	 1.686011412364115e+02
 1.085937670432968e+00	 5.827199956404649e-02	 1.361594418084557e+02
 1.084703436010529e+00	 7.794039969650891e-02	 1.027085791976255e+02
 1.083100963116868e+00	 9.771670119643823e-02	 6.844471624172535e+01
 1.081123685891564e+00	 1.175917760792853e-01	 3.357354063304598e+01
 1.078765293811981e+00	 1.375561371380476e-01	-1.690086986405831e+00
 1.076019752399802e+00	 1.575999443022719e-01	-3.712254589434154e+01
 1.072881323943800e+00	 1.777130122783873e-01	-7.249193000240604e+01
 1.069344588154466e+00	 1.978848194987542e-01	-1.075585848777671e+02
 1.100000000000000e+00	 0.000000000000000e+00	 2.139212906760756e+02
 1.099826873154216e+00	 1.951535517582304e-02	 1.854508566893505e+02
 1.099302541305220e+00	 3.916532496071764e-02	 1.555682814082449e+02
 1.098419712622092e+00	 5.894179266110097e-02	 1.244746073945650e+02
 1.097171291597287e+00	 7.883626635803816e-02	 9.238198984900724e+01
 1.095550399475209e+00	 9.883988166814628e-02	 5.951341197293311e+01
 1.093550394925780e+00	 1.189434056875159e-01	 2.610233466701077e+01
 1.091164894891622e+00	 1.391372421607900e-01	-7.607721134419792e+00
 1.088387795532598e+00	 1.594114379132595e-01	-4.136366079516294e+01
 1.085213293186779e+00	 1.797556905790154e-01	-7.490337183751673e+01
 1.081635905262479e+00	 2.001593576528611e-01	-1.079563497154868e+02
 1.112500000000000e+00	 0.000000000000000e+00	 1.959873248404838e+02
 1.112324905803722e+00	 1.973712057517813e-02	 1.691986604209272e+02
 1.111794615638338e+00	 3.961038547096103e-02	 1.409592837066527e+02
 1.110901754811217e+00	 5.961158575861313e-02	 1.114945958382916e+02
 1.109639147184044e+00	 7.973213302012230e-02	 8.104215608828093e+01
 1.107999835833550e+00	 9.996306214047786e-02	 4.985134730506047e+01
 1.105977103959996e+00	 1.202950352964092e-01	 1.818296821862355e+01
 1.103564495971262e+00	 1.407183471842045e-01	-1.369124918388748e+01
 1.100755838665393e+00	 1.612229315248979e-01	-4.548919855264874e+01
 1.097545262429758e+00	 1.817983688802421e-01	-7.691903518420477e+01
 1.093927222370492e+00	 2.024338958074826e-01	-1.076798894518307e+02
 1.125000000000000e+00	 0.000000000000000e+00	 1.759908985946732e+02
 1.124822938453228e+00	 1.995888597471274e-02	 1.511525620721328e+02
 1.124286689971457e+00	 4.005544598153672e-02	 1.248266500826810e+02
 1.123383797000342e+00	 6.028137885658293e-02	 9.726254594954369e+01
 1.122107002770802e+00	 8.062799968276138e-02	 6.872282117589442e+01
 1.120449272191891e+00	 1.010862426134330e-01	 3.948285156077836e+01
 1.118403812994212e+00	 1.216466649059652e-01	 9.830352793262939e+00
 1.115964097050903e+00	 1.422994522082910e-01	-1.993516635536335e+01
 1.113123881798189e+00	 1.630344251371873e-01	-4.950303461895306e+01
 1.109877231672737e+00	 1.838410471820675e-01	-7.855213343005188e+01
 1.106218539478505e+00	 2.047084339626188e-01	-1.067516969493980e+02
 9.833053683983746e-01	 1.819630524344169e-01	-8.377027266766360e+01
 9.796822644935034e-01	 2.005558790047255e-01	-8.160814937856671e+01
 9.756838834365029e-01	 2.191824800562895e-01	-7.960989760774955e+01
 9.713062287906588e-01	 2.378323146029681e-01	-7.769743741116139e+01
 9.665456696731551e-01	 2.564945776994924e-01	-7.578936437110862e+01
 9.613989581557346e-01	 2.751582148638952e-01	-7.380115007858711e+01
 9.558632460744549e-01	 2.938119377279353e-01	-7.164536700229188e+01
 9.499361011546518e-01	 3.124442408950446e-01	-6.923193743064435e+01
 9.436155223571460e-01	 3.310434199775670e-01	-6.646840596414098e+01
 9.368999543523497e-01	 3.495975907771368e-01	-6.326023482002939e+01
 9.297883010302649e-01	 3.680947095640363e-01	-5.951112099195802e+01
 9.955966855063876e-01	 1.842375905849211e-01	-8.961366546753429e+01
 9.919282928033321e-01	 2.030628274885299e-01	-8.697152683611021e+01
 9.878799319837496e-01	 2.219222610543536e-01	-8.438494129860283e+01
 9.834475566554662e-01	 2.408052185339226e-01	-8.179208109871608e+01
 9.786274905496307e-01	 2.597007599201509e-01	-7.912861292806988e+01
 9.734164451388825e-01	 2.785976925500452e-01	-7.632785956708737e+01
 9.678115366572296e-01	 2.974845869507597e-01	-7.332098041374869e+01
 9.618103024265737e-01	 3.163497939082676e-01	-7.003717062286896e+01
 9.554107163947458e-01	 3.351814627300659e-01	-6.640387841498888e+01
 9.486112037905381e-01	 3.539675606653077e-01	-6.234703994577163e+01
 9.414106548025766e-01	 3.726958934376526e-01	-5.779133095572703e+01
 1.007888002614400e+00	 1.865121287359399e-01	-9.459230311405688e+01
 1.004174321113151e+00	 2.055697759727489e-01	-9.167415921104363e+01
 1.000075980530958e+00	 2.246620420527318e-01	-8.870636929064273e+01
 9.955888845201883e-01	 2.437781224650910e-01	-8.564305984409022e+01
 9.907093114259543e-01	 2.629069421409228e-01	-8.243665627164164e+01
 9.854339321217915e-01	 2.820371702362078e-01	-7.903800625876758e+01
 9.797598272396584e-01	 3.011572361734960e-01	-7.539651662622336e+01
 9.736845036980223e-01	 3.202553469213019e-01	-7.146030341264051e+01
 9.672059104317243e-01	 3.393195054822754e-01	-6.717635482952778e+01
 9.603224532279363e-01	 3.583375305530889e-01	-6.249070660680025e+01
 9.530330085739085e-01	 3.772970773107793e-01	-5.734862912344802e+01
 1.020179319722413e+00	 1.887866668874734e-01	-9.873746467747689e+01
 1.016420349422961e+00	 2.080767244573826e-01	-9.573994949855840e+01
 1.012272029078130e+00	 2.274018230514244e-01	-9.259059579110178e+01
 1.007730212384825e+00	 2.467510263964731e-01	-8.925919712601612e+01
 1.002791132302125e+00	 2.661131243618078e-01	-8.571463650639264e+01
 9.974514191044608e-01	 2.854766479223831e-01	-8.192497203490053e+01
 9.917081178217403e-01	 3.048298853961441e-01	-7.785753072281722e+01
 9.855587049689970e-01	 3.241608999341473e-01	-7.347901023501720e+01
 9.790011044680813e-01	 3.434575482341956e-01	-6.875558829065810e+01
 9.720337026645446e-01	 3.627075004404805e-01	-6.365303936329437e+01
 9.646553623442610e-01	 3.818982611834161e-01	-5.813685824754059e+01
 1.032470636830427e+00	 1.910612050395216e-01	-1.020789393778824e+02
 1.028666377732762e+00	 2.105836729424308e-01	-9.919166208495697e+01
 1.024468077625263e+00	 2.301416040504314e-01	-9.605325300790106e+01
 1.019871540249377e+00	 2.497239303280692e-01	-9.264889588882608e+01
 1.014872953178144e+00	 2.693193065828061e-01	-8.896364098487474e+01
 1.009468906086891e+00	 2.889161256085709e-01	-8.498245356284316e+01
 1.003656408403476e+00	 3.085025346187041e-01	-8.069026528202996e+01
 9.974329062394982e-01	 3.280664529468040e-01	-7.607202829501142e+01
 9.907962985038169e-01	 3.475955909858267e-01	-7.111277186501823e+01
 9.837449521003627e-01	 3.670774703274826e-01	-6.579766126770443e+01
 9.762777161136343e-01	 3.864994450555633e-01	-6.011205871473420e+01
 1.044761953938439e+00	 1.933357431920845e-01	-1.046451142250684e+02
 1.040912406042553e+00	 2.130906214278937e-01	-1.020509897263992e+02
 1.036664126172359e+00	 2.328813850497527e-01	-9.910923715149073e+01
 1.032012868113843e+00	 2.526968342598790e-01	-9.582016328176972e+01
 1.026954774054010e+00	 2.725254888039177e-01	-9.218470553043953e+01
 1.021486393069082e+00	 2.923556032947711e-01	-8.820444378141971e+01
 1.015604698984865e+00	 3.121751838411760e-01	-8.388160993915793e+01
 1.009307107509526e+00	 3.319720059592721e-01	-7.921909505409600e+01
 1.002591492538931e+00	 3.517336337371683e-01	-7.422045390051842e+01
 9.954562015353910e-01	 3.714474402140948e-01	-6.888990689714046e+01
 9.879000698820278e-01	 3.911006289272207e-01	-6.323233927603422e+01
 1.057053271046452e+00	 1.956102813451620e-01	-1.064630555439897e+02
 1.053158434352335e+00	 2.155975699137711e-01	-1.043386158547128e+02
 1.048860174719417e+00	 2.356211660493882e-01	-1.017727512272569e+02
 1.044154195978224e+00	 2.556697381919028e-01	-9.878063367232970e+01
 1.039036594929724e+00	 2.757316710251425e-01	-9.537881743520472e+01
 1.033503880051033e+00	 2.957950809809841e-01	-9.158521467801881e+01
 1.027552989565909e+00	 3.158478330635599e-01	-8.741906376898618e+01
 1.021181308779080e+00	 3.358775589715513e-01	-8.290089007811278e+01
 1.014386686573424e+00	 3.558716764882207e-01	-7.805245923334243e+01
 1.007167450969629e+00	 3.758174101003176e-01	-7.289672284860913e+01
 9.995224236494423e-01	 3.957018127983884e-01	-6.745775679552057e+01
 1.069344588154466e+00	 1.978848194987542e-01	-1.075585848777671e+02
 1.065404462662107e+00	 2.181045184000633e-01	-1.060742725862475e+02
 1.061056223266437e+00	 2.383609470493381e-01	-1.040573448767257e+02
 1.056295523842520e+00	 2.586426421241405e-01	-1.015375900724090e+02
 1.051118415805285e+00	 2.789378532464805e-01	-9.854691825126046e+01
 1.045521367032745e+00	 2.992345586672095e-01	-9.511930125347308e+01
 1.039501280146605e+00	 3.195204822858554e-01	-9.129070026277253e+01
 1.033055510048160e+00	 3.397831119836419e-01	-8.709898089566579e+01
 1.026181880607295e+00	 3.600097192389838e-01	-8.258381582894481e+01
 1.018878700403077e+00	 3.801873799861507e-01	-7.778657509664518e+01
 1.011144777415877e+00	 4.003029966690664e-01	-7.275020429232789e+01
 1.081635905262479e+00	 2.001593576528611e-01	-1.079563497154868e+02
 1.077650490971870e+00	 2.206114668867699e-01	-1.072767947755778e+02
 1.073252271813420e+00	 2.411007280496023e-01	-1.059759515023187e+02
 1.068436851706730e+00	 2.616155460565918e-01	-1.040979841036387e+02
 1.063200236680694e+00	 2.821440354679318e-01	-1.016899063915628e+02
 1.057538854014219e+00	 3.026740363534475e-01	-9.880148658023850e+01
 1.051449570726956e+00	 3.231931315080629e-01	-9.548513469316165e+01
 1.044929711316766e+00	 3.436886649955435e-01	-9.179577254798323e+01
 1.037977074640545e+00	 3.641477619894577e-01	-8.779068642479356e+01
 1.030589949835735e+00	 3.845573498715942e-01	-8.352936266746065e+01
 1.022767131181332e+00	 4.049041805392548e-01	-7.907330661612099e+01
 1.093927222370492e+00	 2.024338958074826e-01	-1.076798894518307e+02
 1.089896519281624e+00	 2.231184153738912e-01	-1.079641704251347e+02
 1.085448320360364e+00	 2.438405090501808e-01	-1.075409228893125e+02
 1.080578179570856e+00	 2.645884499892571e-01	-1.064684546167072e+02
 1.075282057555951e+00	 2.853502176894963e-01	-1.048086395554826e+02
 1.069556340995452e+00	 3.061135140396980e-01	-1.026267878678842e+02
 1.063397861306960e+00	 3.268657807301824e-01	-9.999149367921197e+01
 1.056803912584899e+00	 3.475942180072564e-01	-9.697446053990727e+01
 1.049772268673173e+00	 3.682858047396423e-01	-9.365030478146190e+01
 1.042301199267603e+00	 3.889273197566481e-01	-9.009633713281082e+01
 1.034389484945809e+00	 4.095053644089534e-01	-8.639232315567904e+01
 1.106218539478505e+00	 2.047084339626188e-01	-1.067516969493980e+02
 1.102142547591368e+00	 2.256253638614272e-01	-1.081535877341918e+02
 1.097644368907272e+00	 2.465802900510737e-01	-1.087640615196675e+02
 1.092719507434896e+00	 2.675613539221362e-01	-1.086553450693979e+02
 1.087363878431055e+00	 2.885563999111739e-01	-1.079039369926479e+02
 1.081573827976446e+00	 3.095529917259612e-01	-1.065904434575448e+02
 1.075346151886618e+00	 3.305384299522137e-01	-1.047993867804178e+02
 1.068678113852559e+00	 3.514997710187806e-01	-1.026189869274806e+02
 1.061567462705179e+00	 3.724238474895377e-01	-1.001409161836429e+02
 1.054012448698681e+00	 3.932972896413123e-01	-9.746002747092916e+01
 1.046011838709305e+00	 4.141065482781622e-01	-9.467405703356818e+01
 9.297883010302649e-01	 3.680947095640363e-01	-5.951112099195802e+01
 9.222799379563009e-01	 3.865225944039564e-01	-5.965817761878968e+01
 9.143747236862125e-01	 4.048689474701951e-01	-5.898410962293032e+01
 9.060730098564396e-01	 4.231213782743761e-01	-5.759102130010882e+01
 8.973756499704220e-01	 4.412674277413337e-01	-5.558516545068679e+01
 8.882840068073012e-01	 4.592945930433334e-01	-5.307659058930214e+01
 8.787999583847406e-01	 4.771903531042267e-01	-5.017875943488419e+01
 8.689259024143142e-01	 4.949421946770166e-01	-4.700814040382548e+01
 8.586647591951593e-01	 5.125376388923134e-01	-4.368377410552550e+01
 8.480199728994641e-01	 5.299642681697645e-01	-4.032681710479421e+01
 8.369955112118155e-01	 5.472097533798151e-01	-3.706006546606147e+01
 9.414106548025766e-01	 3.726958934376526e-01	-5.779133095572703e+01
 9.338084371907733e-01	 3.913541268386016e-01	-5.910725915164301e+01
 9.258044077427657e-01	 4.099298093186076e-01	-5.965391521938352e+01
 9.173989224904455e-01	 4.284103955081879e-01	-5.951821678544003e+01
 9.085928456060454e-01	 4.467832705937361e-01	-5.879082377638402e+01
 8.993875569034437e-01	 4.650357754621704e-01	-5.756584036681498e+01
 8.897849578755234e-01	 4.831552325238889e-01	-5.594049144812887e+01
 8.797874762052527e-01	 5.011289721163065e-01	-5.401477505102687e+01
 8.693980686955066e-01	 5.189443593841651e-01	-5.189109239773542e+01
 8.586202225706245e-01	 5.365888215273571e-01	-4.967385749395524e+01
 8.474579551112504e-01	 5.540498753022077e-01	-4.746908839244448e+01
 9.530330085739085e-01	 3.772970773107793e-01	-5.734862912344802e+01
 9.453369364240809e-01	 3.961856592726618e-01	-5.966931879534080e+01
 9.372340917979960e-01	 4.149906711663489e-01	-6.127138343175276e+01
 9.287248351230007e-01	 4.336994127412525e-01	-6.222684218645541e+01
 9.198100412401194e-01	 4.522991134453253e-01	-6.261105764266642e+01
 9.104911069979682e-01	 4.707769578801373e-01	-6.250249162571478e+01
 9.007699573646499e-01	 4.891201119426346e-01	-6.198243872490329e+01
 8.906490499945261e-01	 5.073157495546431e-01	-6.113473867191377e+01
 8.801313781942111e-01	 5.253510798750376e-01	-6.004546893328960e+01
 8.692204722401954e-01	 5.432133748839548e-01	-5.880261907783192e+01
 8.579203990091799e-01	 5.608899972236004e-01	-5.749574867348846e+01
 9.646553623442610e-01	 3.818982611834161e-01	-5.813685824754059e+01
 9.568654356562231e-01	 4.010171917061370e-01	-6.130412924229890e+01
 9.486637758519040e-01	 4.200515330134196e-01	-6.380226052041878e+01
 9.400507477541058e-01	 4.389884299735700e-01	-6.568865054408936e+01
 9.310272368726441e-01	 4.578149562961006e-01	-6.702364940289239e+01
 9.215946570908742e-01	 4.765181402972340e-01	-6.787036764917525e+01
 9.117549568521194e-01	 4.950849913604636e-01	-6.829446598079871e+01
 9.015106237821341e-01	 5.135025269920270e-01	-6.836392663718698e+01
 8.908646876912724e-01	 5.317578003649310e-01	-6.814880755239471e+01
 8.798207219081765e-01	 5.498379282395579e-01	-6.772098048195825e+01
 8.683828429056041e-01	 5.677301191439930e-01	-6.715385448627801e+01
 9.762777161136343e-01	 3.864994450555633e-01	-6.011205871473420e+01
 9.683939348872000e-01	 4.058487241390272e-01	-6.397337845033685e+01
 9.600934599044899e-01	 4.251123948598194e-01	-6.721392356555981e+01
 9.513766603837601e-01	 4.442774472051405e-01	-6.987673969269834e+01
 9.422444325036197e-01	 4.633307991460626e-01	-7.200743910526798e+01
 9.326982071821625e-01	 4.822593227134609e-01	-7.365406176413698e+01
 9.227399563379315e-01	 5.010498707773759e-01	-7.486692030082118e+01
 9.123721975680773e-01	 5.196893044284582e-01	-7.569842952642863e+01
 9.015979971866909e-01	 5.381645208538457e-01	-7.620292120063306e+01
 8.904209715745676e-01	 5.564624815941661e-01	-7.643644493826554e+01
 8.788452868005231e-01	 5.745702410633855e-01	-7.645655626977901e+01
 9.879000698820278e-01	 3.911006289272207e-01	-6.323233927603422e+01
 9.799224341170119e-01	 4.106802565713322e-01	-6.764055698262108e+01
 9.715231439557533e-01	 4.301732567055483e-01	-7.147528453921726e+01
 9.627025730119644e-01	 4.495664644359640e-01	-7.476547315722804e+01
 9.534616281330460e-01	 4.688466419952109e-01	-7.754226227817077e+01
 9.438017572718324e-01	 4.880005051288175e-01	-7.983889204727961e+01
 9.337249558220870e-01	 5.070147501933717e-01	-8.169060276736735e+01
 9.232337713523547e-01	 5.258760818639360e-01	-8.313452164785130e+01
 9.123313066804664e-01	 5.445712413417811e-01	-8.420953727829243e+01
 9.010212212393695e-01	 5.630870349477797e-01	-8.495616236960242e+01
 8.893077306939365e-01	 5.814103629817780e-01	-8.541638541780236e+01
 9.995224236494423e-01	 3.957018127983884e-01	-6.745775679552057e+01
 9.914509333456585e-01	 4.155117890030526e-01	-7.227085320760334e+01
 9.829528280056942e-01	 4.352341185506064e-01	-7.655670107000165e+01
 9.740284856387178e-01	 4.548554816660403e-01	-8.033040656917180e+01
 9.646788237609235e-01	 4.743624848435458e-01	-8.360889205602456e+01
 9.549053073598841e-01	 4.937416875433039e-01	-8.641085919103435e+01
 9.447099553045856e-01	 5.129796296084510e-01	-8.875674206764003e+01
 9.340953451349669e-01	 5.320628592984610e-01	-9.066865035898590e+01
 9.230646161725991e-01	 5.509779618287377e-01	-9.217030261648111e+01
 9.116214709025816e-01	 5.697115883003986e-01	-9.328694993346525e+01
 8.997701745858451e-01	 5.882504848991706e-01	-9.404529027245083e+01
 1.011144777415877e+00	 4.003029966690664e-01	-7.275020429232789e+01
 1.002979432573140e+00	 4.203433214341877e-01	-7.783105572654483e+01
 9.943825120543131e-01	 4.402949803949937e-01	-8.242989336194961e+01
 9.853543982640206e-01	 4.601444988953695e-01	-8.654821915728655e+01
 9.758960193872512e-01	 4.798783276910670e-01	-9.018898529648726e+01
 9.660088574463180e-01	 4.994828699569205e-01	-9.335660727538186e+01
 9.556949547854272e-01	 5.189445090226136e-01	-9.605696992123191e+01
 9.449569189159139e-01	 5.382496367320331e-01	-9.829742612386795e+01
 9.337979256630885e-01	 5.573846823147149e-01	-1.000867881100536e+02
 9.222217205642039e-01	 5.763361416520226e-01	-1.014353111489120e+02
 9.102326184762480e-01	 5.950906068155633e-01	-1.023546696352536e+02
 1.022767131181332e+00	 4.049041805392548e-01	-7.907330661612099e+01
 1.014507931799456e+00	 4.251748538647378e-01	-8.428946245370294e+01
 1.005812196101609e+00	 4.453558422387101e-01	-8.906786677799862e+01
 9.966803108878730e-01	 4.654335161239517e-01	-9.339664990938864e+01
 9.871132150120300e-01	 4.853941705377748e-01	-9.726503237145897e+01
 9.771124075311334e-01	 5.052240523696667e-01	-1.006633872142929e+02
 9.666799542646118e-01	 5.249093884358594e-01	-1.035832981830953e+02
 9.558184926951958e-01	 5.444364141646523e-01	-1.060176132481343e+02
 9.445312351519353e-01	 5.637914027997134e-01	-1.079604930346482e+02
 9.328219702242366e-01	 5.829606950026520e-01	-1.094074537193619e+02
 9.206950623651458e-01	 6.019307287309560e-01	-1.103554039934409e+02
 1.034389484945809e+00	 4.095053644089534e-01	-8.639232315567904e+01
 1.026036431024607e+00	 4.300063862947030e-01	-9.161579582593725e+01
 1.017241880147583e+00	 4.504167040817556e-01	-9.644483964254701e+01
 1.008006223510275e+00	 4.707225333517867e-01	-1.008544380378426e+02
 9.983304106352595e-01	 4.909100133836690e-01	-1.048203103429598e+02
 9.882159576143311e-01	 5.109652347815431e-01	-1.083190226664479e+02
 9.776649537421397e-01	 5.308742678481889e-01	-1.113280974901247e+02
 9.666800664728121e-01	 5.506231915963183e-01	-1.138261212387136e+02
 9.552645446391390e-01	 5.701981232837328e-01	-1.157928490726804e+02
 9.434222198826796e-01	 5.895852483522865e-01	-1.172093061538493e+02
 9.311575062525380e-01	 6.087708506453484e-01	-1.180578846410713e+02
 1.046011838709305e+00	 4.141065482781622e-01	-9.467405703356818e+01
 1.037564930248593e+00	 4.348379187240830e-01	-9.978112366500362e+01
 1.028671564192235e+00	 4.554775659241303e-01	-1.045361758571701e+02
 1.019332136131226e+00	 4.760115505788748e-01	-1.089012674140112e+02
 1.009547606256940e+00	 4.964258562287497e-01	-1.128388392606092e+02
 9.993195076959104e-01	 5.167064171925492e-01	-1.163118782185670e+02
 9.886499532180107e-01	 5.368391472596017e-01	-1.192840773312933e+02
 9.775416402487633e-01	 5.568099690270316e-01	-1.217199967395298e+02
 9.659978541247000e-01	 5.766048437667730e-01	-1.235852240709305e+02
 9.540224695395332e-01	 5.962098017009265e-01	-1.248465332801881e+02
 9.416199501384250e-01	 6.156109725587411e-01	-1.254720408587410e+02
 8.369955112118155e-01	 5.472097533798151e-01	-3.706006546606147e+01
 8.255958632931958e-01	 5.642618811384013e-01	-2.960702936127863e+01
 8.138260360506314e-01	 5.811085811170719e-01	-2.305016559915678e+01
 8.016915487021741e-01	 5.977379532449607e-01	-1.741554246653725e+01
 7.891984256370140e-01	 6.141382946773878e-01	-1.272628603914459e+01
 7.763531875817183e-01	 6.302981264093361e-01	-9.002459522209399e+00
 7.631628410930560e-01	 6.462062194093811e-01	-6.260957311592939e+00
 7.496348664083717e-01	 6.618516201518141e-01	-4.515414640555747e+00
 7.357772036946522e-01	 6.772236754270479e-01	-3.776133557807718e+00
 7.215982377473873e-01	 6.923120563137026e-01	-4.050025853966204e+00
 7.071067811999999e-01	 7.071067811999999e-01	-5.340573417496500e+00
 8.474579551112504e-01	 5.540498753022077e-01	-4.746908839244448e+01
 8.359158115929692e-01	 5.713151546574315e-01	-4.009369426704246e+01
 8.239988615092374e-01	 5.883724383855524e-01	-3.355273803686440e+01
 8.117126930683318e-01	 6.052096776648181e-01	-2.787508670583589e+01
 7.990634059643095e-01	 6.218150233649912e-01	-2.308685606542780e+01
 7.860576024328196e-01	 6.381768529934919e-01	-1.921127900505233e+01
 7.727023766125910e-01	 6.542837971560034e-01	-1.626858752030490e+01
 7.590053022439359e-01	 6.701247654077456e-01	-1.427590935440585e+01
 7.449744187459286e-01	 6.856889713740123e-01	-1.324718009733205e+01
 7.306182157240029e-01	 7.009659570219055e-01	-1.319307144651518e+01
 7.159456159695000e-01	 7.159456159695000e-01	-1.412093620404891e+01
 8.579203990091799e-01	 5.608899972236004e-01	-5.749574867348846e+01
 8.462357598913327e-01	 5.783684281754621e-01	-5.022478691363453e+01
 8.341716869665182e-01	 5.956362956530330e-01	-4.372767757301781e+01
 8.217338374332409e-01	 6.126814020836755e-01	-3.803603917812815e+01
 8.089283862904220e-01	 6.294917520515947e-01	-3.317892684105024e+01
 7.957620172827934e-01	 6.460555795766478e-01	-2.918268968955049e+01
 7.822419121310444e-01	 6.623613749016258e-01	-2.607084098861757e+01
 7.683757380784541e-01	 6.783979106626776e-01	-2.386394195813970e+01
 7.541716337961848e-01	 6.941542673199765e-01	-2.257950018906894e+01
 7.396381936996136e-01	 7.096198577291084e-01	-2.223188344757262e+01
 7.247844507379998e-01	 7.247844507379999e-01	-2.283224953472826e+01
 8.683828429056041e-01	 5.677301191439930e-01	-6.715385448627801e+01
 8.565557081882860e-01	 5.854217016924925e-01	-6.001314602358509e+01
 8.443445124224748e-01	 6.029001529195133e-01	-5.358681200781304e+01
 8.317549817969009e-01	 6.201531265015331e-01	-4.790917699818224e+01
 8.187933666153511e-01	 6.371684807371980e-01	-4.301218685240458e+01
 8.054664321316400e-01	 6.539343061588038e-01	-3.892525542098610e+01
 7.917814476484165e-01	 6.704389526462485e-01	-3.567512294223918e+01
 7.777461739119264e-01	 6.866710559166093e-01	-3.328572721122411e+01
 7.633688488454204e-01	 7.026195632649410e-01	-3.177808850182102e+01
 7.486581716742190e-01	 7.182737584353109e-01	-3.117020911599835e+01
 7.336232855055000e-01	 7.336232855055000e-01	-3.147698831924950e+01
 8.788452868005231e-01	 5.745702410633855e-01	-7.645655626977901e+01
 8.668756564838288e-01	 5.924749752085229e-01	-6.947099876131072e+01
 8.545173378771065e-01	 6.101640101849937e-01	-6.314140573836745e+01
 8.417761261593122e-01	 6.276248509183908e-01	-5.750476392651658e+01
 8.286583469390975e-01	 6.448452094218015e-01	-5.259586308753621e+01
 8.151708469793590e-01	 6.618130327399596e-01	-4.844713211729336e+01
 8.013209831647067e-01	 6.785165303898708e-01	-4.508848586871201e+01
 7.871166097443530e-01	 6.949442011695413e-01	-4.254718384075139e+01
 7.725660638936355e-01	 7.110848592089053e-01	-4.084770178854134e+01
 7.576781496478195e-01	 7.269276591405139e-01	-4.001161721224550e+01
 7.424621202719999e-01	 7.424621202720001e-01	-4.005750957388381e+01
 8.893077306939365e-01	 5.814103629817780e-01	-8.541638541780236e+01
 8.771956047779617e-01	 5.995282487235530e-01	-7.860999670954459e+01
 8.646901633304135e-01	 6.174278674494742e-01	-7.240219290242317e+01
 8.517972705204740e-01	 6.350965753342479e-01	-6.683258056897436e+01
 8.385233272616601e-01	 6.525219381054047e-01	-6.193874818527604e+01
 8.248752618259512e-01	 6.696917593201157e-01	-5.775609176686395e+01
 8.108605186799150e-01	 6.865941081324930e-01	-5.431765026868929e+01
 7.964870455757337e-01	 7.032173464214730e-01	-5.165395195697111e+01
 7.817632789408300e-01	 7.195501551518694e-01	-4.979287288313412e+01
 7.666981276204146e-01	 7.355815598447166e-01	-4.875950849989304e+01
 7.513009550375001e-01	 7.513009550375001e-01	-4.857605935787131e+01
 8.997701745858451e-01	 5.882504848991706e-01	-9.404529027245083e+01
 8.875155530706845e-01	 6.065815222375835e-01	-8.744124933577339e+01
 8.748629887823961e-01	 6.246917247129546e-01	-8.137940820969480e+01
 8.618184148803874e-01	 6.425682997491056e-01	-7.590195246934142e+01
 8.483883075830400e-01	 6.601986667880082e-01	-7.104922569024635e+01
 8.345796766714155e-01	 6.775704858992714e-01	-6.685954475207801e+01
 8.204000541940423e-01	 6.946716858741154e-01	-6.336902395944307e+01
 8.058574814060682e-01	 7.114904916724046e-01	-6.061140925377980e+01
 7.909604939870044e-01	 7.280154510938338e-01	-5.861792372072382e+01
 7.757181055920049e-01	 7.442354605479196e-01	-5.741712551451077e+01
 7.601397898020000e-01	 7.601397898019999e-01	-5.703477922589274e+01
 9.102326184762480e-01	 5.950906068155633e-01	-1.023546696352536e+02
 8.978355013619972e-01	 6.136347957506137e-01	-9.597535515063674e+01
 8.850358142330540e-01	 6.319555819754350e-01	-9.008281564690722e+01
 8.718395592390517e-01	 6.500400241629630e-01	-8.472177626453936e+01
 8.582532879032364e-01	 6.678753954696115e-01	-7.993529356613304e+01
 8.442840915157530e-01	 6.854492124774274e-01	-7.576456063327498e+01
 8.299395897070877e-01	 7.027492636147378e-01	-7.224872004708683e+01
 8.152279172353567e-01	 7.197636369223365e-01	-6.942468609192767e+01
 8.001577090321583e-01	 7.364807470347983e-01	-6.732697745997156e+01
 7.847380835625897e-01	 7.528893612501224e-01	-6.598756165880131e+01
 7.689786245654999e-01	 7.689786245654999e-01	-6.543571223553762e+01
 9.206950623651458e-01	 6.019307287309560e-01	-1.103554039934409e+02
 9.081554496518998e-01	 6.206880692626442e-01	-1.042224307418830e+02
 8.952086396823874e-01	 6.392194392369155e-01	-9.852173522566659e+01
 8.818607035964670e-01	 6.575117485758205e-01	-9.330054405649736e+01
 8.681182682222500e-01	 6.755521241502151e-01	-8.860458610577194e+01
 8.539885063589624e-01	 6.933279390545832e-01	-8.447788751562710e+01
 8.394791252190520e-01	 7.108268413543603e-01	-8.096257367341509e+01
 8.245983530635995e-01	 7.280367821712683e-01	-7.809867955381898e+01
 8.093549240762918e-01	 7.449460429747625e-01	-7.592396977886114e+01
 7.937580615321697e-01	 7.615432619513252e-01	-7.447376967761437e+01
 7.778174593279999e-01	 7.778174593279999e-01	-7.378080854516692e+01
 9.311575062525380e-01	 6.087708506453484e-01	-1.180578846410713e+02
 9.184753979403921e-01	 6.277413427736747e-01	-1.121921378509725e+02
 9.053814651303959e-01	 6.464832964973959e-01	-1.067050679270952e+02
 8.918818479526330e-01	 6.649834729876779e-01	-1.016463661409737e+02
 8.779832485400803e-01	 6.832288528298185e-01	-9.706439436414546e+01
 8.636929212010450e-01	 7.012066656307392e-01	-9.300597011037662e+01
 8.490186607299344e-01	 7.189044190929826e-01	-8.951615763373417e+01
 8.339687888907961e-01	 7.363099274192001e-01	-8.663806655079125e+01
 8.185521391194046e-01	 7.534113389137267e-01	-8.441265940896847e+01
 8.027780395007446e-01	 7.701971626515282e-01	-8.287856956160532e+01
 7.866562940895000e-01	 7.866562940895000e-01	-8.207193063438650e+01
 9.416199501384250e-01	 6.156109725587411e-01	-1.254720408587410e+02
 9.287953462274744e-01	 6.347946162837050e-01	-1.198937086445664e+02
 9.155542905770797e-01	 6.537471537568762e-01	-1.146413189834841e+02
 9.019029923075504e-01	 6.724551973985354e-01	-1.097669922211126e+02
 8.878482288567273e-01	 6.909055815084219e-01	-1.053216852291715e+02
 8.733973360420002e-01	 7.090853922058951e-01	-1.013549665919822e+02
 8.585581962397351e-01	 7.269819968306050e-01	-9.791479695349867e+01
 8.433392247169470e-01	 7.445830726661317e-01	-9.504731605657098e+01
 8.277493541614975e-01	 7.618766348516912e-01	-9.279663796743790e+01
 8.117980174683143e-01	 7.788510633507310e-01	-9.120465592397855e+01
 7.954951288500001e-01	 7.954951288500001e-01	-9.031085817648433e+01
 7.071067811999999e-01	 7.071067811999999e-01	-5.340573417496500e+00
 6.923120563137025e-01	 7.215982377473872e-01	-6.270693493742357e+00
 6.772236754270478e-01	 7.357772036946522e-01	-6.222698394346111e+00
 6.618516201518141e-01	 7.496348664083716e-01	-5.210254714345737e+00
 6.462062194093813e-01	 7.631628410930559e-01	-3.250760467080035e+00
 6.302981264093362e-01	 7.763531875817182e-01	-3.652589847126677e-01
 6.141382946773881e-01	 7.891984256370137e-01	 3.421666306377361e+00
 5.977379532449610e-01	 8.016915487021739e-01	 8.082015415621399e+00
 5.811085811170723e-01	 8.138260360506312e-01	 1.358451265731141e+01
 5.642618811384018e-01	 8.255958632931955e-01	 1.989476375686160e+01
 5.472097533798151e-01	 8.369955112118155e-01	 2.697542796981756e+01
 7.159456159695000e-01	 7.159456159695000e-01	-1.412093620404891e+01
 7.009659570219053e-01	 7.306182157240030e-01	-1.476246993389682e+01
 6.856889713740122e-01	 7.449744187459286e-01	-1.447246739708338e+01
 6.701247654077458e-01	 7.590053022439357e-01	-1.326325545116378e+01
 6.542837971560036e-01	 7.727023766125908e-01	-1.115073795729718e+01
 6.381768529934920e-01	 7.860576024328195e-01	-8.154316869927939e+00
 6.218150233649915e-01	 7.990634059643091e-01	-4.296794935454749e+00
 6.052096776648186e-01	 8.117126930683318e-01	 3.957392385729861e-01
 5.883724383855530e-01	 8.239988615092370e-01	 5.894042840623115e+00
 5.713151546574324e-01	 8.359158115929688e-01	 1.216586620461220e+01
 5.540498753022077e-01	 8.474579551112504e-01	 1.917611469853695e+01
 7.247844507379998e-01	 7.247844507379999e-01	-2.283224953472826e+01
 7.096198577291083e-01	 7.396381936996136e-01	-2.317126374240669e+01
 6.941542673199766e-01	 7.541716337961849e-01	-2.262405723865292e+01
 6.783979106626776e-01	 7.683757380784542e-01	-2.120164757136026e+01
 6.623613749016261e-01	 7.822419121310443e-01	-1.891847798365320e+01
 6.460555795766482e-01	 7.957620172827933e-01	-1.579234556377140e+01
 6.294917520515949e-01	 8.089283862904216e-01	-1.184431172432372e+01
 6.126814020836757e-01	 8.217338374332406e-01	-7.098595715256849e+00
 5.956362956530332e-01	 8.341716869665180e-01	-1.582452011418177e+00
 5.783684281754625e-01	 8.462357598913323e-01	 4.673967457739927e+00
 5.608899972236003e-01	 8.579203990091798e-01	 1.163776515341929e+01
 7.336232855055000e-01	 7.336232855055000e-01	-3.147698831924950e+01
 7.182737584353108e-01	 7.486581716742190e-01	-3.150005284864964e+01
 7.026195632649409e-01	 7.633688488454202e-01	-3.068099457318102e+01
 6.866710559166094e-01	 7.777461739119265e-01	-2.902955105642110e+01
 6.704389526462485e-01	 7.917814476484162e-01	-2.655873724278709e+01
 6.539343061588040e-01	 8.054664321316398e-01	-2.328478054335200e+01
 6.371684807371982e-01	 8.187933666153508e-01	-1.922703895816838e+01
 6.201531265015334e-01	 8.317549817969007e-01	-1.440790288318993e+01
 6.029001529195136e-01	 8.443445124224743e-01	-8.852681381477140e+00
 5.854217016924929e-01	 8.565557081882855e-01	-2.589473820784036e+00
 5.677301191439930e-01	 8.683828429056042e-01	 4.350972108568897e+00
 7.424621202719999e-01	 7.424621202720001e-01	-4.005750957388381e+01
 7.269276591405137e-01	 7.576781496478194e-01	-3.975167335204051e+01
 7.110848592089053e-01	 7.725660638936355e-01	-3.864663811171977e+01
 6.949442011695413e-01	 7.871166097443529e-01	-3.675088970749911e+01
 6.785165303898705e-01	 8.013209831647063e-01	-3.407604594739870e+01
 6.618130327399598e-01	 8.151708469793592e-01	-3.063679849481423e+01
 6.448452094218017e-01	 8.286583469390970e-01	-2.645083850132451e+01
 6.276248509183910e-01	 8.417761261593117e-01	-2.153876656311661e+01
 6.101640101849942e-01	 8.545173378771063e-01	-1.592398772051363e+01
 5.924749752085233e-01	 8.668756564838282e-01	-9.632592338326674e+00
 5.745702410633855e-01	 8.788452868005230e-01	-2.693223813076237e+00
 7.513009550375001e-01	 7.513009550375001e-01	-4.857605935787131e+01
 7.355815598447167e-01	 7.666981276204147e-01	-4.792882786634890e+01
 7.195501551518695e-01	 7.817632789408299e-01	-4.652418850250020e+01
 7.032173464214733e-01	 7.964870455757336e-01	-4.436940268655188e+01
 6.865941081324931e-01	 8.108605186799150e-01	-4.147472114982080e+01
 6.696917593201157e-01	 8.248752618259508e-01	-3.785333253719174e+01
 6.525219381054053e-01	 8.385233272616602e-01	-3.352129642252185e+01
 6.350965753342483e-01	 8.517972705204742e-01	-2.849746127523475e+01
 6.174278674494746e-01	 8.646901633304133e-01	-2.280336803835282e+01
 5.995282487235538e-01	 8.771956047779614e-01	-1.646314009233588e+01
 5.814103629817781e-01	 8.893077306939365e-01	-9.503360484019431e+00
 7.601397898020000e-01	 7.601397898019999e-01	-5.703477922589274e+01
 7.442354605479196e-01	 7.757181055920047e-01	-5.603409328184858e+01
 7.280154510938339e-01	 7.909604939870044e-01	-5.431669752185967e+01
 7.114904916724047e-01	 8.058574814060682e-01	-5.188865525227978e+01
 6.946716858741158e-01	 8.204000541940424e-01	-4.875887913603574e+01
 6.775704858992717e-01	 8.345796766714155e-01	-4.493908638412838e+01
 6.601986667880085e-01	 8.483883075830395e-01	-4.044373903022579e+01
 6.425682997491058e-01	 8.618184148803871e-01	-3.528996977296950e+01
 6.246917247129552e-01	 8.748629887823960e-01	-2.949749398793437e+01
 6.065815222375840e-01	 8.875155530706840e-01	-2.308850862125529e+01
 5.882504848991708e-01	 8.997701745858451e-01	-1.608757877850926e+01
 7.689786245654999e-01	 7.689786245654999e-01	-6.543571223553762e+01
 7.528893612501225e-01	 7.847380835625901e-01	-6.406992799214213e+01
 7.364807470347983e-01	 8.001577090321584e-01	-6.202707663130885e+01
 7.197636369223366e-01	 8.152279172353567e-01	-5.931204875564989e+01
 7.027492636147382e-01	 8.299395897070879e-01	-5.593244696492790e+01
 6.854492124774276e-01	 8.442840915157526e-01	-5.189854752892633e+01
 6.678753954696118e-01	 8.582532879032362e-01	-4.722324780209215e+01
 6.500400241629634e-01	 8.718395592390513e-01	-4.192199981175525e+01
 6.319555819754356e-01	 8.850358142330536e-01	-3.601273056444028e+01
 6.136347957506144e-01	 8.978355013619969e-01	-2.951574972089621e+01
 5.950906068155634e-01	 9.102326184762480e-01	-2.245364538874800e+01
 7.778174593279999e-01	 7.778174593279999e-01	-7.378080854516692e+01
 7.615432619513252e-01	 7.937580615321698e-01	-7.203867862824191e+01
 7.449460429747624e-01	 8.093549240762917e-01	-6.965810495115805e+01
 7.280367821712684e-01	 8.245983530635994e-01	-6.664282995390256e+01
 7.108268413543607e-01	 8.394791252190520e-01	-6.299917322076564e+01
 6.933279390545833e-01	 8.539885063589621e-01	-5.873599953060862e+01
 6.755521241502154e-01	 8.681182682222498e-01	-5.386467329650060e+01
 6.575117485758207e-01	 8.818607035964664e-01	-4.839899977449161e+01
 6.392194392369160e-01	 8.952086396823867e-01	-4.235515352947807e+01
 6.206880692626449e-01	 9.081554496518994e-01	-3.575159474832537e+01
 6.019307287309560e-01	 9.206950623651458e-01	-2.860897408545227e+01
 7.866562940895000e-01	 7.866562940895000e-01	-8.207193063438650e+01
 7.701971626515279e-01	 8.027780395007448e-01	-7.994258633866360e+01
 7.534113389137267e-01	 8.185521391194046e-01	-7.721243669659043e+01
 7.363099274192003e-01	 8.339687888907965e-01	-7.388409969664568e+01
 7.189044190929827e-01	 8.490186607299340e-01	-6.996263804079369e+01
 7.012066656307393e-01	 8.636929212010448e-01	-6.545553347170600e+01
 6.832288528298186e-01	 8.779832485400799e-01	-6.037264812622881e+01
 6.649834729876783e-01	 8.918818479526329e-01	-5.472617324359376e+01
 6.464832964973964e-01	 9.053814651303955e-01	-4.853056566060027e+01
 6.277413427736752e-01	 9.184753979403918e-01	-4.180247262436649e+01
 6.087708506453484e-01	 9.311575062525379e-01	-3.456064554511407e+01
 7.954951288500001e-01	 7.954951288500001e-01	-9.031085817648433e+01
 7.788510633507308e-01	 8.117980174683144e-01	-8.778379265084197e+01
 7.618766348516911e-01	 8.277493541614976e-01	-8.469260811799296e+01
 7.445830726661320e-01	 8.433392247169471e-01	-8.103882103286806e+01
 7.269819968306053e-01	 8.585581962397351e-01	-7.682626247431458e+01
 7.090853922058953e-01	 8.733973360420000e-01	-7.206105865218800e+01
 6.909055815084221e-01	 8.878482288567272e-01	-6.675159906721321e+01
 6.724551973985359e-01	 9.019029923075501e-01	-6.090849260157162e+01
 6.537471537568769e-01	 9.155542905770793e-01	-5.454451191751834e+01
 6.347946162837055e-01	 9.287953462274742e-01	-4.767452663593367e+01
 6.156109725587411e-01	 9.416199501384250e-01	-4.031542585544355e+01
 5.472097533798151e-01	 8.369955112118155e-01	 2.697542796981756e+01
 5.299642681697644e-01	 8.480199728994640e-01	 4.229996466151947e+01
 5.125376388923134e-01	 8.586647591951594e-01	 5.352673730512439e+01
 4.949421946770166e-01	 8.689259024143141e-01	 6.052361654484538e+01
 4.771903531042269e-01	 8.787999583847403e-01	 6.317426972986799e+01
 4.592945930433337e-01	 8.882840068073012e-01	 6.137838161983811e+01
 4.412674277413340e-01	 8.973756499704219e-01	 5.505178938032234e+01
 4.231213782743766e-01	 9.060730098564395e-01	 4.412653293149003e+01
 4.048689474701956e-01	 9.143747236862123e-01	 2.855082236489619e+01
 3.865225944039570e-01	 9.222799379563006e-01	 8.288924758470358e+00
 3.680947095640363e-01	 9.297883010302649e-01	-1.667902670740872e+01
 5.540498753022077e-01	 8.474579551112504e-01	 1.917611469853695e+01
 5.365888215273570e-01	 8.586202225706244e-01	 3.322090215202582e+01
 5.189443593841651e-01	 8.693980686955066e-01	 4.336369740073786e+01
 5.011289721163066e-01	 8.797874762052528e-01	 4.948675001661629e+01
 4.831552325238891e-01	 8.897849578755235e-01	 5.148725081791822e+01
 4.650357754621707e-01	 8.993875569034435e-01	 4.927751071879997e+01
 4.467832705937365e-01	 9.085928456060449e-01	 4.278505922528569e+01
 4.284103955081883e-01	 9.173989224904452e-01	 3.195266375769160e+01
 4.099298093186080e-01	 9.258044077427652e-01	 1.673827158416609e+01
 3.913541268386022e-01	 9.338084371907733e-01	-2.885123281094998e+00
 3.726958934376526e-01	 9.414106548025766e-01	-2.692968533368262e+01
 5.608899972236003e-01	 8.579203990091798e-01	 1.163776515341929e+01
 5.432133748839548e-01	 8.692204722401957e-01	 2.457344295758566e+01
 5.253510798750377e-01	 8.801313781942111e-01	 3.379812204837214e+01
 5.073157495546432e-01	 8.906490499945261e-01	 3.920815423470520e+01
 4.891201119426348e-01	 9.007699573646497e-01	 4.071399305627355e+01
 4.707769578801375e-01	 9.104911069979682e-01	 3.824033144190768e+01
 4.522991134453255e-01	 9.198100412401192e-01	 3.172616428050139e+01
 4.336994127412528e-01	 9.287248351230004e-01	 2.112477719986492e+01
 4.149906711663495e-01	 9.372340917979960e-01	 6.403663407207944e+00
 3.961856592726625e-01	 9.453369364240807e-01	-1.245562903175259e+01
 3.772970773107793e-01	 9.530330085739084e-01	-3.545771661471597e+01
 5.677301191439930e-01	 8.683828429056042e-01	 4.350972108568897e+00
 5.498379282395577e-01	 8.798207219081762e-01	 1.634201245253696e+01
 5.317578003649310e-01	 8.908646876912723e-01	 2.480844191982273e+01
 5.135025269920271e-01	 9.015106237821341e-01	 2.966044786896313e+01
 4.950849913604638e-01	 9.117549568521192e-01	 3.082149524045642e+01
 4.765181402972344e-01	 9.215946570908742e-01	 2.822842366459304e+01
 4.578149562961010e-01	 9.310272368726438e-01	 2.183147466099682e+01
 4.389884299735704e-01	 9.400507477541058e-01	 1.159425033914490e+01
 4.200515330134201e-01	 9.486637758519038e-01	-2.506394478138155e+00
 4.010171917061375e-01	 9.568654356562227e-01	-2.048052430778170e+01
 3.818982611834161e-01	 9.646553623442610e-01	-4.232535639609651e+01
 5.745702410633855e-01	 8.788452868005230e-01	-2.693223813076237e+00
 5.564624815941662e-01	 8.904209715745679e-01	 8.511777532695632e+00
 5.381645208538457e-01	 9.015979971866910e-01	 1.637411465793269e+01
 5.196893044284583e-01	 9.123721975680770e-01	 2.081755331047167e+01
 5.010498707773762e-01	 9.227399563379314e-01	 2.177832748914143e+01
 4.822593227134611e-01	 9.326982071821623e-01	 1.920519661881326e+01
 4.633307991460628e-01	 9.422444325036196e-01	 1.305943791244767e+01
 4.442774472051409e-01	 9.513766603837600e-01	 3.314775441884194e+00
 4.251123948598199e-01	 9.600934599044898e-01	-1.004275209301473e+01
 4.058487241390278e-01	 9.683939348871998e-01	-2.701498247303619e+01
 3.864994450555633e-01	 9.762777161136343e-01	-4.759187712565561e+01
 5.814103629817781e-01	 8.893077306939365e-01	-9.503360484019431e+00
 5.630870349477796e-01	 9.010212212393696e-01	 1.068602996333162e+00
 5.445712413417813e-01	 9.123313066804662e-01	 8.475564466531601e+00
 5.258760818639362e-01	 9.232337713523550e-01	 1.265461998216321e+01
 5.070147501933719e-01	 9.337249558220868e-01	 1.355453881358303e+01
 4.880005051288177e-01	 9.438017572718324e-01	 1.113578128413968e+01
 4.688466419952113e-01	 9.534616281330459e-01	 5.370456809753740e+00
 4.495664644359644e-01	 9.627025730119640e-01	-3.757776227255000e+00
 4.301732567055489e-01	 9.715231439557529e-01	-1.625386671355008e+01
 4.106802565713329e-01	 9.799224341170115e-01	-3.211158070214864e+01
 3.911006289272207e-01	 9.879000698820278e-01	-5.131376217034051e+01
 5.882504848991708e-01	 8.997701745858451e-01	-1.608757877850926e+01
 5.697115883003985e-01	 9.116214709025819e-01	-6.000989031656850e+00
 5.509779618287376e-01	 9.230646161725989e-01	 1.094125915028762e+00
 5.320628592984612e-01	 9.340953451349671e-01	 5.147952999862007e+00
 5.129796296084511e-01	 9.447099553045852e-01	 6.121571135690104e+00
 4.937416875433043e-01	 9.549053073598841e-01	 3.986930286442501e+00
 4.743624848435461e-01	 9.646788237609232e-01	-1.273224318702887e+00
 4.548554816660406e-01	 9.740284856387172e-01	-9.665481090798153e+00
 4.352341185506070e-01	 9.829528280056942e-01	-2.118594198341874e+01
 4.155117890030531e-01	 9.914509333456581e-01	-3.582045092118111e+01
 3.957018127983884e-01	 9.995224236494423e-01	-5.354486797144575e+01
 5.950906068155634e-01	 9.102326184762480e-01	-2.245364538874800e+01
 5.763361416520227e-01	 9.222217205642042e-01	-1.270985687725774e+01
 5.573846823147151e-01	 9.337979256630887e-01	-5.788008381447888e+00
 5.382496367320332e-01	 9.449569189159140e-01	-1.725053246744217e+00
 5.189445090226138e-01	 9.556949547854271e-01	-5.478207641129416e-01
 4.994828699569208e-01	 9.660088574463179e-01	-2.273075299884049e+00
 4.798783276910674e-01	 9.758960193872510e-01	-6.907625427094196e+00
 4.601444988953700e-01	 9.853543982640203e-01	-1.444848120702302e+01
 4.402949803949942e-01	 9.943825120543127e-01	-2.488305743243556e+01
 4.203433214341882e-01	 1.002979432573140e+00	-3.818942033857834e+01
 4.003029966690664e-01	 1.011144777415877e+00	-5.433657501672593e+01
 6.019307287309560e-01	 9.206950623651458e-01	-2.860897408545227e+01
 5.829606950026519e-01	 9.328219702242370e-01	-1.907027451908925e+01
 5.637914027997134e-01	 9.445312351519353e-01	-1.218783651464945e+01
 5.444364141646524e-01	 9.558184926951957e-01	-7.985976984564537e+00
 5.249093884358597e-01	 9.666799542646118e-01	-6.479643840923906e+00
 5.052240523696671e-01	 9.771124075311334e-01	-7.674512795303777e+00
 4.853941705377752e-01	 9.871132150120299e-01	-1.156712937208970e+01
 4.654335161239521e-01	 9.966803108878728e-01	-1.814509417658062e+01
 4.453558422387106e-01	 1.005812196101609e+00	-2.738728916433455e+01
 4.251748538647384e-01	 1.014507931799456e+00	-3.926414239446532e+01
 4.049041805392548e-01	 1.022767131181332e+00	-5.373792851895598e+01
 6.087708506453484e-01	 9.311575062525379e-01	-3.456064554511407e+01
 5.895852483522863e-01	 9.434222198826796e-01	-2.509396441701473e+01
 5.701981232837326e-01	 9.552645446391391e-01	-1.812159274910948e+01
 5.506231915963185e-01	 9.666800664728121e-01	-1.365542677517364e+01
 5.308742678481890e-01	 9.776649537421396e-01	-1.169873635058981e+01
 5.109652347815433e-01	 9.882159576143307e-01	-1.224629890391093e+01
 4.909100133836695e-01	 9.983304106352595e-01	-1.528457388426585e+01
 4.707225333517872e-01	 1.008006223510275e+00	-2.079191563967838e+01
 4.504167040817562e-01	 1.017241880147583e+00	-2.873882240829550e+01
 4.300063862947036e-01	 1.026036431024607e+00	-3.908821888190538e+01
 4.095053644089534e-01	 1.034389484945808e+00	-5.179576961054580e+01
 6.156109725587411e-01	 9.416199501384250e-01	-4.031542585544355e+01
 5.962098017009264e-01	 9.540224695395332e-01	-3.079212815217292e+01
 5.766048437667730e-01	 9.659978541247000e-01	-2.360478995698809e+01
 5.568099690270316e-01	 9.775416402487633e-01	-1.875309538500775e+01
 5.368391472596018e-01	 9.886499532180105e-01	-1.622883277725082e+01
 5.167064171925495e-01	 9.993195076959103e-01	-1.601606530295094e+01
 4.964258562287501e-01	 1.009547606256940e+00	-1.809133740808731e+01
 4.760115505788752e-01	 1.019332136131226e+00	-2.242391494012157e+01
 4.554775659241308e-01	 1.028671564192235e+00	-2.897605656703635e+01
 4.348379187240837e-01	 1.037564930248593e+00	-3.770331392673864e+01
 4.141065482781622e-01	 1.046011838709305e+00	-4.855485779184696e+01
 3.680947095640363e-01	 9.297883010302649e-01	-1.667902670740872e+01
 3.495975907771368e-01	 9.368999543523497e-01	-2.424312858228553e+01
 3.310434199775671e-01	 9.436155223571460e-01	-2.836681027323822e+01
 3.124442408950447e-01	 9.499361011546517e-01	-2.898212715546356e+01
 2.938119377279355e-01	 9.558632460744549e-01	-2.603719351233732e+01
 2.751582148638955e-01	 9.613989581557346e-01	-1.949588399579299e+01
 2.564945776994927e-01	 9.665456696731550e-01	-9.337465773080339e+00
 2.378323146029685e-01	 9.713062287906586e-01	 4.443833559875515e+00
 2.191824800562900e-01	 9.756838834365028e-01	 2.183931694471312e+01
 2.005558790047262e-01	 9.796822644935033e-01	 4.282636214331160e+01
 1.819630524344169e-01	 9.833053683983746e-01	 6.736901362757760e+01
 3.726958934376526e-01	 9.414106548025766e-01	-2.692968533368262e+01
 3.539675606653077e-01	 9.486112037905382e-01	-3.162241591841134e+01
 3.351814627300657e-01	 9.554107163947457e-01	-3.316600739369533e+01
 3.163497939082678e-01	 9.618103024265738e-01	-3.150759952817593e+01
 2.974845869507599e-01	 9.678115366572296e-01	-2.660896684903673e+01
 2.785976925500455e-01	 9.734164451388825e-01	-1.844620958883868e+01
 2.597007599201513e-01	 9.786274905496308e-01	-7.009382706675737e+00
 2.408052185339230e-01	 9.834475566554659e-01	 7.697932204314185e+00
 2.219222610543540e-01	 9.878799319837492e-01	 2.565910708029901e+01
 2.030628274885305e-01	 9.919282928033322e-01	 4.684499440667126e+01
 1.842375905849211e-01	 9.955966855063876e-01	 7.121449576674415e+01
 3.772970773107793e-01	 9.530330085739084e-01	-3.545771661471597e+01
 3.583375305530888e-01	 9.603224532279364e-01	-3.748305833475417e+01
 3.393195054822754e-01	 9.672059104317243e-01	-3.664198083581060e+01
 3.202553469213020e-01	 9.736845036980224e-01	-3.289647461806087e+01
 3.011572361734961e-01	 9.797598272396583e-01	-2.622176672245658e+01
 2.820371702362082e-01	 9.854339321217914e-01	-1.660600117417306e+01
 2.629069421409231e-01	 9.907093114259542e-01	-4.049864771731279e+00
 2.437781224650914e-01	 9.955888845201885e-01	 1.143383722939036e+01
 2.246620420527323e-01	 1.000075980530958e+00	 2.982065080136573e+01
 2.055697759727496e-01	 1.004174321113151e+00	 5.107498332536053e+01
 1.865121287359399e-01	 1.007888002614400e+00	 7.515064931677830e+01
 3.818982611834161e-01	 9.646553623442610e-01	-4.232535639609651e+01
 3.627075004404804e-01	 9.720337026645445e-01	-4.187991856650746e+01
 3.434575482341956e-01	 9.790011044680814e-01	-3.884252965975477e+01
 3.241608999341474e-01	 9.855587049689971e-01	-3.318980569016976e+01
 3.048298853961442e-01	 9.917081178217401e-01	-2.491022598984722e+01
 2.854766479223834e-01	 9.974514191044608e-01	-1.400380315847491e+01
 2.661131243618082e-01	 1.002791132302125e+00	-4.817055178577334e-01
 2.467510263964736e-01	 1.007730212384825e+00	 1.563416363855247e+01
 2.274018230514250e-01	 1.012272029078129e+00	 3.431162556396868e+01
 2.080767244573832e-01	 1.016420349422961e+00	 5.550871980986039e+01
 1.887866668874734e-01	 1.020179319722413e+00	 7.917422762670853e+01
 3.864994450555633e-01	 9.762777161136343e-01	-4.759187712565561e+01
 3.670774703274824e-01	 9.837449521003626e-01	-4.486524705730100e+01
 3.475955909858267e-01	 9.907962985038169e-01	-3.981317700445372e+01
 3.280664529468041e-01	 9.974329062394982e-01	-3.242669132062824e+01
 3.085025346187044e-01	 1.003656408403476e+00	-2.270732855633593e+01
 2.889161256085711e-01	 1.009468906086891e+00	-1.066680092473633e+01
 2.693193065828065e-01	 1.014872953178144e+00	 3.673386677355264e+00
 2.497239303280696e-01	 1.019871540249376e+00	 2.028235405669093e+01
 2.301416040504319e-01	 1.024468077625263e+00	 3.912029537688827e+01
 2.105836729424314e-01	 1.028666377732761e+00	 6.013895687451506e+01
 1.910612050395216e-01	 1.032470636830427e+00	 8.328213841649074e+01
 3.911006289272207e-01	 9.879000698820278e-01	-5.131376217034051e+01
 3.714474402140946e-01	 9.954562015353907e-01	-4.648883562272100e+01
 3.517336337371683e-01	 1.002591492538931e+00	-3.959730396458612e+01
 3.319720059592722e-01	 1.009307107509526e+00	-3.064439037758243e+01
 3.121751838411762e-01	 1.015604698984865e+00	-1.964450637134291e+01
 2.923556032947714e-01	 1.021486393069082e+00	-6.620900774054902e+00
 2.725254888039181e-01	 1.026954774054010e+00	 8.394724775468250e+00
 2.526968342598795e-01	 1.032012868113843e+00	 2.536263004728988e+01
 2.328813850497531e-01	 1.036664126172358e+00	 4.423547629928085e+01
 2.130906214278943e-01	 1.040912406042553e+00	 6.495878833803216e+01
 1.933357431920845e-01	 1.044761953938439e+00	 8.747143469706437e+01
 3.957018127983884e-01	 9.995224236494423e-01	-5.354486797144575e+01
 3.758174101003174e-01	 1.007167450969629e+00	-4.679816039312372e+01
 3.558716764882207e-01	 1.014386686573424e+00	-3.823627412732451e+01
 3.358775589715515e-01	 1.021181308779080e+00	-2.787842898022794e+01
 3.158478330635600e-01	 1.027552989565908e+00	-1.575172965780602e+01
 2.957950809809843e-01	 1.033503880051033e+00	-1.890804290091872e+00
 2.757316710251428e-01	 1.039036594929724e+00	 1.366258369778119e+01
 2.556697381919033e-01	 1.044154195978224e+00	 3.085994682606351e+01
 2.356211660493888e-01	 1.048860174719417e+00	 4.964650434547097e+01
 2.155975699137717e-01	 1.053158434352334e+00	 6.996162900999593e+01
 1.956102813451620e-01	 1.057053271046452e+00	 9.173930632388840e+01
 4.003029966690664e-01	 1.011144777415877e+00	-5.433657501672593e+01
 3.801873799861506e-01	 1.018878700403077e+00	-4.583851489832380e+01
 3.600097192389839e-01	 1.026181880607295e+00	-3.576954952033938e+01
 3.397831119836419e-01	 1.033055510048160e+00	-2.416270008135039e+01
 3.195204822858556e-01	 1.039501280146605e+00	-1.105759091870088e+01
 2.992345586672098e-01	 1.045521367032745e+00	 3.499922425051593e+00
 2.789378532464808e-01	 1.051118415805285e+00	 1.945814504104615e+01
 2.586426421241408e-01	 1.056295523842520e+00	 3.675995109778410e+01
 2.383609470493386e-01	 1.061056223266437e+00	 5.534320560320891e+01
 2.181045184000638e-01	 1.065404462662107e+00	 7.514119624382678e+01
 1.978848194987542e-01	 1.069344588154466e+00	 9.608307213299372e+01
 4.049041805392548e-01	 1.022767131181332e+00	-5.373792851895598e+01
 3.845573498715942e-01	 1.030589949835736e+00	-4.365313407832836e+01
 3.641477619894577e-01	 1.037977074640545e+00	-3.223479865425797e+01
 3.436886649955436e-01	 1.044929711316767e+00	-1.952955626015188e+01
 3.231931315080631e-01	 1.051449570726956e+00	-5.589383215844684e+00
 3.026740363534478e-01	 1.057538854014218e+00	 9.528784235585388e+00
 2.821440354679321e-01	 1.063200236680694e+00	 2.576344556256718e+01
 2.616155460565923e-01	 1.068436851706730e+00	 4.304894176787393e+01
 2.411007280496028e-01	 1.073252271813419e+00	 6.131586838931205e+01
 2.206114668867706e-01	 1.077650490971870e+00	 8.049149274749362e+01
 2.001593576528611e-01	 1.081635905262479e+00	 1.005001726132127e+02
 4.095053644089534e-01	 1.034389484945808e+00	-5.179576961054580e+01
 3.889273197566479e-01	 1.042301199267603e+00	-4.028330993379823e+01
 3.682858047396424e-01	 1.049772268673173e+00	-2.766799728136143e+01
 3.475942180072565e-01	 1.056803912584900e+00	-1.400989625937901e+01
 3.268657807301825e-01	 1.063397861306960e+00	 6.268268285199312e-01
 3.061135140396982e-01	 1.069556340995452e+00	 1.617429680612130e+01
 2.853502176894966e-01	 1.075282057555951e+00	 3.256132913821337e+01
 2.645884499892575e-01	 1.080578179570855e+00	 4.971383330265102e+01
 2.438405090501814e-01	 1.085448320360364e+00	 6.755521728245878e+01
 2.231184153738919e-01	 1.089896519281624e+00	 8.600679055305163e+01
 2.024338958074826e-01	 1.093927222370491e+00	 1.049881630724135e+02
 4.141065482781622e-01	 1.046011838709305e+00	-4.855485779184696e+01
 3.932972896413123e-01	 1.054012448698682e+00	-3.576849946647798e+01
 3.724238474895377e-01	 1.061567462705179e+00	-2.210352243703787e+01
 3.514997710187807e-01	 1.068678113852559e+00	-7.633245753312799e+00
 3.305384299522138e-01	 1.075346151886617e+00	 7.566130896914181e+00
 3.095529917259615e-01	 1.081573827976446e+00	 2.341593044682643e+01
 2.885563999111744e-01	 1.087363878431055e+00	 3.983540192322725e+01
 2.675613539221366e-01	 1.092719507434895e+00	 5.674212153222500e+01
 2.465802900510743e-01	 1.097644368907271e+00	 7.405238888712562e+01
 2.256253638614278e-01	 1.102142547591368e+00	 9.168161605487924e+01
 2.047084339626188e-01	 1.106218539478505e+00	 1.095447072593200e+02
 1.819630524344169e-01	 9.833053683983746e-01	 6.736901362757760e+01
 1.634142641907509e-01	 9.865575392429453e-01	 4.846192085870641e+01
 1.449194890435836e-01	 9.894434504702300e-01	 2.942018926068618e+01
 1.264884019976694e-01	 9.919680862544974e-01	 1.052580758780147e+01
 1.081303688402294e-01	 9.941367226520524e-01	-7.950083307906283e+00
 8.985443791194073e-02	 9.959549086084808e-01	-2.574774966073485e+01
 7.166933308134309e-02	 9.974284469032259e-01	-4.261934521818304e+01
 5.358344789747966e-02	 9.985633751090948e-01	-5.832931422740380e+01
 3.560484089073371e-02	 9.993659466402712e-01	-7.265471877981358e+01
 1.774123198744578e-02	 9.998426119581703e-01	-8.538549274711053e+01
 0.000000000000000e+00	 1.000000000000000e+00	-9.632462492826846e+01
 1.842375905849211e-01	 9.955966855063876e-01	 7.121449576674415e+01
 1.654569424871889e-01	 9.988895084859244e-01	 5.444550632014022e+01
 1.467309826500151e-01	 1.001811493603026e+00	 3.679523542268745e+01
 1.280695070157072e-01	 1.004367687334138e+00	 1.853317023639475e+01
 1.094819984438205e-01	 1.006563431686268e+00	-7.906290825994233e-02
 9.097761837928414e-02	 1.008404344966822e+00	-1.878834331122895e+01
 7.256519973898776e-02	 1.009896302489984e+00	-3.735063153596326e+01
 5.425324099133060e-02	 1.011045417298220e+00	-5.553147613612604e+01
 3.604990139831873e-02	 1.011858020973390e+00	-7.310645221722424e+01
 1.796299738536468e-02	 1.012340644607676e+00	-8.986153301846380e+01
 0.000000000000000e+00	 1.012500000000000e+00	-1.055933961043344e+02
 1.865121287359399e-01	 1.007888002614400e+00	 7.515064931677830e+01
 1.674996207842255e-01	 1.011221477728904e+00	 6.016719662845441e+01
 1.485424762570973e-01	 1.014179536735822e+00	 4.357549910358652e+01
 1.296506120344171e-01	 1.016767288413778e+00	 2.563272364995514e+01
 1.108336280480745e-01	 1.018990140720485e+00	 6.591113702310277e+00
 9.210079884725111e-02	 1.020853781325163e+00	-1.330273982584353e+01
 7.346106639718736e-02	 1.022364158076741e+00	-3.380856787087340e+01
 5.492303408563919e-02	 1.023527459487344e+00	-5.469303204563479e+01
 3.649496190623605e-02	 1.024350095306508e+00	-7.573027266353692e+01
 1.818476278346310e-02	 1.024838677257182e+00	-9.670239611277103e+01
 0.000000000000000e+00	 1.025000000000000e+00	-1.173999021552831e+02
 1.887866668874734e-01	 1.020179319722413e+00	 7.917422762670853e+01
 1.695422990818606e-01	 1.023553446971883e+00	 6.563648883241508e+01
 1.503539698648305e-01	 1.026547579868618e+00	 4.978250976242491e+01
 1.312317170537990e-01	 1.029166889493419e+00	 3.185731185344514e+01
 1.121852576529911e-01	 1.031416849754700e+00	 1.210388251213445e+01
 9.322397931584156e-02	 1.033303217683504e+00	-9.237636866277422e+00
 7.435693305594188e-02	 1.034832013663499e+00	-3.193071246612222e+01
 5.559282718040544e-02	 1.036009501676469e+00	-5.574312739674457e+01
 3.694002241448566e-02	 1.036842169639627e+00	-8.044763748781271e+01
 1.840652818174105e-02	 1.037336709906688e+00	-1.058225726694400e+02
 0.000000000000000e+00	 1.037500000000000e+00	-1.316523835113624e+02
 1.910612050395216e-01	 1.032470636830427e+00	 8.328213841649074e+01
 1.715849773800944e-01	 1.035885416214862e+00	 7.086242751198486e+01
 1.521654634732146e-01	 1.038915623001414e+00	 5.543677142151805e+01
 1.328128220738531e-01	 1.041566490573059e+00	 3.723821465111138e+01
 1.135368872585706e-01	 1.043843558788917e+00	 1.650061091534451e+01
 9.434715978505553e-02	 1.045752654041845e+00	-6.542270508047928e+00
 7.525279971525133e-02	 1.047299869250256e+00	-3.165759718175154e+01
 5.626262027562935e-02	 1.048491543865594e+00	-5.861428184854091e+01
 3.738508292306758e-02	 1.049334243972746e+00	-8.718374436705018e+01
 1.862829358019852e-02	 1.049834742556193e+00	-1.171406253750993e+02
 0.000000000000000e+00	 1.050000000000000e+00	-1.482634502685543e+02
 1.933357431920845e-01	 1.044761953938439e+00	 8.747143469706437e+01
 1.736276556789268e-01	 1.048217385457841e+00	 7.585363139479135e+01
 1.539769570822495e-01	 1.051283666134210e+00	 6.055782298687032e+01
 1.343939270945792e-01	 1.053966091652700e+00	 4.180523964002330e+01
 1.148885168648128e-01	 1.056270267823132e+00	 1.982071939437449e+01
 9.547034025489304e-02	 1.058202090400186e+00	-5.168265921614621e+00
 7.614866637511571e-02	 1.059767724837014e+00	-3.293255257565279e+01
 5.693241337131089e-02	 1.060973586054718e+00	-6.324219079468804e+01
 3.783014343198180e-02	 1.061826318305864e+00	-9.586731126789692e+01
 1.885005897883552e-02	 1.062332775205699e+00	-1.305789494313186e+02
 0.000000000000000e+00	 1.062500000000000e+00	-1.671498251494247e+02
 1.956102813451620e-01	 1.057053271046452e+00	 9.173930632388840e+01
 1.756703339783578e-01	 1.060549354700821e+00	 8.061831811563214e+01
 1.557884506919354e-01	 1.063651709267005e+00	 6.516429436018829e+01
 1.359750321159775e-01	 1.066365692732341e+00	 4.558680780405635e+01
 1.162401464717178e-01	 1.068696976857348e+00	 2.210179471298515e+01
 9.659352072535407e-02	 1.070651526758527e+00	-5.069498471094942e+00
 7.704453303553507e-02	 1.072235580423771e+00	-3.570154518823789e+01
 5.760220646745011e-02	 1.073455628243843e+00	-6.956554072743963e+01
 3.827520394122830e-02	 1.074318392638983e+00	-1.064303717784711e+02
 1.907182437765204e-02	 1.074830807855205e+00	-1.460635497338935e+02
 0.000000000000000e+00	 1.075000000000000e+00	-1.882321043969370e+02
 1.978848194987542e-01	 1.069344588154466e+00	 9.608307213299372e+01
 1.777130122783873e-01	 1.072881323943800e+00	 8.516432726842675e+01
 1.575999443022721e-01	 1.076019752399801e+00	 6.927395868110139e+01
 1.375561371380478e-01	 1.078765293811981e+00	 4.861003320484653e+01
 1.175917760792856e-01	 1.081123685891564e+00	 2.337969530287167e+01
 9.771670119643860e-02	 1.083100963116868e+00	-6.201964392379205e+00
 7.794039969650934e-02	 1.084703436010529e+00	-3.991302604885426e+01
 5.827199956404695e-02	 1.085937670432968e+00	-7.752583733516333e+01
 3.872026445080710e-02	 1.086810466972101e+00	-1.188080845552327e+02
 1.929358977664810e-02	 1.087328840504710e+00	-1.635238334190676e+02
 0.000000000000000e+00	 1.087500000000000e+00	-2.114345351583465e+02
 2.001593576528611e-01	 1.081635905262479e+00	 1.005001726132127e+02
 1.797556905790155e-01	 1.085213293186779e+00	 8.949914188644335e+01
 1.594114379132596e-01	 1.088387795532598e+00	 7.290378100741007e+01
 1.391372421607902e-01	 1.091164894891622e+00	 5.090079723926530e+01
 1.189434056875161e-01	 1.093550394925780e+00	 2.368864946482034e+01
 9.883988166814665e-02	 1.095550399475209e+00	-8.523660288649467e+00
 7.883626635803856e-02	 1.097171291597286e+00	-4.551778951131031e+01
 5.894179266110147e-02	 1.098419712622093e+00	-8.706724532049132e+01
 3.916532496071819e-02	 1.099302541305220e+00	-1.329385557621104e+02
 1.951535517582367e-02	 1.099826873154216e+00	-1.828924165543347e+02
 0.000000000000000e+00	 1.100000000000000e+00	-2.366848080474627e+02
 2.024338958074826e-01	 1.093927222370491e+00	 1.049881630724135e+02
 1.817983688802422e-01	 1.097545262429758e+00	 9.362990847442080e+01
 1.612229315248981e-01	 1.100755838665393e+00	 7.606996371351954e+01
 1.407183471842047e-01	 1.103564495971262e+00	 5.248381789077622e+01
 1.202950352964094e-01	 1.105977103959997e+00	 2.306134694956281e+01
 9.996306214047822e-02	 1.107999835833549e+00	-1.199447074979323e+01
 7.973213302012272e-02	 1.109639147184044e+00	-5.246884160610308e+01
 5.961158575861362e-02	 1.110901754811217e+00	-9.813643901724345e+01
 3.961038547096159e-02	 1.111794615638339e+00	-1.487626734800257e+02
 1.973712057517876e-02	 1.112324905803722e+00	-2.041049438613188e+02
 0.000000000000000e+00	 1.112500000000000e+00	-2.639138636914825e+02
 2.047084339626188e-01	 1.106218539478505e+00	 1.095447072593200e+02
 1.838410471820675e-01	 1.109877231672737e+00	 9.756345570521472e+01
 1.630344251371875e-01	 1.113123881798189e+00	 7.878798886231127e+01
 1.422994522082913e-01	 1.115964097050903e+00	 5.338271436403198e+01
 1.216466649059655e-01	 1.118403812994212e+00	 2.152902443323998e+01
 1.010862426134333e-01	 1.120449272191891e+00	-1.657606346385911e+01
 8.062799968276181e-02	 1.122107002770802e+00	-6.072127716916795e+01
 6.028137885658343e-02	 1.123383797000342e+00	-1.106824629662247e+02
 4.005544598153728e-02	 1.124286689971457e+00	-1.662239531557806e+02
 1.995888597471339e-02	 1.124822938453228e+00	-2.270999204571292e+02
 0.000000000000000e+00	 1.125000000000000e+00	-2.930557121746965e+02
 1.125000000000000e+00	 0.000000000000000e+00	 1.759908985946732e+02
 1.124822938453228e+00	 1.995888597471274e-02	 1.511525620721328e+02
 1.124286689971457e+00	 4.005544598153672e-02	 1.248266500826810e+02
 1.123383797000342e+00	 6.028137885658293e-02	 9.726254594954369e+01
 1.122107002770802e+00	 8.062799968276138e-02	 6.872282117589442e+01
 1.120449272191891e+00	 1.010862426134330e-01	 3.948285156077836e+01
 1.118403812994212e+00	 1.216466649059652e-01	 9.830352793262939e+00
 1.115964097050903e+00	 1.422994522082910e-01	-1.993516635536335e+01
 1.113123881798189e+00	 1.630344251371873e-01	-4.950303461895306e+01
 1.109877231672737e+00	 1.838410471820675e-01	-7.855213343005188e+01
 1.106218539478505e+00	 2.047084339626188e-01	-1.067516969493980e+02
 1.137500000000000e+00	 0.000000000000000e+00	 1.575819255698097e+02
 1.137320971102731e+00	 2.018065137442460e-02	 1.363642000240489e+02
 1.136778764304567e+00	 4.050050649243549e-02	 1.137766864519963e+02
 1.135865839189446e+00	 6.095117195498952e-02	 9.002757875875992e+01
 1.134574858357522e+00	 8.152386634591800e-02	 6.533642982595275e+01
 1.132898708550173e+00	 1.022094230869528e-01	 3.993384506915762e+01
 1.130830522028343e+00	 1.229982945160989e-01	 1.406110782443447e+01
 1.128363698130427e+00	 1.438805572329329e-01	-1.203026513742469e+01
 1.125491924930832e+00	 1.648459187499742e-01	-3.807903925097756e+01
 1.122209200915521e+00	 1.858837254842960e-01	-6.381484977180708e+01
 1.118509856586275e+00	 2.069829721180270e-01	-8.895886168863819e+01
 1.150000000000000e+00	 0.000000000000000e+00	 1.425723478840352e+02
 1.149819003752230e+00	 2.040241677431140e-02	 1.244812802149447e+02
 1.149270838637657e+00	 4.094556700364810e-02	 1.051342568023946e+02
 1.148347881378508e+00	 6.162096505381197e-02	 8.469895804242100e+01
 1.147042713944167e+00	 8.241973300955485e-02	 6.335262380961399e+01
 1.145348144908337e+00	 1.033326035609785e-01	 4.128182347362959e+01
 1.143257231062303e+00	 1.243499241267248e-01	 1.868216992456205e+01
 1.140763299209717e+00	 1.454616622580135e-01	-4.242023918253921e+00
 1.137859968063168e+00	 1.666574123631049e-01	-2.727814730250758e+01
 1.134541170157914e+00	 1.879264037867323e-01	-5.020575336091892e+01
 1.130801173693560e+00	 2.092575102734646e-01	-7.279708076246287e+01
 1.162500000000000e+00	 0.000000000000000e+00	 1.308524693481801e+02
 1.162317036401724e+00	 2.062418217437315e-02	 1.154100426007741e+02
 1.161762912970730e+00	 4.139062751517460e-02	 9.882166481770912e+01
 1.160829923567528e+00	 6.229075815305031e-02	 8.121515698764486e+01
 1.159510569530738e+00	 8.331559967367190e-02	 6.272612882710852e+01
 1.157797581266385e+00	 1.044557840355102e-01	 4.349782430527161e+01
 1.155683940096093e+00	 1.257015537378430e-01	 2.368092319191585e+01
 1.153162900288774e+00	 1.470427672835326e-01	 3.433297276116652e+00
 1.150228011195196e+00	 1.684689059765797e-01	-1.708027984115736e+01
 1.146873139399917e+00	 1.899690820893765e-01	-3.768847019337308e+01
 1.143092490800359e+00	 2.115320484289315e-01	-5.821375663535061e+01
 1.175000000000000e+00	 0.000000000000000e+00	 1.223172619734356e+02
 1.174815069051214e+00	 2.084594757460985e-02	 1.090607172117805e+02
 1.174254987303784e+00	 4.183568802701497e-02	 9.476452070011077e+01
 1.173311965756507e+00	 6.296055125270457e-02	 7.951726724201040e+01
 1.171978425117234e+00	 8.421146633826908e-02	 6.341359744806384e+01
 1.170247017624314e+00	 1.055789645105478e-01	 4.655411784846907e+01
 1.168110649129713e+00	 1.270531833494537e-01	 2.904528888297110e+01
 1.165562501367597e+00	 1.486238723094903e-01	 1.099927958577137e+01
 1.162596054326918e+00	 1.702803995903985e-01	-7.466212041508133e+00
 1.159205108641529e+00	 1.920117603922284e-01	-2.622817377856063e+01
 1.155383807906674e+00	 2.138065865844276e-01	-4.515852964823929e+01
 1.187500000000000e+00	 0.000000000000000e+00	 1.168661202766074e+02
 1.187313101700699e+00	 2.106771297502151e-02	 1.053473141484380e+02
 1.186747061636820e+00	 4.228074853916918e-02	 9.289156714252080e+01
 1.185794007945443e+00	 6.363034435277468e-02	 7.954886109938982e+01
 1.184446280703655e+00	 8.510733300334646e-02	 6.537350769671423e+01
 1.182696453982126e+00	 1.067021449860912e-01	 5.042414225840334e+01
 1.180537358163162e+00	 1.284048129615565e-01	 3.476369714001930e+01
 1.177962102446187e+00	 1.502049773358866e-01	 1.845935367554690e+01
 1.174964097458333e+00	 1.720918932045612e-01	 1.582471766714655e+00
 1.171537077882749e+00	 1.940544386952882e-01	-1.579150369250829e+01
 1.167675125012503e+00	 2.160811247399532e-01	-3.358316023698042e+01
 1.200000000000000e+00	 0.000000000000000e+00	 1.144026309412896e+02
 1.199811134350180e+00	 2.128947837560811e-02	 1.041874267026456e+02
 1.199239135969837e+00	 4.272580905163728e-02	 9.313451617774913e+01
 1.198276050134338e+00	 6.430013745326070e-02	 8.125586229916533e+01
 1.196914136290001e+00	 8.600319966890399e-02	 6.856606797553530e+01
 1.195145890339820e+00	 1.078253254621407e-01	 5.508244273369708e+01
 1.192964067196440e+00	 1.297564425741518e-01	 4.082506048580674e+01
 1.190361703524544e+00	 1.517860823627215e-01	 2.581680757125442e+01
 1.187332140589441e+00	 1.739033868190680e-01	 1.008342024097526e+01
 1.183869047123579e+00	 1.960971169985557e-01	-6.346489221531050e+00
 1.179966442117847e+00	 2.183556628955082e-01	-2.344141851213970e+01
 1.212500000000000e+00	 0.000000000000000e+00	 1.148343567268011e+02
 1.212309166999656e+00	 2.151124377636965e-02	 1.055020466569912e+02
 1.211731210302836e+00	 4.317086956441923e-02	 9.542789611943681e+01
 1.210758092323192e+00	 6.496993055416259e-02	 8.458642481724738e+01
 1.209381991876273e+00	 8.689906633494171e-02	 7.295312786989115e+01
 1.207595326697396e+00	 1.089485059386960e-01	 6.050461445157655e+01
 1.205390776229548e+00	 1.311080721872393e-01	 4.721874895767884e+01
 1.202761304602666e+00	 1.533671873899949e-01	 3.307479401118746e+01
 1.199700183720242e+00	 1.757148804339188e-01	 1.805355456152060e+01
 1.196201016364018e+00	 1.981397953020310e-01	 2.137522271043730e+00
 1.192257759222705e+00	 2.206302010510924e-01	-1.468898066891059e+01
 1.225000000000000e+00	 0.000000000000000e+00	 1.180726336071860e+02
 1.224807199649127e+00	 2.173300917730615e-02	 1.092153908922242e+02
 1.224223284635816e+00	 4.361593007751505e-02	 9.970890787396243e+01
 1.223240134512003e+00	 6.563972365548039e-02	 8.949081907805125e+01
 1.221849847462470e+00	 8.779493300145964e-02	 7.849809441362167e+01
 1.220044763054855e+00	 1.100716864157573e-01	 6.666724899679994e+01
 1.217817485262486e+00	 1.324597018008191e-01	 5.393456676412538e+01
 1.215160905680556e+00	 1.549482924177070e-01	 4.023633734753867e+01
 1.212068226850737e+00	 1.775263740491136e-01	 2.550910554642779e+01
 1.208532985604066e+00	 2.001824736057143e-01	 9.689932592442835e+00
 1.204549076327078e+00	 2.229047392067060e-01	-7.283331739277216e+00
 1.237500000000000e+00	 0.000000000000000e+00	 1.240323802048202e+02
 1.237305232298594e+00	 2.195477457841760e-02	 1.152547385033653e+02
 1.236715358968778e+00	 4.406099059092473e-02	 1.059172899607165e+02
 1.235722176700773e+00	 6.630951675721405e-02	 9.592132506271693e+01
 1.234317703048592e+00	 8.869079966845773e-02	 8.516585342944316e+01
 1.232494199412197e+00	 1.111948668933245e-01	 7.354788403731814e+01
 1.230244194295253e+00	 1.338113314148913e-01	 6.096273035608071e+01
 1.227560506758211e+00	 1.565293974458576e-01	 4.730434002954922e+01
 1.224436269980924e+00	 1.793378676646523e-01	 3.246564851725570e+01
 1.220864954843724e+00	 2.022251519096052e-01	 1.633895589240467e+01
 1.216840393430966e+00	 2.251792773623488e-01	-1.183674237983784e+00
 1.250000000000000e+00	 0.000000000000000e+00	 1.326319186580011e+02
 1.249803264948056e+00	 2.217653997970400e-02	 1.235502776888502e+02
 1.249207433301722e+00	 4.450605110464827e-02	 1.139951916311599e+02
 1.248204218889501e+00	 6.697930985936361e-02	 1.038321318308366e+02
 1.246785558634639e+00	 8.958666633593600e-02	 9.292269558892437e+01
 1.244943635769421e+00	 1.123180473713976e-01	 8.112495601939594e+01
 1.242670903327850e+00	 1.351629610294558e-01	 6.829384781394710e+01
 1.239960107835634e+00	 1.581105024744469e-01	 5.428158869767084e+01
 1.236804313110804e+00	 1.811493612805350e-01	 3.893813607275855e+01
 1.233196924082991e+00	 2.042678302137040e-01	 2.211167804482086e+01
 1.229131710534368e+00	 2.274538155180211e-01	 3.649157710255434e+00
 1.106218539478505e+00	 2.047084339626188e-01	-1.067516969493980e+02
 1.102142547591368e+00	 2.256253638614272e-01	-1.081535877341918e+02
 1.097644368907272e+00	 2.465802900510737e-01	-1.087640615196675e+02
 1.092719507434896e+00	 2.675613539221362e-01	-1.086553450693979e+02
 1.087363878431055e+00	 2.885563999111739e-01	-1.079039369926479e+02
 1.081573827976446e+00	 3.095529917259612e-01	-1.065904434575448e+02
 1.075346151886618e+00	 3.305384299522137e-01	-1.047993867804178e+02
 1.068678113852559e+00	 3.514997710187806e-01	-1.026189869274806e+02
 1.061567462705179e+00	 3.724238474895377e-01	-1.001409161836429e+02
 1.054012448698681e+00	 3.932972896413123e-01	-9.746002747092916e+01
 1.046011838709305e+00	 4.141065482781622e-01	-9.467405703356818e+01
 1.118509856586275e+00	 2.069829721180270e-01	-8.895886168863819e+01
 1.114388575900822e+00	 2.281323123490921e-01	-9.118119643114655e+01
 1.109840417453845e+00	 2.493200710519664e-01	-9.267528226703595e+01
 1.104860835298564e+00	 2.705342578549000e-01	-9.349839317582881e+01
 1.099445699305754e+00	 2.917625821326358e-01	-9.371151401621964e+01
 1.093591314957006e+00	 3.129924694119225e-01	-9.337921906634915e+01
 1.087294442465818e+00	 3.342110791738725e-01	-9.256952773694823e+01
 1.080552315119742e+00	 3.554053240298770e-01	-9.135373738207051e+01
 1.073362656736697e+00	 3.765618902389651e-01	-8.980623331181414e+01
 1.065723698129263e+00	 3.976672595254847e-01	-8.800427629961183e+01
 1.057634192472302e+00	 4.187077321468711e-01	-8.602776807157343e+01
 1.130801173693560e+00	 2.092575102734646e-01	-7.279708076246287e+01
 1.126634604209704e+00	 2.306392608366003e-01	-7.567892007973050e+01
 1.122036465999790e+00	 2.520598520525441e-01	-7.789448730930091e+01
 1.117002163161574e+00	 2.735071617872195e-01	-7.948635809550983e+01
 1.111527520179795e+00	 2.949687643535529e-01	-8.050026684639658e+01
 1.105608801936938e+00	 3.164319470972682e-01	-8.098502750738297e+01
 1.099242733044450e+00	 3.378837283948746e-01	-8.099243574465336e+01
 1.092426516386447e+00	 3.593108770403062e-01	-8.057715235284041e+01
 1.085157850767857e+00	 3.806999329877463e-01	-7.979656784289217e+01
 1.077434947559639e+00	 4.020372294090629e-01	-7.871064831516841e+01
 1.069256546235278e+00	 4.233089160150696e-01	-7.738176287856777e+01
 1.143092490800359e+00	 2.115320484289315e-01	-5.821375663535061e+01
 1.138880632518016e+00	 2.331462093239517e-01	-6.159935076066625e+01
 1.134232514545106e+00	 2.547996330528071e-01	-6.437949681034465e+01
 1.129143491023926e+00	 2.764800657190944e-01	-6.658231833735405e+01
 1.123609341053178e+00	 2.981749465739247e-01	-6.823855410826852e+01
 1.117626288916241e+00	 3.198714247819978e-01	-6.938152053579046e+01
 1.111191023622513e+00	 3.415563776152200e-01	-7.004705969986793e+01
 1.104300717652674e+00	 3.632164300500684e-01	-7.027347266319950e+01
 1.096953044798661e+00	 3.848379757358811e-01	-7.010143789026878e+01
 1.089146196989810e+00	 4.064071992920468e-01	-6.957391468972313e+01
 1.080878899998233e+00	 4.279100998827580e-01	-6.873603171701981e+01
 1.155383807906674e+00	 2.138065865844276e-01	-4.515852964823929e+01
 1.151126660825756e+00	 2.356531578111465e-01	-4.889709759722287e+01
 1.146428563089792e+00	 2.575394140527553e-01	-5.208992550664738e+01
 1.141284818885619e+00	 2.794529696505251e-01	-5.475092322602853e+01
 1.135691161925902e+00	 3.013811287937518e-01	-5.689608056023268e+01
 1.129643775894916e+00	 3.233109024661115e-01	-5.854347080460719e+01
 1.123139314200007e+00	 3.452290268349085e-01	-5.971324399151003e+01
 1.116174918918422e+00	 3.671219830591637e-01	-6.042760944648261e+01
 1.108748238829107e+00	 3.889760184833697e-01	-6.071080731820796e+01
 1.100857446419777e+00	 4.107771691744366e-01	-6.058906881906097e+01
 1.092501253761168e+00	 4.325112837499361e-01	-6.009056499200665e+01
 1.167675125012503e+00	 2.160811247399532e-01	-3.358316023698042e+01
 1.163372689132924e+00	 2.381601062981845e-01	-3.752868059662680e+01
 1.158624611633849e+00	 2.602791950523886e-01	-4.098708825775439e+01
 1.153426146746654e+00	 2.824258735815113e-01	-4.395831022920070e+01
 1.147772982797968e+00	 3.045873110130340e-01	-4.644382624672797e+01
 1.141661262872963e+00	 3.267503801496095e-01	-4.844671287207768e+01
 1.135087604776933e+00	 3.489016760539403e-01	-4.997168137191502e+01
 1.128049120183692e+00	 3.710275360675916e-01	-5.102510886857338e+01
 1.120543432859196e+00	 3.931140612302118e-01	-5.161506228342861e+01
 1.112568695849540e+00	 4.151471390562321e-01	-5.175131462885190e+01
 1.104123607524082e+00	 4.371124676166038e-01	-5.144535324595758e+01
 1.179966442117847e+00	 2.183556628955082e-01	-2.344141851213970e+01
 1.175618717439522e+00	 2.406670547850658e-01	-2.745243112638208e+01
 1.170820660177278e+00	 2.630189760517072e-01	-3.103391149983594e+01
 1.165567474607031e+00	 2.853987775120529e-01	-3.417202745182940e+01
 1.159854803669377e+00	 3.077934932317711e-01	-3.685398007892010e+01
 1.153678749850381e+00	 3.301898578324914e-01	-3.906808789601288e+01
 1.147035895353290e+00	 3.525743252723154e-01	-4.080386877323927e+01
 1.139923321448485e+00	 3.749330890753527e-01	-4.205211905535999e+01
 1.132338626888928e+00	 3.972521039764076e-01	-4.280498924283366e+01
 1.124279945279097e+00	 4.195171089374333e-01	-4.305605561173190e+01
 1.115745961286976e+00	 4.417136514827613e-01	-4.280038715372078e+01
 1.192257759222705e+00	 2.206302010510924e-01	-1.468898066891059e+01
 1.187864745745548e+00	 2.431740032717905e-01	-1.862839854669339e+01
 1.183016708720077e+00	 2.657587570507109e-01	-2.219485017634460e+01
 1.177708802466750e+00	 2.883716814421504e-01	-2.536096092462036e+01
 1.171936624540126e+00	 3.109996754499633e-01	-2.809987752379547e+01
 1.165696236827171e+00	 3.336293355147576e-01	-3.038539174911089e+01
 1.158984185929078e+00	 3.562469744900338e-01	-3.219206585686573e+01
 1.151797522712798e+00	 3.788386420824467e-01	-3.349535906591083e+01
 1.144133820918304e+00	 4.013901467219569e-01	-3.427175432158093e+01
 1.135991194708451e+00	 4.238870788180404e-01	-3.449888454249704e+01
 1.127368315049849e+00	 4.463148353484084e-01	-3.415565751793019e+01
 1.204549076327078e+00	 2.229047392067060e-01	-7.283331739277216e+00
 1.200110774051002e+00	 2.456809517583584e-01	-1.101826255926885e+01
 1.195212757262247e+00	 2.684985380493998e-01	-1.443580975454844e+01
 1.189850130325810e+00	 2.913445853718033e-01	-1.749526634420705e+01
 1.184018445410218e+00	 3.142058576676106e-01	-2.015594210820548e+01
 1.177713723803332e+00	 3.370688131964078e-01	-2.237732631088820e+01
 1.170932476504299e+00	 3.599196237070955e-01	-2.411925610059714e+01
 1.163671723976633e+00	 3.827441950888736e-01	-2.534208976524762e+01
 1.155929014947322e+00	 4.055281894668601e-01	-2.600688394432945e+01
 1.147702444137599e+00	 4.282570486980532e-01	-2.607557382297553e+01
 1.138990668812702e+00	 4.509160192135453e-01	-2.551115526465074e+01
 1.216840393430966e+00	 2.251792773623488e-01	-1.183674237983784e+00
 1.212356802355885e+00	 2.481879002447696e-01	-4.585250868315043e+00
 1.207408805803788e+00	 2.712383190477738e-01	-7.724072968332617e+00
 1.201991458184212e+00	 2.943174893010117e-01	-1.054630495028699e+01
 1.196100266279652e+00	 3.174120398847128e-01	-1.299763046811694e+01
 1.189731210778864e+00	 3.405082908774421e-01	-1.502345371161129e+01
 1.182880767078950e+00	 3.635922729235002e-01	-1.656911024419779e+01
 1.175545925239990e+00	 3.866497480946335e-01	-1.758008646240086e+01
 1.167724208975982e+00	 4.096662322111168e-01	-1.800224664034477e+01
 1.159413693566543e+00	 4.326270185774718e-01	-1.778206641205372e+01
 1.150613022575534e+00	 4.555172030781720e-01	-1.686687143928290e+01
 1.229131710534368e+00	 2.274538155180211e-01	 3.649157710255434e+00
 1.224602830660197e+00	 2.506948487310240e-01	 7.059382181293330e-01
 1.219604854344699e+00	 2.739781000458331e-01	-2.028230956431113e+00
 1.214132786041956e+00	 2.972903932297759e-01	-4.486583250128060e+00
 1.208182087148427e+00	 3.206182221012702e-01	-6.601380694904847e+00
 1.201748697753769e+00	 3.439477685578606e-01	-8.304153321589357e+00
 1.194829057653032e+00	 3.672649221392482e-01	-9.525951928199031e+00
 1.187420126502869e+00	 3.905553010997262e-01	-1.019761319017834e+01
 1.179519403004286e+00	 4.138042749547273e-01	-1.025003594029418e+01
 1.171124942995283e+00	 4.369969884562962e-01	-9.614467299896500e+00
 1.162235376338345e+00	 4.601183869422883e-01	-8.222797202707429e+00
 1.046011838709305e+00	 4.141065482781622e-01	-9.467405703356818e+01
 1.037564930248593e+00	 4.348379187240830e-01	-9.978112366500362e+01
 1.028671564192235e+00	 4.554775659241303e-01	-1.045361758571701e+02
 1.019332136131226e+00	 4.760115505788748e-01	-1.089012674140112e+02
 1.009547606256940e+00	 4.964258562287497e-01	-1.128388392606092e+02
 9.993195076959104e-01	 5.167064171925492e-01	-1.163118782185670e+02
 9.886499532180107e-01	 5.368391472596017e-01	-1.192840773312933e+02
 9.775416402487633e-01	 5.568099690270316e-01	-1.217199967395298e+02
 9.659978541247000e-01	 5.766048437667730e-01	-1.235852240709305e+02
 9.540224695395332e-01	 5.962098017009265e-01	-1.248465332801881e+02
 9.416199501384250e-01	 6.156109725587411e-01	-1.254720408587410e+02
 1.057634192472302e+00	 4.187077321468711e-01	-8.602776807157343e+01
 1.049093429472079e+00	 4.396694511529656e-01	-9.078988166424844e+01
 1.040101248236386e+00	 4.605384277660148e-01	-9.523549759326077e+01
 1.030658048751678e+00	 4.813005678054846e-01	-9.933061398388030e+01
 1.020764801878120e+00	 5.019416990733694e-01	-1.030415705549088e+02
 1.010423057776990e+00	 5.224475996031163e-01	-1.063351904568898e+02
 9.996349526933814e-01	 5.428040266706026e-01	-1.091789235246614e+02
 9.884032140242147e-01	 5.629967464573652e-01	-1.115409900527256e+02
 9.767311636097610e-01	 5.830115642494709e-01	-1.133905241690499e+02
 9.646227191958864e-01	 6.028343550492662e-01	-1.146977158582495e+02
 9.520823940238123e-01	 6.224510944718811e-01	-1.154339506692248e+02
 1.069256546235278e+00	 4.233089160150696e-01	-7.738176287856777e+01
 1.060621928695730e+00	 4.445009835814379e-01	-8.183254395610214e+01
 1.051530932280860e+00	 4.655992896075891e-01	-8.600175073798452e+01
 1.041983961372580e+00	 4.865895850318852e-01	-8.985925839889057e+01
 1.031981997499850e+00	 5.074575419178803e-01	-9.337523864439427e+01
 1.021526607858687e+00	 5.281887820136757e-01	-9.652028485506443e+01
 1.010619952169409e+00	 5.487689060816964e-01	-9.926553851200303e+01
 9.992647878003310e-01	 5.691835238878922e-01	-1.015828161189840e+02
 9.874644730954648e-01	 5.894182847324629e-01	-1.034447358071065e+02
 9.752229688528294e-01	 6.094589083980005e-01	-1.048248427858244e+02
 9.625448379097046e-01	 6.292912163855157e-01	-1.056977327898974e+02
 1.080878899998233e+00	 4.279100998827580e-01	-6.873603171701981e+01
 1.072150427919546e+00	 4.493325160095001e-01	-7.290801479272135e+01
 1.062960616325657e+00	 4.706601514488539e-01	-7.683277273520665e+01
 1.053309873993932e+00	 4.918786022580766e-01	-8.048399266757838e+01
 1.043199193122128e+00	 5.129733847622828e-01	-8.383561363093160e+01
 1.032630157941003e+00	 5.339299644242272e-01	-8.686193526955562e+01
 1.021604951646094e+00	 5.547337854928831e-01	-8.953772766724688e+01
 1.010126361577113e+00	 5.753703013186130e-01	-9.183834165518098e+01
 9.981977825818115e-01	 5.958250052157493e-01	-9.373981888609470e+01
 9.858232185103620e-01	 6.160834617471294e-01	-9.521900095006305e+01
 9.730072817961023e-01	 6.361313382996451e-01	-9.625363679436305e+01
 1.092501253761168e+00	 4.325112837499361e-01	-6.009056499200665e+01
 1.083678927143527e+00	 4.541640484371521e-01	-6.401524479064079e+01
 1.074390300370775e+00	 4.757210132898089e-01	-6.772649279846665e+01
 1.064635786615735e+00	 4.971676194840585e-01	-7.120174506456399e+01
 1.054416388744956e+00	 5.184892276065766e-01	-7.441864537822906e+01
 1.043733708023937e+00	 5.396711468347709e-01	-7.735513772298981e+01
 1.032589951123436e+00	 5.606986649041628e-01	-7.998955975389788e+01
 1.020987935354560e+00	 5.815570787495272e-01	-8.230073672246893e+01
 1.008931092068801e+00	 6.022317256993295e-01	-8.426807525145850e+01
 9.964234681684848e-01	 6.227080150966529e-01	-8.587165634472878e+01
 9.834697256830054e-01	 6.429714602142690e-01	-8.709232700617559e+01
 1.104123607524082e+00	 4.371124676166038e-01	-5.144535324595758e+01
 1.095207426367674e+00	 4.589955808643940e-01	-5.515322849282442e+01
 1.085819984416216e+00	 4.807818751304540e-01	-5.868092708330104e+01
 1.075961699237989e+00	 5.024566367098313e-01	-6.200957296097264e+01
 1.065633584368334e+00	 5.240050704507618e-01	-6.512045405301048e+01
 1.054837258107488e+00	 5.454123292453066e-01	-6.799509871351732e+01
 1.043574950601434e+00	 5.666635443155353e-01	-7.061535306473128e+01
 1.031849509132672e+00	 5.877438561806352e-01	-7.296345876306853e+01
 1.019664401556434e+00	 6.086384461832040e-01	-7.502213069826219e+01
 1.007023717827197e+00	 6.293325684465709e-01	-7.677463411942382e+01
 9.939321695704136e-01	 6.498115821293877e-01	-7.820486067204962e+01
 1.115745961286976e+00	 4.417136514827613e-01	-4.280038715372078e+01
 1.106735925591986e+00	 4.638271132912256e-01	-4.632100208308399e+01
 1.097249668461980e+00	 4.858427369707892e-01	-4.969417416128982e+01
 1.087287611860693e+00	 5.077456539353947e-01	-5.290465610294662e+01
 1.076850779992260e+00	 5.295209132948384e-01	-5.593732125735988e+01
 1.065940808191658e+00	 5.511535116558346e-01	-5.877722425483310e+01
 1.054559950080090e+00	 5.726284237270007e-01	-6.140966242774992e+01
 1.042711082911450e+00	 5.939306336119368e-01	-6.382023763475399e+01
 1.030397711044709e+00	 6.150451666673727e-01	-6.599491810103072e+01
 1.017623967486499e+00	 6.359571217968834e-01	-6.792009987573225e+01
 1.004394613458327e+00	 6.566517040450012e-01	-6.958266749923919e+01
 1.127368315049849e+00	 4.463148353484084e-01	-3.415565751793019e+01
 1.118264424816463e+00	 4.686586457176470e-01	-3.751764124186754e+01
 1.108679352508066e+00	 4.909035988108147e-01	-4.076441077405372e+01
 1.098613524483847e+00	 5.130346711607490e-01	-4.388429030591477e+01
 1.088067975616736e+00	 5.350367561388065e-01	-4.686568170957460e+01
 1.077044358276446e+00	 5.568946940663547e-01	-4.969710959412798e+01
 1.065544949559402e+00	 5.785933031385589e-01	-5.236726701588957e+01
 1.053572656690893e+00	 6.001174110434317e-01	-5.486506157103383e+01
 1.041131020533627e+00	 6.214518871518355e-01	-5.717966158709920e+01
 1.028224217146390e+00	 6.425816751475903e-01	-5.930054212029487e+01
 1.014857057346746e+00	 6.634918259611092e-01	-6.121753045863852e+01
 1.138990668812702e+00	 4.509160192135453e-01	-2.551115526465074e+01
 1.129792924041105e+00	 4.734901781436583e-01	-2.874225913332128e+01
 1.120109036554474e+00	 4.959644606505302e-01	-3.188988784720470e+01
 1.109939437107452e+00	 5.183236883858939e-01	-3.494588153492062e+01
 1.099285171241760e+00	 5.405525989826659e-01	-3.790211543434744e+01
 1.088147908361853e+00	 5.626358764768669e-01	-4.075052955954709e+01
 1.076529949039371e+00	 5.845581825502102e-01	-4.348315890306252e+01
 1.064434230471001e+00	 6.063041884751205e-01	-4.609216400090551e+01
 1.051864330023189e+00	 6.278586076365928e-01	-4.856986167893370e+01
 1.038824466806871e+00	 6.492062284986921e-01	-5.090875579217978e+01
 1.025319501235670e+00	 6.703319478777121e-01	-5.310156776319672e+01
 1.150613022575534e+00	 4.555172030781720e-01	-1.686687143928290e+01
 1.141321423265912e+00	 4.783217105692595e-01	-1.999400451434185e+01
 1.131538720601204e+00	 5.010253224899361e-01	-2.306892674586981e+01
 1.121265349731507e+00	 5.236127056108295e-01	-2.608694034371283e+01
 1.110502366867334e+00	 5.460684418264167e-01	-2.904334042626531e+01
 1.099251458447877e+00	 5.683770588873712e-01	-3.193342949264397e+01
 1.087514948519997e+00	 5.905230619619543e-01	-3.475253231376829e+01
 1.075295804251774e+00	 6.124909659070027e-01	-3.749601116740671e+01
 1.062597639513394e+00	 6.342653281216439e-01	-4.015928133691107e+01
 1.049424716467942e+00	 6.558307818501883e-01	-4.273782678858672e+01
 1.035781945125100e+00	 6.771720697948095e-01	-4.522721593854315e+01
 1.162235376338345e+00	 4.601183869422883e-01	-8.222797202707429e+00
 1.152849922490885e+00	 4.831532429944503e-01	-1.127205995708093e+01
 1.142968404648257e+00	 5.060861843290319e-01	-1.429991575487798e+01
 1.132591262356013e+00	 5.289017228355558e-01	-1.730507664748423e+01
 1.121719562493458e+00	 5.515842846700590e-01	-2.028620575349200e+01
 1.110355008534519e+00	 5.741182412978676e-01	-2.324191672488212e+01
 1.098499948001281e+00	 5.964879413737912e-01	-2.617077351772050e+01
 1.086157378033213e+00	 6.186777433390787e-01	-2.907129048904673e+01
 1.073330949004241e+00	 6.406720486069893e-01	-3.194193283952543e+01
 1.060024966129602e+00	 6.624553352020790e-01	-3.478111741900325e+01
 1.046244389015035e+00	 6.840121917124017e-01	-3.758721390936827e+01
 9.416199501384250e-01	 6.156109725587411e-01	-1.254720408587410e+02
 9.287953462274744e-01	 6.347946162837050e-01	-1.198937086445664e+02
 9.155542905770797e-01	 6.537471537568762e-01	-1.146413189834841e+02
 9.019029923075504e-01	 6.724551973985354e-01	-1.097669922211126e+02
 8.878482288567273e-01	 6.909055815084219e-01	-1.053216852291715e+02
 8.733973360420002e-01	 7.090853922058951e-01	-1.013549665919822e+02
 8.585581962397351e-01	 7.269819968306050e-01	-9.791479695349867e+01
 8.433392247169470e-01	 7.445830726661317e-01	-9.504731605657098e+01
 8.277493541614975e-01	 7.618766348516912e-01	-9.279663796743790e+01
 8.117980174683143e-01	 7.788510633507310e-01	-9.120465592397855e+01
 7.954951288500001e-01	 7.954951288500001e-01	-9.031085817648433e+01
 9.520823940238123e-01	 6.224510944718811e-01	-1.154339506692248e+02
 9.391152945140595e-01	 6.418478897935279e-01	-1.105870491989623e+02
 9.257271160232740e-01	 6.610110110161846e-01	-1.060138917812394e+02
 9.119241366619902e-01	 6.799269218092460e-01	-1.017616728006813e+02
 8.977132091729143e-01	 6.985823101868938e-01	-9.787660727472880e+01
 8.831017508825175e-01	 7.169641187809249e-01	-9.440372754347419e+01
 8.680977317491259e-01	 7.350595745680968e-01	-9.138668424519997e+01
 8.527096605427205e-01	 7.528562179129182e-01	-8.886755296125011e+01
 8.369465692032501e-01	 7.703419307894854e-01	-8.688664788203315e+01
 8.208179954355866e-01	 7.875049640497287e-01	-8.548234379988128e+01
 8.043339636102501e-01	 8.043339636102501e-01	-8.469090767456466e+01
 9.625448379097046e-01	 6.292912163855157e-01	-1.056977327898974e+02
 9.494352428010591e-01	 6.489011633039358e-01	-1.015406608211816e+02
 9.358999414698121e-01	 6.682748682761483e-01	-9.760644576568251e+01
 9.219452810167237e-01	 6.873986462206629e-01	-9.393744004932425e+01
 9.075781894893646e-01	 7.062590388661032e-01	-9.057519793140952e+01
 8.928061657232872e-01	 7.248428453567026e-01	-8.756029338169371e+01
 8.776372672587778e-01	 7.431371523063274e-01	-8.493214138059417e+01
 8.620800963687846e-01	 7.611293631604144e-01	-8.272882388014173e+01
 8.461437842453429e-01	 7.788072267279392e-01	-8.098692163823208e+01
 8.298379734032688e-01	 7.961588647493163e-01	-7.974135310094566e+01
 8.131727983709998e-01	 8.131727983709998e-01	-7.902522145748748e+01
 9.730072817961023e-01	 6.361313382996451e-01	-9.625363679436305e+01
 9.597551910884740e-01	 6.559544368149283e-01	-9.274613419158129e+01
 9.460727669166951e-01	 6.755387255367674e-01	-8.941187047964770e+01
 9.319664253717509e-01	 6.948703706327861e-01	-8.628843741685077e+01
 9.174431698060769e-01	 7.139357675460493e-01	-8.341280698281787e+01
 9.025105805643084e-01	 7.327215719332285e-01	-8.082117013694058e+01
 8.871768027686909e-01	 7.512147300452967e-01	-7.854877814922924e+01
 8.714505321951391e-01	 7.694025084086192e-01	-7.662978759717066e+01
 8.553409992877762e-01	 7.872725226670531e-01	-7.509711010379743e+01
 8.388579513713611e-01	 8.048127654494942e-01	-7.398226786256555e+01
 8.220116331322499e-01	 8.220116331322499e-01	-7.331525595400997e+01
 9.834697256830054e-01	 6.429714602142690e-01	-8.709232700617559e+01
 9.700751393763041e-01	 6.630077103265059e-01	-8.419541768536652e+01
 9.562455923639225e-01	 6.828025827980423e-01	-8.142335790359506e+01
 9.419875697270718e-01	 7.023420950456155e-01	-7.880905744668203e+01
 9.273081501230523e-01	 7.216124962267327e-01	-7.638498198671347e+01
 9.122149954055820e-01	 7.406002985105027e-01	-7.418301242570189e+01
 8.967163382788652e-01	 7.592923077850046e-01	-7.223430597246119e+01
 8.808209680217846e-01	 7.776756536575339e-01	-7.056915990415010e+01
 8.645382143305497e-01	 7.957378186068262e-01	-6.921687895218207e+01
 8.478779293398637e-01	 8.134666661502616e-01	-6.820564723065469e+01
 8.308504678940001e-01	 8.308504678940001e-01	-6.756240559429421e+01
 9.939321695704136e-01	 6.498115821293877e-01	-7.820486067204962e+01
 9.803950876645493e-01	 6.700609838386684e-01	-7.588079854864419e+01
 9.664184178114943e-01	 6.900664400599723e-01	-7.363438653987373e+01
 9.520087140826864e-01	 7.098138194591513e-01	-7.149392866762159e+01
 9.371731304402908e-01	 7.292892249081534e-01	-6.948745786772491e+01
 9.219194102471076e-01	 7.484790250885244e-01	-6.764261563212096e+01
 9.062558737893012e-01	 7.673698855254514e-01	-6.598653255611573e+01
 8.901914038487204e-01	 7.859487989071573e-01	-6.454571060197436e+01
 8.737354293736630e-01	 8.042031145472591e-01	-6.334590788479026e+01
 8.568979073087760e-01	 8.221205668516193e-01	-6.241202677302469e+01
 8.396893026562502e-01	 8.396893026562502e-01	-6.176800607428783e+01
 1.004394613458327e+00	 6.566517040450012e-01	-6.958266749923919e+01
 9.907150359532092e-01	 6.771142573514157e-01	-6.779488525096545e+01
 9.765912432594107e-01	 6.973302973225582e-01	-6.603870649171080e+01
 9.620298584385946e-01	 7.172855438733935e-01	-6.433790330488225e+01
 9.470381107577920e-01	 7.369659535903109e-01	-6.271614716051408e+01
 9.316238250888850e-01	 7.563577516672941e-01	-6.119690857811900e+01
 9.157954092999983e-01	 7.754474632666368e-01	-5.980335687735312e+01
 8.995618396759473e-01	 7.942219441574904e-01	-5.855826068923218e+01
 8.829326444171172e-01	 8.126684104883521e-01	-5.748388990184226e+01
 8.659178852780987e-01	 8.307744675535668e-01	-5.660191970879394e+01
 8.485281374190000e-01	 8.485281374190000e-01	-5.593333741607611e+01
 1.014857057346746e+00	 6.634918259611092e-01	-6.121753045863852e+01
 1.001034984242285e+00	 6.841675308647481e-01	-5.993059092945801e+01
 9.867640687076716e-01	 7.045941545857993e-01	-5.863032546514343e+01
 9.720510027947967e-01	 7.247572682883416e-01	-5.733604575125007e+01
 9.569030910755562e-01	 7.446426822732061e-01	-5.606713085644801e+01
 9.413282399309146e-01	 7.642364782468121e-01	-5.484294664690508e+01
 9.253349448109566e-01	 7.835250410085610e-01	-5.368276448161669e+01
 9.089322755034644e-01	 8.024950894085326e-01	-5.260567972471348e+01
 8.921298594609115e-01	 8.211337064301045e-01	-5.163053061833399e+01
 8.749378632478313e-01	 8.394283682561041e-01	-5.077581806174823e+01
 8.573669721822499e-01	 8.573669721822500e-01	-5.005962683892936e+01
 1.025319501235670e+00	 6.703319478777121e-01	-5.310156776319672e+01
 1.011354932531775e+00	 6.912208043786654e-01	-5.228111784657492e+01
 9.969368941562768e-01	 7.118580118496960e-01	-5.140349562796853e+01
 9.820721471512923e-01	 7.322289927039963e-01	-5.048362174408758e+01
 9.667680713935828e-01	 7.523194109568380e-01	-4.953664981067353e+01
 9.510326547731961e-01	 7.721152048270781e-01	-4.857790532748869e+01
 9.348744803221760e-01	 7.916026187512237e-01	-4.762282306751857e+01
 9.183027113312726e-01	 8.107682346602844e-01	-4.668688335139055e+01
 9.013270745050462e-01	 8.295990023725169e-01	-4.578554762187216e+01
 8.839578412179739e-01	 8.480822689592314e-01	-4.493419374307995e+01
 8.662058069460000e-01	 8.662058069460000e-01	-4.414805145456639e+01
 1.035781945125100e+00	 6.771720697948095e-01	-4.522721593854315e+01
 1.021674880821681e+00	 6.982740778931678e-01	-4.483994278979262e+01
 1.007109719605227e+00	 7.191218691142480e-01	-4.435270126511368e+01
 9.920932915080820e-01	 7.397007171203575e-01	-4.377608819827165e+01
 9.766330517118729e-01	 7.599961396412075e-01	-4.312109666996756e+01
 9.607370696157297e-01	 7.799939314080919e-01	-4.239907415042933e+01
 9.444140158336568e-01	 7.996801964946254e-01	-4.162167833930073e+01
 9.276731471593713e-01	 8.190413799127453e-01	-4.080083097045486e+01
 9.105242895495208e-01	 8.380642983155886e-01	-3.994866986942245e+01
 8.929778191885266e-01	 8.567361696629487e-01	-3.907749956850347e+01
 8.750446417102501e-01	 8.750446417102501e-01	-3.819974079906502e+01
 1.046244389015035e+00	 6.840121917124017e-01	-3.758721390936827e+01
 1.031994829112001e+00	 7.053273514082546e-01	-3.760080334731974e+01
 1.017282545054521e+00	 7.263857263794559e-01	-3.747264717467805e+01
 1.002114435865165e+00	 7.471724415374245e-01	-3.720908364914656e+01
 9.864980320304253e-01	 7.676728683263137e-01	-3.681700828491181e+01
 9.704414844585151e-01	 7.878726579898537e-01	-3.630385098743290e+01
 9.539535513453987e-01	 8.077577742387658e-01	-3.567755010814457e+01
 9.370435829877606e-01	 8.273145251659155e-01	-3.494652355490636e+01
 9.197215045943361e-01	 8.465295942593203e-01	-3.411963712024767e+01
 9.019977971594894e-01	 8.653900703672559e-01	-3.320617021433743e+01
 8.838834764750000e-01	 8.838834764750000e-01	-3.221577921285233e+01
 7.954951288500001e-01	 7.954951288500001e-01	-9.031085817648433e+01
 7.788510633507308e-01	 8.117980174683144e-01	-8.778379265084197e+01
 7.618766348516911e-01	 8.277493541614976e-01	-8.469260811799296e+01
 7.445830726661320e-01	 8.433392247169471e-01	-8.103882103286806e+01
 7.269819968306053e-01	 8.585581962397351e-01	-7.682626247431458e+01
 7.090853922058953e-01	 8.733973360420000e-01	-7.206105865218800e+01
 6.909055815084221e-01	 8.878482288567272e-01	-6.675159906721321e+01
 6.724551973985359e-01	 9.019029923075501e-01	-6.090849260157162e+01
 6.537471537568769e-01	 9.155542905770793e-01	-5.454451191751834e+01
 6.347946162837055e-01	 9.287953462274742e-01	-4.767452663593367e+01
 6.156109725587411e-01	 9.416199501384250e-01	-4.031542585544355e+01
 8.043339636102501e-01	 8.043339636102501e-01	-8.469090767456466e+01
 7.875049640497286e-01	 8.208179954355866e-01	-8.195894411719563e+01
 7.703419307894857e-01	 8.369465692032504e-01	-7.876653102537966e+01
 7.528562179129183e-01	 8.527096605427203e-01	-7.511597959172259e+01
 7.350595745680969e-01	 8.680977317491256e-01	-7.101153162455194e+01
 7.169641187809250e-01	 8.831017508825173e-01	-6.645933963732357e+01
 6.985823101868941e-01	 8.977132091729141e-01	-6.146743662269274e+01
 6.799269218092464e-01	 9.119241366619899e-01	-5.604569576611189e+01
 6.610110110161852e-01	 9.257271160232733e-01	-5.020578043666787e+01
 6.418478897935284e-01	 9.391152945140590e-01	-4.396108487152711e+01
 6.224510944718810e-01	 9.520823940238121e-01	-3.732666604389830e+01
 8.131727983709998e-01	 8.131727983709998e-01	-7.902522145748748e+01
 7.961588647493163e-01	 8.298379734032689e-01	-7.609764540845944e+01
 7.788072267279395e-01	 8.461437842453429e-01	-7.281106354934025e+01
 7.611293631604142e-01	 8.620800963687844e-01	-6.916857025504996e+01
 7.431371523063276e-01	 8.776372672587778e-01	-6.517481227777742e+01
 7.248428453567030e-01	 8.928061657232867e-01	-6.083596842155126e+01
 7.062590388661033e-01	 9.075781894893641e-01	-5.615972090561608e+01
 6.873986462206633e-01	 9.219452810167234e-01	-5.115521864870795e+01
 6.682748682761487e-01	 9.358999414698115e-01	-4.583303277288196e+01
 6.489011633039364e-01	 9.494352428010588e-01	-4.020510468847024e+01
 6.292912163855158e-01	 9.625448379097047e-01	-3.428468718029439e+01
 8.220116331322499e-01	 8.220116331322499e-01	-7.331525595400997e+01
 8.048127654494940e-01	 8.388579513713611e-01	-7.020105304063921e+01
 7.872725226670528e-01	 8.553409992877761e-01	-6.682713412713331e+01
 7.694025084086196e-01	 8.714505321951391e-01	-6.319736558530221e+01
 7.512147300452968e-01	 8.871768027686908e-01	-5.931679350934932e+01
 7.327215719332288e-01	 9.025105805643083e-01	-5.519162297837855e+01
 7.139357675460497e-01	 9.174431698060764e-01	-5.082919098499379e+01
 6.948703706327866e-01	 9.319664253717506e-01	-4.623793323962278e+01
 6.755387255367677e-01	 9.460727669166946e-01	-4.142734511067827e+01
 6.559544368149288e-01	 9.597551910884736e-01	-3.640793700806255e+01
 6.361313382996451e-01	 9.730072817961023e-01	-3.119118456126678e+01
 8.308504678940001e-01	 8.308504678940001e-01	-6.756240559429421e+01
 8.134666661502615e-01	 8.478779293398638e-01	-6.427027430727350e+01
 7.957378186068262e-01	 8.645382143305497e-01	-6.081563169274676e+01
 7.776756536575337e-01	 8.808209680217844e-01	-5.720310528814743e+01
 7.592923077850048e-01	 8.967163382788653e-01	-5.343813510376022e+01
 7.406002985105028e-01	 9.122149954055819e-01	-4.952695247586608e+01
 7.216124962267330e-01	 9.273081501230521e-01	-4.547655453726871e+01
 7.023420950456158e-01	 9.419875697270713e-01	-4.129467449266973e+01
 6.828025827980426e-01	 9.562455923639220e-01	-3.698974792097026e+01
 6.630077103265065e-01	 9.700751393763041e-01	-3.257087535862552e+01
 6.429714602142689e-01	 9.834697256830051e-01	-2.804778144731501e+01
 8.396893026562502e-01	 8.396893026562502e-01	-6.176800607428783e+01
 8.221205668516191e-01	 8.568979073087760e-01	-5.830636987127613e+01
 8.042031145472591e-01	 8.737354293736630e-01	-5.477740775709344e+01
 7.859487989071573e-01	 8.901914038487202e-01	-5.118649794273736e+01
 7.673698855254515e-01	 9.062558737893011e-01	-4.753946909711074e+01
 7.484790250885247e-01	 9.219194102471072e-01	-4.384257879343930e+01
 7.292892249081535e-01	 9.371731304402904e-01	-4.010248949917859e+01
 7.098138194591518e-01	 9.520087140826861e-01	-3.632624227501071e+01
 6.900664400599729e-01	 9.664184178114940e-01	-3.252122836744883e+01
 6.700609838386691e-01	 9.803950876645489e-01	-2.869515889648027e+01
 6.498115821293877e-01	 9.939321695704137e-01	-2.485603285437033e+01
 8.485281374190000e-01	 8.485281374190000e-01	-5.593333741607611e+01
 8.307744675535665e-01	 8.659178852780989e-01	-5.231035619478553e+01
 8.126684104883521e-01	 8.829326444171173e-01	-4.871327835818926e+01
 7.942219441574904e-01	 8.995618396759469e-01	-4.514822262382755e+01
 7.754474632666368e-01	 9.157954092999980e-01	-4.162140122317466e+01
 7.563577516672944e-01	 9.316238250888849e-01	-3.813909794389551e+01
 7.369659535903115e-01	 9.470381107577917e-01	-3.470764561731288e+01
 7.172855438733938e-01	 9.620298584385945e-01	-3.133340319508899e+01
 6.973302973225586e-01	 9.765912432594104e-01	-2.802273256256201e+01
 6.771142573514164e-01	 9.907150359532090e-01	-2.478197523811387e+01
 6.566517040450012e-01	 1.004394613458327e+00	-2.161742910838791e+01
 8.573669721822499e-01	 8.573669721822500e-01	-5.005962683892936e+01
 8.394283682561042e-01	 8.749378632478314e-01	-4.628320781870810e+01
 8.211337064301045e-01	 8.921298594609115e-01	-4.262402589069774e+01
 8.024950894085328e-01	 9.089322755034644e-01	-3.908893042355834e+01
 7.835250410085610e-01	 9.253349448109562e-01	-3.568451227001320e+01
 7.642364782468123e-01	 9.413282399309145e-01	-3.241708140745054e+01
 7.446426822732063e-01	 9.569030910755558e-01	-2.929264590181766e+01
 7.247572682883421e-01	 9.720510027947962e-01	-2.631689231749332e+01
 7.045941545857998e-01	 9.867640687076713e-01	-2.349516768394849e+01
 6.841675308647487e-01	 1.001034984242284e+00	-2.083246311715661e+01
 6.634918259611091e-01	 1.014857057346746e+00	-1.833339918006683e+01
 8.662058069460000e-01	 8.662058069460000e-01	-4.414805145456639e+01
 8.480822689592312e-01	 8.839578412179739e-01	-4.022585950269423e+01
 8.295990023725168e-01	 9.013270745050461e-01	-3.651040082345788e+01
 8.107682346602842e-01	 9.183027113312724e-01	-3.300924588006086e+01
 7.916026187512240e-01	 9.348744803221758e-01	-2.972935935352907e+01
 7.721152048270784e-01	 9.510326547731961e-01	-2.667707738410429e+01
 7.523194109568384e-01	 9.667680713935827e-01	-2.385808799109596e+01
 7.322289927039969e-01	 9.820721471512921e-01	-2.127741477282707e+01
 7.118580118496967e-01	 9.969368941562767e-01	-1.893940396129202e+01
 6.912208043786661e-01	 1.011354932531775e+00	-1.684771487868801e+01
 6.703319478777120e-01	 1.025319501235670e+00	-1.500531381540283e+01
 8.750446417102501e-01	 8.750446417102501e-01	-3.819974079906502e+01
 8.567361696629487e-01	 8.929778191885266e-01	-3.413920823541395e+01
 8.380642983155886e-01	 9.105242895495208e-01	-3.037312331291521e+01
 8.190413799127454e-01	 9.276731471593713e-01	-2.690976831947695e+01
 7.996801964946257e-01	 9.444140158336568e-01	-2.375647711383142e+01
 7.799939314080920e-01	 9.607370696157294e-01	-2.091961197010407e+01
 7.599961396412075e-01	 9.766330517118722e-01	-1.840454543379632e+01
 7.397007171203579e-01	 9.920932915080817e-01	-1.621564727000727e+01
 7.191218691142488e-01	 1.007109719605227e+00	-1.435627654275759e+01
 6.982740778931683e-01	 1.021674880821680e+00	-1.282877882236930e+01
 6.771720697948095e-01	 1.035781945125100e+00	-1.163448847650843e+01
 8.838834764750000e-01	 8.838834764750000e-01	-3.221577921285233e+01
 8.653900703672558e-01	 9.019977971594894e-01	-2.802411512421222e+01
 8.465295942593203e-01	 9.197215045943362e-01	-2.421288471974300e+01
 8.273145251659157e-01	 9.370435829877607e-01	-2.079107311745597e+01
 8.077577742387659e-01	 9.539535513453987e-01	-1.776637883981476e+01
 7.878726579898540e-01	 9.704414844585149e-01	-1.514519026381562e+01
 7.676728683263140e-01	 9.864980320304252e-01	-1.293256889387967e+01
 7.471724415374250e-01	 1.002114435865165e+00	-1.113223951782455e+01
 7.263857263794565e-01	 1.017282545054521e+00	-9.746587249440598e+00
 7.053273514082554e-01	 1.031994829112000e+00	-8.776661404988328e+00
 6.840121917124017e-01	 1.046244389015035e+00	-8.222186105983237e+00
 6.156109725587411e-01	 9.416199501384250e-01	-4.031542585544355e+01
 5.962098017009264e-01	 9.540224695395332e-01	-3.079212815217292e+01
 5.766048437667730e-01	 9.659978541247000e-01	-2.360478995698809e+01
 5.568099690270316e-01	 9.775416402487633e-01	-1.875309538500775e+01
 5.368391472596018e-01	 9.886499532180105e-01	-1.622883277725082e+01
 5.167064171925495e-01	 9.993195076959103e-01	-1.601606530295094e+01
 4.964258562287501e-01	 1.009547606256940e+00	-1.809133740808731e+01
 4.760115505788752e-01	 1.019332136131226e+00	-2.242391494012157e+01
 4.554775659241308e-01	 1.028671564192235e+00	-2.897605656703635e+01
 4.348379187240837e-01	 1.037564930248593e+00	-3.770331392673864e+01
 4.141065482781622e-01	 1.046011838709305e+00	-4.855485779184696e+01
 6.224510944718810e-01	 9.520823940238121e-01	-3.732666604389830e+01
 6.028343550492661e-01	 9.646227191958865e-01	-2.855915259488490e+01
 5.830115642494710e-01	 9.767311636097610e-01	-2.193783763491253e+01
 5.629967464573653e-01	 9.884032140242146e-01	-1.746481762061319e+01
 5.428040266706029e-01	 9.996349526933817e-01	-1.513490800985476e+01
 5.224475996031166e-01	 1.010423057776989e+00	-1.493579049123785e+01
 5.019416990733697e-01	 1.020764801878120e+00	-1.684819350835740e+01
 4.813005678054852e-01	 1.030658048751678e+00	-2.084610413707260e+01
 4.605384277660153e-01	 1.040101248236386e+00	-2.689700917466845e+01
 4.396694511529662e-01	 1.049093429472078e+00	-3.496216312754552e+01
 4.187077321468711e-01	 1.057634192472302e+00	-4.499688064002862e+01
 6.292912163855158e-01	 9.625448379097047e-01	-3.428468718029439e+01
 6.094589083980003e-01	 9.752229688528293e-01	-2.627978502597090e+01
 5.894182847324629e-01	 9.874644730954647e-01	-2.023539389875293e+01
 5.691835238878924e-01	 9.992647878003311e-01	-1.615597245601460e+01
 5.487689060816965e-01	 1.010619952169409e+00	-1.403930361765367e+01
 5.281887820136760e-01	 1.021526607858687e+00	-1.387661877566526e+01
 5.074575419178806e-01	 1.031981997499849e+00	-1.565275278335843e+01
 4.865895850318857e-01	 1.041983961372579e+00	-1.934632800752996e+01
 4.655992896075897e-01	 1.051530932280860e+00	-2.492996553991063e+01
 4.445009835814387e-01	 1.060621928695729e+00	-3.237052150159806e+01
 4.233089160150698e-01	 1.069256546235278e+00	-4.162934623704849e+01
 6.361313382996451e-01	 9.730072817961023e-01	-3.119118456126678e+01
 6.160834617471291e-01	 9.858232185103623e-01	-2.395550036388281e+01
 5.958250052157492e-01	 9.981977825818114e-01	-1.849858189120826e+01
 5.753703013186131e-01	 1.010126361577113e+00	-1.482720147549957e+01
 5.547337854928833e-01	 1.021604951646094e+00	-1.294205176579126e+01
 5.339299644242276e-01	 1.032630157941003e+00	-1.283784725906688e+01
 5.129733847622833e-01	 1.043199193122128e+00	-1.450345413110984e+01
 4.918786022580771e-01	 1.053309873993932e+00	-1.792204687233571e+01
 4.706601514488546e-01	 1.062960616325656e+00	-2.307129005910800e+01
 4.493325160095007e-01	 1.072150427919546e+00	-2.992354343794296e+01
 4.279100998827580e-01	 1.080878899998233e+00	-3.844608836968572e+01
 6.429714602142689e-01	 9.834697256830051e-01	-2.804778144731501e+01
 6.227080150966526e-01	 9.964234681684844e-01	-2.158771087937400e+01
 6.022317256993296e-01	 1.008931092068801e+00	-1.672847708660438e+01
 5.815570787495273e-01	 1.020987935354560e+00	-1.347911909645186e+01
 5.606986649041629e-01	 1.032589951123436e+00	-1.184318339431179e+01
 5.396711468347712e-01	 1.043733708023936e+00	-1.181880310692921e+01
 5.184892276065770e-01	 1.054416388744956e+00	-1.339880303955075e+01
 4.971676194840591e-01	 1.064635786615735e+00	-1.657082929113603e+01
 4.757210132898095e-01	 1.074390300370775e+00	-2.131750200916764e+01
 4.541640484371527e-01	 1.083678927143527e+00	-2.761658970188840e+01
 4.325112837499361e-01	 1.092501253761168e+00	-3.544120340218809e+01
 6.498115821293877e-01	 9.939321695704137e-01	-2.485603285437033e+01
 6.293325684465706e-01	 1.007023717827196e+00	-1.917776949283811e+01
 6.086384461832042e-01	 1.019664401556434e+00	-1.492610979975174e+01
 5.877438561806352e-01	 1.031849509132672e+00	-1.211231399909333e+01
 5.666635443155355e-01	 1.043574950601434e+00	-1.074272828245809e+01
 5.454123292453070e-01	 1.054837258107488e+00	-1.081884196488518e+01
 5.240050704507622e-01	 1.065633584368333e+00	-1.233736808147215e+01
 5.024566367098319e-01	 1.075961699237989e+00	-1.529034636519870e+01
 4.807818751304545e-01	 1.085819984416216e+00	-1.966526739548586e+01
 4.589955808643948e-01	 1.095207426367674e+00	-2.544521657257664e+01
 4.371124676166038e-01	 1.104123607524082e+00	-3.260903645583981e+01
 6.566517040450012e-01	 1.004394613458327e+00	-2.161742910838791e+01
 6.359571217968834e-01	 1.017623967486498e+00	-1.672697286556235e+01
 6.150451666673726e-01	 1.030397711044709e+00	-1.309246753799838e+01
 5.939306336119369e-01	 1.042711082911450e+00	-1.072735046686664e+01
 5.726284237270008e-01	 1.054559950080089e+00	-9.640715108950666e+00
 5.511535116558349e-01	 1.065940808191658e+00	-9.837346475114323e+00
 5.295209132948389e-01	 1.076850779992260e+00	-1.131777762851553e+01
 5.077456539353953e-01	 1.087287611860692e+00	-1.407836639630466e+01
 4.858427369707898e-01	 1.097249668461979e+00	-1.811139130937967e+01
 4.638271132912263e-01	 1.106735925591985e+00	-2.340516565945938e+01
 4.417136514827614e-01	 1.115745961286976e+00	-2.994416845230681e+01
 6.634918259611091e-01	 1.014857057346746e+00	-1.833339918006683e+01
 6.425816751475903e-01	 1.028224217146390e+00	-1.423656429977023e+01
 6.214518871518357e-01	 1.041131020533627e+00	-1.122849720779442e+01
 6.001174110434320e-01	 1.053572656690893e+00	-9.324769643906434e+00
 5.785933031385591e-01	 1.065544949559402e+00	-8.537171508537323e+00
 5.568946940663551e-01	 1.077044358276446e+00	-8.873724884513269e+00
 5.350367561388070e-01	 1.088067975616736e+00	-1.033871676842992e+01
 5.130346711607495e-01	 1.098613524483847e+00	-1.293274987601892e+01
 4.909035988108152e-01	 1.108679352508065e+00	-1.665281075825665e+01
 4.686586457176479e-01	 1.118264424816463e+00	-2.149235434868305e+01
 4.463148353484084e-01	 1.127368315049849e+00	-2.744140395842629e+01
 6.703319478777120e-01	 1.025319501235670e+00	-1.500531381540283e+01
 6.492062284986920e-01	 1.038824466806871e+00	-1.170773646110761e+01
 6.278586076365926e-01	 1.051864330023189e+00	-9.335107186161542e+00
 6.063041884751207e-01	 1.064434230471001e+00	-7.905090715523672e+00
 5.845581825502105e-01	 1.076529949039371e+00	-7.432124125082320e+00
 5.626358764768672e-01	 1.088147908361853e+00	-7.927409738078996e+00
 5.405525989826665e-01	 1.099285171241760e+00	-9.398924411068583e+00
 5.183236883858944e-01	 1.109939437107452e+00	-1.185144478174013e+01
 4.959644606505308e-01	 1.120109036554474e+00	-1.528658793475374e+01
 4.734901781436591e-01	 1.129792924041105e+00	-1.970286683438938e+01
 4.509160192135453e-01	 1.138990668812702e+00	-2.509575977519338e+01
 6.771720697948095e-01	 1.035781945125100e+00	-1.163448847650843e+01
 6.558307818501883e-01	 1.049424716467942e+00	-9.141633936131454e+00
 6.342653281216438e-01	 1.062597639513393e+00	-7.413169266616476e+00
 6.124909659070029e-01	 1.075295804251774e+00	-6.468812017144538e+00
 5.905230619619546e-01	 1.087514948519997e+00	-6.325598661436510e+00
 5.683770588873716e-01	 1.099251458447877e+00	-6.997856651482799e+00
 5.460684418264172e-01	 1.110502366867334e+00	-8.497190569781862e+00
 5.236127056108301e-01	 1.121265349731507e+00	-1.083248215783994e+01
 5.010253224899366e-01	 1.131538720601204e+00	-1.400990389380859e+01
 4.783217105692602e-01	 1.141321423265912e+00	-1.803294569357600e+01
 4.555172030781719e-01	 1.150613022575534e+00	-2.290245421832523e+01
 6.840121917124017e-01	 1.046244389015035e+00	-8.222186105983237e+00
 6.624553352020789e-01	 1.060024966129602e+00	-6.539355636345702e+00
 6.406720486069893e-01	 1.073330949004241e+00	-5.463520488339872e+00
 6.186777433390788e-01	 1.086157378033213e+00	-5.016412076712088e+00
 5.964879413737916e-01	 1.098499948001280e+00	-5.217619926315896e+00
 5.741182412978680e-01	 1.110355008534519e+00	-6.084543157288918e+00
 5.515842846700593e-01	 1.121719562493458e+00	-7.632353805923753e+00
 5.289017228355563e-01	 1.132591262356013e+00	-9.873971961933888e+00
 5.060861843290325e-01	 1.142968404648257e+00	-1.282005260910580e+01
 4.831532429944511e-01	 1.152849922490885e+00	-1.647898396646418e+01
 4.601183869422882e-01	 1.162235376338345e+00	-2.085689704199283e+01
 4.141065482781622e-01	 1.046011838709305e+00	-4.855485779184696e+01
 3.932972896413123e-01	 1.054012448698682e+00	-3.576849946647798e+01
 3.724238474895377e-01	 1.061567462705179e+00	-2.210352243703787e+01
 3.514997710187807e-01	 1.068678113852559e+00	-7.633245753312799e+00
 3.305384299522138e-01	 1.075346151886617e+00	 7.566130896914181e+00
 3.095529917259615e-01	 1.081573827976446e+00	 2.341593044682643e+01
 2.885563999111744e-01	 1.087363878431055e+00	 3.983540192322725e+01
 2.675613539221366e-01	 1.092719507434895e+00	 5.674212153222500e+01
 2.465802900510743e-01	 1.097644368907271e+00	 7.405238888712562e+01
 2.256253638614278e-01	 1.102142547591368e+00	 9.168161605487924e+01
 2.047084339626188e-01	 1.106218539478505e+00	 1.095447072593200e+02
 4.187077321468711e-01	 1.057634192472302e+00	-4.499688064002862e+01
 3.976672595254846e-01	 1.065723698129262e+00	-3.214446713310871e+01
 3.765618902389651e-01	 1.073362656736697e+00	-1.874000102952140e+01
 3.554053240298771e-01	 1.080552315119742e+00	-4.845127032263207e+00
 3.342110791738727e-01	 1.087294442465818e+00	 9.476418503046332e+00
 3.129924694119229e-01	 1.093591314957006e+00	 2.415913845396431e+01
 2.917625821326362e-01	 1.099445699305754e+00	 3.913610495031217e+01
 2.705342578549005e-01	 1.104860835298564e+00	 5.433928642402328e+01
 2.493200710519669e-01	 1.109840417453845e+00	 6.969986969969487e+01
 2.281323123490928e-01	 1.114388575900822e+00	 8.514857526194137e+01
 2.069829721180270e-01	 1.118509856586275e+00	 1.006159639732879e+02
 4.233089160150698e-01	 1.069256546235278e+00	-4.162934623704849e+01
 4.020372294090627e-01	 1.077434947559639e+00	-2.864450961200961e+01
 3.806999329877463e-01	 1.085157850767857e+00	-1.542752341871561e+01
 3.593108770403063e-01	 1.092426516386447e+00	-2.028574364482957e+00
 3.378837283948748e-01	 1.099242733044450e+00	 1.150083717292233e+01
 3.164319470972685e-01	 1.105608801936938e+00	 2.510815670452514e+01
 2.949687643535532e-01	 1.111527520179795e+00	 3.874003325377156e+01
 2.735071617872199e-01	 1.117002163161573e+00	 5.234257343356314e+01
 2.520598520525447e-01	 1.122036465999790e+00	 6.586159046105858e+01
 2.306392608366009e-01	 1.126634604209704e+00	 7.924284670002847e+01
 2.092575102734646e-01	 1.130801173693560e+00	 9.243228843427801e+01
 4.279100998827580e-01	 1.080878899998233e+00	-3.844608836968572e+01
 4.064071992920467e-01	 1.089146196989810e+00	-2.526460141609790e+01
 3.848379757358810e-01	 1.096953044798660e+00	-1.216441976988448e+01
 3.632164300500685e-01	 1.104300717652674e+00	 8.155184863422065e-01
 3.415563776152200e-01	 1.111191023622512e+00	 1.363572893326614e+01
 3.198714247819980e-01	 1.117626288916241e+00	 2.625637006038671e+01
 2.981749465739252e-01	 1.123609341053177e+00	 3.863742951817333e+01
 2.764800657190950e-01	 1.129143491023926e+00	 5.073890625101665e+01
 2.547996330528077e-01	 1.134232514545106e+00	 6.252098746363132e+01
 2.331462093239524e-01	 1.138880632518015e+00	 7.394421945850777e+01
 2.115320484289314e-01	 1.143092490800359e+00	 8.496967147216439e+01
 4.325112837499361e-01	 1.092501253761168e+00	-3.544120340218809e+01
 4.107771691744364e-01	 1.100857446419777e+00	-2.200088854572208e+01
 3.889760184833697e-01	 1.108748238829107e+00	-8.949091499205029e+00
 3.671219830591637e-01	 1.116174918918422e+00	 3.686295591599368e+00
 3.452290268349087e-01	 1.123139314200007e+00	 1.587759126920950e+01
 3.233109024661119e-01	 1.129643775894916e+00	 2.759744467674540e+01
 3.013811287937522e-01	 1.135691161925902e+00	 3.881895142990099e+01
 2.794529696505255e-01	 1.141284818885619e+00	 4.951576480172240e+01
 2.575394140527559e-01	 1.146428563089792e+00	 5.966220163516908e+01
 2.356531578111472e-01	 1.151126660825756e+00	 6.923334246321022e+01
 2.138065865844276e-01	 1.155383807906674e+00	 7.820512538306434e+01
 4.371124676166038e-01	 1.104123607524082e+00	-3.260903645583981e+01
 4.151471390562320e-01	 1.112568695849540e+00	-1.884967946240358e+01
 3.931140612302117e-01	 1.120543432859196e+00	-5.780007523081359e+00
 3.710275360675918e-01	 1.128049120183693e+00	 6.582936867089135e+00
 3.489016760539405e-01	 1.135087604776933e+00	 1.822306894294881e+01
 3.267503801496099e-01	 1.141661262872963e+00	 2.912531319788962e+01
 3.045873110130343e-01	 1.147772982797968e+00	 3.927564983564095e+01
 2.824258735815118e-01	 1.153426146746654e+00	 4.866115597133081e+01
 2.602791950523892e-01	 1.158624611633849e+00	 5.727004145336372e+01
 2.381601062981852e-01	 1.163372689132924e+00	 6.509167922252470e+01
 2.160811247399532e-01	 1.167675125012503e+00	 7.211663016857207e+01
 4.417136514827614e-01	 1.115745961286976e+00	-2.994416845230681e+01
 4.195171089374332e-01	 1.124279945279097e+00	-1.580743662671904e+01
 3.972521039764076e-01	 1.132338626888928e+00	-2.655700741878888e+00
 3.749330890753527e-01	 1.139923321448485e+00	 9.504656206783306e+00
 3.525743252723156e-01	 1.147035895353290e+00	 2.066894632373361e+01
 3.301898578324918e-01	 1.153678749850381e+00	 3.083416087823848e+01
 3.077934932317715e-01	 1.159854803669376e+00	 3.999894826596176e+01
 2.853987775120535e-01	 1.165567474607031e+00	 4.816358616062688e+01
 2.630189760517078e-01	 1.170820660177278e+00	 5.532994817827564e+01
 2.406670547850666e-01	 1.175618717439521e+00	 6.150146540185790e+01
 2.183556628955082e-01	 1.179966442117847e+00	 6.668308313503945e+01
 4.463148353484084e-01	 1.127368315049849e+00	-2.744140395842629e+01
 4.238870788180403e-01	 1.135991194708451e+00	-1.287076855961426e+01
 4.013901467219571e-01	 1.144133820918303e+00	 4.252352588389989e-01
 3.788386420824468e-01	 1.151797522712798e+00	 1.245069973201721e+01
 3.562469744900341e-01	 1.158984185929079e+00	 2.321214019228872e+01
 3.336293355147580e-01	 1.165696236827171e+00	 3.271841256187121e+01
 3.109996754499638e-01	 1.171936624540127e+00	 4.098062372547533e+01
 2.883716814421509e-01	 1.177708802466749e+00	 4.801203553799134e+01
 2.657587570507115e-01	 1.183016708720077e+00	 5.382796323533597e+01
 2.431740032717912e-01	 1.187864745745547e+00	 5.844566902235683e+01
 2.206302010510924e-01	 1.192257759222705e+00	 6.188425161042728e+01
 4.509160192135453e-01	 1.138990668812702e+00	-2.509575977519338e+01
 4.282570486980531e-01	 1.147702444137599e+00	-1.003642238976128e+01
 4.055281894668601e-01	 1.155929014947321e+00	 3.464149305109707e+00
 3.827441950888737e-01	 1.163671723976633e+00	 1.542034414787489e+01
 3.599196237070956e-01	 1.170932476504298e+00	 2.584969298577944e+01
 3.370688131964081e-01	 1.177713723803332e+00	 3.477272045922646e+01
 3.142058576676110e-01	 1.184018445410219e+00	 4.221278865911091e+01
 2.913445853718038e-01	 1.189850130325810e+00	 4.819593386824201e+01
 2.684985380494003e-01	 1.195212757262246e+00	 5.275069759530756e+01
 2.456809517583592e-01	 1.200110774051002e+00	 5.590795309644200e+01
 2.229047392067060e-01	 1.204549076327078e+00	 5.770072855604117e+01
 4.555172030781719e-01	 1.150613022575534e+00	-2.290245421832523e+01
 4.326270185774718e-01	 1.159413693566544e+00	-7.301276852591577e+00
 4.096662322111168e-01	 1.167724208975982e+00	 6.462335543682947e+00
 3.866497480946336e-01	 1.175545925239990e+00	 1.841289519918455e+01
 3.635922729235004e-01	 1.182880767078950e+00	 2.857876645217355e+01
 3.405082908774424e-01	 1.189731210778864e+00	 3.699195266460730e+01
 3.174120398847132e-01	 1.196100266279651e+00	 4.368787401134002e+01
 2.943174893010123e-01	 1.201991458184212e+00	 4.870513780639178e+01
 2.712383190477745e-01	 1.207408805803788e+00	 5.208530301000566e+01
 2.481879002447703e-01	 1.212356802355885e+00	 5.387264052785285e+01
 2.251792773623489e-01	 1.216840393430966e+00	 5.411389086846530e+01
 4.601183869422882e-01	 1.162235376338345e+00	-2.085689704199283e+01
 4.369969884562961e-01	 1.171124942995283e+00	-4.662335709388479e+00
 4.138042749547273e-01	 1.179519403004286e+00	 9.421036176584465e+00
 3.905553010997264e-01	 1.187420126502869e+00	 2.142768621915523e+01
 3.672649221392484e-01	 1.194829057653032e+00	 3.139663568533947e+01
 3.439477685578608e-01	 1.201748697753768e+00	 3.937118236263565e+01
 3.206182221012706e-01	 1.208182087148427e+00	 4.539861330184667e+01
 2.972903932297764e-01	 1.214132786041956e+00	 4.952990955378114e+01
 2.739781000458337e-01	 1.219604854344699e+00	 5.181944497387292e+01
 2.506948487310247e-01	 1.224602830660197e+00	 5.232468111768982e+01
 2.274538155180211e-01	 1.229131710534368e+00	 5.110586018338044e+01
 2.047084339626188e-01	 1.106218539478505e+00	 1.095447072593200e+02
 1.838410471820675e-01	 1.109877231672737e+00	 9.756345570521472e+01
 1.630344251371875e-01	 1.113123881798189e+00	 7.878798886231127e+01
 1.422994522082913e-01	 1.115964097050903e+00	 5.338271436403198e+01
 1.216466649059655e-01	 1.118403812994212e+00	 2.152902443323998e+01
 1.010862426134333e-01	 1.120449272191891e+00	-1.657606346385911e+01
 8.062799968276181e-02	 1.122107002770802e+00	-6.072127716916795e+01
 6.028137885658343e-02	 1.123383797000342e+00	-1.106824629662247e+02
 4.005544598153728e-02	 1.124286689971457e+00	-1.662239531557806e+02
 1.995888597471339e-02	 1.124822938453228e+00	-2.270999204571292e+02
 0.000000000000000e+00	 1.125000000000000e+00	-2.930557121746965e+02
 2.069829721180270e-01	 1.118509856586275e+00	 1.006159639732879e+02
 1.858837254842960e-01	 1.122209200915521e+00	 8.750588488255330e+01
 1.648459187499743e-01	 1.125491924930832e+00	 6.871182630872337e+01
 1.438805572329332e-01	 1.128363698130427e+00	 4.437955184317715e+01
 1.229982945160992e-01	 1.130830522028343e+00	 1.466894081708299e+01
 1.022094230869531e-01	 1.132898708550173e+00	-2.024717729441127e+01
 8.152386634591845e-02	 1.134574858357522e+00	-6.018419613231985e+01
 6.095117195499002e-02	 1.135865839189446e+00	-1.049469060876838e+02
 4.050050649243606e-02	 1.136778764304567e+00	-1.543306614401397e+02
 2.018065137442525e-02	 1.137320971102731e+00	-2.081225345870953e+02
 0.000000000000000e+00	 1.137500000000000e+00	-2.661024514304397e+02
 2.092575102734646e-01	 1.130801173693560e+00	 9.243228843427801e+01
 1.879264037867324e-01	 1.134541170157915e+00	 7.822904246486533e+01
 1.666574123631051e-01	 1.137859968063168e+00	 5.942834201731537e+01
 1.454616622580137e-01	 1.140763299209717e+00	 3.615771753942997e+01
 1.243499241267251e-01	 1.143257231062304e+00	 8.555987039788894e+00
 1.033326035609789e-01	 1.145348144908337e+00	-2.322771862390029e+01
 8.241973300955530e-02	 1.147042713944167e+00	-5.903493461649565e+01
 6.162096505381248e-02	 1.148347881378508e+00	-9.869883918151054e+01
 4.094556700364869e-02	 1.149270838637658e+00	-1.420452232667770e+02
 2.040241677431206e-02	 1.149819003752230e+00	-1.888934474918914e+02
 0.000000000000000e+00	 1.150000000000000e+00	-2.390573816369770e+02
 2.115320484289314e-01	 1.143092490800359e+00	 8.496967147216439e+01
 1.899690820893766e-01	 1.146873139399917e+00	 6.970776925917404e+01
 1.684689059765799e-01	 1.150228011195196e+00	 5.091199165183439e+01
 1.470427672835328e-01	 1.153162900288774e+00	 2.869203359748798e+01
 1.257015537378434e-01	 1.155683940096093e+00	 3.166088783798173e+00
 1.044557840355105e-01	 1.157797581266385e+00	-2.553993696241380e+01
 8.331559967367232e-02	 1.159510569530738e+00	-5.729321296761944e+01
 6.229075815305083e-02	 1.160829923567528e+00	-9.195476701752668e+01
 4.139062751517519e-02	 1.161762912970730e+00	-1.293802602996018e+02
 2.062418217437382e-02	 1.162317036401724e+00	-1.694207499253289e+02
 0.000000000000000e+00	 1.162500000000000e+00	-2.119234353099590e+02
 2.138065865844276e-01	 1.155383807906674e+00	 7.820512538306434e+01
 1.920117603922285e-01	 1.159205108641528e+00	 6.191797647830737e+01
 1.702803995903987e-01	 1.162596054326918e+00	 4.313831767403703e+01
 1.486238723094905e-01	 1.165562501367597e+00	 2.195839336896294e+01
 1.270531833494540e-01	 1.168110649129712e+00	-1.523804016050785e+00
 1.055789645105481e-01	 1.170247017624314e+00	-2.720513521379423e+01
 8.421146633826952e-02	 1.171978425117234e+00	-5.497791254346615e+01
 6.296055125270505e-02	 1.173311965756507e+00	-8.473049220385106e+01
 4.183568802701556e-02	 1.174254987303784e+00	-1.163478572721382e+02
 2.084594757461052e-02	 1.174815069051214e+00	-1.497121885076365e+02
 0.000000000000000e+00	 1.175000000000000e+00	-1.847034203224408e+02
 2.160811247399532e-01	 1.167675125012503e+00	 7.211663016857207e+01
 1.940544386952883e-01	 1.171537077882749e+00	 5.483658940432976e+01
 1.720918932045614e-01	 1.174964097458333e+00	 3.608389214433522e+01
 1.502049773358868e-01	 1.177962102446187e+00	 1.593370503355914e+01
 1.284048129615569e-01	 1.180537358163162e+00	-5.535771080106300e+00
 1.067021449860916e-01	 1.182696453982126e+00	-2.824371949664430e+01
 8.510733300334690e-02	 1.184446280703655e+00	-5.210711987062560e+01
 6.363034435277519e-02	 1.185794007945443e+00	-7.704115214254131e+01
 4.228074853916980e-02	 1.186747061636820e+00	-1.029595902468484e+02
 2.106771297502218e-02	 1.187313101700699e+00	-1.297751838376672e+02
 0.000000000000000e+00	 1.187500000000000e+00	-1.574000264650173e+02
 2.183556628955082e-01	 1.179966442117847e+00	 6.668308313503945e+01
 1.960971169985559e-01	 1.183869047123579e+00	 4.844149457300935e+01
 1.739033868190682e-01	 1.187332140589441e+00	 2.972626309739438e+01
 1.517860823627217e-01	 1.190361703524544e+00	 1.059583874392740e+01
 1.297564425741521e-01	 1.192964067196440e+00	-8.890972322267173e+00
 1.078253254621411e-01	 1.195145890339820e+00	-2.867524585152353e+01
 8.600319966890443e-02	 1.196914136290001e+00	-4.869816804165296e+01
 6.430013745326123e-02	 1.198276050134339e+00	-6.890125367550625e+01
 4.272580905163788e-02	 1.199239135969837e+00	-8.922655310826073e+01
 2.128947837560878e-02	 1.199811134350180e+00	-1.096168474730971e+02
 0.000000000000000e+00	 1.200000000000000e+00	-1.300158315959514e+02
 2.206302010510924e-01	 1.192257759222705e+00	 6.188425161042728e+01
 1.981397953020312e-01	 1.196201016364018e+00	 4.271149022522411e+01
 1.757148804339190e-01	 1.199700183720243e+00	 2.404390423470982e+01
 1.533671873899952e-01	 1.202761304602666e+00	 5.923577039908290e+00
 1.311080721872396e-01	 1.205390776229548e+00	-1.160969526226021e+01
 1.089485059386964e-01	 1.207595326697396e+00	-2.851846405903570e+01
 8.689906633494215e-02	 1.209381991876273e+00	-4.476767555157252e+01
 6.496993055416314e-02	 1.210758092323192e+00	-6.032470558737420e+01
 4.317086956441985e-02	 1.211731210302836e+00	-7.515938241733888e+01
 2.151124377637034e-02	 1.212309166999656e+00	-8.924399786030131e+01
 0.000000000000000e+00	 1.212500000000000e+00	-1.025533074108828e+02
 2.229047392067060e-01	 1.204549076327078e+00	 5.770072855604117e+01
 2.001824736057144e-01	 1.208532985604066e+00	 3.762623979195551e+01
 1.775263740491137e-01	 1.212068226850737e+00	 1.901616769722651e+01
 1.549482924177072e-01	 1.215160905680556e+00	 1.896568298639332e+00
 1.324597018008195e-01	 1.217817485262486e+00	-1.371139953512671e+01
 1.100716864157577e-01	 1.220044763054856e+00	-2.779135877517928e+01
 8.779493300146010e-02	 1.221849847462470e+00	-4.033158275663631e+01
 6.563972365548093e-02	 1.223240134512003e+00	-5.132484911838662e+01
 4.361593007751567e-02	 1.224223284635816e+00	-6.076828074416206e+01
 2.173300917730685e-02	 1.224807199649127e+00	-6.866317528892861e+01
 0.000000000000000e+00	 1.225000000000000e+00	-7.501482485928597e+01
 2.251792773623489e-01	 1.216840393430966e+00	 5.411389086846530e+01
 2.022251519096053e-01	 1.220864954843724e+00	 3.316622819837278e+01
 1.793378676646525e-01	 1.224436269980924e+00	 1.462323970022390e+01
 1.565293974458579e-01	 1.227560506758212e+00	-1.504716994133551e+00
 1.338113314148917e-01	 1.230244194295253e+00	-1.521475870316390e+01
 1.111948668933249e-01	 1.232494199412197e+00	-2.651118817364448e+01
 8.869079966845822e-02	 1.234317703048592e+00	-3.540518612346204e+01
 6.630951675721461e-02	 1.235722176700773e+00	-4.191448662803023e+01
 4.406099059092536e-02	 1.236715358968778e+00	-4.606303858649748e+01
 2.195477457841831e-02	 1.237305232298594e+00	-4.788065594014493e+01
 0.000000000000000e+00	 1.237500000000000e+00	-4.740265923266159e+01
 2.274538155180211e-01	 1.229131710534368e+00	 5.110586018338044e+01
 2.042678302137041e-01	 1.233196924082991e+00	 2.931272078967104e+01
 1.811493612805352e-01	 1.236804313110804e+00	 1.084609883010856e+01
 1.581105024744471e-01	 1.239960107835634e+00	-4.299027349023934e+00
 1.351629610294562e-01	 1.242670903327850e+00	-1.613769955915085e+01
 1.123180473713980e-01	 1.244943635769421e+00	-2.469452026957581e+01
 8.958666633593650e-02	 1.246785558634639e+00	-3.000317042322015e+01
 6.697930985936418e-02	 1.248204218889501e+00	-3.210590853884644e+01
 4.450605110464890e-02	 1.249207433301722e+00	-3.105305497326265e+01
 2.217653997970472e-02	 1.249803264948056e+00	-2.690246509197401e+01
 0.000000000000000e+00	 1.250000000000000e+00	-1.971899494743396e+01
 1.250000000000000e+00	 0.000000000000000e+00	 1.326319186580011e+02
 1.249803264948056e+00	 2.217653997970400e-02	 1.235502776888502e+02
 1.249207433301722e+00	 4.450605110464827e-02	 1.139951916311599e+02
 1.248204218889501e+00	 6.697930985936361e-02	 1.038321318308366e+02
 1.246785558634639e+00	 8.958666633593600e-02	 9.292269558892437e+01
 1.244943635769421e+00	 1.123180473713976e-01	 8.112495601939594e+01
 1.242670903327850e+00	 1.351629610294558e-01	 6.829384781394710e+01
 1.239960107835634e+00	 1.581105024744469e-01	 5.428158869767084e+01
 1.236804313110804e+00	 1.811493612805350e-01	 3.893813607275855e+01
 1.233196924082991e+00	 2.042678302137040e-01	 2.211167804482086e+01
 1.229131710534368e+00	 2.274538155180211e-01	 3.649157710255434e+00
 1.262500000000000e+00	 0.000000000000000e+00	 1.384637444910229e+02
 1.262301297597516e+00	 2.239830538099040e-02	 1.277540971641190e+02
 1.261699507634656e+00	 4.495111161837182e-02	 1.165883462718569e+02
 1.260686261078208e+00	 6.764910296151318e-02	 1.048480594136239e+02
 1.259253414220649e+00	 9.048253300341427e-02	 9.241145548292931e+01
 1.257393072126586e+00	 1.134412278494708e-01	 7.915371668687970e+01
 1.255097612360361e+00	 1.365145906440204e-01	 6.494733218296879e+01
 1.252359708912939e+00	 1.596916075030361e-01	 4.966247312007242e+01
 1.249172356240532e+00	 1.829608548964178e-01	 3.316739861645704e+01
 1.245528893322062e+00	 2.063105085178028e-01	 1.532889193968004e+01
 1.241423027637528e+00	 2.297283536736933e-01	-3.987274126523104e+00
 1.275000000000000e+00	 0.000000000000000e+00	 1.433255925743050e+02
 1.274799330246976e+00	 2.262007078210185e-02	 1.311502333508559e+02
 1.274191581967590e+00	 4.539617213178149e-02	 1.185363036686325e+02
 1.273168303266915e+00	 6.831889606324687e-02	 1.053812230460200e+02
 1.271721269806660e+00	 9.137839967041235e-02	 9.157957963565030e+01
 1.269842508483751e+00	 1.145644083270380e-01	 7.702340486575525e+01
 1.267524321392873e+00	 1.378662202580925e-01	 6.160247546388187e+01
 1.264759309990245e+00	 1.612727125311867e-01	 4.520464265301571e+01
 1.261540399370259e+00	 1.847723485119565e-01	 2.771618808833186e+01
 1.257860862561133e+00	 2.083531868216938e-01	 9.022205869082445e+00
 1.253714344740687e+00	 2.320028918293363e-01	-1.099299028371069e+01
 1.287500000000000e+00	 0.000000000000000e+00	 1.472456826613910e+02
 1.287297362896436e+00	 2.284183618303835e-02	 1.337621810064362e+02
 1.286683656300524e+00	 4.584123264487731e-02	 1.198578279924874e+02
 1.285650345455622e+00	 6.898868916456465e-02	 1.054456578354090e+02
 1.284189125392670e+00	 9.227426633693030e-02	 9.043638295959151e+01
 1.282291944840916e+00	 1.156875888040993e-01	 7.473863170798694e+01
 1.279951030425384e+00	 1.392178498716724e-01	 5.825920925269555e+01
 1.277158911067551e+00	 1.628538175588988e-01	 4.090338149944127e+01
 1.273908442499985e+00	 1.865838421271512e-01	 2.257518158932772e+01
 1.270192831800205e+00	 2.103958651253769e-01	 3.177738401375684e+00
 1.266005661843847e+00	 2.342774299849499e-01	-1.738637374898009e+01
 1.300000000000000e+00	 0.000000000000000e+00	 1.502511493815354e+02
 1.299795395545896e+00	 2.306360158379989e-02	 1.356125315001364e+02
 1.299175730633459e+00	 4.628629315765927e-02	 1.205709619767895e+02
 1.298132387644330e+00	 6.965848226546656e-02	 1.050548593427022e+02
 1.296656980978680e+00	 9.317013300296803e-02	 8.899082237009475e+01
 1.294741381198081e+00	 1.168107692806546e-01	 7.230383128484925e+01
 1.292377739457895e+00	 1.405694794847599e-01	 5.491746804950620e+01
 1.289558512144857e+00	 1.644349225861723e-01	 3.675415551337093e+01
 1.286276485629712e+00	 1.883953357420020e-01	 1.773541506806349e+01
 1.282524801039276e+00	 2.124385434288523e-01	-2.217857719619783e+00
 1.278296978947007e+00	 2.365519681405341e-01	-2.318510019887185e+01
 1.312500000000000e+00	 0.000000000000000e+00	 1.523680939122915e+02
 1.312293428195356e+00	 2.328536698438650e-02	 1.367230158314746e+02
 1.311667804966393e+00	 4.673135367012735e-02	 1.206930612711686e+02
 1.310614429833036e+00	 7.032827536595254e-02	 1.042218092746118e+02
 1.309124836564690e+00	 9.406599966852559e-02	 8.725151383227281e+01
 1.307190817555246e+00	 1.179339497567040e-01	 6.972326901865790e+01
 1.304804448490407e+00	 1.419211090973551e-01	 5.157718911939665e+01
 1.301958113222162e+00	 1.660160276130072e-01	 3.275260354892221e+01
 1.298644528759440e+00	 1.902068293565088e-01	 1.318826623179309e+01
 1.294856770278347e+00	 2.144812217321199e-01	-7.177421012706695e+00
 1.290588296050166e+00	 2.388265062960890e-01	-2.840617168155343e+01
 1.325000000000000e+00	 0.000000000000000e+00	 1.536216327272348e+02
 1.324791460844817e+00	 2.350713238479816e-02	 1.371145452135538e+02
 1.324159879299327e+00	 4.717641418228159e-02	 1.202408268508504e+02
 1.323096472021744e+00	 7.099806846602269e-02	 1.029589997216439e+02
 1.321592692150699e+00	 9.496186633360294e-02	 8.522674844302188e+01
 1.319640253912411e+00	 1.190571302322476e-01	 6.700104963723368e+01
 1.317231157522919e+00	 1.432727387094580e-01	 4.823831236120986e+01
 1.314357714299468e+00	 1.675971326394035e-01	 2.889452929900027e+01
 1.311012571889166e+00	 1.920183229706716e-01	 8.925438424672427e+00
 1.307188739517419e+00	 2.165239000351796e-01	-1.171330525751280e+01
 1.302879613153326e+00	 2.411010444516146e-01	-3.306594839300527e+01
 1.337500000000000e+00	 0.000000000000000e+00	 1.540359436101700e+02
 1.337289493494276e+00	 2.372889778503485e-02	 1.368072493807007e+02
 1.336651953632262e+00	 4.762147469412194e-02	 1.192303356086456e+02
 1.335578514210450e+00	 7.166786156567692e-02	 1.012784560369536e+02
 1.334060547736709e+00	 9.585773299820013e-02	 8.292450761123933e+01
 1.332089690269576e+00	 1.201803107072851e-01	 6.414112468232139e+01
 1.329657866555430e+00	 1.446243683210686e-01	 4.490078018368106e+01
 1.326757315376773e+00	 1.691782376653612e-01	 2.517589359163581e+01
 1.323380615018894e+00	 1.938298165844904e-01	 4.938945410048797e+00
 1.319520708756490e+00	 2.185665783380315e-01	-1.583740214699803e+01
 1.315170930256486e+00	 2.433755826071108e-01	-3.718017867136444e+01
 1.350000000000000e+00	 0.000000000000000e+00	 1.536343091129923e+02
 1.349787526143736e+00	 2.395066318509660e-02	 1.358205127679036e+02
 1.349144027965196e+00	 4.806653520564843e-02	 1.176770692473830e+02
 1.348060556399157e+00	 7.233765466491528e-02	 9.919175844415021e+01
 1.346528403322719e+00	 9.675359966231714e-02	 8.035247739469588e+01
 1.344539126626741e+00	 1.213034911818168e-01	 6.114729960087555e+01
 1.342084575587941e+00	 1.459759979321868e-01	 4.156453738845271e+01
 1.339156916454079e+00	 1.707593426908803e-01	 2.159280711430372e+01
 1.335748658148621e+00	 1.956413101979651e-01	 1.221096998180597e+00
 1.331852677995562e+00	 2.206092566406757e-01	-1.956116268148834e+01
 1.327462247359646e+00	 2.456501207625777e-01	-4.076402732491287e+01
 1.362500000000000e+00	 0.000000000000000e+00	 1.524391576213731e+02
 1.362285558793196e+00	 2.417242858498341e-02	 1.341730086987220e+02
 1.361636102298130e+00	 4.851159571686106e-02	 1.155959415819350e+02
 1.360542598587865e+00	 7.300744776373773e-02	 9.671006245568449e+01
 1.358996258908729e+00	 9.764946632595396e-02	 7.751806204772284e+01
 1.356988562983906e+00	 1.224266716558425e-01	 5.802324044600024e+01
 1.354511284620453e+00	 1.473276275428128e-01	 3.822953105952912e+01
 1.351556517531384e+00	 1.723404477159608e-01	 1.814152353873945e+01
 1.348116701278348e+00	 1.974528038110959e-01	-2.235514534907981e+00
 1.344184647234633e+00	 2.226519349431120e-01	-2.289561738505427e+01
 1.339753564462805e+00	 2.479246589180152e-01	-4.383210240072648e+01
 1.375000000000000e+00	 0.000000000000000e+00	 1.504721021804992e+02
 1.374783591442656e+00	 2.439419398469526e-02	 1.318827317084001e+02
 1.374128176631064e+00	 4.895665622775984e-02	 1.130013243520398e+02
 1.373024640776572e+00	 7.367724086214431e-02	 9.384411817750454e+01
 1.371464114494739e+00	 9.854533298911061e-02	 7.442839682993485e+01
 1.369437999341071e+00	 1.235498521293624e-01	 5.477248021238334e+01
 1.366937993652964e+00	 1.486792571529464e-01	 3.489571045876173e+01
 1.363956118608690e+00	 1.739215527406027e-01	 1.481843302076568e+01
 1.360484744408075e+00	 1.992642974238827e-01	-5.438027287781246e+00
 1.356516616473704e+00	 2.246946132453406e-01	-2.585139541917734e+01
 1.352044881565965e+00	 2.501991970734234e-01	-4.639848049321397e+01
 1.229131710534368e+00	 2.274538155180211e-01	 3.649157710255434e+00
 1.224602830660197e+00	 2.506948487310240e-01	 7.059382181293330e-01
 1.219604854344699e+00	 2.739781000458331e-01	-2.028230956431113e+00
 1.214132786041956e+00	 2.972903932297759e-01	-4.486583250128060e+00
 1.208182087148427e+00	 3.206182221012702e-01	-6.601380694904847e+00
 1.201748697753769e+00	 3.439477685578606e-01	-8.304153321589357e+00
 1.194829057653032e+00	 3.672649221392482e-01	-9.525951928199031e+00
 1.187420126502869e+00	 3.905553010997262e-01	-1.019761319017834e+01
 1.179519403004286e+00	 4.138042749547273e-01	-1.025003594029418e+01
 1.171124942995283e+00	 4.369969884562962e-01	-9.614467299896500e+00
 1.162235376338345e+00	 4.601183869422883e-01	-8.222797202707429e+00
 1.241423027637528e+00	 2.297283536736933e-01	-3.987274126523104e+00
 1.236848858964224e+00	 2.532017972172809e-01	-6.009152591627263e+00
 1.231800902885296e+00	 2.767178810439017e-01	-7.845293283684246e+00
 1.226274113899371e+00	 3.002632971585613e-01	-9.438001136747822e+00
 1.220263908016873e+00	 3.238244043178657e-01	-1.072875364665198e+01
 1.213766184728358e+00	 3.473872462383388e-01	-1.165840867955341e+01
 1.206777348226831e+00	 3.709375713550829e-01	-1.216742382481711e+01
 1.199294327765508e+00	 3.944608541049375e-01	-1.219608640181762e+01
 1.191314597032411e+00	 4.179423176984929e-01	-1.168475310065230e+01
 1.182836192423920e+00	 4.413669583353181e-01	-1.057409811028279e+01
 1.173857730101146e+00	 4.647195708066494e-01	-8.805368465926406e+00
 1.253714344740687e+00	 2.320028918293363e-01	-1.099299028371069e+01
 1.249094887268250e+00	 2.557087457036991e-01	-1.217173181043218e+01
 1.243996951425893e+00	 2.794576620423040e-01	-1.318756502505840e+01
 1.238415441756786e+00	 3.032362010878337e-01	-1.399172642968075e+01
 1.232345728885320e+00	 3.270305865350823e-01	-1.453476687963830e+01
 1.225783671702949e+00	 3.508267239195527e-01	-1.476672820132833e+01
 1.218725638800629e+00	 3.746102205717475e-01	-1.463732955733519e+01
 1.211168529028148e+00	 3.983664071110527e-01	-1.409616279919335e+01
 1.203109791060537e+00	 4.220803604432159e-01	-1.309289593825325e+01
 1.194547441852557e+00	 4.457369282153292e-01	-1.157748375794033e+01
 1.185480083863948e+00	 4.693207546720106e-01	-9.500384487629109e+00
 1.266005661843847e+00	 2.342774299849499e-01	-1.738637374898009e+01
 1.261340915572276e+00	 2.582156941902787e-01	-1.779790286456574e+01
 1.256192999966490e+00	 2.821974430410401e-01	-1.806888415830894e+01
 1.250556769614201e+00	 3.062091050175934e-01	-1.815934984920967e+01
 1.244427549753766e+00	 3.302367687529200e-01	-1.802878618909058e+01
 1.237801158677538e+00	 3.542662016015020e-01	-1.763627928225883e+01
 1.230673929374427e+00	 3.782828697892420e-01	-1.694066887807395e+01
 1.223042730290788e+00	 4.022719601180717e-01	-1.590070950597273e+01
 1.214904985088662e+00	 4.262184031888958e-01	-1.447523823214284e+01
 1.206258691281194e+00	 4.501068980963296e-01	-1.262334822894025e+01
 1.197102437626749e+00	 4.739219385383718e-01	-1.030456726347051e+01
 1.278296978947007e+00	 2.365519681405341e-01	-2.318510019887185e+01
 1.273586943876303e+00	 2.607226426770197e-01	-2.290314954642243e+01
 1.268389048507087e+00	 2.849372240401096e-01	-2.250255616245831e+01
 1.262698097471615e+00	 3.091820089478399e-01	-2.195201605307405e+01
 1.256509370622212e+00	 3.334429509713790e-01	-2.121981688562114e+01
 1.249818645652128e+00	 3.577056792841868e-01	-2.027395339146449e+01
 1.242622219948226e+00	 3.819555190075664e-01	-1.908224898920230e+01
 1.234916931553427e+00	 4.061775131259946e-01	-1.761248312565544e+01
 1.226700179116788e+00	 4.303564459355328e-01	-1.583252376085499e+01
 1.217969940709831e+00	 4.544768679783192e-01	-1.371046435400342e+01
 1.208724791389550e+00	 4.785231224057330e-01	-1.121476464090147e+01
 1.290588296050166e+00	 2.388265062960890e-01	-2.840617168155343e+01
 1.285832972180329e+00	 2.632295911639221e-01	-2.750236552226720e+01
 1.280585097047684e+00	 2.876770050395130e-01	-2.650137937635525e+01
 1.274839425329030e+00	 3.121549128785735e-01	-2.538044487911210e+01
 1.268591191490658e+00	 3.366491331904589e-01	-2.411652096281309e+01
 1.261836132626718e+00	 3.611451569676073e-01	-2.268637921291137e+01
 1.254570510522024e+00	 3.856281682267207e-01	-2.106669371358732e+01
 1.246791132816067e+00	 4.100830661348213e-01	-1.923413500629476e+01
 1.238495373144913e+00	 4.344944886831269e-01	-1.716546773291510e+01
 1.229681190138469e+00	 4.588468378612980e-01	-1.483765148451694e+01
 1.220347145152352e+00	 4.831243062740942e-01	-1.222794432821345e+01
 1.302879613153326e+00	 2.411010444516146e-01	-3.306594839300527e+01
 1.298079000484355e+00	 2.657365396509859e-01	-3.160988216973929e+01
 1.292781145588281e+00	 2.904167860392501e-01	-3.007766892184371e+01
 1.286980753186445e+00	 3.151278168097941e-01	-2.845495138548542e+01
 1.280673012359105e+00	 3.398553154101601e-01	-2.672723329305318e+01
 1.273853619601308e+00	 3.645846346517633e-01	-2.487993504264552e+01
 1.266518801095822e+00	 3.893008174467049e-01	-2.289845214653663e+01
 1.258665334078706e+00	 4.139886191445518e-01	-2.076821620721184e+01
 1.250290567173038e+00	 4.386325314316781e-01	-1.847475813636837e+01
 1.241392439567106e+00	 4.632168077452660e-01	-1.600377330009225e+01
 1.231969498915152e+00	 4.877254901434555e-01	-1.334118824268927e+01
 1.315170930256486e+00	 2.433755826071108e-01	-3.718017867136444e+01
 1.310325028788382e+00	 2.682434881382111e-01	-3.523949485437225e+01
 1.304977194128878e+00	 2.931565670393207e-01	-3.324327928544149e+01
 1.299122081043860e+00	 3.181007207415019e-01	-3.118546476715147e+01
 1.292754833227551e+00	 3.430614976304824e-01	-2.905997691518357e+01
 1.285871106575899e+00	 3.680241123366550e-01	-2.686076049085223e+01
 1.278467091669621e+00	 3.929734666675191e-01	-2.458180682239299e+01
 1.270539535341346e+00	 4.178941721551863e-01	-2.221718218719844e+01
 1.262085761201164e+00	 4.427705741811864e-01	-1.976105701262887e+01
 1.253103688995743e+00	 4.675867776302233e-01	-1.720773573905939e+01
 1.243591852677954e+00	 4.923266740138165e-01	-1.455168717567563e+01
 1.327462247359646e+00	 2.456501207625777e-01	-4.076402732491287e+01
 1.322571057092408e+00	 2.707504366255978e-01	-3.840448774630629e+01
 1.317173242669475e+00	 2.958963480397251e-01	-3.600962564548059e+01
 1.311263408901274e+00	 3.210736246736966e-01	-3.358154622141785e+01
 1.304836654095997e+00	 3.462676798514259e-01	-3.112247747283757e+01
 1.297888593550488e+00	 3.714635900222821e-01	-2.863476753379749e+01
 1.290415382243419e+00	 3.966461158891632e-01	-2.612088142742519e+01
 1.282413736603985e+00	 4.217997251667246e-01	-2.358339723226105e+01
 1.273880955229289e+00	 4.469086169316517e-01	-2.102500165955576e+01
 1.264814938424380e+00	 4.719567475161698e-01	-1.844848504392981e+01
 1.255214206440755e+00	 4.969278578851778e-01	-1.585673575403530e+01
 1.339753564462805e+00	 2.479246589180152e-01	-4.383210240072648e+01
 1.334817085396434e+00	 2.732573851131458e-01	-4.111765727094080e+01
 1.329369291210072e+00	 2.986361290404630e-01	-3.838770402527360e+01
 1.323404736758689e+00	 3.240465286063783e-01	-3.565240583006938e+01
 1.316918474964443e+00	 3.494738620729904e-01	-3.292217685800157e+01
 1.309906080525078e+00	 3.749030677086448e-01	-3.020765095740255e+01
 1.302363672817217e+00	 4.003187651116372e-01	-2.751964808815359e+01
 1.294287937866625e+00	 4.257052781791670e-01	-2.486913863963114e+01
 1.285676149257414e+00	 4.510466596830741e-01	-2.226720576830045e+01
 1.276526187853017e+00	 4.763267174031054e-01	-1.972500591444382e+01
 1.266836560203556e+00	 5.015290417575390e-01	-1.725372767894653e+01
 1.352044881565965e+00	 2.501991970734234e-01	-4.639848049321397e+01
 1.347063113700461e+00	 2.757643336008552e-01	-4.339133428045865e+01
 1.341565339750669e+00	 3.013759100415347e-01	-4.038811034701504e+01
 1.335546064616104e+00	 3.270194325395472e-01	-3.740691852064957e+01
 1.329000295832889e+00	 3.526800442951761e-01	-3.446624611038007e+01
 1.321923567499668e+00	 3.783425453957430e-01	-3.158489823116630e+01
 1.314311963391016e+00	 4.039914143349411e-01	-2.878193426212669e+01
 1.306162139129264e+00	 4.296108311925129e-01	-2.607660067355444e+01
 1.297471343285539e+00	 4.551847024354536e-01	-2.348826049814070e+01
 1.288237437281654e+00	 4.806966872910303e-01	-2.103631976135670e+01
 1.278458913966357e+00	 5.061302256309002e-01	-1.874015122439944e+01
 1.162235376338345e+00	 4.601183869422883e-01	-8.222797202707429e+00
 1.152849922490885e+00	 4.831532429944503e-01	-1.127205995708093e+01
 1.142968404648257e+00	 5.060861843290319e-01	-1.429991575487798e+01
 1.132591262356013e+00	 5.289017228355558e-01	-1.730507664748423e+01
 1.121719562493458e+00	 5.515842846700590e-01	-2.028620575349200e+01
 1.110355008534519e+00	 5.741182412978676e-01	-2.324191672488212e+01
 1.098499948001281e+00	 5.964879413737912e-01	-2.617077351772050e+01
 1.086157378033213e+00	 6.186777433390787e-01	-2.907129048904673e+01
 1.073330949004241e+00	 6.406720486069893e-01	-3.194193283952543e+01
 1.060024966129602e+00	 6.624553352020790e-01	-3.478111741900325e+01
 1.046244389015035e+00	 6.840121917124017e-01	-3.758721390936827e+01
 1.173857730101146e+00	 4.647195708066494e-01	-8.805368465926406e+00
 1.164378421715943e+00	 4.879847754199314e-01	-1.197343545644954e+01
 1.154398088695481e+00	 5.111470461684536e-01	-1.509789993621553e+01
 1.143917174980766e+00	 5.341907400606339e-01	-1.817595128651480e+01
 1.132936758119894e+00	 5.571001275140689e-01	-2.120479159280750e+01
 1.121458558621532e+00	 5.798594237087382e-01	-2.418164274392739e+01
 1.109484947482980e+00	 6.024528207859984e-01	-2.710375367085672e+01
 1.097018951815104e+00	 6.248645207715108e-01	-2.996840769215109e+01
 1.084064258495567e+00	 6.470787690926668e-01	-3.277292993109573e+01
 1.070625215791757e+00	 6.690798885542671e-01	-3.551469476789943e+01
 1.056706832905469e+00	 6.908523136302467e-01	-3.819113328873595e+01
 1.185480083863948e+00	 4.693207546720106e-01	-9.500384487629109e+00
 1.175906920941005e+00	 4.928163078464028e-01	-1.277689105652955e+01
 1.165827772742723e+00	 5.162079080088365e-01	-1.598806156124408e+01
 1.155243087605563e+00	 5.394797572866247e-01	-1.912958608368770e+01
 1.144153953746409e+00	 5.626159703589233e-01	-2.219722824301165e+01
 1.132562108708666e+00	 5.856006061203647e-01	-2.518683983209258e+01
 1.120469946964856e+00	 6.084177001988529e-01	-2.809437543055227e+01
 1.107880525597237e+00	 6.310512982044613e-01	-3.091590690742237e+01
 1.094797567987208e+00	 6.534854895787139e-01	-3.364763772467277e+01
 1.081225465454313e+00	 6.757044419066560e-01	-3.628591695171023e+01
 1.067169276796399e+00	 6.976924355481020e-01	-3.882725290066806e+01
 1.197102437626749e+00	 4.739219385383718e-01	-1.030456726347051e+01
 1.187435420166073e+00	 4.976478402738645e-01	-1.367944938183154e+01
 1.177257456789986e+00	 5.212687698501810e-01	-1.696771048642284e+01
 1.166569000230403e+00	 5.447687745135282e-01	-2.016356405029671e+01
 1.155371149373001e+00	 5.681318132046219e-01	-2.326135713609087e+01
 1.143665658795923e+00	 5.913417885327469e-01	-2.625559247685531e+01
 1.131454946446909e+00	 6.143825796123552e-01	-2.914095037221877e+01
 1.118742099379610e+00	 6.372380756379310e-01	-3.191231025965585e+01
 1.105530877479165e+00	 6.598922100651305e-01	-3.456477181883045e+01
 1.091825715117267e+00	 6.823289952592448e-01	-3.709367546652101e+01
 1.077631720687823e+00	 7.045325574659680e-01	-3.949462210056579e+01
 1.208724791389550e+00	 4.785231224057330e-01	-1.121476464090147e+01
 1.198963919391144e+00	 5.024793727023167e-01	-1.467824735404346e+01
 1.188687140837268e+00	 5.263296316924868e-01	-1.803425982652315e+01
 1.177894912855287e+00	 5.500577917413444e-01	-2.127556095896679e+01
 1.166588344999672e+00	 5.736476560511649e-01	-2.439510253550510e+01
 1.154769208883302e+00	 5.970829709458854e-01	-2.738605865867356e+01
 1.142439945929137e+00	 6.203474590265043e-01	-3.024185484025330e+01
 1.129603673162223e+00	 6.434248530719191e-01	-3.295619655506609e+01
 1.116264186971437e+00	 6.662989305519170e-01	-3.552309706304319e+01
 1.102425964780622e+00	 6.889535486120343e-01	-3.793690430507287e+01
 1.088094164579742e+00	 7.113726793838446e-01	-4.019232668024618e+01
 1.220347145152352e+00	 4.831243062740942e-01	-1.222794432821345e+01
 1.210492418616221e+00	 5.073109051317592e-01	-1.577053075132305e+01
 1.200116824884569e+00	 5.313904935357540e-01	-1.918522103959926e+01
 1.189220825480215e+00	 5.553468089700732e-01	-2.246334092849055e+01
 1.177805540626420e+00	 5.791634988985520e-01	-2.559646759387730e+01
 1.165872758970802e+00	 6.028241533597791e-01	-2.857646635335799e+01
 1.153424945411542e+00	 6.263123384413013e-01	-3.139552686582490e+01
 1.140465246945077e+00	 6.496116305064259e-01	-3.404619858417088e+01
 1.126997496464023e+00	 6.727056510390734e-01	-3.652142521437627e+01
 1.113026214444376e+00	 6.955781019650239e-01	-3.881457793504489e+01
 1.098556608472156e+00	 7.182128013017320e-01	-4.091948713476122e+01
 1.231969498915152e+00	 4.877254901434555e-01	-1.334118824268927e+01
 1.222020917841303e+00	 5.121424375621921e-01	-1.695364907554904e+01
 1.211546508931890e+00	 5.364513553799823e-01	-2.041819929016276e+01
 1.200546738105186e+00	 5.606358261997149e-01	-2.372475225857506e+01
 1.189022736253246e+00	 5.846793417467834e-01	-2.686353063382589e+01
 1.176976309058426e+00	 6.085653357744293e-01	-2.982511023241775e+01
 1.164409944894123e+00	 6.322772178567456e-01	-3.260046325911955e+01
 1.151326820728172e+00	 6.557984079414517e-01	-3.518100057733952e+01
 1.137730805956926e+00	 6.791123715265995e-01	-3.755861272680859e+01
 1.123626464108531e+00	 7.022026553182141e-01	-3.972570939176693e+01
 1.109019052365064e+00	 7.250529232196299e-01	-4.167525702731645e+01
 1.243591852677954e+00	 4.923266740138165e-01	-1.455168717567563e+01
 1.233549417066389e+00	 5.169739699936152e-01	-1.822505070738535e+01
 1.222976192979229e+00	 5.415122172251722e-01	-2.173088907236105e+01
 1.211872650730201e+00	 5.659248434302693e-01	-2.505772349814851e+01
 1.200239931880150e+00	 5.901951845958592e-01	-2.819444163734404e+01
 1.188079859146171e+00	 6.143065181898351e-01	-3.113034854842779e+01
 1.175394944376881e+00	 6.382420972728371e-01	-3.385521686463110e+01
 1.162188394511508e+00	 6.619851853769962e-01	-3.635933580301118e+01
 1.148464115450142e+00	 6.855190920144951e-01	-3.863355866451364e+01
 1.134226713773085e+00	 7.088272086716045e-01	-4.066934847787721e+01
 1.119481496258467e+00	 7.318930451375384e-01	-4.245882144586962e+01
 1.255214206440755e+00	 4.969278578851778e-01	-1.585673575403530e+01
 1.245077916291481e+00	 5.218055024260289e-01	-1.958227833050347e+01
 1.234405877026588e+00	 5.465730790713230e-01	-2.312107007630715e+01
 1.223198563355260e+00	 5.712138606617362e-01	-2.646025973208864e+01
 1.211457127507132e+00	 5.957110274457791e-01	-2.958741893020751e+01
 1.199183409234037e+00	 6.200477006059969e-01	-3.249060019342546e+01
 1.186379943859815e+00	 6.442069766895762e-01	-3.515839396893007e+01
 1.173049968295084e+00	 6.681719628130592e-01	-3.757998429934261e+01
 1.159197424943675e+00	 6.919258125027606e-01	-3.974520273106248e+01
 1.144826963438039e+00	 7.154517620251954e-01	-4.164458006299230e+01
 1.129943940152365e+00	 7.387331670554576e-01	-4.326939554546826e+01
 1.266836560203556e+00	 5.015290417575390e-01	-1.725372767894653e+01
 1.256606415516577e+00	 5.266370348594331e-01	-2.102296460767759e+01
 1.245835561073966e+00	 5.516339409184358e-01	-2.458660328194615e+01
 1.234524475980362e+00	 5.765028778941159e-01	-2.793043907234650e+01
 1.222674323134192e+00	 6.012268702965434e-01	-3.104074604888628e+01
 1.210286959322027e+00	 6.257888830229146e-01	-3.390434191922466e+01
 1.197364943342925e+00	 6.501718561069625e-01	-3.650865185111837e+01
 1.183911542078901e+00	 6.743587402496409e-01	-3.884177073071078e+01
 1.169930734437522e+00	 6.983325329913959e-01	-4.089252340710546e+01
 1.155427213103392e+00	 7.220763153789866e-01	-4.265052247696772e+01
 1.140406384046757e+00	 7.455732889733871e-01	-4.410622317081911e+01
 1.278458913966357e+00	 5.061302256309002e-01	-1.874015122439944e+01
 1.268134914741677e+00	 5.314685672938273e-01	-2.254482809272459e+01
 1.257265245121364e+00	 5.566948027665093e-01	-2.612542726597826e+01
 1.245850388605507e+00	 5.817918951274083e-01	-2.946640934045815e+01
 1.233891518761329e+00	 6.067427131481519e-01	-3.255276877834706e+01
 1.221390509410137e+00	 6.315300654405880e-01	-3.537010570934335e+01
 1.208349942826211e+00	 6.561367355249965e-01	-3.790469646688965e+01
 1.194773115862958e+00	 6.805455176867415e-01	-4.014356236113007e+01
 1.180664043931685e+00	 7.047392534804008e-01	-4.207453618962893e+01
 1.166027462769146e+00	 7.287008687329783e-01	-4.368632599079240e+01
 1.150868827941644e+00	 7.524134108913275e-01	-4.496857555398439e+01
 1.046244389015035e+00	 6.840121917124017e-01	-3.758721390936827e+01
 1.031994829112001e+00	 7.053273514082546e-01	-3.760080334731974e+01
 1.017282545054521e+00	 7.263857263794559e-01	-3.747264717467805e+01
 1.002114435865165e+00	 7.471724415374245e-01	-3.720908364914656e+01
 9.864980320304253e-01	 7.676728683263137e-01	-3.681700828491181e+01
 9.704414844585151e-01	 7.878726579898537e-01	-3.630385098743290e+01
 9.539535513453987e-01	 8.077577742387658e-01	-3.567755010814457e+01
 9.370435829877606e-01	 8.273145251659155e-01	-3.494652355490636e+01
 9.197215045943361e-01	 8.465295942593203e-01	-3.411963712024767e+01
 9.019977971594894e-01	 8.653900703672559e-01	-3.320617021433743e+01
 8.838834764750000e-01	 8.838834764750000e-01	-3.221577921285233e+01
 1.056706832905469e+00	 6.908523136302467e-01	-3.819113328873595e+01
 1.042314777402819e+00	 7.123806249235496e-01	-3.811069844118423e+01
 1.027455370504306e+00	 7.336495836448358e-01	-3.790359862284319e+01
 1.012135580222726e+00	 7.546441659546386e-01	-3.757436207948988e+01
 9.963630123494379e-01	 7.753495970115514e-01	-3.712800441929154e+01
 9.801458993017382e-01	 7.957513845717418e-01	-3.657001314758310e+01
 9.634930868575512e-01	 8.158353519830368e-01	-3.590632954212806e+01
 9.464140188165280e-01	 8.355876704192311e-01	-3.514332795662559e+01
 9.289187196394912e-01	 8.549948902032221e-01	-3.428779266271439e+01
 9.110177751307498e-01	 8.740439710717682e-01	-3.334689236236991e+01
 8.927223112400001e-01	 8.927223112400001e-01	-3.232815252313144e+01
 1.067169276796399e+00	 6.976924355481020e-01	-3.882725290066806e+01
 1.052634725694217e+00	 7.194338984386744e-01	-3.863763904732735e+01
 1.037628195954726e+00	 7.409134409099047e-01	-3.833610588447962e+01
 1.022156724580948e+00	 7.621158903714401e-01	-3.792539931895311e+01
 1.006227992669108e+00	 7.830263256963153e-01	-3.740868373242157e+01
 9.898503141455847e-01	 8.036301111531332e-01	-3.678953382357229e+01
 9.730326223702622e-01	 8.239129297268302e-01	-3.607192420597195e+01
 9.557844546457592e-01	 8.438608156721282e-01	-3.526021680187669e+01
 9.381159346849866e-01	 8.634601861468045e-01	-3.435914609103829e+01
 9.200377531021950e-01	 8.826978717761008e-01	-3.337380229201339e+01
 9.015611460049998e-01	 9.015611460049998e-01	-3.230961257135261e+01
 1.077631720687823e+00	 7.045325574659680e-01	-3.949462210056579e+01
 1.062954673986195e+00	 7.264871719536292e-01	-3.918111525503056e+01
 1.047801021405781e+00	 7.481772981746628e-01	-3.877010959347977e+01
 1.032177868939832e+00	 7.695876147878290e-01	-3.826259554906318e+01
 1.016092972989436e+00	 7.907030543806040e-01	-3.765991411928091e+01
 9.995547289900544e-01	 8.115088377340292e-01	-3.696375592565865e+01
 9.825721578835327e-01	 8.319905074701464e-01	-3.617615843913003e+01
 9.651548904754556e-01	 8.521339609246066e-01	-3.529950136439887e+01
 9.473131497308213e-01	 8.719254820900676e-01	-3.433650019172232e+01
 9.290577310738252e-01	 8.913517724802531e-01	-3.329019793985178e+01
 9.103999807700000e-01	 9.103999807700000e-01	-3.216395512910130e+01
 1.088094164579742e+00	 7.113726793838446e-01	-4.019232668024618e+01
 1.073274622278753e+00	 7.335404454684142e-01	-3.974063665015178e+01
 1.057973846857473e+00	 7.554411554391099e-01	-3.920555256329871e+01
 1.042199013299377e+00	 7.770593392038053e-01	-3.858633546774976e+01
 1.025957953310421e+00	 7.983797830644190e-01	-3.788253001411377e+01
 1.009259143835148e+00	 8.193875643144291e-01	-3.709397064544698e+01
 9.921116933973619e-01	 8.400680852129850e-01	-3.622078635781850e+01
 9.745253263056164e-01	 8.604071061766666e-01	-3.526340397836687e+01
 9.565103647769959e-01	 8.803907780330110e-01	-3.422254991924235e+01
 9.380777090456406e-01	 9.000056731842258e-01	-3.309925037800830e+01
 9.192388155350000e-01	 9.192388155350000e-01	-3.189482996769894e+01
 1.098556608472156e+00	 7.182128013017320e-01	-4.091948713476122e+01
 1.083594570571891e+00	 7.405937189830295e-01	-4.031573138855285e+01
 1.068146672309800e+00	 7.627050127032456e-01	-3.964237968494158e+01
 1.052220157659584e+00	 7.845310636193691e-01	-3.889698902837166e+01
 1.035822933632064e+00	 8.060565117477595e-01	-3.807733398544037e+01
 1.018963558680864e+00	 8.272662908943328e-01	-3.718141992024796e+01
 1.001651228911751e+00	 8.481456629553464e-01	-3.620749520046616e+01
 9.838957621362415e-01	 8.686802514283076e-01	-3.515406227501042e+01
 9.657075798235105e-01	 8.888560739756349e-01	-3.401988753221896e+01
 9.470976870176407e-01	 9.086595738880187e-01	-3.280400985653323e+01
 9.280776503000001e-01	 9.280776503000001e-01	-3.150574781172613e+01
 1.109019052365064e+00	 7.250529232196299e-01	-4.167525702731645e+01
 1.093914518865609e+00	 7.476469924974751e-01	-4.090594532196762e+01
 1.078319497762762e+00	 7.699688699670706e-01	-4.008053783072020e+01
 1.062241302020453e+00	 7.920027880345202e-01	-3.919491213690623e+01
 1.045687913954364e+00	 8.137332404306257e-01	-3.824509824077744e+01
 1.028667973527204e+00	 8.351450174737410e-01	-3.722729875793992e+01
 1.011190764426698e+00	 8.562232406972299e-01	-3.613790848379386e+01
 9.932661979673315e-01	 8.769533966795300e-01	-3.497353317941987e+01
 9.749047948703654e-01	 8.973213699179398e-01	-3.373100743885814e+01
 9.561176649898260e-01	 9.173134745916315e-01	-3.240741150376449e+01
 9.369164850650002e-01	 9.369164850650001e-01	-3.100008689894244e+01
 1.119481496258467e+00	 7.318930451375384e-01	-4.245882144586962e+01
 1.104234467159906e+00	 7.547002660117507e-01	-4.151084117288044e+01
 1.088492323216361e+00	 7.772327272305846e-01	-4.051997576340010e+01
 1.072262446381982e+00	 7.994745124492590e-01	-3.948044731003709e+01
 1.055552894277321e+00	 8.214099691130178e-01	-3.838656604697712e+01
 1.038372388374167e+00	 8.430237440526529e-01	-3.723275743145931e+01
 1.020730299942205e+00	 8.643008184386362e-01	-3.601358898191186e+01
 1.002636633798886e+00	 8.852265419303337e-01	-3.472379668322634e+01
 9.841020099175596e-01	 9.057866658599246e-01	-3.335831077067961e+01
 9.651376429621962e-01	 9.259673752950645e-01	-3.191228070703652e+01
 9.457553198299999e-01	 9.457553198299999e-01	-3.038109917235952e+01
 1.129943940152365e+00	 7.387331670554576e-01	-4.326939554546826e+01
 1.114554415454784e+00	 7.617535395258563e-01	-4.212999775523954e+01
 1.098665148670595e+00	 7.844965844937873e-01	-4.096064405038913e+01
 1.082283590744174e+00	 8.069462368635849e-01	-3.975392429667559e+01
 1.065417874600936e+00	 8.290866977949353e-01	-3.850245307165104e+01
 1.048076803221754e+00	 8.509024706310688e-01	-3.719890355136948e+01
 1.030269835458270e+00	 8.723783961795647e-01	-3.583604153990804e+01
 1.012007069630905e+00	 8.934996871807190e-01	-3.440675940768367e+01
 9.932992249650937e-01	 9.142519618015905e-01	-3.290410970214549e+01
 9.741576209347511e-01	 9.346212759983175e-01	-3.132133819445775e+01
 9.545941545949999e-01	 9.545941545949999e-01	-2.965191612830325e+01
 1.140406384046757e+00	 7.455732889733871e-01	-4.410622317081911e+01
 1.124874363750242e+00	 7.688068130397925e-01	-4.276300923806035e+01
 1.108837974125464e+00	 7.917604417566795e-01	-4.140249498264379e+01
 1.092304735107027e+00	 8.144179612774985e-01	-4.001566066526559e+01
 1.075282854925209e+00	 8.367634264763789e-01	-3.859344865075023e+01
 1.057781218069964e+00	 8.587811972089886e-01	-3.712680402433676e+01
 1.039809370974894e+00	 8.804559739200161e-01	-3.560671573255109e+01
 1.021377505463388e+00	 9.017728324306855e-01	-3.402425797061187e+01
 1.002496440012967e+00	 9.227172577429366e-01	-3.237063153250405e+01
 9.831775989074915e-01	 9.432751767013908e-01	-3.063720483695085e+01
 9.634329893600002e-01	 9.634329893600002e-01	-2.881555434256115e+01
 1.150868827941644e+00	 7.524134108913275e-01	-4.496857555398439e+01
 1.135194312046280e+00	 7.758600865535584e-01	-4.340948444918970e+01
 1.119010799580969e+00	 7.990242990192602e-01	-4.184548249799236e+01
 1.102325879470541e+00	 8.218896856909992e-01	-4.026596235904547e+01
 1.085147835250138e+00	 8.444401551573477e-01	-3.866021698699756e+01
 1.067485632918797e+00	 8.666599237864125e-01	-3.701748690477552e+01
 1.049348906492078e+00	 8.885335516599897e-01	-3.532700837797218e+01
 1.030747941296336e+00	 9.100459776802332e-01	-3.357806216968507e+01
 1.011693655061181e+00	 9.311825536839639e-01	-3.176002254498536e+01
 9.921975768804164e-01	 9.519290774042841e-01	-2.986240618836058e+01
 9.722718241249999e-01	 9.722718241249999e-01	-2.787492069509929e+01
 8.838834764750000e-01	 8.838834764750000e-01	-3.221577921285233e+01
 8.653900703672558e-01	 9.019977971594894e-01	-2.802411512421222e+01
 8.465295942593203e-01	 9.197215045943362e-01	-2.421288471974300e+01
 8.273145251659157e-01	 9.370435829877607e-01	-2.079107311745597e+01
 8.077577742387659e-01	 9.539535513453987e-01	-1.776637883981476e+01
 7.878726579898540e-01	 9.704414844585149e-01	-1.514519026381562e+01
 7.676728683263140e-01	 9.864980320304252e-01	-1.293256889387967e+01
 7.471724415374250e-01	 1.002114435865165e+00	-1.113223951782455e+01
 7.263857263794565e-01	 1.017282545054521e+00	-9.746587249440598e+00
 7.053273514082554e-01	 1.031994829112000e+00	-8.776661404988328e+00
 6.840121917124017e-01	 1.046244389015035e+00	-8.222186105983237e+00
 8.927223112400001e-01	 8.927223112400001e-01	-3.232815252313144e+01
 8.740439710717682e-01	 9.110177751307497e-01	-2.809884707983868e+01
 8.549948902032222e-01	 9.289187196394916e-01	-2.422229011582131e+01
 8.355876704192313e-01	 9.464140188165279e-01	-2.071004040188511e+01
 8.158353519830368e-01	 9.634930868575508e-01	-1.757244196496877e+01
 7.957513845717418e-01	 9.801458993017379e-01	-1.481858913986081e+01
 7.753495970115517e-01	 9.963630123494376e-01	-1.245629819202837e+01
 7.546441659546392e-01	 1.012135580222726e+00	-1.049208565109047e+01
 7.336495836448365e-01	 1.027455370504305e+00	-8.931153438481617e+00
 7.123806249235501e-01	 1.042314777402819e+00	-7.777380816602073e+00
 6.908523136302465e-01	 1.056706832905469e+00	-7.033323130922018e+00
 9.015611460049998e-01	 9.015611460049998e-01	-3.230961257135261e+01
 8.826978717761006e-01	 9.200377531021950e-01	-2.806071310325115e+01
 8.634601861468045e-01	 9.381159346849864e-01	-2.413731555799223e+01
 8.438608156721283e-01	 9.557844546457592e-01	-2.055351620361773e+01
 8.239129297268304e-01	 9.730326223702622e-01	-1.732226745537097e+01
 8.036301111531335e-01	 9.898503141455844e-01	-1.445533166451502e+01
 7.830263256963154e-01	 1.006227992669108e+00	-1.196324122992687e+01
 7.621158903714405e-01	 1.022156724580948e+00	-9.855265250367871e+00
 7.409134409099053e-01	 1.037628195954725e+00	-8.139382880098399e+00
 7.194338984386750e-01	 1.052634725694217e+00	-6.822263494201202e+00
 6.976924355481020e-01	 1.067169276796399e+00	-5.909253713284006e+00
 9.103999807700000e-01	 9.103999807700000e-01	-3.216395512910130e+01
 8.913517724802530e-01	 9.290577310738252e-01	-2.791298309544917e+01
 8.719254820900674e-01	 9.473131497308210e-01	-2.396069233113027e+01
 8.521339609246068e-01	 9.651548904754556e-01	-2.032368149607204e+01
 8.319905074701465e-01	 9.825721578835326e-01	-1.701747535580585e+01
 8.115088377340296e-01	 9.995547289900545e-01	-1.405646743892446e+01
 7.907030543806044e-01	 1.016092972989435e+00	-1.145386877224121e+01
 7.695876147878296e-01	 1.032177868939832e+00	-9.221662989053304e+00
 7.481772981746633e-01	 1.047801021405781e+00	-7.370568051425979e+00
 7.264871719536298e-01	 1.062954673986194e+00	-5.910004771043384e+00
 7.045325574659680e-01	 1.077631720687823e+00	-4.848072255630804e+00
 9.192388155350000e-01	 9.192388155350000e-01	-3.189482996769894e+01
 9.000056731842259e-01	 9.380777090456406e-01	-2.765880119451736e+01
 8.803907780330109e-01	 9.565103647769959e-01	-2.369504668459206e+01
 8.604071061766667e-01	 9.745253263056164e-01	-2.002263339417215e+01
 8.400680852129850e-01	 9.921116933973620e-01	-1.665962343771945e+01
 8.193875643144292e-01	 1.009259143835148e+00	-1.362300574176602e+01
 7.983797830644193e-01	 1.025957953310421e+00	-1.092863353456335e+01
 7.770593392038057e-01	 1.042199013299377e+00	-8.591168043594294e+00
 7.554411554391103e-01	 1.057973846857472e+00	-6.624028719257979e+00
 7.335404454684151e-01	 1.073274622278753e+00	-5.039350246599140e+00
 7.113726793838446e-01	 1.088094164579742e+00	-3.847946548568214e+00
 9.280776503000001e-01	 9.280776503000001e-01	-3.150574781172613e+01
 9.086595738880183e-01	 9.470976870176407e-01	-2.730119176536801e+01
 8.888560739756349e-01	 9.657075798235105e-01	-2.334290483484289e+01
 8.686802514283077e-01	 9.838957621362414e-01	-1.965238914844632e+01
 8.481456629553463e-01	 1.001651228911750e+00	-1.625021016535393e+01
 8.272662908943332e-01	 1.018963558680864e+00	-1.315591745000227e+01
 8.060565117477597e-01	 1.035822933632063e+00	-1.038797104342937e+01
 7.845310636193695e-01	 1.052220157659584e+00	-7.963673879500537e+00
 7.627050127032463e-01	 1.068146672309799e+00	-5.899110640887372e+00
 7.405937189830302e-01	 1.083594570571890e+00	-4.209093393175989e+00
 7.182128013017320e-01	 1.098556608472156e+00	-2.907114276239785e+00
 9.369164850650002e-01	 9.369164850650001e-01	-3.100008689894244e+01
 9.173134745916314e-01	 9.561176649898259e-01	-2.684306505043726e+01
 8.973213699179396e-01	 9.749047948703653e-01	-2.290669768491030e+01
 8.769533966795300e-01	 9.932661979673313e-01	-1.921488991303965e+01
 8.562232406972300e-01	 1.011190764426698e+00	-1.579067749398367e+01
 8.351450174737411e-01	 1.028667973527204e+00	-1.265613685091187e+01
 8.137332404306261e-01	 1.045687913954363e+00	-9.832300447656994e+00
 7.920027880345210e-01	 1.062241302020452e+00	-7.339078049465323e+00
 7.699688699670710e-01	 1.078319497762762e+00	-5.195184338479543e+00
 7.476469924974758e-01	 1.093914518865608e+00	-3.418073298015731e+00
 7.250529232196300e-01	 1.109019052365064e+00	-2.023879719621425e+00
 9.457553198299999e-01	 9.457553198299999e-01	-3.038109917235952e+01
 9.259673752950643e-01	 9.651376429621963e-01	-2.628722250351630e+01
 9.057866658599246e-01	 9.841020099175595e-01	-2.238876527919399e+01
 8.852265419303337e-01	 1.002636633798885e+00	-1.871200430243399e+01
 8.643008184386362e-01	 1.020730299942204e+00	-1.528241351123798e+01
 8.430237440526532e-01	 1.038372388374167e+00	-1.212456335250936e+01
 8.214099691130180e-01	 1.055552894277321e+00	-9.262025284183595e+00
 7.994745124492595e-01	 1.072262446381982e+00	-6.717282002805729e+00
 7.772327272305850e-01	 1.088492323216360e+00	-4.511643942173067e+00
 7.547002660117512e-01	 1.104234467159906e+00	-2.665172532000582e+00
 7.318930451375383e-01	 1.119481496258467e+00	-1.196610644677687e+00
 9.545941545949999e-01	 9.545941545949999e-01	-2.965191612830325e+01
 9.346212759983176e-01	 9.741576209347513e-01	-2.563636182725357e+01
 9.142519618015904e-01	 9.932992249650935e-01	-2.179136101078031e+01
 8.934996871807190e-01	 1.012007069630904e+00	-1.814553175056837e+01
 8.723783961795650e-01	 1.030269835458270e+00	-1.472675493168165e+01
 8.509024706310692e-01	 1.048076803221754e+00	-1.156206309893751e+01
 8.290866977949357e-01	 1.065417874600936e+00	-8.677534201356092e+00
 8.069462368635854e-01	 1.082283590744173e+00	-6.098190905488334e+00
 7.844965844937880e-01	 1.098665148670594e+00	-3.847906097449684e+00
 7.617535395258571e-01	 1.114554415454784e+00	-1.949315136764888e+00
 7.387331670554576e-01	 1.129943940152365e+00	-4.237353633972099e-01
 9.634329893600002e-01	 9.634329893600002e-01	-2.881555434256115e+01
 9.432751767013909e-01	 9.831775989074915e-01	-2.489308173336114e+01
 9.227172577429366e-01	 1.002496440012967e+00	-2.111665559716045e+01
 9.017728324306855e-01	 1.021377505463388e+00	-1.751720568505003e+01
 8.804559739200162e-01	 1.039809370974894e+00	-1.412498945407577e+01
 8.587811972089889e-01	 1.057781218069964e+00	-1.096947049693735e+01
 8.367634264763789e-01	 1.075282854925208e+00	-8.079201642404920e+00
 8.144179612774990e-01	 1.092304735107027e+00	-5.481713470057556e+00
 7.917604417566800e-01	 1.108837974125464e+00	-3.203408932648038e+00
 7.688068130397931e-01	 1.124874363750241e+00	-1.269464722604162e+00
 7.455732889733871e-01	 1.140406384046757e+00	 2.962600433962166e-01
 9.722718241249999e-01	 9.722718241249999e-01	-2.787492069509929e+01
 9.519290774042841e-01	 9.921975768804165e-01	-2.405988644316758e+01
 9.311825536839636e-01	 1.011693655061181e+00	-2.036674083908420e+01
 9.100459776802337e-01	 1.030747941296336e+00	-1.682869652822489e+01
 8.885335516599900e-01	 1.049348906492078e+00	-1.347835799005674e+01
 8.666599237864129e-01	 1.067485632918797e+00	-1.034758965905248e+01
 8.444401551573482e-01	 1.085147835250138e+00	-7.467388491634066e+00
 8.218896856909996e-01	 1.102325879470541e+00	-4.867761794840110e+00
 7.990242990192610e-01	 1.119010799580969e+00	-2.577611082792771e+00
 7.758600865535591e-01	 1.135194312046279e+00	-6.246226701368052e-01
 7.524134108913274e-01	 1.150868827941644e+00	 9.648343517486957e-01
 6.840121917124017e-01	 1.046244389015035e+00	-8.222186105983237e+00
 6.624553352020789e-01	 1.060024966129602e+00	-6.539355636345702e+00
 6.406720486069893e-01	 1.073330949004241e+00	-5.463520488339872e+00
 6.186777433390788e-01	 1.086157378033213e+00	-5.016412076712088e+00
 5.964879413737916e-01	 1.098499948001280e+00	-5.217619926315896e+00
 5.741182412978680e-01	 1.110355008534519e+00	-6.084543157288918e+00
 5.515842846700593e-01	 1.121719562493458e+00	-7.632353805923753e+00
 5.289017228355563e-01	 1.132591262356013e+00	-9.873971961933888e+00
 5.060861843290325e-01	 1.142968404648257e+00	-1.282005260910580e+01
 4.831532429944511e-01	 1.152849922490885e+00	-1.647898396646418e+01
 4.601183869422882e-01	 1.162235376338345e+00	-2.085689704199283e+01
 6.908523136302465e-01	 1.056706832905469e+00	-7.033323130922018e+00
 6.690798885542670e-01	 1.070625215791757e+00	-5.374936278411184e+00
 6.470787690926667e-01	 1.084064258495567e+00	-4.369653976223725e+00
 6.248645207715108e-01	 1.097018951815105e+00	-4.035694082111339e+00
 6.024528207859987e-01	 1.109484947482980e+00	-4.389017774499246e+00
 5.798594237087384e-01	 1.121458558621532e+00	-5.443298133177354e+00
 5.571001275140695e-01	 1.132936758119894e+00	-7.209900728506575e+00
 5.341907400606344e-01	 1.143917174980766e+00	-9.697876082826317e+00
 5.111470461684543e-01	 1.154398088695481e+00	-1.291396377669329e+01
 4.879847754199321e-01	 1.164378421715942e+00	-1.686260788643644e+01
 4.647195708066494e-01	 1.173857730101146e+00	-2.154598335910369e+01
 6.976924355481020e-01	 1.067169276796399e+00	-5.909253713284006e+00
 6.757044419066557e-01	 1.081225465454312e+00	-4.249575611542341e+00
 6.534854895787137e-01	 1.094797567987208e+00	-3.288317715822015e+00
 6.310512982044615e-01	 1.107880525597236e+00	-3.040239835616797e+00
 6.084177001988532e-01	 1.120469946964856e+00	-3.517731516287697e+00
 5.856006061203651e-01	 1.132562108708666e+00	-4.730797499577251e+00
 5.626159703589236e-01	 1.144153953746409e+00	-6.687055364848419e+00
 5.394797572866252e-01	 1.155243087605563e+00	-9.391745099049322e+00
 5.162079080088372e-01	 1.165827772742723e+00	-1.284775025497278e+01
 4.928163078464036e-01	 1.175906920941005e+00	-1.705563027488898e+01
 4.693207546720107e-01	 1.185480083863948e+00	-2.201366348084669e+01
 7.045325574659680e-01	 1.077631720687823e+00	-4.848072255630804e+00
 6.823289952592447e-01	 1.091825715117267e+00	-3.162117554101904e+00
 6.598922100651304e-01	 1.105530877479165e+00	-2.219128257480046e+00
 6.372380756379310e-01	 1.118742099379610e+00	-2.030460016475104e+00
 6.143825796123554e-01	 1.131454946446909e+00	-2.604985802511511e+00
 5.913417885327474e-01	 1.143665658795923e+00	-3.949098038664660e+00
 5.681318132046224e-01	 1.155371149373001e+00	-6.066723082938680e+00
 5.447687745135287e-01	 1.166569000230403e+00	-8.959347697492966e+00
 5.212687698501816e-01	 1.177257456789986e+00	-1.262605705158243e+01
 4.976478402738654e-01	 1.187435420166072e+00	-1.706358372708905e+01
 4.739219385383718e-01	 1.197102437626749e+00	-2.226636712430847e+01
 7.113726793838446e-01	 1.088094164579742e+00	-3.847946548568214e+00
 6.889535486120340e-01	 1.102425964780622e+00	-2.111450593683257e+00
 6.662989305519171e-01	 1.116264186971437e+00	-1.161717012464628e+00
 6.434248530719193e-01	 1.129603673162223e+00	-1.006749629311788e+00
 6.203474590265048e-01	 1.142439945929137e+00	-1.651958310208819e+00
 5.970829709458856e-01	 1.154769208883302e+00	-3.100177560735602e+00
 5.736476560511651e-01	 1.166588344999672e+00	-5.351697647454401e+00
 5.500577917413448e-01	 1.177894912855286e+00	-8.404307763149788e+00
 5.263296316924875e-01	 1.188687140837267e+00	-1.225335067309799e+01
 5.024793727023174e-01	 1.198963919391144e+00	-1.689178820421512e+01
 4.785231224057330e-01	 1.208724791389550e+00	-2.231027687222833e+01
 7.182128013017320e-01	 1.098556608472156e+00	-2.907114276239785e+00
 6.955781019650238e-01	 1.113026214444376e+00	-1.096505664841960e+00
 6.727056510390736e-01	 1.126997496464024e+00	-1.157295452936573e-01
 6.496116305064261e-01	 1.140465246945077e+00	 3.051124954643569e-02
 6.263123384413014e-01	 1.153424945411542e+00	-6.597819793097806e-01
 6.028241533597797e-01	 1.165872758970803e+00	-2.185938664537932e+00
 5.791634988985525e-01	 1.177805540626420e+00	-4.544666533903762e+00
 5.553468089700738e-01	 1.189220825480215e+00	-7.730111274084251e+00
 5.313904935357544e-01	 1.200116824884568e+00	-1.173392762467141e+01
 5.073109051317600e-01	 1.210492418616221e+00	-1.654536115832892e+01
 4.831243062740943e-01	 1.220347145152352e+00	-2.215133994079737e+01
 7.250529232196300e-01	 1.109019052365064e+00	-2.023879719621425e+00
 7.022026553182140e-01	 1.123626464108531e+00	-1.162541469526328e-01
 6.791123715265995e-01	 1.137730805956926e+00	 9.191750938795398e-01
 6.557984079414519e-01	 1.151326820728172e+00	 1.080956767994078e+00
 6.322772178567455e-01	 1.164409944894123e+00	 3.704528772846878e-01
 6.085653357744295e-01	 1.176976309058425e+00	-1.208212284753802e+00
 5.846793417467839e-01	 1.189022736253246e+00	-3.648215941971003e+00
 5.606358261997154e-01	 1.200546738105186e+00	-6.940112806121114e+00
 5.364513553799830e-01	 1.211546508931889e+00	-1.107192242855677e+01
 5.121424375621928e-01	 1.222020917841302e+00	-1.602922708423611e+01
 4.877254901434555e-01	 1.231969498915153e+00	-2.179527928135774e+01
 7.318930451375383e-01	 1.119481496258467e+00	-1.196610644677687e+00
 7.088272086716046e-01	 1.134226713773085e+00	 8.302940256623117e-01
 6.855190920144951e-01	 1.148464115450143e+00	 1.943324999445945e+00
 6.619851853769962e-01	 1.162188394511507e+00	 2.144234633550855e+00
 6.382420972728374e-01	 1.175394944376881e+00	 1.437696581946781e+00
 6.143065181898355e-01	 1.188079859146170e+00	-1.687610405589268e-01
 5.901951845958594e-01	 1.200239931880150e+00	-2.664835527737171e+00
 5.659248434302697e-01	 1.211872650730201e+00	-6.037541672786503e+00
 5.415122172251726e-01	 1.222976192979229e+00	-1.027131519300048e+01
 5.169739699936161e-01	 1.233549417066389e+00	-1.534812653572974e+01
 4.923266740138165e-01	 1.243591852677954e+00	-2.124760405957679e+01
 7.387331670554576e-01	 1.129943940152365e+00	-4.237353633972099e-01
 7.154517620251952e-01	 1.144826963438039e+00	 1.744092148614186e+00
 6.919258125027606e-01	 1.159197424943675e+00	 2.957036005510023e+00
 6.681719628130595e-01	 1.173049968295084e+00	 3.220005485688109e+00
 6.442069766895764e-01	 1.186379943859815e+00	 2.540938211217806e+00
 6.200477006059973e-01	 1.199183409234037e+00	 9.307176018497465e-01
 5.957110274457796e-01	 1.211457127507132e+00	-1.596922873002971e+00
 5.712138606617366e-01	 1.223198563355260e+00	-5.025507724139835e+00
 5.465730790713239e-01	 1.234405877026588e+00	-9.335938760639490e+00
 5.218055024260299e-01	 1.245077916291480e+00	-1.450662464093282e+01
 4.969278578851778e-01	 1.255214206440755e+00	-2.051361955244607e+01
 7.455732889733871e-01	 1.140406384046757e+00	 2.962600433962166e-01
 7.220763153789865e-01	 1.155427213103392e+00	 2.626058434077304e+00
 6.983325329913959e-01	 1.169930734437522e+00	 3.960612248298474e+00
 6.743587402496412e-01	 1.183911542078901e+00	 4.307942302705889e+00
 6.501718561069627e-01	 1.197364943342925e+00	 3.679203818251366e+00
 6.257888830229149e-01	 1.210286959322026e+00	 2.088588340809792e+00
 6.012268702965438e-01	 1.222674323134191e+00	-4.467877085919412e-01
 5.765028778941165e-01	 1.234524475980362e+00	-3.907006826406807e+00
 5.516339409184363e-01	 1.245835561073966e+00	-8.269485463408131e+00
 5.266370348594338e-01	 1.256606415516577e+00	-1.350911914890584e+01
 5.015290417575390e-01	 1.266836560203556e+00	-1.959843650049227e+01
 7.524134108913274e-01	 1.150868827941644e+00	 9.648343517486957e-01
 7.287008687329781e-01	 1.166027462769146e+00	 3.477077605424313e+00
 7.047392534804007e-01	 1.180664043931685e+00	 4.954346697892664e+00
 6.805455176867415e-01	 1.194773115862958e+00	 5.407729840962915e+00
 6.561367355249966e-01	 1.208349942826211e+00	 4.851554752215133e+00
 6.315300654405884e-01	 1.221390509410137e+00	 3.303275213755121e+00
 6.067427131481523e-01	 1.233891518761329e+00	 7.833440927070825e-01
 5.817918951274087e-01	 1.245850388605507e+00	-2.684926042721592e+00
 5.566948027665101e-01	 1.257265245121364e+00	-7.075513508997787e+00
 5.314685672938282e-01	 1.268134914741677e+00	-1.235984803735016e+01
 5.061302256309000e-01	 1.278458913966357e+00	-1.850697994986828e+01
 4.601183869422882e-01	 1.162235376338345e+00	-2.085689704199283e+01
 4.369969884562961e-01	 1.171124942995283e+00	-4.662335709388479e+00
 4.138042749547273e-01	 1.179519403004286e+00	 9.421036176584465e+00
 3.905553010997264e-01	 1.187420126502869e+00	 2.142768621915523e+01
 3.672649221392484e-01	 1.194829057653032e+00	 3.139663568533947e+01
 3.439477685578608e-01	 1.201748697753768e+00	 3.937118236263565e+01
 3.206182221012706e-01	 1.208182087148427e+00	 4.539861330184667e+01
 2.972903932297764e-01	 1.214132786041956e+00	 4.952990955378114e+01
 2.739781000458337e-01	 1.219604854344699e+00	 5.181944497387292e+01
 2.506948487310247e-01	 1.224602830660197e+00	 5.232468111768982e+01
 2.274538155180211e-01	 1.229131710534368e+00	 5.110586018338044e+01
 4.647195708066494e-01	 1.173857730101146e+00	-2.154598335910369e+01
 4.413669583353180e-01	 1.182836192423920e+00	-5.438995642971577e+00
 4.179423176984929e-01	 1.191314597032411e+00	 8.632566148307358e+00
 3.944608541049377e-01	 1.199294327765508e+00	 2.069757162582953e+01
 3.709375713550830e-01	 1.206777348226831e+00	 3.078937485950654e+01
 3.473872462383391e-01	 1.213766184728358e+00	 3.894556141896967e+01
 3.238244043178661e-01	 1.220263908016873e+00	 4.520768467536476e+01
 3.002632971585618e-01	 1.226274113899371e+00	 4.962099335082862e+01
 2.767178810439023e-01	 1.231800902885296e+00	 5.223415227982406e+01
 2.532017972172816e-01	 1.236848858964223e+00	 5.309895830701677e+01
 2.297283536736934e-01	 1.241423027637528e+00	 5.227005319135627e+01
 4.693207546720107e-01	 1.185480083863948e+00	-2.201366348084669e+01
 4.457369282153291e-01	 1.194547441852557e+00	-6.033140991604885e+00
 4.220803604432159e-01	 1.203109791060537e+00	 7.986518103027365e+00
 3.983664071110528e-01	 1.211168529028148e+00	 2.006867210045949e+01
 3.746102205717478e-01	 1.218725638800630e+00	 3.024109543185572e+01
 3.508267239195530e-01	 1.225783671702948e+00	 3.853574957240723e+01
 3.270305865350828e-01	 1.232345728885319e+00	 4.498854259470048e+01
 3.032362010878344e-01	 1.238415441756786e+00	 4.963907923252358e+01
 2.794576620423047e-01	 1.243996951425893e+00	 5.253040331081353e+01
 2.557087457036998e-01	 1.249094887268250e+00	 5.370873436938868e+01
 2.320028918293363e-01	 1.253714344740687e+00	 5.322320026485058e+01
 4.739219385383718e-01	 1.197102437626749e+00	-2.226636712430847e+01
 4.501068980963295e-01	 1.206258691281194e+00	-6.450068590205632e+00
 4.262184031888958e-01	 1.214904985088661e+00	 7.478763084950625e+00
 4.022719601180718e-01	 1.223042730290787e+00	 1.953805903976749e+01
 3.782828697892422e-01	 1.230673929374427e+00	 2.975009907566002e+01
 3.542662016015024e-01	 1.237801158677538e+00	 3.814130613082261e+01
 3.302367687529205e-01	 1.244427549753766e+00	 4.474202878672323e+01
 3.062091050175939e-01	 1.250556769614200e+00	 4.958631355648951e+01
 2.821974430410407e-01	 1.256192999966490e+00	 5.271166870375893e+01
 2.582156941902795e-01	 1.261340915572276e+00	 5.415882132381134e+01
 2.342774299849499e-01	 1.266005661843847e+00	 5.397146938716557e+01
 4.785231224057330e-01	 1.208724791389550e+00	-2.231027687222833e+01
 4.544768679783190e-01	 1.217969940709831e+00	-6.694871715618202e+00
 4.303564459355328e-01	 1.226700179116788e+00	 7.105330774596577e+00
 4.061775131259946e-01	 1.234916931553427e+00	 1.910291630661333e+01
 3.819555190075666e-01	 1.242622219948226e+00	 2.931475260979804e+01
 3.577056792841872e-01	 1.249818645652129e+00	 3.776180717550422e+01
 3.334429509713793e-01	 1.256509370622212e+00	 4.446895242685686e+01
 3.091820089478404e-01	 1.262698097471615e+00	 4.946475995032858e+01
 2.849372240401104e-01	 1.268389048507087e+00	 5.278128543185262e+01
 2.607226426770205e-01	 1.273586943876302e+00	 5.445384593464725e+01
 2.365519681405341e-01	 1.278296978947007e+00	 5.452079113577521e+01
 4.831243062740943e-01	 1.220347145152352e+00	-2.215133994079737e+01
 4.588468378612978e-01	 1.229681190138469e+00	-6.772449779318741e+00
 4.344944886831269e-01	 1.238495373144913e+00	 6.862401935254432e+00
 4.100830661348214e-01	 1.246791132816067e+00	 1.876053487505285e+01
 3.856281682267209e-01	 1.254570510522024e+00	 2.893348489718500e+01
 3.611451569676077e-01	 1.261836132626718e+00	 3.739684476303090e+01
 3.366491331904594e-01	 1.268591191490658e+00	 4.417009168976143e+01
 3.121549128785740e-01	 1.274839425329030e+00	 4.927640325175408e+01
 2.876770050395138e-01	 1.280585097047684e+00	 5.274246317009616e+01
 2.632295911639229e-01	 1.285832972180329e+00	 5.459825853384270e+01
 2.388265062960890e-01	 1.290588296050166e+00	 5.487686998791635e+01
 4.877254901434555e-01	 1.231969498915153e+00	-2.179527928135774e+01
 4.632168077452659e-01	 1.241392439567105e+00	-6.687517471475356e+00
 4.386325314316782e-01	 1.250290567173038e+00	 6.746301286996495e+00
 4.139886191445520e-01	 1.258665334078706e+00	 1.850830777850386e+01
 3.893008174467052e-01	 1.266518801095822e+00	 2.860478391876437e+01
 3.645846346517638e-01	 1.273853619601308e+00	 3.704602617232634e+01
 3.398553154101606e-01	 1.280673012359104e+00	 4.384619521223868e+01
 3.151278168097947e-01	 1.286980753186445e+00	 4.902315322569513e+01
 2.904167860392506e-01	 1.292781145588281e+00	 5.259829030052022e+01
 2.657365396509867e-01	 1.298079000484355e+00	 5.459634134378020e+01
 2.411010444516146e-01	 1.302879613153326e+00	 5.504519498623883e+01
 4.923266740138165e-01	 1.243591852677954e+00	-2.124760405957679e+01
 4.675867776302232e-01	 1.253103688995743e+00	-6.444613392259466e+00
 4.427705741811864e-01	 1.262085761201164e+00	 6.753490780280671e+00
 4.178941721551864e-01	 1.270539535341346e+00	 1.834372534119299e+01
 3.929734666675194e-01	 1.278467091669621e+00	 2.832719401157228e+01
 3.680241123366553e-01	 1.285871106575899e+00	 3.670897319393183e+01
 3.430614976304829e-01	 1.292754833227551e+00	 4.349798347410658e+01
 3.181007207415024e-01	 1.299122081043860e+00	 4.870684807296445e+01
 2.931565670393215e-01	 1.304977194128878e+00	 5.235173958066382e+01
 2.682434881382119e-01	 1.310325028788381e+00	 5.445221633343107e+01
 2.433755826071108e-01	 1.315170930256486e+00	 5.503104980638142e+01
 4.969278578851778e-01	 1.255214206440755e+00	-2.051361955244607e+01
 4.719567475161696e-01	 1.264814938424380e+00	-6.048108203640655e+00
 4.469086169316517e-01	 1.273880955229289e+00	 6.880563243238562e+00
 4.217997251667246e-01	 1.282413736603985e+00	 1.826437067451936e+01
 3.966461158891635e-01	 1.290415382243419e+00	 2.809931326024377e+01
 3.714635900222824e-01	 1.297888593550488e+00	 3.638532145876378e+01
 3.462676798514263e-01	 1.304836654095997e+00	 4.312615010235452e+01
 3.210736246736973e-01	 1.311263408901275e+00	 4.832925774399988e+01
 2.958963480397257e-01	 1.317173242669475e+00	 5.200567349713451e+01
 2.707504366255986e-01	 1.322571057092408e+00	 5.416985263805125e+01
 2.456501207625777e-01	 1.327462247359646e+00	 5.483952226523847e+01
 5.015290417575390e-01	 1.266836560203556e+00	-1.959843650049227e+01
 4.763267174031054e-01	 1.276526187853017e+00	-5.502212332459180e+00
 4.510466596830741e-01	 1.285676149257414e+00	 7.124236378654484e+00
 4.257052781791671e-01	 1.294287937866625e+00	 1.826791542132576e+01
 4.003187651116374e-01	 1.302363672817217e+00	 2.791979103210215e+01
 3.749030677086451e-01	 1.309906080525078e+00	 3.607471980381909e+01
 3.494738620729909e-01	 1.316918474964443e+00	 4.273136310351234e+01
 3.240465286063789e-01	 1.323404736758689e+00	 4.789208707019765e+01
 2.986361290404637e-01	 1.329369291210072e+00	 5.156284932447912e+01
 2.732573851131466e-01	 1.334817085396434e+00	 5.375307357045681e+01
 2.479246589180153e-01	 1.339753564462806e+00	 5.447551330583410e+01
 5.061302256309000e-01	 1.278458913966357e+00	-1.850697994986828e+01
 4.806966872910303e-01	 1.288237437281654e+00	-4.810983253332825e+00
 4.551847024354536e-01	 1.297471343285539e+00	 7.481347088380687e+00
 4.296108311925131e-01	 1.306162139129264e+00	 1.835211573229862e+01
 4.039914143349413e-01	 1.314311963391015e+00	 2.778732564670024e+01
 3.783425453957433e-01	 1.321923567499668e+00	 3.577682967247799e+01
 3.526800442951766e-01	 1.329000295832889e+00	 4.231426602879638e+01
 3.270194325395477e-01	 1.335546064616104e+00	 4.739697872444321e+01
 3.013759100415353e-01	 1.341565339750669e+00	 5.102592390811484e+01
 2.757643336008559e-01	 1.347063113700460e+00	 5.320556324986124e+01
 2.501991970734234e-01	 1.352044881565965e+00	 5.394374549211196e+01
 2.274538155180211e-01	 1.229131710534368e+00	 5.110586018338044e+01
 2.042678302137041e-01	 1.233196924082991e+00	 2.931272078967104e+01
 1.811493612805352e-01	 1.236804313110804e+00	 1.084609883010856e+01
 1.581105024744471e-01	 1.239960107835634e+00	-4.299027349023934e+00
 1.351629610294562e-01	 1.242670903327850e+00	-1.613769955915085e+01
 1.123180473713980e-01	 1.244943635769421e+00	-2.469452026957581e+01
 8.958666633593650e-02	 1.246785558634639e+00	-3.000317042322015e+01
 6.697930985936418e-02	 1.248204218889501e+00	-3.210590853884644e+01
 4.450605110464890e-02	 1.249207433301722e+00	-3.105305497326265e+01
 2.217653997970472e-02	 1.249803264948056e+00	-2.690246509197401e+01
 0.000000000000000e+00	 1.250000000000000e+00	-1.971899494743396e+01
 2.297283536736934e-01	 1.241423027637528e+00	 5.227005319135627e+01
 2.063105085178029e-01	 1.245528893322062e+00	 3.099556257130249e+01
 1.829608548964180e-01	 1.249172356240531e+00	 1.285331321177991e+01
 1.596916075030363e-01	 1.252359708912939e+00	-2.160947602550209e+00
 1.365145906440207e-01	 1.255097612360361e+00	-1.406093993982144e+01
 1.134412278494712e-01	 1.257393072126586e+00	-2.286941781870464e+01
 9.048253300341476e-02	 1.259253414220649e+00	-2.861771435021872e+01
 6.764910296151375e-02	 1.260686261078208e+00	-3.134526917405190e+01
 4.495111161837246e-02	 1.261699507634656e+00	-3.109914184789969e+01
 2.239830538099112e-02	 1.262301297597516e+00	-2.793351473036983e+01
 0.000000000000000e+00	 1.262500000000000e+00	-2.190918875704455e+01
 2.320028918293363e-01	 1.253714344740687e+00	 5.322320026485058e+01
 2.083531868216939e-01	 1.257860862561134e+00	 3.243534591510348e+01
 1.847723485119567e-01	 1.261540399370259e+00	 1.458922771013248e+01
 1.612727125311870e-01	 1.264759309990245e+00	-3.186608697403805e-01
 1.378662202580929e-01	 1.267524321392872e+00	-1.230074866537329e+01
 1.145644083270384e-01	 1.269842508483751e+00	-2.137797916075892e+01
 9.137839967041286e-02	 1.271721269806659e+00	-2.757938256234896e+01
 6.831889606324743e-02	 1.273168303266915e+00	-3.094163116856851e+01
 4.539617213178213e-02	 1.274191581967590e+00	-3.150858147587069e+01
 2.262007078210258e-02	 1.274799330246976e+00	-2.933080635664288e+01
 0.000000000000000e+00	 1.275000000000000e+00	-2.446512051160388e+01
 2.342774299849499e-01	 1.266005661843847e+00	 5.397146938716557e+01
 2.103958651253771e-01	 1.270192831800205e+00	 3.363917151784106e+01
 1.865838421271515e-01	 1.273908442499986e+00	 1.606176591854091e+01
 1.628538175588991e-01	 1.277158911067550e+00	 1.236470184405114e+00
 1.392178498716727e-01	 1.279951030425384e+00	-1.084788292601540e+01
 1.156875888040997e-01	 1.282291944840916e+00	-2.021046317443784e+01
 9.227426633693080e-02	 1.284189125392670e+00	-2.687804148242704e+01
 6.898868916456520e-02	 1.285650345455622e+00	-3.088457284487971e+01
 4.584123264487796e-02	 1.286683656300524e+00	-3.227076675431614e+01
 2.284183618303908e-02	 1.287297362896436e+00	-3.108364826868471e+01
 0.000000000000000e+00	 1.287500000000000e+00	-2.737611273088132e+01
 2.365519681405341e-01	 1.278296978947007e+00	 5.452079113577521e+01
 2.124385434288524e-01	 1.282524801039276e+00	 3.461386679872906e+01
 1.883953357420022e-01	 1.286276485629713e+00	 1.727854650540765e+01
 1.644349225861726e-01	 1.289558512144856e+00	 2.512750521344721e+00
 1.405694794847602e-01	 1.292377739457896e+00	-9.693455569382586e+00
 1.168107692806550e-01	 1.294741381198081e+00	-1.935750355751248e+01
 9.317013300296850e-02	 1.296656980978679e+00	-2.650394744205339e+01
 6.965848226546710e-02	 1.298132387644329e+00	-3.116407350973345e+01
 4.628629315765993e-02	 1.299175730633459e+00	-3.337549869053392e+01
 2.306360158380064e-02	 1.299795395545896e+00	-3.318176012196879e+01
 0.000000000000000e+00	 1.300000000000000e+00	-3.063189873830999e+01
 2.388265062960890e-01	 1.290588296050166e+00	 5.487686998791635e+01
 2.144812217321199e-01	 1.294856770278347e+00	 3.536599891316272e+01
 1.902068293565090e-01	 1.298644528759439e+00	 1.824689773488380e+01
 1.660160276130074e-01	 1.301958113222162e+00	 3.518168556747550e+00
 1.419211090973555e-01	 1.304804448490407e+00	-8.828918164074668e+00
 1.179339497567045e-01	 1.307190817555246e+00	-1.881009097796165e+01
 9.406599966852608e-02	 1.309124836564689e+00	-2.644772811425093e+01
 7.032827536595314e-02	 1.310614429833036e+00	-3.177049435943811e+01
 4.673135367012803e-02	 1.311667804966393e+00	-3.481296696801297e+01
 2.328536698438725e-02	 1.312293428195356e+00	-3.561525334101714e+01
 0.000000000000000e+00	 1.312500000000000e+00	-3.422260309890694e+01
 2.411010444516146e-01	 1.302879613153326e+00	 5.504519498623883e+01
 2.165239000351797e-01	 1.307188739517419e+00	 3.590188702983042e+01
 1.920183229706717e-01	 1.311012571889167e+00	 1.897387116565820e+01
 1.675971326394038e-01	 1.314357714299468e+00	 4.260411092332625e+00
 1.432727387094584e-01	 1.317231157522919e+00	-8.246045021867214e+00
 1.190571302322480e-01	 1.319640253912411e+00	-1.855955623542230e+01
 9.496186633360344e-02	 1.321592692150699e+00	-2.670036499708369e+01
 7.099806846602327e-02	 1.323096472021744e+00	-3.269456046599222e+01
 4.717641418228224e-02	 1.324159879299327e+00	-3.657373161250634e+01
 2.350713238479890e-02	 1.324791460844816e+00	-3.837461263965383e+01
 0.000000000000000e+00	 1.325000000000000e+00	-3.813872316448035e+01
 2.433755826071108e-01	 1.315170930256486e+00	 5.503104980638142e+01
 2.185665783380317e-01	 1.319520708756490e+00	 3.622761391938504e+01
 1.938298165844906e-01	 1.323380615018894e+00	 1.946625458159334e+01
 1.691782376653614e-01	 1.326757315376773e+00	 4.746877410409503e+00
 1.446243683210689e-01	 1.329657866555430e+00	-7.936918115870814e+00
 1.201803107072856e-01	 1.332089690269576e+00	-1.859755436685556e+01
 9.585773299820063e-02	 1.334060547736709e+00	-2.725317687950393e+01
 7.166786156567753e-02	 1.335578514210451e+00	-3.392734377333576e+01
 4.762147469412262e-02	 1.336651953632262e+00	-3.864870568617246e+01
 2.372889778503561e-02	 1.337289493494276e+00	-4.145067857750529e+01
 0.000000000000000e+00	 1.337500000000000e+00	-4.237111165368461e+01
 2.456501207625777e-01	 1.327462247359646e+00	 5.483952226523847e+01
 2.206092566406758e-01	 1.331852677995562e+00	 3.634903689930163e+01
 1.956413101979653e-01	 1.335748658148621e+00	 1.973058420398971e+01
 1.707593426908806e-01	 1.339156916454079e+00	 4.984692585387315e+00
 1.459759979321872e-01	 1.342084575587941e+00	-7.893912836572227e+00
 1.213034911818173e-01	 1.344539126626741e+00	-1.891604963523292e+01
 9.675359966231767e-02	 1.346528403322719e+00	-2.809780422576358e+01
 7.233765466491589e-02	 1.348060556399157e+00	-3.546024703825577e+01
 4.806653520564912e-02	 1.349144027965196e+00	-4.102913894315476e+01
 2.395066318509738e-02	 1.349787526143736e+00	-4.483463108558277e+01
 0.000000000000000e+00	 1.350000000000000e+00	-4.691096019985114e+01
 2.479246589180153e-01	 1.339753564462806e+00	 5.447551330583410e+01
 2.226519349431121e-01	 1.344184647234633e+00	 3.627179817626495e+01
 1.974528038110961e-01	 1.348116701278348e+00	 1.977315623161566e+01
 1.723404477159611e-01	 1.351556517531384e+00	 4.980720062541661e+00
 1.473276275428132e-01	 1.354511284620453e+00	-8.109684531946606e+00
 1.224266716558430e-01	 1.356988562983906e+00	-1.950730134453271e+01
 9.764946632595450e-02	 1.358996258908729e+00	-2.922619441939942e+01
 7.300744776373835e-02	 1.360542598587865e+00	-3.728498865527938e+01
 4.851159571686176e-02	 1.361636102298130e+00	-4.370660238485330e+01
 2.417242858498419e-02	 1.362285558793196e+00	-4.851797389871697e+01
 0.000000000000000e+00	 1.362500000000000e+00	-5.174978380444248e+01
 2.501991970734234e-01	 1.352044881565965e+00	 5.394374549211196e+01
 2.246946132453406e-01	 1.356516616473704e+00	 3.600133462442564e+01
 1.992642974238829e-01	 1.360484744408075e+00	 1.960003775128176e+01
 1.739215527406030e-01	 1.363956118608690e+00	 4.741573550665194e+00
 1.486792571529468e-01	 1.366937993652964e+00	-8.577155781745038e+00
 1.235498521293628e-01	 1.369437999341071e+00	-2.036385042846567e+01
 9.854533298911115e-02	 1.371464114494739e+00	-3.063058781209051e+01
 7.367724086214492e-02	 1.373024640776572e+00	-3.939358830929751e+01
 4.895665622776053e-02	 1.374128176631064e+00	-4.667297365763576e+01
 2.439419398469604e-02	 1.374783591442656e+00	-5.249251983712624e+01
 0.000000000000000e+00	 1.375000000000000e+00	-5.687940613850007e+01
 1.375000000000000e+00	 0.000000000000000e+00	 1.504721021804992e+02
 1.374783591442656e+00	 2.439419398469526e-02	 1.318827317084001e+02
 1.374128176631064e+00	 4.895665622775984e-02	 1.130013243520398e+02
 1.373024640776572e+00	 7.367724086214431e-02	 9.384411817750454e+01
 1.371464114494739e+00	 9.854533298911061e-02	 7.442839682993485e+01
 1.369437999341071e+00	 1.235498521293624e-01	 5.477248021238334e+01
 1.366937993652964e+00	 1.486792571529464e-01	 3.489571045876173e+01
 1.363956118608690e+00	 1.739215527406027e-01	 1.481843302076568e+01
 1.360484744408075e+00	 1.992642974238827e-01	-5.438027287781246e+00
 1.356516616473704e+00	 2.246946132453406e-01	-2.585139541917734e+01
 1.352044881565965e+00	 2.501991970734234e-01	-4.639848049321397e+01
 1.387500000000000e+00	 0.000000000000000e+00	 1.482957870787058e+02
 1.387281624092118e+00	 2.461595938431963e-02	 1.299954688474951e+02
 1.386620250964008e+00	 4.940171673850166e-02	 1.113732684224103e+02
 1.385506682965300e+00	 7.434703396034295e-02	 9.244865315092788e+01
 1.383931970080787e+00	 9.944119965202716e-02	 7.324235448014832e+01
 1.381887435698295e+00	 1.246730326026292e-01	 5.377635539764814e+01
 1.379364702685561e+00	 1.500308867628339e-01	 3.407387195638109e+01
 1.376355719686112e+00	 1.755026577650253e-01	 1.415932865963411e+01
 1.372852787537955e+00	 2.010757910364976e-01	-5.941672487685043e+00
 1.368848585712971e+00	 2.267372915474652e-01	-2.620238942105215e+01
 1.364336198669367e+00	 2.524737352288170e-01	-4.659498407340912e+01
 1.400000000000000e+00	 0.000000000000000e+00	 1.457683423984280e+02
 1.399779656741585e+00	 2.483772478394402e-02	 1.277924448309621e+02
 1.399112325296970e+00	 4.984677724924350e-02	 1.094654552959299e+02
 1.397988725154069e+00	 7.501682705854158e-02	 9.081002908004265e+01
 1.396399825666909e+00	 1.003370663149437e-01	 7.185030140768190e+01
 1.394336872055636e+00	 1.257962130758961e-01	 5.261187167076591e+01
 1.391791411718328e+00	 1.513825163727214e-01	 3.312178054531287e+01
 1.388755320763768e+00	 1.770837627894480e-01	 1.340847972730234e+01
 1.385220830668143e+00	 2.028872846491123e-01	-6.498205942632585e+00
 1.381180554952629e+00	 2.287799698495898e-01	-2.656712415457574e+01
 1.376627515773255e+00	 2.547482733842105e-01	-4.676584874754037e+01
 1.412500000000000e+00	 0.000000000000000e+00	 1.428990632812475e+02
 1.412277689391056e+00	 2.505949018356840e-02	 1.252820177086318e+02
 1.411604399629950e+00	 5.029183775998533e-02	 1.072852890421764e+02
 1.410470767342881e+00	 7.568662015674019e-02	 8.893468025994110e+01
 1.408867681253106e+00	 1.012329329778603e-01	 7.025768750445117e+01
 1.406786308413095e+00	 1.269193935491629e-01	 5.128348112789472e+01
 1.404218120751266e+00	 1.527341459826088e-01	 3.204287843901371e+01
 1.401154921841658e+00	 1.786648678138706e-01	 1.256830784135490e+01
 1.397588873798637e+00	 2.046987782617271e-01	-7.106235903925679e+00
 1.393512524192677e+00	 2.308226481517144e-01	-2.694524550853151e+01
 1.388918832877628e+00	 2.570228115396040e-01	-4.691176424428668e+01
 1.425000000000000e+00	 0.000000000000000e+00	 1.396969189523176e+02
 1.424775722040532e+00	 2.528125558319277e-02	 1.224722524980906e+02
 1.424096473962949e+00	 5.073689827072717e-02	 1.048399141745965e+02
 1.422952809531734e+00	 7.635641325493886e-02	 8.682881545922928e+01
 1.421335536839377e+00	 1.021287996407769e-01	 6.846977167816547e+01
 1.419235744770672e+00	 1.280425740224298e-01	 4.979547989253093e+01
 1.416644829784374e+00	 1.540857755924963e-01	 3.084048731327940e+01
 1.413554522919780e+00	 1.802459728382932e-01	 1.164114989197519e+01
 1.409956916929438e+00	 2.065102718743419e-01	-7.764419215272468e+00
 1.405844493433116e+00	 2.328653264538391e-01	-2.733641155715714e+01
 1.401210149982486e+00	 2.592973496949976e-01	-4.703339585381425e+01
 1.437500000000000e+00	 0.000000000000000e+00	 1.361705668906429e+02
 1.437273754690013e+00	 2.550302098281715e-02	 1.193709339250845e+02
 1.436588548295966e+00	 5.118195878146901e-02	 1.021362269353004e+02
 1.435434851720629e+00	 7.702620635313746e-02	 8.449842772514735e+01
 1.433803392425724e+00	 1.030246663036934e-01	 6.649163015548856e+01
 1.431685181128366e+00	 1.291657544956966e-01	 4.815201489630989e+01
 1.429071538817652e+00	 1.554374052023837e-01	 2.951781354627783e+01
 1.425954123998137e+00	 1.818270778627159e-01	 1.062926172489935e+01
 1.422324960060546e+00	 2.083217654869567e-01	-8.471459201027619e+00
 1.418176462673946e+00	 2.349080047559637e-01	-2.774029203139789e+01
 1.413501467087830e+00	 2.615718878503911e-01	-4.713138549147335e+01
 1.450000000000000e+00	 0.000000000000000e+00	 1.323283662664127e+02
 1.449771787339498e+00	 2.572478638244153e-02	 1.159855785049365e+02
 1.449080622629002e+00	 5.162701929221086e-02	 9.918088599615972e+01
 1.447916893909566e+00	 7.769599945133610e-02	 8.194930368152889e+01
 1.446271248012145e+00	 1.039205329666100e-01	 6.432816435572506e+01
 1.444134617486178e+00	 1.302889349689635e-01	 4.635709030907567e+01
 1.441498247851101e+00	 1.567890348122712e-01	 2.807795318754626e+01
 1.438353725076727e+00	 1.834081828871385e-01	 9.534821633873070e+00
 1.434693003191961e+00	 2.101332590995715e-01	-9.226103663660355e+00
 1.430508431915167e+00	 2.369506830580883e-01	-2.815656781750780e+01
 1.425792784193659e+00	 2.638464260057847e-01	-4.720635270647496e+01
 1.462500000000000e+00	 0.000000000000000e+00	 1.281783906892408e+02
 1.462269819988988e+00	 2.594655178206591e-02	 1.123234460044055e+02
 1.461572696962056e+00	 5.207207980295267e-02	 9.598032261113191e+01
 1.460398936098544e+00	 7.836579254953473e-02	 7.918703234994180e+01
 1.458739103598641e+00	 1.048163996295265e-01	 6.198410836072920e+01
 1.456584053844107e+00	 1.314121154422303e-01	 4.441457363920421e+01
 1.453924956884720e+00	 1.581406644221587e-01	 2.652389667216897e+01
 1.450753326155549e+00	 1.849892879115611e-01	 8.359933674008872e+00
 1.447061046323683e+00	 2.119447527121864e-01	-1.002714298391549e+01
 1.442840401156778e+00	 2.389933613602129e-01	-2.858493048136229e+01
 1.438084101299973e+00	 2.661209641611783e-01	-4.725889563883891e+01
 1.475000000000000e+00	 0.000000000000000e+00	 1.237284403081900e+02
 1.474767852638482e+00	 2.616831718169029e-02	 1.083915503207370e+02
 1.474064771295128e+00	 5.251714031369450e-02	 9.254075025236511e+01
 1.472880978287565e+00	 7.903558564773337e-02	 7.621701352229704e+01
 1.471206959185211e+00	 1.057122662924431e-01	 5.946403600498709e+01
 1.469033490202154e+00	 1.325352959154971e-01	 4.232820152374083e+01
 1.466351665918510e+00	 1.594922940320462e-01	 2.485853329525123e+01
 1.463152927234607e+00	 1.865703929359837e-01	 7.106630806668160e+00
 1.459429089455712e+00	 2.137562463248012e-01	-1.087340831757564e+01
 1.455172370398780e+00	 2.410360396623376e-01	-2.902508181695721e+01
 1.450375418406773e+00	 2.683955023165718e-01	-4.728959192768218e+01
 1.487500000000000e+00	 0.000000000000000e+00	 1.189860533017104e+02
 1.487265885287981e+00	 2.639008258131467e-02	 1.041966698121914e+02
 1.486556845628220e+00	 5.296220082443635e-02	 8.886817376044773e+01
 1.485363020476627e+00	 7.970537874593198e-02	 7.304446571130850e+01
 1.483674814771857e+00	 1.066081329553596e-01	 5.677236760821675e+01
 1.481482926560319e+00	 1.336584763887640e-01	 4.010158522659844e+01
 1.478778374952471e+00	 1.608439236419336e-01	 2.308465546079021e+01
 1.475552528313897e+00	 1.881514979604064e-01	 5.776877885778776e+00
 1.471797132588047e+00	 2.155677399374159e-01	-1.176376988314192e+01
 1.467504339641173e+00	 2.430787179644622e-01	-2.947673341767149e+01
 1.462666735514058e+00	 2.706700404719652e-01	-4.729899957371008e+01
 1.500000000000000e+00	 0.000000000000000e+00	 1.139585167930823e+02
 1.499763917937484e+00	 2.661184798093904e-02	 9.974535711204595e+01
 1.499048919961329e+00	 5.340726133517817e-02	 8.496839803714735e+01
 1.497845062665731e+00	 8.037517184413061e-02	 6.967443370343084e+01
 1.496142670358577e+00	 1.075039996182762e-01	 5.391337637133795e+01
 1.493932362918601e+00	 1.347816568620308e-01	 3.773821586184600e+01
 1.491205083986601e+00	 1.621955532518211e-01	 2.120496271810294e+01
 1.487952129393420e+00	 1.897326029848289e-01	 4.372574494837053e+00
 1.484165175720690e+00	 2.173792335500308e-01	-1.269713533512988e+01
 1.479836308883957e+00	 2.451213962665869e-01	-2.993960626896560e+01
 1.474958052621828e+00	 2.729445786273588e-01	-4.728765775858096e+01
 1.352044881565965e+00	 2.501991970734234e-01	-4.639848049321397e+01
 1.347063113700461e+00	 2.757643336008552e-01	-4.339133428045865e+01
 1.341565339750669e+00	 3.013759100415347e-01	-4.038811034701504e+01
 1.335546064616104e+00	 3.270194325395472e-01	-3.740691852064957e+01
 1.329000295832889e+00	 3.526800442951761e-01	-3.446624611038007e+01
 1.321923567499668e+00	 3.783425453957430e-01	-3.158489823116630e+01
 1.314311963391016e+00	 4.039914143349411e-01	-2.878193426212669e+01
 1.306162139129264e+00	 4.296108311925129e-01	-2.607660067355444e+01
 1.297471343285539e+00	 4.551847024354536e-01	-2.348826049814070e+01
 1.288237437281654e+00	 4.806966872910303e-01	-2.103631976135670e+01
 1.278458913966357e+00	 5.061302256309002e-01	-1.874015122439944e+01
 1.364336198669367e+00	 2.524737352288170e-01	-4.659498407340912e+01
 1.359309142004773e+00	 2.782712820886430e-01	-4.370528331417425e+01
 1.353761388291581e+00	 3.041156910427638e-01	-4.080386763876205e+01
 1.347687392473848e+00	 3.299923364729382e-01	-3.791007302469738e+01
 1.341082116701665e+00	 3.558862265176344e-01	-3.504370367992137e+01
 1.333941054474572e+00	 3.817820230831492e-01	-3.222497026391373e+01
 1.326260253965098e+00	 4.076640635585734e-01	-2.947442370612181e+01
 1.318036340392143e+00	 4.335163842061925e-01	-2.681288484981203e+01
 1.309266537313843e+00	 4.593227451881562e-01	-2.426137019359846e+01
 1.299948686710394e+00	 4.850666571792523e-01	-2.184101404670396e+01
 1.290081267729169e+00	 5.107314095045163e-01	-1.957298745692470e+01
 1.376627515773255e+00	 2.547482733842105e-01	-4.676584874754037e+01
 1.371555170309656e+00	 2.807782305764259e-01	-4.400456453679441e+01
 1.365957436833121e+00	 3.068554720439740e-01	-4.121625021097016e+01
 1.359828720332250e+00	 3.329652404062867e-01	-3.842145421144514e+01
 1.353163937571098e+00	 3.590924087400163e-01	-3.564128286726701e+01
 1.345958541450105e+00	 3.852215007704358e-01	-3.289733652688572e+01
 1.338208544539750e+00	 4.113367127820325e-01	-3.021164075641761e+01
 1.329910541655500e+00	 4.374219372196355e-01	-2.760657282551183e+01
 1.321061731342504e+00	 4.634607879405481e-01	-2.510478375000238e+01
 1.311659936139337e+00	 4.894366270670794e-01	-2.272911620854027e+01
 1.301703621492001e+00	 5.153325933776431e-01	-2.050251869774189e+01
 1.388918832877628e+00	 2.570228115396040e-01	-4.691176424428668e+01
 1.383801198615110e+00	 2.832851790642043e-01	-4.428957481439055e+01
 1.378153485375291e+00	 3.095952530451653e-01	-4.162535356348443e+01
 1.371970048191311e+00	 3.359381443395925e-01	-3.894084807643564e+01
 1.365245758441190e+00	 3.622985909623221e-01	-3.625845241993998e+01
 1.357976028426266e+00	 3.886609784576026e-01	-3.360114119865784e+01
 1.350156835114969e+00	 4.150093620053185e-01	-3.099239815240576e+01
 1.341784742919335e+00	 4.413274902328413e-01	-2.845613950854267e+01
 1.332856925371522e+00	 4.675988306926294e-01	-2.601663235573723e+01
 1.323371185568486e+00	 4.938065969545113e-01	-2.369840835749056e+01
 1.313325975254853e+00	 5.199337772502799e-01	-2.152617317550857e+01
 1.401210149982486e+00	 2.592973496949976e-01	-4.703339585381425e+01
 1.396047226921136e+00	 2.857921275519781e-01	-4.456069685299758e+01
 1.390349533918090e+00	 3.123350340463378e-01	-4.203126961354855e+01
 1.384111376051029e+00	 3.389110482728556e-01	-3.946804789616139e+01
 1.377327579311940e+00	 3.655047731845517e-01	-3.689469950222600e+01
 1.369993515403056e+00	 3.921004561446497e-01	-3.433555826778906e+01
 1.362105125690758e+00	 4.186820112284312e-01	-3.181555007825540e+01
 1.353658944183649e+00	 4.452330432458106e-01	-2.936011311114679e+01
 1.344652119400897e+00	 4.717368734443999e-01	-2.699511257018198e+01
 1.335082434997839e+00	 4.981765668415484e-01	-2.474675023026740e+01
 1.324948329017727e+00	 5.245349611224271e-01	-2.264146916905105e+01
 1.413501467087830e+00	 2.615718878503911e-01	-4.713138549147335e+01
 1.408293255227734e+00	 2.882990760397471e-01	-4.481829981551191e+01
 1.402545582461518e+00	 3.150748150474914e-01	-4.243408685289968e+01
 1.396252703911406e+00	 3.418839522060762e-01	-4.000285391291118e+01
 1.389409400183348e+00	 3.687109554067051e-01	-3.754952889592718e+01
 1.382011002380474e+00	 3.955399338315773e-01	-3.509979023828385e+01
 1.374053416267115e+00	 4.223546604513709e-01	-3.267999036257355e+01
 1.365533145448441e+00	 4.491385962585428e-01	-3.031707283399942e+01
 1.356447313430629e+00	 4.758749161958595e-01	-2.803848348319715e+01
 1.346793684427397e+00	 5.025465367281904e-01	-2.587207581636548e+01
 1.336570682780620e+00	 5.291361449940847e-01	-2.384601109391096e+01
 1.425792784193659e+00	 2.638464260057847e-01	-4.720635270647496e+01
 1.420539283534902e+00	 2.908060245275114e-01	-4.506273990667937e+01
 1.414741631005576e+00	 3.178145960486264e-01	-4.283389049673637e+01
 1.408394031772441e+00	 3.448568561392540e-01	-4.054507303591505e+01
 1.401491221055414e+00	 3.719171376287824e-01	-3.822246224245315e+01
 1.394028489358520e+00	 3.989794115183852e-01	-3.589306690201060e+01
 1.386001706844041e+00	 4.260273096741372e-01	-3.358465077118401e+01
 1.377407346713711e+00	 4.530441492710384e-01	-3.132564667007294e+01
 1.368242507460718e+00	 4.800129589470085e-01	-2.914506402153138e+01
 1.358504933857160e+00	 5.069165066144373e-01	-2.707239015923304e+01
 1.348193036543535e+00	 5.337373288652523e-01	-2.513748579130748e+01
 1.438084101299973e+00	 2.661209641611783e-01	-4.725889563883891e+01
 1.432785311842642e+00	 2.933129730152711e-01	-4.529436092808214e+01
 1.426937679550262e+00	 3.205543770497423e-01	-4.323076262504496e+01
 1.420535359634135e+00	 3.478297600723892e-01	-4.109451855781334e+01
 1.413573041928139e+00	 3.751233198507835e-01	-3.891303732377704e+01
 1.406045976337195e+00	 4.024188892050735e-01	-3.671464417406986e+01
 1.397949997421535e+00	 4.296999588967306e-01	-3.452849938745280e+01
 1.389281547979460e+00	 4.569497022832971e-01	-3.238450932112085e+01
 1.380037701491165e+00	 4.841510016978469e-01	-3.031323039335711e+01
 1.370216183287127e+00	 5.112864765002894e-01	-2.834576632148216e+01
 1.359815390306469e+00	 5.383385127359304e-01	-2.651365900740515e+01
 1.450375418406773e+00	 2.683955023165718e-01	-4.728959192768218e+01
 1.445031340150954e+00	 2.958199215030261e-01	-4.551349480490408e+01
 1.439133728095578e+00	 3.232941580508395e-01	-4.362478231673784e+01
 1.432676687496486e+00	 3.508026640054819e-01	-4.165100988553998e+01
 1.425654862801522e+00	 3.783295020727082e-01	-3.962080737995050e+01
 1.418063463316499e+00	 4.058583668916420e-01	-3.756380298737865e+01
 1.409898287999598e+00	 4.333726081191508e-01	-3.551053907496650e+01
 1.401155749245687e+00	 4.608552552953189e-01	-3.349238022009919e+01
 1.391832895521968e+00	 4.882890444483744e-01	-3.154141366274181e+01
 1.381927432717298e+00	 5.156564463857464e-01	-2.969034250440596e+01
 1.371437744069425e+00	 5.429396966061187e-01	-2.797237205159745e+01
 1.462666735514058e+00	 2.706700404719652e-01	-4.729899957371008e+01
 1.457277368459836e+00	 2.983268699907763e-01	-4.572046208613514e+01
 1.451329776641522e+00	 3.260339390519178e-01	-4.401602577702664e+01
 1.444818015359496e+00	 3.537755679385318e-01	-4.221437228477276e+01
 1.437736683675562e+00	 3.815356842945568e-01	-4.034534046102697e+01
 1.430080950296430e+00	 4.092978445780909e-01	-3.843984824298672e+01
 1.421846578578230e+00	 4.370452573413978e-01	-3.652980601772006e+01
 1.413029950512391e+00	 4.647608083071040e-01	-3.464802165329473e+01
 1.403628089553128e+00	 4.924270871985911e-01	-3.282809744641068e+01
 1.393638682147674e+00	 5.200264162708083e-01	-3.110431931272688e+01
 1.383060097832401e+00	 5.475408804758173e-01	-2.951153862327634e+01
 1.474958052621828e+00	 2.729445786273588e-01	-4.728765775858096e+01
 1.469523396769290e+00	 3.008338184785218e-01	-4.591557241976363e+01
 1.463525825188096e+00	 3.287737200529772e-01	-4.440456645842477e+01
 1.456959343223164e+00	 3.567484718715391e-01	-4.278443663715864e+01
 1.449818504550261e+00	 3.847418665163292e-01	-4.108621881138676e+01
 1.442098437276991e+00	 4.127373222644202e-01	-3.934210781287480e+01
 1.433794869157430e+00	 4.407179065634715e-01	-3.758536833329175e+01
 1.424904151779575e+00	 4.686663613186522e-01	-3.585023697634332e+01
 1.415423283584646e+00	 4.965651299484973e-01	-3.417181572566791e+01
 1.405349931578255e+00	 5.243963861554752e-01	-3.258595715610311e+01
 1.394682451595397e+00	 5.521420643450261e-01	-3.112914179725897e+01
 1.278458913966357e+00	 5.061302256309002e-01	-1.874015122439944e+01
 1.268134914741677e+00	 5.314685672938273e-01	-2.254482809272459e+01
 1.257265245121364e+00	 5.566948027665093e-01	-2.612542726597826e+01
 1.245850388605507e+00	 5.817918951274083e-01	-2.946640934045815e+01
 1.233891518761329e+00	 6.067427131481519e-01	-3.255276877834706e+01
 1.221390509410137e+00	 6.315300654405880e-01	-3.537010570934335e+01
 1.208349942826211e+00	 6.561367355249965e-01	-3.790469646688965e+01
 1.194773115862958e+00	 6.805455176867415e-01	-4.014356236113007e+01
 1.180664043931685e+00	 7.047392534804008e-01	-4.207453618962893e+01
 1.166027462769146e+00	 7.287008687329783e-01	-4.368632599079240e+01
 1.150868827941644e+00	 7.524134108913275e-01	-4.496857555398439e+01
 1.290081267729169e+00	 5.107314095045163e-01	-1.957298745692470e+01
 1.279663413966696e+00	 5.363000997284292e-01	-2.319377177753510e+01
 1.268694929168601e+00	 5.617556646147478e-01	-2.661769170999581e+01
 1.257176301230428e+00	 5.870809123608272e-01	-2.982621445132310e+01
 1.245108714388191e+00	 6.122585559998535e-01	-3.280118932292539e+01
 1.232494059497939e+00	 6.372712478583265e-01	-3.552492932327585e+01
 1.219334942309169e+00	 6.621016149430717e-01	-3.798029242321638e+01
 1.205634689646682e+00	 6.867322951238657e-01	-4.015076206349352e+01
 1.191397353425526e+00	 7.111459739694163e-01	-4.202052630366570e+01
 1.176627712434604e+00	 7.353254220869723e-01	-4.357455506627882e+01
 1.161331271836279e+00	 7.592535328092679e-01	-4.479867492043895e+01
 1.301703621492001e+00	 5.153325933776431e-01	-2.050251869774189e+01
 1.291191913191545e+00	 5.411316321624557e-01	-2.391546801901704e+01
 1.280124613215495e+00	 5.668165264623538e-01	-2.715823042763990e+01
 1.268502213854855e+00	 5.923699295935861e-01	-3.020931820972339e+01
 1.256325910014428e+00	 6.177743988508976e-01	-3.304747594545582e+01
 1.243597609585001e+00	 6.430124302754390e-01	-3.565177171298195e+01
 1.230319941791294e+00	 6.680664943605835e-01	-3.800168903193089e+01
 1.216496263429501e+00	 6.929190725605179e-01	-4.007721896404474e+01
 1.202130662918409e+00	 7.175526944580828e-01	-4.185895176863053e+01
 1.187227962099074e+00	 7.419499754407718e-01	-4.332816749626233e+01
 1.171793715729913e+00	 7.660936547271976e-01	-4.446692489565876e+01
 1.313325975254853e+00	 5.199337772502799e-01	-2.152617317550857e+01
 1.302720412416223e+00	 5.459631645959069e-01	-2.470797961776125e+01
 1.291554297262048e+00	 5.718773883093278e-01	-2.774575507534106e+01
 1.279828126478787e+00	 5.976589468256857e-01	-3.061509439019606e+01
 1.267543105640037e+00	 6.232902417012837e-01	-3.329167672824980e+01
 1.254701159671323e+00	 6.487536126919254e-01	-3.575136633730801e+01
 1.241304941272585e+00	 6.740313737775310e-01	-3.797031503090452e+01
 1.227357837211414e+00	 6.991058499966986e-01	-3.992506577376468e+01
 1.212863972410334e+00	 7.239594149464007e-01	-4.159265671565981e+01
 1.197828211762553e+00	 7.485745287943757e-01	-4.295072499715999e+01
 1.182256159622547e+00	 7.729337766451166e-01	-4.397760963366019e+01
 1.324948329017727e+00	 5.245349611224271e-01	-2.264146916905105e+01
 1.314248911640731e+00	 5.507946970287825e-01	-2.556943716640808e+01
 1.302983981308260e+00	 5.769382501556699e-01	-2.837902234263755e+01
 1.291154039102225e+00	 6.029479640571251e-01	-3.104293857644194e+01
 1.278760301265018e+00	 6.288060845510121e-01	-3.353383791144361e+01
 1.265804709756905e+00	 6.544947951077862e-01	-3.582442077349362e+01
 1.252289940753044e+00	 6.799962531939144e-01	-3.788754888977098e+01
 1.238219410992422e+00	 7.052926274324078e-01	-3.969636024393967e+01
 1.223597281901301e+00	 7.303661354343699e-01	-4.122438536363735e+01
 1.208428461425044e+00	 7.551990821477844e-01	-4.244566420443046e+01
 1.192718603514182e+00	 7.797738985630251e-01	-4.333486286868197e+01
 1.336570682780620e+00	 5.291361449940847e-01	-2.384601109391096e+01
 1.325777410865070e+00	 5.556262294610830e-01	-2.649803610396056e+01
 1.314413665354130e+00	 5.819991120013793e-01	-2.905683199602263e+01
 1.302479951725169e+00	 6.082369812879048e-01	-3.149226721491640e+01
 1.289977496889373e+00	 6.343219274000825e-01	-3.377400397490785e+01
 1.276908259841745e+00	 6.602359775230207e-01	-3.587161784426599e+01
 1.263274940232669e+00	 6.859611326097342e-01	-3.775472099729473e+01
 1.249080984772522e+00	 7.114794048676448e-01	-3.939308842704837e+01
 1.234330591391309e+00	 7.367728559219902e-01	-4.075678636494758e+01
 1.219028711086545e+00	 7.618236355009983e-01	-4.181630211258334e+01
 1.203181047404816e+00	 7.866140204809229e-01	-4.254267445684107e+01
 1.348193036543535e+00	 5.337373288652523e-01	-2.513748579130748e+01
 1.337305910089237e+00	 5.604577618928078e-01	-2.749203392245605e+01
 1.325843349399657e+00	 5.870599738464568e-01	-2.977802502396671e+01
 1.313805864347619e+00	 6.135259985180249e-01	-3.196251671736713e+01
 1.301194692513100e+00	 6.398377702484953e-01	-3.401221771591499e+01
 1.288011809925847e+00	 6.659771599376293e-01	-3.589361668663140e+01
 1.274259939711461e+00	 6.919260120249896e-01	-3.757311573559381e+01
 1.259942558551717e+00	 7.176661823024106e-01	-3.901716776897830e+01
 1.245063900880360e+00	 7.431795764092617e-01	-4.019241692644285e+01
 1.229628960747055e+00	 7.684481888540168e-01	-4.106584123380387e+01
 1.213643491294451e+00	 7.934541423988104e-01	-4.160489657942165e+01
 1.359815390306469e+00	 5.383385127359304e-01	-2.651365900740515e+01
 1.348834409313236e+00	 5.652892943239575e-01	-2.854974751688097e+01
 1.337273033444844e+00	 5.921208356909020e-01	-3.054148187706235e+01
 1.325131776969575e+00	 6.188150157474851e-01	-3.245314260939128e+01
 1.312411888136201e+00	 6.453536130962503e-01	-3.424852032281895e+01
 1.299115360009208e+00	 6.717183423516120e-01	-3.589105376585105e+01
 1.285244939189419e+00	 6.978908914396811e-01	-3.734397344798635e+01
 1.270804132330007e+00	 7.238529597367049e-01	-3.857045004266010e+01
 1.255797210368453e+00	 7.495862968961844e-01	-3.953374671907279e+01
 1.240229210406577e+00	 7.750727422068403e-01	-4.019737449202573e+01
 1.224105935183085e+00	 8.002942643166867e-01	-4.052524962804113e+01
 1.371437744069425e+00	 5.429396966061187e-01	-2.797237205159745e+01
 1.360362908537064e+00	 5.701208267545316e-01	-2.966955066983124e+01
 1.348702717489688e+00	 5.971816975347151e-01	-3.134612079764857e+01
 1.336457689591036e+00	 6.241040329762855e-01	-3.296361872228042e+01
 1.323629083758674e+00	 6.508694559433473e-01	-3.448295144498333e+01
 1.310218910091828e+00	 6.774595247649685e-01	-3.586454383785406e+01
 1.296229938666545e+00	 7.038557708538085e-01	-3.706849230677284e+01
 1.281665706107390e+00	 7.300397371705269e-01	-3.805472413252960e+01
 1.266530519855588e+00	 7.559930173827586e-01	-3.878316158871439e+01
 1.250829460065109e+00	 7.816972955594688e-01	-3.921388986814892e+01
 1.234568379070720e+00	 8.071343862345530e-01	-3.930732779056434e+01
 1.383060097832401e+00	 5.475408804758173e-01	-2.951153862327634e+01
 1.371891407760723e+00	 5.749523591845306e-01	-3.084987166299191e+01
 1.360132401534192e+00	 6.022425593778959e-01	-3.219089623365080e+01
 1.347783602212004e+00	 6.293930502044260e-01	-3.349343642560898e+01
 1.334846279380521e+00	 6.563852987897866e-01	-3.471554925917818e+01
 1.321322460173709e+00	 6.832007071776993e-01	-3.581468086311982e+01
 1.307214938142837e+00	 7.098206502673718e-01	-3.674783008683819e+01
 1.292527279883867e+00	 7.362265146038777e-01	-3.747171867859094e+01
 1.277263829341764e+00	 7.623997378689840e-01	-3.794296707989533e+01
 1.261429709722652e+00	 7.883218489119022e-01	-3.811827481103762e+01
 1.245030822957354e+00	 8.139745081524086e-01	-3.795460435537032e+01
 1.394682451595397e+00	 5.521420643450261e-01	-3.112914179725897e+01
 1.383419906984210e+00	 5.797838916139538e-01	-3.208919100803877e+01
 1.371562085578352e+00	 6.073034212204445e-01	-3.307479733172469e+01
 1.359109514832477e+00	 6.346820674319068e-01	-3.404210389818751e+01
 1.346063475001740e+00	 6.619011416355681e-01	-3.494635053265276e+01
 1.332426010254849e+00	 6.889418895898038e-01	-3.574203887486136e+01
 1.318199937618296e+00	 7.157855296803712e-01	-3.638310585056854e+01
 1.303388853659439e+00	 7.424132920367565e-01	-3.682310458827097e+01
 1.287997138826982e+00	 7.688064583548604e-01	-3.701539178332582e+01
 1.272029959379205e+00	 7.949464022641402e-01	-3.691332042796388e+01
 1.255493266842989e+00	 8.208146300702533e-01	-3.647043675039941e+01
 1.150868827941644e+00	 7.524134108913275e-01	-4.496857555398439e+01
 1.135194312046280e+00	 7.758600865535584e-01	-4.340948444918970e+01
 1.119010799580969e+00	 7.990242990192602e-01	-4.184548249799236e+01
 1.102325879470541e+00	 8.218896856909992e-01	-4.026596235904547e+01
 1.085147835250138e+00	 8.444401551573477e-01	-3.866021698699756e+01
 1.067485632918797e+00	 8.666599237864125e-01	-3.701748690477552e+01
 1.049348906492078e+00	 8.885335516599897e-01	-3.532700837797218e+01
 1.030747941296336e+00	 9.100459776802332e-01	-3.357806216968507e+01
 1.011693655061181e+00	 9.311825536839639e-01	-3.176002254498536e+01
 9.921975768804164e-01	 9.519290774042841e-01	-2.986240618836058e+01
 9.722718241249999e-01	 9.722718241249999e-01	-2.787492069509929e+01
 1.161331271836279e+00	 7.592535328092679e-01	-4.479867492043895e+01
 1.145514260342112e+00	 7.829133600673248e-01	-4.315941480945537e+01
 1.129183625036312e+00	 8.062881562818414e-01	-4.149910756569020e+01
 1.112347023833931e+00	 8.293614101044999e-01	-3.981098786142771e+01
 1.095012815574977e+00	 8.521168838383165e-01	-3.808826182353222e+01
 1.077190047767566e+00	 8.745386503638365e-01	-3.632413839729909e+01
 1.058888442009220e+00	 8.966111293999636e-01	-3.451186115138918e+01
 1.040118377129261e+00	 9.183191229297812e-01	-3.264474030712933e+01
 1.020890870109385e+00	 9.396478496249905e-01	-3.071618477050606e+01
 1.001217554853339e+00	 9.605829781071776e-01	-2.871973394249149e+01
 9.811106588900002e-01	 9.811106588899999e-01	-2.664908908298471e+01
 1.171793715729913e+00	 7.660936547271976e-01	-4.446692489565876e+01
 1.155834208636955e+00	 7.899666335812606e-01	-4.277506786632795e+01
 1.139356450490695e+00	 8.135520135447331e-01	-4.104624119811692e+01
 1.122368168196411e+00	 8.368331345184133e-01	-3.927746957225114e+01
 1.104877795898975e+00	 8.597936125197603e-01	-3.746581945253136e+01
 1.086894462615585e+00	 8.824173769417563e-01	-3.560841472157036e+01
 1.068427977525723e+00	 9.046887071404149e-01	-3.370245230209554e+01
 1.049488812961676e+00	 9.265922681797479e-01	-3.174521765041808e+01
 1.030088085157229e+00	 9.481131455663370e-01	-2.973410000838548e+01
 1.010237532826072e+00	 9.692368788102509e-01	-2.766660730055816e+01
 9.899494936549997e-01	 9.899494936549997e-01	-2.554038056499287e+01
 1.182256159622547e+00	 7.729337766451166e-01	-4.397760963366019e+01
 1.166154156930807e+00	 7.970199070953664e-01	-4.225999526802376e+01
 1.149529275944117e+00	 8.208158708079358e-01	-4.048969691259357e+01
 1.132389312557980e+00	 8.443048589327393e-01	-3.866747863165442e+01
 1.114742776222132e+00	 8.674703412016775e-01	-3.679421579136307e+01
 1.096598877462853e+00	 8.902961035201722e-01	-3.487089514440005e+01
 1.077967513041584e+00	 9.127662848813437e-01	-3.289861444854021e+01
 1.058859248793580e+00	 9.348654134301332e-01	-3.087858160897405e+01
 1.039285300204712e+00	 9.565784415080028e-01	-2.881211333755867e+01
 1.019257510798614e+00	 9.778907795135040e-01	-2.670063332567545e+01
 9.987883284199998e-01	 9.987883284199998e-01	-2.454566993099845e+01
 1.192718603514182e+00	 7.797738985630251e-01	-4.333486286868197e+01
 1.176474105223669e+00	 8.040731806096418e-01	-4.161762395491917e+01
 1.159702101396579e+00	 8.280797280714499e-01	-3.983218942799872e+01
 1.142410456918639e+00	 8.517765833474782e-01	-3.798301343978365e+01
 1.124607756544448e+00	 8.751470698840697e-01	-3.607473017573123e+01
 1.106303292309371e+00	 8.981748300990842e-01	-3.411213855936737e+01
 1.087507048556805e+00	 9.208438626227500e-01	-3.210018604427619e+01
 1.068229684624973e+00	 9.431385586809372e-01	-3.004395158511171e+01
 1.048482515251834e+00	 9.650437374499877e-01	-2.794862788656724e+01
 1.028277488770966e+00	 9.865446802169371e-01	-2.581950303579329e+01
 1.007627163185000e+00	 1.007627163185000e+00	-2.366194162932715e+01
 1.203181047404816e+00	 7.866140204809229e-01	-4.254267445684107e+01
 1.186794053515542e+00	 8.111264541240873e-01	-4.085126158324918e+01
 1.169874926848081e+00	 8.353435853352749e-01	-3.907633896191840e+01
 1.152431601278387e+00	 8.592483077626292e-01	-3.722600282090878e+01
 1.134472736865924e+00	 8.828237985669359e-01	-3.530859738641071e+01
 1.116007707155137e+00	 9.060535566784921e-01	-3.333268437399042e+01
 1.097046584071386e+00	 9.289214403646335e-01	-3.130701112556724e+01
 1.077600120455857e+00	 9.514117039321597e-01	-2.924047758427270e+01
 1.057679730298597e+00	 9.735090333922922e-01	-2.714210231081727e+01
 1.037297466743129e+00	 9.951985809205499e-01	-2.502098775455928e+01
 1.016465997950000e+00	 1.016465997950000e+00	-2.288628499998669e+01
 1.213643491294451e+00	 7.934541423988104e-01	-4.160489657942165e+01
 1.197114001806424e+00	 8.181797276387025e-01	-3.996410166826423e+01
 1.180047752298623e+00	 8.426074425994110e-01	-3.822467530552500e+01
 1.162452745637224e+00	 8.667200321781930e-01	-3.639830902387300e+01
 1.144337717186559e+00	 8.905005272502764e-01	-3.449700957114533e+01
 1.125712122000154e+00	 9.139322832583960e-01	-3.253305335100369e+01
 1.106586119585325e+00	 9.369990181069947e-01	-3.051893907204364e+01
 1.086970556286230e+00	 9.596848491838008e-01	-2.846733889714256e+01
 1.066876945345000e+00	 9.819743293349166e-01	-2.639104840031854e+01
 1.046317444715101e+00	 1.003852481624343e+00	-2.430293565092547e+01
 1.025304832715000e+00	 1.025304832715000e+00	-2.221588975445031e+01
 1.224105935183085e+00	 8.002942643166867e-01	-4.052524962804113e+01
 1.207433950096316e+00	 8.252330011534879e-01	-3.895922846363004e+01
 1.190220577748204e+00	 8.498712998638577e-01	-3.727964168948172e+01
 1.172473889995152e+00	 8.741917565941695e-01	-3.550173056866860e+01
 1.154202697506354e+00	 8.981772559340911e-01	-3.364111806798268e+01
 1.135416536844419e+00	 9.218110098387959e-01	-3.171374840648734e+01
 1.116125655098625e+00	 9.450765958498334e-01	-2.973582437962747e+01
 1.096340992116092e+00	 9.679579944358603e-01	-2.772374284934543e+01
 1.076074160391042e+00	 9.904396252778599e-01	-2.569402881010017e+01
 1.055337422686883e+00	 1.012506382328315e+00	-2.366326845620657e+01
 1.034143667480000e+00	 1.034143667480000e+00	-2.164804168724303e+01
 1.234568379070720e+00	 8.071343862345530e-01	-3.930732779056434e+01
 1.217753898385218e+00	 8.322862746684426e-01	-3.783962159271653e+01
 1.200393403196825e+00	 8.571351571286158e-01	-3.624359845327061e+01
 1.182495034352168e+00	 8.816634810105580e-01	-3.453800494826437e+01
 1.164067677825308e+00	 9.058539846183804e-01	-3.274203513589075e+01
 1.145120951687934e+00	 9.296897364196918e-01	-3.087525536740944e+01
 1.125665190611283e+00	 9.531541735931494e-01	-2.895752644500033e+01
 1.105711427945443e+00	 9.762311396883390e-01	-2.700892361470897e+01
 1.085271375436723e+00	 9.989049212211228e-01	-2.504965490602370e+01
 1.064357400658475e+00	 1.021160283032468e+00	-2.309997834806337e+01
 1.042982502245000e+00	 1.042982502245000e+00	-2.118011860557800e+01
 1.245030822957354e+00	 8.139745081524086e-01	-3.795460435537032e+01
 1.228073846673131e+00	 8.393395481835675e-01	-3.660816044637073e+01
 1.210566228644485e+00	 8.643990143936846e-01	-3.511882652950699e+01
 1.192516178708275e+00	 8.891352054273600e-01	-3.350881119420335e+01
 1.173932658143422e+00	 9.135307133031441e-01	-3.180083559811210e+01
 1.154825366530698e+00	 9.375684630010837e-01	-3.001804369096720e+01
 1.135204726123301e+00	 9.612317513369427e-01	-2.818390936093057e+01
 1.115081863774285e+00	 9.845042849412358e-01	-2.632214108836015e+01
 1.094468590482045e+00	 1.007370217164705e+00	-2.445658471920628e+01
 1.073377378629877e+00	 1.029814183736800e+00	-2.261112499159240e+01
 1.051821337010000e+00	 1.051821337010000e+00	-2.080958646421799e+01
 1.255493266842989e+00	 8.208146300702533e-01	-3.647043675039941e+01
 1.238393794960052e+00	 8.463928216988620e-01	-3.526762836079617e+01
 1.220739054091186e+00	 8.716628716590645e-01	-3.390753075403230e+01
 1.202537323063470e+00	 8.966069298445739e-01	-3.241577231391346e+01
 1.183797638460694e+00	 9.212074419883817e-01	-3.081855840334507e+01
 1.164529781372711e+00	 9.454471895829715e-01	-2.914256714795582e+01
 1.144744261634678e+00	 9.693093290812137e-01	-2.741484172183245e+01
 1.124452299602615e+00	 9.927774301945512e-01	-2.566267981616187e+01
 1.103665805527006e+00	 1.015835513108607e+00	-2.391352100271901e+01
 1.082397356601088e+00	 1.038468084441313e+00	-2.219483272835649e+01
 1.060660171775000e+00	 1.060660171775000e+00	-2.053399569358946e+01
 9.722718241249999e-01	 9.722718241249999e-01	-2.787492069509929e+01
 9.519290774042841e-01	 9.921975768804165e-01	-2.405988644316758e+01
 9.311825536839636e-01	 1.011693655061181e+00	-2.036674083908420e+01
 9.100459776802337e-01	 1.030747941296336e+00	-1.682869652822489e+01
 8.885335516599900e-01	 1.049348906492078e+00	-1.347835799005674e+01
 8.666599237864129e-01	 1.067485632918797e+00	-1.034758965905248e+01
 8.444401551573482e-01	 1.085147835250138e+00	-7.467388491634066e+00
 8.218896856909996e-01	 1.102325879470541e+00	-4.867761794840110e+00
 7.990242990192610e-01	 1.119010799580969e+00	-2.577611082792771e+00
 7.758600865535591e-01	 1.135194312046279e+00	-6.246226701368052e-01
 7.524134108913274e-01	 1.150868827941644e+00	 9.648343517486957e-01
 9.811106588900002e-01	 9.811106588899999e-01	-2.664908908298471e+01
 9.605829781071776e-01	 1.001217554853339e+00	-2.302228119963767e+01
 9.396478496249905e-01	 1.020890870109385e+00	-1.950309650595848e+01
 9.183191229297815e-01	 1.040118377129261e+00	-1.611941428535038e+01
 8.966111293999636e-01	 1.058888442009220e+00	-1.289859486810896e+01
 8.745386503638366e-01	 1.077190047767566e+00	-9.867369659558769e+00
 8.521168838383170e-01	 1.095012815574976e+00	-7.051734921166151e+00
 8.293614101045006e-01	 1.112347023833931e+00	-4.476849982485055e+00
 8.062881562818418e-01	 1.129183625036312e+00	-2.166940520159418e+00
 7.829133600673254e-01	 1.145514260342112e+00	-1.452074925453957e-01
 7.592535328092677e-01	 1.161331271836278e+00	 1.566257734508948e+00
 9.899494936549997e-01	 9.899494936549997e-01	-2.554038056499287e+01
 9.692368788102508e-01	 1.010237532826071e+00	-2.206332628251241e+01
 9.481131455663370e-01	 1.030088085157229e+00	-1.867994404813519e+01
 9.265922681797482e-01	 1.049488812961676e+00	-1.541285294200535e+01
 9.046887071404153e-01	 1.068427977525723e+00	-1.228424116362969e+01
 8.824173769417565e-01	 1.086894462615585e+00	-9.315777714384666e+00
 8.597936125197605e-01	 1.104877795898974e+00	-6.528527147754119e+00
 8.368331345184140e-01	 1.122368168196410e+00	-3.942867928802029e+00
 8.135520135447336e-01	 1.139356450490694e+00	-1.578414910657866e+00
 7.899666335812616e-01	 1.155834208636955e+00	 5.460536027254221e-01
 7.660936547271977e-01	 1.171793715729913e+00	 2.412663781068069e+00
 9.987883284199998e-01	 9.987883284199998e-01	-2.454566993099845e+01
 9.778907795135039e-01	 1.019257510798614e+00	-2.118091778428129e+01
 9.565784415080025e-01	 1.039285300204712e+00	-1.789619254236273e+01
 9.348654134301334e-01	 1.058859248793580e+00	-1.470892429571694e+01
 9.127662848813437e-01	 1.077967513041584e+00	-1.163619921657427e+01
 8.902961035201726e-01	 1.096598877462853e+00	-8.694692649675060e+00
 8.674703412016779e-01	 1.114742776222131e+00	-5.900604593106651e+00
 8.443048589327401e-01	 1.132389312557980e+00	-3.269597975823960e+00
 8.208158708079366e-01	 1.149529275944116e+00	-8.167401125574258e-01
 7.970199070953669e-01	 1.166154156930806e+00	 1.443552312672896e+00
 7.729337766451166e-01	 1.182256159622547e+00	 3.497564415855347e+00
 1.007627163185000e+00	 1.007627163185000e+00	-2.366194162932715e+01
 9.865446802169368e-01	 1.028277488770966e+00	-2.037302563037599e+01
 9.650437374499879e-01	 1.048482515251834e+00	-1.715078936453036e+01
 9.431385586809371e-01	 1.068229684624974e+00	-1.400754326928961e+01
 9.208438626227501e-01	 1.087507048556805e+00	-1.095533974541729e+01
 8.981748300990846e-01	 1.106303292309370e+00	-8.005927416311559e+00
 8.751470698840700e-01	 1.124607756544448e+00	-5.170707107206548e+00
 8.517765833474784e-01	 1.142410456918638e+00	-2.460689817317341e+00
 8.280797280714506e-01	 1.159702101396579e+00	 1.135430601155143e-01
 8.040731806096427e-01	 1.176474105223669e+00	 2.541877035458569e+00
 7.797738985630250e-01	 1.192718603514182e+00	 4.814699126185218e+00
 1.016465997950000e+00	 1.016465997950000e+00	-2.288628499998669e+01
 9.951985809205498e-01	 1.037297466743129e+00	-1.963769036994691e+01
 9.735090333922922e-01	 1.057679730298597e+00	-1.644271852530818e+01
 9.514117039321597e-01	 1.077600120455857e+00	-1.330862777565637e+01
 9.289214403646335e-01	 1.097046584071385e+00	-1.024250322264437e+01
 9.060535566784923e-01	 1.116007707155137e+00	-7.251231954611518e+00
 8.828237985669360e-01	 1.134472736865924e+00	-4.341479297987640e+00
 8.592483077626301e-01	 1.152431601278386e+00	-1.519666266482750e+00
 8.353435853352754e-01	 1.169874926848081e+00	 1.208051661439018e+00
 8.111264541240881e-01	 1.186794053515541e+00	 3.835804317966645e+00
 7.866140204809230e-01	 1.203181047404816e+00	 6.358025068080291e+00
 1.025304832715000e+00	 1.025304832715000e+00	-2.221588975445031e+01
 1.003852481624343e+00	 1.046317444715101e+00	-1.897302013263138e+01
 9.819743293349165e-01	 1.066876945345000e+00	-1.577099909186906e+01
 9.596848491838006e-01	 1.086970556286229e+00	-1.261209858971611e+01
 9.369990181069949e-01	 1.106586119585325e+00	-9.498501179094628e+00
 9.139322832583963e-01	 1.125712122000153e+00	-6.432295910849581e+00
 8.905005272502765e-01	 1.144337717186559e+00	-3.415474637058884e+00
 8.667200321781937e-01	 1.162452745637224e+00	-4.499287253249644e-01
 8.426074425994116e-01	 1.180047752298622e+00	 2.462553808640902e+00
 8.181797276387035e-01	 1.197114001806424e+00	 5.320290745728329e+00
 7.934541423988104e-01	 1.213643491294451e+00	 8.121707683863679e+00
 1.034143667480000e+00	 1.034143667480000e+00	-2.164804168724303e+01
 1.012506382328315e+00	 1.055337422686883e+00	-1.837718774137991e+01
 9.904396252778600e-01	 1.076074160391042e+00	-1.513468369054627e+01
 9.679579944358603e-01	 1.096340992116092e+00	-1.191787922674047e+01
 9.450765958498334e-01	 1.116125655098624e+00	-8.724117441411224e+00
 9.218110098387960e-01	 1.135416536844419e+00	-5.550751214471060e+00
 8.981772559340918e-01	 1.154202697506354e+00	-2.395159354878917e+00
 8.741917565941700e-01	 1.172473889995151e+00	 7.452376264592235e-01
 8.498712998638585e-01	 1.190220577748203e+00	 3.872962226114456e+00
 8.252330011534884e-01	 1.207433950096316e+00	 6.990465248751043e+00
 8.002942643166867e-01	 1.224105935183085e+00	 1.010011180089957e+01
 1.042982502245000e+00	 1.042982502245000e+00	-2.118011860557800e+01
 1.021160283032468e+00	 1.064357400658475e+00	-1.784842797208527e+01
 9.989049212211227e-01	 1.085271375436723e+00	-1.453285708562258e+01
 9.762311396883389e-01	 1.105711427945443e+00	-1.122589582696098e+01
 9.531541735931496e-01	 1.125665190611283e+00	-7.920109306567946e+00
 9.296897364196920e-01	 1.145120951687934e+00	-4.608174524255062e+00
 9.058539846183808e-01	 1.164067677825307e+00	-1.282916137866389e+00
 8.816634810105588e-01	 1.182495034352168e+00	 2.062658906437084e+00
 8.571351571286164e-01	 1.200393403196824e+00	 5.435328117707462e+00
 8.322862746684434e-01	 1.217753898385218e+00	 8.841621798576298e+00
 8.071343862345530e-01	 1.234568379070720e+00	 1.228779318294295e+01
 1.051821337010000e+00	 1.051821337010000e+00	-2.080958646421799e+01
 1.029814183736800e+00	 1.073377378629877e+00	-1.738503495137782e+01
 1.007370217164705e+00	 1.094468590482045e+00	-1.396463482977461e+01
 9.845042849412359e-01	 1.115081863774285e+00	-1.053607704597097e+01
 9.612317513369429e-01	 1.135204726123301e+00	-7.087208657173965e+00
 9.375684630010840e-01	 1.154825366530698e+00	-3.606089551141046e+00
 9.135307133031443e-01	 1.173932658143421e+00	-8.104763910126067e-02
 8.891352054273607e-01	 1.192516178708274e+00	 3.499267852719694e+00
 8.643990143936855e-01	 1.210566228644485e+00	 7.145835347973902e+00
 8.393395481835683e-01	 1.228073846673130e+00	 1.086921247355606e+01
 8.139745081524083e-01	 1.245030822957354e+00	 1.467949050747169e+01
 1.060660171775000e+00	 1.060660171775000e+00	-2.053399569358946e+01
 1.038468084441312e+00	 1.082397356601088e+00	-1.698535968452655e+01
 1.015835513108607e+00	 1.103665805527006e+00	-1.342916198199058e+01
 9.927774301945514e-01	 1.124452299602615e+00	-9.848353950606583e+00
 9.693093290812139e-01	 1.144744261634678e+00	-6.226123021009116e+00
 9.454471895829717e-01	 1.164529781372711e+00	-2.545969264910259e+00
 9.212074419883821e-01	 1.183797638460694e+00	 1.208220186512937e+00
 8.966069298445744e-01	 1.202537323063470e+00	 5.052099381078813e+00
 8.716628716590653e-01	 1.220739054091185e+00	 9.000794914362094e+00
 8.463928216988629e-01	 1.238393794960052e+00	 1.306884087086374e+01
 8.208146300702533e-01	 1.255493266842989e+00	 1.727011774415303e+01
 7.524134108913274e-01	 1.150868827941644e+00	 9.648343517486957e-01
 7.287008687329781e-01	 1.166027462769146e+00	 3.477077605424313e+00
 7.047392534804007e-01	 1.180664043931685e+00	 4.954346697892664e+00
 6.805455176867415e-01	 1.194773115862958e+00	 5.407729840962915e+00
 6.561367355249966e-01	 1.208349942826211e+00	 4.851554752215133e+00
 6.315300654405884e-01	 1.221390509410137e+00	 3.303275213755121e+00
 6.067427131481523e-01	 1.233891518761329e+00	 7.833440927070825e-01
 5.817918951274087e-01	 1.245850388605507e+00	-2.684926042721592e+00
 5.566948027665101e-01	 1.257265245121364e+00	-7.075513508997787e+00
 5.314685672938282e-01	 1.268134914741677e+00	-1.235984803735016e+01
 5.061302256309000e-01	 1.278458913966357e+00	-1.850697994986828e+01
 7.592535328092677e-01	 1.161331271836278e+00	 1.566257734508948e+00
 7.353254220869722e-01	 1.176627712434605e+00	 4.358412838350858e+00
 7.111459739694163e-01	 1.191397353425526e+00	 6.058920421109349e+00
 6.867322951238658e-01	 1.205634689646682e+00	 6.673060914093888e+00
 6.621016149430722e-01	 1.219334942309169e+00	 6.209710352495197e+00
 6.372712478583268e-01	 1.232494059497939e+00	 4.681243022287418e+00
 6.122585559998541e-01	 1.245108714388192e+00	 2.103418280655646e+00
 5.870809123608277e-01	 1.257176301230428e+00	-1.504747351390815e+00
 5.617556646147485e-01	 1.268694929168600e+00	-6.121121636943872e+00
 5.363000997284300e-01	 1.279663413966696e+00	-1.172061035013511e+01
 5.107314095045163e-01	 1.290081267729169e+00	-1.827532196103999e+01
 7.660936547271977e-01	 1.171793715729913e+00	 2.412663781068069e+00
 7.419499754407716e-01	 1.187227962099074e+00	 5.439821246469581e+00
 7.175526944580827e-01	 1.202130662918409e+00	 7.319909277192874e+00
 6.929190725605181e-01	 1.216496263429501e+00	 8.052473497525398e+00
 6.680664943605837e-01	 1.230319941791294e+00	 7.641007047651058e+00
 6.430124302754393e-01	 1.243597609585001e+00	 6.092869142868715e+00
 6.177743988508980e-01	 1.256325910014428e+00	 3.419185541864135e+00
 5.923699295935869e-01	 1.268502213854855e+00	-3.652680120756600e-01
 5.668165264623545e-01	 1.280124613215495e+00	-5.242198204763508e+00
 5.411316321624565e-01	 1.291191913191544e+00	-1.118994115415316e+01
 5.153325933776431e-01	 1.301703621492001e+00	-1.818362265912318e+01
 7.729337766451166e-01	 1.182256159622547e+00	 3.497564415855347e+00
 7.485745287943755e-01	 1.197828211762553e+00	 6.716007004456213e+00
 7.239594149464007e-01	 1.212863972410334e+00	 8.733176468272223e+00
 6.991058499966988e-01	 1.227357837211414e+00	 9.542954663138371e+00
 6.740313737775313e-01	 1.241304941272586e+00	 9.143518797726841e+00
 6.487536126919259e-01	 1.254701159671323e+00	 7.537275733916182e+00
 6.232902417012843e-01	 1.267543105640036e+00	 4.730775954845406e+00
 5.976589468256861e-01	 1.279828126478787e+00	 7.346082301702168e-01
 5.718773883093287e-01	 1.291554297262048e+00	-4.436723864276164e+00
 5.459631645959077e-01	 1.302720412416223e+00	-1.076494230278084e+01
 5.199337772502799e-01	 1.313325975254853e+00	-1.822815047603234e+01
 7.797738985630250e-01	 1.192718603514182e+00	 4.814699126185218e+00
 7.551990821477842e-01	 1.208428461425044e+00	 8.181860009371057e+00
 7.303661354343698e-01	 1.223597281901301e+00	 1.029473024441666e+01
 7.052926274324078e-01	 1.238219410992421e+00	 1.114159709026607e+01
 6.799962531939148e-01	 1.252289940753043e+00	 1.071538702769968e+01
 6.544947951077865e-01	 1.265804709756905e+00	 9.013615634177022e+00
 6.288060845510125e-01	 1.278760301265018e+00	 6.038314907504198e+00
 6.029479640571257e-01	 1.291154039102225e+00	 1.795939033839087e+00
 5.769382501556705e-01	 1.302983981308259e+00	-3.702750257498973e+00
 5.507946970287833e-01	 1.314248911640731e+00	-1.044281747871305e+01
 5.245349611224271e-01	 1.324948329017727e+00	-1.840530491951721e+01
 7.866140204809230e-01	 1.203181047404816e+00	 6.358025068080291e+00
 7.618236355009980e-01	 1.219028711086544e+00	 9.832447805710615e+00
 7.367728559219902e-01	 1.234330591391309e+00	 1.200071759721333e+01
 7.114794048676450e-01	 1.249080984772522e+00	 1.284559447414767e+01
 6.859611326097343e-01	 1.263274940232669e+00	 1.235481769437033e+01
 6.602359775230212e-01	 1.276908259841746e+00	 1.052107102901361e+01
 6.343219274000830e-01	 1.289977496889372e+00	 7.341923301346753e+00
 6.082369812879054e-01	 1.302479951725169e+00	 2.819745139397725e+00
 5.819991120013801e-01	 1.314413665354129e+00	-3.038396929746796e+00
 5.556262294610839e-01	 1.325777410865069e+00	-1.022086776618803e+01
 5.291361449940846e-01	 1.336570682780620e+00	-1.871161087376294e+01
 7.934541423988104e-01	 1.213643491294451e+00	 8.121707683863679e+00
 7.684481888540168e-01	 1.229628960747055e+00	 1.166300792813214e+01
 7.431795764092617e-01	 1.245063900880360e+00	 1.384741827954251e+01
 7.176661823024110e-01	 1.259942558551717e+00	 1.465223717187659e+01
 6.919260120249895e-01	 1.274259939711460e+00	 1.406007850496747e+01
 6.659771599376296e-01	 1.288011809925846e+00	 1.205885218567203e+01
 6.398377702484958e-01	 1.301194692513100e+00	 8.641717745126520e+00
 6.135259985180255e-01	 1.313805864347619e+00	 3.807011960902280e+00
 5.870599738464576e-01	 1.325843349399657e+00	-2.441848402398477e+00
 5.604577618928086e-01	 1.337305910089237e+00	-1.009648745223611e+01
 5.337373288652524e-01	 1.348193036543535e+00	-1.914371319478721e+01
 8.002942643166867e-01	 1.224105935183085e+00	 1.010011180089957e+01
 7.750727422068404e-01	 1.240229210406577e+00	 1.366894063685546e+01
 7.495862968961846e-01	 1.255797210368453e+00	 1.583123913203291e+01
 7.238529597367048e-01	 1.270804132330007e+00	 1.655890807163429e+01
 6.978908914396812e-01	 1.285244939189419e+00	 1.582949627838767e+01
 6.717183423516123e-01	 1.299115360009208e+00	 1.362619625340921e+01
 6.453536130962506e-01	 1.312411888136201e+00	 9.937810738559570e+00
 6.188150157474855e-01	 1.325131776969574e+00	 4.758691095988230e+00
 5.921208356909027e-01	 1.337273033444843e+00	-1.911351395778855e+00
 5.652892943239584e-01	 1.348834409313236e+00	-1.006716004324960e+01
 5.383385127359304e-01	 1.359815390306469e+00	-1.969837158299825e+01
 8.071343862345530e-01	 1.234568379070720e+00	 1.228779318294295e+01
 7.816972955594687e-01	 1.250829460065110e+00	 1.584580202245558e+01
 7.559930173827586e-01	 1.266530519855587e+00	 1.794870869799819e+01
 7.300397371705273e-01	 1.281665706107390e+00	 1.856307867196198e+01
 7.038557708538088e-01	 1.296229938666545e+00	 1.766145444060833e+01
 6.774595247649688e-01	 1.310218910091828e+00	 1.522236612463122e+01
 6.508694559433478e-01	 1.323629083758674e+00	 1.123031084669755e+01
 6.241040329762860e-01	 1.336457689591036e+00	 5.675701759083879e+00
 5.971816975347158e-01	 1.348702717489688e+00	-1.445212193251926e+00
 5.701208267545327e-01	 1.360362908537064e+00	-1.013045448410087e+01
 5.429396966061187e-01	 1.371437744069425e+00	-2.037245571646959e+01
 8.139745081524083e-01	 1.245030822957354e+00	 1.467949050747169e+01
 7.883218489119019e-01	 1.261429709722652e+00	 1.818929745831067e+01
 7.623997378689837e-01	 1.277263829341764e+00	 2.019647210989414e+01
 7.362265146038778e-01	 1.292527279883868e+00	 2.066230535871729e+01
 7.098206502673721e-01	 1.307214938142837e+00	 1.955439064638346e+01
 6.832007071776995e-01	 1.321322460173709e+00	 1.684664935345072e+01
 6.563852987897871e-01	 1.334846279380521e+00	 1.251932286550862e+01
 6.293930502044267e-01	 1.347783602212004e+00	 6.558932142357833e+00
 6.022425593778966e-01	 1.360132401534191e+00	-1.041794138215813e+00
 5.749523591845315e-01	 1.371891407760722e+00	-1.028402156789345e+01
 5.475408804758173e-01	 1.383060097832401e+00	-2.116294062959817e+01
 8.208146300702533e-01	 1.255493266842989e+00	 1.727011774415303e+01
 7.949464022641402e-01	 1.272029959379205e+00	 2.069527538043072e+01
 7.688064583548604e-01	 1.287997138826982e+00	 2.257128623145113e+01
 7.424132920367567e-01	 1.303388853659439e+00	 2.285422586818321e+01
 7.157855296803717e-01	 1.318199937618296e+00	 2.150679451985420e+01
 6.889418895898042e-01	 1.332426010254849e+00	 1.849835712831841e+01
 6.619011416355685e-01	 1.346063475001740e+00	 1.380494797917967e+01
 6.346820674319077e-01	 1.359109514832477e+00	 7.409240708620601e+00
 6.073034212204453e-01	 1.371562085578352e+00	-6.995152562488940e-01
 5.797838916139548e-01	 1.383419906984210e+00	-1.052559052522691e+01
 5.521420643450261e-01	 1.394682451595397e+00	-2.206690232282936e+01
 5.061302256309000e-01	 1.278458913966357e+00	-1.850697994986828e+01
 4.806966872910303e-01	 1.288237437281654e+00	-4.810983253332825e+00
 4.551847024354536e-01	 1.297471343285539e+00	 7.481347088380687e+00
 4.296108311925131e-01	 1.306162139129264e+00	 1.835211573229862e+01
 4.039914143349413e-01	 1.314311963391015e+00	 2.778732564670024e+01
 3.783425453957433e-01	 1.321923567499668e+00	 3.577682967247799e+01
 3.526800442951766e-01	 1.329000295832889e+00	 4.231426602879638e+01
 3.270194325395477e-01	 1.335546064616104e+00	 4.739697872444321e+01
 3.013759100415353e-01	 1.341565339750669e+00	 5.102592390811484e+01
 2.757643336008559e-01	 1.347063113700460e+00	 5.320556324986124e+01
 2.501991970734234e-01	 1.352044881565965e+00	 5.394374549211196e+01
 5.107314095045163e-01	 1.290081267729169e+00	-1.827532196103999e+01
 4.850666571792522e-01	 1.299948686710393e+00	-5.322259656882398e+00
 4.593227451881562e-01	 1.309266537313843e+00	 6.392253594803265e+00
 4.335163842061927e-01	 1.318036340392143e+00	 1.685091486157435e+01
 4.076640635585735e-01	 1.326260253965098e+00	 2.603971488530047e+01
 3.817820230831497e-01	 1.333941054474572e+00	 3.394790818860648e+01
 3.558862265176348e-01	 1.341082116701665e+00	 4.056796939258038e+01
 3.299923364729388e-01	 1.347687392473848e+00	 4.589553648852753e+01
 3.041156910427644e-01	 1.353761388291580e+00	 4.992934187223083e+01
 2.782712820886437e-01	 1.359309142004772e+00	 5.267113200444894e+01
 2.524737352288170e-01	 1.364336198669367e+00	 5.412557660616488e+01
 5.153325933776431e-01	 1.301703621492001e+00	-1.818362265912318e+01
 4.894366270670793e-01	 1.311659936139338e+00	-5.950008328400994e+00
 4.634607879405481e-01	 1.321061731342504e+00	 5.207090616776046e+00
 4.374219372196355e-01	 1.329910541655500e+00	 1.527096796702905e+01
 4.113367127820329e-01	 1.338208544539750e+00	 2.422761384633080e+01
 3.852215007704361e-01	 1.345958541450105e+00	 3.206570313297723e+01
 3.590924087400167e-01	 1.353163937571098e+00	 3.877657233444219e+01
 3.329652404062873e-01	 1.359828720332250e+00	 4.435418544265460e+01
 3.068554720439746e-01	 1.365957436833121e+00	 4.879508935583919e+01
 2.807782305764268e-01	 1.371555170309656e+00	 5.209835950462990e+01
 2.547482733842105e-01	 1.376627515773255e+00	 5.426553636355843e+01
 5.199337772502799e-01	 1.313325975254853e+00	-1.822815047603234e+01
 4.938065969545112e-01	 1.323371185568486e+00	-6.691121160860590e+00
 4.675988306926293e-01	 1.332856925371522e+00	 3.928424686650565e+00
 4.413274902328415e-01	 1.341784742919335e+00	 1.361438177925756e+01
 4.150093620053187e-01	 1.350156835114969e+00	 2.235275092422775e+01
 3.886609784576029e-01	 1.357976028426266e+00	 3.013164553440841e+01
 3.622985909623225e-01	 1.365245758441190e+00	 3.694128881208756e+01
 3.359381443395930e-01	 1.371970048191310e+00	 4.277400191827314e+01
 3.095952530451660e-01	 1.378153485375291e+00	 4.762418349358705e+01
 2.832851790642052e-01	 1.383801198615110e+00	 5.148828094488120e+01
 2.570228115396040e-01	 1.388918832877628e+00	 5.436475395369460e+01
 5.245349611224271e-01	 1.324948329017727e+00	-1.840530491951721e+01
 4.981765668415482e-01	 1.335082434997839e+00	-7.542599250462601e+00
 4.717368734443999e-01	 1.344652119400897e+00	 2.558732133391310e+00
 4.452330432458106e-01	 1.353658944183649e+00	 1.188318895653546e+01
 4.186820112284315e-01	 1.362105125690758e+00	 2.041679371419072e+01
 3.921004561446502e-01	 1.369993515403056e+00	 2.814711605495055e+01
 3.655047731845522e-01	 1.377327579311940e+00	 3.506329003203926e+01
 3.389110482728562e-01	 1.384111376051029e+00	 4.115602432416316e+01
 3.123350340463384e-01	 1.390349533918090e+00	 4.641760557452759e+01
 2.857921275519789e-01	 1.396047226921136e+00	 5.084189504087632e+01
 2.592973496949976e-01	 1.401210149982486e+00	 5.442431879004846e+01
 5.291361449940846e-01	 1.336570682780620e+00	-1.871161087376294e+01
 5.025465367281904e-01	 1.346793684427397e+00	-8.501548148189837e+00
 4.758749161958596e-01	 1.356447313430629e+00	 1.100403004970389e+00
 4.491385962585430e-01	 1.365533145448441e+00	 1.007935130588174e+01
 4.223546604513710e-01	 1.374053416267115e+00	 1.842135165616720e+01
 3.955399338315778e-01	 1.382011002380474e+00	 2.611344718029563e+01
 3.687109554067056e-01	 1.389409400183348e+00	 3.314370630893497e+01
 3.418839522060768e-01	 1.396252703911406e+00	 3.950125479579371e+01
 3.150748150474922e-01	 1.402545582461518e+00	 4.517630260116118e+01
 2.882990760397479e-01	 1.408293255227734e+00	 5.016016561604064e+01
 2.615718878503911e-01	 1.413501467087830e+00	 5.444528224005477e+01
 5.337373288652524e-01	 1.348193036543535e+00	-1.914371319478721e+01
 5.069165066144372e-01	 1.358504933857160e+00	-9.565173356967652e+00
 4.800129589470085e-01	 1.368242507460719e+00	-4.442552121223180e-01
 4.530441492710384e-01	 1.377407346713711e+00	 8.204762837516007e+00
 4.260273096741375e-01	 1.386001706844041e+00	 1.636797854208154e+01
 3.989794115183856e-01	 1.394028489358520e+00	 2.403192529688743e+01
 3.719171376287828e-01	 1.401491221055414e+00	 3.118362882865366e+01
 3.448568561392546e-01	 1.408394031772441e+00	 3.781066075936953e+01
 3.178145960486270e-01	 1.414741631005575e+00	 4.390118876783387e+01
 2.908060245275123e-01	 1.420539283534902e+00	 4.944402310604174e+01
 2.638464260057847e-01	 1.425792784193659e+00	 5.442865926551599e+01
 5.383385127359304e-01	 1.359815390306469e+00	-1.969837158299825e+01
 5.112864765002892e-01	 1.370216183287127e+00	-1.073077605974177e+01
 4.841510016978469e-01	 1.380037701491165e+00	-2.073014064112520e+00
 4.569497022832972e-01	 1.389281547979459e+00	 6.261252662673140e+00
 4.296999588967309e-01	 1.397949997421536e+00	 1.425817489448552e+01
 4.024188892050738e-01	 1.406045976337196e+00	 2.190379266251323e+01
 3.751233198507839e-01	 1.413573041928139e+00	 2.918411132102499e+01
 3.478297600723899e-01	 1.420535359634134e+00	 3.608517641566788e+01
 3.205543770497430e-01	 1.426937679550262e+00	 4.259314686332193e+01
 2.933129730152719e-01	 1.432785311842642e+00	 4.869436598612697e+01
 2.661209641611783e-01	 1.438084101299974e+00	 5.437542997888669e+01
 5.429396966061187e-01	 1.371437744069425e+00	-2.037245571646959e+01
 5.156564463857463e-01	 1.381927432717298e+00	-1.199574906477251e+01
 4.882890444483744e-01	 1.391832895521968e+00	-3.783720780605741e+00
 4.608552552953190e-01	 1.401155749245686e+00	 4.250587744072071e+00
 4.333726081191510e-01	 1.409898287999599e+00	 1.209339022426030e+01
 4.058583668916424e-01	 1.418063463316499e+00	 1.973024927669493e+01
 3.783295020727088e-01	 1.425654862801521e+00	 2.714617164748432e+01
 3.508026640054825e-01	 1.432676687496486e+00	 3.432570414842660e+01
 3.232941580508401e-01	 1.439133728095577e+00	 4.125302960209577e+01
 2.958199215030269e-01	 1.445031340150954e+00	 4.791206212588281e+01
 2.683955023165718e-01	 1.450375418406773e+00	 5.428654112042413e+01
 5.475408804758173e-01	 1.383060097832401e+00	-2.116294062959817e+01
 5.200264162708083e-01	 1.393638682147674e+00	-1.335757295536898e+01
 4.924270871985911e-01	 1.403628089553128e+00	-5.574295094126200e+00
 4.647608083071041e-01	 1.413029950512392e+00	 2.174475507705189e+00
 4.370452573413979e-01	 1.421846578578230e+00	 9.875025174483872e+00
 4.092978445780913e-01	 1.430080950296430e+00	 1.751245465677353e+01
 3.815356842945573e-01	 1.437736683675562e+00	 2.507079330867731e+01
 3.537755679385325e-01	 1.444818015359496e+00	 3.253311586171845e+01
 3.260339390519186e-01	 1.451329776641522e+00	 3.988166088846195e+01
 2.983268699907771e-01	 1.457277368459836e+00	 4.709795007568675e+01
 2.706700404719653e-01	 1.462666735514058e+00	 5.416290746086048e+01
 5.521420643450261e-01	 1.394682451595397e+00	-2.206690232282936e+01
 5.243963861554752e-01	 1.405349931578255e+00	-1.481381243213819e+01
 4.965651299484972e-01	 1.415423283584646e+00	-7.442726218678935e+00
 4.686663613186524e-01	 1.424904151779574e+00	 3.456632403549520e-02
 4.407179065634718e-01	 1.433794869157430e+00	 7.604433557103695e+00
 4.127373222644204e-01	 1.442098437276991e+00	 1.525152952518905e+01
 3.847418665163297e-01	 1.449818504550261e+00	 2.295892687668258e+01
 3.567484718715399e-01	 1.456959343223164e+00	 3.070825425045866e+01
 3.287737200529779e-01	 1.463525825188096e+00	 3.847983701749713e+01
 3.008338184785227e-01	 1.469523396769290e+00	 4.625284028883686e+01
 2.729445786273588e-01	 1.474958052621828e+00	 5.400541313394062e+01
 2.501991970734234e-01	 1.352044881565965e+00	 5.394374549211196e+01
 2.246946132453406e-01	 1.356516616473704e+00	 3.600133462442564e+01
 1.992642974238829e-01	 1.360484744408075e+00	 1.960003775128176e+01
 1.739215527406030e-01	 1.363956118608690e+00	 4.741573550665194e+00
 1.486792571529468e-01	 1.366937993652964e+00	-8.577155781745038e+00
 1.235498521293628e-01	 1.369437999341071e+00	-2.036385042846567e+01
 9.854533298911115e-02	 1.371464114494739e+00	-3.063058781209051e+01
 7.367724086214492e-02	 1.373024640776572e+00	-3.939358830929751e+01
 4.895665622776053e-02	 1.374128176631064e+00	-4.667297365763576e+01
 2.439419398469604e-02	 1.374783591442656e+00	-5.249251983712624e+01
 0.000000000000000e+00	 1.375000000000000e+00	-5.687940613850007e+01
 2.524737352288170e-01	 1.364336198669367e+00	 5.412557660616488e+01
 2.267372915474652e-01	 1.368848585712971e+00	 3.716382876488701e+01
 2.010757910364978e-01	 1.372852787537955e+00	 2.146777546199367e+01
 1.755026577650256e-01	 1.376355719686112e+00	 7.045812800990079e+00
 1.500308867628343e-01	 1.379364702685561e+00	-6.097844686816263e+00
 1.246730326026296e-01	 1.381887435698295e+00	-1.796300318977166e+01
 9.944119965202770e-02	 1.383931970080786e+00	-2.855331796299609e+01
 7.434703396034356e-02	 1.385506682965300e+00	-3.787611243683474e+01
 4.940171673850238e-02	 1.386620250964008e+00	-4.594218962248999e+01
 2.461595938432043e-02	 1.387281624092119e+00	-5.276563731314339e+01
 0.000000000000000e+00	 1.387500000000000e+00	-5.836362853081034e+01
 2.547482733842105e-01	 1.376627515773255e+00	 5.426553636355843e+01
 2.287799698495900e-01	 1.381180554952629e+00	 3.829602054731016e+01
 2.028872846491126e-01	 1.385220830668143e+00	 2.332146781528450e+01
 1.770837627894483e-01	 1.388755320763768e+00	 9.356840346947198e+00
 1.513825163727218e-01	 1.391791411718328e+00	-3.586453466151351e+00
 1.257962130758965e-01	 1.394336872055636e+00	-1.550045079409830e+01
 1.003370663149443e-01	 1.396399825666909e+00	-2.638051557501569e+01
 7.501682705854221e-02	 1.397988725154069e+00	-3.622521039477090e+01
 4.984677724924420e-02	 1.399112325296969e+00	-4.503616027430768e+01
 2.483772478394482e-02	 1.399779656741585e+00	-5.281790958218222e+01
 0.000000000000000e+00	 1.400000000000000e+00	-5.957777326375435e+01
 2.570228115396040e-01	 1.388918832877628e+00	 5.436475395369460e+01
 2.308226481517145e-01	 1.393512524192677e+00	 3.939873231844367e+01
 2.046987782617274e-01	 1.397588873798637e+00	 2.516150587815390e+01
 1.786648678138709e-01	 1.401154921841657e+00	 1.167449449437451e+01
 1.527341459826092e-01	 1.404218120751266e+00	-1.043814911752165e+00
 1.269193935491633e-01	 1.406786308413095e+00	-1.297781215077977e+01
 1.012329329778609e-01	 1.408867681253106e+00	-2.411469722127123e+01
 7.568662015674081e-02	 1.410470767342880e+00	-3.444440435413122e+01
 5.029183775998605e-02	 1.411604399629950e+00	-4.395951758086215e+01
 2.505949018356920e-02	 1.412277689391056e+00	-5.265517876554838e+01
 0.000000000000000e+00	 1.412500000000000e+00	-6.052898903591868e+01
 2.592973496949976e-01	 1.401210149982486e+00	 5.442431879004846e+01
 2.328653264538391e-01	 1.405844493433116e+00	 4.047275741693887e+01
 2.065102718743421e-01	 1.409956916929438e+00	 2.698826684402497e+01
 1.802459728382935e-01	 1.413554522919780e+00	 1.399861907303699e+01
 1.540857755924967e-01	 1.416644829784374e+00	 1.529267258446399e+00
 1.280425740224302e-01	 1.419235744770672e+00	-1.039664950869535e+01
 1.021287996407774e-01	 1.421335536839377e+00	-2.175829131366168e+01
 7.635641325493947e-02	 1.422952809531733e+00	-3.253709303632279e+01
 5.073689827072789e-02	 1.424096473962949e+00	-4.271673111535348e+01
 2.528125558319359e-02	 1.424775722040532e+00	-5.228308212326860e+01
 0.000000000000000e+00	 1.425000000000000e+00	-6.122417383416713e+01
 2.615718878503911e-01	 1.413501467087830e+00	 5.444528224005477e+01
 2.349080047559638e-01	 1.418176462673946e+00	 4.151886143504223e+01
 2.083217654869569e-01	 1.422324960060546e+00	 2.880211463638092e+01
 1.818270778627161e-01	 1.425954123998136e+00	 1.632906319685303e+01
 1.554374052023842e-01	 1.429071538817652e+00	 4.132017136842981e+00
 1.291657544956971e-01	 1.431685181128366e+00	-7.758470919460969e+00
 1.030246663036940e-01	 1.433803392425723e+00	-1.931364193570904e+01
 7.702620635313809e-02	 1.435434851720629e+00	-3.050655708031585e+01
 5.118195878146975e-02	 1.436588548295966e+00	-4.131211511690614e+01
 2.550302098281797e-02	 1.437273754690013e+00	-5.170706096103449e+01
 0.000000000000000e+00	 1.437500000000000e+00	-6.166998583414974e+01
 2.638464260057847e-01	 1.425792784193659e+00	 5.442865926551599e+01
 2.369506830580884e-01	 1.430508431915166e+00	 4.253778341502625e+01
 2.101332590995718e-01	 1.434693003191961e+00	 3.060340048117680e+01
 1.834081828871388e-01	 1.438353725076726e+00	 1.866568103652412e+01
 1.567890348122716e-01	 1.441498247851101e+00	 6.763685427798263e+00
 1.302889349689639e-01	 1.444134617486177e+00	-5.064732573217684e+00
 1.039205329666105e-01	 1.446271248012144e+00	-1.678301247715093e+01
 7.769599945133675e-02	 1.447916893909566e+00	-2.835596413220881e+01
 5.162701929221158e-02	 1.449080622629002e+00	-3.974983518587284e+01
 2.572478638244236e-02	 1.449771787339498e+00	-5.093236907644213e+01
 0.000000000000000e+00	 1.450000000000000e+00	-6.187285373699355e+01
 2.661209641611783e-01	 1.438084101299974e+00	 5.437542997888669e+01
 2.389933613602131e-01	 1.442840401156778e+00	 4.353023698426471e+01
 2.119447527121866e-01	 1.447061046323683e+00	 3.239246344989770e+01
 1.849892879115614e-01	 1.450753326155550e+00	 2.100833160382292e+01
 1.581406644221591e-01	 1.453924956884721e+00	 9.423548310719692e+00
 1.314121154422308e-01	 1.456584053844107e+00	-2.316841014631791e+00
 1.048163996295271e-01	 1.458739103598640e+00	-1.416858908214549e+01
 7.836579254953538e-02	 1.460398936098545e+00	-2.608837367379419e+01
 5.207207980295342e-02	 1.461572696962056e+00	-3.803391463578596e+01
 2.594655178206674e-02	 1.462269819988988e+00	-4.996408077209091e+01
 0.000000000000000e+00	 1.462500000000000e+00	-6.183898657590580e+01
 2.683955023165718e-01	 1.450375418406773e+00	 5.428654112042413e+01
 2.410360396623377e-01	 1.455172370398780e+00	 4.449691143259162e+01
 2.137562463248014e-01	 1.459429089455712e+00	 3.416963097500302e+01
 1.865703929359840e-01	 1.463152927234606e+00	 2.335687854685056e+01
 1.594922940320465e-01	 1.466351665918511e+00	 1.211090636095467e+01
 1.325352959154976e-01	 1.469033490202154e+00	 4.838447537795521e-01
 1.057122662924437e-01	 1.471206959185211e+00	-1.147248392214252e+01
 7.903558564773400e-02	 1.472880978287564e+00	-2.370674160559956e+01
 5.251714031369526e-02	 1.474064771295128e+00	-3.616824052233144e+01
 2.616831718169113e-02	 1.474767852638482e+00	-4.880709846123686e+01
 0.000000000000000e+00	 1.475000000000000e+00	-6.157438302413608e+01
 2.706700404719653e-01	 1.462666735514058e+00	 5.416290746086048e+01
 2.430787179644623e-01	 1.467504339641174e+00	 4.543847273533892e+01
 2.155677399374162e-01	 1.471797132588047e+00	 3.593521933938099e+01
 1.881514979604067e-01	 1.475552528313897e+00	 2.571118995561609e+01
 1.608439236419340e-01	 1.478778374952471e+00	 1.482508352509325e+01
 1.336584763887645e-01	 1.481482926560319e+00	 3.336011274374815e+00
 1.066081329553602e-01	 1.483674814771857e+00	-8.696738303738515e+00
 7.970537874593264e-02	 1.485363020476627e+00	-2.121392459885527e+01
 5.296220082443710e-02	 1.486556845628219e+00	-3.415656936833772e+01
 2.639008258131552e-02	 1.487265885287981e+00	-4.746615988996916e+01
 0.000000000000000e+00	 1.487500000000000e+00	-6.108484023363073e+01
 2.729445786273588e-01	 1.474958052621828e+00	 5.400541313394062e+01
 2.451213962665869e-01	 1.479836308883957e+00	 4.635556452522295e+01
 2.173792335500309e-01	 1.484165175720690e+00	 3.768953414133142e+01
 1.897326029848293e-01	 1.487952129393421e+00	 2.807113817733659e+01
 1.621955532518215e-01	 1.491205083986602e+00	 1.756542614750304e+01
 1.347816568620313e-01	 1.493932362918601e+00	 6.238388736975387e+00
 1.075039996182768e-01	 1.496142670358577e+00	-5.843325621135818e+00
 8.037517184413129e-02	 1.497845062665731e+00	-1.861268422986076e+01
 5.340726133517893e-02	 1.499048919961328e+00	-3.200253260251824e+01
 2.661184798093990e-02	 1.499763917937484e+00	-4.594584499827314e+01
 0.000000000000000e+00	 1.500000000000000e+00	-6.037596223175304e+01
 1.500000000000000e+00	 0.000000000000000e+00	 1.139585167930823e+02
 1.499763917937484e+00	 2.661184798093904e-02	 9.974535711204595e+01
 1.499048919961329e+00	 5.340726133517817e-02	 8.496839803714735e+01
 1.497845062665731e+00	 8.037517184413061e-02	 6.967443370343084e+01
 1.496142670358577e+00	 1.075039996182762e-01	 5.391337637133795e+01
 1.493932362918601e+00	 1.347816568620308e-01	 3.773821586184600e+01
 1.491205083986601e+00	 1.621955532518211e-01	 2.120496271810294e+01
 1.487952129393420e+00	 1.897326029848289e-01	 4.372574494837053e+00
 1.484165175720690e+00	 2.173792335500308e-01	-1.269713533512988e+01
 1.479836308883957e+00	 2.451213962665869e-01	-2.993960626896560e+01
 1.474958052621828e+00	 2.729445786273588e-01	-4.728765775858096e+01
 1.512500000000000e+00	 0.000000000000000e+00	 1.127160046182608e+02
 1.512261950586988e+00	 2.683361338056342e-02	 9.848298425171906e+01
 1.511540994294438e+00	 5.385232184592000e-02	 8.385896848712581e+01
 1.510327104854835e+00	 8.104496494232924e-02	 6.886276403301434e+01
 1.508610525945297e+00	 1.083998662811928e-01	 5.351468824226397e+01
 1.506381799276883e+00	 1.359048373352977e-01	 3.783656652449471e+01
 1.503631793020732e+00	 1.635471828617086e-01	 2.185172300083575e+01
 1.500351730472945e+00	 1.913137080092516e-01	 5.584964073104690e+00
 1.496533218853332e+00	 2.191907271626456e-01	-1.093744538933969e+01
 1.492168278126741e+00	 2.471640745687115e-01	-2.768781350571367e+01
 1.487249369729599e+00	 2.752191167827523e-01	-4.463706070258542e+01
 1.525000000000000e+00	 0.000000000000000e+00	 1.131872683306035e+02
 1.524759983236486e+00	 2.705537878018779e-02	 9.866805958445708e+01
 1.524033068627529e+00	 5.429738235666183e-02	 8.392679881609641e+01
 1.522809147043897e+00	 8.171475804052787e-02	 6.895463506209853e+01
 1.521078381531942e+00	 1.092957329441093e-01	 5.374263928235683e+01
 1.518831235635048e+00	 1.370280178085645e-01	 3.828183943386015e+01
 1.516058502054693e+00	 1.648988124715960e-01	 2.256325820826828e+01
 1.512751331552235e+00	 1.928948130336742e-01	 6.577953373143061e+00
 1.508901261985667e+00	 2.210022207752603e-01	-9.682939368398305e+00
 1.504500247369134e+00	 2.492067528708361e-01	-2.622816111103953e+01
 1.499540686836884e+00	 2.774936549381459e-01	-4.306628221215466e+01
 1.537500000000000e+00	 0.000000000000000e+00	 1.153304859426478e+02
 1.537258015885981e+00	 2.727714417981218e-02	 1.002652586888031e+02
 1.536525142960601e+00	 5.474244286740368e-02	 8.514315630955213e+01
 1.535291189232917e+00	 8.238455113872650e-02	 6.992799187823063e+01
 1.533546237118513e+00	 1.101915996070258e-01	 5.458192997299241e+01
 1.531280671993095e+00	 1.381511982818314e-01	 3.906555910381255e+01
 1.528485211088482e+00	 1.662504420814835e-01	 2.333797613256645e+01
 1.525150932631292e+00	 1.944759180580968e-01	 7.356882890988034e+00
 1.521269305117696e+00	 2.228137143878751e-01	-8.921304879586117e+00
 1.516832216611136e+00	 2.512494311729607e-01	-2.554133623071106e+01
 1.511832003943683e+00	 2.797681930935394e-01	-4.254899141010790e+01
 1.550000000000000e+00	 0.000000000000000e+00	 1.191051847737285e+02
 1.549756048535470e+00	 2.749890957943656e-02	 1.032403968534758e+02
 1.549017217293655e+00	 5.518750337814550e-02	 8.748023532915366e+01
 1.547773231421895e+00	 8.305434423692513e-02	 7.176149123327789e+01
 1.546014092705009e+00	 1.110874662699424e-01	 5.601775454448252e+01
 1.543730108351024e+00	 1.392743787550982e-01	 4.017952366705466e+01
 1.540911920122102e+00	 1.676020716913709e-01	 2.417433614290880e+01
 1.537550533710115e+00	 1.960570230825194e-01	 7.926921062942292e+00
 1.533637348249418e+00	 2.246252080004899e-01	-8.640626491487938e+00
 1.529164185852748e+00	 2.532921094750853e-01	-2.560864879534695e+01
 1.524123321049998e+00	 2.820427312489329e-01	-4.305970659467450e+01
 1.562500000000000e+00	 0.000000000000000e+00	 1.244721874777063e+02
 1.562254081184955e+00	 2.772067497906093e-02	 1.075603834888455e+02
 1.561509291626691e+00	 5.563256388888735e-02	 9.091112022944968e+01
 1.560255273610832e+00	 8.372413733512374e-02	 7.443447307650719e+01
 1.558481948291430e+00	 1.119833329328590e-01	 5.803578122565916e+01
 1.556179544708835e+00	 1.403975592283651e-01	 4.161579392980212e+01
 1.553338629155550e+00	 1.689537013012584e-01	 2.507084712173482e+01
 1.549950134788705e+00	 1.976381281069421e-01	 8.293071147193128e+00
 1.546005391380833e+00	 2.264367016131047e-01	-8.829369856409224e+00
 1.541496155093968e+00	 2.553347877772099e-01	-2.641200660998307e+01
 1.536414638155826e+00	 2.843172694043264e-01	-4.457376127352509e+01
 1.575000000000000e+00	 0.000000000000000e+00	 1.313935606408034e+02
 1.574752113834436e+00	 2.794244037868531e-02	 1.131931787092907e+02
 1.574001365959708e+00	 5.607762439962918e-02	 9.540975004046685e+01
 1.572737315799726e+00	 8.439393043332238e-02	 7.792693344323303e+01
 1.570949803877776e+00	 1.128791995957756e-01	 6.062213343395498e+01
 1.568628981066530e+00	 1.415207397016319e-01	 4.336668294766955e+01
 1.565765338188829e+00	 1.703053309111458e-01	 2.602606549926788e+01
 1.562349735867061e+00	 1.992192331313647e-01	 8.460177777734220e+00
 1.558373434511941e+00	 2.282481952257195e-01	-9.476366588866814e+00
 1.553828124334798e+00	 2.573774660793345e-01	-2.793389162984881e+01
 1.548705955261170e+00	 2.865918075597200e-01	-4.706727181522844e+01
 1.587500000000000e+00	 0.000000000000000e+00	 1.398325658078890e+02
 1.587250146483912e+00	 2.816420577830969e-02	 1.201077519667831e+02
 1.586493440292707e+00	 5.652268491037100e-02	 1.009508848188393e+02
 1.585219357988580e+00	 8.506372353152102e-02	 8.221949862431607e+01
 1.583417659464048e+00	 1.137750662586921e-01	 6.376337185414158e+01
 1.581078417424106e+00	 1.426439201748988e-01	 4.542474609403531e+01
 1.578192047221937e+00	 1.716569605210333e-01	 2.703859338089579e+01
 1.574749336945184e+00	 2.008003381557873e-01	 8.432933208654529e+00
 1.570741477642742e+00	 2.300596888383343e-01	-1.057079985848078e+01
 1.566160093575237e+00	 2.594201443814592e-01	-3.015733735697191e+01
 1.560997272366028e+00	 2.888663457151135e-01	-5.051710662898425e+01
 1.600000000000000e+00	 0.000000000000000e+00	 1.497536128044065e+02
 1.599748179133383e+00	 2.838597117793407e-02	 1.282740426235230e+02
 1.598985514625687e+00	 5.696774542111284e-02	 1.075100735762289e+02
 1.597701400177391e+00	 8.573351662971965e-02	 8.729340054646785e+01
 1.595885515050245e+00	 1.146709329216086e-01	 6.744647735712697e+01
 1.593527853781565e+00	 1.437671006481656e-01	 4.778277159395157e+01
 1.590618756254874e+00	 1.730085901309208e-01	 2.810707676233083e+01
 1.587148938023073e+00	 2.023814431802099e-01	 8.215883265726582e+00
 1.583109520773236e+00	 2.318711824509491e-01	-1.210219065819891e+01
 1.578492062815286e+00	 2.614628226835838e-01	-3.306590729631630e+01
 1.573288589470401e+00	 2.911408838705071e-01	-5.490085678905562e+01
 1.612500000000000e+00	 0.000000000000000e+00	 1.611222152293744e+02
 1.612246211782850e+00	 2.860773657755843e-02	 1.376629223584054e+02
 1.611477588958649e+00	 5.741280593185468e-02	 1.150636236994462e+02
 1.610183442366161e+00	 8.640330972791826e-02	 9.313045329765625e+01
 1.608353370636367e+00	 1.155667995845252e-01	 7.165883471322802e+01
 1.605977290138907e+00	 1.448902811214324e-01	 5.043377149833829e+01
 1.603045465287642e+00	 1.743602197408082e-01	 2.923020382778599e+01
 1.599548539100729e+00	 2.039625482046325e-01	 7.813433021177040e+00
 1.595477563903424e+00	 2.336826760635639e-01	-1.406038471120702e+01
 1.590824032054943e+00	 2.635055009857084e-01	-3.664367441395895e+01
 1.585579906574289e+00	 2.934154220259006e-01	-6.019680802550467e+01
 1.625000000000000e+00	 0.000000000000000e+00	 1.739049480025572e+02
 1.624744244432312e+00	 2.882950197718282e-02	 1.482461593085729e+02
 1.623969663291593e+00	 5.785786644259652e-02	 1.235885717819529e+02
 1.622665484554890e+00	 8.707310282611692e-02	 9.971303073595573e+01
 1.620821226222414e+00	 1.164626662474418e-01	 7.638821705713858e+01
 1.618426726496131e+00	 1.460134615946994e-01	 5.337097307475300e+01
 1.615472174320238e+00	 1.757118493506957e-01	 3.040670332669785e+01
 1.611948140178151e+00	 2.055436532290552e-01	 7.229852206546211e+00
 1.607845607033305e+00	 2.354941696761788e-01	-1.643553998213543e+01
 1.603156001294210e+00	 2.655481792878331e-01	-4.087520154335021e+01
 1.597871223677692e+00	 2.956899601812942e-01	-6.638391400766290e+01
 1.474958052621828e+00	 2.729445786273588e-01	-4.728765775858096e+01
 1.469523396769290e+00	 3.008338184785218e-01	-4.591557241976363e+01
 1.463525825188096e+00	 3.287737200529772e-01	-4.440456645842477e+01
 1.456959343223164e+00	 3.567484718715391e-01	-4.278443663715864e+01
 1.449818504550261e+00	 3.847418665163292e-01	-4.108621881138676e+01
 1.442098437276991e+00	 4.127373222644202e-01	-3.934210781287480e+01
 1.433794869157430e+00	 4.407179065634715e-01	-3.758536833329175e+01
 1.424904151779575e+00	 4.686663613186522e-01	-3.585023697634332e+01
 1.415423283584646e+00	 4.965651299484973e-01	-3.417181572566791e+01
 1.405349931578255e+00	 5.243963861554752e-01	-3.258595715610311e+01
 1.394682451595397e+00	 5.521420643450261e-01	-3.112914179725897e+01
 1.487249369729599e+00	 2.752191167827523e-01	-4.463706070258542e+01
 1.481769425078744e+00	 3.033407669662652e-01	-4.345156709180552e+01
 1.475721873734670e+00	 3.315135010540273e-01	-4.220963735190922e+01
 1.469100671086833e+00	 3.597213758045253e-01	-4.091919753659134e+01
 1.461900325424960e+00	 3.879480487380636e-01	-3.958853370197833e+01
 1.454115924257551e+00	 4.161767999506894e-01	-3.822627201468749e+01
 1.445743159736630e+00	 4.443905557854587e-01	-3.684135643861776e+01
 1.436778353046758e+00	 4.725719143300821e-01	-3.544302403634622e+01
 1.427218477616163e+00	 5.007031726982478e-01	-3.404077794145224e+01
 1.417061181008836e+00	 5.287663560399447e-01	-3.264435807905709e+01
 1.406304805358394e+00	 5.567432482139901e-01	-3.126370973313431e+01
 1.499540686836884e+00	 2.774936549381459e-01	-4.306628221215466e+01
 1.494015453387626e+00	 3.058477154540085e-01	-4.189515338499508e+01
 1.487917922280615e+00	 3.342532820550773e-01	-4.074841282053277e+01
 1.481241998949843e+00	 3.626942797375113e-01	-3.961238224624144e+01
 1.473982146299001e+00	 3.911542309597980e-01	-3.847287454671456e+01
 1.466133411237483e+00	 4.196162776369589e-01	-3.731523350308130e+01
 1.457691450315262e+00	 4.480632050074460e-01	-3.612437762365764e+01
 1.448652554313463e+00	 4.764774673415118e-01	-3.488484797015654e+01
 1.439013671647323e+00	 5.048412154479985e-01	-3.358085984656925e+01
 1.428772430439212e+00	 5.331363259244142e-01	-3.219635817990508e+01
 1.417927159121370e+00	 5.613444320829541e-01	-3.071507638374991e+01
 1.511832003943683e+00	 2.797681930935394e-01	-4.254899141010790e+01
 1.506261481695937e+00	 3.083546639417515e-01	-4.122419964228487e+01
 1.500113970825930e+00	 3.369930630561272e-01	-4.000300096413824e+01
 1.493383326812194e+00	 3.656671836704973e-01	-3.885037266432160e+01
 1.486063967172383e+00	 3.943604131815324e-01	-3.772992433832839e+01
 1.478150898216786e+00	 4.230557553232283e-01	-3.660399668054016e+01
 1.469639740893325e+00	 4.517358542294331e-01	-3.543377081544202e+01
 1.460526755579689e+00	 4.803830203529415e-01	-3.417938794186060e+01
 1.450808865678127e+00	 5.089792581977491e-01	-3.280007896974333e+01
 1.440483679869384e+00	 5.375062958088838e-01	-3.125430373272993e+01
 1.429549512884325e+00	 5.659456159519182e-01	-2.949989926260157e+01
 1.524123321049998e+00	 2.820427312489329e-01	-4.305970659467450e+01
 1.518507510003678e+00	 3.108616124294948e-01	-4.141728792654856e+01
 1.512310019370616e+00	 3.397328440571772e-01	-3.995608683984673e+01
 1.505524654673888e+00	 3.686400876034834e-01	-3.861998978603322e+01
 1.498145788045108e+00	 3.975665954032666e-01	-3.735066642617777e+01
 1.490168385195461e+00	 4.264952330094976e-01	-3.608772691090588e+01
 1.481588031470819e+00	 4.554085034514203e-01	-3.476889608444016e+01
 1.472400956845438e+00	 4.842885733643713e-01	-3.333020425717364e+01
 1.462604059708573e+00	 5.131173009474997e-01	-3.170619404028015e+01
 1.452194929299351e+00	 5.418762656933532e-01	-2.983014258178619e+01
 1.441171866647260e+00	 5.705467998208821e-01	-2.763429838796954e+01
 1.536414638155826e+00	 2.843172694043264e-01	-4.457376127352509e+01
 1.530753538310847e+00	 3.133685609172381e-01	-4.245368547291316e+01
 1.524506067914674e+00	 3.424726250582273e-01	-4.059090938497173e+01
 1.517665982534923e+00	 3.716129915364694e-01	-3.890847614096265e+01
 1.510227608917174e+00	 4.007727776250010e-01	-3.732637250332075e+01
 1.502185872173508e+00	 4.299347106957671e-01	-3.576174408232217e+01
 1.493536322047746e+00	 4.590811526734075e-01	-3.412913380027219e+01
 1.484275158110709e+00	 4.881941263758013e-01	-3.234074311926952e+01
 1.474399253738662e+00	 5.172553436972505e-01	-3.030671534157666e+01
 1.463906178729113e+00	 5.462462355778226e-01	-2.793544008025782e+01
 1.452794220410174e+00	 5.751479836898462e-01	-2.513387778431737e+01
 1.548705955261170e+00	 2.865918075597200e-01	-4.706727181522844e+01
 1.542999566617443e+00	 3.158755094049813e-01	-4.431331750050260e+01
 1.536702116458102e+00	 3.452124060592773e-01	-4.189123943884036e+01
 1.529807310395300e+00	 3.745858954694554e-01	-3.970347906678970e+01
 1.522309429788582e+00	 4.039789598467353e-01	-3.764859116563208e+01
 1.514203359150925e+00	 4.333741883820365e-01	-3.562151647670194e+01
 1.505484612624103e+00	 4.627538018953948e-01	-3.351388382762261e+01
 1.496149359375500e+00	 4.920996793872311e-01	-3.121434115813910e+01
 1.486194447768395e+00	 5.213933864470012e-01	-2.860891457160356e+01
 1.475617428158671e+00	 5.506162054622920e-01	-2.558139427002463e+01
 1.464416574173068e+00	 5.797491675588102e-01	-2.201374595981051e+01
 1.560997272366028e+00	 2.888663457151135e-01	-5.051710662898425e+01
 1.555245594923469e+00	 3.183824578927246e-01	-4.697674130866429e+01
 1.548898165000901e+00	 3.479521870603273e-01	-4.384135880295207e+01
 1.541948638255018e+00	 3.775587994024414e-01	-4.099303477321255e+01
 1.534391250659332e+00	 4.071851420684697e-01	-3.830913701143198e+01
 1.526220846127715e+00	 4.368136660683060e-01	-3.566265492882406e+01
 1.517432903199891e+00	 4.664264511173821e-01	-3.292256476013934e+01
 1.508023560639813e+00	 4.960052323986609e-01	-2.995422974596032e+01
 1.497989641797769e+00	 5.255314291967518e-01	-2.661983423753455e+01
 1.487328677588024e+00	 5.549861753467614e-01	-2.277885034427014e+01
 1.476038927935941e+00	 5.843503514277741e-01	-1.828853541638915e+01
 1.573288589470401e+00	 2.911408838705071e-01	-5.490085678905562e+01
 1.567491623228924e+00	 3.208894063804678e-01	-5.042512158743345e+01
 1.561094213543070e+00	 3.506919680613774e-01	-4.642604028269032e+01
 1.554089966114079e+00	 3.805317033354274e-01	-4.276555315287435e+01
 1.546473071529424e+00	 4.103913242902040e-01	-3.930008025206701e+01
 1.538238333103876e+00	 4.402531437545753e-01	-3.588090725921952e+01
 1.529381193775111e+00	 4.700991003393692e-01	-3.235461319024066e+01
 1.519897761903649e+00	 4.999107854100907e-01	-2.856353911018182e+01
 1.509784835826787e+00	 5.296694719465024e-01	-2.434629660999919e+01
 1.499039927017173e+00	 5.593561452312309e-01	-1.953831443215135e+01
 1.487661281698794e+00	 5.889515352967382e-01	-1.397242124530253e+01
 1.585579906574289e+00	 2.934154220259006e-01	-6.019680802550467e+01
 1.579737651533808e+00	 3.233963548682111e-01	-5.464020687634633e+01
 1.573290262084611e+00	 3.534317490624274e-01	-4.963052865732538e+01
 1.566231293972480e+00	 3.835046072684134e-01	-4.500980329875606e+01
 1.558554892398857e+00	 4.135975065119385e-01	-4.061373680571803e+01
 1.550255820079409e+00	 4.436926214408446e-01	-3.627215296599067e+01
 1.541329484349762e+00	 4.737717495613564e-01	-3.180948301288202e+01
 1.531771963167006e+00	 5.038163384215205e-01	-2.704530225529741e+01
 1.521580029855448e+00	 5.338075146962531e-01	-2.179491226085537e+01
 1.510751176446117e+00	 5.637261151157004e-01	-1.586996674231728e+01
 1.499283635461626e+00	 5.935527191657022e-01	-9.079138857730793e+00
 1.597871223677692e+00	 2.956899601812942e-01	-6.638391400766290e+01
 1.591983679838119e+00	 3.259033033559543e-01	-5.960430710976882e+01
 1.585486310625523e+00	 3.561715300634776e-01	-5.344052252832270e+01
 1.578372621830225e+00	 3.864775112013996e-01	-4.771489968999551e+01
 1.570636713267633e+00	 4.168036887336729e-01	-4.224265884841423e+01
 1.562273307054313e+00	 4.471320991271141e-01	-3.683239816162080e+01
 1.553277774923845e+00	 4.774443987833438e-01	-3.128664476145368e+01
 1.543646164429884e+00	 5.077218914329503e-01	-2.540245870361244e+01
 1.533375223883753e+00	 5.379455574460040e-01	-1.897208820690721e+01
 1.522462425874856e+00	 5.680960850001699e-01	-1.178367409979987e+01
 1.510905989224438e+00	 5.981539030346663e-01	-3.622000897066455e+00
 1.394682451595397e+00	 5.521420643450261e-01	-3.112914179725897e+01
 1.383419906984210e+00	 5.797838916139538e-01	-3.208919100803877e+01
 1.371562085578352e+00	 6.073034212204445e-01	-3.307479733172469e+01
 1.359109514832477e+00	 6.346820674319068e-01	-3.404210389818751e+01
 1.346063475001740e+00	 6.619011416355681e-01	-3.494635053265276e+01
 1.332426010254849e+00	 6.889418895898038e-01	-3.574203887486136e+01
 1.318199937618296e+00	 7.157855296803712e-01	-3.638310585056854e+01
 1.303388853659439e+00	 7.424132920367565e-01	-3.682310458827097e+01
 1.287997138826982e+00	 7.688064583548604e-01	-3.701539178332582e+01
 1.272029959379205e+00	 7.949464022641402e-01	-3.691332042796388e+01
 1.255493266842989e+00	 8.208146300702533e-01	-3.647043675039941e+01
 1.406304805358394e+00	 5.567432482139901e-01	-3.126370973313431e+01
 1.394948406207697e+00	 5.846154240430896e-01	-3.182370678555084e+01
 1.382991769622504e+00	 6.123642830626772e-01	-3.237876713626297e+01
 1.370435427452928e+00	 6.399710846590581e-01	-3.290258991797641e+01
 1.357280670622920e+00	 6.674169844810206e-01	-3.336836020982082e+01
 1.343529560335928e+00	 6.946830720015954e-01	-3.374884831255999e+01
 1.329184937093667e+00	 7.217504090930887e-01	-3.401651395184342e+01
 1.314250427434890e+00	 7.486000694693998e-01	-3.414361486311421e+01
 1.298730448312043e+00	 7.752131788405625e-01	-3.410231915775233e+01
 1.282630209035559e+00	 8.015709556162806e-01	-3.386482082026728e+01
 1.265955710728375e+00	 8.276547519880928e-01	-3.340345764162019e+01
 1.417927159121370e+00	 5.613444320829541e-01	-3.071507638374991e+01
 1.406476905431348e+00	 5.894469564722256e-01	-3.099653087460164e+01
 1.394421453666978e+00	 6.174251449049096e-01	-3.124307169557426e+01
 1.381761340073830e+00	 6.452601018862087e-01	-3.144573683768479e+01
 1.368497866244649e+00	 6.729328273264731e-01	-3.159543493377050e+01
 1.354633110417626e+00	 7.004242544133872e-01	-3.168297936560288e+01
 1.340169936569694e+00	 7.277152885058061e-01	-3.169912390976684e+01
 1.325112001211006e+00	 7.547868469020427e-01	-3.163459973320144e+01
 1.309463757797747e+00	 7.816198993262644e-01	-3.148015353160896e+01
 1.293230458692502e+00	 8.081955089684213e-01	-3.122658658773158e+01
 1.276418154614268e+00	 8.344948739059324e-01	-3.086479451203725e+01
 1.429549512884325e+00	 5.659456159519182e-01	-2.949989926260157e+01
 1.418005404655163e+00	 5.942784889013609e-01	-2.962135622949669e+01
 1.405851137711774e+00	 6.224860067471424e-01	-2.967842685539129e+01
 1.393087252695183e+00	 6.505491191133597e-01	-2.967927614121453e+01
 1.379715061866928e+00	 6.784486701719254e-01	-2.963231998034743e+01
 1.365736660499942e+00	 7.061654368251790e-01	-2.954619475701249e+01
 1.351154936046379e+00	 7.336801679185235e-01	-2.942972512831924e+01
 1.335973574987789e+00	 7.609736243346858e-01	-2.929189015478756e+01
 1.320197067284093e+00	 7.880266198119669e-01	-2.914178796247989e+01
 1.303830708350034e+00	 8.148200623205618e-01	-2.898859913690997e+01
 1.286880598500666e+00	 8.413349958237717e-01	-2.884154906441831e+01
 1.441171866647260e+00	 5.705467998208821e-01	-2.763429838796954e+01
 1.429533903879145e+00	 5.991100213304970e-01	-2.771143394741809e+01
 1.417280821756893e+00	 6.275468685893746e-01	-2.769520264750253e+01
 1.404413165316985e+00	 6.558381363405106e-01	-2.761068977592209e+01
 1.390932257489756e+00	 6.839645130173780e-01	-2.748360742602503e+01
 1.376840210582875e+00	 7.119066192369704e-01	-2.734020022989607e+01
 1.362139935523721e+00	 7.396450473312408e-01	-2.720714595332993e+01
 1.346835148765235e+00	 7.671604017673291e-01	-2.711145146816569e+01
 1.330930376771083e+00	 7.944333402976689e-01	-2.708034467142573e+01
 1.314430958008157e+00	 8.214446156727025e-01	-2.714116297067067e+01
 1.297343042387568e+00	 8.481751177416111e-01	-2.732123900020294e+01
 1.452794220410174e+00	 5.751479836898462e-01	-2.513387778431737e+01
 1.441062403103291e+00	 6.039415537596327e-01	-2.527959094431780e+01
 1.428710505802334e+00	 6.326077304316072e-01	-2.530343712392915e+01
 1.415739077939239e+00	 6.611271535676618e-01	-2.524722013570360e+01
 1.402149453113134e+00	 6.894803558628307e-01	-2.515374227750122e+01
 1.387943760666427e+00	 7.176478016487620e-01	-2.506664682825592e+01
 1.373124935001719e+00	 7.456099267439583e-01	-2.503025211640104e+01
 1.357696722543348e+00	 7.733471791999721e-01	-2.508937802388290e+01
 1.341663686258716e+00	 8.008400607833710e-01	-2.528916587799553e+01
 1.325031207666869e+00	 8.280691690248431e-01	-2.567489276586254e+01
 1.307805486274977e+00	 8.550152396594507e-01	-2.629178138103611e+01
 1.464416574173068e+00	 5.797491675588102e-01	-2.201374595981051e+01
 1.452590902327603e+00	 6.087730861887682e-01	-2.233824678909705e+01
 1.440140189848097e+00	 6.376685922738400e-01	-2.251284953232747e+01
 1.427064990561943e+00	 6.664161707948125e-01	-2.259587956869145e+01
 1.413366648737060e+00	 6.949961987082831e-01	-2.264702830940439e+01
 1.399047310750597e+00	 7.233889840605537e-01	-2.272713306918389e+01
 1.384109934480375e+00	 7.515748061566756e-01	-2.289794525292589e+01
 1.368558296322125e+00	 7.795339566326149e-01	-2.322188806484560e+01
 1.352396995746991e+00	 8.072467812690729e-01	-2.376180507166065e+01
 1.335631457326171e+00	 8.346937223769836e-01	-2.458070106632477e+01
 1.318267930162891e+00	 8.618553615772905e-01	-2.574147678260397e+01
 1.476038927935941e+00	 5.843503514277741e-01	-1.828853541638915e+01
 1.464119401552080e+00	 6.136046186179041e-01	-1.889942974246637e+01
 1.451569873894183e+00	 6.427294541160723e-01	-1.933285286892677e+01
 1.438390903185097e+00	 6.717051880219633e-01	-1.966345943576280e+01
 1.424583844361535e+00	 7.005120415537357e-01	-1.996763362619826e+01
 1.410150860835385e+00	 7.291301664723454e-01	-2.032320701242824e+01
 1.395094933959687e+00	 7.575396855693931e-01	-2.080916149011748e+01
 1.379419870101568e+00	 7.857207340652584e-01	-2.150531885020967e+01
 1.363130305235910e+00	 8.136535017547750e-01	-2.249201869561760e+01
 1.346231706986062e+00	 8.413182757291240e-01	-2.384978655732368e+01
 1.328730374051309e+00	 8.686954834951300e-01	-2.565899419710249e+01
 1.487661281698794e+00	 5.889515352967382e-01	-1.397242124530253e+01
 1.475647900776722e+00	 6.184361510470401e-01	-1.497479204397977e+01
 1.462999557940591e+00	 6.477903159583051e-01	-1.577256584304437e+01
 1.449716815808702e+00	 6.769942052491146e-01	-1.645653874442659e+01
 1.435801039986560e+00	 7.060278843991882e-01	-1.711959596336690e+01
 1.421254410920791e+00	 7.348713488841370e-01	-1.785636823294463e+01
 1.406079933439656e+00	 7.635045649821103e-01	-1.876287010121682e+01
 1.390281443881676e+00	 7.919075114979012e-01	-1.993612200783384e+01
 1.373863614725471e+00	 8.200602222404771e-01	-2.147375822040656e+01
 1.356831956646543e+00	 8.479428290812646e-01	-2.347362288961989e+01
 1.339192817940233e+00	 8.755356054129694e-01	-2.603335664339738e+01
 1.499283635461626e+00	 5.935527191657022e-01	-9.079138857730793e+00
 1.487176400001530e+00	 6.232676834761757e-01	-1.057562448803985e+01
 1.474429241987322e+00	 6.528511778005376e-01	-1.184082428510621e+01
 1.461042728432757e+00	 6.822832224762654e-01	-1.298149238112976e+01
 1.447018235612134e+00	 7.115437272446408e-01	-1.410682774202918e+01
 1.432357961006815e+00	 7.406125312959287e-01	-1.532806970169521e+01
 1.417064932920283e+00	 7.694694443948278e-01	-1.675807222229348e+01
 1.401143017662449e+00	 7.980942889305445e-01	-1.851085910289266e+01
 1.384596924215675e+00	 8.264669427261790e-01	-2.070116258619446e+01
 1.367432206307614e+00	 8.545673824334052e-01	-2.344394802334208e+01
 1.349655261829663e+00	 8.823757273308089e-01	-2.685392744647410e+01
 1.510905989224438e+00	 5.981539030346663e-01	-3.622000897066455e+00
 1.498704899226502e+00	 6.280992159053116e-01	-5.712870327160330e+00
 1.485858926034374e+00	 6.579120396427700e-01	-7.546192028140536e+00
 1.472368641057263e+00	 6.875722397034166e-01	-9.244498963606052e+00
 1.458235431238258e+00	 7.170595700900936e-01	-1.093312089025770e+01
 1.443461511093458e+00	 7.463537137077204e-01	-1.273971957963738e+01
 1.428049932401566e+00	 7.754343238075454e-01	-1.479379962826378e+01
 1.412004591443889e+00	 8.042810663631879e-01	-1.722619741100975e+01
 1.395330233706523e+00	 8.328736632118814e-01	-2.016855099387024e+01
 1.378032455969274e+00	 8.611919357855460e-01	-2.375275406367654e+01
 1.360117705719598e+00	 8.892158492486488e-01	-2.811039715013878e+01
 1.255493266842989e+00	 8.208146300702533e-01	-3.647043675039941e+01
 1.238393794960052e+00	 8.463928216988620e-01	-3.526762836079617e+01
 1.220739054091186e+00	 8.716628716590645e-01	-3.390753075403230e+01
 1.202537323063470e+00	 8.966069298445739e-01	-3.241577231391346e+01
 1.183797638460694e+00	 9.212074419883817e-01	-3.081855840334507e+01
 1.164529781372711e+00	 9.454471895829715e-01	-2.914256714795582e+01
 1.144744261634678e+00	 9.693093290812137e-01	-2.741484172183245e+01
 1.124452299602615e+00	 9.927774301945512e-01	-2.566267981616187e+01
 1.103665805527006e+00	 1.015835513108607e+00	-2.391352100271901e+01
 1.082397356601088e+00	 1.038468084441313e+00	-2.219483272835649e+01
 1.060660171775000e+00	 1.060660171775000e+00	-2.053399569358946e+01
 1.265955710728375e+00	 8.276547519880928e-01	-3.340345764162019e+01
 1.248713743246684e+00	 8.534460952142418e-01	-3.259221810282212e+01
 1.230911879537568e+00	 8.789267289246001e-01	-3.161315837111483e+01
 1.212558467418335e+00	 9.040786542619943e-01	-3.047661157948680e+01
 1.193662618777638e+00	 9.288841706738568e-01	-2.919347566122418e+01
 1.174234196214413e+00	 9.533259161651070e-01	-2.777517429582252e+01
 1.154283797145776e+00	 9.773869068257236e-01	-2.623361477029391e+01
 1.133822735430714e+00	 1.001050575448077e+00	-2.458114299902664e+01
 1.112863020571797e+00	 1.024300809052669e+00	-2.283049597152245e+01
 1.091417334572207e+00	 1.047121985145915e+00	-2.099475192108289e+01
 1.069499006540000e+00	 1.069499006540000e+00	-1.908727852853024e+01
 1.276418154614268e+00	 8.344948739059324e-01	-3.086479451203725e+01
 1.259033691533726e+00	 8.604993687296211e-01	-3.034701470214302e+01
 1.241084704984276e+00	 8.861905861901355e-01	-2.965123171804082e+01
 1.222579611773449e+00	 9.115503786794145e-01	-2.877267196146682e+01
 1.203527599094765e+00	 9.365608993593316e-01	-2.770711458379568e+01
 1.183938611056242e+00	 9.612046427472428e-01	-2.645091692311414e+01
 1.163823332656955e+00	 9.854644845702333e-01	-2.500103726564558e+01
 1.143193171258858e+00	 1.009323720701601e+00	-2.335505474125534e+01
 1.122060235616609e+00	 1.032766104996730e+00	-2.151118618400271e+01
 1.100437312543332e+00	 1.055775885850517e+00	-1.946829981199322e+01
 1.078337841305000e+00	 1.078337841305000e+00	-1.722592560583657e+01
 1.286880598500666e+00	 8.413349958237717e-01	-2.884154906441831e+01
 1.269353639821178e+00	 8.675526422450008e-01	-2.852151239495097e+01
 1.251257530431308e+00	 8.934544434556709e-01	-2.801362912371383e+01
 1.232600756128812e+00	 9.190221030968349e-01	-2.729820284078007e+01
 1.213392579412076e+00	 9.442376280448065e-01	-2.635607796007893e+01
 1.193643025898199e+00	 9.690833693293788e-01	-2.516872899288056e+01
 1.173362868168216e+00	 9.935420623147427e-01	-2.371834755037359e+01
 1.152563607087049e+00	 1.017596865955126e+00	-2.198792645573066e+01
 1.131257450661441e+00	 1.041231400940791e+00	-1.996134036243190e+01
 1.109457290514461e+00	 1.064429786555119e+00	-1.762342229843532e+01
 1.087176676070000e+00	 1.087176676070000e+00	-1.496003558485158e+01
 1.297343042387568e+00	 8.481751177416111e-01	-2.732123900020294e+01
 1.279673588109040e+00	 8.746059157603802e-01	-2.710554424635446e+01
 1.261430355878664e+00	 9.007183007212065e-01	-2.669249084850860e+01
 1.242621900484424e+00	 9.264938275142550e-01	-2.604763905305531e+01
 1.223257559729569e+00	 9.519143567302811e-01	-2.513707812617047e+01
 1.203347440740282e+00	 9.769620959115145e-01	-2.392757882481802e+01
 1.182902403679558e+00	 1.001619640059252e+00	-2.238674399746550e+01
 1.161934042915285e+00	 1.025870011208651e+00	-2.048315626958654e+01
 1.140454665706294e+00	 1.049696696884853e+00	-1.818652178057009e+01
 1.118477268485596e+00	 1.073083687259721e+00	-1.546780896102527e+01
 1.096015510835000e+00	 1.096015510835000e+00	-1.229938137251688e+01
 1.307805486274977e+00	 8.550152396594507e-01	-2.629178138103611e+01
 1.289993536397313e+00	 8.816591892757599e-01	-2.608926859865868e+01
 1.271603181326345e+00	 9.079821579867418e-01	-2.568020860840187e+01
 1.252643044840285e+00	 9.339655519316756e-01	-2.501559347177134e+01
 1.233122540047246e+00	 9.595910854157564e-01	-2.404693258464116e+01
 1.213051855582494e+00	 9.848408224936503e-01	-2.272646772222204e+01
 1.192441939190983e+00	 1.009697217803762e+00	-2.100738661034591e+01
 1.171304478743568e+00	 1.034143156462176e+00	-1.884403355672652e+01
 1.149651880751167e+00	 1.058161992828914e+00	-1.619211568262441e+01
 1.127497246456736e+00	 1.081737587964323e+00	-1.300890331726310e+01
 1.104854345600000e+00	 1.104854345600000e+00	-9.253423154341542e+00
 1.318267930162891e+00	 8.618553615772905e-01	-2.574147678260397e+01
 1.300313484685995e+00	 8.887124627911391e-01	-2.546315616496035e+01
 1.281776006774351e+00	 9.152460152522772e-01	-2.496941559794788e+01
 1.262664189196394e+00	 9.414372763490958e-01	-2.419684994458416e+01
 1.242987520365106e+00	 9.672678141012309e-01	-2.308255983252800e+01
 1.222756270424832e+00	 9.927195490757862e-01	-2.156442866431999e+01
 1.201981474702488e+00	 1.017774795548272e+00	-1.958139854661935e+01
 1.180674914571895e+00	 1.042416301715701e+00	-1.707374325450370e+01
 1.158849095796060e+00	 1.066627288772976e+00	-1.398333634892121e+01
 1.136517224427881e+00	 1.090391488668925e+00	-1.025391258687796e+01
 1.113693180365000e+00	 1.113693180365000e+00	-5.831320804845010e+00
 1.328730374051309e+00	 8.686954834951300e-01	-2.565899419710249e+01
 1.310633432975088e+00	 8.957657363065190e-01	-2.521797773248964e+01
 1.291948832222681e+00	 9.225098725178128e-01	-2.455297698460476e+01
 1.272685333552753e+00	 9.489090007665163e-01	-2.358635656336533e+01
 1.252852500683149e+00	 9.749445427867061e-01	-2.224097538642420e+01
 1.232460685267298e+00	 1.000598275657922e+00	-2.044052506037754e+01
 1.211521010214075e+00	 1.025852373292782e+00	-1.810986756982244e+01
 1.190045350400269e+00	 1.050689446969226e+00	-1.517536997645853e+01
 1.168046310840973e+00	 1.075092584717037e+00	-1.156523382776137e+01
 1.145537202399030e+00	 1.099045389373528e+00	-7.209816995814681e+00
 1.122532015130000e+00	 1.122532015130000e+00	-2.041945711677025e+00
 1.339192817940233e+00	 8.755356054129694e-01	-2.603335664339738e+01
 1.320953381264590e+00	 9.028190098218986e-01	-2.534479244235196e+01
 1.302121657671336e+00	 9.297737297833478e-01	-2.442398084863449e+01
 1.282706477909361e+00	 9.563807251839367e-01	-2.317921924970294e+01
 1.262717481001375e+00	 9.826212714721810e-01	-2.151928799388771e+01
 1.242165100109891e+00	 1.008477002240058e+00	-1.935384956220215e+01
 1.221060545725744e+00	 1.033929951037291e+00	-1.659384743311831e+01
 1.199415786228689e+00	 1.058962592222751e+00	-1.315190193226782e+01
 1.177243525885908e+00	 1.083557880661099e+00	-8.942700351716795e+00
 1.154557180370186e+00	 1.107699290078130e+00	-3.883378644090348e+00
 1.131370849895000e+00	 1.131370849895000e+00	 2.106107954522738e+00
 1.349655261829663e+00	 8.823757273308089e-01	-2.685392744647410e+01
 1.331273329554503e+00	 9.098722833372782e-01	-2.583493661439329e+01
 1.312294483120316e+00	 9.370375870488835e-01	-2.457572954439717e+01
 1.292727622266217e+00	 9.638524496013569e-01	-2.297069563874583e+01
 1.272582461319784e+00	 9.902980001576561e-01	-2.091469602105925e+01
 1.251869514952611e+00	 1.016355728822194e+00	-1.830352293187418e+01
 1.230600081237495e+00	 1.042007528781801e+00	-1.503435919863028e+01
 1.208786222057155e+00	 1.067235737476276e+00	-1.100623466536643e+01
 1.186440740930863e+00	 1.092023176605160e+00	-6.120476455489648e+00
 1.163577158341345e+00	 1.116353190782732e+00	-2.811499611904882e-01
 1.140209684660000e+00	 1.140209684660000e+00	 6.604512494447581e+00
 1.360117705719598e+00	 8.892158492486488e-01	-2.811039715013878e+01
 1.341593277844827e+00	 9.169255568526578e-01	-2.668001308783591e+01
 1.322467308569620e+00	 9.443014443144191e-01	-2.500173146035086e+01
 1.302748766623323e+00	 9.713241740187775e-01	-2.295618924532732e+01
 1.282447441638377e+00	 9.979747288431313e-01	-2.042448400700000e+01
 1.261573929795459e+00	 1.024234455404330e+00	-1.728869296173164e+01
 1.240139616749326e+00	 1.050085106526311e+00	-1.343239249587848e+01
 1.218156657885667e+00	 1.075508882729801e+00	-8.741174618057844e+00
 1.195637955975838e+00	 1.100488472549222e+00	-3.103156811405582e+00
 1.172597136312511e+00	 1.125007091487334e+00	 3.590518228788296e+00
 1.149048519425000e+00	 1.149048519425000e+00	 1.144519643040469e+01
 1.060660171775000e+00	 1.060660171775000e+00	-2.053399569358946e+01
 1.038468084441312e+00	 1.082397356601088e+00	-1.698535968452655e+01
 1.015835513108607e+00	 1.103665805527006e+00	-1.342916198199058e+01
 9.927774301945514e-01	 1.124452299602615e+00	-9.848353950606583e+00
 9.693093290812139e-01	 1.144744261634678e+00	-6.226123021009116e+00
 9.454471895829717e-01	 1.164529781372711e+00	-2.545969264910259e+00
 9.212074419883821e-01	 1.183797638460694e+00	 1.208220186512937e+00
 8.966069298445744e-01	 1.202537323063470e+00	 5.052099381078813e+00
 8.716628716590653e-01	 1.220739054091185e+00	 9.000794914362094e+00
 8.463928216988629e-01	 1.238393794960052e+00	 1.306884087086374e+01
 8.208146300702533e-01	 1.255493266842989e+00	 1.727011774415303e+01
 1.069499006540000e+00	 1.069499006540000e+00	-1.908727852853024e+01
 1.047121985145914e+00	 1.091417334572208e+00	-1.503542414178437e+01
 1.024300809052668e+00	 1.112863020571797e+00	-1.102559808740143e+01
 1.001050575448077e+00	 1.133822735430714e+00	-7.053921963175432e+00
 9.773869068257237e-01	 1.154283797145776e+00	-3.116446422596032e+00
 9.533259161651076e-01	 1.174234196214413e+00	 7.908255487006173e-01
 9.288841706738570e-01	 1.193662618777638e+00	 4.671915314602384e+00
 9.040786542619949e-01	 1.212558467418335e+00	 8.530845400291357e+00
 8.789267289246008e-01	 1.230911879537568e+00	 1.237161660309434e+01
 8.534460952142426e-01	 1.248713743246684e+00	 1.619818556661420e+01
 8.276547519880928e-01	 1.265955710728375e+00	 2.001444297588854e+01
 1.078337841305000e+00	 1.078337841305000e+00	-1.722592560583657e+01
 1.055775885850517e+00	 1.100437312543332e+00	-1.275510422037825e+01
 1.032766104996730e+00	 1.122060235616609e+00	-8.374791705360186e+00
 1.009323720701601e+00	 1.143193171258858e+00	-4.094120579311066e+00
 9.854644845702336e-01	 1.163823332656955e+00	 7.815101602827035e-02
 9.612046427472433e-01	 1.183938611056242e+00	 4.133668793911280e+00
 9.365608993593318e-01	 1.203527599094765e+00	 8.064509582562973e+00
 9.115503786794150e-01	 1.222579611773449e+00	 1.186320621386356e+01
 8.861905861901361e-01	 1.241084704984275e+00	 1.552276990815306e+01
 8.604993687296220e-01	 1.259033691533725e+00	 1.903671004412323e+01
 8.344948739059326e-01	 1.276418154614268e+00	 2.239905122509925e+01
 1.087176676070000e+00	 1.087176676070000e+00	-1.496003558485158e+01
 1.064429786555119e+00	 1.109457290514461e+00	-1.015244366378427e+01
 1.041231400940791e+00	 1.131257450661441e+00	-5.482758746769461e+00
 1.017596865955126e+00	 1.152563607087049e+00	-9.729688435024162e-01
 9.935420623147430e-01	 1.173362868168216e+00	 3.355612355040423e+00
 9.690833693293790e-01	 1.193643025898198e+00	 7.482427178757161e+00
 9.442376280448070e-01	 1.213392579412075e+00	 1.138775130766500e+01
 9.190221030968353e-01	 1.232600756128811e+00	 1.505276625319416e+01
 8.934544434556715e-01	 1.251257530431307e+00	 1.845962656022156e+01
 8.675526422450017e-01	 1.269353639821178e+00	 2.159152134616433e+01
 8.413349958237718e-01	 1.286880598500666e+00	 2.443272984433738e+01
 1.096015510835000e+00	 1.096015510835000e+00	-1.229938137251688e+01
 1.073083687259721e+00	 1.118477268485596e+00	-7.235226758804534e+00
 1.049696696884853e+00	 1.140454665706294e+00	-2.355321087768534e+00
 1.025870011208651e+00	 1.161934042915285e+00	 2.305643811701428e+00
 1.001619640059253e+00	 1.182902403679558e+00	 6.713946965273967e+00
 9.769620959115149e-01	 1.203347440740282e+00	 1.083697166139519e+01
 9.519143567302818e-01	 1.223257559729569e+00	 1.464333235307015e+01
 9.264938275142555e-01	 1.242621900484423e+00	 1.810299425916292e+01
 9.007183007212070e-01	 1.261430355878663e+00	 2.118738493796823e+01
 8.746059157603812e-01	 1.279673588109040e+00	 2.386949717926395e+01
 8.481751177416113e-01	 1.297343042387569e+00	 2.612398264021184e+01
 1.104854345600000e+00	 1.104854345600000e+00	-9.253423154341542e+00
 1.081737587964323e+00	 1.127497246456736e+00	-4.010988714631605e+00
 1.058161992828914e+00	 1.149651880751166e+00	 1.001885668155536e+00
 1.034143156462176e+00	 1.171304478743567e+00	 5.737952380570587e+00
 1.009697217803762e+00	 1.192441939190982e+00	 1.015122787522474e+01
 9.848408224936508e-01	 1.213051855582493e+00	 1.419717727961019e+01
 9.595910854157568e-01	 1.233122540047245e+00	 1.783289038558514e+01
 9.339655519316761e-01	 1.252643044840284e+00	 2.101724790941290e+01
 9.079821579867426e-01	 1.271603181326344e+00	 2.371107700186479e+01
 8.816591892757606e-01	 1.289993536397312e+00	 2.587729508696151e+01
 8.550152396594509e-01	 1.307805486274977e+00	 2.748104121510547e+01
 1.113693180365000e+00	 1.113693180365000e+00	-5.831320804845010e+00
 1.090391488668925e+00	 1.136517224427881e+00	-4.870255476692673e-01
 1.066627288772976e+00	 1.158849095796060e+00	 4.583404797682991e+00
 1.042416301715701e+00	 1.180674914571895e+00	 9.320311345983956e+00
 1.017774795548272e+00	 1.201981474702488e+00	 1.366558924439522e+01
 9.927195490757867e-01	 1.222756270424832e+00	 1.756292298844067e+01
 9.672678141012316e-01	 1.242987520365105e+00	 2.095801102590096e+01
 9.414372763490964e-01	 1.262664189196394e+00	 2.379877822528944e+01
 9.152460152522779e-01	 1.281776006774350e+00	 2.603557489782408e+01
 8.887124627911401e-01	 1.300313484685995e+00	 2.762136118624926e+01
 8.618553615772904e-01	 1.318267930162891e+00	 2.851187576881442e+01
 1.122532015130000e+00	 1.122532015130000e+00	-2.041945711677025e+00
 1.099045389373527e+00	 1.145537202399030e+00	 3.329596500650489e+00
 1.075092584717037e+00	 1.168046310840974e+00	 8.383951414431118e+00
 1.050689446969226e+00	 1.190045350400269e+00	 1.304918997452652e+01
 1.025852373292782e+00	 1.211521010214075e+00	 1.725522395600728e+01
 1.000598275657922e+00	 1.232460685267297e+00	 2.093409150547848e+01
 9.749445427867065e-01	 1.252852500683148e+00	 2.402022989725096e+01
 9.489090007665166e-01	 1.272685333552752e+00	 2.645073377057868e+01
 9.225098725178134e-01	 1.291948832222681e+00	 2.816559724885479e+01
 8.957657363065197e-01	 1.310633432975087e+00	 2.910793849126711e+01
 8.686954834951300e-01	 1.328730374051309e+00	 2.922420538987157e+01
 1.131370849895000e+00	 1.131370849895000e+00	 2.106107954522738e+00
 1.107699290078130e+00	 1.154557180370186e+00	 7.432031987513691e+00
 1.083557880661099e+00	 1.177243525885908e+00	 1.239840575587924e+01
 1.058962592222751e+00	 1.199415786228689e+00	 1.692116783212857e+01
 1.033929951037292e+00	 1.221060545725744e+00	 2.091838132256210e+01
 1.008477002240058e+00	 1.242165100109890e+00	 2.431056916342291e+01
 9.826212714721815e-01	 1.262717481001375e+00	 2.702103457803888e+01
 9.563807251839371e-01	 1.282706477909361e+00	 2.897616465343078e+01
 9.297737297833488e-01	 1.302121657671336e+00	 3.010571515179919e+01
 9.028190098218994e-01	 1.320953381264590e+00	 3.034307484682440e+01
 8.755356054129694e-01	 1.339192817940233e+00	 2.962550786446721e+01
 1.140209684660000e+00	 1.140209684660000e+00	 6.604512494447581e+00
 1.116353190782732e+00	 1.163577158341346e+00	 1.181364770987809e+01
 1.092023176605160e+00	 1.186440740930862e+00	 1.662180678253163e+01
 1.067235737476276e+00	 1.208786222057155e+00	 2.093293050828512e+01
 1.042007528781801e+00	 1.230600081237494e+00	 2.465336489811748e+01
 1.016355728822194e+00	 1.251869514952611e+00	 2.769224576949458e+01
 9.902980001576563e-01	 1.272582461319784e+00	 2.996186646364896e+01
 9.638524496013575e-01	 1.292727622266217e+00	 3.137802634214982e+01
 9.370375870488843e-01	 1.312294483120315e+00	 3.186035789515069e+01
 9.098722833372790e-01	 1.331273329554503e+00	 3.133263049292491e+01
 8.823757273308089e-01	 1.349655261829663e+00	 2.972302902914062e+01
 1.149048519425000e+00	 1.149048519425000e+00	 1.144519643040469e+01
 1.125007091487334e+00	 1.172597136312511e+00	 1.646801454065571e+01
 1.100488472549222e+00	 1.195637955975838e+00	 2.104934607250834e+01
 1.075508882729801e+00	 1.218156657885667e+00	 2.508126553762064e+01
 1.050085106526311e+00	 1.240139616749326e+00	 2.845853039154396e+01
 1.024234455404330e+00	 1.261573929795459e+00	 3.107901447133979e+01
 9.979747288431317e-01	 1.282447441638376e+00	 3.284412254232720e+01
 9.713241740187781e-01	 1.302748766623323e+00	 3.365918330487277e+01
 9.443014443144199e-01	 1.322467308569620e+00	 3.343381841297615e+01
 9.169255568526588e-01	 1.341593277844826e+00	 3.208228528015802e+01
 8.892158492486486e-01	 1.360117705719598e+00	 2.952379169181036e+01
 8.208146300702533e-01	 1.255493266842989e+00	 1.727011774415303e+01
 7.949464022641402e-01	 1.272029959379205e+00	 2.069527538043072e+01
 7.688064583548604e-01	 1.287997138826982e+00	 2.257128623145113e+01
 7.424132920367567e-01	 1.303388853659439e+00	 2.285422586818321e+01
 7.157855296803717e-01	 1.318199937618296e+00	 2.150679451985420e+01
 6.889418895898042e-01	 1.332426010254849e+00	 1.849835712831841e+01
 6.619011416355685e-01	 1.346063475001740e+00	 1.380494797917967e+01
 6.346820674319077e-01	 1.359109514832477e+00	 7.409240708620601e+00
 6.073034212204453e-01	 1.371562085578352e+00	-6.995152562488940e-01
 5.797838916139548e-01	 1.383419906984210e+00	-1.052559052522691e+01
 5.521420643450261e-01	 1.394682451595397e+00	-2.206690232282936e+01
 8.276547519880928e-01	 1.265955710728375e+00	 2.001444297588854e+01
 8.015709556162803e-01	 1.282630209035559e+00	 2.261654784424215e+01
 7.752131788405626e-01	 1.298730448312043e+00	 2.383923314316344e+01
 7.486000694693997e-01	 1.314250427434890e+00	 2.364558213631699e+01
 7.217504090930887e-01	 1.329184937093667e+00	 2.200453582437632e+01
 6.946830720015958e-01	 1.343529560335928e+00	 1.889092082650089e+01
 6.674169844810209e-01	 1.357280670622919e+00	 1.428544612678083e+01
 6.399710846590586e-01	 1.370435427452928e+00	 8.174669434909980e+00
 6.123642830626780e-01	 1.382991769622504e+00	 5.509341362433027e-01
 5.846154240430909e-01	 1.394948406207696e+00	-8.587721984253051e+00
 5.567432482139901e-01	 1.406304805358394e+00	-1.923768486874783e+01
 8.344948739059326e-01	 1.276418154614268e+00	 2.239905122509925e+01
 8.081955089684212e-01	 1.293230458692502e+00	 2.423545202306487e+01
 7.816198993262644e-01	 1.309463757797747e+00	 2.485902894435502e+01
 7.547868469020430e-01	 1.325112001211007e+00	 2.423979396367280e+01
 7.277152885058064e-01	 1.340169936569694e+00	 2.235285885998185e+01
 7.004242544133874e-01	 1.354633110417626e+00	 1.917845103164229e+01
 6.729328273264735e-01	 1.368497866244649e+00	 1.470190242011735e+01
 6.452601018862094e-01	 1.381761340073830e+00	 8.913612242434336e+00
 6.174251449049104e-01	 1.394421453666977e+00	 1.808984425835185e+00
 5.894469564722263e-01	 1.406476905431347e+00	-6.611659183423864e+00
 5.613444320829541e-01	 1.417927159121370e+00	-1.634318860297493e+01
 8.413349958237718e-01	 1.286880598500666e+00	 2.443272984433738e+01
 8.148200623205618e-01	 1.303830708350034e+00	 2.555937642354795e+01
 7.880266198119669e-01	 1.320197067284093e+00	 2.563673967874981e+01
 7.609736243346860e-01	 1.335973574987789e+00	 2.464168324275979e+01
 7.336801679185236e-01	 1.351154936046379e+00	 2.255542138906700e+01
 7.061654368251792e-01	 1.365736660499941e+00	 1.936352288457264e+01
 6.784486701719261e-01	 1.379715061866928e+00	 1.505589215098288e+01
 6.505491191133607e-01	 1.393087252695183e+00	 9.626728386555456e+00
 6.224860067471428e-01	 1.405851137711774e+00	 3.074463460831780e+00
 5.942784889013624e-01	 1.418005404655163e+00	-4.598320457018716e+00
 5.659456159519182e-01	 1.429549512884325e+00	-1.338499244186944e+01
 8.481751177416113e-01	 1.297343042387569e+00	 2.612398264021184e+01
 8.214446156727022e-01	 1.314430958008157e+00	 2.659547112457713e+01
 7.944333402976689e-01	 1.330930376771083e+00	 2.617823561680954e+01
 7.671604017673291e-01	 1.346835148765235e+00	 2.485591622143675e+01
 7.396450473312413e-01	 1.362139935523721e+00	 2.261576307696674e+01
 7.119066192369707e-01	 1.376840210582875e+00	 1.944862834765573e+01
 6.839645130173785e-01	 1.390932257489756e+00	 1.534893968153832e+01
 6.558381363405112e-01	 1.404413165316985e+00	 1.031465573852813e+01
 6.275468685893755e-01	 1.417280821756893e+00	 4.347204521309298e+00
 5.991100213304978e-01	 1.429533903879145e+00	-2.548594640505080e+00
 5.705467998208821e-01	 1.441171866647260e+00	-1.036462449689824e+01
 8.550152396594509e-01	 1.307805486274977e+00	 2.748104121510547e+01
 8.280691690248427e-01	 1.325031207666869e+00	 2.735065731433481e+01
 8.008400607833710e-01	 1.341663686258716e+00	 2.648919908667846e+01
 7.733471791999721e-01	 1.357696722543348e+00	 2.488700972877479e+01
 7.456099267439583e-01	 1.373124935001719e+00	 2.253731021597564e+01
 7.176478016487626e-01	 1.387943760666427e+00	 1.943617953212146e+01
 6.894803558628312e-01	 1.402149453113133e+00	 1.558252048174015e+01
 6.611271535676622e-01	 1.415739077939239e+00	 1.097801164115494e+01
 6.326077304316081e-01	 1.428710505802333e+00	 5.627046102179349e+00
 6.039415537596337e-01	 1.441062403103291e+00	-4.633422501168951e-01
 5.751479836898462e-01	 1.452794220410174e+00	-7.283564106425409e+00
 8.618553615772904e-01	 1.318267930162891e+00	 2.851187576881442e+01
 8.346937223769834e-01	 1.335631457326171e+00	 2.783163637321492e+01
 8.072467812690728e-01	 1.352396995746991e+00	 2.657513193222788e+01
 7.795339566326152e-01	 1.368558296322125e+00	 2.473933710445358e+01
 7.515748061566757e-01	 1.384109934480375e+00	 2.232338022441418e+01
 7.233889840605542e-01	 1.399047310750597e+00	 1.932851186695163e+01
 6.949961987082838e-01	 1.413366648737060e+00	 1.575806306975044e+01
 6.664161707948132e-01	 1.427064990561942e+00	 1.161739372369814e+01
 6.376685922738407e-01	 1.440140189848097e+00	 6.913831706582833e+00
 6.087730861887695e-01	 1.452590902327603e+00	 1.656603393735885e+00
 5.797491675588102e-01	 1.464416574173068e+00	-4.143243770750196e+00
 8.686954834951300e-01	 1.328730374051309e+00	 2.922420538987157e+01
 8.413182757291239e-01	 1.346231706986062e+00	 2.804489852762326e+01
 8.136535017547751e-01	 1.363130305235910e+00	 2.644136261875114e+01
 7.857207340652586e-01	 1.379419870101568e+00	 2.441713384802490e+01
 7.575396855693932e-01	 1.395094933959687e+00	 2.197718593313952e+01
 7.291301664723457e-01	 1.410150860835385e+00	 1.912788711805660e+01
 7.005120415537363e-01	 1.424583844361535e+00	 1.587695086067137e+01
 6.717051880219642e-01	 1.438390903185097e+00	 1.223338067828774e+01
 6.427294541160733e-01	 1.451569873894183e+00	 8.207409649044227e+00
 6.136046186179049e-01	 1.464119401552080e+00	 3.810435096131787e+00
 5.843503514277741e-01	 1.476038927935941e+00	-9.450509957258930e-01
 8.755356054129694e-01	 1.339192817940233e+00	 2.962550786446721e+01
 8.479428290812644e-01	 1.356831956646543e+00	 2.799673109813419e+01
 8.200602222404771e-01	 1.373863614725471e+00	 2.609305300557967e+01
 7.919075114979014e-01	 1.390281443881676e+00	 2.392450300337014e+01
 7.635045649821107e-01	 1.406079933439657e+00	 2.150183967112724e+01
 7.348713488841375e-01	 1.421254410920791e+00	 1.883649626592451e+01
 7.060278843991887e-01	 1.435801039986560e+00	 1.594052392862229e+01
 6.769942052491154e-01	 1.449716815808702e+00	 1.282653299993923e+01
 6.477903159583056e-01	 1.462999557940591e+00	 9.507632867851019e+00
 6.184361510470409e-01	 1.475647900776722e+00	 5.997370767472500e+00
 5.889515352967382e-01	 1.487661281698794e+00	 2.309669950038824e+00
 8.823757273308089e-01	 1.349655261829663e+00	 2.972302902914062e+01
 8.545673824334050e-01	 1.367432206307614e+00	 2.769322636400994e+01
 8.264669427261790e-01	 1.384596924215675e+00	 2.553520480369641e+01
 7.980942889305445e-01	 1.401143017662449e+00	 2.326542029271642e+01
 7.694694443948279e-01	 1.417064932920282e+00	 2.090035716102693e+01
 7.406125312959290e-01	 1.432357961006815e+00	 1.845646224943046e+01
 7.115437272446413e-01	 1.447018235612134e+00	 1.595008068685735e+01
 6.822832224762662e-01	 1.461042728432757e+00	 1.339739369214567e+01
 6.528511778005384e-01	 1.474429241987322e+00	 1.081435874616163e+01
 6.232676834761766e-01	 1.487176400001529e+00	 8.216652450768184e+00
 5.935527191657022e-01	 1.499283635461626e+00	 5.619616359710218e+00
 8.892158492486486e-01	 1.360117705719598e+00	 2.952379169181036e+01
 8.611919357855461e-01	 1.378032455969275e+00	 2.714028906474359e+01
 8.328736632118816e-01	 1.395330233706523e+00	 2.477266573530207e+01
 8.042810663631879e-01	 1.412004591443889e+00	 2.244373901369992e+01
 7.754343238075456e-01	 1.428049932401566e+00	 2.017566123492073e+01
 7.463537137077207e-01	 1.443461511093458e+00	 1.798984258300478e+01
 7.170595700900940e-01	 1.458235431238257e+00	 1.590687949033954e+01
 6.875722397034173e-01	 1.472368641057263e+00	 1.394648893990967e+01
 6.579120396427711e-01	 1.485858926034374e+00	 1.212744894136707e+01
 6.280992159053126e-01	 1.498704899226502e+00	 1.046754539381552e+01
 5.981539030346663e-01	 1.510905989224438e+00	 8.983525490085700e+00
 5.521420643450261e-01	 1.394682451595397e+00	-2.206690232282936e+01
 5.243963861554752e-01	 1.405349931578255e+00	-1.481381243213819e+01
 4.965651299484972e-01	 1.415423283584646e+00	-7.442726218678935e+00
 4.686663613186524e-01	 1.424904151779574e+00	 3.456632403549520e-02
 4.407179065634718e-01	 1.433794869157430e+00	 7.604433557103695e+00
 4.127373222644204e-01	 1.442098437276991e+00	 1.525152952518905e+01
 3.847418665163297e-01	 1.449818504550261e+00	 2.295892687668258e+01
 3.567484718715399e-01	 1.456959343223164e+00	 3.070825425045866e+01
 3.287737200529779e-01	 1.463525825188096e+00	 3.847983701749713e+01
 3.008338184785227e-01	 1.469523396769290e+00	 4.625284028883686e+01
 2.729445786273588e-01	 1.474958052621828e+00	 5.400541313394062e+01
 5.567432482139901e-01	 1.406304805358394e+00	-1.923768486874783e+01
 5.287663560399445e-01	 1.417061181008836e+00	-1.109433319684614e+01
 5.007031726982477e-01	 1.427218477616163e+00	-3.214535421583985e+00
 4.725719143300822e-01	 1.436778353046758e+00	 4.395657172777263e+00
 4.443905557854591e-01	 1.445743159736631e+00	 1.172954259209164e+01
 4.161767999506898e-01	 1.454115924257551e+00	 1.877983198076079e+01
 3.879480487380641e-01	 1.461900325424960e+00	 2.553871563345438e+01
 3.597213758045257e-01	 1.469100671086833e+00	 3.199793059667286e+01
 3.315135010540280e-01	 1.475721873734670e+00	 3.814882929755487e+01
 3.033407669662659e-01	 1.481769425078743e+00	 4.398244865339367e+01
 2.752191167827523e-01	 1.487249369729599e+00	 4.948957913612180e+01
 5.613444320829541e-01	 1.417927159121370e+00	-1.634318860297493e+01
 5.331363259244141e-01	 1.428772430439212e+00	-7.308004646483713e+00
 5.048412154479984e-01	 1.439013671647323e+00	 1.088268107768197e+00
 4.764774673415119e-01	 1.448652554313463e+00	 8.845222346414538e+00
 4.480632050074462e-01	 1.457691450315262e+00	 1.596297830301455e+01
 4.196162776369592e-01	 1.466133411237483e+00	 2.244218481709697e+01
 3.911542309597985e-01	 1.473982146299001e+00	 2.828401916041908e+01
 3.626942797375119e-01	 1.481241998949842e+00	 3.349018560277990e+01
 3.342532820550780e-01	 1.487917922280614e+00	 3.806291269855728e+01
 3.058477154540093e-01	 1.494015453387626e+00	 4.200494928415703e+01
 2.774936549381459e-01	 1.499540686836884e+00	 4.531955918566122e+01
 5.659456159519182e-01	 1.429549512884325e+00	-1.338499244186944e+01
 5.375062958088834e-01	 1.440483679869384e+00	-3.456443964572259e+00
 5.089792581977491e-01	 1.450808865678127e+00	 5.463877894213070e+00
 4.803830203529417e-01	 1.460526755579689e+00	 1.338111736535283e+01
 4.517358542294334e-01	 1.469639740893325e+00	 2.030211211383755e+01
 4.230557553232287e-01	 1.478150898216786e+00	 2.623533218271384e+01
 3.943604131815328e-01	 1.486063967172383e+00	 3.119081433923101e+01
 3.656671836704979e-01	 1.493383326812194e+00	 3.518009233606983e+01
 3.369930630561280e-01	 1.500113970825930e+00	 3.821612360736032e+01
 3.083546639417524e-01	 1.506261481695937e+00	 4.031321292125840e+01
 2.797681930935394e-01	 1.511832003943683e+00	 4.148693350836400e+01
 5.705467998208821e-01	 1.441171866647260e+00	-1.036462449689824e+01
 5.418762656933529e-01	 1.452194929299350e+00	 4.587837020121839e-01
 5.131173009474997e-01	 1.462604059708573e+00	 9.910545603097457e+00
 4.842885733643716e-01	 1.472400956845438e+00	 1.800126679192079e+01
 4.554085034514207e-01	 1.481588031470819e+00	 2.474440010487072e+01
 4.264952330094980e-01	 1.490168385195461e+00	 3.015612311594062e+01
 3.975665954032672e-01	 1.498145788045108e+00	 3.425520769104959e+01
 3.686400876034840e-01	 1.505524654673887e+00	 3.706288265816219e+01
 3.397328440571781e-01	 1.512310019370616e+00	 3.860269064635507e+01
 3.108616124294957e-01	 1.518507510003677e+00	 3.890034014215372e+01
 2.820427312489330e-01	 1.524123321049998e+00	 3.798355379751929e+01
 5.751479836898462e-01	 1.452794220410174e+00	-7.283564106425409e+00
 5.462462355778224e-01	 1.463906178729113e+00	 4.436163162008562e+00
 5.172553436972506e-01	 1.474399253738663e+00	 1.442657871511788e+01
 4.881941263758014e-01	 1.484275158110708e+00	 2.270366146917148e+01
 4.590811526734078e-01	 1.493536322047745e+00	 2.928737962700572e+01
 4.299347106957674e-01	 1.502185872173508e+00	 3.420150734982422e+01
 4.007727776250016e-01	 1.510227608917174e+00	 3.747343019145718e+01
 3.716129915364700e-01	 1.517665982534923e+00	 3.913394087372831e+01
 3.424726250582280e-01	 1.524506067914673e+00	 3.921702698453213e+01
 3.133685609172390e-01	 1.530753538310846e+00	 3.775965216860207e+01
 2.843172694043264e-01	 1.536414638155826e+00	 3.480153235565436e+01
 5.797491675588102e-01	 1.464416574173068e+00	-4.143243770750196e+00
 5.506162054622918e-01	 1.475617428158671e+00	 8.474227197836068e+00
 5.213933864470012e-01	 1.486194447768394e+00	 1.901033831187967e+01
 4.920996793872311e-01	 1.496149359375500e+00	 2.748635589116545e+01
 4.627538018953951e-01	 1.505484612624103e+00	 3.392866607717752e+01
 4.333741883820368e-01	 1.514203359150925e+00	 3.836853131679914e+01
 4.039789598467358e-01	 1.522309429788582e+00	 4.084183233228610e+01
 3.745858954694560e-01	 1.529807310395299e+00	 4.138879768165401e+01
 3.452124060592781e-01	 1.536702116458102e+00	 4.005372301468604e+01
 3.158755094049823e-01	 1.542999566617443e+00	 3.688468211140773e+01
 2.865918075597200e-01	 1.548705955261170e+00	 3.193323175334598e+01
 5.843503514277741e-01	 1.476038927935941e+00	-9.450509957258930e-01
 5.549861753467613e-01	 1.487328677588024e+00	 1.257155467729322e+01
 5.255314291967518e-01	 1.497989641797769e+00	 2.366023696607553e+01
 4.960052323986610e-01	 1.508023560639814e+00	 3.234746569749507e+01
 4.664264511173823e-01	 1.517432903199891e+00	 3.866594982616572e+01
 4.368136660683061e-01	 1.526220846127715e+00	 4.265433434211317e+01
 4.071851420684702e-01	 1.534391250659332e+00	 4.435687941674427e+01
 3.775587994024420e-01	 1.541948638255018e+00	 4.382312441197506e+01
 3.479521870603281e-01	 1.548898165000901e+00	 4.110753937657854e+01
 3.183824578927254e-01	 1.555245594923469e+00	 3.626916662879516e+01
 2.888663457151135e-01	 1.560997272366028e+00	 2.937125497659255e+01
 5.889515352967382e-01	 1.487661281698794e+00	 2.309669950038824e+00
 5.593561452312308e-01	 1.499039927017173e+00	 1.672676875377116e+01
 5.296694719465024e-01	 1.509784835826787e+00	 2.837473673055996e+01
 4.999107854100908e-01	 1.519897761903649e+00	 3.728516528524914e+01
 4.700991003393695e-01	 1.529381193775111e+00	 4.349699329040480e+01
 4.402531437545756e-01	 1.538238333103876e+00	 4.705614501568420e+01
 4.103913242902046e-01	 1.546473071529423e+00	 4.801514707508050e+01
 3.805317033354282e-01	 1.554089966114078e+00	 4.643272753295381e+01
 3.506919680613781e-01	 1.561094213543070e+00	 4.237340030713837e+01
 3.208894063804688e-01	 1.567491623228924e+00	 3.590703797579772e+01
 2.911408838705071e-01	 1.573288589470401e+00	 2.710843603602700e+01
 5.935527191657022e-01	 1.499283635461626e+00	 5.619616359710218e+00
 5.637261151157001e-01	 1.510751176446117e+00	 2.093853515017603e+01
 5.338075146962531e-01	 1.521580029855448e+00	 3.315234722095456e+01
 5.038163384215206e-01	 1.531771963167005e+00	 4.229768553205005e+01
 4.737717495613566e-01	 1.541329484349762e+00	 4.841962813998759e+01
 4.436926214408450e-01	 1.550255820079409e+00	 5.157127773270844e+01
 4.135975065119389e-01	 1.558554892398857e+00	 5.181331698882367e+01
 3.835046072684140e-01	 1.566231293972480e+00	 4.921354341364145e+01
 3.534317490624282e-01	 1.573290262084611e+00	 4.384638729995569e+01
 3.233963548682120e-01	 1.579737651533807e+00	 3.579241642344046e+01
 2.934154220259006e-01	 1.585579906574289e+00	 2.513783101291016e+01
 5.981539030346663e-01	 1.510905989224438e+00	 8.983525490085700e+00
 5.680960850001699e-01	 1.522462425874857e+00	 2.520556052205497e+01
 5.379455574460040e-01	 1.533375223883753e+00	 3.799162378674924e+01
 5.077218914329504e-01	 1.543646164429884e+00	 4.738331162418010e+01
 4.774443987833440e-01	 1.553277774923845e+00	 5.343175263553081e+01
 4.471320991271144e-01	 1.562273307054313e+00	 5.619712939393140e+01
 4.168036887336734e-01	 1.570636713267633e+00	 5.574817281236300e+01
 3.864775112014002e-01	 1.578372621830225e+00	 5.216163332816625e+01
 3.561715300634782e-01	 1.585486310625523e+00	 4.552173305741331e+01
 3.259033033559552e-01	 1.591983679838119e+00	 3.591960302780770e+01
 2.956899601812942e-01	 1.597871223677692e+00	 2.345270951838503e+01
 2.729445786273588e-01	 1.474958052621828e+00	 5.400541313394062e+01
 2.451213962665869e-01	 1.479836308883957e+00	 4.635556452522295e+01
 2.173792335500309e-01	 1.484165175720690e+00	 3.768953414133142e+01
 1.897326029848293e-01	 1.487952129393421e+00	 2.807113817733659e+01
 1.621955532518215e-01	 1.491205083986602e+00	 1.756542614750304e+01
 1.347816568620313e-01	 1.493932362918601e+00	 6.238388736975387e+00
 1.075039996182768e-01	 1.496142670358577e+00	-5.843325621135818e+00
 8.037517184413129e-02	 1.497845062665731e+00	-1.861268422986076e+01
 5.340726133517893e-02	 1.499048919961328e+00	-3.200253260251824e+01
 2.661184798093990e-02	 1.499763917937484e+00	-4.594584499827314e+01
 0.000000000000000e+00	 1.500000000000000e+00	-6.037596223175304e+01
 2.752191167827523e-01	 1.487249369729599e+00	 4.948957913612180e+01
 2.471640745687116e-01	 1.492168278126741e+00	 4.022016541244244e+01
 2.191907271626458e-01	 1.496533218853332e+00	 3.068833901095997e+01
 1.913137080092519e-01	 1.500351730472944e+00	 2.093533312632671e+01
 1.635471828617090e-01	 1.503631793020732e+00	 1.100198278516611e+01
 1.359048373352982e-01	 1.506381799276883e+00	 9.285901735163051e-01
 1.083998662811933e-01	 1.508610525945297e+00	-9.245201709164107e+00
 8.104496494232989e-02	 1.510327104854834e+00	-1.948052675509803e+01
 5.385232184592077e-02	 1.511540994294438e+00	-2.973940457829460e+01
 2.683361338056428e-02	 1.512261950586988e+00	-3.998484031271120e+01
 0.000000000000000e+00	 1.512500000000000e+00	-5.018091529500867e+01
 2.774936549381459e-01	 1.499540686836884e+00	 4.531955918566122e+01
 2.492067528708362e-01	 1.504500247369135e+00	 3.436581483837176e+01
 2.210022207752605e-01	 1.508901261985668e+00	 2.389182383286489e+01
 1.928948130336745e-01	 1.512751331552235e+00	 1.391657042488124e+01
 1.648988124715964e-01	 1.516058502054692e+00	 4.457025054753231e+00
 1.370280178085651e-01	 1.518831235635048e+00	-4.471834509942452e+00
 1.092957329441099e-01	 1.521078381531942e+00	-1.285699409278264e+01
 8.171475804052857e-02	 1.522809147043897e+00	-2.068736666422925e+01
 5.429738235666262e-02	 1.524033068627529e+00	-2.795374912979340e+01
 2.705537878018867e-02	 1.524759983236486e+00	-3.464877295814939e+01
 0.000000000000000e+00	 1.525000000000000e+00	-4.076684926308191e+01
 2.797681930935394e-01	 1.511832003943683e+00	 4.148693350836400e+01
 2.512494311729608e-01	 1.516832216611136e+00	 2.878567296198204e+01
 2.228137143878753e-01	 1.521269305117696e+00	 1.729501172652256e+01
 1.944759180580971e-01	 1.525150932631291e+00	 7.012011032023334e+00
 1.662504420814838e-01	 1.528485211088482e+00	-2.069881900886937e+00
 1.381511982818319e-01	 1.531280671993094e+00	-9.960658523168140e+00
 1.101915996070264e-01	 1.533546237118513e+00	-1.667356605725728e+01
 8.238455113872716e-02	 1.535291189232917e+00	-2.222491849331564e+01
 5.474244286740446e-02	 1.536525142960601e+00	-2.663390289846739e+01
 2.727714417981305e-02	 1.537258015885981e+00	-2.992238240398150e+01
 0.000000000000000e+00	 1.537500000000000e+00	-3.211469717523738e+01
 2.820427312489330e-01	 1.524123321049998e+00	 3.798355379751929e+01
 2.532921094750855e-01	 1.529164185852748e+00	 2.347312044519465e+01
 2.246252080004902e-01	 1.533637348249418e+00	 1.089308622029994e+01
 1.960570230825197e-01	 1.537550533710115e+00	 2.189073549284331e-01
 1.676020716913713e-01	 1.540911920122102e+00	-8.579159042854144e+00
 1.392743787550988e-01	 1.543730108351024e+00	-1.553572703686236e+01
 1.110874662699430e-01	 1.546014092705009e+00	-2.068994671432502e+01
 8.305434423692580e-02	 1.547773231421895e+00	-2.408516417405944e+01
 5.518750337814630e-02	 1.549017217293655e+00	-2.576857888198039e+01
 2.749890957943743e-02	 1.549756048535470e+00	-2.579090050946501e+01
 0.000000000000000e+00	 1.550000000000000e+00	-2.420600724413204e+01
 2.843172694043264e-01	 1.536414638155826e+00	 3.480153235565436e+01
 2.553347877772101e-01	 1.541496155093969e+00	 1.842174963319176e+01
 2.264367016131050e-01	 1.546005391380833e+00	 4.681384835495795e+00
 1.976381281069424e-01	 1.549950134788705e+00	-6.465400408638942e+00
 1.689537013012588e-01	 1.553338629155550e+00	-1.507121399171400e+01
 1.403975592283656e-01	 1.556179544708835e+00	-2.119495430394364e+01
 1.119833329328596e-01	 1.558481948291430e+00	-2.490132436890269e+01
 8.372413733512445e-02	 1.560255273610832e+00	-2.626034233779932e+01
 5.563256388888813e-02	 1.561509291626691e+00	-2.534685137983741e+01
 2.772067497906182e-02	 1.562254081184955e+00	-2.224003182806300e+01
 0.000000000000000e+00	 1.562500000000000e+00	-1.702291824887907e+01
 2.865918075597200e-01	 1.548705955261170e+00	 3.193323175334598e+01
 2.573774660793346e-01	 1.553828124334798e+00	 1.362535615471085e+01
 2.282481952257197e-01	 1.558373434511941e+00	-1.344607024094694e+00
 1.992192331313650e-01	 1.562349735867061e+00	-1.304348775371981e+01
 1.703053309111463e-01	 1.565765338188829e+00	-2.154644155656419e+01
 1.415207397016324e-01	 1.568628981066530e+00	-2.693632091791296e+01
 1.128791995957761e-01	 1.570949803877776e+00	-2.930304020166924e+01
 8.439393043332308e-02	 1.572737315799727e+00	-2.874293812883939e+01
 5.607762439962997e-02	 1.574001365959708e+00	-2.535814165588678e+01
 2.794244037868620e-02	 1.574752113834436e+00	-1.925593484967388e+01
 0.000000000000000e+00	 1.575000000000000e+00	-1.054813609987122e+01
 2.888663457151135e-01	 1.560997272366028e+00	 2.937125497659255e+01
 2.594201443814593e-01	 1.566160093575237e+00	 9.077930919174738e+00
 2.300596888383345e-01	 1.570741477642742e+00	-7.189261893935186e+00
 2.008003381557876e-01	 1.574749336945183e+00	-1.951784918698345e+01
 1.716569605210337e-01	 1.578192047221936e+00	-2.800522423910494e+01
 1.426439201748993e-01	 1.581078417424107e+00	-3.275787120074476e+01
 1.137750662586927e-01	 1.583417659464048e+00	-3.389058225010668e+01
 8.506372353152170e-02	 1.585219357988580e+00	-3.152567349903931e+01
 5.652268491037181e-02	 1.586493440292707e+00	-2.579220427818715e+01
 2.816420577831059e-02	 1.587250146483912e+00	-1.682520412905827e+01
 0.000000000000000e+00	 1.587500000000000e+00	-4.764911510777613e+00
 2.911408838705071e-01	 1.573288589470401e+00	 2.710843603602700e+01
 2.614628226835839e-01	 1.578492062815286e+00	 4.773652488956273e+00
 2.318711824509493e-01	 1.583109520773236e+00	-1.285681579760800e+01
 2.023814431802102e-01	 1.587148938023073e+00	-2.589090138998243e+01
 1.730085901309212e-01	 1.590618756254874e+00	-3.444793271408025e+01
 1.437671006481662e-01	 1.593527853781566e+00	-3.865771071322188e+01
 1.146709329216093e-01	 1.595885515050245e+00	-3.865957967168073e+01
 8.573351662972034e-02	 1.597701400177391e+00	-3.460149795734299e+01
 5.696774542111365e-02	 1.598985514625687e+00	-2.663911409919174e+01
 2.838597117793497e-02	 1.599748179133383e+00	-1.493485325199267e+01
 0.000000000000000e+00	 1.600000000000000e+00	 3.429812828342120e-01
 2.934154220259006e-01	 1.585579906574289e+00	 2.513783101291016e+01
 2.635055009857086e-01	 1.590824032054943e+00	 7.068798064216786e-01
 2.336826760635642e-01	 1.595477563903424e+00	-1.835137353758871e+01
 2.039625482046329e-01	 1.599548539100729e+00	-3.216498623527916e+01
 1.743602197408086e-01	 1.603045465287642e+00	-4.087492628737637e+01
 1.448902811214330e-01	 1.605977290138907e+00	-4.463400388106514e+01
 1.155667995845258e-01	 1.608353370636367e+00	-4.360579727385086e+01
 8.640330972791899e-02	 1.610183442366161e+00	-3.796357974956551e+01
 5.741280593185549e-02	 1.611477588958649e+00	-2.788925384150556e+01
 2.860773657755936e-02	 1.612246211782850e+00	-1.357229859369596e+01
 0.000000000000000e+00	 1.612500000000000e+00	 4.791264815045441e+00
 2.956899601812942e-01	 1.597871223677692e+00	 2.345270951838503e+01
 2.655481792878332e-01	 1.603156001294210e+00	-3.127854743353240e+00
 2.354941696761790e-01	 1.607845607033304e+00	-2.367691374183031e+01
 2.055436532290555e-01	 1.611948140178152e+00	-3.834237366336816e+01
 1.757118493506961e-01	 1.615472174320239e+00	-4.728655333297464e+01
 1.460134615946999e-01	 1.618426726496131e+00	-5.068497173063379e+01
 1.164626662474424e-01	 1.620821226222415e+00	-4.872513029654185e+01
 8.707310282611763e-02	 1.622665484554889e+00	-4.160529744526361e+01
 5.785786644259734e-02	 1.623969663291593e+00	-2.953330225660774e+01
 2.882950197718375e-02	 1.624744244432313e+00	-1.272534382686835e+01
 0.000000000000000e+00	 1.625000000000000e+00	 8.595177744598834e+00
 1.625000000000000e+00	 0.000000000000000e+00	 1.739049480025572e+02
 1.624744244432312e+00	 2.882950197718282e-02	 1.482461593085729e+02
 1.623969663291593e+00	 5.785786644259652e-02	 1.235885717819529e+02
 1.622665484554890e+00	 8.707310282611692e-02	 9.971303073595573e+01
 1.620821226222414e+00	 1.164626662474418e-01	 7.638821705713858e+01
 1.618426726496131e+00	 1.460134615946994e-01	 5.337097307475300e+01
 1.615472174320238e+00	 1.757118493506957e-01	 3.040670332669785e+01
 1.611948140178151e+00	 2.055436532290552e-01	 7.229852206546211e+00
 1.607845607033305e+00	 2.354941696761788e-01	-1.643553998213543e+01
 1.603156001294210e+00	 2.655481792878331e-01	-4.087520154335021e+01
 1.597871223677692e+00	 2.956899601812942e-01	-6.638391400766290e+01
 1.637500000000000e+00	 0.000000000000000e+00	 1.601865694166786e+02
 1.637242277081775e+00	 2.905126737680721e-02	 1.378308712588382e+02
 1.636461737624536e+00	 5.830292695333835e-02	 1.154694265359993e+02
 1.635147526743617e+00	 8.774289592431556e-02	 9.296081834616726e+01
 1.633289081808462e+00	 1.173585329103583e-01	 7.015769839192497e+01
 1.630876162853355e+00	 1.471366420679662e-01	 4.690708177976104e+01
 1.627898883352835e+00	 1.770634789605832e-01	 2.305068535295840e+01
 1.624347741255574e+00	 2.071247582534779e-01	-1.574689920079233e+00
 1.620213650163185e+00	 2.373056632887935e-01	-2.713673228376571e+01
 1.615487970533477e+00	 2.675908575899578e-01	-5.380714836865906e+01
 1.610162540781094e+00	 2.979644983366877e-01	-8.176114865867015e+01
 1.650000000000000e+00	 0.000000000000000e+00	 1.406720107410365e+02
 1.649740309731242e+00	 2.927303277643158e-02	 1.224020972835220e+02
 1.648953811957498e+00	 5.874798746408018e-02	 1.031377324639446e+02
 1.647629568932387e+00	 8.841268902251417e-02	 8.281440643772065e+01
 1.645756937394584e+00	 1.182543995732749e-01	 6.136784493653977e+01
 1.643325599210696e+00	 1.482598225412330e-01	 3.873427307359042e+01
 1.640325592385603e+00	 1.784151085704706e-01	 1.485069160578490e+01
 1.636747342333229e+00	 2.087058632779004e-01	-1.034483527386948e+01
 1.632581693293372e+00	 2.391171569014083e-01	-3.691288169076608e+01
 1.627819939773135e+00	 2.696335358920823e-01	-6.491235261802616e+01
 1.622453857884982e+00	 3.002390364920812e-01	-9.440016855870016e+01
 1.662500000000000e+00	 0.000000000000000e+00	 1.154919939634629e+02
 1.662238342380713e+00	 2.949479817605596e-02	 1.020729062668454e+02
 1.661445886290478e+00	 5.919304797482201e-02	 8.668849382730426e+01
 1.660111611121198e+00	 8.908248212071281e-02	 6.935034186576195e+01
 1.658224792980781e+00	 1.191502662361914e-01	 5.007637358167075e+01
 1.655775035568156e+00	 1.493830030144999e-01	 2.889108303840069e+01
 1.652752301418540e+00	 1.797667381803581e-01	 5.825749709036266e+00
 1.649146943411119e+00	 2.102869683023231e-01	-1.908136767940175e+01
 1.644949736423866e+00	 2.409286505140231e-01	-4.578486036330743e+01
 1.640151909013183e+00	 2.716762141942070e-01	-7.423202415736378e+01
 1.634745174989355e+00	 3.025135746474747e-01	-1.043627417553432e+02
 1.675000000000000e+00	 0.000000000000000e+00	 8.477333911762734e+01
 1.674736375030189e+00	 2.971656357568033e-02	 7.695299209819676e+01
 1.673937960623477e+00	 5.963810848556386e-02	 6.621387913572316e+01
 1.672593653310052e+00	 8.975227521891144e-02	 5.264288670089949e+01
 1.670692648567052e+00	 1.200461328991080e-01	 3.633927852143133e+01
 1.668224471925732e+00	 1.505061834877667e-01	 1.741489762020105e+01
 1.665179010451648e+00	 1.811183677902456e-01	-4.005680509050494e+00
 1.661546544489242e+00	 2.118680733267457e-01	-2.778504737233844e+01
 1.657317779554668e+00	 2.427401441266379e-01	-5.377291722328067e+01
 1.652483878253622e+00	 2.737188924963316e-01	-8.180614252149888e+01
 1.647036492094213e+00	 3.047881128028683e-01	-1.117087922913565e+02
 1.687500000000000e+00	 0.000000000000000e+00	 4.863910879985679e+01
 1.687234407679670e+00	 2.993832897530471e-02	 4.714879867183203e+01
 1.686430034956494e+00	 6.008316899630568e-02	 4.180332617460671e+01
 1.685075695498947e+00	 9.042206831711005e-02	 3.276410285053235e+01
 1.683160504153399e+00	 1.209419995620246e-01	 2.021089505651528e+01
 1.680673908283426e+00	 1.516293639610336e-01	 4.341995225964713e+00
 1.677605719484926e+00	 1.824699974001330e-01	-1.462568598700919e+01
 1.673946145567598e+00	 2.134491783511683e-01	-3.645661187379900e+01
 1.669685822685775e+00	 2.445516377392527e-01	-6.089670103799237e+01
 1.664815847494452e+00	 2.757615707984562e-01	-8.767350248287072e+01
 1.659327809199556e+00	 3.070626509582619e-01	-1.164964685020974e+02
 1.700000000000000e+00	 0.000000000000000e+00	 7.208746310214764e+00
 1.699732440329154e+00	 3.016009437492909e-02	 1.276363937188006e+01
 1.698922109289530e+00	 6.052822950704752e-02	 1.354364239918019e+01
 1.697557737687883e+00	 9.109186141530867e-02	 9.783932946887134e+00
 1.695628359739820e+00	 1.218378662249411e-01	 1.743960582506169e+00
 1.693123344641237e+00	 1.527525444343004e-01	-1.029241255854169e+01
 1.690032428518375e+00	 1.838216270100204e-01	-2.601688032903683e+01
 1.686345746646188e+00	 2.150302833755909e-01	-4.509677682615606e+01
 1.682053865817190e+00	 2.463631313518675e-01	-6.717528248545979e+01
 1.677147816735672e+00	 2.778042491005809e-01	-9.187175760984263e+01
 1.671619126305386e+00	 3.093371891136554e-01	-1.187822082998330e+02
 1.712500000000000e+00	 0.000000000000000e+00	-3.940179225639477e+01
 1.712230472978644e+00	 3.038185977455347e-02	-2.610218867556755e+01
 1.711414183622584e+00	 6.097329001778935e-02	-1.848089906827205e+01
 1.710039779876862e+00	 9.176165451350732e-02	-1.622972230748967e+01
 1.708096215326316e+00	 1.227337328878577e-01	-1.901032709283275e+01
 1.705572780999167e+00	 1.538757249075673e-01	-2.645414203418919e+01
 1.702459137551995e+00	 1.851732566199080e-01	-3.816238458422548e+01
 1.698745347725011e+00	 2.166113884000136e-01	-5.370623679222673e+01
 1.694421908948913e+00	 2.481746249644823e-01	-7.262717525334513e+01
 1.689479785977284e+00	 2.798469274027054e-01	-9.443746191735136e+01
 1.683910443411700e+00	 3.116117272690490e-01	-1.186208015988825e+02
 1.725000000000000e+00	 0.000000000000000e+00	-9.107991166221457e+01
 1.724728505628139e+00	 3.060362517417785e-02	-6.935129531785411e+01
 1.723906257955657e+00	 6.141835052853120e-02	-5.418846761496045e+01
 1.722521822065882e+00	 9.243144761170595e-02	-4.521093015708421e+01
 1.720564070912886e+00	 1.236295995507742e-01	-4.200225396780473e+01
 1.718022217357214e+00	 1.549989053808341e-01	-4.411000014672771e+01
 1.714885846585785e+00	 1.865248862297954e-01	-5.104580886147932e+01
 1.711144948804068e+00	 2.181924934244362e-01	-6.228566601971470e+01
 1.706789952080941e+00	 2.499861185770972e-01	-7.727035622053911e+01
 1.701811755219286e+00	 2.818896057048301e-01	-9.540610970665573e+01
 1.696201760518499e+00	 3.138862654244425e-01	-1.160654500266204e+02
 1.737499999999999e+00	 0.000000000000000e+00	-1.477162566324923e+02
 1.737226538277637e+00	 3.082539057380222e-02	-1.168890928084731e+02
 1.736398332288748e+00	 6.186341103927302e-02	-9.349958727774620e+01
 1.735003864254944e+00	 9.310124070990457e-02	-7.709565500426469e+01
 1.733031926499532e+00	 1.245254662136908e-01	-6.718353647286921e+01
 1.730471653715378e+00	 1.561220858541010e-01	-6.322774885258153e+01
 1.727312555619745e+00	 1.878765158396829e-01	-6.465123473803321e+01
 1.723544549883358e+00	 2.197735984488587e-01	-7.083571917265721e+01
 1.719157995213276e+00	 2.517976121897119e-01	-8.112228476760147e+01
 1.714143724461679e+00	 2.839322840069546e-01	-9.481217368538393e+01
 1.708493077625785e+00	 3.161608035798360e-01	-1.111678240570268e+02
 1.750000000000000e+00	 0.000000000000000e+00	-2.092045961425188e+02
 1.749724570927141e+00	 3.104715597342660e-02	-1.686236957212402e+02
 1.748890406621857e+00	 6.230847155001488e-02	-1.363370526487188e+02
 1.747485906444049e+00	 9.377103380810323e-02	-1.118216906539536e+02
 1.745499782086252e+00	 1.254213328766073e-01	-9.450727038418573e+01
 1.742921090073661e+00	 1.572452663273678e-01	-8.377607101182724e+01
 1.739739264653876e+00	 1.892281454495704e-01	-7.896319842188900e+01
 1.735944150962882e+00	 2.213547034732815e-01	-7.935703203152001e+01
 1.731526038345919e+00	 2.536091058023268e-01	-8.419992125960586e+01
 1.726475693704463e+00	 2.859749623090794e-01	-9.268914145386339e+01
 1.720784394733555e+00	 3.184353417352296e-01	-1.039781176956545e+02
 1.597871223677692e+00	 2.956899601812942e-01	-6.638391400766290e+01
 1.591983679838119e+00	 3.259033033559543e-01	-5.960430710976882e+01
 1.585486310625523e+00	 3.561715300634776e-01	-5.344052252832270e+01
 1.578372621830225e+00	 3.864775112013996e-01	-4.771489968999551e+01
 1.570636713267633e+00	 4.168036887336729e-01	-4.224265884841423e+01
 1.562273307054313e+00	 4.471320991271141e-01	-3.683239816162080e+01
 1.553277774923845e+00	 4.774443987833438e-01	-3.128664476145368e+01
 1.543646164429884e+00	 5.077218914329503e-01	-2.540245870361244e+01
 1.533375223883753e+00	 5.379455574460040e-01	-1.897208820690721e+01
 1.522462425874856e+00	 5.680960850001699e-01	-1.178367409979987e+01
 1.510905989224438e+00	 5.981539030346663e-01	-3.622000897066455e+00
 1.610162540781094e+00	 2.979644983366877e-01	-8.176114865867015e+01
 1.604229708142434e+00	 3.284102518436999e-01	-7.451961910901703e+01
 1.597682359166444e+00	 3.589113110645371e-01	-6.757370613614466e+01
 1.590513949687990e+00	 3.894504151344069e-01	-6.079967049199767e+01
 1.582718534136446e+00	 4.200098709554452e-01	-5.406921410395511e+01
 1.574290794029277e+00	 4.505715768134433e-01	-4.724984138275470e+01
 1.565226065498014e+00	 4.811170480054174e-01	-4.020525679696936e+01
 1.555520365692882e+00	 5.116274444444987e-01	-3.279579779075701e+01
 1.545170417912212e+00	 5.420836001959101e-01	-2.487890179105619e+01
 1.534173675303793e+00	 5.724660548848370e-01	-1.630960571441759e+01
 1.522528342987494e+00	 6.027550869038752e-01	-6.941076045939606e+00
 1.622453857884982e+00	 3.002390364920812e-01	-9.440016855870016e+01
 1.616475736447324e+00	 3.309172003314502e-01	-8.710622180117849e+01
 1.609878407708013e+00	 3.616510920656152e-01	-7.979317254810189e+01
 1.602655277546456e+00	 3.924233190674569e-01	-7.239059295485782e+01
 1.594800355005993e+00	 4.232160531772940e-01	-6.482602923291859e+01
 1.586308281004989e+00	 4.540110544998922e-01	-5.702522843073314e+01
 1.577174356072925e+00	 4.847896972276646e-01	-4.891238392176943e+01
 1.567394566956594e+00	 5.155329974562836e-01	-4.041039886307075e+01
 1.556965611941338e+00	 5.462216429461266e-01	-3.144116670553397e+01
 1.545884924733330e+00	 5.768360247698988e-01	-2.192586765418498e+01
 1.534150696751060e+00	 6.073562707735738e-01	-1.178527979517202e+01
 1.634745174989355e+00	 3.025135746474747e-01	-1.043627417553432e+02
 1.628721764752790e+00	 3.334241488192052e-01	-9.741664497346297e+01
 1.622074456250230e+00	 3.643908730667124e-01	-9.014208957885681e+01
 1.614796605405623e+00	 3.953962230005494e-01	-8.252136296770765e+01
 1.606882175876277e+00	 4.264222353992188e-01	-7.453723262451197e+01
 1.598325767981450e+00	 4.574505321864608e-01	-6.617303959041034e+01
 1.589122646648578e+00	 4.884623464500846e-01	-5.741279324149058e+01
 1.579268768221021e+00	 5.194385504683054e-01	-4.824126682578459e+01
 1.568760805971133e+00	 5.503596856966543e-01	-3.864409317262204e+01
 1.557596174163466e+00	 5.812059946553559e-01	-2.860785995680033e+01
 1.545773050515137e+00	 6.119574546437619e-01	-1.812020387326977e+01
 1.647036492094213e+00	 3.047881128028683e-01	-1.117087922913565e+02
 1.640967793058833e+00	 3.359310973069648e-01	-1.055018501809555e+02
 1.634270504793095e+00	 3.671306540678284e-01	-9.866233627695071e+01
 1.626937933265491e+00	 3.983691269336848e-01	-9.122467040211413e+01
 1.618963996747293e+00	 4.296284176212197e-01	-8.322623225225655e+01
 1.610343254958658e+00	 4.608900098731490e-01	-7.470732273926953e+01
 1.601070937224973e+00	 4.921349956726779e-01	-6.571110940556065e+01
 1.591142969486164e+00	 5.233441034805641e-01	-5.628355554269352e+01
 1.580556000001596e+00	 5.544977284474926e-01	-4.647333275783863e+01
 1.569307423594202e+00	 5.855759645412079e-01	-3.633171685085424e+01
 1.557395404279724e+00	 6.165586385144400e-01	-2.591246699153211e+01
 1.659327809199556e+00	 3.070626509582619e-01	-1.164964685020974e+02
 1.653213821365451e+00	 3.384380457947292e-01	-1.114112888303200e+02
 1.646466553336608e+00	 3.698704350689632e-01	-1.053945506579816e+02
 1.639079261126060e+00	 4.013420308668626e-01	-9.853223637315169e+01
 1.631045817619043e+00	 4.328345998432970e-01	-9.091574235726836e+01
 1.622360741936615e+00	 4.643294875599568e-01	-8.264170936378066e+01
 1.613019227802109e+00	 4.958076448954443e-01	-7.381181988466959e+01
 1.603017170752021e+00	 5.272496564930599e-01	-6.453256232052793e+01
 1.592351194032726e+00	 5.586357711986414e-01	-5.491496202528003e+01
 1.581018673025537e+00	 5.899459344274548e-01	-4.507427956498957e+01
 1.569017758044822e+00	 6.211598223856076e-01	-3.512967680908771e+01
 1.671619126305386e+00	 3.093371891136554e-01	-1.187822082998330e+02
 1.665459849672645e+00	 3.409449942824981e-01	-1.151929577009824e+02
 1.658662601880769e+00	 3.726102160701169e-01	-1.103781753319045e+02
 1.651220588987329e+00	 4.043149348000832e-01	-1.044748488565996e+02
 1.643127638491529e+00	 4.360407820654503e-01	-9.762780895433369e+01
 1.634378228915319e+00	 4.677689652468843e-01	-8.998942986915164e+01
 1.624967518379987e+00	 4.994802941183839e-01	-8.171928001540846e+01
 1.614891372018594e+00	 5.311552095057921e-01	-7.298372263665743e+01
 1.604146388064525e+00	 5.627738139501012e-01	-6.395546691404795e+01
 1.592729922457472e+00	 5.943159043140966e-01	-5.481307033665351e+01
 1.580640111810430e+00	 6.257610062572652e-01	-4.574039357594144e+01
 1.683910443411700e+00	 3.116117272690490e-01	-1.186208015988825e+02
 1.677705877980416e+00	 3.434519427702719e-01	-1.168934520347302e+02
 1.670858650425578e+00	 3.753499970712894e-01	-1.136515011320541e+02
 1.663361916849300e+00	 4.072878387333462e-01	-1.090823967462629e+02
 1.655209459364748e+00	 4.392469642876800e-01	-1.033838342209278e+02
 1.646395715894772e+00	 4.712084429339317e-01	-9.676332821857721e+01
 1.636915808958608e+00	 5.031529433414967e-01	-8.943771782397206e+01
 1.626765573285881e+00	 5.350607625187611e-01	-8.163260509769640e+01
 1.615941582096990e+00	 5.669118567018717e-01	-7.358172779891741e+01
 1.604441171890006e+00	 5.986858742011337e-01	-6.552626755915004e+01
 1.592262465576548e+00	 6.303621901294124e-01	-5.771409536829076e+01
 1.696201760518499e+00	 3.138862654244425e-01	-1.160654500266204e+02
 1.689951906288762e+00	 3.459588912580502e-01	-1.165580163170660e+02
 1.683054698971034e+00	 3.780897780724807e-01	-1.152517088472531e+02
 1.675503244711972e+00	 4.102607426666521e-01	-1.123839024305360e+02
 1.667291280238703e+00	 4.424531465099858e-01	-1.082045998258398e+02
 1.658413202874972e+00	 4.746479206210985e-01	-1.029758759359957e+02
 1.648864099537969e+00	 5.068255925647827e-01	-9.697123864013365e+01
 1.638639774553884e+00	 5.389663155319671e-01	-9.047490661729573e+01
 1.627736776130124e+00	 5.710498994539528e-01	-8.378100520053638e+01
 1.616152421323140e+00	 6.030558440885657e-01	-7.719268200925025e+01
 1.603884819343176e+00	 6.349633740020493e-01	-7.102114483534946e+01
 1.708493077625785e+00	 3.161608035798360e-01	-1.111678240570268e+02
 1.702197934597685e+00	 3.484658397458333e-01	-1.142305928665582e+02
 1.695250747517139e+00	 3.808295590736910e-01	-1.152149091525298e+02
 1.687644572575343e+00	 4.132336466000003e-01	-1.144075529627829e+02
 1.679373101113391e+00	 4.456593287323678e-01	-1.121102892508029e+02
 1.670430689855921e+00	 4.780873983083849e-01	-1.086391855044082e+02
 1.660812390118072e+00	 5.104982417882418e-01	-1.043238295120510e+02
 1.650513975822603e+00	 5.428718685454100e-01	-9.950644780208739e+01
 1.639531970163926e+00	 5.751879422063448e-01	-9.454092611244964e+01
 1.627863670756874e+00	 6.074258139763927e-01	-8.979173410094727e+01
 1.615507173110314e+00	 6.395645578751757e-01	-8.563275738155346e+01
 1.720784394733555e+00	 3.184353417352296e-01	-1.039781176956545e+02
 1.714443962907183e+00	 3.509727882336210e-01	-1.099538683417906e+02
 1.707446796063893e+00	 3.835693400749201e-01	-1.135761808285209e+02
 1.699785900439417e+00	 4.162065505333916e-01	-1.151807298958426e+02
 1.691454921988814e+00	 4.488655109548259e-01	-1.151205091554835e+02
 1.682448176837619e+00	 4.815268759957912e-01	-1.137650231899838e+02
 1.672760680698918e+00	 5.141708910118742e-01	-1.114993634318666e+02
 1.662388177092036e+00	 5.467774215590895e-01	-1.087231685353688e+02
 1.651327164198396e+00	 5.793259849590476e-01	-1.058494709141054e+02
 1.639574920191208e+00	 6.117957838646149e-01	-1.033034321140459e+02
 1.627129526877964e+00	 6.441657417487923e-01	-1.015209707123854e+02
 1.510905989224438e+00	 5.981539030346663e-01	-3.622000897066455e+00
 1.498704899226502e+00	 6.280992159053116e-01	-5.712870327160330e+00
 1.485858926034374e+00	 6.579120396427700e-01	-7.546192028140536e+00
 1.472368641057263e+00	 6.875722397034166e-01	-9.244498963606052e+00
 1.458235431238258e+00	 7.170595700900936e-01	-1.093312089025770e+01
 1.443461511093458e+00	 7.463537137077204e-01	-1.273971957963738e+01
 1.428049932401566e+00	 7.754343238075454e-01	-1.479379962826378e+01
 1.412004591443889e+00	 8.042810663631879e-01	-1.722619741100975e+01
 1.395330233706523e+00	 8.328736632118814e-01	-2.016855099387024e+01
 1.378032455969274e+00	 8.611919357855460e-01	-2.375275406367654e+01
 1.360117705719598e+00	 8.892158492486488e-01	-2.811039715013878e+01
 1.522528342987494e+00	 6.027550869038752e-01	-6.941076045939606e+00
 1.510233398451768e+00	 6.329307483347351e-01	-9.791809079550216e+00
 1.497288610081763e+00	 6.629729014853188e-01	-1.247741003472598e+01
 1.483694553682143e+00	 6.928612569308974e-01	-1.507431984890600e+01
 1.469452626864788e+00	 7.225754129358748e-01	-1.766067482844448e+01
 1.454565061180536e+00	 7.520948961198251e-01	-2.031601311920291e+01
 1.439034931883308e+00	 7.813992032205446e-01	-2.312096617510942e+01
 1.422866165225804e+00	 8.104678437960667e-01	-2.615693685330510e+01
 1.406063543197860e+00	 8.392803836977581e-01	-2.950576592634860e+01
 1.388632705631432e+00	 8.678164891377840e-01	-3.324938895097539e+01
 1.370580149610033e+00	 8.960559711664935e-01	-3.746948556681877e+01
 1.534150696751060e+00	 6.073562707735738e-01	-1.178527979517202e+01
 1.521761897677453e+00	 6.377622807647338e-01	-1.509903158186460e+01
 1.508718294129500e+00	 6.680337633284998e-01	-1.833843317192141e+01
 1.495020466307320e+00	 6.981502741590380e-01	-2.153436009345756e+01
 1.480669822491582e+00	 7.280912557823142e-01	-2.471829380522868e+01
 1.465668611267865e+00	 7.578360785325557e-01	-2.792219779440828e+01
 1.450019931365309e+00	 7.873640826341082e-01	-3.117838799291101e+01
 1.433727739008006e+00	 8.166546212294172e-01	-3.451939822280245e+01
 1.416796852689532e+00	 8.456871041839829e-01	-3.797784144461847e+01
 1.399232955293995e+00	 8.744410424902175e-01	-4.158626763988651e+01
 1.381042593500962e+00	 9.028960930843489e-01	-4.537701920989107e+01
 1.545773050515137e+00	 6.119574546437619e-01	-1.812020387326977e+01
 1.533290396903557e+00	 6.425938131953080e-01	-2.160682453641385e+01
 1.520147978177585e+00	 6.730946251723129e-01	-2.510828002237036e+01
 1.506346378932792e+00	 7.034392913878383e-01	-2.861039518789162e+01
 1.491887018118640e+00	 7.336070986294112e-01	-3.209852309745821e+01
 1.476772161355447e+00	 7.635772609459125e-01	-3.555758916315479e+01
 1.461004930847569e+00	 7.933289620482357e-01	-3.897213883668761e+01
 1.444589312790497e+00	 8.228413986632396e-01	-4.232638865396643e+01
 1.427530162181541e+00	 8.520938246705574e-01	-4.560428039825162e+01
 1.409833204956963e+00	 8.810655958428456e-01	-4.878953811458840e+01
 1.391505037392386e+00	 9.097362150022149e-01	-5.186572767657390e+01
 1.557395404279724e+00	 6.165586385144400e-01	-2.591246699153211e+01
 1.544818896130082e+00	 6.474253456264577e-01	-2.928830178512484e+01
 1.531577662226018e+00	 6.781554870167580e-01	-3.276659536365150e+01
 1.517672291558561e+00	 7.087283086172986e-01	-3.628862512615905e+01
 1.503104213745963e+00	 7.391229414771657e-01	-3.979413040939961e+01
 1.487875711443280e+00	 7.693184433598950e-01	-4.322152312020719e+01
 1.471989930330090e+00	 7.992938414629270e-01	-4.650811106857733e+01
 1.455450886573275e+00	 8.290281760975334e-01	-4.959033289953821e+01
 1.438263471673887e+00	 8.585005451574800e-01	-5.240400339061802e+01
 1.420433454620336e+00	 8.876901491956692e-01	-5.488456775848030e+01
 1.401967481284305e+00	 9.165763369200914e-01	-5.696736350491216e+01
 1.569017758044822e+00	 6.211598223856076e-01	-3.512967680908771e+01
 1.556347395357026e+00	 6.522568780581823e-01	-3.811737367619114e+01
 1.543007346274800e+00	 6.832163488618352e-01	-4.129362697733212e+01
 1.528998204184627e+00	 7.140173258474188e-01	-4.455565868464620e+01
 1.514321409373551e+00	 7.446387843255788e-01	-4.779809763614265e+01
 1.498979261531365e+00	 7.750596257745035e-01	-5.091335514542423e+01
 1.482974929812870e+00	 8.052587208781824e-01	-5.379202237752542e+01
 1.466312460356341e+00	 8.352149535322990e-01	-5.632328749423449e+01
 1.448996781166568e+00	 8.649072656447517e-01	-5.839537034494752e+01
 1.431033704284114e+00	 8.943147025486877e-01	-5.989597226668059e+01
 1.412429925176719e+00	 9.234164588379790e-01	-6.071273836247835e+01
 1.580640111810430e+00	 6.257610062572652e-01	-4.574039357594144e+01
 1.567875894584390e+00	 6.570884104904827e-01	-4.806871778218973e+01
 1.554437030323932e+00	 6.882772107075451e-01	-5.067020348114750e+01
 1.540324116810989e+00	 7.193063430781983e-01	-5.339849839485437e+01
 1.525538605001402e+00	 7.501546271746492e-01	-5.610361299037965e+01
 1.510082811619702e+00	 7.808008081897383e-01	-5.863245958515155e+01
 1.493959929295910e+00	 8.112236002940020e-01	-6.082942220251081e+01
 1.477174034139694e+00	 8.414017309675366e-01	-6.253695429357294e+01
 1.459730090659585e+00	 8.713139861323719e-01	-6.359620111894380e+01
 1.441633953948298e+00	 9.009392559019015e-01	-6.384764328296867e+01
 1.422892369069628e+00	 9.302565807558768e-01	-6.313175763850730e+01
 1.592262465576548e+00	 6.303621901294124e-01	-5.771409536829076e+01
 1.579404393812174e+00	 6.619199429233585e-01	-5.911775090061294e+01
 1.565866714373410e+00	 6.933380725538867e-01	-6.087771313202999e+01
 1.551650029437647e+00	 7.245953603096378e-01	-6.280452617420611e+01
 1.536755800629518e+00	 7.556704700243774e-01	-6.470406347399266e+01
 1.521186361708292e+00	 7.865419906055987e-01	-6.637822896508072e+01
 1.504944928779209e+00	 8.171884797103856e-01	-6.762569787445811e+01
 1.488035607923336e+00	 8.475885084032455e-01	-6.824269341975187e+01
 1.470463400152938e+00	 8.777207066203410e-01	-6.802379521656275e+01
 1.452234203612885e+00	 9.075638092553103e-01	-6.676277482634461e+01
 1.433354812963030e+00	 9.370967026737852e-01	-6.425345352104262e+01
 1.603884819343176e+00	 6.349633740020493e-01	-7.102114483534946e+01
 1.590932893040378e+00	 6.667514753568098e-01	-7.124060227176464e+01
 1.577296398423238e+00	 6.983989344008606e-01	-7.189808355074041e+01
 1.562975942064603e+00	 7.298843775417372e-01	-7.276148958159516e+01
 1.547972996257898e+00	 7.611863128747637e-01	-7.359302767695931e+01
 1.532289911797133e+00	 7.922831730220851e-01	-7.415007333298078e+01
 1.515929928262769e+00	 8.231533591273329e-01	-7.418608049110713e+01
 1.498897181707264e+00	 8.537752858394262e-01	-7.345153564465956e+01
 1.481196709646628e+00	 8.841274271086590e-01	-7.169495064275281e+01
 1.462834453277879e+00	 9.141883626089145e-01	-6.866388856860361e+01
 1.443817256856928e+00	 9.439368245917042e-01	-6.410601663594151e+01
 1.615507173110314e+00	 6.395645578751757e-01	-8.563275738155346e+01
 1.602461392269001e+00	 6.715830077908362e-01	-8.441408795271373e+01
 1.588726082473415e+00	 7.034597962484670e-01	-8.371376232169338e+01
 1.574301854691855e+00	 7.351733947744963e-01	-8.325748866621646e+01
 1.559190191886543e+00	 7.667021557258078e-01	-8.276426888709253e+01
 1.543393461886226e+00	 7.980243554391976e-01	-8.194741962979509e+01
 1.526914927746587e+00	 8.291182385448446e-01	-8.051565053828405e+01
 1.509758755491481e+00	 8.599620632760784e-01	-7.817419423836262e+01
 1.491930019140653e+00	 8.905341475973255e-01	-7.462598194431719e+01
 1.473434702943277e+00	 9.208129159627136e-01	-6.957285802078715e+01
 1.454279700751320e+00	 9.507769465096340e-01	-6.271682632016179e+01
 1.627129526877964e+00	 6.441657417487923e-01	-1.015209707123854e+02
 1.613989891498045e+00	 6.764145402254381e-01	-9.861568628950431e+01
 1.600155766523939e+00	 7.085206580967053e-01	-9.630769842421179e+01
 1.585627767319404e+00	 7.404624120079153e-01	-9.428096338001654e+01
 1.570407387515452e+00	 7.722179985775097e-01	-9.221172849507272e+01
 1.554497011975571e+00	 8.037655378569363e-01	-8.976971108768937e+01
 1.537899927230667e+00	 8.350831179629202e-01	-8.661934327025836e+01
 1.520620329275986e+00	 8.661488407132029e-01	-8.242107630979569e+01
 1.502663328635016e+00	 8.969408680863412e-01	-7.683273747759054e+01
 1.484034952609081e+00	 9.274374693167079e-01	-6.951093168306714e+01
 1.464742144646208e+00	 9.576170684275745e-01	-6.011247959761801e+01
 1.360117705719598e+00	 8.892158492486488e-01	-2.811039715013878e+01
 1.341593277844827e+00	 9.169255568526578e-01	-2.668001308783591e+01
 1.322467308569620e+00	 9.443014443144191e-01	-2.500173146035086e+01
 1.302748766623323e+00	 9.713241740187775e-01	-2.295618924532732e+01
 1.282447441638377e+00	 9.979747288431313e-01	-2.042448400700000e+01
 1.261573929795459e+00	 1.024234455404330e+00	-1.728869296173164e+01
 1.240139616749326e+00	 1.050085106526311e+00	-1.343239249587848e+01
 1.218156657885667e+00	 1.075508882729801e+00	-8.741174618057844e+00
 1.195637955975838e+00	 1.100488472549222e+00	-3.103156811405582e+00
 1.172597136312511e+00	 1.125007091487334e+00	 3.590518228788296e+00
 1.149048519425000e+00	 1.149048519425000e+00	 1.144519643040469e+01
 1.370580149610033e+00	 8.960559711664935e-01	-3.746948556681877e+01
 1.351913226135645e+00	 9.239788303679526e-01	-3.454082950982998e+01
 1.332640134019405e+00	 9.515653015797990e-01	-3.144896776992277e+01
 1.312769910980884e+00	 9.787958984359916e-01	-2.811955051714041e+01
 1.292312421957389e+00	 1.005651457528369e+00	-2.447851495107269e+01
 1.271278344638683e+00	 1.032113181986217e+00	-2.045241162892956e+01
 1.249679152261479e+00	 1.058162684270582e+00	-1.596873115091535e+01
 1.227527093714434e+00	 1.083782027983117e+00	-1.095622898422578e+01
 1.204835171020993e+00	 1.108953768493124e+00	-5.345246195729638e+00
 1.181617114283771e+00	 1.133660992191846e+00	 9.319761249459786e-01
 1.157887354190000e+00	 1.157887354190000e+00	 7.940990935488334e+00
 1.381042593500962e+00	 9.028960930843489e-01	-4.537701920989107e+01
 1.362233174427042e+00	 9.310321038830772e-01	-4.121672957499766e+01
 1.342812959469824e+00	 9.588291588448681e-01	-3.697609147767356e+01
 1.322791055339106e+00	 9.862676228527927e-01	-3.262525241516301e+01
 1.302177402277060e+00	 1.013328186213132e+00	-2.813447526294332e+01
 1.280982759482529e+00	 1.039991908567609e+00	-2.347427371572333e+01
 1.259218687774190e+00	 1.066240262014375e+00	-1.861554799175649e+01
 1.236897529543666e+00	 1.092055173236013e+00	-1.352971986938858e+01
 1.214032386066488e+00	 1.117419064436706e+00	-8.188866118665384e+00
 1.190637092255217e+00	 1.142314892896179e+00	-2.565849394417325e+00
 1.166726188955000e+00	 1.166726188955000e+00	 3.365554329423473e+00
 1.391505037392386e+00	 9.097362150022149e-01	-5.186572767657390e+01
 1.372553122719020e+00	 9.380853773980324e-01	-4.673442821576853e+01
 1.352985784920880e+00	 9.660930161096258e-01	-4.160384427811596e+01
 1.332812199697990e+00	 9.937393472691818e-01	-3.648811645693835e+01
 1.312042382597387e+00	 1.021004914897422e+00	-3.140133093509398e+01
 1.290687174326999e+00	 1.047870635148505e+00	-2.635746584756007e+01
 1.268758223287460e+00	 1.074317839757692e+00	-2.137033781436785e+01
 1.246267965373361e+00	 1.100328318488492e+00	-1.645354898900832e+01
 1.223229601112323e+00	 1.125884360379969e+00	-1.162043496646282e+01
 1.199657070226847e+00	 1.150968793600331e+00	-6.884013890593959e+00
 1.175565023720000e+00	 1.175565023720000e+00	-2.256937092777361e+00
 1.401967481284305e+00	 9.165763369200914e-01	-5.696736350491216e+01
 1.382873071011578e+00	 9.451386509128173e-01	-5.111984285533958e+01
 1.363158610372572e+00	 9.733568733740730e-01	-4.535234866982757e+01
 1.342833344057535e+00	 1.001211071685158e+00	-3.972252169342487e+01
 1.321907362918373e+00	 1.028681643581236e+00	-3.428778029280858e+01
 1.300391589172092e+00	 1.055749361728905e+00	-2.910507950863160e+01
 1.278297758801289e+00	 1.082395417500530e+00	-2.423067018625492e+01
 1.255638401203523e+00	 1.108601463740551e+00	-1.971985979504965e+01
 1.232426816158497e+00	 1.134349656322913e+00	-1.562677655056397e+01
 1.208677048198662e+00	 1.159622694304304e+00	-1.200413844148894e+01
 1.184403858485000e+00	 1.184403858485000e+00	-8.903028734481460e+00
 1.412429925176719e+00	 9.234164588379790e-01	-6.071273836247835e+01
 1.393193019304716e+00	 9.521919244274326e-01	-5.439812294633799e+01
 1.373331435824899e+00	 9.806207306382088e-01	-4.824113088987259e+01
 1.352854488417742e+00	 1.008682796100722e+00	-4.234242109783754e+01
 1.331772343240015e+00	 1.036358372264577e+00	-3.680226390891242e+01
 1.310096004017809e+00	 1.063628088308809e+00	-3.172011456670873e+01
 1.287837294315678e+00	 1.090472995242892e+00	-2.719418667817280e+01
 1.265008837034148e+00	 1.116874608992193e+00	-2.332102852374247e+01
 1.241624031205012e+00	 1.142814952265537e+00	-2.019510509276029e+01
 1.217697026170662e+00	 1.168276595008097e+00	-1.790838869740045e+01
 1.193242693250000e+00	 1.193242693250000e+00	-1.654996096864174e+01
 1.422892369069628e+00	 9.302565807558768e-01	-6.313175763850730e+01
 1.403512967598433e+00	 9.592451979418776e-01	-5.659367820630214e+01
 1.383504261277862e+00	 9.878845879020337e-01	-5.028914283640572e+01
 1.362875632778610e+00	 1.016154520515873e+00	-4.436135723144838e+01
 1.341637323562315e+00	 1.044035100947443e+00	-3.895297408109130e+01
 1.319800418864149e+00	 1.071506814888217e+00	-3.420548264246420e+01
 1.297376829830625e+00	 1.098550572984775e+00	-3.025859821796319e+01
 1.274379272865238e+00	 1.125147754243415e+00	-2.724965563829272e+01
 1.250821246251867e+00	 1.151280248207841e+00	-2.531301087276542e+01
 1.226717004142848e+00	 1.176930495711709e+00	-2.457945486080802e+01
 1.202081528015000e+00	 1.202081528015000e+00	-2.517564358821121e+01
 1.433354812963030e+00	 9.370967026737852e-01	-6.425345352104262e+01
 1.413832915892732e+00	 9.662984714561537e-01	-5.773020561656702e+01
 1.393677086731460e+00	 9.951484451655477e-01	-5.151478303115734e+01
 1.372896777140140e+00	 1.023626244930612e+00	-4.579247722328832e+01
 1.351502303885272e+00	 1.051711829629835e+00	-4.074786389414158e+01
 1.329504833711112e+00	 1.079385541467129e+00	-3.656401033122931e+01
 1.306916365346132e+00	 1.106628150726181e+00	-3.342168256027744e+01
 1.283749708696792e+00	 1.133420899494219e+00	-3.149855764636099e+01
 1.260018461299061e+00	 1.159745544149826e+00	-3.096844650435720e+01
 1.235736982115218e+00	 1.185584396415142e+00	-3.200053254295320e+01
 1.210920362780000e+00	 1.210920362780000e+00	-3.475863137551347e+01
 1.443817256856928e+00	 9.439368245917042e-01	-6.410601663594151e+01
 1.424152864187609e+00	 9.733517449702592e-01	-5.783071524728095e+01
 1.403849912185693e+00	 1.002412302428751e+00	-5.193591667050185e+01
 1.382917921502332e+00	 1.031097969344938e+00	-4.664854709855296e+01
 1.361367284208887e+00	 1.059388558311753e+00	-4.219465588820420e+01
 1.339209248558698e+00	 1.087264268045545e+00	-3.879844228466996e+01
 1.316455900862197e+00	 1.114705728467110e+00	-3.668128186630701e+01
 1.293120144528811e+00	 1.141694044744604e+00	-3.606075927329839e+01
 1.269215676346595e+00	 1.168210840091492e+00	-3.714971380820558e+01
 1.244756960087773e+00	 1.194238297118396e+00	-4.015530445273992e+01
 1.219759197545000e+00	 1.219759197545000e+00	-4.527810073381108e+01
 1.454279700751320e+00	 9.507769465096340e-01	-6.271682632016179e+01
 1.434472812483067e+00	 9.804050184841950e-01	-5.691755496766861e+01
 1.414022737640563e+00	 1.009676159691643e+00	-5.156989481100725e+01
 1.392939065865185e+00	 1.038569693758851e+00	-4.694196548851201e+01
 1.371232264533160e+00	 1.067065286993196e+00	-4.330085035282669e+01
 1.348913663406908e+00	 1.095142994623464e+00	-4.091144415943612e+01
 1.325995436378822e+00	 1.122783306207561e+00	-4.003530038798207e+01
 1.302490580361295e+00	 1.149967189994570e+00	-4.092948597322501e+01
 1.278412891394469e+00	 1.176676136032838e+00	-4.384545125133723e+01
 1.253776938060513e+00	 1.202892197821469e+00	-4.902792287603806e+01
 1.228598032310000e+00	 1.228598032310000e+00	-5.671382732758002e+01
 1.464742144646208e+00	 9.576170684275745e-01	-6.011247959761801e+01
 1.444792760779105e+00	 9.874582919979614e-01	-5.501243409727688e+01
 1.424195563096069e+00	 1.016940016954224e+00	-5.043357273274221e+01
 1.402960210228699e+00	 1.046041418172352e+00	-4.668477675284593e+01
 1.381097244858090e+00	 1.074742015674165e+00	-4.407373326556038e+01
 1.358618078255741e+00	 1.103021721200889e+00	-4.290560543943677e+01
 1.335534971896006e+00	 1.130860883947535e+00	-4.348170225141467e+01
 1.311861016194242e+00	 1.158240335244118e+00	-4.609815676105754e+01
 1.287610106442683e+00	 1.185141431973866e+00	-5.104462192490507e+01
 1.262796916033438e+00	 1.211546098524362e+00	-5.860299290587079e+01
 1.237436867075000e+00	 1.237436867075000e+00	-6.904616468105479e+01
 1.149048519425000e+00	 1.149048519425000e+00	 1.144519643040469e+01
 1.125007091487334e+00	 1.172597136312511e+00	 1.646801454065571e+01
 1.100488472549222e+00	 1.195637955975838e+00	 2.104934607250834e+01
 1.075508882729801e+00	 1.218156657885667e+00	 2.508126553762064e+01
 1.050085106526311e+00	 1.240139616749326e+00	 2.845853039154396e+01
 1.024234455404330e+00	 1.261573929795459e+00	 3.107901447133979e+01
 9.979747288431317e-01	 1.282447441638376e+00	 3.284412254232720e+01
 9.713241740187781e-01	 1.302748766623323e+00	 3.365918330487277e+01
 9.443014443144199e-01	 1.322467308569620e+00	 3.343381841297615e+01
 9.169255568526588e-01	 1.341593277844826e+00	 3.208228528015802e+01
 8.892158492486486e-01	 1.360117705719598e+00	 2.952379169181036e+01
 1.157887354190000e+00	 1.157887354190000e+00	 7.940990935488334e+00
 1.133660992191846e+00	 1.181617114283772e+00	 1.106487130484403e+01
 1.108953768493124e+00	 1.204835171020993e+00	 1.414868752809571e+01
 1.083782027983116e+00	 1.227527093714434e+00	 1.713074937517934e+01
 1.058162684270582e+00	 1.249679152261479e+00	 1.995015773310036e+01
 1.032113181986218e+00	 1.271278344638683e+00	 2.254705669208744e+01
 1.005651457528369e+00	 1.292312421957389e+00	 2.486287868452989e+01
 9.787958984359921e-01	 1.312769910980883e+00	 2.684058108875096e+01
 9.515653015798000e-01	 1.332640134019404e+00	 2.842487279370166e+01
 9.239788303679534e-01	 1.351913226135644e+00	 2.956242931910288e+01
 8.960559711664935e-01	 1.370580149610033e+00	 3.020209519707880e+01
 1.166726188955000e+00	 1.166726188955000e+00	 3.365554329423473e+00
 1.142314892896179e+00	 1.190637092255217e+00	 4.870125930313676e+00
 1.117419064436706e+00	 1.214032386066488e+00	 6.729332352307923e+00
 1.092055173236014e+00	 1.236897529543666e+00	 8.927199106756749e+00
 1.066240262014376e+00	 1.259218687774190e+00	 1.144667063353695e+01
 1.039991908567610e+00	 1.280982759482529e+00	 1.426968275550257e+01
 1.013328186213133e+00	 1.302177402277059e+00	 1.737724001916695e+01
 9.862676228527935e-01	 1.322791055339106e+00	 2.074949738537505e+01
 9.588291588448689e-01	 1.342812959469824e+00	 2.436584570195968e+01
 9.310321038830781e-01	 1.362233174427042e+00	 2.820500036462407e+01
 9.028960930843491e-01	 1.381042593500963e+00	 3.224509255280265e+01
 1.175565023720000e+00	 1.175565023720000e+00	-2.256937092777361e+00
 1.150968793600331e+00	 1.199657070226847e+00	-2.098352776935541e+00
 1.125884360379969e+00	 1.223229601112323e+00	-1.197006500146307e+00
 1.100328318488492e+00	 1.246267965373361e+00	 4.763351946402210e-01
 1.074317839757692e+00	 1.268758223287460e+00	 2.947971699773683e+00
 1.047870635148505e+00	 1.290687174326999e+00	 6.241162846610347e+00
 1.021004914897422e+00	 1.312042382597387e+00	 1.037604002117531e+01
 9.937393472691824e-01	 1.332812199697989e+00	 1.536953439802797e+01
 9.660930161096266e-01	 1.352985784920880e+00	 2.123532265200967e+01
 9.380853773980332e-01	 1.372553122719020e+00	 2.798379035867043e+01
 9.097362150022150e-01	 1.391505037392387e+00	 3.562201314482170e+01
 1.184403858485000e+00	 1.184403858485000e+00	-8.903028734481460e+00
 1.159622694304304e+00	 1.208677048198662e+00	-9.823229432872312e+00
 1.134349656322913e+00	 1.232426816158497e+00	-9.618965746448579e+00
 1.108601463740551e+00	 1.255638401203522e+00	-8.216292696904533e+00
 1.082395417500531e+00	 1.278297758801290e+00	-5.546033598282173e+00
 1.055749361728906e+00	 1.300391589172092e+00	-1.544061860701119e+00
 1.028681643581237e+00	 1.321907362918372e+00	 3.848445438290399e+00
 1.001211071685159e+00	 1.342833344057535e+00	 1.068478375444909e+01
 9.733568733740733e-01	 1.363158610372571e+00	 1.901252832899101e+01
 9.451386509128182e-01	 1.382873071011578e+00	 2.887337350052002e+01
 9.165763369200917e-01	 1.401967481284305e+00	 4.030300480698134e+01
 1.193242693250000e+00	 1.193242693250000e+00	-1.654996096864174e+01
 1.168276595008097e+00	 1.217697026170663e+00	-1.828768231977162e+01
 1.142814952265537e+00	 1.241624031205012e+00	-1.852551882549961e+01
 1.116874608992193e+00	 1.265008837034148e+00	-1.714529937635012e+01
 1.090472995242892e+00	 1.287837294315678e+00	-1.403543703427414e+01
 1.063628088308809e+00	 1.310096004017808e+00	-9.091385537032975e+00
 1.036358372264577e+00	 1.331772343240015e+00	-2.216056052753770e+00
 1.008682796100723e+00	 1.352854488417742e+00	 6.679808379705193e+00
 9.806207306382095e-01	 1.373331435824898e+00	 1.767730291569740e+01
 9.521919244274334e-01	 1.393193019304715e+00	 3.084907727412110e+01
 9.234164588379790e-01	 1.412429925176719e+00	 4.625909980443474e+01
 1.202081528015000e+00	 1.202081528015000e+00	-2.517564358821121e+01
 1.176930495711710e+00	 1.226717004142848e+00	-2.747538450212432e+01
 1.151280248207841e+00	 1.250821246251867e+00	-2.790596351907553e+01
 1.125147754243415e+00	 1.274379272865238e+00	-2.630545807867968e+01
 1.098550572984775e+00	 1.297376829830625e+00	-2.252032772723023e+01
 1.071506814888217e+00	 1.319800418864148e+00	-1.640604375141465e+01
 1.044035100947444e+00	 1.341637323562315e+00	-7.827667645444302e+00
 1.016154520515874e+00	 1.362875632778610e+00	 3.339625168790813e+00
 9.878845879020346e-01	 1.383504261277861e+00	 1.721007946375883e+01
 9.592451979418788e-01	 1.403512967598433e+00	 3.388695475363787e+01
 9.302565807558767e-01	 1.422892369069627e+00	 5.346218231768485e+01
 1.210920362780000e+00	 1.210920362780000e+00	-3.475863137551347e+01
 1.185584396415142e+00	 1.235736982115218e+00	-3.737048576958249e+01
 1.159745544149826e+00	 1.260018461299061e+00	-3.774991011512067e+01
 1.133420899494219e+00	 1.283749708696792e+00	-3.569169468395314e+01
 1.106628150726181e+00	 1.306916365346132e+00	-3.100079223893675e+01
 1.079385541467129e+00	 1.329504833711111e+00	-2.349311926010380e+01
 1.051711829629836e+00	 1.351502303885272e+00	-1.299629468595347e+01
 1.023626244930612e+00	 1.372896777140139e+00	 6.496884180923810e-01
 9.951484451655483e-01	 1.393677086731459e+00	 1.759186225586742e+01
 9.662984714561544e-01	 1.413832915892731e+00	 3.796375812189525e+01
 9.370967026737852e-01	 1.433354812963030e+00	 6.188495735068136e+01
 1.219759197545000e+00	 1.219759197545000e+00	-4.527810073381108e+01
 1.194238297118396e+00	 1.244756960087773e+00	-4.795759536499185e+01
 1.168210840091492e+00	 1.269215676346595e+00	-4.804727008567681e+01
 1.141694044744604e+00	 1.293120144528811e+00	-4.529908218723874e+01
 1.114705728467110e+00	 1.316455900862197e+00	-3.947691466707460e+01
 1.087264268045545e+00	 1.339209248558698e+00	-3.035754754369732e+01
 1.059388558311753e+00	 1.361367284208887e+00	-1.773155546505865e+01
 1.031097969344938e+00	 1.382917921502331e+00	-1.404126022773212e+00
 1.002412302428751e+00	 1.403849912185693e+00	 1.880420610877882e+01
 9.733517449702599e-01	 1.424152864187609e+00	 4.305691334019237e+01
 9.439368245917042e-01	 1.443817256856928e+00	 7.150092099074236e+01
 1.228598032310000e+00	 1.228598032310000e+00	-5.671382732758002e+01
 1.202892197821469e+00	 1.253776938060513e+00	-5.922176545797315e+01
 1.176676136032838e+00	 1.278412891394469e+00	-5.878824525353193e+01
 1.149967189994570e+00	 1.302490580361294e+00	-5.512283540724935e+01
 1.122783306207561e+00	 1.325995436378822e+00	-4.794877673433324e+01
 1.095142994623465e+00	 1.348913663406907e+00	-3.700412210522879e+01
 1.067065286993196e+00	 1.371232264533159e+00	-2.204279154422229e+01
 1.038569693758852e+00	 1.392939065865184e+00	-2.835535915026243e+00
 1.009676159691643e+00	 1.414022737640563e+00	 2.082919656970834e+01
 9.804050184841961e-01	 1.434472812483067e+00	 4.914449591151264e+01
 9.507769465096340e-01	 1.454279700751320e+00	 8.228433195222010e+01
 1.237436867075000e+00	 1.237436867075000e+00	-6.904616468105479e+01
 1.211546098524362e+00	 1.262796916033438e+00	-7.114847532677601e+01
 1.185141431973866e+00	 1.287610106442683e+00	-6.996331742315350e+01
 1.158240335244119e+00	 1.311861016194243e+00	-6.515830592174913e+01
 1.130860883947535e+00	 1.335534971896005e+00	-5.641645787370377e+01
 1.103021721200889e+00	 1.358618078255741e+00	-4.343749954120205e+01
 1.074742015674166e+00	 1.381097244858090e+00	-2.593907763912380e+01
 1.046041418172353e+00	 1.402960210228699e+00	-3.657867144901241e+00
 1.016940016954224e+00	 1.424195563096068e+00	 2.364943096145706e+01
 9.874582919979624e-01	 1.444792760779105e+00	 5.620520768244980e+01
 9.576170684275745e-01	 1.464742144646208e+00	 9.421018433972544e+01
 8.892158492486486e-01	 1.360117705719598e+00	 2.952379169181036e+01
 8.611919357855461e-01	 1.378032455969275e+00	 2.714028906474359e+01
 8.328736632118816e-01	 1.395330233706523e+00	 2.477266573530207e+01
 8.042810663631879e-01	 1.412004591443889e+00	 2.244373901369992e+01
 7.754343238075456e-01	 1.428049932401566e+00	 2.017566123492073e+01
 7.463537137077207e-01	 1.443461511093458e+00	 1.798984258300478e+01
 7.170595700900940e-01	 1.458235431238257e+00	 1.590687949033954e+01
 6.875722397034173e-01	 1.472368641057263e+00	 1.394648893990967e+01
 6.579120396427711e-01	 1.485858926034374e+00	 1.212744894136707e+01
 6.280992159053126e-01	 1.498704899226502e+00	 1.046754539381552e+01
 5.981539030346663e-01	 1.510905989224438e+00	 8.983525490085700e+00
 8.960559711664935e-01	 1.370580149610033e+00	 3.020209519707880e+01
 8.678164891377838e-01	 1.388632705631433e+00	 3.134327732331043e+01
 8.392803836977581e-01	 1.406063543197860e+00	 3.153993116157285e+01
 8.104678437960666e-01	 1.422866165225804e+00	 3.078888194878803e+01
 7.813992032205448e-01	 1.439034931883307e+00	 2.909051081960441e+01
 7.520948961198254e-01	 1.454565061180535e+00	 2.644869212939424e+01
 7.225754129358753e-01	 1.469452626864787e+00	 2.287071393866368e+01
 6.928612569308982e-01	 1.483694553682143e+00	 1.836718257070924e+01
 6.629729014853196e-01	 1.497288610081763e+00	 1.295191225864031e+01
 6.329307483347361e-01	 1.510233398451768e+00	 6.641800988944535e+00
 6.027550869038751e-01	 1.522528342987494e+00	-5.433062740103978e-01
 9.028960930843491e-01	 1.381042593500963e+00	 3.224509255280265e+01
 8.744410424902173e-01	 1.399232955293995e+00	 3.670424658005676e+01
 8.456871041839830e-01	 1.416796852689532e+00	 3.927429423551197e+01
 8.166546212294176e-01	 1.433727739008007e+00	 3.992631221853403e+01
 7.873640826341083e-01	 1.450019931365309e+00	 3.863911076667250e+01
 7.578360785325561e-01	 1.465668611267865e+00	 3.539918543889183e+01
 7.280912557823146e-01	 1.480669822491582e+00	 3.020062985015193e+01
 6.981502741590386e-01	 1.495020466307319e+00	 2.304501084753337e+01
 6.680337633285006e-01	 1.508718294129499e+00	 1.394120788234741e+01
 6.377622807647348e-01	 1.521761897677452e+00	 2.905218571498050e+00
 6.073562707735738e-01	 1.534150696751061e+00	-1.004006734724652e+01
 9.097362150022150e-01	 1.391505037392387e+00	 3.562201314482170e+01
 8.810655958428457e-01	 1.409833204956963e+00	 4.319708877498935e+01
 8.520938246705574e-01	 1.427530162181541e+00	 4.795395240142195e+01
 8.228413986632397e-01	 1.444589312790497e+00	 4.983817023062564e+01
 7.933289620482358e-01	 1.461004930847569e+00	 4.880717739031622e+01
 7.635772609459127e-01	 1.476772161355446e+00	 4.483024413526145e+01
 7.336070986294119e-01	 1.491887018118641e+00	 3.788838099336587e+01
 7.034392913878393e-01	 1.506346378932792e+00	 2.797418491511924e+01
 6.730946251723136e-01	 1.520147978177585e+00	 1.509162891243017e+01
 6.425938131953089e-01	 1.533290396903557e+00	-7.442019418294734e-01
 6.119574546437619e-01	 1.545773050515137e+00	-1.950742493778372e+01
 9.165763369200917e-01	 1.401967481284305e+00	 4.030300480698134e+01
 8.876901491956691e-01	 1.420433454620336e+00	 5.079647511057148e+01
 8.585005451574801e-01	 1.438263471673887e+00	 5.755775383895987e+01
 8.290281760975334e-01	 1.455450886573275e+00	 6.050712942336975e+01
 7.992938414629273e-01	 1.471989930330090e+00	 5.958085328778236e+01
 7.693184433598954e-01	 1.487875711443280e+00	 5.473112044061577e+01
 7.391229414771665e-01	 1.503104213745964e+00	 4.592596719001546e+01
 7.087283086172992e-01	 1.517672291558560e+00	 3.314908861354061e+01
 6.781554870167587e-01	 1.531577662226018e+00	 1.639957899321852e+01
 6.474253456264587e-01	 1.544818896130081e+00	-4.308401042469061e+00
 6.165586385144400e-01	 1.557395404279724e+00	-2.894602645170895e+01
 9.234164588379790e-01	 1.412429925176719e+00	 4.625909980443474e+01
 8.943147025486875e-01	 1.431033704284114e+00	 5.947782719010629e+01
 8.649072656447517e-01	 1.448996781166568e+00	 6.806517336184544e+01
 8.352149535322991e-01	 1.466312460356341e+00	 7.191637652388856e+01
 8.052587208781826e-01	 1.482974929812870e+00	 7.094669155124045e+01
 7.750596257745040e-01	 1.498979261531365e+00	 6.509138493120908e+01
 7.446387843255793e-01	 1.514321409373550e+00	 5.430562520210220e+01
 7.140173258474193e-01	 1.528998204184626e+00	 3.856427208234814e+01
 6.832163488618361e-01	 1.543007346274800e+00	 1.786156821949824e+01
 6.522568780581836e-01	 1.556347395357025e+00	-7.789261836743549e+00
 6.211598223856076e-01	 1.569017758044822e+00	-3.835650022607675e+01
 9.302565807558767e-01	 1.422892369069627e+00	 5.346218231768485e+01
 9.009392559019015e-01	 1.441633953948297e+00	 6.921728942943088e+01
 8.713139861323717e-01	 1.459730090659585e+00	 7.945628937985890e+01
 8.414017309675366e-01	 1.477174034139694e+00	 8.404959267728303e+01
 8.112236002940023e-01	 1.493959929295910e+00	 8.289164067618370e+01
 7.808008081897385e-01	 1.510082811619702e+00	 7.590091483341557e+01
 7.501546271746498e-01	 1.525538605001402e+00	 6.301982002110040e+01
 7.193063430781990e-01	 1.540324116810988e+00	 4.421444564688345e+01
 6.882772107075457e-01	 1.554437030323931e+00	 1.947420922319365e+01
 6.570884104904839e-01	 1.567875894584390e+00	-1.118861215527859e+01
 6.257610062572652e-01	 1.580640111810430e+00	-4.773945622961041e+01
 9.370967026737852e-01	 1.433354812963030e+00	 6.188495735068136e+01
 9.075638092553103e-01	 1.452234203612885e+00	 7.999170267685346e+01
 8.777207066203410e-01	 1.470463400152938e+00	 9.171176186980648e+01
 8.475885084032457e-01	 1.488035607923335e+00	 9.689093540225022e+01
 8.171884797103856e-01	 1.504944928779209e+00	 9.540303013077310e+01
 7.865419906055990e-01	 1.521186361708291e+00	 8.714988283229393e+01
 7.556704700243780e-01	 1.536755800629518e+00	 7.206123653863153e+01
 7.245953603096386e-01	 1.551650029437648e+00	 5.009447397234089e+01
 6.933380725538877e-01	 1.565866714373410e+00	 2.123421343143510e+01
 6.619199429233596e-01	 1.579404393812174e+00	-1.450822657003017e+01
 6.303621901294124e-01	 1.592262465576548e+00	-5.709548673271550e+01
 9.439368245917042e-01	 1.443817256856928e+00	 7.150092099074236e+01
 9.141883626089141e-01	 1.462834453277879e+00	 9.177857898005665e+01
 8.841274271086591e-01	 1.481196709646628e+00	 1.048128113042677e+02
 8.537752858394263e-01	 1.498897181707264e+00	 1.104250213312445e+02
 8.231533591273332e-01	 1.515929928262769e+00	 1.084685565526048e+02
 7.922831730220854e-01	 1.532289911797133e+00	 9.882874636673208e+01
 7.611863128747642e-01	 1.547972996257898e+00	 8.142277157928797e+01
 7.298843775417380e-01	 1.562975942064603e+00	 5.619937047200560e+01
 6.983989344008616e-01	 1.577296398423238e+00	 2.313838748731747e+01
 6.667514753568107e-01	 1.590932893040377e+00	-1.774982832361772e+01
 6.349633740020493e-01	 1.603884819343176e+00	-6.642516694836438e+01
 9.507769465096340e-01	 1.454279700751320e+00	 8.228433195222010e+01
 9.208129159627132e-01	 1.473434702943277e+00	 1.045560774421940e+02
 8.905341475973253e-01	 1.491930019140653e+00	 1.187411984898954e+02
 8.599620632760784e-01	 1.509758755491480e+00	 1.246369096956647e+02
 8.291182385448447e-01	 1.526914927746587e+00	 1.220762705412992e+02
 7.980243554391980e-01	 1.543393461886226e+00	 1.109282373866768e+02
 7.667021557258082e-01	 1.559190191886543e+00	 9.109752627735654e+01
 7.351733947744968e-01	 1.574301854691855e+00	 6.252429195685544e+01
 7.034597962484678e-01	 1.588726082473414e+00	 2.518362982516110e+01
 6.715830077908371e-01	 1.602461392269001e+00	-2.091509117537568e+01
 6.395645578751757e-01	 1.615507173110314e+00	-7.572905564531683e+01
 9.576170684275745e-01	 1.464742144646208e+00	 9.421018433972544e+01
 9.274374693167079e-01	 1.484034952609081e+00	 1.183029811127283e+02
 8.969408680863412e-01	 1.502663328635016e+00	 1.334792052697890e+02
 8.661488407132029e-01	 1.520620329275986e+00	 1.395120865188216e+02
 8.350831179629206e-01	 1.537899927230666e+00	 1.362145640171225e+02
 8.037655378569366e-01	 1.554497011975572e+00	 1.234393525493355e+02
 7.722179985775102e-01	 1.570407387515452e+00	 1.010787987802594e+02
 7.404624120079161e-01	 1.585627767319404e+00	 6.906453351447041e+01
 7.085206580967063e-01	 1.600155766523939e+00	 2.736692739254289e+01
 6.764145402254393e-01	 1.613989891498045e+00	-2.400564116828911e+01
 6.441657417487923e-01	 1.627129526877964e+00	-8.500769573505940e+01
 5.981539030346663e-01	 1.510905989224438e+00	 8.983525490085700e+00
 5.680960850001699e-01	 1.522462425874857e+00	 2.520556052205497e+01
 5.379455574460040e-01	 1.533375223883753e+00	 3.799162378674924e+01
 5.077218914329504e-01	 1.543646164429884e+00	 4.738331162418010e+01
 4.774443987833440e-01	 1.553277774923845e+00	 5.343175263553081e+01
 4.471320991271144e-01	 1.562273307054313e+00	 5.619712939393140e+01
 4.168036887336734e-01	 1.570636713267633e+00	 5.574817281236300e+01
 3.864775112014002e-01	 1.578372621830225e+00	 5.216163332816625e+01
 3.561715300634782e-01	 1.585486310625523e+00	 4.552173305741331e+01
 3.259033033559552e-01	 1.591983679838119e+00	 3.591960302780770e+01
 2.956899601812942e-01	 1.597871223677692e+00	 2.345270951838503e+01
 6.027550869038751e-01	 1.522528342987494e+00	-5.433062740103978e-01
 5.724660548848367e-01	 1.534173675303793e+00	 1.020996320829041e+01
 5.420836001959101e-01	 1.545170417912212e+00	 1.931738089635671e+01
 5.116274444444988e-01	 1.555520365692882e+00	 2.678287926718104e+01
 4.811170480054178e-01	 1.565226065498014e+00	 3.261465286823839e+01
 4.505715768134437e-01	 1.574290794029277e+00	 3.682501176014621e+01
 4.200098709554459e-01	 1.582718534136446e+00	 3.943022076341644e+01
 3.894504151344075e-01	 1.590513949687990e+00	 4.045032600109718e+01
 3.589113110645378e-01	 1.597682359166444e+00	 3.990897025962967e+01
 3.284102518437008e-01	 1.604229708142433e+00	 3.783319870532753e+01
 2.979644983366877e-01	 1.610162540781094e+00	 3.425325649420490e+01
 6.073562707735738e-01	 1.534150696751061e+00	-1.004006734724652e+01
 5.768360247698988e-01	 1.545884924733330e+00	-4.836612529852804e+00
 5.462216429461266e-01	 1.556965611941338e+00	 4.847270151612086e-01
 5.155329974562838e-01	 1.567394566956594e+00	 5.890755291256454e+00
 4.847896972276649e-01	 1.577174356072925e+00	 1.134731914029872e+01
 4.540110544998927e-01	 1.586308281004989e+00	 1.681949012401639e+01
 4.232160531772945e-01	 1.594800355005994e+00	 2.227174524714080e+01
 3.924233190674576e-01	 1.602655277546456e+00	 2.766814537022842e+01
 3.616510920656160e-01	 1.609878407708013e+00	 3.297251022703728e+01
 3.309172003314512e-01	 1.616475736447324e+00	 3.814858903552980e+01
 3.002390364920813e-01	 1.622453857884982e+00	 4.316022577183224e+01
 6.119574546437619e-01	 1.545773050515137e+00	-1.950742493778372e+01
 5.812059946553556e-01	 1.557596174163466e+00	-1.993300571364296e+01
 5.503596856966543e-01	 1.568760805971133e+00	-1.850275355218685e+01
 5.194385504683057e-01	 1.579268768221021e+00	-1.528646960948095e+01
 4.884623464500848e-01	 1.589122646648578e+00	-1.036008162623744e+01
 4.574505321864613e-01	 1.598325767981450e+00	-3.805136826369518e+00
 4.264222353992193e-01	 1.606882175876276e+00	 4.291716956828294e+00
 3.953962230005502e-01	 1.614796605405623e+00	 1.383925815440286e+01
 3.643908730667133e-01	 1.622074456250230e+00	 2.474222266575537e+01
 3.334241488192061e-01	 1.628721764752790e+00	 3.690183585606555e+01
 3.025135746474747e-01	 1.634745174989355e+00	 5.021634196972526e+01
 6.165586385144400e-01	 1.557395404279724e+00	-2.894602645170895e+01
 5.855759645412076e-01	 1.569307423594202e+00	-3.507809013722316e+01
 5.544977284474925e-01	 1.580556000001596e+00	-3.764158361392361e+01
 5.233441034805644e-01	 1.591142969486163e+00	-3.674240159841401e+01
 4.921349956726781e-01	 1.601070937224973e+00	-3.249768612124065e+01
 4.608900098731494e-01	 1.610343254958658e+00	-2.503499735220645e+01
 4.296284176212204e-01	 1.618963996747293e+00	-1.449145982712506e+01
 3.983691269336854e-01	 1.626937933265491e+00	-1.012890446145916e+00
 3.671306540678292e-01	 1.634270504793095e+00	 1.524708552469325e+01
 3.359310973069657e-01	 1.640967793058833e+00	 3.412792440775434e+01
 3.047881128028683e-01	 1.647036492094213e+00	 5.546305422096363e+01
 6.211598223856076e-01	 1.569017758044822e+00	-3.835650022607675e+01
 5.899459344274547e-01	 1.581018673025537e+00	-5.027077307933201e+01
 5.586357711986415e-01	 1.592351194032726e+00	-5.692838912361113e+01
 5.272496564930597e-01	 1.603017170752021e+00	-5.847083640496898e+01
 4.958076448954447e-01	 1.613019227802109e+00	-5.505592340117120e+01
 4.643294875599572e-01	 1.622360741936614e+00	-4.685663085058462e+01
 4.328345998432976e-01	 1.631045817619043e+00	-3.405992625850856e+01
 4.013420308668634e-01	 1.639079261126060e+00	-1.686555002643042e+01
 3.698704350689641e-01	 1.646466553336608e+00	 4.515218024038644e+00
 3.384380457947301e-01	 1.653213821365451e+00	 2.986080320897346e+01
 3.070626509582619e-01	 1.659327809199556e+00	 5.894058341386209e+01
 6.257610062572652e-01	 1.580640111810430e+00	-4.773945622961041e+01
 5.943159043140965e-01	 1.592729922457472e+00	-6.550999407186049e+01
 5.627738139501012e-01	 1.604146388064524e+00	-7.635989538761649e+01
 5.311552095057922e-01	 1.614891372018594e+00	-8.046575235484701e+01
 4.994802941183842e-01	 1.624967518379987e+00	-7.802550413986673e+01
 4.677689652468848e-01	 1.634378228915318e+00	-6.925697273875033e+01
 4.360407820654509e-01	 1.643127638491529e+00	-5.439634887211855e+01
 4.043149348000838e-01	 1.651220588987329e+00	-3.369663943231862e+01
 3.726102160701177e-01	 1.658662601880768e+00	-7.426087773393363e+00
 3.409449942824992e-01	 1.665459849672645e+00	 2.413342217088157e+01
 3.093371891136554e-01	 1.671619126305386e+00	 6.068796734843897e+01
 6.303621901294124e-01	 1.592262465576548e+00	-5.709548673271550e+01
 5.986858742011336e-01	 1.604441171890006e+00	-8.079472372234105e+01
 5.669118567018716e-01	 1.615941582096991e+00	-9.593292343868762e+01
 5.350607625187613e-01	 1.626765573285882e+00	-1.027213037054998e+02
 5.031529433414970e-01	 1.636915808958607e+00	-1.013974103500971e+02
 4.712084429339320e-01	 1.646395715894772e+00	-9.222334000037145e+01
 4.392469642876805e-01	 1.655209459364748e+00	-7.548390040882330e+01
 4.072878387333470e-01	 1.663361916849300e+00	-5.148472233487684e+01
 3.753499970712901e-01	 1.670858650425577e+00	-2.055033677349778e+01
 3.434519427702728e-01	 1.677705877980415e+00	 1.697776904336201e+01
 3.116117272690490e-01	 1.683910443411700e+00	 6.074310391522833e+01
 6.349633740020493e-01	 1.603884819343176e+00	-6.642516694836438e+01
 6.030558440885656e-01	 1.616152421323141e+00	-9.612396258763374e+01
 5.710498994539527e-01	 1.627736776130124e+00	-1.156443865672009e+02
 5.389663155319673e-01	 1.638639774553884e+00	-1.252318142713700e+02
 5.068255925647830e-01	 1.648864099537968e+00	-1.251628855520123e+02
 4.746479206210989e-01	 1.658413202874972e+00	-1.157434173602259e+02
 4.424531465099864e-01	 1.667291280238702e+00	-9.730624147431969e+01
 4.102607426666527e-01	 1.675503244711971e+00	-7.020898386669614e+01
 3.780897780724816e-01	 1.683054698971034e+00	-3.483180197476923e+01
 3.459588912580512e-01	 1.689951906288762e+00	 8.424904276359168e+00
 3.138862654244425e-01	 1.696201760518499e+00	 5.914279239675241e+01
 6.395645578751757e-01	 1.615507173110314e+00	-7.572905564531683e+01
 6.074258139763925e-01	 1.627863670756874e+00	-1.114967400962318e+02
 5.751879422063448e-01	 1.639531970163926e+00	-1.354912870021395e+02
 5.428718685454100e-01	 1.650513975822602e+00	-1.479917713242989e+02
 5.104982417882420e-01	 1.660812390118072e+00	-1.493134253659691e+02
 4.780873983083853e-01	 1.670430689855921e+00	-1.398052440556689e+02
 4.456593287323683e-01	 1.679373101113391e+00	-1.198475029896015e+02
 4.132336466000011e-01	 1.687644572575344e+00	-8.984920826672669e+01
 3.808295590736919e-01	 1.695250747517139e+00	-5.024549683864301e+01
 3.484658397458342e-01	 1.702197934597684e+00	-1.495005623591936e+00
 3.161608035798359e-01	 1.708493077625785e+00	 5.592277298619620e+01
 6.441657417487923e-01	 1.627129526877964e+00	-8.500769573505940e+01
 6.117957838646149e-01	 1.639574920191208e+00	-1.269121135167531e+02
 5.793259849590476e-01	 1.651327164198396e+00	-1.554707127343173e+02
 5.467774215590897e-01	 1.662388177092036e+00	-1.709958197553515e+02
 5.141708910118744e-01	 1.672760680698918e+00	-1.738407685085306e+02
 4.815268759957917e-01	 1.682448176837619e+00	-1.643972011750366e+02
 4.488655109548267e-01	 1.691454921988814e+00	-1.430922693935473e+02
 4.162065505333923e-01	 1.699785900439417e+00	-1.103857574831895e+02
 3.835693400749210e-01	 1.707446796063892e+00	-6.676714884396469e+01
 3.509727882336220e-01	 1.714443962907183e+00	-1.275265616640038e+01
 3.184353417352296e-01	 1.720784394733555e+00	 5.111776461242289e+01
 2.956899601812942e-01	 1.597871223677692e+00	 2.345270951838503e+01
 2.655481792878332e-01	 1.603156001294210e+00	-3.127854743353240e+00
 2.354941696761790e-01	 1.607845607033304e+00	-2.367691374183031e+01
 2.055436532290555e-01	 1.611948140178152e+00	-3.834237366336816e+01
 1.757118493506961e-01	 1.615472174320239e+00	-4.728655333297464e+01
 1.460134615946999e-01	 1.618426726496131e+00	-5.068497173063379e+01
 1.164626662474424e-01	 1.620821226222415e+00	-4.872513029654185e+01
 8.707310282611763e-02	 1.622665484554889e+00	-4.160529744526361e+01
 5.785786644259734e-02	 1.623969663291593e+00	-2.953330225660774e+01
 2.882950197718375e-02	 1.624744244432313e+00	-1.272534382686835e+01
 0.000000000000000e+00	 1.625000000000000e+00	 8.595177744598834e+00
 2.979644983366877e-01	 1.610162540781094e+00	 3.425325649420490e+01
 2.675908575899578e-01	 1.615487970533476e+00	 1.542435287352709e+01
 2.373056632887938e-01	 1.620213650163185e+00	-3.572254316624246e-01
 2.071247582534782e-01	 1.624347741255574e+00	-1.313376785075910e+01
 1.770634789605836e-01	 1.627898883352835e+00	-2.295625688161355e+01
 1.471366420679667e-01	 1.630876162853355e+00	-2.988380682961610e+01
 1.173585329103589e-01	 1.633289081808462e+00	-3.398309080045636e+01
 8.774289592431626e-02	 1.635147526743617e+00	-3.532775993579696e+01
 5.830292695333918e-02	 1.636461737624537e+00	-3.399785870204563e+01
 2.905126737680813e-02	 1.637242277081775e+00	-3.007923984142685e+01
 0.000000000000000e+00	 1.637500000000000e+00	-2.366298237535316e+01
 3.002390364920813e-01	 1.622453857884982e+00	 4.316022577183224e+01
 2.696335358920826e-01	 1.627819939773135e+00	 3.243759116269550e+01
 2.391171569014086e-01	 1.632581693293372e+00	 2.181930445596619e+01
 2.087058632779007e-01	 1.636747342333230e+00	 1.136730520206933e+01
 1.784151085704711e-01	 1.640325592385602e+00	 1.140509344347040e+00
 1.482598225412336e-01	 1.643325599210697e+00	-8.805274454506534e+00
 1.182543995732755e-01	 1.645756937394584e+00	-1.841741028843154e+01
 8.841268902251494e-02	 1.647629568932387e+00	-2.764648287469345e+01
 5.874798746408103e-02	 1.648953811957498e+00	-3.644632849115428e+01
 2.927303277643252e-02	 1.649740309731242e+00	-4.477404974363711e+01
 0.000000000000000e+00	 1.650000000000000e+00	-5.259001499061457e+01
 3.025135746474747e-01	 1.634745174989355e+00	 5.021634196972526e+01
 2.716762141942071e-01	 1.640151909013182e+00	 4.794658633136741e+01
 2.409286505140234e-01	 1.644949736423866e+00	 4.287847436348235e+01
 2.102869683023234e-01	 1.649146943411119e+00	 3.517681812204921e+01
 1.797667381803585e-01	 1.652752301418539e+00	 2.500902653862943e+01
 1.493830030145004e-01	 1.655775035568155e+00	 1.254438295880554e+01
 1.191502662361921e-01	 1.658224792980780e+00	-2.046652752683300e+00
 8.908248212071354e-02	 1.660111611121198e+00	-1.859311475652173e+01
 5.919304797482287e-02	 1.661445886290479e+00	-3.692417200937828e+01
 2.949479817605690e-02	 1.662238342380713e+00	-5.686973719448049e+01
 0.000000000000000e+00	 1.662500000000000e+00	-7.826104209835017e+01
 3.047881128028683e-01	 1.647036492094213e+00	 5.546305422096363e+01
 2.737188924963317e-01	 1.652483878253622e+00	 6.198502786067188e+01
 2.427401441266382e-01	 1.657317779554668e+00	 6.284531250872680e+01
 2.118680733267460e-01	 1.661546544489241e+00	 5.831026662082256e+01
 1.811183677902460e-01	 1.665179010451648e+00	 4.865441812861377e+01
 1.505061834877673e-01	 1.668224471925732e+00	 3.415910919903636e+01
 1.200461328991086e-01	 1.670692648567053e+00	 1.511117184915310e+01
 8.975227521891216e-02	 1.672593653310051e+00	-8.198359456464622e+00
 5.963810848556471e-02	 1.673937960623477e+00	-3.547549272455916e+01
 2.971656357568129e-02	 1.674736375030189e+00	-6.642447600044842e+01
 0.000000000000000e+00	 1.675000000000000e+00	-1.007489433499732e+02
 3.070626509582619e-01	 1.659327809199556e+00	 5.894058341386209e+01
 2.757615707984564e-01	 1.664815847494451e+00	 7.458560690330633e+01
 2.445516377392530e-01	 1.669685822685776e+00	 8.174410541215515e+01
 2.134491783511686e-01	 1.673946145567598e+00	 8.078268715860426e+01
 1.824699974001335e-01	 1.677605719484926e+00	 7.208165561883271e+01
 1.516293639610341e-01	 1.680673908283426e+00	 5.603302738255743e+01
 1.209419995620252e-01	 1.683160504153399e+00	 3.303858707443704e+01
 9.042206831711082e-02	 1.685075695498947e+00	 3.507988783943607e+00
 6.008316899630655e-02	 1.686430034956494e+00	-3.214308744302927e+01
 2.993832897530567e-02	 1.687234407679669e+00	-7.349471640438907e+01
 0.000000000000000e+00	 1.687500000000000e+00	-1.201244391009880e+02
 3.093371891136554e-01	 1.671619126305386e+00	 6.068796734843897e+01
 2.778042491005809e-01	 1.677147816735672e+00	 8.578005298717625e+01
 2.463631313518678e-01	 1.682053865817191e+00	 9.959842516548622e+01
 2.150302833755913e-01	 1.686345746646188e+00	 1.026086738287570e+02
 1.838216270100210e-01	 1.690032428518376e+00	 9.529556417666518e+01
 1.527525444343010e-01	 1.693123344641238e+00	 7.816043336072207e+01
 1.218378662249418e-01	 1.695628359739820e+00	 5.171863038121291e+01
 9.109186141530945e-02	 1.697557737687884e+00	 1.649701191456548e+01
 6.052822950704838e-02	 1.698922109289530e+00	-2.696849434852594e+01
 3.016009437493006e-02	 1.699732440329154e+00	-7.813524845176146e+01
 0.000000000000000e+00	 1.700000000000000e+00	-1.364561697968685e+02
 3.116117272690490e-01	 1.683910443411700e+00	 6.074310391522833e+01
 2.798469274027056e-01	 1.689479785977283e+00	 9.559916911157580e+01
 2.481746249644826e-01	 1.694421908948912e+00	 1.164311555061031e+02
 2.166113884000138e-01	 1.698745347725011e+00	 1.238023945028938e+02
 1.851732566199084e-01	 1.702459137551994e+00	 1.183008279734017e+02
 1.538757249075678e-01	 1.705572780999167e+00	 1.005357894159221e+02
 1.227337328878583e-01	 1.708096215326316e+00	 7.113483437291897e+01
 9.176165451350807e-02	 1.710039779876861e+00	 3.074063609903600e+01
 6.097329001779021e-02	 1.711414183622584e+00	-1.999203893721196e+01
 3.038185977455445e-02	 1.712230472978645e+00	-8.039926258172247e+01
 0.000000000000000e+00	 1.712500000000000e+00	-1.498107718821832e+02
 3.138862654244425e-01	 1.696201760518499e+00	 5.914279239675241e+01
 2.818896057048302e-01	 1.701811755219286e+00	 1.040728653174483e+02
 2.499861185770973e-01	 1.706789952080941e+00	 1.322645167577830e+02
 2.181924934244365e-01	 1.711144948804068e+00	 1.443776062740224e+02
 1.865248862297958e-01	 1.714885846585784e+00	 1.411019952930876e+02
 1.549989053808347e-01	 1.718022217357214e+00	 1.231537182317302e+02
 1.236295995507749e-01	 1.720564070912886e+00	 9.127120885854578e+01
 9.243144761170670e-02	 1.722521822065882e+00	 4.621160112746769e+01
 6.141835052853206e-02	 1.723906257955657e+00	-1.125287795551848e+01
 3.060362517417883e-02	 1.724728505628139e+00	-8.033840758382129e+01
 0.000000000000000e+00	 1.725000000000000e+00	-1.602529504093244e+02
 3.161608035798359e-01	 1.708493077625785e+00	 5.592277298619620e+01
 2.839322840069549e-01	 1.714143724461679e+00	 1.112301908085676e+02
 2.517976121897121e-01	 1.719157995213276e+00	 1.471200896948488e+02
 2.197735984488592e-01	 1.723544549883358e+00	 1.643476702330721e+02
 1.878765158396833e-01	 1.727312555619745e+00	 1.637034834208427e+02
 1.561220858541015e-01	 1.730471653715379e+00	 1.460089971233195e+02
 1.245254662136915e-01	 1.733031926499532e+00	 1.121122236871758e+02
 9.310124070990533e-02	 1.735003864254944e+00	 6.288343114947108e+01
 6.186341103927389e-02	 1.736398332288747e+00	-7.890414413931239e-01
 3.082539057380321e-02	 1.737226538277638e+00	-7.800284605296278e+01
 0.000000000000000e+00	 1.737499999999999e+00	-1.678455485130451e+02
 3.184353417352296e-01	 1.720784394733555e+00	 5.111776461242289e+01
 2.859749623090795e-01	 1.726475693704463e+00	 1.170993646961011e+02
 2.536091058023270e-01	 1.731526038345919e+00	 1.610188383835713e+02
 2.213547034732818e-01	 1.735944150962882e+00	 1.837255656121544e+02
 1.892281454495708e-01	 1.739739264653876e+00	 1.861095833216806e+02
 1.572452663273684e-01	 1.742921090073661e+00	 1.690965525151577e+02
 1.254213328766080e-01	 1.745499782086253e+00	 1.336427923181849e+02
 9.377103380810400e-02	 1.747485906444048e+00	 8.073040666147547e+01
 6.230847155001576e-02	 1.748890406621857e+00	 1.136252703621962e+01
 3.104715597342760e-02	 1.749724570927141e+00	-7.344130746773305e+01
 0.000000000000000e+00	 1.750000000000000e+00	-1.726496139075190e+02
 1.750000000000000e+00	 0.000000000000000e+00	-2.092045961425188e+02
 1.749724570927141e+00	 3.104715597342660e-02	-1.686236957212402e+02
 1.748890406621857e+00	 6.230847155001488e-02	-1.363370526487188e+02
 1.747485906444049e+00	 9.377103380810323e-02	-1.118216906539536e+02
 1.745499782086252e+00	 1.254213328766073e-01	-9.450727038418573e+01
 1.742921090073661e+00	 1.572452663273678e-01	-8.377607101182724e+01
 1.739739264653876e+00	 1.892281454495704e-01	-7.896319842188900e+01
 1.735944150962882e+00	 2.213547034732815e-01	-7.935703203152001e+01
 1.731526038345919e+00	 2.536091058023268e-01	-8.419992125960586e+01
 1.726475693704463e+00	 2.859749623090794e-01	-9.268914145386339e+01
 1.720784394733555e+00	 3.184353417352296e-01	-1.039781176956545e+02
 1.762500000000000e+00	 0.000000000000000e+00	-1.637513686997064e+02
 1.762222603576645e+00	 3.126892137305098e-02	-1.340121556731947e+02
 1.761382480954966e+00	 6.275353206075669e-02	-1.100236456094257e+02
 1.759967948633153e+00	 9.444082690630186e-02	-9.136960541079236e+01
 1.757967637672972e+00	 1.263171995395239e-01	-7.759883081379031e+01
 1.755370526431943e+00	 1.583684468006347e-01	-6.822524600318231e+01
 1.752165973688007e+00	 1.905797750594578e-01	-6.272817606402512e+01
 1.748343752042406e+00	 2.229358084977041e-01	-6.055280078222291e+01
 1.743894081478562e+00	 2.554205994149417e-01	-6.111079747655925e+01
 1.738807662947248e+00	 2.880176406112040e-01	-6.378117958648678e+01
 1.733075711841326e+00	 3.207098798906232e-01	-6.791133665111980e+01
 1.775000000000000e+00	 0.000000000000000e+00	-1.082738873824618e+02
 1.774720636226143e+00	 3.149068677267536e-02	-9.057859738013171e+01
 1.773874555288057e+00	 6.319859257149853e-02	-7.613102093292413e+01
 1.772449990822214e+00	 9.511062000450050e-02	-6.462064382880405e+01
 1.770435493259618e+00	 1.272130662024405e-01	-5.571425122843640e+01
 1.767819962790108e+00	 1.594916272739015e-01	-4.905614385110667e+01
 1.764592682721967e+00	 1.919314046693453e-01	-4.426847371214539e+01
 1.760743353121696e+00	 2.245169135221267e-01	-4.095170441250387e+01
 1.756262124610897e+00	 2.572320930275563e-01	-3.868520035780968e+01
 1.751139632189640e+00	 2.900603189133286e-01	-3.702794857542472e+01
 1.745367028948611e+00	 3.229844180460166e-01	-3.551941600522706e+01
 1.787500000000000e+00	 0.000000000000000e+00	-4.298246699174436e+01
 1.787218668875638e+00	 3.171245217229974e-02	-3.850811237526469e+01
 1.786366629621130e+00	 6.364365308224038e-02	-3.481819589852378e+01
 1.784932033011234e+00	 9.578041310269911e-02	-3.170691943830998e+01
 1.782903348846188e+00	 1.281089328653570e-01	-2.895793595172588e+01
 1.780269399148155e+00	 1.606148077471684e-01	-2.634468082850528e+01
 1.777019391755757e+00	 1.932830342792328e-01	-2.363076995515646e+01
 1.773142954200753e+00	 2.260980185465493e-01	-2.057046601188763e+01
 1.768630167742926e+00	 2.590435866401711e-01	-1.690921410275130e+01
 1.763471601431642e+00	 2.921029972154534e-01	-1.238424735860560e+01
 1.757658346055410e+00	 3.252589562014102e-01	-6.725262653425979e+00
 1.800000000000000e+00	 0.000000000000000e+00	 3.191841993048632e+01
 1.799716701525128e+00	 3.193421757192412e-02	 2.201934942079367e+01
 1.798858703954184e+00	 6.408871359298220e-02	 1.376022954169488e+01
 1.797414075200213e+00	 9.645020620089774e-02	 7.243124230242408e+00
 1.795371204432684e+00	 1.290047995282736e-01	 2.568610990982940e+00
 1.792718835506084e+00	 1.617379882204352e-01	-1.646642466554304e-01
 1.789446100789376e+00	 1.946346638891202e-01	-8.604465805207226e-01
 1.785542555279577e+00	 2.276791235709719e-01	 5.746560316408491e-01
 1.780998210874648e+00	 2.608550802527859e-01	 4.230690707392775e+00
 1.775803570673254e+00	 2.941456755175779e-01	 1.019386970571334e+01
 1.769949663161724e+00	 3.275334943568037e-01	 1.854607519462412e+01
 1.812500000000000e+00	 0.000000000000000e+00	 1.162299416440627e+02
 1.812214734174612e+00	 3.215598297154849e-02	 9.082880240294267e+01
 1.811350778287220e+00	 6.453377410372405e-02	 6.945392044105230e+01
 1.809896117389150e+00	 9.711999929909636e-02	 5.210458709426055e+01
 1.807839060019105e+00	 1.299006661911902e-01	 3.876668586190070e+01
 1.805168271863896e+00	 1.628611686937021e-01	 2.941213482149605e+01
 1.801872809822825e+00	 1.959862934990077e-01	 2.399836670788277e+01
 1.797942156358166e+00	 2.292602285953945e-01	 2.246785200679209e+01
 1.793366254006062e+00	 2.626665738654007e-01	 2.474767043234857e+01
 1.788135539914474e+00	 2.961883538197025e-01	 3.074913612849340e+01
 1.782240980267553e+00	 3.298080325121973e-01	 4.036748185259486e+01
 1.825000000000000e+00	 0.000000000000000e+00	 2.097587140324661e+02
 1.824712766824093e+00	 3.237774837117288e-02	 1.677500552706880e+02
 1.823842852620237e+00	 6.497883461446587e-02	 1.321166607962417e+02
 1.822378159578045e+00	 9.778979239729499e-02	 1.027559911677586e+02
 1.820306915605452e+00	 1.307965328541067e-01	 7.954028931015927e+01
 1.817617708221590e+00	 1.639843491669689e-01	 6.231591180666501e+01
 1.814299518856104e+00	 1.973379231088951e-01	 5.090274940961769e+01
 1.810341757436523e+00	 2.308413336198172e-01	 4.509374551268280e+01
 1.805734297137171e+00	 2.644780674780155e-01	 4.465452114805760e+01
 1.800467509155304e+00	 2.982310321218272e-01	 4.932311480044032e+01
 1.794532297372897e+00	 3.320825706675907e-01	 5.880984496061083e+01
 1.837500000000000e+00	 0.000000000000000e+00	 3.123166153095052e+02
 1.837210799473569e+00	 3.259951377079726e-02	 2.526175479564573e+02
 1.836334926953235e+00	 6.542389512520771e-02	 2.016062134470164e+02
 1.834860201766898e+00	 9.845958549549363e-02	 1.590791641632213e+02
 1.832774771191723e+00	 1.316923995170233e-01	 1.247960343854763e+02
 1.830067144579166e+00	 1.651075296402358e-01	 9.847876175487465e+01
 1.826726227889211e+00	 1.986895527187826e-01	 7.981094909776083e+01
 1.822741358514645e+00	 2.324224386442398e-01	 6.843737871974406e+01
 1.818102340267972e+00	 2.662895610906304e-01	 6.396369090050719e+01
 1.812799478395743e+00	 3.002737104239518e-01	 6.595623780822208e+01
 1.806823614477755e+00	 3.343571088229843e-01	 7.394212339844994e+01
 1.850000000000000e+00	 0.000000000000000e+00	 4.237206082378863e+02
 1.849708832123041e+00	 3.282127917042164e-02	 3.452701951649308e+02
 1.848827001286216e+00	 6.586895563594955e-02	 2.777841856556223e+02
 1.847342243955709e+00	 9.912937859369225e-02	 2.209591278123106e+02
 1.845242626777920e+00	 1.325882661799398e-01	 1.744430582809969e+02
 1.842516580936625e+00	 1.662307101135026e-01	 1.378346151507932e+02
 1.839152936922149e+00	 2.000411823286701e-01	 1.106823419564023e+02
 1.835140959592534e+00	 2.340035436686624e-01	 9.248419822815893e+01
 1.830470383398466e+00	 2.681010547032451e-01	 8.268729146278017e+01
 1.825131447635792e+00	 3.023163887260764e-01	 8.068784463651978e+01
 1.819114931582128e+00	 3.366316469783779e-01	 8.583141244550754e+01
 1.862500000000000e+00	 0.000000000000000e+00	 5.437925695067665e+02
 1.862206864772507e+00	 3.304304457004600e-02	 4.455512362127962e+02
 1.861319075619178e+00	 6.631401614669137e-02	 3.605159000991348e+02
 1.859824286144479e+00	 9.979917169189090e-02	 2.882839906837239e+02
 1.857710482364042e+00	 1.334841328428564e-01	 2.283929376301127e+02
 1.854966017293967e+00	 1.673538905867695e-01	 1.803191763253629e+02
 1.851579645954916e+00	 2.013928119385575e-01	 1.434773949072406e+02
 1.847540560670190e+00	 2.355846486930850e-01	 1.172200414957607e+02
 1.842838426528654e+00	 2.699125483158599e-01	 1.008371096186718e+02
 1.837463416875449e+00	 3.043590670282010e-01	 9.355621883173811e+01
 1.831406248686016e+00	 3.389061851337714e-01	 9.454300631686678e+01
 1.875000000000000e+00	 0.000000000000000e+00	 6.723591259342110e+02
 1.874704897421970e+00	 3.326480996967039e-02	 5.533080908749247e+02
 1.873811149952121e+00	 6.675907665743323e-02	 4.496702710221081e+02
 1.872306328333207e+00	 1.004689647900895e-01	 3.609448452883471e+02
 1.870178337950090e+00	 1.343799995057729e-01	 2.865596071914133e+02
 1.867415453651191e+00	 1.684770710600364e-01	 2.258698643271285e+02
 1.864006354987513e+00	 2.027444415484450e-01	 1.781576292511126e+02
 1.859940161747613e+00	 2.371657537175077e-01	 1.426311238088180e+02
 1.855206469658534e+00	 2.717240419284748e-01	 1.184246179949598e+02
 1.849795386114716e+00	 3.064017453303257e-01	 1.045986231991721e+02
 1.843697565789419e+00	 3.411807232891650e-01	 1.001404581979344e+02
 1.720784394733555e+00	 3.184353417352296e-01	-1.039781176956545e+02
 1.714443962907183e+00	 3.509727882336210e-01	-1.099538683417906e+02
 1.707446796063893e+00	 3.835693400749201e-01	-1.135761808285209e+02
 1.699785900439417e+00	 4.162065505333916e-01	-1.151807298958426e+02
 1.691454921988814e+00	 4.488655109548259e-01	-1.151205091554835e+02
 1.682448176837619e+00	 4.815268759957912e-01	-1.137650231899838e+02
 1.672760680698918e+00	 5.141708910118742e-01	-1.114993634318666e+02
 1.662388177092036e+00	 5.467774215590895e-01	-1.087231685353688e+02
 1.651327164198396e+00	 5.793259849590476e-01	-1.058494709141054e+02
 1.639574920191208e+00	 6.117957838646149e-01	-1.033034321140459e+02
 1.627129526877964e+00	 6.441657417487923e-01	-1.015209707123854e+02
 1.733075711841326e+00	 3.207098798906232e-01	-6.791133665111980e+01
 1.726689991216679e+00	 3.534797367214088e-01	-7.405826607064633e+01
 1.719642844610636e+00	 3.863091210761491e-01	-7.850060763716593e+01
 1.711927228303469e+00	 4.191794544667827e-01	-8.149600579110285e+01
 1.703536742864199e+00	 4.520716931772842e-01	-8.331505523058462e+01
 1.694465663819255e+00	 4.849663536831973e-01	-8.424066792631453e+01
 1.684708971279676e+00	 5.178435402355064e-01	-8.456735215263336e+01
 1.674262378361351e+00	 5.506829745727694e-01	-8.460040421374276e+01
 1.663122358232710e+00	 5.834640277117502e-01	-8.465501427755295e+01
 1.651286169625344e+00	 6.161657537528370e-01	-8.505528848853488e+01
 1.638751880645368e+00	 6.487669256224087e-01	-8.613319030773128e+01
 1.745367028948611e+00	 3.229844180460166e-01	-3.551941600522706e+01
 1.738936019525595e+00	 3.559866852091919e-01	-4.126415590383974e+01
 1.731838893156713e+00	 3.890489020773594e-01	-4.594298787599264e+01
 1.724068556166777e+00	 4.221523584001311e-01	-4.973634185623774e+01
 1.715618563738773e+00	 4.552778753996662e-01	-5.283327286603615e+01
 1.706483150800026e+00	 4.884058313704840e-01	-5.543100147658649e+01
 1.696657261859521e+00	 5.215161894589655e-01	-5.773439427794545e+01
 1.686136579629713e+00	 5.545885275862120e-01	-5.995538499964911e+01
 1.674917552266045e+00	 5.876020704641420e-01	-6.231233743595855e+01
 1.662997419058485e+00	 6.205357236406640e-01	-6.502935185264468e+01
 1.650374234411771e+00	 6.533681094955353e-01	-6.833551708658257e+01
 1.757658346055410e+00	 3.252589562014102e-01	-6.725262653425979e+00
 1.751182047833929e+00	 3.584936336969702e-01	-1.150647227554502e+01
 1.744034941702122e+00	 3.917886830785507e-01	-1.585049692993300e+01
 1.736209884029342e+00	 4.251252623334367e-01	-1.986135072566989e+01
 1.727700384612536e+00	 4.584840576219720e-01	-2.364739021962656e+01
 1.718500637779927e+00	 4.918453090576508e-01	-2.732102689019942e+01
 1.708605552438449e+00	 5.251888386822515e-01	-3.099840736661401e+01
 1.698010780897124e+00	 5.584940805994180e-01	-3.479906202496367e+01
 1.686712746298402e+00	 5.917401132162234e-01	-3.884552284631856e+01
 1.674708668490632e+00	 6.249056935280959e-01	-4.326291172281614e+01
 1.661996588177176e+00	 6.579692933681721e-01	-4.817850069153241e+01
 1.769949663161724e+00	 3.275334943568037e-01	 1.854607519462412e+01
 1.763428076141683e+00	 3.610005821847440e-01	 1.527804315999000e+01
 1.756230990246865e+00	 3.945284640797232e-01	 1.182822261793988e+01
 1.748351211891164e+00	 4.280981662666999e-01	 8.168233242414715e+00
 1.739782205485490e+00	 4.616902398442015e-01	 4.269593253246589e+00
 1.730518124758961e+00	 4.952847867446978e-01	 1.038363386302255e-01
 1.720553843016463e+00	 5.288614879053642e-01	-4.357366691438138e+00
 1.709884982163583e+00	 5.623996336123871e-01	-9.142082097611720e+00
 1.698507940329780e+00	 5.958781559679937e-01	-1.427798388860109e+01
 1.686419917921784e+00	 6.292756634151330e-01	-1.979222168182579e+01
 1.673618941941580e+00	 6.625704772403191e-01	-2.571128650095230e+01
 1.782240980267553e+00	 3.298080325121973e-01	 4.036748185259486e+01
 1.775674104448857e+00	 3.635075306725129e-01	 3.915090384543190e+01
 1.768427038790941e+00	 3.972682450808769e-01	 3.714311157844364e+01
 1.760492539752241e+00	 4.310710701999204e-01	 3.439059264513358e+01
 1.751864026357632e+00	 4.648964220663550e-01	 3.094393339493121e+01
 1.742535611737127e+00	 4.987242644316255e-01	 2.685776662987572e+01
 1.732502133593562e+00	 5.325341371283038e-01	 2.219069674973390e+01
 1.721759183429090e+00	 5.663051866251195e-01	 1.700520180326848e+01
 1.710303134360180e+00	 6.000161987194534e-01	 1.136751206137036e+01
 1.698131167351941e+00	 6.336456333017750e-01	 5.347464898078131e+00
 1.685241295704983e+00	 6.671716611119766e-01	-9.816640531994905e-01
 1.794532297372897e+00	 3.320825706675907e-01	 5.880984496061083e+01
 1.787920132755449e+00	 3.660144791602774e-01	 6.017193807637746e+01
 1.780623087334351e+00	 4.000080260820117e-01	 6.014274266919550e+01
 1.772633867612575e+00	 4.340439741330983e-01	 5.884286412442479e+01
 1.763945847228964e+00	 4.681026042884321e-01	 5.640116684791820e+01
 1.754553098714425e+00	 5.021637421184332e-01	 5.295455408661275e+01
 1.744450424169746e+00	 5.362067863510702e-01	 4.864769814120795e+01
 1.733633384693645e+00	 5.702107396376150e-01	 4.363272046347414e+01
 1.722098328389602e+00	 6.041542414706025e-01	 3.806882150723628e+01
 1.709842416781103e+00	 6.380156031880218e-01	 3.212186060011673e+01
 1.696863649467388e+00	 6.717728449831445e-01	 2.596388651921536e+01
 1.806823614477755e+00	 3.343571088229843e-01	 7.394212339844994e+01
 1.800166161061462e+00	 3.685214276480370e-01	 7.839934631834984e+01
 1.792819135877093e+00	 4.027478070831276e-01	 8.087436704740483e+01
 1.784775195472166e+00	 4.370168780662335e-01	 8.156117394270902e+01
 1.776027668099485e+00	 4.713087865104332e-01	 8.066613551632628e+01
 1.766570585690856e+00	 5.056032198051217e-01	 7.840761370193884e+01
 1.756398714745015e+00	 5.398794355736636e-01	 7.501550067880541e+01
 1.745507585957248e+00	 5.741162926498736e-01	 7.073067878065804e+01
 1.733893522418045e+00	 6.082922842214408e-01	 6.580440361047290e+01
 1.721553666209272e+00	 6.423855730738739e-01	 6.049761110609067e+01
 1.708486003228792e+00	 6.763740288538224e-01	 5.508014995073491e+01
 1.819114931582128e+00	 3.366316469783779e-01	 8.583141244550754e+01
 1.812412189366892e+00	 3.710283761357918e-01	 9.388975620013719e+01
 1.805015184419169e+00	 4.054875880842249e-01	 9.938395895619962e+01
 1.796916523331014e+00	 4.399897819993261e-01	 1.025806721162950e+02
 1.788109488969196e+00	 4.745149687323580e-01	 1.037630100357089e+02
 1.778588072666419e+00	 5.090426974916901e-01	 1.032299980304774e+02
 1.768347005319369e+00	 5.435520847960839e-01	 1.012959173250624e+02
 1.757381787219899e+00	 5.780218456618955e-01	 9.828954650259141e+01
 1.745688716445509e+00	 6.124303269719682e-01	 9.455329982910091e+01
 1.733264915636445e+00	 6.467555429593308e-01	 9.044226367153034e+01
 1.720108356989195e+00	 6.809752127240108e-01	 8.632313310949901e+01
 1.831406248686016e+00	 3.389061851337714e-01	 9.454300631686678e+01
 1.824658217671743e+00	 3.735353246235422e-01	 1.066982752926287e+02
 1.817211232960577e+00	 4.082273690853030e-01	 1.157162585731206e+02
 1.809057851189117e+00	 4.429626859323761e-01	 1.219355651742898e+02
 1.800191309838096e+00	 4.777211509542068e-01	 1.257153122977660e+02
 1.790605559641113e+00	 5.124821751781390e-01	 1.274344093496234e+02
 1.780295295892808e+00	 5.472247340183306e-01	 1.274907124937542e+02
 1.769255988481599e+00	 5.819273986736807e-01	 1.263000493383879e+02
 1.757483910471995e+00	 6.165683697221850e-01	 1.242951143763173e+02
 1.744976165062624e+00	 6.511255128443929e-01	 1.219242368703050e+02
 1.731730710748600e+00	 6.855763965937093e-01	 1.196500239848899e+02
 1.843697565789419e+00	 3.411807232891650e-01	 1.001404581979344e+02
 1.836904245976013e+00	 3.760422731112877e-01	 1.168785417765078e+02
 1.829407281501320e+00	 4.109671500863628e-01	 1.299148131446736e+02
 1.821199179046478e+00	 4.459355898653836e-01	 1.396591476071526e+02
 1.812273130706186e+00	 4.809273331759791e-01	 1.465459370740758e+02
 1.802623046614941e+00	 5.159216528644683e-01	 1.510332113343428e+02
 1.792243586465333e+00	 5.508973832404047e-01	 1.536016036670417e+02
 1.781130189742346e+00	 5.858329516852289e-01	 1.547531604252807e+02
 1.769279104497502e+00	 6.207064124720912e-01	 1.550099954607855e+02
 1.756687414487809e+00	 6.554954827290598e-01	 1.549127915494518e+02
 1.743353064507004e+00	 6.901775804629183e-01	 1.550191523155849e+02
 1.627129526877964e+00	 6.441657417487923e-01	-1.015209707123854e+02
 1.613989891498045e+00	 6.764145402254381e-01	-9.861568628950431e+01
 1.600155766523939e+00	 7.085206580967053e-01	-9.630769842421179e+01
 1.585627767319404e+00	 7.404624120079153e-01	-9.428096338001654e+01
 1.570407387515452e+00	 7.722179985775097e-01	-9.221172849507272e+01
 1.554497011975571e+00	 8.037655378569363e-01	-8.976971108768937e+01
 1.537899927230667e+00	 8.350831179629202e-01	-8.661934327025836e+01
 1.520620329275986e+00	 8.661488407132029e-01	-8.242107630979569e+01
 1.502663328635016e+00	 8.969408680863412e-01	-7.683273747759054e+01
 1.484034952609081e+00	 9.274374693167079e-01	-6.951093168306714e+01
 1.464742144646208e+00	 9.576170684275745e-01	-6.011247959761801e+01
 1.638751880645368e+00	 6.487669256224087e-01	-8.613319030773128e+01
 1.625518390726798e+00	 6.812460726600401e-01	-8.191473777526333e+01
 1.611585450574138e+00	 7.135815199449438e-01	-7.808492979519654e+01
 1.596953679946601e+00	 7.457514292413342e-01	-7.440559447593387e+01
 1.581624583143993e+00	 7.777338414292114e-01	-7.063291142560234e+01
 1.565600562064543e+00	 8.095067202746747e-01	-6.651830562132530e+01
 1.548884926714374e+00	 8.410479973809957e-01	-6.180939033517216e+01
 1.531481903060134e+00	 8.723356181503270e-01	-5.625095426903913e+01
 1.513396638129045e+00	 9.033475885753565e-01	-4.958598752975310e+01
 1.494635202274586e+00	 9.340620226707022e-01	-4.155674059174936e+01
 1.475204588540842e+00	 9.644571903455147e-01	-3.190580995509851e+01
 1.650374234411771e+00	 6.533681094955353e-01	-6.833551708658257e+01
 1.637046889954552e+00	 6.860776050940667e-01	-6.327644701250689e+01
 1.623015134623337e+00	 7.186423817925500e-01	-5.840074593682845e+01
 1.608279592572798e+00	 7.510404464740931e-01	-5.354728281408984e+01
 1.592841778771534e+00	 7.832496842802550e-01	-4.855131761191805e+01
 1.576704112152514e+00	 8.152479026917873e-01	-4.324511266776276e+01
 1.559869926197083e+00	 8.470128767985073e-01	-3.745857639974895e+01
 1.542343476843282e+00	 8.785223955869790e-01	-3.101993602551528e+01
 1.524129947622075e+00	 9.097543090640229e-01	-2.375643559521654e+01
 1.505235451939092e+00	 9.406865760245012e-01	-1.549505532302070e+01
 1.485667032434476e+00	 9.712973122634445e-01	-6.063247910355075e+00
 1.661996588177176e+00	 6.579692933681721e-01	-4.817850069153241e+01
 1.648575389181304e+00	 6.909091375275175e-01	-4.274144933909469e+01
 1.634444818671535e+00	 7.237032436395238e-01	-3.728579709988848e+01
 1.619605505197995e+00	 7.563294637061926e-01	-3.172664020889744e+01
 1.604058974398076e+00	 7.887655271306413e-01	-2.597748495436576e+01
 1.587807662239485e+00	 8.209890851082737e-01	-1.995057899276130e+01
 1.570854925678792e+00	 8.529777562154547e-01	-1.355725846134200e+01
 1.553205050625430e+00	 8.847091730231600e-01	-6.708309031630688e+00
 1.534863257114104e+00	 9.161610295523409e-01	 6.856611287525514e-01
 1.515835701602599e+00	 9.473111293781052e-01	 8.713838679542762e+00
 1.496129476327111e+00	 9.781374341813636e-01	 1.746481505401678e+01
 1.673618941941580e+00	 6.625704772403191e-01	-2.571128650095230e+01
 1.660103888407058e+00	 6.957406699603933e-01	-2.034925123246590e+01
 1.645874502718734e+00	 7.287641054858656e-01	-1.476988204482560e+01
 1.630931417822192e+00	 7.616184809376318e-01	-8.963705836544154e+00
 1.615276170023616e+00	 7.942813699803695e-01	-2.921658552737803e+00
 1.598911212325456e+00	 8.267302675241344e-01	 3.364861122398972e+00
 1.581839925159500e+00	 8.589426356318381e-01	 9.903938689013104e+00
 1.564066624406578e+00	 8.908959504588688e-01	 1.670309175010632e+01
 1.545596566605134e+00	 9.225677500403102e-01	 2.376921930974639e+01
 1.526435951265105e+00	 9.539356827315140e-01	 3.110855283723696e+01
 1.506591920218745e+00	 9.849775560992717e-01	 3.872660948124391e+01
 1.685241295704983e+00	 6.671716611119766e-01	-9.816640531994905e-01
 1.671632387631811e+00	 7.005722023926938e-01	 3.861730762825379e+00
 1.657304186764933e+00	 7.338249673315752e-01	 9.118022595187433e+00
 1.642257330445389e+00	 7.669074981684119e-01	 1.472203401754189e+01
 1.626493365648157e+00	 7.997972128294403e-01	 2.060619919584144e+01
 1.610014762410427e+00	 8.324714499393688e-01	 2.670078544911275e+01
 1.592824924639209e+00	 8.649075150476579e-01	 3.293413169957241e+01
 1.574928198186726e+00	 8.970827278941063e-01	 3.923290272547283e+01
 1.556329876095164e+00	 9.289744705279305e-01	 4.552235796638747e+01
 1.537036200926610e+00	 9.605602360847276e-01	 5.172663347415371e+01
 1.517054364109380e+00	 9.918176780171698e-01	 5.776903545553893e+01
 1.696863649467388e+00	 6.717728449831445e-01	 2.596388651921536e+01
 1.683160886855564e+00	 7.054037348244186e-01	 2.985413270733991e+01
 1.668733870810132e+00	 7.388858291766527e-01	 3.434973415790260e+01
 1.653583243067586e+00	 7.721965153985318e-01	 3.931162702276976e+01
 1.637710561271698e+00	 8.053130556778525e-01	 4.459639891401547e+01
 1.621118312494399e+00	 8.382126323539776e-01	 5.005678339739493e+01
 1.603809924117917e+00	 8.708723944629133e-01	 5.554218751142588e+01
 1.585789771965874e+00	 9.032695053288717e-01	 6.089924977109958e+01
 1.567063185584193e+00	 9.353811910152019e-01	 6.597242578383981e+01
 1.547636450587117e+00	 9.671847894377464e-01	 7.060459829190545e+01
 1.527516807999014e+00	 9.986577999350574e-01	 7.463770816459088e+01
 1.708486003228792e+00	 6.763740288538224e-01	 5.508014995073491e+01
 1.694689386078318e+00	 7.102352672555683e-01	 5.759160746256934e+01
 1.680163554854331e+00	 7.439466910210980e-01	 6.089783694489125e+01
 1.664909155688782e+00	 7.774855326279917e-01	 6.478663664036318e+01
 1.648927756894240e+00	 8.108288985256076e-01	 6.903951495651907e+01
 1.632221862577370e+00	 8.439538147679603e-01	 7.343245561873042e+01
 1.614794923595626e+00	 8.768372738776048e-01	 7.773673185067175e+01
 1.596651345744023e+00	 9.094562827631659e-01	 8.171976559816282e+01
 1.577796495072223e+00	 9.417879115021248e-01	 8.514602731440537e+01
 1.558236700246622e+00	 9.738093427905699e-01	 8.777797135558964e+01
 1.537979251887649e+00	 1.005497921852934e+00	 8.937700160236622e+01
 1.720108356989195e+00	 6.809752127240108e-01	 8.632313310949901e+01
 1.706217885300071e+00	 7.150667996861424e-01	 8.703879033827786e+01
 1.691593238897530e+00	 7.490075528649108e-01	 8.873565630931931e+01
 1.676235068308979e+00	 7.827745498567924e-01	 9.112912469667951e+01
 1.660144952515781e+00	 8.163447413727047e-01	 9.392637649903534e+01
 1.643325412659340e+00	 8.496949971813165e-01	 9.682741362502701e+01
 1.625779923072334e+00	 8.828021532917318e-01	 9.952615737632416e+01
 1.607512919521170e+00	 9.156430601969879e-01	 1.017116064121461e+02
 1.588529804559253e+00	 9.481946319886988e-01	 1.030690481159391e+02
 1.568836949905128e+00	 9.804338961431981e-01	 1.032813166614115e+02
 1.548441695775283e+00	 1.012338043770800e+00	 1.020300905001799e+02
 1.731730710748600e+00	 6.855763965937093e-01	 1.196500239848899e+02
 1.717746384520824e+00	 7.198983321161414e-01	 1.181612661231719e+02
 1.703022922939729e+00	 7.540684147080918e-01	 1.178372337871783e+02
 1.687560980928176e+00	 7.880635670849330e-01	 1.183216346582780e+02
 1.671362148136322e+00	 8.218605842191440e-01	 1.192480589858932e+02
 1.654428962740312e+00	 8.554361795940472e-01	 1.202412794229199e+02
 1.636764922548042e+00	 8.887670327052954e-01	 1.209186315001129e+02
 1.618374493297319e+00	 9.218298376303385e-01	 1.208914679017462e+02
 1.599263114045282e+00	 9.546013524749239e-01	 1.197666788779843e+02
 1.579437199562634e+00	 9.870584494956315e-01	 1.171482703525898e+02
 1.558904139661917e+00	 1.019178165688655e+00	 1.126389905692707e+02
 1.743353064507004e+00	 6.901775804629183e-01	 1.550191523155849e+02
 1.729274883740578e+00	 7.247298645455649e-01	 1.509255374343551e+02
 1.714452606980928e+00	 7.591292765506406e-01	 1.481773032232662e+02
 1.698886893546374e+00	 7.933525843124138e-01	 1.463471755759929e+02
 1.682579343755863e+00	 8.273764270649256e-01	 1.449958759198608e+02
 1.665532512820283e+00	 8.611773620061519e-01	 1.436736851627073e+02
 1.647749922022751e+00	 8.947319121182951e-01	 1.419221038935040e+02
 1.629236067072467e+00	 9.280166150632179e-01	 1.392756005882244e+02
 1.609996423530313e+00	 9.610080729608007e-01	 1.352634385828644e+02
 1.590037449219140e+00	 9.936830028478698e-01	 1.294115716466337e+02
 1.569366583547552e+00	 1.026018287606500e+00	 1.212445971336795e+02
 1.464742144646208e+00	 9.576170684275745e-01	-6.011247959761801e+01
 1.444792760779105e+00	 9.874582919979614e-01	-5.501243409727688e+01
 1.424195563096069e+00	 1.016940016954224e+00	-5.043357273274221e+01
 1.402960210228699e+00	 1.046041418172352e+00	-4.668477675284593e+01
 1.381097244858090e+00	 1.074742015674165e+00	-4.407373326556038e+01
 1.358618078255741e+00	 1.103021721200889e+00	-4.290560543943677e+01
 1.335534971896006e+00	 1.130860883947535e+00	-4.348170225141467e+01
 1.311861016194242e+00	 1.158240335244118e+00	-4.609815676105754e+01
 1.287610106442683e+00	 1.185141431973866e+00	-5.104462192490507e+01
 1.262796916033438e+00	 1.211546098524362e+00	-5.860299290587079e+01
 1.237436867075000e+00	 1.237436867075000e+00	-6.904616468105479e+01
 1.475204588540842e+00	 9.644571903455147e-01	-3.190580995509851e+01
 1.455112709074938e+00	 9.945115655117275e-01	-2.986800676274867e+01
 1.434368388551411e+00	 1.024203874216805e+00	-2.809600734298743e+01
 1.412981354592089e+00	 1.053513142585853e+00	-2.682678278742734e+01
 1.390962225182928e+00	 1.082418744355134e+00	-2.629687508698413e+01
 1.368322493104510e+00	 1.110900447778312e+00	-2.674137796610217e+01
 1.345074507413148e+00	 1.138938461687509e+00	-2.839291478938716e+01
 1.321231452027168e+00	 1.166513480493667e+00	-3.148062041393504e+01
 1.296807321490887e+00	 1.193606727914892e+00	-3.622913390801669e+01
 1.271816894006361e+00	 1.220199999227256e+00	-4.285760903343834e+01
 1.246275701840000e+00	 1.246275701840000e+00	-5.157874929430440e+01
 1.485667032434476e+00	 9.712973122634445e-01	-6.063247910355075e+00
 1.465432657369780e+00	 1.001564839025664e+00	-6.691391009395145e+00
 1.444541214005794e+00	 1.031467731479696e+00	-7.334553228610554e+00
 1.423002498954569e+00	 1.060984866999766e+00	-8.158568551996851e+00
 1.400827205506926e+00	 1.090095473036578e+00	-9.329599314835988e+00
 1.378026907952530e+00	 1.118779174356233e+00	-1.101342487091722e+01
 1.354614042929651e+00	 1.147016039427960e+00	-1.337472487928609e+01
 1.330601887859582e+00	 1.174786625743633e+00	-1.657636199479238e+01
 1.306004536538730e+00	 1.202072023856238e+00	-2.077866880769256e+01
 1.280836871979093e+00	 1.228853899930329e+00	-2.613874388937795e+01
 1.255114536605000e+00	 1.255114536605000e+00	-3.280976176320058e+01
 1.496129476327111e+00	 9.781374341813636e-01	 1.746481505401678e+01
 1.475752605663633e+00	 1.008618112539770e+00	 1.455870795344009e+01
 1.454714039459216e+00	 1.038731588742899e+00	 1.188386704762213e+01
 1.433023643316138e+00	 1.068456591414092e+00	 9.344838630403681e+00
 1.410692185830083e+00	 1.097772201718495e+00	 6.845090621455673e+00
 1.387731322799798e+00	 1.126657900934648e+00	 4.287418807109239e+00
 1.364153578445512e+00	 1.155093617168889e+00	 1.574360893888798e+00
 1.339972323691486e+00	 1.183059770994018e+00	-1.391384337866940e+00
 1.315201751586213e+00	 1.210537319797904e+00	-4.706535567420920e+00
 1.289856849951636e+00	 1.237507800633582e+00	-8.466807987894555e+00
 1.263953371370000e+00	 1.263953371370000e+00	-1.276649573312734e+01
 1.506591920218745e+00	 9.849775560992717e-01	 3.872660948124391e+01
 1.486072553956495e+00	 1.015671386054045e+00	 3.392243787228011e+01
 1.464886864911678e+00	 1.045995446006413e+00	 2.959141213187772e+01
 1.443044787676797e+00	 1.075928315828831e+00	 2.570771777121777e+01
 1.420557166152399e+00	 1.105448930400887e+00	 2.224371917886675e+01
 1.397435737646315e+00	 1.134536627513560e+00	 1.917006345358724e+01
 1.373693113960733e+00	 1.163171194910295e+00	 1.645579446187002e+01
 1.349342759522880e+00	 1.191332916244822e+00	 1.406847646221361e+01
 1.324398966633336e+00	 1.219002615739889e+00	 1.197432655025954e+01
 1.298876827923988e+00	 1.246161701337016e+00	 1.013835509760705e+01
 1.272792206135000e+00	 1.272792206135000e+00	 8.524513283564584e+00
 1.517054364109380e+00	 9.918176780171698e-01	 5.776903545553893e+01
 1.496392502248367e+00	 1.022724659568490e+00	 5.143883900161097e+01
 1.475059690363180e+00	 1.053259303270238e+00	 4.581935356059881e+01
 1.453065932036545e+00	 1.083400040243982e+00	 4.095367813481084e+01
 1.430422146473876e+00	 1.113125659083753e+00	 3.688235497953833e+01
 1.407140152492082e+00	 1.142415354092968e+00	 3.364317365624014e+01
 1.383232649475314e+00	 1.171248772652179e+00	 3.127098770266410e+01
 1.358713195353763e+00	 1.199606061496045e+00	 2.979754529992816e+01
 1.333596181680099e+00	 1.227467911682194e+00	 2.925133521533498e+01
 1.307896805896150e+00	 1.254815602040628e+00	 2.965744918409325e+01
 1.281631040900000e+00	 1.281631040900000e+00	 3.103746176434960e+01
 1.527516807999014e+00	 9.986577999350574e-01	 7.463770816459088e+01
 1.506712450539249e+00	 1.029777933083105e+00	 6.714588203055358e+01
 1.485232515813721e+00	 1.060523160534374e+00	 6.059810613987645e+01
 1.463087076395382e+00	 1.090871764659546e+00	 5.510568217396011e+01
 1.440287126794510e+00	 1.120802387767094e+00	 5.077662642055376e+01
 1.416844567337098e+00	 1.150294080672872e+00	 4.771517662168301e+01
 1.392772184989253e+00	 1.179326350394540e+00	 4.602131381134964e+01
 1.368083631184136e+00	 1.207879206747686e+00	 4.579030254468409e+01
 1.342793396726501e+00	 1.235933207624818e+00	 4.711225280580283e+01
 1.316916783868122e+00	 1.263469502744421e+00	 5.007170673191293e+01
 1.290469875665000e+00	 1.290469875665000e+00	 5.474725310770041e+01
 1.537979251887649e+00	 1.005497921852934e+00	 8.937700160236622e+01
 1.517032398829141e+00	 1.036831206597890e+00	 8.108050446151323e+01
 1.495405341263303e+00	 1.067787017798821e+00	 7.395725708485379e+01
 1.473108220753309e+00	 1.098343489075522e+00	 6.818606752920897e+01
 1.450152107114305e+00	 1.128479116450908e+00	 6.394173664658232e+01
 1.426548982181364e+00	 1.158172807253272e+00	 6.139427024866296e+01
 1.402311720502552e+00	 1.187403928137378e+00	 6.070810861492534e+01
 1.377454067013998e+00	 1.216152351999745e+00	 6.204137875171214e+01
 1.351990611772543e+00	 1.244398503567761e+00	 6.554517468212157e+01
 1.325936761839904e+00	 1.272123403448393e+00	 7.136287086300003e+01
 1.299308710430000e+00	 1.299308710430000e+00	 7.962947358747998e+01
 1.548441695775283e+00	 1.012338043770800e+00	 1.020300905001799e+02
 1.527352347118043e+00	 1.043884480112846e+00	 9.327864551402318e+01
 1.505578166711924e+00	 1.075050875063579e+00	 8.592559397780732e+01
 1.483129365110326e+00	 1.105815213491911e+00	 8.021656813635677e+01
 1.460017087433259e+00	 1.136155845135198e+00	 7.639247791553402e+01
 1.436253397024878e+00	 1.166051533834168e+00	 7.468843087401213e+01
 1.411851256015211e+00	 1.195481505880694e+00	 7.533267183386280e+01
 1.386824502843350e+00	 1.224425497252223e+00	 7.854554958738832e+01
 1.361187826818225e+00	 1.252863799511024e+00	 8.453851793702469e+01
 1.334956739811496e+00	 1.280777304152546e+00	 9.351317810806938e+01
 1.308147545195000e+00	 1.308147545195000e+00	 1.056603692821627e+02
 1.558904139661917e+00	 1.019178165688655e+00	 1.126389905692707e+02
 1.537672295405955e+00	 1.050937753627970e+00	 1.037752796230691e+02
 1.515750992159585e+00	 1.082314732328648e+00	 9.653113160040195e+01
 1.493150509466432e+00	 1.113286937908712e+00	 9.121833448398957e+01
 1.469882067751373e+00	 1.143832573819961e+00	 8.814324538572970e+01
 1.445957811867642e+00	 1.173930260415559e+00	 8.760542070668353e+01
 1.421390791527228e+00	 1.203559083624488e+00	 8.989626829285751e+01
 1.396194938672191e+00	 1.232698642505121e+00	 9.529773095890795e+01
 1.370385041863546e+00	 1.261329095454607e+00	 1.040810105983654e+02
 1.343976717782898e+00	 1.289431204856878e+00	 1.165053418485600e+02
 1.316986379960000e+00	 1.316986379960000e+00	 1.328168239330798e+02
 1.569366583547552e+00	 1.026018287606500e+00	 1.212445971336795e+02
 1.547992243692877e+00	 1.057991027143265e+00	 1.126044485974846e+02
 1.525923817606285e+00	 1.089578589594028e+00	 1.058011376926617e+02
 1.503171653821628e+00	 1.120758662325927e+00	 1.012119530607125e+02
 1.479747048068645e+00	 1.151509302505199e+00	 9.920805035159304e+01
 1.455662226709656e+00	 1.181808986997448e+00	 1.001527949644340e+02
 1.430930327038606e+00	 1.211636661368759e+00	 1.044001290831552e+02
 1.405565374500522e+00	 1.240971787758436e+00	 1.122929743387780e+02
 1.379582256908508e+00	 1.269794391398509e+00	 1.241616812638508e+02
 1.352996695754110e+00	 1.298085105561391e+00	 1.403225364209057e+02
 1.325825214725000e+00	 1.325825214725000e+00	 1.610763376883406e+02
 1.237436867075000e+00	 1.237436867075000e+00	-6.904616468105479e+01
 1.211546098524362e+00	 1.262796916033438e+00	-7.114847532677601e+01
 1.185141431973866e+00	 1.287610106442683e+00	-6.996331742315350e+01
 1.158240335244119e+00	 1.311861016194243e+00	-6.515830592174913e+01
 1.130860883947535e+00	 1.335534971896005e+00	-5.641645787370377e+01
 1.103021721200889e+00	 1.358618078255741e+00	-4.343749954120205e+01
 1.074742015674166e+00	 1.381097244858090e+00	-2.593907763912380e+01
 1.046041418172353e+00	 1.402960210228699e+00	-3.657867144901241e+00
 1.016940016954224e+00	 1.424195563096068e+00	 2.364943096145706e+01
 9.874582919979624e-01	 1.444792760779105e+00	 5.620520768244980e+01
 9.576170684275745e-01	 1.464742144646208e+00	 9.421018433972544e+01
 1.246275701840000e+00	 1.246275701840000e+00	-5.157874929430440e+01
 1.220199999227256e+00	 1.271816894006361e+00	-4.913160710635800e+01
 1.193606727914892e+00	 1.296807321490887e+00	-4.468068869595408e+01
 1.166513480493667e+00	 1.321231452027167e+00	-3.796880420526690e+01
 1.138938461687509e+00	 1.345074507413148e+00	-2.874876552343214e+01
 1.110900447778313e+00	 1.368322493104510e+00	-1.678441679872745e+01
 1.082418744355135e+00	 1.390962225182927e+00	-1.851600610182317e+00
 1.053513142585854e+00	 1.412981354592089e+00	 1.626094631572732e+01
 1.024203874216806e+00	 1.434368388551411e+00	 3.775077331979758e+01
 9.945115655117286e-01	 1.455112709074937e+00	 6.280097674510804e+01
 9.644571903455147e-01	 1.475204588540842e+00	 9.157954565286458e+01
 1.255114536605000e+00	 1.255114536605000e+00	-3.280976176320058e+01
 1.228853899930329e+00	 1.280836871979093e+00	-2.625092858854581e+01
 1.202072023856238e+00	 1.306004536538730e+00	-1.895330505708017e+01
 1.174786625743633e+00	 1.330601887859582e+00	-1.073410658011319e+01
 1.147016039427960e+00	 1.354614042929651e+00	-1.415201613539714e+00
 1.118779174356233e+00	 1.378026907952529e+00	 9.176131959515773e+00
 1.090095473036578e+00	 1.400827205506926e+00	 2.120648352831034e+01
 1.060984866999767e+00	 1.423002498954568e+00	 3.483562421524380e+01
 1.031467731479697e+00	 1.444541214005793e+00	 5.021586342255706e+01
 1.001564839025664e+00	 1.465432657369779e+00	 6.749145139487581e+01
 9.712973122634446e-01	 1.485667032434477e+00	 8.679803129718424e+01
 1.263953371370000e+00	 1.263953371370000e+00	-1.276649573312734e+01
 1.237507800633582e+00	 1.289856849951636e+00	-2.524549728514641e+00
 1.210537319797904e+00	 1.315201751586213e+00	 7.209514768713548e+00
 1.183059770994018e+00	 1.339972323691486e+00	 1.654485043043211e+01
 1.155093617168889e+00	 1.364153578445512e+00	 2.559125501963819e+01
 1.126657900934648e+00	 1.387731322799797e+00	 3.445868671939557e+01
 1.097772201718496e+00	 1.410692185830083e+00	 4.325678155096480e+01
 1.068456591414093e+00	 1.433023643316137e+00	 5.209437613649004e+01
 1.038731588742900e+00	 1.454714039459216e+00	 6.107903898895086e+01
 1.008618112539770e+00	 1.475752605663632e+00	 7.031661340757249e+01
 9.781374341813637e-01	 1.496129476327111e+00	 7.991077492218604e+01
 1.272792206135000e+00	 1.272792206135000e+00	 8.524513283564584e+00
 1.246161701337015e+00	 1.298876827923988e+00	 2.202992254333222e+01
 1.219002615739890e+00	 1.324398966633336e+00	 3.379871087500774e+01
 1.191332916244822e+00	 1.349342759522880e+00	 4.386715627707332e+01
 1.163171194910296e+00	 1.373693113960733e+00	 5.227743046164704e+01
 1.134536627513560e+00	 1.397435737646315e+00	 5.907738352742520e+01
 1.105448930400887e+00	 1.420557166152399e+00	 6.432029998847283e+01
 1.075928315828831e+00	 1.443044787676796e+00	 6.806462800236451e+01
 1.045995446006414e+00	 1.464886864911678e+00	 7.037368384774872e+01
 1.015671386054046e+00	 1.486072553956495e+00	 7.131533388492672e+01
 9.849775560992720e-01	 1.506591920218745e+00	 7.096165639158609e+01
 1.281631040900000e+00	 1.281631040900000e+00	 3.103746176434960e+01
 1.254815602040628e+00	 1.307896805896150e+00	 4.739536697505338e+01
 1.227467911682194e+00	 1.333596181680099e+00	 6.080547324838107e+01
 1.199606061496045e+00	 1.358713195353763e+00	 7.123192548834008e+01
 1.171248772652179e+00	 1.383232649475313e+00	 7.864996244629947e+01
 1.142415354092968e+00	 1.407140152492081e+00	 8.304596841932451e+01
 1.113125659083754e+00	 1.430422146473875e+00	 8.441746582535329e+01
 1.083400040243983e+00	 1.453065932036545e+00	 8.277304909831656e+01
 1.053259303270239e+00	 1.475059690363180e+00	 7.813226082984644e+01
 1.022724659568491e+00	 1.496392502248366e+00	 7.052541155353940e+01
 9.918176780171699e-01	 1.517054364109380e+00	 5.999334501721788e+01
 1.290469875665000e+00	 1.290469875665000e+00	 5.474725310770041e+01
 1.263469502744421e+00	 1.316916783868122e+00	 7.355513135972228e+01
 1.235933207624818e+00	 1.342793396726501e+00	 8.822123320987026e+01
 1.207879206747686e+00	 1.368083631184136e+00	 9.863829681125637e+01
 1.179326350394540e+00	 1.392772184989253e+00	 1.047153068056418e+02
 1.150294080672872e+00	 1.416844567337098e+00	 1.063778107761756e+02
 1.120802387767094e+00	 1.440287126794510e+00	 1.035681463471051e+02
 1.090871764659547e+00	 1.463087076395382e+00	 9.624557798433040e+01
 1.060523160534375e+00	 1.485232515813721e+00	 8.438634330908880e+01
 1.029777933083107e+00	 1.506712450539249e+00	 6.798360948991544e+01
 9.986577999350573e-01	 1.527516807999014e+00	 4.704734101620095e+01
 1.299308710430000e+00	 1.299308710430000e+00	 7.962947358747998e+01
 1.272123403448393e+00	 1.325936761839904e+00	 1.004930165809007e+02
 1.244398503567761e+00	 1.351990611772543e+00	 1.160376552057591e+02
 1.216152351999746e+00	 1.377454067013998e+00	 1.260854323870890e+02
 1.187403928137379e+00	 1.402311720502552e+00	 1.304797436566510e+02
 1.158172807253272e+00	 1.426548982181363e+00	 1.290859161354317e+02
 1.128479116450909e+00	 1.450152107114305e+00	 1.217916681772754e+02
 1.098343489075523e+00	 1.473108220753309e+00	 1.085074473492779e+02
 1.067787017798822e+00	 1.495405341263302e+00	 8.916664545571273e+01
 1.036831206597892e+00	 1.517032398829141e+00	 6.372569034651723e+01
 1.005497921852934e+00	 1.537979251887649e+00	 3.216401527597937e+01
 1.308147545195000e+00	 1.308147545195000e+00	 1.056603692821627e+02
 1.280777304152546e+00	 1.334956739811497e+00	 1.281932613049215e+02
 1.252863799511024e+00	 1.361187826818225e+00	 1.442466289311802e+02
 1.224425497252224e+00	 1.386824502843349e+00	 1.535725169605145e+02
 1.195481505880695e+00	 1.411851256015210e+00	 1.559493833371319e+02
 1.166051533834168e+00	 1.436253397024877e+00	 1.511829384825643e+02
 1.136155845135198e+00	 1.460017087433259e+00	 1.391068355427572e+02
 1.105815213491912e+00	 1.483129365110326e+00	 1.195832078576632e+02
 1.075050875063580e+00	 1.505578166711923e+00	 9.250305126330277e+01
 1.043884480112846e+00	 1.527352347118043e+00	 5.778645014973255e+01
 1.012338043770800e+00	 1.548441695775283e+00	 1.538264750726726e+01
 1.316986379960000e+00	 1.316986379960000e+00	 1.328168239330798e+02
 1.289431204856878e+00	 1.343976717782898e+00	 1.566405272895890e+02
 1.261329095454607e+00	 1.370385041863546e+00	 1.728402617708841e+02
 1.232698642505121e+00	 1.396194938672191e+00	 1.810987571206308e+02
 1.203559083624488e+00	 1.421390791527228e+00	 1.811301721025750e+02
 1.173930260415560e+00	 1.445957811867642e+00	 1.726811920477437e+02
 1.143832573819962e+00	 1.469882067751372e+00	 1.555319478035717e+02
 1.113286937908713e+00	 1.493150509466432e+00	 1.294967510360975e+02
 1.082314732328649e+00	 1.515750992159584e+00	 9.442464240687347e+01
 1.050937753627971e+00	 1.537672295405955e+00	 5.019975073685616e+01
 1.019178165688655e+00	 1.558904139661917e+00	-3.258537139367021e+00
 1.325825214725000e+00	 1.325825214725000e+00	 1.610763376883406e+02
 1.298085105561391e+00	 1.352996695754110e+00	 1.858198852805402e+02
 1.269794391398509e+00	 1.379582256908508e+00	 2.018108715423903e+02
 1.240971787758436e+00	 1.405565374500522e+00	 2.086633805723376e+02
 1.211636661368759e+00	 1.430930327038606e+00	 2.060278975951554e+02
 1.181808986997448e+00	 1.455662226709656e+00	 1.935926626306565e+02
 1.151509302505200e+00	 1.479747048068645e+00	 1.710848162814600e+02
 1.120758662325928e+00	 1.503171653821628e+00	 1.382713312443179e+02
 1.089578589594029e+00	 1.525923817606285e+00	 9.495972498663367e+01
 1.057991027143266e+00	 1.547992243692877e+00	 4.099855089558940e+01
 1.026018287606500e+00	 1.569366583547552e+00	-2.372233292157966e+01
 9.576170684275745e-01	 1.464742144646208e+00	 9.421018433972544e+01
 9.274374693167079e-01	 1.484034952609081e+00	 1.183029811127283e+02
 8.969408680863412e-01	 1.502663328635016e+00	 1.334792052697890e+02
 8.661488407132029e-01	 1.520620329275986e+00	 1.395120865188216e+02
 8.350831179629206e-01	 1.537899927230666e+00	 1.362145640171225e+02
 8.037655378569366e-01	 1.554497011975572e+00	 1.234393525493355e+02
 7.722179985775102e-01	 1.570407387515452e+00	 1.010787987802594e+02
 7.404624120079161e-01	 1.585627767319404e+00	 6.906453351447041e+01
 7.085206580967063e-01	 1.600155766523939e+00	 2.736692739254289e+01
 6.764145402254393e-01	 1.613989891498045e+00	-2.400564116828911e+01
 6.441657417487923e-01	 1.627129526877964e+00	-8.500769573505940e+01
 9.644571903455147e-01	 1.475204588540842e+00	 9.157954565286458e+01
 9.340620226707020e-01	 1.494635202274587e+00	 1.044612662674415e+02
 9.033475885753567e-01	 1.513396638129045e+00	 1.118457157248482e+02
 8.723356181503269e-01	 1.531481903060134e+00	 1.135410588327246e+02
 8.410479973809958e-01	 1.548884926714374e+00	 1.093816476263031e+02
 8.095067202746751e-01	 1.565600562064542e+00	 9.922823891447035e+01
 7.777338414292119e-01	 1.581624583143993e+00	 8.296806836149406e+01
 7.457514292413349e-01	 1.596953679946601e+00	 6.051478404698882e+01
 7.135815199449446e-01	 1.611585450574138e+00	 3.180824351076166e+01
 6.812460726600413e-01	 1.625518390726798e+00	-3.185820719367126e+00
 6.487669256224087e-01	 1.638751880645368e+00	-4.447626120906433e+01
 9.712973122634446e-01	 1.485667032434477e+00	 8.679803129718424e+01
 9.406865760245010e-01	 1.505235451939093e+00	 8.883882466060035e+01
 9.097543090640229e-01	 1.524129947622075e+00	 8.875172630500344e+01
 8.785223955869794e-01	 1.542343476843282e+00	 8.637959758294137e+01
 8.470128767985073e-01	 1.559869926197083e+00	 8.157809363792990e+01
 8.152479026917877e-01	 1.576704112152514e+00	 7.421603073742240e+01
 7.832496842802557e-01	 1.592841778771534e+00	 6.417567603563253e+01
 7.510404464740938e-01	 1.608279592572798e+00	 5.135295974511138e+01
 7.186423817925509e-01	 1.623015134623336e+00	 3.565761032978213e+01
 6.860776050940676e-01	 1.637046889954551e+00	 1.701321394014042e+01
 6.533681094955354e-01	 1.650374234411771e+00	-4.642800112867941e+00
 9.781374341813637e-01	 1.496129476327111e+00	 7.991077492218604e+01
 9.473111293781052e-01	 1.515835701602599e+00	 7.147302440581628e+01
 9.161610295523410e-01	 1.534863257114104e+00	 6.422788691129638e+01
 8.847091730231601e-01	 1.553205050625430e+00	 5.805268678805104e+01
 8.529777562154551e-01	 1.570854925678792e+00	 5.282427482312693e+01
 8.209890851082741e-01	 1.587807662239485e+00	 4.841954381304532e+01
 7.887655271306419e-01	 1.604058974398075e+00	 4.471593190496282e+01
 7.563294637061935e-01	 1.619605505197995e+00	 4.159191074751650e+01
 7.237032436395248e-01	 1.634444818671535e+00	 3.892745569875570e+01
 6.909091375275186e-01	 1.648575389181304e+00	 3.660449556613310e+01
 6.579692933681720e-01	 1.661996588177175e+00	 3.450733959822684e+01
 9.849775560992720e-01	 1.506591920218745e+00	 7.096165639158609e+01
 9.539356827315137e-01	 1.526435951265105e+00	 5.240019553631113e+01
 9.225677500403102e-01	 1.545596566605134e+00	 3.830399597766803e+01
 8.908959504588690e-01	 1.564066624406578e+00	 2.858461638163584e+01
 8.589426356318386e-01	 1.581839925159500e+00	 2.313999795491384e+01
 8.267302675241348e-01	 1.598911212325456e+00	 2.185512673988597e+01
 7.942813699803704e-01	 1.615276170023616e+00	 2.460274847514913e+01
 7.616184809376328e-01	 1.630931417822191e+00	 3.124413014812806e+01
 7.287641054858667e-01	 1.645874502718734e+00	 4.162986214987954e+01
 6.957406699603945e-01	 1.660103888407058e+00	 5.560069479234063e+01
 6.625704772403191e-01	 1.673618941941579e+00	 7.298840286447037e+01
 9.918176780171699e-01	 1.517054364109380e+00	 5.999334501721788e+01
 9.605602360847276e-01	 1.537036200926611e+00	 3.165566580075846e+01
 9.289744705279306e-01	 1.556329876095164e+00	 1.100902983191138e+01
 8.970827278941061e-01	 1.574928198186726e+00	-2.000993853686417e+00
 8.649075150476579e-01	 1.592824924639208e+00	-7.455476674497248e+00
 8.324714499393694e-01	 1.610014762410427e+00	-5.461322969435020e+00
 7.997972128294406e-01	 1.626493365648157e+00	 3.849654365663177e+00
 7.669074981684126e-01	 1.642257330445388e+00	 2.032176630824275e+01
 7.338249673315762e-01	 1.657304186764933e+00	 4.377657880615408e+01
 7.005722023926947e-01	 1.671632387631810e+00	 7.401413261760456e+01
 6.671716611119766e-01	 1.685241295704983e+00	 1.108142415600865e+02
 9.986577999350573e-01	 1.527516807999014e+00	 4.704734101620095e+01
 9.671847894377462e-01	 1.547636450587116e+00	 9.273794988063933e+00
 9.353811910152018e-01	 1.567063185584193e+00	-1.762882914999047e+01
 9.032695053288720e-01	 1.585789771965874e+00	-3.368117133581566e+01
 8.708723944629133e-01	 1.603809924117917e+00	-3.894341653849088e+01
 8.382126323539778e-01	 1.621118312494398e+00	-3.351434343991484e+01
 8.053130556778535e-01	 1.637710561271698e+00	-1.753019254322419e+01
 7.721965153985323e-01	 1.653583243067585e+00	 8.836634662685519e+00
 7.388858291766537e-01	 1.668733870810132e+00	 4.537903279978332e+01
 7.054037348244198e-01	 1.683160886855564e+00	 9.185679237998301e+01
 6.717728449831446e-01	 1.696863649467388e+00	 1.479983279547736e+02
 1.005497921852934e+00	 1.537979251887649e+00	 3.216401527597937e+01
 9.738093427905699e-01	 1.558236700246622e+00	-1.471199214886680e+01
 9.417879115021248e-01	 1.577796495072223e+00	-4.758216553868056e+01
 9.094562827631661e-01	 1.596651345744022e+00	-6.643356866947961e+01
 8.768372738776050e-01	 1.614794923595625e+00	-7.130559892472139e+01
 8.439538147679604e-01	 1.632221862577369e+00	-6.228889361640220e+01
 8.108288985256082e-01	 1.648927756894240e+00	-3.952399250006685e+01
 7.774855326279926e-01	 1.664909155688782e+00	-3.199770955923000e+00
 7.439466910210989e-01	 1.680163554854331e+00	 4.644834022451711e+01
 7.102352672555692e-01	 1.694689386078317e+00	 1.091403312421163e+02
 6.763740288538225e-01	 1.708486003228792e+00	 1.845537676257556e+02
 1.012338043770800e+00	 1.548441695775283e+00	 1.538264750726726e+01
 9.804338961431978e-01	 1.568836949905128e+00	-4.026917430410482e+01
 9.481946319886988e-01	 1.588529804559253e+00	-7.882430494105003e+01
 9.156430601969882e-01	 1.607512919521170e+00	-1.002364425249880e+02
 8.828021532917325e-01	 1.625779923072334e+00	-1.045242937115434e+02
 8.496949971813170e-01	 1.643325412659341e+00	-9.177033904655177e+01
 8.163447413727055e-01	 1.660144952515780e+00	-6.211929178309587e+01
 7.827745498567932e-01	 1.676235068308980e+00	-1.577626745198936e+01
 7.490075528649117e-01	 1.691593238897529e+00	 4.699531664397506e+01
 7.150667996861435e-01	 1.706217885300070e+00	 1.258760912109681e+02
 6.809752127240106e-01	 1.720108356989195e+00	 2.204933118463684e+02
 1.019178165688655e+00	 1.558904139661917e+00	-3.258537139367021e+00
 9.870584494956313e-01	 1.579437199562634e+00	-6.736610330171723e+01
 9.546013524749237e-01	 1.599263114045282e+00	-1.113292891332305e+02
 9.218298376303387e-01	 1.618374493297318e+00	-1.350686333675061e+02
 8.887670327052957e-01	 1.636764922548042e+00	-1.385822468380067e+02
 8.554361795940475e-01	 1.654428962740311e+00	-1.219444382362785e+02
 8.218605842191447e-01	 1.671362148136321e+00	-8.530397108828814e+01
 7.880635670849336e-01	 1.687560980928176e+00	-2.888197203929624e+01
 7.540684147080928e-01	 1.703022922939728e+00	 4.703048717682324e+01
 7.198983321161423e-01	 1.717746384520824e+00	 1.420751097138176e+02
 6.855763965937093e-01	 1.731730710748600e+00	 2.558293694757808e+02
 1.026018287606500e+00	 1.569366583547552e+00	-2.372233292157966e+01
 9.936830028478698e-01	 1.590037449219140e+00	-9.597197499146463e+01
 9.610080729608007e-01	 1.609996423530313e+00	-1.450718521882671e+02
 9.280166150632180e-01	 1.629236067072467e+00	-1.709095459971629e+02
 8.947319121182953e-01	 1.647749922022751e+00	-1.734626644350583e+02
 8.611773620061525e-01	 1.665532512820283e+00	-1.527973295509925e+02
 8.273764270649263e-01	 1.682579343755863e+00	-1.090662343819140e+02
 7.933525843124147e-01	 1.698886893546373e+00	-4.250629223045743e+01
 7.591292765506416e-01	 1.714452606980927e+00	 4.656409617853544e+01
 7.247298645455660e-01	 1.729274883740578e+00	 1.577481297512143e+02
 6.901775804629183e-01	 1.743353064507004e+00	 2.905740183731226e+02
 6.441657417487923e-01	 1.627129526877964e+00	-8.500769573505940e+01
 6.117957838646149e-01	 1.639574920191208e+00	-1.269121135167531e+02
 5.793259849590476e-01	 1.651327164198396e+00	-1.554707127343173e+02
 5.467774215590897e-01	 1.662388177092036e+00	-1.709958197553515e+02
 5.141708910118744e-01	 1.672760680698918e+00	-1.738407685085306e+02
 4.815268759957917e-01	 1.682448176837619e+00	-1.643972011750366e+02
 4.488655109548267e-01	 1.691454921988814e+00	-1.430922693935473e+02
 4.162065505333923e-01	 1.699785900439417e+00	-1.103857574831895e+02
 3.835693400749210e-01	 1.707446796063892e+00	-6.676714884396469e+01
 3.509727882336220e-01	 1.714443962907183e+00	-1.275265616640038e+01
 3.184353417352296e-01	 1.720784394733555e+00	 5.111776461242289e+01
 6.487669256224087e-01	 1.638751880645368e+00	-4.447626120906433e+01
 6.161657537528369e-01	 1.651286169625344e+00	-6.809822659261377e+01
 5.834640277117503e-01	 1.663122358232710e+00	-8.410693629854273e+01
 5.506829745727695e-01	 1.674262378361350e+00	-9.270678737806234e+01
 5.178435402355067e-01	 1.684708971279677e+00	-9.412613360929637e+01
 4.849663536831978e-01	 1.694465663819255e+00	-8.861560137433638e+01
 4.520716931772849e-01	 1.703536742864199e+00	-7.644635070291633e+01
 4.191794544667834e-01	 1.711927228303469e+00	-5.790829463260698e+01
 3.863091210761500e-01	 1.719642844610636e+00	-3.330828977888197e+01
 3.534797367214098e-01	 1.726689991216679e+00	-2.968310642435306e+00
 3.207098798906232e-01	 1.733075711841326e+00	 3.277638028418062e+01
 6.533681094955354e-01	 1.650374234411771e+00	-4.642800112867941e+00
 6.205357236406640e-01	 1.662997419058485e+00	-9.808430064226691e+00
 5.876020704641420e-01	 1.674917552266045e+00	-1.301522364933883e+01
 5.545885275862121e-01	 1.686136579629713e+00	-1.436111709517958e+01
 5.215161894589658e-01	 1.696657261859521e+00	-1.395110616880561e+01
 4.884058313704844e-01	 1.706483150800025e+00	-1.189656779669409e+01
 4.552778753996668e-01	 1.715618563738773e+00	-8.314571156449361e+00
 4.221523584001318e-01	 1.724068556166777e+00	-3.327183106143998e+00
 3.890489020773603e-01	 1.731838893156712e+00	 2.939227352515402e+00
 3.559866852091929e-01	 1.738936019525595e+00	 1.035468108673452e+01
 3.229844180460166e-01	 1.745367028948611e+00	 1.878627306843887e+01
 6.579692933681720e-01	 1.661996588177175e+00	 3.450733959822684e+01
 6.249056935280957e-01	 1.674708668490631e+00	 4.796828020836127e+01
 5.917401132162232e-01	 1.686712746298402e+00	 5.781014209712383e+01
 5.584940805994181e-01	 1.698010780897124e+00	 6.404001217808977e+01
 5.251888386822519e-01	 1.708605552438449e+00	 6.667466458749169e+01
 4.918453090576513e-01	 1.718500637779927e+00	 6.574024256781937e+01
 4.584840576219726e-01	 1.727700384612536e+00	 6.127190691333842e+01
 4.251252623334376e-01	 1.736209884029342e+00	 5.331345432847779e+01
 3.917886830785516e-01	 1.744034941702122e+00	 4.191690913252273e+01
 3.584936336969712e-01	 1.751182047833929e+00	 2.714209179099267e+01
 3.252589562014102e-01	 1.757658346055410e+00	 9.056167766834292e+00
 6.625704772403191e-01	 1.673618941941579e+00	 7.298840286447037e+01
 6.292756634151327e-01	 1.686419917921784e+00	 1.052426025895348e+02
 5.958781559679939e-01	 1.698507940329780e+00	 1.283747189157430e+02
 5.623996336123873e-01	 1.709884982163583e+00	 1.424954541662125e+02
 5.288614879053646e-01	 1.720553843016463e+00	 1.477417973590713e+02
 4.952847867446983e-01	 1.730518124758960e+00	 1.442757186465996e+02
 4.616902398442022e-01	 1.739782205485489e+00	 1.322827866835499e+02
 4.280981662667007e-01	 1.748351211891163e+00	 1.119707204247815e+02
 3.945284640797241e-01	 1.756230990246865e+00	 8.356788684916654e+01
 3.610005821847450e-01	 1.763428076141683e+00	 4.732175599629889e+01
 3.275334943568037e-01	 1.769949663161724e+00	 3.497324491989801e+00
 6.671716611119766e-01	 1.685241295704983e+00	 1.108142415600865e+02
 6.336456333017748e-01	 1.698131167351941e+00	 1.620249402124569e+02
 6.000161987194534e-01	 1.710303134360181e+00	 1.986839113524839e+02
 5.663051866251195e-01	 1.721759183429090e+00	 2.210040941082213e+02
 5.325341371283041e-01	 1.732502133593562e+00	 2.292411695319516e+02
 4.987242644316259e-01	 1.742535611737127e+00	 2.236912764601838e+02
 4.648964220663556e-01	 1.751864026357632e+00	 2.046886069961638e+02
 4.310710701999212e-01	 1.760492539752242e+00	 1.726029011985933e+02
 3.972682450808779e-01	 1.768427038790942e+00	 1.278368604722754e+02
 3.635075306725140e-01	 1.775674104448856e+00	 7.082349889004944e+01
 3.298080325121973e-01	 1.782240980267553e+00	 2.023451243379341e+00
 6.717728449831446e-01	 1.696863649467388e+00	 1.479983279547736e+02
 6.380156031880218e-01	 1.709842416781104e+00	 2.183254110900834e+02
 6.041542414706024e-01	 1.722098328389602e+00	 2.687429757791735e+02
 5.702107396376153e-01	 1.733633384693645e+00	 2.995648476788407e+02
 5.362067863510706e-01	 1.744450424169746e+00	 3.111639083199686e+02
 5.021637421184337e-01	 1.754553098714425e+00	 3.039688410715261e+02
 4.681026042884328e-01	 1.763945847228964e+00	 2.784607137397906e+02
 4.340439741330990e-01	 1.772633867612575e+00	 2.351694254057735e+02
 4.000080260820126e-01	 1.780623087334350e+00	 1.746700449319084e+02
 3.660144791602783e-01	 1.787920132755449e+00	 9.757906814813174e+01
 3.320825706675907e-01	 1.794532297372897e+00	 4.550620075964332e+00
 6.763740288538225e-01	 1.708486003228792e+00	 1.845537676257556e+02
 6.423855730738738e-01	 1.721553666209272e+00	 2.741538578134884e+02
 6.082922842214408e-01	 1.733893522418045e+00	 3.385570254338092e+02
 5.741162926498737e-01	 1.745507585957248e+00	 3.781766599536500e+02
 5.398794355736638e-01	 1.756398714745015e+00	 3.935013822676318e+02
 5.056032198051220e-01	 1.766570585690856e+00	 3.850908292720362e+02
 4.713087865104338e-01	 1.776027668099485e+00	 3.535712323995116e+02
 4.370168780662343e-01	 1.784775195472166e+00	 2.996308256739156e+02
 4.027478070831286e-01	 1.792819135877093e+00	 2.240151185894925e+02
 3.685214276480380e-01	 1.800166161061461e+00	 1.275220685445513e+02
 3.343571088229843e-01	 1.806823614477755e+00	 1.099718669051918e+01
 6.809752127240106e-01	 1.720108356989195e+00	 2.204933118463684e+02
 6.467555429593308e-01	 1.733264915636446e+00	 3.295198568570053e+02
 6.124303269719683e-01	 1.745688716445509e+00	 4.081310352565380e+02
 5.780218456618959e-01	 1.757381787219899e+00	 4.568385044161928e+02
 5.435520847960841e-01	 1.768347005319369e+00	 4.762451930974626e+02
 5.090426974916905e-01	 1.778588072666419e+00	 4.670401329695351e+02
 4.745149687323587e-01	 1.788109488969196e+00	 4.299930417195700e+02
 4.399897819993270e-01	 1.796916523331014e+00	 3.659487012097829e+02
 4.054875880842257e-01	 1.805015184419168e+00	 2.758211737979741e+02
 3.710283761357929e-01	 1.812412189366892e+00	 1.605878992120168e+02
 3.366316469783779e-01	 1.819114931582128e+00	 2.128371328380639e+01
 6.855763965937093e-01	 1.731730710748600e+00	 2.558293694757808e+02
 6.511255128443928e-01	 1.744976165062624e+00	 3.844327275086716e+02
 6.165683697221850e-01	 1.757483910471994e+00	 4.774698465308839e+02
 5.819273986736807e-01	 1.769255988481598e+00	 5.355493820050805e+02
 5.472247340183309e-01	 1.780295295892808e+00	 5.593871678856119e+02
 5.124821751781393e-01	 1.790605559641113e+00	 5.498001032451543e+02
 4.777211509542074e-01	 1.800191309838096e+00	 5.076997484266179e+02
 4.429626859323769e-01	 1.809057851189117e+00	 4.340856820084687e+02
 4.082273690853040e-01	 1.817211232960577e+00	 3.300386694528342e+02
 3.735353246235432e-01	 1.824658217671742e+00	 1.967136934289474e+02
 3.389061851337714e-01	 1.831406248686016e+00	 3.533289450545659e+01
 6.901775804629183e-01	 1.743353064507004e+00	 2.905740183731226e+02
 6.554954827290597e-01	 1.756687414487810e+00	 4.389015404434509e+02
 6.207064124720911e-01	 1.769279104497503e+00	 5.465781713393443e+02
 5.858329516852290e-01	 1.781130189742346e+00	 6.143083201992007e+02
 5.508973832404049e-01	 1.792243586465333e+00	 6.429193515504787e+02
 5.159216528644688e-01	 1.802623046614941e+00	 6.333545350479561e+02
 4.809273331759799e-01	 1.812273130706186e+00	 5.866656629640388e+02
 4.459355898653843e-01	 1.821199179046478e+00	 5.040053944941790e+02
 4.109671500863636e-01	 1.829407281501319e+00	 3.866193854410598e+02
 3.760422731112888e-01	 1.836904245976013e+00	 2.358382608149926e+02
 3.411807232891650e-01	 1.843697565789419e+00	 5.306948637657338e+01
 3.184353417352296e-01	 1.720784394733555e+00	 5.111776461242289e+01
 2.859749623090795e-01	 1.726475693704463e+00	 1.170993646961011e+02
 2.536091058023270e-01	 1.731526038345919e+00	 1.610188383835713e+02
 2.213547034732818e-01	 1.735944150962882e+00	 1.837255656121544e+02
 1.892281454495708e-01	 1.739739264653876e+00	 1.861095833216806e+02
 1.572452663273684e-01	 1.742921090073661e+00	 1.690965525151577e+02
 1.254213328766080e-01	 1.745499782086253e+00	 1.336427923181849e+02
 9.377103380810400e-02	 1.747485906444048e+00	 8.073040666147547e+01
 6.230847155001576e-02	 1.748890406621857e+00	 1.136252703621962e+01
 3.104715597342760e-02	 1.749724570927141e+00	-7.344130746773305e+01
 0.000000000000000e+00	 1.750000000000000e+00	-1.726496139075190e+02
 3.207098798906232e-01	 1.733075711841326e+00	 3.277638028418062e+01
 2.880176406112042e-01	 1.738807662947247e+00	 7.620249832243313e+01
 2.554205994149419e-01	 1.743894081478562e+00	 1.039875961277793e+02
 2.229358084977045e-01	 1.748343752042406e+00	 1.167426218345152e+02
 1.905797750594583e-01	 1.752165973688006e+00	 1.151075666711720e+02
 1.583684468006353e-01	 1.755370526431943e+00	 9.974784579680545e+01
 1.263171995395246e-01	 1.757967637672972e+00	 7.135072792236552e+01
 9.444082690630262e-02	 1.759967948633152e+00	 3.062183213470702e+01
 6.275353206075759e-02	 1.761382480954967e+00	-2.171829122705833e+01
 3.126892137305198e-02	 1.762222603576644e+00	-8.493748040758776e+01
 0.000000000000000e+00	 1.762500000000000e+00	-1.582951691890835e+02
 3.229844180460166e-01	 1.745367028948611e+00	 1.878627306843887e+01
 2.900603189133288e-01	 1.751139632189640e+00	 3.883075808382043e+01
 2.572320930275566e-01	 1.756262124610897e+00	 4.957426830227058e+01
 2.245169135221270e-01	 1.760743353121696e+00	 5.139225821050910e+01
 1.919314046693457e-01	 1.764592682721967e+00	 4.467770370631715e+01
 1.594916272739021e-01	 1.767819962790108e+00	 2.983888393600218e+01
 1.272130662024412e-01	 1.770435493259618e+00	 7.297193914232729e+00
 9.511062000450128e-02	 1.772449990822214e+00	-2.251500080471945e+01
 6.319859257149944e-02	 1.773874555288057e+00	-5.915645710153743e+01
 3.149068677267637e-02	 1.774720636226143e+00	-1.021790856037986e+02
 0.000000000000000e+00	 1.775000000000000e+00	-1.511299120368380e+02
 3.252589562014102e-01	 1.757658346055410e+00	 9.056167766834292e+00
 2.921029972154534e-01	 1.763471601431642e+00	 4.910200881312534e+00
 2.590435866401714e-01	 1.768630167742926e+00	-2.276055490015359e+00
 2.260980185465497e-01	 1.773142954200753e+00	-1.235976399253741e+01
 1.932830342792332e-01	 1.777019391755757e+00	-2.519199725355016e+01
 1.606148077471690e-01	 1.780269399148155e+00	-4.061856755007925e+01
 1.281089328653577e-01	 1.782903348846188e+00	-5.848084349049057e+01
 9.578041310269989e-02	 1.784932033011234e+00	-7.861654953234256e+01
 6.364365308224128e-02	 1.786366629621130e+00	-1.008605445285994e+02
 3.171245217230076e-02	 1.787218668875638e+00	-1.250455758737786e+02
 0.000000000000000e+00	 1.787500000000000e+00	-1.510030062061389e+02
 3.275334943568037e-01	 1.769949663161724e+00	 3.497324491989801e+00
 2.941456755175780e-01	 1.775803570673254e+00	-2.563106251976870e+01
 2.608550802527862e-01	 1.780998210874648e+00	-5.161676046729550e+01
 2.276791235709723e-01	 1.785542555279576e+00	-7.454673254036788e+01
 1.946346638891207e-01	 1.789446100789376e+00	-9.451319489459746e+01
 1.617379882204359e-01	 1.792718835506084e+00	-1.116130700704385e+02
 1.290047995282743e-01	 1.795371204432684e+00	-1.259474450199063e+02
 9.645020620089854e-02	 1.797414075200213e+00	-1.376210365990898e+02
 6.408871359298313e-02	 1.798858703954184e+00	-1.467416671625710e+02
 3.193421757192514e-02	 1.799716701525127e+00	-1.534197526654510e+02
 0.000000000000000e+00	 1.800000000000000e+00	-1.577678054428673e+02
 3.298080325121973e-01	 1.782240980267553e+00	 2.023451243379341e+00
 2.961883538197027e-01	 1.788135539914474e+00	-5.286293831237401e+01
 2.626665738654010e-01	 1.793366254006063e+00	-9.849975926098004e+01
 2.292602285953949e-01	 1.797942156358166e+00	-1.352010170234522e+02
 1.959862934990082e-01	 1.801872809822824e+00	-1.632972263907866e+02
 1.628611686937026e-01	 1.805168271863896e+00	-1.831335006866927e+02
 1.299006661911908e-01	 1.807839060019105e+00	-1.950676629338887e+02
 9.711999929909716e-02	 1.809896117389149e+00	-1.994683888630061e+02
 6.453377410372496e-02	 1.811350778287220e+00	-1.967133907943132e+02
 3.215598297154953e-02	 1.812214734174612e+00	-1.871876505871771e+02
 0.000000000000000e+00	 1.812500000000000e+00	-1.712817090009954e+02
 3.320825706675907e-01	 1.794532297372897e+00	 4.550620075964332e+00
 2.982310321218273e-01	 1.800467509155304e+00	-7.685341755975752e+01
 2.644780674780159e-01	 1.805734297137171e+00	-1.429755423463923e+02
 2.308413336198176e-01	 1.810341757436522e+00	-1.943541003010392e+02
 1.973379231088956e-01	 1.814299518856103e+00	-2.315551184142959e+02
 1.639843491669695e-01	 1.817617708221590e+00	-2.551690413028187e+02
 1.307965328541074e-01	 1.820306915605452e+00	-2.658075070673205e+02
 9.778979239729581e-02	 1.822378159578045e+00	-2.641001791224206e+02
 6.497883461446680e-02	 1.823842852620236e+00	-2.506916493738362e+02
 3.237774837117391e-02	 1.824712766824093e+00	-2.262384266830275e+02
 0.000000000000000e+00	 1.825000000000000e+00	-1.914060230977927e+02
 3.343571088229843e-01	 1.806823614477755e+00	 1.099718669051918e+01
 3.002737104239519e-01	 1.812799478395743e+00	-9.766864133558539e+01
 2.662895610906306e-01	 1.818102340267972e+00	-1.850932264150957e+02
 2.324224386442401e-01	 1.822741358514645e+00	-2.520366086617811e+02
 1.986895527187831e-01	 1.826726227889211e+00	-2.992975976965317e+02
 1.651075296402364e-01	 1.830067144579166e+00	-3.277091682961309e+02
 1.316923995170240e-01	 1.832774771191723e+00	-3.381339122593207e+02
 9.845958549549444e-02	 1.834860201766898e+00	-3.314595701314343e+02
 6.542389512520864e-02	 1.836334926953235e+00	-3.085946644605675e+02
 3.259951377079830e-02	 1.837210799473569e+00	-2.704642542274369e+02
 0.000000000000000e+00	 1.837500000000000e+00	-2.180058280239149e+02
 3.366316469783779e-01	 1.819114931582128e+00	 2.128371328380639e+01
 3.023163887260765e-01	 1.825131447635791e+00	-1.153729632232337e+02
 2.681010547032454e-01	 1.830470383398466e+00	-2.249006007861754e+02
 2.340035436686628e-01	 1.835140959592535e+00	-3.082783407616264e+02
 2.000411823286705e-01	 1.839152936922148e+00	-3.665351011609933e+02
 1.662307101135032e-01	 1.842516580936626e+00	-4.007436425686283e+02
 1.325882661799405e-01	 1.845242626777920e+00	-4.120147071029048e+02
 9.912937859369306e-02	 1.847342243955709e+00	-4.014912608850451e+02
 6.586895563595048e-02	 1.848827001286216e+00	-3.703428679391464e+02
 3.282127917042268e-02	 1.849708832123040e+00	-3.197602208254754e+02
 0.000000000000000e+00	 1.850000000000000e+00	-2.509498506409261e+02
 3.389061851337714e-01	 1.831406248686016e+00	 3.533289450545659e+01
 3.043590670282013e-01	 1.837463416875449e+00	-1.300290092983317e+02
 2.699125483158602e-01	 1.842838426528653e+00	-2.624441719486163e+02
 2.355846486930855e-01	 1.847540560670190e+00	-3.631082953964316e+02
 2.013928119385580e-01	 1.851579645954916e+00	-4.332777856481074e+02
 1.673538905867701e-01	 1.854966017293967e+00	-4.742624999989450e+02
 1.334841328428570e-01	 1.857710482364042e+00	-4.874185839530554e+02
 9.979917169189172e-02	 1.859824286144479e+00	-4.741414350672926e+02
 6.631401614669230e-02	 1.861319075619177e+00	-4.358588278473284e+02
 3.304304457004707e-02	 1.862206864772507e+00	-3.740242306164611e+02
 0.000000000000000e+00	 1.862500000000000e+00	-2.901103420131476e+02
 3.411807232891650e-01	 1.843697565789419e+00	 5.306948637657338e+01
 3.064017453303258e-01	 1.849795386114716e+00	-1.416977357120094e+02
 2.717240419284751e-01	 1.855206469658534e+00	-2.977692063219801e+02
 2.371657537175081e-01	 1.859940161747613e+00	-4.165546981636714e+02
 2.027444415484455e-01	 1.864006354987513e+00	-4.995355372510659e+02
 1.684770710600370e-01	 1.867415453651191e+00	-5.482560422762490e+02
 1.343799995057737e-01	 1.870178337950090e+00	-5.643150701344734e+02
 1.004689647900904e-01	 1.872306328333207e+00	-5.493577115614786e+02
 6.675907665743416e-02	 1.873811149952121e+00	-5.050671771707939e+02
 3.326480996967145e-02	 1.874704897421970e+00	-4.331569103894410e+02
 0.000000000000000e+00	 1.875000000000000e+00	-3.353629599342333e+02
 1.875000000000000e+00	 0.000000000000000e+00	 6.723591259342110e+02
 1.874704897421970e+00	 3.326480996967039e-02	 5.533080908749247e+02
 1.873811149952121e+00	 6.675907665743323e-02	 4.496702710221081e+02
 1.872306328333207e+00	 1.004689647900895e-01	 3.609448452883471e+02
 1.870178337950090e+00	 1.343799995057729e-01	 2.865596071914133e+02
 1.867415453651191e+00	 1.684770710600364e-01	 2.258698643271285e+02
 1.864006354987513e+00	 2.027444415484450e-01	 1.781576292511126e+02
 1.859940161747613e+00	 2.371657537175077e-01	 1.426311238088180e+02
 1.855206469658534e+00	 2.717240419284748e-01	 1.184246179949598e+02
 1.849795386114716e+00	 3.064017453303257e-01	 1.045986231991721e+02
 1.843697565789419e+00	 3.411807232891650e-01	 1.001404581979344e+02
 1.887500000000000e+00	 0.000000000000000e+00	 5.854690245665115e+02
 1.887202930071432e+00	 3.348657536938452e-02	 4.865021374391769e+02
 1.886303224285065e+00	 6.720413716834120e-02	 3.989910580147940e+02
 1.884788370521935e+00	 1.011387578885170e-01	 3.225624219755002e+02
 1.882646193536138e+00	 1.352758661689670e-01	 2.567893529513822e+02
 1.879864890008415e+00	 1.696002515336150e-01	 2.011906305270138e+02
 1.876433064020110e+00	 2.040960711586639e-01	 1.552300767684054e+02
 1.872339762825035e+00	 2.387468587422663e-01	 1.183161778515727e+02
 1.867574512788415e+00	 2.735355355414151e-01	 8.980195665770633e+01
 1.862127355353983e+00	 3.084444236327496e-01	 6.898511128382857e+01
 1.855988882892821e+00	 3.434552614448158e-01	 5.510843329682742e+01
 1.900000000000000e+00	 0.000000000000000e+00	 4.855919380023910e+02
 1.899700962720899e+00	 3.370834076927819e-02	 4.081948123821438e+02
 1.898795298618027e+00	 6.764919767958150e-02	 3.383542547099536e+02
 1.897270412710705e+00	 1.018085509874021e-01	 2.758232530797975e+02
 1.895114049122259e+00	 1.361717328327159e-01	 2.203189941431040e+02
 1.892314326365756e+00	 1.707234320078171e-01	 1.715222968807492e+02
 1.888859773052877e+00	 2.054477007695455e-01	 1.290771925811962e+02
 1.884739363902691e+00	 2.403279637676972e-01	 9.259066219213079e+01
 1.879942555918602e+00	 2.753470291550062e-01	 6.163254173713612e+01
 1.874459324593640e+00	 3.104871019357721e-01	 3.573560587882176e+01
 1.868280199996709e+00	 3.457297996009814e-01	 1.439583896195566e+01
 1.912500000000000e+00	 0.000000000000000e+00	 3.729824999771930e+02
 1.912198995370370e+00	 3.393010616935138e-02	 3.186116211965459e+02
 1.911287372951007e+00	 6.809425819115406e-02	 2.679550977838571e+02
 1.909752454899517e+00	 1.024783440867449e-01	 2.208911875390354e+02
 1.907581904708456e+00	 1.370675994970198e-01	 1.772798978865965e+02
 1.904763762723215e+00	 1.718466124826427e-01	 1.369626826992353e+02
 1.901286482085814e+00	 2.067993303810899e-01	 9.976221357615893e+01
 1.897138964980580e+00	 2.419090687937999e-01	 6.548223137321739e+01
 1.892310599049096e+00	 2.771585227692481e-01	 3.390748354477834e+01
 1.886791293833689e+00	 3.125297802393932e-01	 4.803752550995739e+00
 1.880571517101082e+00	 3.480043377576615e-01	-2.208201979333402e+01
 1.925000000000000e+00	 0.000000000000000e+00	 2.478887305328643e+02
 1.924697028019846e+00	 3.415187156960411e-02	 2.179722122583105e+02
 1.923779447284006e+00	 6.853931870305893e-02	 1.879837529974874e+02
 1.922234497088370e+00	 1.031481371865453e-01	 1.579258186397317e+02
 1.920049760294728e+00	 1.379634661618787e-01	 1.278000193318816e+02
 1.917213199080792e+00	 1.729697929580919e-01	 9.760706669238937e+01
 1.913713191118923e+00	 2.081509599932970e-01	 6.734673428077339e+01
 1.909538566058704e+00	 2.434901738205749e-01	 3.701782179176580e+01
 1.904678642179897e+00	 2.789700163841410e-01	 6.618123443558313e+00
 1.899123263074128e+00	 3.145724585436129e-01	-2.385559897507533e+01
 1.892862834205940e+00	 3.502788759148565e-01	-5.440763794360878e+01
 1.937500000000000e+00	 0.000000000000000e+00	 1.105522493628901e+02
 1.937195060669326e+00	 3.437363697003634e-02	 1.064905657657204e+02
 1.936271521617023e+00	 6.898437921529610e-02	 9.862547877424673e+01
 1.934716539277264e+00	 1.038179302868033e-01	 8.708262129591689e+01
 1.932517615881075e+00	 1.388593328272925e-01	 7.200401172216765e+01
 1.929662635438486e+00	 1.740929734341646e-01	 5.354826892356576e+01
 1.926139900152201e+00	 2.095025896061670e-01	 3.189075984212292e+01
 1.921938167137059e+00	 2.450712788480219e-01	 7.223674864308276e+00
 1.917046685311006e+00	 2.807815099996848e-01	-2.024397360615505e+01
 1.911455232314958e+00	 3.166151368484312e-01	-5.028643366163011e+01
 1.905154151311284e+00	 3.525534140725660e-01	-8.266138142029752e+01
 1.950000000000000e+00	 0.000000000000000e+00	-3.879151904834552e+01
 1.949693093318812e+00	 3.459540237064810e-02	-1.562482458832753e+01
 1.948763595950059e+00	 6.942943972786557e-02	 6.078348623049123e-02
 1.947198581466201e+00	 1.044877233875190e-01	 8.513084047971205e+00
 1.944985471467495e+00	 1.397551994932612e-01	 1.001333222383056e+01
 1.942112071796298e+00	 1.752161539108608e-01	 4.876729611884009e+00
 1.938566609185650e+00	 2.108542192196997e-01	-6.547243031949278e+00
 1.934337768215650e+00	 2.466523838761410e-01	-2.387464069861375e+01
 1.929414728442420e+00	 2.825930036158795e-01	-4.668702621380739e+01
 1.923787201556179e+00	 3.186578151538481e-01	-7.453160850824683e+01
 1.917445468417113e+00	 3.548279522307903e-01	-1.069215553510613e+02
 1.962499999999999e+00	 0.000000000000000e+00	-1.999131481259198e+02
 1.962191125968301e+00	 3.481716777143939e-02	-1.481707768869585e+02
 1.961255670283113e+00	 6.987450024076731e-02	-1.075344232704483e+02
 1.959680623655179e+00	 1.051575164886924e-01	-7.763516398307738e+01
 1.957453327053991e+00	 1.406510661597848e-01	-5.805365628805905e+01
 1.954561508154227e+00	 1.763393343881805e-01	-4.831941507699700e+01
 1.950993318219269e+00	 2.122058488338951e-01	-4.791029707848446e+01
 1.946737369294472e+00	 2.482334889049322e-01	-5.625220746928946e+01
 1.941782771574142e+00	 2.844044972327250e-01	-7.271904345200969e+01
 1.936119170797790e+00	 3.207004934598635e-01	-9.663288847495799e+01
 1.929736785523427e+00	 3.571024903895291e-01	-1.272644696912913e+02
 1.975000000000000e+00	 0.000000000000000e+00	-3.725890193971212e+02
 1.974689158617796e+00	 3.503893317241022e-02	-2.909492528952351e+02
 1.973747744616185e+00	 7.031956075400138e-02	-2.239886851449583e+02
 1.972162665844200e+00	 1.058273095903234e-01	-1.712182309623032e+02
 1.969921182640562e+00	 1.415469328268634e-01	-1.320815873094886e+02
 1.967010944512274e+00	 1.774625148661237e-01	-1.059542601182325e+02
 1.963420027253059e+00	 2.135574784487534e-01	-9.214286734559064e+01
 1.959136970373529e+00	 2.498145939343955e-01	-8.988473869321447e+01
 1.954150814706171e+00	 2.862159908502214e-01	-9.834783148811397e+01
 1.948451140039792e+00	 3.227431717664775e-01	-1.166309810411966e+02
 1.942028102630227e+00	 3.593770285487826e-01	-1.437645023632632e+02
 1.987500000000000e+00	 0.000000000000000e+00	-5.566011398467377e+02
 1.987187191267294e+00	 3.526069857356055e-02	-4.437671963092694e+02
 1.986239818949276e+00	 7.076462126756775e-02	-3.491348589927837e+02
 1.984644708033262e+00	 1.064971026924121e-01	-2.720958448164420e+02
 1.982389038227208e+00	 1.424427994944970e-01	-2.119579964823515e+02
 1.979460380870438e+00	 1.785856953446905e-01	-1.679440614665722e+02
 1.975846736287019e+00	 2.149091080642744e-01	-1.391908158372658e+02
 1.971536571452820e+00	 2.513956989645308e-01	-1.247485584571890e+02
 1.966518857838506e+00	 2.880274844683688e-01	-1.235809999655415e+02
 1.960783109282185e+00	 3.247858500736903e-01	-1.345655694606287e+02
 1.954319419737511e+00	 3.616515667085508e-01	-1.564941600126936e+02
 2.000000000000000e+00	 0.000000000000000e+00	-7.517369661215283e+02
 1.999685223916798e+00	 3.548246397489042e-02	-6.064363770709680e+02
 1.998731893282386e+00	 7.120968178146642e-02	-4.828099800882160e+02
 1.997126750222366e+00	 1.071668957949584e-01	-3.801312401166028e+02
 1.994856893813928e+00	 1.433386661626855e-01	-2.975732309027416e+02
 1.991909817228721e+00	 1.797088758238808e-01	-2.342071685261799e+02
 1.988273445321150e+00	 2.162607376804582e-01	-1.890013578590373e+02
 1.983936172532344e+00	 2.529768039953384e-01	-1.608205826011136e+02
 1.978886900971149e+00	 2.898389780871670e-01	-1.484259681458160e+02
 1.973115078524969e+00	 3.268285283815016e-01	-1.504753447689332e+02
 1.966610736845282e+00	 3.639261048688338e-01	-1.655241364869086e+02
 1.843697565789419e+00	 3.411807232891650e-01	 1.001404581979344e+02
 1.836904245976013e+00	 3.760422731112877e-01	 1.168785417765078e+02
 1.829407281501320e+00	 4.109671500863628e-01	 1.299148131446736e+02
 1.821199179046478e+00	 4.459355898653836e-01	 1.396591476071526e+02
 1.812273130706186e+00	 4.809273331759791e-01	 1.465459370740758e+02
 1.802623046614941e+00	 5.159216528644683e-01	 1.510332113343428e+02
 1.792243586465333e+00	 5.508973832404047e-01	 1.536016036670417e+02
 1.781130189742346e+00	 5.858329516852289e-01	 1.547531604252807e+02
 1.769279104497502e+00	 6.207064124720912e-01	 1.550099954607855e+02
 1.756687414487809e+00	 6.554954827290598e-01	 1.549127915494518e+02
 1.743353064507004e+00	 6.901775804629183e-01	 1.550191523155849e+02
 1.855988882892821e+00	 3.434552614448158e-01	 5.510843329682742e+01
 1.849150274280280e+00	 3.785492215992383e-01	 7.118352200852441e+01
 1.841603330042052e+00	 4.137069310875700e-01	 8.448044639091688e+01
 1.833340506903817e+00	 4.489084937984764e-01	 9.531395019731028e+01
 1.824354951574237e+00	 4.841335153977702e-01	 1.040175097566265e+02
 1.814640533588709e+00	 5.193611305507440e-01	 1.109426545161409e+02
 1.804191877037770e+00	 5.545700324623478e-01	 1.164581681653836e+02
 1.793004391002975e+00	 5.897385046965644e-01	 1.209491700931269e+02
 1.781074298522854e+00	 6.248444552216972e-01	 1.248160778781130e+02
 1.768398663912796e+00	 6.598654526133346e-01	 1.284734525069928e+02
 1.754975418265163e+00	 6.947787643316375e-01	 1.323487290406630e+02
 1.868280199996709e+00	 3.457297996009814e-01	 1.439583896195566e+01
 1.861396302585124e+00	 3.810561700876036e-01	 2.914107096234461e+01
 1.853799378583433e+00	 4.164467120890913e-01	 4.201844706159633e+01
 1.845481834761856e+00	 4.518813977317833e-01	 5.324850524712627e+01
 1.836436772443023e+00	 4.873396976196745e-01	 6.306478562396481e+01
 1.826658020563224e+00	 5.228006082370322e-01	 7.171334868434532e+01
 1.816140167610950e+00	 5.582426816842028e-01	 7.945221010705265e+01
 1.804878592264319e+00	 5.936440577077110e-01	 8.655069195443609e+01
 1.792869492548874e+00	 6.289824979710139e-01	 9.328869080056870e+01
 1.780109913338382e+00	 6.642354224972196e-01	 9.995586402018624e+01
 1.766597772023832e+00	 6.993799481998669e-01	 1.068507361882694e+02
 1.880571517101082e+00	 3.480043377576615e-01	-2.208201979333402e+01
 1.873642330890543e+00	 3.835631185763834e-01	-9.320429577785337e+00
 1.865995427125461e+00	 4.191864930909272e-01	 2.470535222687666e+00
 1.857623162620597e+00	 4.548543016653039e-01	 1.341811446149334e+01
 1.848518593312543e+00	 4.905458798416917e-01	 2.365687217316924e+01
 1.838675507538488e+00	 5.262400859233329e-01	 3.332841105754217e+01
 1.828088458184871e+00	 5.619153309059697e-01	 4.258103915352221e+01
 1.816752793526378e+00	 5.975496107186689e-01	 5.156938868482597e+01
 1.804664686575561e+00	 6.331205407200413e-01	 6.045398744449971e+01
 1.791821162764569e+00	 6.686053923807149e-01	 6.940078348683610e+01
 1.778220125783012e+00	 7.039811320676065e-01	 7.858062431033390e+01
 1.892862834205940e+00	 3.502788759148565e-01	-5.440763794360878e+01
 1.885888359196539e+00	 3.860700670655777e-01	-4.427073747643671e+01
 1.878191475668137e+00	 4.219262740930773e-01	-3.422005516228936e+01
 1.869764490480039e+00	 4.578272055990384e-01	-2.422075933198724e+01
 1.860600414182798e+00	 4.937520620638225e-01	-1.423632057318256e+01
 1.850692994514499e+00	 5.296795636096463e-01	-4.228602514444859e+00
 1.840036748759534e+00	 5.655879801276484e-01	 5.842034957060825e+00
 1.828626994789152e+00	 6.014551637294382e-01	 1.601662013943575e+01
 1.816459880602917e+00	 6.372585834687796e-01	 2.633744182225553e+01
 1.803532412191354e+00	 6.729753622638208e-01	 3.684790976540813e+01
 1.789842479542702e+00	 7.085823159348567e-01	 4.759240377304392e+01
 1.905154151311284e+00	 3.525534140725660e-01	-8.266138142029752e+01
 1.898134387503110e+00	 3.885770155551868e-01	-7.577781025919819e+01
 1.890387524211462e+00	 4.246660550955419e-01	-6.810862506860497e+01
 1.881905818340181e+00	 4.608001095329867e-01	-5.971052963955670e+01
 1.872682235053787e+00	 4.969582442860664e-01	-5.064410595595561e+01
 1.862710481491260e+00	 5.331190412959723e-01	-4.097371170101261e+01
 1.851985039334939e+00	 5.692606293492392e-01	-3.076735509813304e+01
 1.840501196052641e+00	 6.053607167400185e-01	-2.009654687979628e+01
 1.828255074630939e+00	 6.413966262172286e-01	-9.036129349157953e+00
 1.815243661618739e+00	 6.773453321465369e-01	 2.335917320294234e+00
 1.801464833302902e+00	 7.131834998016169e-01	 1.393869121326481e+01
 1.917445468417113e+00	 3.548279522307903e-01	-1.069215553510613e+02
 1.910380415810258e+00	 3.910839640452103e-01	-1.039078628167187e+02
 1.902583572755435e+00	 4.274058360983207e-01	-9.924905736833090e+01
 1.894047146201024e+00	 4.637730134671488e-01	-9.309252231721001e+01
 1.884764055925510e+00	 5.001644265084235e-01	-8.559504557267090e+01
 1.874727968468767e+00	 5.365585189823108e-01	-7.692252529698730e+01
 1.863933329911085e+00	 5.729332785707417e-01	-6.724961806791498e+01
 1.852375397316846e+00	 6.092662697504101e-01	-5.675932923252117e+01
 1.840050268659630e+00	 6.455346689653881e-01	-4.564254558206066e+01
 1.826954911046724e+00	 6.817153020288634e-01	-3.409751094620839e+01
 1.813087187063613e+00	 7.177846836678874e-01	-2.232924579182415e+01
 1.929736785523427e+00	 3.571024903895291e-01	-1.272644696912913e+02
 1.922626444117981e+00	 3.935909125356485e-01	-1.287254229034947e+02
 1.914779621300055e+00	 4.301456171014137e-01	-1.276938619937782e+02
 1.906188474062569e+00	 4.667459174015250e-01	-1.244070102102031e+02
 1.896845876797968e+00	 5.033706087308940e-01	-1.191169732193831e+02
 1.886745455447024e+00	 5.399979966686618e-01	-1.120902543088467e+02
 1.875881620487973e+00	 5.766059277921560e-01	-1.036071775371700e+02
 1.864249598581766e+00	 6.131718227606131e-01	-9.396121840727857e+01
 1.851845462688989e+00	 6.496727117132586e-01	-8.345824235715160e+01
 1.838666160475309e+00	 6.860852719108005e-01	-7.241565211663415e+01
 1.824709540824834e+00	 7.223858675336682e-01	-6.116144576220717e+01
 1.942028102630227e+00	 3.593770285487826e-01	-1.437645023632632e+02
 1.934872472426280e+00	 3.960978610265014e-01	-1.502933845291087e+02
 1.926975669845323e+00	 4.328853981048212e-01	-1.534942193858630e+02
 1.918329801924813e+00	 4.697188213361148e-01	-1.536932464771303e+02
 1.908927697671160e+00	 5.065767909534776e-01	-1.512370179233722e+02
 1.898762942426027e+00	 5.434374743550253e-01	-1.464917245439983e+02
 1.887829911065603e+00	 5.802785770134823e-01	-1.398423956294611e+02
 1.876123799847400e+00	 6.170773757706272e-01	-1.316919718318078e+02
 1.863640656719016e+00	 6.538107544608398e-01	-1.224602516319572e+02
 1.850377409904492e+00	 6.904552417923476e-01	-1.125827128802246e+02
 1.836331894586565e+00	 7.269870513989594e-01	-1.025092119839980e+02
 1.954319419737511e+00	 3.616515667085508e-01	-1.564941600126936e+02
 1.947118500735156e+00	 3.986048095177688e-01	-1.686730593347066e+02
 1.939171718391239e+00	 4.356251791085429e-01	-1.767000223029175e+02
 1.930471129787760e+00	 4.726917252709185e-01	-1.809894966564970e+02
 1.921009518545086e+00	 5.097829731761744e-01	-1.819816261066732e+02
 1.910780429405780e+00	 5.468769520414016e-01	-1.801413887249833e+02
 1.899778201643975e+00	 5.839512262347204e-01	-1.759575749408299e+02
 1.887998001113750e+00	 6.209829287804526e-01	-1.699416045112703e+02
 1.875435850749710e+00	 6.579487972081314e-01	-1.626261830848137e+02
 1.862088659334276e+00	 6.948252116735054e-01	-1.545638003011403e+02
 1.847954248348806e+00	 7.315882352637606e-01	-1.463250727380610e+02
 1.966610736845282e+00	 3.639261048688338e-01	-1.655241364869086e+02
 1.959364529044608e+00	 4.011117580094511e-01	-1.839242260428470e+02
 1.951367766937805e+00	 4.383649601125791e-01	-1.973599160616557e+02
 1.942612457651407e+00	 4.756646292059362e-01	-2.063330695307803e+02
 1.933091339419748e+00	 5.129891553989847e-01	-2.113765829184742e+02
 1.922797916386281e+00	 5.503164297277904e-01	-2.130533381494032e+02
 1.911726492223089e+00	 5.876238754558706e-01	-2.119549604010966e+02
 1.899872202380815e+00	 6.248884817900893e-01	-2.087003809800349e+02
 1.887231044781072e+00	 6.620868399551341e-01	-2.039342060621942e+02
 1.873799908764660e+00	 6.991951815542736e-01	-1.983248936828672e+02
 1.859576602111558e+00	 7.361894191280726e-01	-1.925627430200623e+02
 1.743353064507004e+00	 6.901775804629183e-01	 1.550191523155849e+02
 1.729274883740578e+00	 7.247298645455649e-01	 1.509255374343551e+02
 1.714452606980928e+00	 7.591292765506406e-01	 1.481773032232662e+02
 1.698886893546374e+00	 7.933525843124138e-01	 1.463471755759929e+02
 1.682579343755863e+00	 8.273764270649256e-01	 1.449958759198608e+02
 1.665532512820283e+00	 8.611773620061519e-01	 1.436736851627073e+02
 1.647749922022751e+00	 8.947319121182951e-01	 1.419221038935040e+02
 1.629236067072467e+00	 9.280166150632179e-01	 1.392756005882244e+02
 1.609996423530313e+00	 9.610080729608007e-01	 1.352634385828644e+02
 1.590037449219140e+00	 9.936830028478698e-01	 1.294115716466337e+02
 1.569366583547552e+00	 1.026018287606500e+00	 1.212445971336795e+02
 1.754975418265163e+00	 6.947787643316375e-01	 1.323487290406630e+02
 1.740803382960041e+00	 7.295613969744104e-01	 1.268465058201716e+02
 1.725882291021801e+00	 7.641901383925472e-01	 1.224543659338527e+02
 1.710212806164218e+00	 7.986416015392133e-01	 1.188406512455589e+02
 1.693796539375036e+00	 8.328922699100104e-01	 1.156641491204756e+02
 1.676636062899880e+00	 8.669185444175695e-01	 1.125753043899380e+02
 1.658734921497089e+00	 9.006967915306421e-01	 1.092175072506131e+02
 1.640097640847259e+00	 9.342033924955047e-01	 1.052284507311545e+02
 1.620729733015010e+00	 9.674147934461709e-01	 1.002415505818865e+02
 1.600637698875349e+00	 1.000307556199713e+00	 9.388741971207855e+01
 1.579829027432933e+00	 1.032858409524087e+00	 8.579538862548884e+01
 1.766597772023832e+00	 6.993799481998669e-01	 1.068507361882694e+02
 1.752331882179924e+00	 7.343929294026761e-01	 1.004825264315081e+02
 1.737311975063022e+00	 7.692510002338026e-01	 9.499271643738091e+01
 1.721538718782361e+00	 8.039306187653088e-01	 9.014430744172246e+01
 1.705013734994474e+00	 8.384081127543593e-01	 8.569317276344879e+01
 1.687739612979730e+00	 8.726597268282392e-01	 8.138892070434406e+01
 1.669719920971688e+00	 9.066616709422494e-01	 7.697581323253002e+01
 1.650959214622339e+00	 9.403901699270792e-01	 7.219373594988190e+01
 1.631463042500044e+00	 9.738215139308771e-01	 6.677921427648394e+01
 1.611237948531963e+00	 1.006932109550961e+00	 6.046647025053040e+01
 1.590291471318810e+00	 1.039698531441169e+00	 5.298851384760255e+01
 1.778220125783012e+00	 7.039811320676065e-01	 7.858062431033390e+01
 1.763860381400227e+00	 7.392244618303614e-01	 7.187841072975033e+01
 1.748741659104592e+00	 7.743118620744064e-01	 6.582645619689394e+01
 1.732864631400799e+00	 8.092196359907015e-01	 6.028148347883307e+01
 1.716230930614176e+00	 8.439239555979724e-01	 5.509549108023855e+01
 1.698843163059831e+00	 8.784009092381607e-01	 5.011626993795289e+01
 1.680704920446545e+00	 9.126265503531157e-01	 4.518795591396414e+01
 1.661820788397706e+00	 9.465769473579415e-01	 4.015161544003000e+01
 1.642196351985415e+00	 9.802282344149192e-01	 3.484586130875986e+01
 1.621838198188981e+00	 1.013556662901614e+00	 2.910749526609450e+01
 1.600753915205181e+00	 1.046538653357745e+00	 2.277217374362678e+01
 1.789842479542702e+00	 7.085823159348567e-01	 4.759240377304392e+01
 1.775388880620949e+00	 7.440559942574663e-01	 4.107780632445137e+01
 1.760171343146511e+00	 7.793727239143585e-01	 3.498880099921254e+01
 1.744190544019534e+00	 8.145086532153905e-01	 2.927491252514142e+01
 1.727448126234142e+00	 8.494397984408504e-01	 2.388332254173651e+01
 1.709946713140184e+00	 8.841420916473343e-01	 1.875904289363017e+01
 1.691689919921663e+00	 9.185914297632422e-01	 1.384510489935323e+01
 1.672682362173361e+00	 9.527637247880916e-01	 9.082763787723048e+00
 1.652929661471120e+00	 9.866349548982979e-01	 4.411717342892428e+00
 1.632438447846405e+00	 1.020181216251673e+00	-2.296623474670048e-01
 1.611216359092047e+00	 1.053378775273816e+00	-4.904085286248664e+00
 1.801464833302902e+00	 7.131834998016169e-01	 1.393869121326481e+01
 1.786917379842092e+00	 7.488875266839913e-01	 8.123234515745400e+00
 1.771601027188778e+00	 7.844335857536594e-01	 2.512109523938538e+00
 1.755516456638565e+00	 8.197976704393758e-01	-2.853258845297587e+00
 1.738665321854372e+00	 8.549556412829922e-01	-7.931429634520248e+00
 1.721050263220789e+00	 8.898832740557597e-01	-1.268111320354712e+01
 1.702674919397040e+00	 9.245563091726281e-01	-1.706134227603658e+01
 1.683543935949303e+00	 9.589505022175293e-01	-2.103164565705960e+01
 1.663662970957163e+00	 9.930416753810126e-01	-2.455222354960410e+01
 1.643038697504234e+00	 1.026805769601136e+00	-2.758412335266014e+01
 1.621678802979408e+00	 1.060218897189382e+00	-3.008941478814194e+01
 1.813087187063613e+00	 7.177846836678874e-01	-2.232924579182415e+01
 1.798445879063653e+00	 7.537190591099358e-01	-2.694387360717532e+01
 1.783030711231393e+00	 7.894944475923085e-01	-3.157208918634727e+01
 1.766842369257893e+00	 8.250866876626581e-01	-3.608145185271472e+01
 1.749882517474867e+00	 8.604714841243986e-01	-4.033716738125290e+01
 1.732153813301645e+00	 8.956244564634370e-01	-4.420259331073594e+01
 1.713659918872676e+00	 9.305211885812739e-01	-4.753976745273971e+01
 1.694405509725534e+00	 9.651372796462546e-01	-5.020995676763951e+01
 1.674396280443541e+00	 9.994483958630631e-01	-5.207422351943156e+01
 1.653638947162468e+00	 1.033430322950004e+00	-5.299400538548964e+01
 1.632141246867263e+00	 1.067059019104442e+00	-5.283170598802350e+01
 1.824709540824834e+00	 7.223858675336682e-01	-6.116144576220717e+01
 1.809974378285636e+00	 7.585505915353004e-01	-6.408314244713880e+01
 1.794460395274358e+00	 7.945553094303062e-01	-6.723306930569960e+01
 1.778168281877518e+00	 8.303757048852366e-01	-7.038863743018086e+01
 1.761099713095627e+00	 8.659873269650693e-01	-7.332258806444935e+01
 1.743257363382755e+00	 9.013656388703668e-01	-7.580383322510242e+01
 1.724644918348573e+00	 9.364860679891791e-01	-7.759833887448349e+01
 1.705267083502052e+00	 9.713240570742675e-01	-7.847004601681783e+01
 1.685129589930255e+00	 1.005855116344450e+00	-7.818182462780040e+01
 1.664239196821106e+00	 1.040054876298278e+00	-7.649645490323650e+01
 1.642603690755613e+00	 1.073899141018997e+00	-7.317762993034442e+01
 1.836331894586565e+00	 7.269870513989594e-01	-1.025092119839980e+02
 1.821502877508037e+00	 7.633821239600846e-01	-1.032552184985071e+02
 1.805890079317670e+00	 7.996161712676525e-01	-1.044408828077256e+02
 1.789494194497439e+00	 8.356647221071117e-01	-1.057543188287927e+02
 1.772316908716650e+00	 8.715031698050042e-01	-1.068766751353689e+02
 1.754360913464116e+00	 9.071068212765480e-01	-1.074833082925643e+02
 1.735629917824729e+00	 9.424509473963442e-01	-1.072450179487127e+02
 1.716128657278858e+00	 9.775108345015684e-01	-1.058293372691439e+02
 1.695862899417306e+00	 1.012261836825173e+00	-1.029018716351597e+02
 1.674839446480150e+00	 1.046679429645957e+00	-9.812767791902534e+01
 1.653066134644457e+00	 1.080739262933047e+00	-9.117267609240902e+01
 1.847954248348806e+00	 7.315882352637606e-01	-1.463250727380610e+02
 1.833031376730859e+00	 7.682136563842887e-01	-1.444217382070873e+02
 1.817319763361331e+00	 8.046770331043469e-01	-1.431663350076325e+02
 1.800820107117657e+00	 8.409537393282837e-01	-1.421585148792690e+02
 1.783534104337938e+00	 8.770190126442036e-01	-1.409886891352920e+02
 1.765464463545728e+00	 9.128480036819814e-01	-1.392395321652524e+02
 1.746614917301145e+00	 9.484158268027688e-01	-1.364875657519963e+02
 1.726990231055951e+00	 9.836976119281569e-01	-1.323048160149822e+02
 1.706596208904692e+00	 1.018668557305231e+00	-1.262605339299767e+02
 1.685439696139599e+00	 1.053303982993040e+00	-1.179229695765925e+02
 1.663528578533797e+00	 1.087579384846591e+00	-1.068611895415953e+02
 1.859576602111558e+00	 7.361894191280726e-01	-1.925627430200623e+02
 1.844559875954101e+00	 7.730451888079128e-01	-1.875452970352866e+02
 1.828749447405340e+00	 8.097378949403902e-01	-1.833809610214548e+02
 1.812146019738172e+00	 8.462427565487523e-01	-1.795817438812261e+02
 1.794751299959490e+00	 8.825348554826673e-01	-1.756481590376014e+02
 1.776568013627593e+00	 9.185891860866668e-01	-1.710710556055702e+02
 1.757599916777820e+00	 9.543807062084535e-01	-1.653335492914761e+02
 1.737851804833333e+00	 9.898843893540332e-01	-1.579130430707933e+02
 1.717329518392415e+00	 1.025075277784627e+00	-1.482833266351758e+02
 1.696039945799453e+00	 1.059928536339529e+00	-1.359167426159964e+02
 1.673991022423631e+00	 1.094419506759630e+00	-1.202864066991807e+02
 1.569366583547552e+00	 1.026018287606500e+00	 1.212445971336795e+02
 1.547992243692877e+00	 1.057991027143265e+00	 1.126044485974846e+02
 1.525923817606285e+00	 1.089578589594028e+00	 1.058011376926617e+02
 1.503171653821628e+00	 1.120758662325927e+00	 1.012119530607125e+02
 1.479747048068645e+00	 1.151509302505199e+00	 9.920805035159304e+01
 1.455662226709656e+00	 1.181808986997448e+00	 1.001527949644340e+02
 1.430930327038606e+00	 1.211636661368759e+00	 1.044001290831552e+02
 1.405565374500522e+00	 1.240971787758436e+00	 1.122929743387780e+02
 1.379582256908508e+00	 1.269794391398509e+00	 1.241616812638508e+02
 1.352996695754110e+00	 1.298085105561391e+00	 1.403225364209057e+02
 1.325825214725000e+00	 1.325825214725000e+00	 1.610763376883406e+02
 1.579829027432933e+00	 1.032858409524087e+00	 8.579538862548884e+01
 1.558312191979597e+00	 1.065044300658442e+00	 8.125526847499452e+01
 1.536096643052833e+00	 1.096842446859411e+00	 7.804633942747790e+01
 1.513192798176722e+00	 1.128230386743245e+00	 7.647119305523887e+01
 1.489612028385866e+00	 1.159186031190622e+00	 7.682805482681316e+01
 1.465366641551668e+00	 1.189687713579582e+00	 7.940945537291475e+01
 1.440469862550032e+00	 1.219714239113318e+00	 8.450091825253745e+01
 1.414935810328952e+00	 1.249244933012061e+00	 9.237967329706487e+01
 1.388779471953618e+00	 1.278259687342719e+00	 1.033134045020067e+02
 1.362016673725522e+00	 1.306739006266193e+00	 1.175590412339062e+02
 1.334664049490250e+00	 1.334664049490250e+00	 1.353616012254591e+02
 1.590291471318810e+00	 1.039698531441169e+00	 5.298851384760255e+01
 1.568632140266901e+00	 1.072097574173214e+00	 5.216836392491984e+01
 1.546269468500037e+00	 1.104106304124489e+00	 5.218173045114867e+01
 1.523213942532522e+00	 1.135702111160359e+00	 5.325726209355205e+01
 1.499477008703824e+00	 1.166862759875942e+00	 5.562099196524157e+01
 1.475071056394428e+00	 1.197566440161714e+00	 5.949533463276105e+01
 1.450009398062197e+00	 1.227791816857975e+00	 6.509809189242472e+01
 1.424306246158092e+00	 1.257518078265884e+00	 7.264147415716937e+01
 1.397976686999389e+00	 1.286724983287230e+00	 8.233114424511945e+01
 1.371036651697523e+00	 1.315392906971395e+00	 9.436529023982429e+01
 1.343502884256000e+00	 1.343502884256000e+00	 1.089337339008224e+02
 1.600753915205181e+00	 1.046538653357745e+00	 2.277217374362678e+01
 1.578952088554790e+00	 1.079150847687581e+00	 2.529938811321462e+01
 1.556442293947896e+00	 1.111370161389263e+00	 2.817025980386775e+01
 1.533235086889028e+00	 1.143173835577269e+00	 3.154023395642007e+01
 1.509341989022520e+00	 1.174539488561158e+00	 3.556387468945557e+01
 1.484775471237937e+00	 1.205445166743843e+00	 4.039418511951591e+01
 1.459548933575101e+00	 1.235869394602729e+00	 4.618192848076190e+01
 1.433676681987940e+00	 1.265791223519906e+00	 5.307495496723985e+01
 1.407173902045819e+00	 1.295190279232040e+00	 6.121753892760321e+01
 1.380056629670115e+00	 1.324046807676997e+00	 7.074973100109500e+01
 1.352341719022250e+00	 1.352341719022250e+00	 8.180672969472795e+01
 1.611216359092047e+00	 1.053378775273816e+00	-4.904085286248664e+00
 1.589272036843264e+00	 1.086204121201542e+00	 6.051460922009588e-01
 1.566615119396410e+00	 1.118634018653731e+00	 5.975838903051870e+00
 1.543256231246241e+00	 1.150645559993975e+00	 1.129095973781362e+01
 1.519206969341953e+00	 1.182216217246272e+00	 1.663431299206414e+01
 1.494479886082193e+00	 1.213323893325969e+00	 2.209018122242129e+01
 1.469088469088744e+00	 1.243946972347583e+00	 2.774295899455183e+01
 1.443047117818499e+00	 1.274064368774127e+00	 3.367678264392325e+01
 1.416371117092909e+00	 1.303655575177150e+00	 3.997515843451438e+01
 1.389076607643296e+00	 1.332700708382998e+00	 4.672059163926180e+01
 1.361180553789000e+00	 1.361180553789000e+00	 5.399421907884182e+01
 1.621678802979408e+00	 1.060218897189382e+00	-3.008941478814194e+01
 1.599591985132323e+00	 1.093257394715098e+00	-2.195644235808978e+01
 1.576787944845580e+00	 1.125897875917895e+00	-1.443668950208048e+01
 1.553277375604159e+00	 1.158117284410476e+00	-7.518957230667041e+00
 1.529071949662122e+00	 1.189892945931280e+00	-1.189505325523655e+00
 1.504184300927196e+00	 1.221202619908093e+00	 4.567905730207673e+00
 1.478628004603125e+00	 1.252024550092534e+00	 9.771958763905918e+00
 1.452417553649766e+00	 1.282337514028546e+00	 1.444371010486808e+01
 1.425568332140659e+00	 1.312120871122559e+00	 1.860650631209768e+01
 1.398096585617068e+00	 1.341354609089400e+00	 2.228588791305427e+01
 1.370019388556250e+00	 1.370019388556250e+00	 2.550948074167031e+01
 1.632141246867263e+00	 1.067059019104442e+00	-5.283170598802350e+01
 1.609911933421967e+00	 1.100310668228250e+00	-4.242637845938953e+01
 1.586960770295406e+00	 1.133161733181755e+00	-3.310158118187157e+01
 1.563298519962784e+00	 1.165589008826773e+00	-2.491718549091717e+01
 1.538936929983029e+00	 1.197569674616187e+00	-1.792883317351557e+01
 1.513888715772949e+00	 1.229081346490214e+00	-1.218766325949082e+01
 1.488167540118244e+00	 1.260102127837583e+00	-7.740060360596159e+00
 1.461787989481743e+00	 1.290610659283165e+00	-4.627426488479196e+00
 1.434765547189069e+00	 1.320586167068268e+00	-2.885978106676910e+00
 1.407116563591429e+00	 1.350008509796201e+00	-2.546569975775912e+00
 1.378858223324000e+00	 1.378858223324000e+00	-3.634547136946523e+00
 1.642603690755613e+00	 1.073899141018997e+00	-7.317762993034442e+01
 1.620231881712195e+00	 1.107363941740996e+00	-6.084461879920437e+01
 1.597133595745887e+00	 1.140425590445309e+00	-5.005221913676548e+01
 1.573319664322116e+00	 1.173060733242866e+00	-4.093068864800302e+01
 1.548801910304673e+00	 1.205246403300989e+00	-3.360438198635902e+01
 1.523593130619449e+00	 1.236960073072333e+00	-2.819116493043921e+01
 1.497707075634103e+00	 1.268179705582731e+00	-2.480185754120784e+01
 1.471158425314429e+00	 1.298883804537982e+00	-2.353971038270364e+01
 1.443962762238138e+00	 1.329051463014275e+00	-2.449991765781051e+01
 1.416136541566381e+00	 1.358662410503402e+00	-2.776917083670484e+01
 1.387697058092250e+00	 1.387697058092250e+00	-3.342525604221004e+01
 1.653066134644457e+00	 1.080739262933047e+00	-9.117267609240902e+01
 1.630551830003009e+00	 1.114417215253336e+00	-7.725010838985938e+01
 1.607306421197023e+00	 1.147689447708559e+00	-6.532114121757222e+01
 1.583340808682154e+00	 1.180532457658756e+00	-5.558574767921405e+01
 1.558666890627054e+00	 1.212923131985688e+00	-4.823633885893186e+01
 1.533297545466696e+00	 1.244838799654449e+00	-4.345686785998839e+01
 1.507246611150701e+00	 1.276257283327976e+00	-4.142197020023628e+01
 1.480528861147824e+00	 1.307156949792999e+00	-4.229614678354468e+01
 1.453159977287867e+00	 1.337516758960583e+00	-4.623299537959812e+01
 1.425156519541922e+00	 1.367316311211003e+00	-5.337449619325741e+01
 1.396535892861000e+00	 1.396535892861000e+00	-6.385035669251899e+01
 1.663528578533797e+00	 1.087579384846591e+00	-1.068611895415953e+02
 1.640871778294408e+00	 1.121470488765272e+00	-9.168081248002943e+01
 1.617479246648815e+00	 1.154953304971504e+00	-7.894006670345276e+01
 1.593361953042898e+00	 1.188004182074440e+00	-6.890798240125862e+01
 1.568531870950172e+00	 1.220599860670283e+00	-6.184438303608172e+01
 1.543001960314693e+00	 1.252717526236562e+00	-5.799868167419338e+01
 1.516786146668037e+00	 1.284334861073320e+00	-5.760872099378058e+01
 1.489899296981929e+00	 1.315430095048214e+00	-6.089966531074840e+01
 1.462357192338255e+00	 1.345982054907189e+00	-6.808295262016281e+01
 1.434176497518053e+00	 1.375970211919004e+00	-7.935531422345608e+01
 1.405374727630250e+00	 1.405374727630250e+00	-9.489786900127601e+01
 1.673991022423631e+00	 1.094419506759630e+00	-1.202864066991807e+02
 1.651191726586392e+00	 1.128523762276803e+00	-1.041737471733304e+02
 1.627652072101263e+00	 1.162217162234144e+00	-9.093992188322775e+01
 1.603383097404348e+00	 1.195475906489921e+00	-8.092237213243716e+01
 1.578396851274028e+00	 1.228276589354776e+00	-7.444770178380338e+01
 1.552706375163437e+00	 1.260596252818672e+00	-7.183016826586392e+01
 1.526325682186112e+00	 1.292412438818762e+00	-7.337022452395259e+01
 1.499269732816743e+00	 1.323703240303628e+00	-7.935312236085747e+01
 1.471554407389304e+00	 1.354447350854096e+00	-9.004758721595459e+01
 1.443196475494775e+00	 1.384624112627405e+00	-1.057045739274991e+02
 1.414213562400000e+00	 1.414213562400000e+00	-1.265561124151242e+02
 1.325825214725000e+00	 1.325825214725000e+00	 1.610763376883406e+02
 1.298085105561391e+00	 1.352996695754110e+00	 1.858198852805402e+02
 1.269794391398509e+00	 1.379582256908508e+00	 2.018108715423903e+02
 1.240971787758436e+00	 1.405565374500522e+00	 2.086633805723376e+02
 1.211636661368759e+00	 1.430930327038606e+00	 2.060278975951554e+02
 1.181808986997448e+00	 1.455662226709656e+00	 1.935926626306565e+02
 1.151509302505200e+00	 1.479747048068645e+00	 1.710848162814600e+02
 1.120758662325928e+00	 1.503171653821628e+00	 1.382713312443179e+02
 1.089578589594029e+00	 1.525923817606285e+00	 9.495972498663367e+01
 1.057991027143266e+00	 1.547992243692877e+00	 4.099855089558940e+01
 1.026018287606500e+00	 1.569366583547552e+00	-2.372233292157966e+01
 1.334664049490250e+00	 1.334664049490250e+00	 1.353616012254591e+02
 1.306739006266193e+00	 1.362016673725522e+00	 1.542957260685786e+02
 1.278259687342720e+00	 1.388779471953618e+00	 1.665716985112298e+02
 1.249244933012061e+00	 1.414935810328952e+00	 1.718659097321149e+02
 1.219714239113318e+00	 1.440469862550032e+00	 1.698828701975051e+02
 1.189687713579582e+00	 1.465366641551668e+00	 1.603563636278239e+02
 1.159186031190623e+00	 1.489612028385866e+00	 1.430504390628869e+02
 1.128230386743246e+00	 1.513192798176721e+00	 1.177602353789030e+02
 1.096842446859412e+00	 1.536096643052833e+00	 8.431263405262189e+01
 1.065044300658443e+00	 1.558312191979596e+00	 4.256673743913829e+01
 1.032858409524087e+00	 1.579829027432933e+00	-7.585828688606441e+00
 1.343502884256000e+00	 1.343502884256000e+00	 1.089337339008224e+02
 1.315392906971395e+00	 1.371036651697524e+00	 1.224152184849902e+02
 1.286724983287230e+00	 1.397976686999389e+00	 1.313052755852174e+02
 1.257518078265884e+00	 1.424306246158092e+00	 1.353419958230253e+02
 1.227791816857975e+00	 1.450009398062197e+00	 1.342833811406075e+02
 1.197566440161714e+00	 1.475071056394428e+00	 1.279083007367100e+02
 1.166862759875943e+00	 1.499477008703824e+00	 1.160173307104683e+02
 1.135702111160360e+00	 1.523213942532522e+00	 9.843347250893024e+01
 1.104106304124490e+00	 1.546269468500036e+00	 7.500274632447226e+01
 1.072097574173215e+00	 1.568632140266900e+00	 4.559465666782485e+01
 1.039698531441169e+00	 1.590291471318810e+00	 1.010252843735725e+01
 1.352341719022250e+00	 1.352341719022250e+00	 8.180672969472795e+01
 1.324046807676997e+00	 1.380056629670115e+00	 9.018536060683871e+01
 1.295190279232041e+00	 1.407173902045819e+00	 9.601214774803704e+01
 1.265791223519906e+00	 1.433676681987940e+00	 9.908628546219836e+01
 1.235869394602730e+00	 1.459548933575101e+00	 9.921874387034738e+01
 1.205445166743843e+00	 1.484775471237936e+00	 9.623302841449765e+01
 1.174539488561159e+00	 1.509341989022520e+00	 8.996586835567842e+01
 1.143173835577269e+00	 1.533235086889027e+00	 8.026783005868322e+01
 1.111370161389264e+00	 1.556442293947895e+00	 6.700385155768524e+01
 1.079150847687582e+00	 1.578952088554790e+00	 5.005369558775624e+01
 1.046538653357745e+00	 1.600753915205181e+00	 2.931231897858353e+01
 1.361180553789000e+00	 1.361180553789000e+00	 5.399421907884182e+01
 1.332700708382998e+00	 1.389076607643297e+00	 5.761296870951863e+01
 1.303655575177150e+00	 1.416371117092909e+00	 6.069284578986935e+01
 1.274064368774127e+00	 1.443047117818499e+00	 6.309356427308911e+01
 1.243946972347583e+00	 1.469088469088743e+00	 6.467854935853323e+01
 1.213323893325970e+00	 1.494479886082192e+00	 6.531550225022227e+01
 1.182216217246271e+00	 1.519206969341952e+00	 6.487693875981012e+01
 1.150645559993975e+00	 1.543256231246240e+00	 6.324069831757870e+01
 1.118634018653732e+00	 1.566615119396410e+00	 6.029042023075797e+01
 1.086204121201543e+00	 1.589272036843264e+00	 5.591598433361585e+01
 1.053378775273816e+00	 1.611216359092047e+00	 5.001391350425469e+01
 1.370019388556250e+00	 1.370019388556250e+00	 2.550948074167031e+01
 1.341354609089400e+00	 1.398096585617068e+00	 2.470468313076917e+01
 1.312120871122559e+00	 1.425568332140659e+00	 2.534788676473957e+01
 1.282337514028547e+00	 1.452417553649766e+00	 2.735875240095816e+01
 1.252024550092534e+00	 1.478628004603124e+00	 3.065265715005428e+01
 1.221202619908093e+00	 1.504184300927196e+00	 3.514106602469744e+01
 1.189892945931281e+00	 1.529071949662122e+00	 4.073192187402002e+01
 1.158117284410477e+00	 1.553277375604159e+00	 4.733005099267461e+01
 1.125897875917896e+00	 1.576787944845579e+00	 5.483758158619869e+01
 1.093257394715099e+00	 1.599591985132322e+00	 6.315437219664854e+01
 1.060218897189382e+00	 1.621678802979408e+00	 7.217844714500401e+01
 1.378858223324000e+00	 1.378858223324000e+00	-3.634547136946523e+00
 1.350008509796201e+00	 1.407116563591429e+00	-8.533026090853308e+00
 1.320586167068267e+00	 1.434765547189069e+00	-1.002222556971808e+01
 1.290610659283165e+00	 1.461787989481743e+00	-8.123099799171879e+00
 1.260102127837583e+00	 1.488167540118244e+00	-2.868813245618269e+00
 1.229081346490215e+00	 1.513888715772948e+00	 5.695439268135063e+00
 1.197569674616187e+00	 1.538936929983029e+00	 1.751267503167885e+01
 1.165589008826774e+00	 1.563298519962784e+00	 3.251442650915943e+01
 1.133161733181756e+00	 1.586960770295405e+00	 5.062110251612483e+01
 1.100310668228251e+00	 1.609911933421966e+00	 7.174240457464839e+01
 1.067059019104442e+00	 1.632141246867263e+00	 9.577779508766830e+01
 1.387697058092250e+00	 1.387697058092250e+00	-3.342525604221004e+01
 1.358662410503402e+00	 1.416136541566380e+00	-4.209385379298095e+01
 1.329051463014275e+00	 1.443962762238138e+00	-4.541700032930257e+01
 1.298883804537982e+00	 1.471158425314429e+00	-4.335681590976181e+01
 1.268179705582731e+00	 1.497707075634103e+00	-3.589549063394546e+01
 1.236960073072333e+00	 1.523593130619448e+00	-2.303529470672767e+01
 1.205246403300989e+00	 1.548801910304673e+00	-4.798482255159875e+00
 1.173060733242868e+00	 1.573319664322116e+00	 1.877291002547277e+01
 1.140425590445310e+00	 1.597133595745886e+00	 4.761736725477242e+01
 1.107363941740996e+00	 1.620231881712195e+00	 8.165430080283849e+01
 1.073899141018997e+00	 1.642603690755613e+00	 1.207845490065464e+02
 1.396535892861000e+00	 1.396535892861000e+00	-6.385035669251899e+01
 1.367316311211003e+00	 1.425156519541922e+00	-7.597165447237458e+01
 1.337516758960583e+00	 1.453159977287867e+00	-8.083595909634620e+01
 1.307156949792999e+00	 1.480528861147824e+00	-7.834709744051068e+01
 1.276257283327977e+00	 1.507246611150701e+00	-6.843676010041712e+01
 1.244838799654449e+00	 1.533297545466696e+00	-5.106470031705975e+01
 1.212923131985688e+00	 1.558666890627054e+00	-2.621878292194307e+01
 1.180532457658757e+00	 1.583340808682153e+00	 6.085116131398806e+00
 1.147689447708560e+00	 1.607306421197023e+00	 4.580335784218826e+01
 1.114417215253337e+00	 1.630551830003009e+00	 9.286493282661456e+01
 1.080739262933047e+00	 1.653066134644457e+00	 1.471719943896749e+02
 1.405374727630250e+00	 1.405374727630250e+00	-9.489786900127601e+01
 1.375970211919004e+00	 1.434176497518053e+00	-1.101604372647312e+02
 1.345982054907189e+00	 1.462357192338255e+00	-1.162786355281679e+02
 1.315430095048214e+00	 1.489899296981929e+00	-1.130985276675508e+02
 1.284334861073321e+00	 1.516786146668037e+00	-1.005017706750794e+02
 1.252717526236562e+00	 1.543001960314692e+00	-7.840600078793580e+01
 1.220599860670284e+00	 1.568531870950172e+00	-4.676502642586633e+01
 1.188004182074441e+00	 1.593361953042897e+00	-5.568827800937221e+00
 1.154953304971505e+00	 1.617479246648815e+00	 4.515663532513155e+01
 1.121470488765273e+00	 1.640871778294407e+00	 1.053498046790969e+02
 1.087579384846591e+00	 1.663528578533797e+00	 1.749140887207123e+02
 1.414213562400000e+00	 1.414213562400000e+00	-1.265561124151242e+02
 1.384624112627405e+00	 1.443196475494774e+00	-1.446543611127472e+02
 1.354447350854096e+00	 1.471554407389304e+00	-1.517445749802054e+02
 1.323703240303628e+00	 1.499269732816743e+00	-1.476155753286718e+02
 1.292412438818763e+00	 1.526325682186112e+00	-1.320994427096379e+02
 1.260596252818672e+00	 1.552706375163436e+00	-1.050720888149102e+02
 1.228276589354776e+00	 1.578396851274027e+00	-6.645359229233679e+01
 1.195475906489922e+00	 1.603383097404348e+00	-1.620829764173417e+01
 1.162217162234145e+00	 1.627652072101262e+00	 4.565532166295208e+01
 1.128523762276804e+00	 1.651191726586391e+00	 1.190850327282708e+02
 1.094419506759630e+00	 1.673991022423631e+00	 2.039854404790158e+02
 1.026018287606500e+00	 1.569366583547552e+00	-2.372233292157966e+01
 9.936830028478698e-01	 1.590037449219140e+00	-9.597197499146463e+01
 9.610080729608007e-01	 1.609996423530313e+00	-1.450718521882671e+02
 9.280166150632180e-01	 1.629236067072467e+00	-1.709095459971629e+02
 8.947319121182953e-01	 1.647749922022751e+00	-1.734626644350583e+02
 8.611773620061525e-01	 1.665532512820283e+00	-1.527973295509925e+02
 8.273764270649263e-01	 1.682579343755863e+00	-1.090662343819140e+02
 7.933525843124147e-01	 1.698886893546373e+00	-4.250629223045743e+01
 7.591292765506416e-01	 1.714452606980927e+00	 4.656409617853544e+01
 7.247298645455660e-01	 1.729274883740578e+00	 1.577481297512143e+02
 6.901775804629183e-01	 1.743353064507004e+00	 2.905740183731226e+02
 1.032858409524087e+00	 1.579829027432933e+00	-7.585828688606441e+00
 1.000307556199713e+00	 1.600637698875349e+00	-6.414768985807673e+01
 9.674147934461709e-01	 1.620729733015011e+00	-1.027268207903359e+02
 9.342033924955050e-01	 1.640097640847259e+00	-1.231957834018060e+02
 9.006967915306425e-01	 1.658734921497089e+00	-1.254982438556193e+02
 8.669185444175702e-01	 1.676636062899880e+00	-1.096479361755647e+02
 8.328922699100108e-01	 1.693796539375036e+00	-7.572728141740649e+01
 7.986416015392142e-01	 1.710212806164218e+00	-2.388567956838711e+01
 7.641901383925483e-01	 1.725882291021801e+00	 4.566250646179876e+01
 7.295613969744115e-01	 1.740803382960041e+00	 1.326402534617683e+02
 6.947787643316375e-01	 1.754975418265163e+00	 2.367104441935767e+02
 1.039698531441169e+00	 1.590291471318810e+00	 1.010252843735725e+01
 1.006932109550961e+00	 1.611237948531963e+00	-3.093259599149967e+01
 9.738215139308771e-01	 1.631463042500044e+00	-5.908326146609342e+01
 9.403901699270795e-01	 1.650959214622338e+00	-7.420733657673922e+01
 9.066616709422495e-01	 1.669719920971687e+00	-7.621503993791059e+01
 8.726597268282396e-01	 1.687739612979729e+00	-6.506837563265772e+01
 8.384081127543602e-01	 1.705013734994474e+00	-4.078030962881996e+01
 8.039306187653098e-01	 1.721538718782360e+00	-3.413698687700631e+00
 7.692510002338034e-01	 1.737311975063022e+00	 4.692001501560402e+01
 7.343929294026771e-01	 1.752331882179924e+00	 1.100623288255487e+02
 6.993799481998668e-01	 1.766597772023833e+00	 1.858094080377487e+02
 1.046538653357745e+00	 1.600753915205181e+00	 2.931231897858353e+01
 1.013556662901614e+00	 1.621838198188981e+00	 3.646044661900689e+00
 9.802282344149195e-01	 1.642196351985414e+00	-1.416662692200970e+01
 9.465769473579416e-01	 1.661820788397706e+00	-2.396919088109991e+01
 9.126265503531162e-01	 1.680704920446545e+00	-2.563890289214989e+01
 8.784009092381612e-01	 1.698843163059831e+00	-1.908668227656855e+01
 8.439239555979734e-01	 1.716230930614175e+00	-4.256840788337129e+00
 8.092196359907021e-01	 1.732864631400798e+00	 1.887335697066351e+01
 7.743118620744075e-01	 1.748741659104592e+00	 5.029429438438616e+01
 7.392244618303623e-01	 1.763860381400226e+00	 8.996475668129885e+01
 7.039811320676067e-01	 1.778220125783012e+00	 1.378128286104631e+02
 1.053378775273816e+00	 1.611216359092047e+00	 5.001391350425469e+01
 1.020181216251672e+00	 1.632438447846405e+00	 3.956167818571104e+01
 9.866349548982980e-01	 1.652929661471120e+00	 3.199829116916735e+01
 9.527637247880920e-01	 1.672682362173361e+00	 2.749431721798997e+01
 9.185914297632424e-01	 1.691689919921662e+00	 2.620498842448185e+01
 8.841420916473348e-01	 1.709946713140184e+00	 2.826983761997789e+01
 8.494397984408509e-01	 1.727448126234142e+00	 3.381242199340709e+01
 8.145086532153912e-01	 1.744190544019534e+00	 4.294013656462610e+01
 7.793727239143596e-01	 1.760171343146511e+00	 5.574411643712239e+01
 7.440559942574673e-01	 1.775388880620949e+00	 7.229922606597269e+01
 7.085823159348565e-01	 1.789842479542702e+00	 9.266413312829485e+01
 1.060218897189382e+00	 1.621678802979408e+00	 7.217844714500401e+01
 1.026805769601136e+00	 1.643038697504233e+00	 7.678843585377025e+01
 9.930416753810124e-01	 1.663662970957163e+00	 7.938734084476738e+01
 9.589505022175296e-01	 1.683543935949304e+00	 8.015947921349108e+01
 9.245563091726284e-01	 1.702674919397039e+00	 7.929210485139687e+01
 8.898832740557604e-01	 1.721050263220789e+00	 7.697458237947816e+01
 8.549556412829928e-01	 1.738665321854372e+00	 7.339756785907718e+01
 8.197976704393767e-01	 1.755516456638565e+00	 6.875220144477200e+01
 7.844335857536603e-01	 1.771601027188778e+00	 6.322931690550269e+01
 7.488875266839924e-01	 1.786917379842091e+00	 5.701867266023764e+01
 7.131834998016169e-01	 1.801464833302902e+00	 5.030820865820709e+01
 1.067059019104442e+00	 1.632141246867263e+00	 9.577779508766830e+01
 1.033430322950004e+00	 1.653638947162467e+00	 1.153011121689177e+02
 9.994483958630631e-01	 1.674396280443540e+00	 1.279769893486904e+02
 9.651372796462548e-01	 1.694405509725534e+00	 1.340031944315888e+02
 9.305211885812740e-01	 1.713659918872676e+00	 1.335985461011045e+02
 8.956244564634376e-01	 1.732153813301645e+00	 1.270016323366187e+02
 8.604714841243993e-01	 1.749882517474867e+00	 1.144694528120907e+02
 8.250866876626589e-01	 1.766842369257893e+00	 9.627599591763229e+01
 7.894944475923095e-01	 1.783030711231393e+00	 7.271076128602053e+01
 7.537190591099371e-01	 1.798445879063653e+00	 4.407723883223230e+01
 7.177846836678873e-01	 1.813087187063613e+00	 1.069135532777787e+01
 1.073899141018997e+00	 1.642603690755613e+00	 1.207845490065464e+02
 1.040054876298278e+00	 1.664239196821106e+00	 1.550751437410273e+02
 1.005855116344450e+00	 1.685129589930255e+00	 1.777443034114751e+02
 9.713240570742678e-01	 1.705267083502052e+00	 1.890029506740095e+02
 9.364860679891795e-01	 1.724644918348573e+00	 1.891010207315099e+02
 9.013656388703671e-01	 1.743257363382755e+00	 1.783257281182921e+02
 8.659873269650699e-01	 1.761099713095627e+00	 1.569996752944845e+02
 8.303757048852374e-01	 1.778168281877517e+00	 1.254788191262814e+02
 7.945553094303071e-01	 1.794460395274357e+00	 8.415031204516515e+01
 7.585505915353016e-01	 1.809974378285635e+00	 3.343023520830238e+01
 7.223858675336681e-01	 1.824709540824833e+00	-2.623875867642309e+01
 1.080739262933047e+00	 1.653066134644457e+00	 1.471719943896749e+02
 1.046679429645956e+00	 1.674839446480151e+00	 1.960865889671381e+02
 1.012261836825172e+00	 1.695862899417306e+00	 2.286669302792209e+02
 9.775108345015685e-01	 1.716128657278857e+00	 2.451368055954509e+02
 9.424509473963443e-01	 1.735629917824729e+00	 2.457768268787687e+02
 9.071068212765485e-01	 1.754360913464115e+00	 2.309222497484167e+02
 8.715031698050051e-01	 1.772316908716650e+00	 2.009605526922082e+02
 8.356647221071125e-01	 1.789494194497438e+00	 1.563287979987730e+02
 7.996161712676533e-01	 1.805890079317670e+00	 9.751079706999009e+01
 7.633821239600858e-01	 1.821502877508038e+00	 2.503410370308227e+01
 7.269870513989594e-01	 1.836331894586565e+00	-6.053314040153998e+01
 1.087579384846591e+00	 1.663528578533797e+00	 1.749140887207123e+02
 1.053303982993040e+00	 1.685439696139599e+00	 2.383121084783823e+02
 1.018668557305232e+00	 1.706596208904692e+00	 2.807230794584152e+02
 9.836976119281569e-01	 1.726990231055951e+00	 3.023833687837316e+02
 9.484158268027693e-01	 1.746614917301144e+00	 3.036038337171895e+02
 9.128480036819818e-01	 1.765464463545728e+00	 2.847671965412633e+02
 8.770190126442042e-01	 1.783534104337938e+00	 2.463250987270054e+02
 8.409537393282845e-01	 1.800820107117657e+00	 1.887948612173751e+02
 8.046770331043480e-01	 1.817319763361330e+00	 1.127559793092170e+02
 7.682136563842901e-01	 1.833031376730859e+00	 1.884638194466784e+01
 7.315882352637607e-01	 1.847954248348806e+00	-9.224151378745030e+01
 1.094419506759630e+00	 1.673991022423631e+00	 2.039854404790158e+02
 1.059928536339529e+00	 1.696039945799453e+00	 2.817289463201404e+02
 1.025075277784627e+00	 1.717329518392415e+00	 3.338915051453072e+02
 9.898843893540332e-01	 1.737851804833332e+00	 3.607217845119582e+02
 9.543807062084537e-01	 1.757599916777820e+00	 3.625604636144062e+02
 9.185891860866674e-01	 1.776568013627593e+00	 3.398371677487800e+02
 8.825348554826680e-01	 1.794751299959490e+00	 2.930670016961010e+02
 8.462427565487531e-01	 1.812146019738171e+00	 2.228467141639659e+02
 8.097378949403913e-01	 1.828749447405340e+00	 1.298505275528092e+02
 7.730451888079141e-01	 1.844559875954101e+00	 1.482566903384169e+01
 7.361894191280726e-01	 1.859576602111558e+00	-1.214123597635720e+02
 6.901775804629183e-01	 1.743353064507004e+00	 2.905740183731226e+02
 6.554954827290597e-01	 1.756687414487810e+00	 4.389015404434509e+02
 6.207064124720911e-01	 1.769279104497503e+00	 5.465781713393443e+02
 5.858329516852290e-01	 1.781130189742346e+00	 6.143083201992007e+02
 5.508973832404049e-01	 1.792243586465333e+00	 6.429193515504787e+02
 5.159216528644688e-01	 1.802623046614941e+00	 6.333545350479561e+02
 4.809273331759799e-01	 1.812273130706186e+00	 5.866656629640388e+02
 4.459355898653843e-01	 1.821199179046478e+00	 5.040053944941790e+02
 4.109671500863636e-01	 1.829407281501319e+00	 3.866193854410598e+02
 3.760422731112888e-01	 1.836904245976013e+00	 2.358382608149926e+02
 3.411807232891650e-01	 1.843697565789419e+00	 5.306948637657338e+01
 6.947787643316375e-01	 1.754975418265163e+00	 2.367104441935767e+02
 6.598654526133345e-01	 1.768398663912796e+00	 3.595965513609798e+02
 6.248444552216971e-01	 1.781074298522854e+00	 4.499764586071447e+02
 5.897385046965644e-01	 1.793004391002975e+00	 5.083517532286729e+02
 5.545700324623483e-01	 1.804191877037771e+00	 5.353246878336040e+02
 5.193611305507445e-01	 1.814640533588709e+00	 5.315926976511242e+02
 4.841335153977708e-01	 1.824354951574237e+00	 4.979426342077319e+02
 4.489084937984773e-01	 1.833340506903816e+00	 4.352447624741915e+02
 4.137069310875708e-01	 1.841603330042052e+00	 3.444465683329007e+02
 3.785492215992395e-01	 1.849150274280280e+00	 2.265664225321790e+02
 3.434552614448158e-01	 1.855988882892821e+00	 8.268714621408122e+01
 6.993799481998668e-01	 1.766597772023833e+00	 1.858094080377487e+02
 6.642354224972193e-01	 1.780109913338382e+00	 2.827428748943577e+02
 6.289824979710141e-01	 1.792869492548873e+00	 3.552135366986237e+02
 5.936440577077111e-01	 1.804878592264319e+00	 4.035225681954987e+02
 5.582426816842031e-01	 1.816140167610950e+00	 4.280497068691960e+02
 5.228006082370326e-01	 1.826658020563224e+00	 4.292493242439888e+02
 4.873396976196750e-01	 1.836436772443023e+00	 4.076462618163728e+02
 4.518813977317842e-01	 1.845481834761856e+00	 3.638314668581644e+02
 4.164467120890923e-01	 1.853799378583433e+00	 2.984574633181745e+02
 3.810561700876046e-01	 1.861396302585124e+00	 2.122336927071481e+02
 3.457297996009814e-01	 1.868280199996709e+00	 1.059217591988100e+02
 7.039811320676067e-01	 1.778220125783012e+00	 1.378128286104631e+02
 6.686053923807149e-01	 1.791821162764569e+00	 2.082924537509235e+02
 6.331205407200413e-01	 1.804664686575561e+00	 2.622533585520718e+02
 5.975496107186692e-01	 1.816752793526378e+00	 2.997986672572806e+02
 5.619153309059700e-01	 1.828088458184871e+00	 3.210881481056965e+02
 5.262400859233336e-01	 1.838675507538488e+00	 3.263358253101370e+02
 4.905458798416924e-01	 1.848518593312543e+00	 3.158074035884947e+02
 4.548543016653047e-01	 1.857623162620597e+00	 2.898175287157242e+02
 4.191864930909281e-01	 1.865995427125461e+00	 2.487269077923061e+02
 3.835631185763844e-01	 1.873642330890543e+00	 1.929393129194069e+02
 3.480043377576615e-01	 1.880571517101082e+00	 1.228984917438299e+02
 7.085823159348565e-01	 1.789842479542702e+00	 9.266413312829485e+01
 6.729753622638208e-01	 1.803532412191355e+00	 1.361984787845935e+02
 6.372585834687796e-01	 1.816459880602917e+00	 1.710608132970063e+02
 6.014551637294383e-01	 1.828626994789152e+00	 1.971585264443055e+02
 5.655879801276489e-01	 1.840036748759533e+00	 2.144339135050474e+02
 5.296795636096469e-01	 1.850692994514499e+00	 2.228633148579255e+02
 4.937520620638231e-01	 1.860600414182798e+00	 2.224561157216965e+02
 4.578272055990393e-01	 1.869764490480038e+00	 2.132536178197384e+02
 4.219262740930783e-01	 1.878191475668138e+00	 1.953277952218195e+02
 3.860700670655788e-01	 1.885888359196539e+00	 1.687799469445287e+02
 3.502788759148565e-01	 1.892862834205940e+00	 1.337392590860345e+02
 7.131834998016169e-01	 1.801464833302902e+00	 5.030820865820709e+01
 6.773453321465368e-01	 1.815243661618740e+00	 6.641534873339644e+01
 6.413966262172285e-01	 1.828255074630939e+00	 8.160169605479294e+01
 6.053607167400187e-01	 1.840501196052642e+00	 9.558117714789317e+01
 5.692606293492394e-01	 1.851985039334938e+00	 1.080810623007066e+02
 5.331190412959727e-01	 1.862710481491259e+00	 1.188426199845841e+02
 4.969582442860671e-01	 1.872682235053787e+00	 1.276216786711230e+02
 4.608001095329875e-01	 1.881905818340180e+00	 1.341890962369140e+02
 4.246660550955427e-01	 1.890387524211462e+00	 1.383311378521031e+02
 3.885770155551879e-01	 1.898134387503110e+00	 1.398497639094887e+02
 3.525534140725660e-01	 1.905154151311284e+00	 1.385628301631475e+02
 7.177846836678873e-01	 1.813087187063613e+00	 1.069135532777787e+01
 6.817153020288633e-01	 1.826954911046724e+00	-1.101368494436286e+00
 6.455346689653881e-01	 1.840050268659631e+00	-6.157321099211941e+00
 6.092662697504103e-01	 1.852375397316846e+00	-4.953811679281685e+00
 5.729332785707419e-01	 1.863933329911085e+00	 2.023805957260208e+00
 5.365585189823112e-01	 1.874727968468767e+00	 1.428429007245757e+01
 5.001644265084243e-01	 1.884764055925510e+00	 3.133262201338160e+01
 4.637730134671497e-01	 1.894047146201024e+00	 5.267206024183925e+01
 4.274058360983216e-01	 1.902583572755435e+00	 7.780612700333519e+01
 3.910839640452114e-01	 1.910380415810258e+00	 1.062405182497179e+02
 3.548279522307902e-01	 1.917445468417113e+00	 1.374849284569976e+02
 7.223858675336681e-01	 1.824709540824833e+00	-2.623875867642309e+01
 6.860852719108003e-01	 1.838666160475309e+00	-6.639497305485899e+01
 6.496727117132584e-01	 1.851845462688989e+00	-9.224871706378440e+01
 6.131718227606133e-01	 1.864249598581766e+00	-1.044663506426141e+02
 5.766059277921564e-01	 1.875881620487973e+00	-1.037434966773347e+02
 5.399979966686622e-01	 1.886745455447023e+00	-9.080139436619358e+01
 5.033706087308947e-01	 1.896845876797968e+00	-6.638325163974437e+01
 4.667459174015257e-01	 1.906188474062568e+00	-3.125061937078851e+01
 4.301456171014146e-01	 1.914779621300055e+00	 1.382019106210228e+01
 3.935909125356498e-01	 1.922626444117981e+00	 6.804162661046784e+01
 3.571024903895291e-01	 1.929736785523427e+00	 1.306183289829110e+02
 7.269870513989594e-01	 1.836331894586565e+00	-6.053314040153998e+01
 6.904552417923476e-01	 1.850377409904493e+00	-1.295076689884457e+02
 6.538107544608396e-01	 1.863640656719015e+00	-1.767041485794003e+02
 6.170773757706274e-01	 1.876123799847400e+00	-2.029758463749007e+02
 5.802785770134827e-01	 1.887829911065603e+00	-2.092263440354129e+02
 5.434374743550259e-01	 1.898762942426027e+00	-1.964044131802746e+02
 5.065767909534783e-01	 1.908927697671160e+00	-1.654988436357103e+02
 4.697188213361155e-01	 1.918329801924813e+00	-1.175332585047817e+02
 4.328853981048221e-01	 1.926975669845323e+00	-5.356094872919222e+01
 3.960978610265026e-01	 1.934872472426280e+00	 2.534024182787543e+01
 3.593770285487826e-01	 1.942028102630226e+00	 1.180729515959592e+02
 7.315882352637607e-01	 1.847954248348806e+00	-9.224151378745030e+01
 6.948252116735053e-01	 1.862088659334276e+00	-1.904805986891096e+02
 6.579487972081315e-01	 1.875435850749710e+00	-2.595544760819349e+02
 6.209829287804527e-01	 1.887998001113750e+00	-3.005012173841815e+02
 5.839512262347207e-01	 1.899778201643975e+00	-3.144300963172823e+02
 5.468769520414020e-01	 1.910780429405780e+00	-3.025149983920268e+02
 5.097829731761752e-01	 1.921009518545087e+00	-2.659877371437497e+02
 4.726917252709194e-01	 1.930471129787759e+00	-2.061313224445198e+02
 4.356251791085438e-01	 1.939171718391240e+00	-1.242732245881826e+02
 3.986048095177700e-01	 1.947118500735156e+00	-2.177867588171473e+01
 3.616515667085508e-01	 1.954319419737511e+00	 9.995595077622059e+01
 7.361894191280726e-01	 1.859576602111558e+00	-1.214123597635720e+02
 6.991951815542736e-01	 1.873799908764660e+00	-2.493538760802412e+02
 6.620868399551343e-01	 1.887231044781072e+00	-3.408297885868435e+02
 6.248884817900895e-01	 1.899872202380815e+00	-3.970609093072920e+02
 5.876238754558710e-01	 1.911726492223089e+00	-4.193599798106219e+02
 5.503164297277909e-01	 1.922797916386281e+00	-4.091236263162520e+02
 5.129891553989854e-01	 1.933091339419748e+00	-3.678241758475831e+02
 4.756646292059370e-01	 1.942612457651407e+00	-2.970013899364602e+02
 4.383649601125800e-01	 1.951367766937804e+00	-1.982541705215524e+02
 4.011117580094523e-01	 1.959364529044608e+00	-7.323229040202877e+01
 3.639261048688338e-01	 1.966610736845282e+00	 7.637180204708727e+01
 3.411807232891650e-01	 1.843697565789419e+00	 5.306948637657338e+01
 3.064017453303258e-01	 1.849795386114716e+00	-1.416977357120094e+02
 2.717240419284751e-01	 1.855206469658534e+00	-2.977692063219801e+02
 2.371657537175081e-01	 1.859940161747613e+00	-4.165546981636714e+02
 2.027444415484455e-01	 1.864006354987513e+00	-4.995355372510659e+02
 1.684770710600370e-01	 1.867415453651191e+00	-5.482560422762490e+02
 1.343799995057737e-01	 1.870178337950090e+00	-5.643150701344734e+02
 1.004689647900904e-01	 1.872306328333207e+00	-5.493577115614786e+02
 6.675907665743416e-02	 1.873811149952121e+00	-5.050671771707939e+02
 3.326480996967145e-02	 1.874704897421970e+00	-4.331569103894410e+02
 0.000000000000000e+00	 1.875000000000000e+00	-3.353629599342333e+02
 3.434552614448158e-01	 1.855988882892821e+00	 8.268714621408122e+01
 3.084444236327498e-01	 1.862127355353983e+00	-8.313654147472403e+01
 2.735355355414154e-01	 1.867574512788415e+00	-2.186490974797659e+02
 2.387468587422667e-01	 1.872339762825035e+00	-3.249402479727005e+02
 2.040960711586644e-01	 1.876433064020110e+00	-4.031566407856118e+02
 1.696002515336156e-01	 1.879864890008415e+00	-4.544951355692592e+02
 1.352758661689677e-01	 1.882646193536137e+00	-4.801961735304211e+02
 1.011387578885178e-01	 1.884788370521935e+00	-4.815372614442609e+02
 6.720413716834214e-02	 1.886303224285065e+00	-4.598266017662935e+02
 3.348657536938560e-02	 1.887202930071432e+00	-4.163968977042816e+02
 0.000000000000000e+00	 1.887500000000000e+00	-3.525993590906795e+02
 3.457297996009814e-01	 1.868280199996709e+00	 1.059217591988100e+02
 3.104871019357723e-01	 1.874459324593641e+00	-2.989067798209347e+01
 2.753470291550064e-01	 1.879942555918602e+00	-1.436787526285740e+02
 2.403279637676975e-01	 1.884739363902691e+00	-2.362158050064344e+02
 2.054477007695459e-01	 1.888859773052877e+00	-3.083175732550363e+02
 1.707234320078177e-01	 1.892314326365756e+00	-3.608373186876654e+02
 1.361717328327167e-01	 1.895114049122259e+00	-3.946610043791068e+02
 1.018085509874029e-01	 1.897270412710705e+00	-4.107025525407863e+02
 6.764919767958245e-02	 1.898795298618027e+00	-4.098992041088400e+02
 3.370834076927928e-02	 1.899700962720899e+00	-3.932070018244043e+02
 0.000000000000000e+00	 1.900000000000000e+00	-3.615964158961494e+02
 3.480043377576615e-01	 1.880571517101082e+00	 1.228984917438299e+02
 3.125297802393933e-01	 1.886791293833689e+00	 1.814408581617042e+01
 2.771585227692485e-01	 1.892310599049096e+00	-7.277679469306079e+01
 2.419090687938004e-01	 1.897138964980581e+00	-1.503246929997333e+02
 2.067993303810904e-01	 1.901286482085814e+00	-2.149881321480565e+02
 1.718466124826434e-01	 1.904763762723215e+00	-2.672805601180557e+02
 1.370675994970205e-01	 1.907581904708456e+00	-3.077373222025443e+02
 1.024783440867457e-01	 1.909752454899516e+00	-3.369126770271748e+02
 6.809425819115501e-02	 1.911287372951007e+00	-3.553768713021909e+02
 3.393010616935248e-02	 1.912198995370370e+00	-3.637132870604356e+02
 0.000000000000000e+00	 1.912500000000000e+00	-3.625156737706305e+02
 3.502788759148565e-01	 1.892862834205940e+00	 1.337392590860345e+02
 3.145724585436130e-01	 1.899123263074128e+00	 6.106927357015291e+01
 2.789700163841413e-01	 1.904678642179897e+00	-5.863960387844884e+00
 2.434901738205753e-01	 1.909538566058704e+00	-6.721170789726153e+01
 2.081509599932976e-01	 1.913713191118922e+00	-1.231388995323658e+02
 1.729697929580925e-01	 1.917213199080792e+00	-1.738228812107176e+02
 1.379634661618794e-01	 1.920049760294728e+00	-2.194521655920944e+02
 1.031481371865461e-01	 1.922234497088370e+00	-2.602251923122752e+02
 6.853931870305990e-02	 1.923779447284006e+00	-2.963491038649074e+02
 3.415187156960520e-02	 1.924697028019846e+00	-3.280385434163196e+02
 0.000000000000000e+00	 1.925000000000000e+00	-3.555144802900791e+02
 3.525534140725660e-01	 1.905154151311284e+00	 1.385628301631475e+02
 3.166151368484313e-01	 1.911455232314958e+00	 9.898378886556601e+01
 2.807815099996850e-01	 1.917046685311005e+00	 5.713696796957119e+01
 2.450712788480224e-01	 1.921938167137059e+00	 1.317692963743734e+01
 2.095025896061675e-01	 1.926139900152201e+00	-3.274121674537386e+01
 1.740929734341652e-01	 1.929662635438486e+00	-8.046235447413000e+01
 1.388593328272932e-01	 1.932517615881074e+00	-1.298318754640861e+02
 1.038179302868042e-01	 1.934716539277265e+00	-1.806961705461464e+02
 6.898437921529707e-02	 1.936271521617023e+00	-2.329030927168707e+02
 3.437363697003744e-02	 1.937195060669326e+00	-2.863023922120504e+02
 0.000000000000000e+00	 1.937500000000000e+00	-3.407461225362189e+02
 3.548279522307902e-01	 1.917445468417113e+00	 1.374849284569976e+02
 3.186578151538482e-01	 1.923787201556179e+00	 1.319839992005024e+02
 2.825930036158798e-01	 1.929414728442421e+00	 1.163012280233118e+02
 2.466523838761414e-01	 1.934337768215650e+00	 9.089361988628816e+01
 2.108542192197002e-01	 1.938566609185649e+00	 5.623283994160823e+01
 1.752161539108614e-01	 1.942112071796298e+00	 1.280289806493745e+01
 1.397551994932619e-01	 1.944985471467495e+00	-3.890211742102673e+01
 1.044877233875199e-01	 1.947198581466201e+00	-9.838024622436382e+01
 6.942943972786655e-02	 1.948763595950059e+00	-1.651237932047801e+02
 3.459540237064921e-02	 1.949693093318812e+00	-2.386213876440033e+02
 0.000000000000000e+00	 1.950000000000000e+00	-3.183599572405786e+02
 3.571024903895291e-01	 1.929736785523427e+00	 1.306183289829110e+02
 3.207004934598637e-01	 1.936119170797790e+00	 1.601638167528874e+02
 2.844044972327253e-01	 1.941782771574142e+00	 1.717021404379808e+02
 2.482334889049326e-01	 1.946737369294472e+00	 1.659894279959051e+02
 2.122058488338956e-01	 1.950993318219269e+00	 1.438104827291631e+02
 1.763393343881811e-01	 1.954561508154227e+00	 1.059747064386572e+02
 1.406510661597856e-01	 1.957453327053991e+00	 5.331209674177955e+01
 1.051575164886933e-01	 1.959680623655180e+00	-1.333066197304675e+01
 6.987450024076833e-02	 1.961255670283113e+00	-9.309399629865025e+01
 3.481716777144051e-02	 1.962191125968301e+00	-1.851091144639742e+02
 0.000000000000000e+00	 1.962499999999999e+00	-2.885015359548723e+02
 3.593770285487826e-01	 1.942028102630226e+00	 1.180729515959592e+02
 3.227431717664778e-01	 1.948451140039792e+00	 1.836147760808165e+02
 2.862159908502217e-01	 1.954150814706171e+00	 2.234111695628763e+02
 2.498145939343959e-01	 1.959136970373530e+00	 2.385141262289843e+02
 2.135574784487539e-01	 1.963420027253059e+00	 2.300182348067253e+02
 1.774625148661244e-01	 1.967010944512274e+00	 1.990548542554849e+02
 1.415469328268642e-01	 1.969921182640562e+00	 1.467863883463043e+02
 1.058273095903243e-01	 1.972162665844200e+00	 7.440068740477741e+01
 7.031956075400238e-02	 1.973747744616185e+00	-1.689439708464263e+01
 3.503893317241133e-02	 1.974689158617795e+00	-1.258762819488908e+02
 0.000000000000000e+00	 1.975000000000000e+00	-2.513127254680749e+02
 3.616515667085508e-01	 1.954319419737511e+00	 9.995595077622059e+01
 3.247858500736904e-01	 1.960783109282185e+00	 2.024261088907962e+02
 2.880274844683691e-01	 1.966518857838506e+00	 2.714979818069907e+02
 2.513956989645312e-01	 1.971536571452820e+00	 3.085162346213103e+02
 2.149091080642749e-01	 1.975846736287019e+00	 3.148819520198484e+02
 1.785856953446911e-01	 1.979460380870439e+00	 2.920450801602382e+02
 1.424427994944977e-01	 1.982389038227207e+00	 2.414969919226302e+02
 1.064971026924130e-01	 1.984644708033262e+00	 1.647632125449405e+02
 7.076462126756874e-02	 1.986239818949276e+00	 6.339633932673100e+01
 3.526069857356168e-02	 1.987187191267294e+00	-6.103081432449648e+01
 0.000000000000000e+00	 1.987500000000000e+00	-2.069318236794563e+02
 3.639261048688338e-01	 1.966610736845282e+00	 7.637180204708727e+01
 3.268285283815017e-01	 1.973115078524969e+00	 2.166848160021797e+02
 2.898389780871672e-01	 1.978886900971149e+00	 3.160305018249405e+02
 2.529768039953388e-01	 1.983936172532344e+00	 3.760430601141263e+02
 2.162607376804587e-01	 1.988273445321150e+00	 3.984268437249491e+02
 1.797088758238815e-01	 1.991909817228721e+00	 3.849470792394279e+02
 1.433386661626862e-01	 1.994856893813928e+00	 3.374207360463744e+02
 1.071668957949593e-01	 1.997126750222366e+00	 2.577075887273101e+02
 7.120968178146743e-02	 1.998731893282386e+00	 1.477015143639727e+02
 3.548246397489156e-02	 1.999685223916798e+00	 9.322062201857243e+00
 0.000000000000000e+00	 2.000000000000000e+00	-1.554936711263762e+02
