patch_n	x	y	stress_yy
0	 0.000000000000000e+00	 0.000000000000000e+00	 2.430826730720614e-01
0	 0.000000000000000e+00	 7.142881171115513e-01	-7.179272292538756e+00
0	 0.000000000000000e+00	 1.428580650948409e+00	-1.093621368327901e+01
0	 0.000000000000000e+00	 2.142877018163878e+00	-1.166482964274846e+01
0	 0.000000000000000e+00	 2.857176635411265e+00	-1.000221010738975e+01
0	 0.000000000000000e+00	 3.571478919343873e+00	-6.585446806372516e+00
0	 0.000000000000000e+00	 4.285783286615008e+00	-2.051633261499738e+00
0	 0.000000000000000e+00	 5.000089153877976e+00	 2.962135212864084e+00
0	 0.000000000000000e+00	 5.714395937786080e+00	 7.818761509842833e+00
0	 0.000000000000000e+00	 6.428703054992629e+00	 1.188114673007655e+01
0	 0.000000000000000e+00	 7.143009922150927e+00	 1.451219018172745e+01
0	 7.142881171115513e-01	 0.000000000000000e+00	 1.403327301540233e+00
0	 7.142881171115515e-01	 7.142881171115515e-01	-3.680821977683431e+00
0	 7.142881171115516e-01	 1.428580650948409e+00	-6.293342358801453e+00
0	 7.142881171115512e-01	 2.142877018163878e+00	-6.844778716288126e+00
0	 7.142881171115510e-01	 2.857176635411264e+00	-5.745676580133264e+00
0	 7.142881171115515e-01	 3.571478919343873e+00	-3.406582135791332e+00
0	 7.142881171115515e-01	 4.285783286615009e+00	-2.380422241386011e-01
0	 7.142881171115512e-01	 5.000089153877973e+00	 3.349395658561647e+00
0	 7.142881171115514e-01	 5.714395937786080e+00	 6.945183360685907e+00
0	 7.142881171115514e-01	 6.428703054992629e+00	 1.013877207526922e+01
0	 7.142881171115515e-01	 7.143009922150928e+00	 1.251961234001588e+01
0	 1.428580650948409e+00	 0.000000000000000e+00	-2.692481033261561e+00
0	 1.428580650948409e+00	 7.142881171115514e-01	-4.043312088197903e+00
0	 1.428580650948409e+00	 1.428580650948410e+00	-4.190610384970029e+00
0	 1.428580650948409e+00	 2.142877018163877e+00	-3.350776063262445e+00
0	 1.428580650948409e+00	 2.857176635411265e+00	-1.740210148453528e+00
0	 1.428580650948409e+00	 3.571478919343873e+00	 4.246854484643210e-01
0	 1.428580650948409e+00	 4.285783286615007e+00	 2.927507930953763e+00
0	 1.428580650948410e+00	 5.000089153877976e+00	 5.551853616990661e+00
0	 1.428580650948410e+00	 5.714395937786082e+00	 8.081317939111431e+00
0	 1.428580650948410e+00	 6.428703054992631e+00	 1.029949544444955e+01
0	 1.428580650948409e+00	 7.143009922150926e+00	 1.198997979476117e+01
0	 2.142877018163878e+00	 0.000000000000000e+00	-1.082714406568282e+01
0	 2.142877018163878e+00	 7.142881171115512e-01	-7.465860970695186e+00
0	 2.142877018163878e+00	 1.428580650948410e+00	-4.184178864985523e+00
0	 2.142877018163878e+00	 2.142877018163878e+00	-1.036752552489644e+00
0	 2.142877018163879e+00	 2.857176635411264e+00	 1.921760969984621e+00
0	 2.142877018163879e+00	 3.571478919343874e+00	 4.636702512939811e+00
0	 2.142877018163879e+00	 4.285783286615009e+00	 7.053410694344405e+00
0	 2.142877018163879e+00	 5.000089153877975e+00	 9.117221939761471e+00
0	 2.142877018163880e+00	 5.714395937786082e+00	 1.077347048245052e+01
0	 2.142877018163878e+00	 6.428703054992627e+00	 1.196748836344246e+01
0	 2.142877018163878e+00	 7.143009922150926e+00	 1.264460543158769e+01
0	 2.857176635411265e+00	 0.000000000000000e+00	-2.178346486313169e+01
0	 2.857176635411264e+00	 7.142881171115510e-01	-1.314759058818428e+01
0	 2.857176635411265e+00	 1.428580650948409e+00	-5.830213798439075e+00
0	 2.857176635411264e+00	 2.142877018163879e+00	 2.433556153573919e-01
0	 2.857176635411264e+00	 2.857176635411264e+00	 5.147803475914554e+00
0	 2.857176635411264e+00	 3.571478919343873e+00	 8.957811319735796e+00
0	 2.857176635411265e+00	 4.285783286615009e+00	 1.174805639740409e+01
0	 2.857176635411265e+00	 5.000089153877974e+00	 1.359321167381498e+01
0	 2.857176635411265e+00	 5.714395937786081e+00	 1.456794582835723e+01
0	 2.857176635411265e+00	 6.428703054992630e+00	 1.474692325504077e+01
0	 2.857176635411264e+00	 7.143009922150927e+00	 1.420480406257235e+01
0	 3.571478919343873e+00	 0.000000000000000e+00	-3.434424782598312e+01
0	 3.571478919343873e+00	 7.142881171115515e-01	-2.028762651981918e+01
0	 3.571478919343873e+00	 1.428580650948409e+00	-8.684886080972195e+00
0	 3.571478919343873e+00	 2.142877018163878e+00	 6.356069081211722e-01
0	 3.571478919343873e+00	 2.857176635411264e+00	 7.845478988820052e+00
0	 3.571478919343874e+00	 3.571478919343874e+00	 1.311634982680588e+01
0	 3.571478919343873e+00	 4.285783286615009e+00	 1.661983221252473e+01
0	 3.571478919343873e+00	 5.000089153877975e+00	 1.852753206154535e+01
0	 3.571478919343873e+00	 5.714395937786081e+00	 1.901104841483305e+01
0	 3.571478919343873e+00	 6.428703054992628e+00	 1.824197343893924e+01
0	 3.571478919343873e+00	 7.143009922150927e+00	 1.639189242610695e+01
0	 4.285783286615008e+00	 0.000000000000000e+00	-4.729229868750335e+01
0	 4.285783286615009e+00	 7.142881171115514e-01	-2.808509796069230e+01
0	 4.285783286615007e+00	 1.428580650948409e+00	-1.230437150399675e+01
0	 4.285783286615009e+00	 2.142877018163879e+00	 2.860544624642820e-01
0	 4.285783286615009e+00	 2.857176635411266e+00	 9.922344047225266e+00
0	 4.285783286615008e+00	 3.571478919343873e+00	 1.684065168820151e+01
0	 4.285783286615008e+00	 4.285783286615008e+00	 2.127712215329814e+01
0	 4.285783286615009e+00	 5.000089153877976e+00	 2.346789054090060e+01
0	 4.285783286615008e+00	 5.714395937786080e+00	 2.364908228024656e+01
0	 4.285783286615008e+00	 6.428703054992630e+00	 2.205681313167959e+01
0	 4.285783286615009e+00	 7.143009922150927e+00	 1.892718918678421e+01
0	 5.000089153877976e+00	 0.000000000000000e+00	-5.941042451379067e+01
0	 5.000089153877975e+00	 7.142881171115513e-01	-3.573913772167207e+01
0	 5.000089153877975e+00	 1.428580650948409e+00	-1.624485075447501e+01
0	 5.000089153877975e+00	 2.142877018163879e+00	-6.592539158912238e-01
0	 5.000089153877976e+00	 2.857176635411265e+00	 1.128595010892242e+01
0	 5.000089153877976e+00	 3.571478919343873e+00	 1.985904625426415e+01
0	 5.000089153877976e+00	 4.285783286615009e+00	 2.532830707465605e+01
0	 5.000089153877975e+00	 5.000089153877974e+00	 2.796199274546101e+01
0	 5.000089153877975e+00	 5.714395937786080e+00	 2.802835106334814e+01
0	 5.000089153877976e+00	 6.428703054992630e+00	 2.579561744660654e+01
0	 5.000089153877976e+00	 7.143009922150928e+00	 2.153201493530727e+01
0	 5.714395937786080e+00	 0.000000000000000e+00	-6.948143370373261e+01
0	 5.714395937786081e+00	 7.142881171115514e-01	-4.244888222928485e+01
0	 5.714395937786080e+00	 1.428580650948410e+00	-2.006250941475956e+01
0	 5.714395937786081e+00	 2.142877018163879e+00	-2.054275751989733e+00
0	 5.714395937786080e+00	 2.857176635411265e+00	 1.184384355113729e+01
0	 5.714395937786081e+00	 3.571478919343873e+00	 2.189985857176477e+01
0	 5.714395937786080e+00	 4.285783286615009e+00	 2.838176467297136e+01
0	 5.714395937786081e+00	 5.000089153877976e+00	 3.155754250449554e+01
0	 5.714395937786080e+00	 5.714395937786080e+00	 3.169515800327985e+01
0	 5.714395937786080e+00	 6.428703054992627e+00	 2.906256239383487e+01
0	 5.714395937786082e+00	 7.143009922150927e+00	 2.392769218842294e+01
0	 6.428703054992629e+00	 0.000000000000000e+00	-7.628813598897933e+01
0	 6.428703054992630e+00	 7.142881171115513e-01	-4.741347152564118e+01
0	 6.428703054992631e+00	 1.428580650948410e+00	-2.331353796249319e+01
0	 6.428703054992629e+00	 2.142877018163878e+00	-3.752973901533311e+00
0	 6.428703054992629e+00	 2.857176635411265e+00	 1.150356567063237e+01
0	 6.428703054992629e+00	 3.571478919343873e+00	 2.269140938399052e+01
0	 6.428703054992629e+00	 4.285783286615008e+00	 3.004586948612095e+01
0	 6.428703054992628e+00	 5.000089153877976e+00	 3.380224184299617e+01
0	 6.428703054992628e+00	 5.714395937786080e+00	 3.419580593958029e+01
0	 6.428703054992631e+00	 6.428703054992630e+00	 3.146182488022726e+01
0	 6.428703054992631e+00	 7.143009922150928e+00	 2.583554538887836e+01
0	 7.143009922150927e+00	 0.000000000000000e+00	-7.861334243393344e+01
0	 7.143009922150926e+00	 7.142881171115513e-01	-4.983204926840639e+01
0	 7.143009922150926e+00	 1.428580650948409e+00	-2.555413177056894e+01
0	 7.143009922150927e+00	 2.142877018163878e+00	-5.609316550838223e+00
0	 7.143009922150926e+00	 2.857176635411264e+00	 1.017265268374792e+01
0	 7.143009922150926e+00	 3.571478919343873e+00	 2.196201513077877e+01
0	 7.143009922150926e+00	 4.285783286615008e+00	 2.992899289350943e+01
0	 7.143009922150927e+00	 5.000089153877976e+00	 3.424379098168990e+01
0	 7.143009922150926e+00	 5.714395937786080e+00	 3.507659731218475e+01
0	 7.143009922150927e+00	 6.428703054992628e+00	 3.259758270938345e+01
0	 7.143009922150927e+00	 7.143009922150927e+00	 2.697690090540141e+01
0	 0.000000000000000e+00	 7.143009922150927e+00	 1.451219018172745e+01
0	 0.000000000000000e+00	 7.857266066626719e+00	 1.559039983635137e+01
0	 0.000000000000000e+00	 8.571521461152161e+00	 1.558538093133537e+01
0	 0.000000000000000e+00	 9.285776189055182e+00	 1.474631951105166e+01
0	 0.000000000000000e+00	 1.000003033366371e+01	 1.332240136090112e+01
0	 0.000000000000000e+00	 1.071428397830567e+01	 1.156281200731077e+01
0	 0.000000000000000e+00	 1.142853720630899e+01	 9.716736717731813e+00
0	 0.000000000000000e+00	 1.214279010100160e+01	 8.033360500638077e+00
0	 0.000000000000000e+00	 1.285704274571142e+01	 6.761868105524885e+00
0	 0.000000000000000e+00	 1.357129522376639e+01	 6.151444022908421e+00
0	 0.000000000000000e+00	 1.428554761849444e+01	 6.451272484325568e+00
0	 7.142881171115515e-01	 7.143009922150928e+00	 1.251961234001588e+01
0	 7.142881171115513e-01	 7.857266066626721e+00	 1.389283124515947e+01
0	 7.142881171115513e-01	 8.571521461152166e+00	 1.444454439741638e+01
0	 7.142881171115514e-01	 9.285776189055184e+00	 1.433529866970789e+01
0	 7.142881171115514e-01	 1.000003033366371e+01	 1.372564085981116e+01
0	 7.142881171115513e-01	 1.071428397830567e+01	 1.277611769035863e+01
0	 7.142881171115512e-01	 1.142853720630899e+01	 1.164727580883754e+01
0	 7.142881171115512e-01	 1.214279010100160e+01	 1.049966178758965e+01
0	 7.142881171115512e-01	 1.285704274571143e+01	 9.493822123811043e+00
0	 7.142881171115514e-01	 1.357129522376639e+01	 8.790303239552046e+00
0	 7.142881171115514e-01	 1.428554761849444e+01	 8.549651481717307e+00
0	 1.428580650948409e+00	 7.143009922150926e+00	 1.198997979476117e+01
0	 1.428580650948410e+00	 7.857266066626718e+00	 1.306227541321153e+01
0	 1.428580650948409e+00	 8.571521461152161e+00	 1.362660844327003e+01
0	 1.428580650948409e+00	 9.285776189055182e+00	 1.376737003860667e+01
0	 1.428580650948409e+00	 1.000003033366371e+01	 1.356895137320379e+01
0	 1.428580650948409e+00	 1.071428397830567e+01	 1.311574364135633e+01
0	 1.428580650948409e+00	 1.142853720630899e+01	 1.249213805767219e+01
0	 1.428580650948409e+00	 1.214279010100159e+01	 1.178252585707245e+01
0	 1.428580650948410e+00	 1.285704274571143e+01	 1.107129829479158e+01
0	 1.428580650948410e+00	 1.357129522376639e+01	 1.044284664637767e+01
0	 1.428580650948410e+00	 1.428554761849444e+01	 9.981562207692555e+00
0	 2.142877018163878e+00	 7.143009922150926e+00	 1.264460543158769e+01
0	 2.142877018163879e+00	 7.857266066626722e+00	 1.295581819209582e+01
0	 2.142877018163878e+00	 8.571521461152162e+00	 1.310243930549770e+01
0	 2.142877018163879e+00	 9.285776189055184e+00	 1.310518715030932e+01
0	 2.142877018163878e+00	 1.000003033366371e+01	 1.298478014784048e+01
0	 2.142877018163878e+00	 1.071428397830566e+01	 1.276193676219526e+01
0	 2.142877018163878e+00	 1.142853720630899e+01	 1.245737550027243e+01
0	 2.142877018163878e+00	 1.214279010100160e+01	 1.209181491176567e+01
0	 2.142877018163878e+00	 1.285704274571142e+01	 1.168597358916386e+01
0	 2.142877018163879e+00	 1.357129522376639e+01	 1.126057016775119e+01
0	 2.142877018163878e+00	 1.428554761849444e+01	 1.083632332560723e+01
0	 2.857176635411264e+00	 7.143009922150927e+00	 1.420480406257235e+01
0	 2.857176635411264e+00	 7.857266066626720e+00	 1.343054799999966e+01
0	 2.857176635411264e+00	 8.571521461152162e+00	 1.284290606270561e+01
0	 2.857176635411264e+00	 9.285776189055182e+00	 1.241140635121975e+01
0	 2.857176635411265e+00	 1.000003033366371e+01	 1.210557697376797e+01
0	 2.857176635411265e+00	 1.071428397830567e+01	 1.189494604627237e+01
0	 2.857176635411265e+00	 1.142853720630899e+01	 1.174904169235123e+01
0	 2.857176635411264e+00	 1.214279010100160e+01	 1.163739204331890e+01
0	 2.857176635411264e+00	 1.285704274571142e+01	 1.152952523818570e+01
0	 2.857176635411265e+00	 1.357129522376640e+01	 1.139496942365784e+01
0	 2.857176635411264e+00	 1.428554761849444e+01	 1.120325275413726e+01
0	 3.571478919343873e+00	 7.143009922150927e+00	 1.639189242610695e+01
0	 3.571478919343873e+00	 7.857266066626722e+00	 1.434355582152754e+01
0	 3.571478919343874e+00	 8.571521461152168e+00	 1.281888063530411e+01
0	 3.571478919343873e+00	 9.285776189055186e+00	 1.174868680138640e+01
0	 3.571478919343872e+00	 1.000003033366371e+01	 1.106379418413967e+01
0	 3.571478919343873e+00	 1.071428397830567e+01	 1.069502257834374e+01
0	 3.571478919343873e+00	 1.142853720630899e+01	 1.057319170919201e+01
0	 3.571478919343873e+00	 1.214279010100160e+01	 1.062912123229076e+01
0	 3.571478919343873e+00	 1.285704274571143e+01	 1.079363073365845e+01
0	 3.571478919343873e+00	 1.357129522376639e+01	 1.099753972972526e+01
0	 3.571478919343873e+00	 1.428554761849444e+01	 1.117166766733258e+01
0	 4.285783286615009e+00	 7.143009922150927e+00	 1.892718918678421e+01
0	 4.285783286615009e+00	 7.857266066626719e+00	 1.555193520755049e+01
0	 4.285783286615007e+00	 8.571521461152161e+00	 1.300123778534181e+01
0	 4.285783286615008e+00	 9.285776189055181e+00	 1.117969047433845e+01
0	 4.285783286615009e+00	 1.000003033366371e+01	 9.991886655068178e+00
0	 4.285783286615008e+00	 1.071428397830567e+01	 9.342419534403799e+00
0	 4.285783286615008e+00	 1.142853720630899e+01	 9.135882145561432e+00
0	 4.285783286615009e+00	 1.214279010100160e+01	 9.276867348098683e+00
0	 4.285783286615009e+00	 1.285704274571143e+01	 9.669967827913418e+00
0	 4.285783286615009e+00	 1.357129522376640e+01	 1.021977609724268e+01
0	 4.285783286615008e+00	 1.428554761849444e+01	 1.083088449466199e+01
0	 5.000089153877976e+00	 7.143009922150928e+00	 2.153201493530728e+01
0	 5.000089153877974e+00	 7.857266066626717e+00	 1.691278227508707e+01
0	 5.000089153877973e+00	 8.571521461152159e+00	 1.336085511637445e+01
0	 5.000089153877975e+00	 9.285776189055181e+00	 1.076708215695671e+01
0	 5.000089153877977e+00	 1.000003033366371e+01	 9.022311805508885e+00
0	 5.000089153877975e+00	 1.071428397830567e+01	 8.017392181590147e+00
0	 5.000089153877976e+00	 1.142853720630899e+01	 7.643171115640761e+00
0	 5.000089153877975e+00	 1.214279010100160e+01	 7.790496148979464e+00
0	 5.000089153877976e+00	 1.285704274571142e+01	 8.350214533801410e+00
0	 5.000089153877975e+00	 1.357129522376639e+01	 9.213173233176633e+00
0	 5.000089153877975e+00	 1.428554761849444e+01	 1.027021892104893e+01
0	 5.714395937786082e+00	 7.143009922150927e+00	 2.392769218842295e+01
0	 5.714395937786080e+00	 7.857266066626718e+00	 1.828319570721569e+01
0	 5.714395937786080e+00	 8.571521461152162e+00	 1.386861307336870e+01
0	 5.714395937786080e+00	 9.285776189055182e+00	 1.057352944937872e+01
0	 5.714395937786081e+00	 1.000003033366371e+01	 8.287529597174910e+00
0	 5.714395937786082e+00	 1.071428397830567e+01	 6.900197878113931e+00
0	 5.714395937786081e+00	 1.142853720630899e+01	 6.301118252975849e+00
0	 5.714395937786080e+00	 1.214279010100160e+01	 6.379874281960664e+00
0	 5.714395937786081e+00	 1.285704274571142e+01	 7.026049124685514e+00
0	 5.714395937786081e+00	 1.357129522376640e+01	 8.129225540182656e+00
0	 5.714395937786081e+00	 1.428554761849444e+01	 9.578985886898094e+00
0	 6.428703054992631e+00	 7.143009922150928e+00	 2.583554538887837e+01
0	 6.428703054992631e+00	 7.857266066626720e+00	 1.952027675301839e+01
0	 6.428703054992631e+00	 8.571521461152162e+00	 1.449539494264063e+01
0	 6.428703054992630e+00	 9.285776189055186e+00	 1.066170276493862e+01
0	 6.428703054992630e+00	 1.000003033366371e+01	 7.920002534483034e+00
0	 6.428703054992631e+00	 1.071428397830567e+01	 6.171096073215963e+00
0	 6.428703054992628e+00	 1.142853720630899e+01	 5.315784710445775e+00
0	 6.428703054992629e+00	 1.214279010100160e+01	 5.254869282843005e+00
0	 6.428703054992629e+00	 1.285704274571142e+01	 5.889150134436989e+00
0	 6.428703054992628e+00	 1.357129522376639e+01	 7.119427116613469e+00
0	 6.428703054992630e+00	 1.428554761849444e+01	 8.846499588112975e+00
0	 7.143009922150927e+00	 7.143009922150927e+00	 2.697690090540141e+01
0	 7.143009922150926e+00	 7.857266066626718e+00	 2.048112922755605e+01
0	 7.143009922150929e+00	 8.571521461152162e+00	 1.521208685182911e+01
0	 7.143009922150926e+00	 9.285776189055184e+00	 1.109427533014115e+01
0	 7.143009922150927e+00	 1.000003033366371e+01	 8.052195664530817e+00
0	 7.143009922150926e+00	 1.071428397830567e+01	 6.010348307148360e+00
0	 7.143009922150925e+00	 1.142853720630899e+01	 4.893233160250045e+00
0	 7.143009922150927e+00	 1.214279010100160e+01	 4.625349576193580e+00
0	 7.143009922150928e+00	 1.285704274571143e+01	 5.131196357434467e+00
0	 7.143009922150926e+00	 1.357129522376639e+01	 6.335271756523328e+00
0	 7.143009922150930e+00	 1.428554761849445e+01	 8.162073476104228e+00
0	 0.000000000000000e+00	 1.428554761849444e+01	 6.451272484325566e+00
0	 0.000000000000000e+00	 1.499984997172426e+01	 7.459099266494044e+00
0	 0.000000000000000e+00	 1.571415215828766e+01	 8.729083979924347e+00
0	 0.000000000000000e+00	 1.642845401151722e+01	 1.014520697283086e+01
0	 0.000000000000000e+00	 1.714275536474550e+01	 1.159144801749020e+01
0	 0.000000000000000e+00	 1.785705605130510e+01	 1.295178631023991e+01
0	 0.000000000000000e+00	 1.857135590452858e+01	 1.411020047147521e+01
0	 0.000000000000000e+00	 1.928565475774854e+01	 1.495066854564365e+01
0	 0.000000000000000e+00	 1.999995244429753e+01	 1.535716800123778e+01
0	 0.000000000000000e+00	 2.071424879750816e+01	 1.521367573078582e+01
0	 0.000000000000000e+00	 2.142854365071296e+01	 1.440416805084025e+01
0	 7.142881171115514e-01	 1.428554761849444e+01	 8.549651481717310e+00
0	 7.142881171115516e-01	 1.499984997172426e+01	 8.744261651246941e+00
0	 7.142881171115514e-01	 1.571415215828766e+01	 9.188803223564012e+00
0	 7.142881171115512e-01	 1.642845401151722e+01	 9.807243604149518e+00
0	 7.142881171115512e-01	 1.714275536474550e+01	 1.052354993225298e+01
0	 7.142881171115515e-01	 1.785705605130510e+01	 1.126168908089186e+01
0	 7.142881171115514e-01	 1.857135590452859e+01	 1.194562765684976e+01
0	 7.142881171115513e-01	 1.928565475774854e+01	 1.249933200067394e+01
0	 7.142881171115514e-01	 1.999995244429753e+01	 1.284676818667178e+01
0	 7.142881171115513e-01	 2.071424879750816e+01	 1.291190202290636e+01
0	 7.142881171115512e-01	 2.142854365071296e+01	 1.261869905119100e+01
0	 1.428580650948410e+00	 1.428554761849444e+01	 9.981562207692555e+00
0	 1.428580650948409e+00	 1.499984997172426e+01	 9.742993233632054e+00
0	 1.428580650948409e+00	 1.571415215828766e+01	 9.698767796787767e+00
0	 1.428580650948410e+00	 1.642845401151722e+01	 9.807323474399571e+00
0	 1.428580650948410e+00	 1.714275536474550e+01	 1.002709778111122e+01
0	 1.428580650948409e+00	 1.785705605130510e+01	 1.031652816897010e+01
0	 1.428580650948409e+00	 1.857135590452859e+01	 1.063405202742665e+01
0	 1.428580650948409e+00	 1.928565475774854e+01	 1.093810668333364e+01
0	 1.428580650948409e+00	 1.999995244429754e+01	 1.118712940094526e+01
0	 1.428580650948409e+00	 2.071424879750816e+01	 1.133955738191588e+01
0	 1.428580650948409e+00	 2.142854365071297e+01	 1.135382776529867e+01
0	 2.142877018163878e+00	 1.428554761849444e+01	 1.083632332560723e+01
0	 2.142877018163878e+00	 1.499984997172426e+01	 1.047715909699435e+01
0	 2.142877018163879e+00	 1.571415215828766e+01	 1.022484337776658e+01
0	 2.142877018163878e+00	 1.642845401151720e+01	 1.006676718427891e+01
0	 2.142877018163878e+00	 1.714275536474549e+01	 9.990321583891536e+00
0	 2.142877018163879e+00	 1.785705605130510e+01	 9.982897694969797e+00
0	 2.142877018163878e+00	 1.857135590452858e+01	 1.003188668688435e+01
0	 2.142877018163879e+00	 1.928565475774854e+01	 1.012467978001150e+01
0	 2.142877018163878e+00	 1.999995244429753e+01	 1.024866824573373e+01
0	 2.142877018163879e+00	 2.071424879750816e+01	 1.039124340644039e+01
0	 2.142877018163878e+00	 2.142854365071296e+01	 1.053979663552857e+01
0	 2.857176635411264e+00	 1.428554761849444e+01	 1.120325275413726e+01
0	 2.857176635411266e+00	 1.499984997172427e+01	 1.096862331080040e+01
0	 2.857176635411264e+00	 1.571415215828766e+01	 1.073289452039843e+01
0	 2.857176635411265e+00	 1.642845401151721e+01	 1.050689423158517e+01
0	 2.857176635411265e+00	 1.714275536474550e+01	 1.030145038362376e+01
0	 2.857176635411265e+00	 1.785705605130510e+01	 1.012739100638688e+01
0	 2.857176635411264e+00	 1.857135590452858e+01	 9.995544220357170e+00
0	 2.857176635411264e+00	 1.928565475774854e+01	 9.916738236628037e+00
0	 2.857176635411265e+00	 1.999995244429753e+01	 9.901801356904766e+00
0	 2.857176635411264e+00	 2.071424879750815e+01	 9.961561973505919e+00
0	 2.857176635411265e+00	 2.142854365071296e+01	 1.010684856936506e+01
0	 3.571478919343873e+00	 1.428554761849444e+01	 1.117166766733258e+01
0	 3.571478919343873e+00	 1.499984997172426e+01	 1.123924893071111e+01
0	 3.571478919343873e+00	 1.571415215828766e+01	 1.118878465438878e+01
0	 3.571478919343873e+00	 1.642845401151722e+01	 1.104902301129448e+01
0	 3.571478919343872e+00	 1.714275536474550e+01	 1.084871224661058e+01
0	 3.571478919343873e+00	 1.785705605130510e+01	 1.061660067777306e+01
0	 3.571478919343873e+00	 1.857135590452858e+01	 1.038143669447207e+01
0	 3.571478919343873e+00	 1.928565475774854e+01	 1.017196875865258e+01
0	 3.571478919343873e+00	 1.999995244429753e+01	 1.001694540451542e+01
0	 3.571478919343873e+00	 2.071424879750816e+01	 9.945115238518490e+00
0	 3.571478919343872e+00	 2.142854365071296e+01	 9.985226939378249e+00
0	 4.285783286615008e+00	 1.428554761849444e+01	 1.083088449466199e+01
0	 4.285783286615009e+00	 1.499984997172426e+01	 1.131089799864230e+01
0	 4.285783286615008e+00	 1.571415215828766e+01	 1.155837608531721e+01
0	 4.285783286615008e+00	 1.642845401151721e+01	 1.161447081562672e+01
0	 4.285783286615008e+00	 1.714275536474550e+01	 1.152033426248515e+01
0	 4.285783286615008e+00	 1.785705605130509e+01	 1.131711851078139e+01
0	 4.285783286615007e+00	 1.857135590452858e+01	 1.104597565737915e+01
0	 4.285783286615009e+00	 1.928565475774854e+01	 1.074805781111726e+01
0	 4.285783286615009e+00	 1.999995244429753e+01	 1.046451709281002e+01
0	 4.285783286615007e+00	 2.071424879750815e+01	 1.023650563524763e+01
0	 4.285783286615009e+00	 2.142854365071296e+01	 1.010517558319656e+01
0	 5.000089153877975e+00	 1.428554761849444e+01	 1.027021892104893e+01
0	 5.000089153877975e+00	 1.499984997172426e+01	 1.120543154281258e+01
0	 5.000089153877976e+00	 1.571415215828766e+01	 1.180752999469041e+01
0	 5.000089153877974e+00	 1.642845401151721e+01	 1.212455383409721e+01
0	 5.000089153877976e+00	 1.714275536474550e+01	 1.220454254425682e+01
0	 5.000089153877977e+00	 1.785705605130510e+01	 1.209553553420228e+01
0	 5.000089153877976e+00	 1.857135590452858e+01	 1.184557213877573e+01
0	 5.000089153877976e+00	 1.928565475774854e+01	 1.150269161862811e+01
0	 5.000089153877975e+00	 1.999995244429753e+01	 1.111493316021848e+01
0	 5.000089153877975e+00	 2.071424879750816e+01	 1.073033587581321e+01
0	 5.000089153877975e+00	 2.142854365071297e+01	 1.039693880348485e+01
0	 5.714395937786081e+00	 1.428554761849444e+01	 9.578985886898094e+00
0	 5.714395937786080e+00	 1.499984997172426e+01	 1.094470957777904e+01
0	 5.714395937786081e+00	 1.571415215828766e+01	 1.190210643998124e+01
0	 5.714395937786082e+00	 1.642845401151722e+01	 1.250058715355493e+01
0	 5.714395937786082e+00	 1.714275536474550e+01	 1.278956222834479e+01
0	 5.714395937786080e+00	 1.785705605130509e+01	 1.281844200399008e+01
0	 5.714395937786079e+00	 1.857135590452858e+01	 1.263663664992412e+01
0	 5.714395937786080e+00	 1.928565475774854e+01	 1.229355616537320e+01
0	 5.714395937786080e+00	 1.999995244429753e+01	 1.183861037935489e+01
0	 5.714395937786080e+00	 2.071424879750816e+01	 1.132120895067572e+01
0	 5.714395937786080e+00	 2.142854365071296e+01	 1.079076136792832e+01
0	 6.428703054992630e+00	 1.428554761849444e+01	 8.846499588112975e+00
0	 6.428703054992627e+00	 1.499984997172426e+01	 1.055059110446038e+01
0	 6.428703054992629e+00	 1.571415215828766e+01	 1.180796435465422e+01
0	 6.428703054992629e+00	 1.642845401151721e+01	 1.266388475820728e+01
0	 6.428703054992630e+00	 1.714275536474550e+01	 1.316361747459993e+01
0	 6.428703054992629e+00	 1.785705605130510e+01	 1.335242740328025e+01
0	 6.428703054992628e+00	 1.857135590452858e+01	 1.327557918366301e+01
0	 6.428703054992631e+00	 1.928565475774854e+01	 1.297833719512788e+01
0	 6.428703054992629e+00	 1.999995244429753e+01	 1.250596555701674e+01
0	 6.428703054992628e+00	 2.071424879750815e+01	 1.190372812863000e+01
0	 6.428703054992630e+00	 2.142854365071296e+01	 1.121688850922203e+01
0	 7.143009922150930e+00	 1.428554761849445e+01	 8.162073476104228e+00
0	 7.143009922150927e+00	 1.499984997172427e+01	 1.004493411014768e+01
0	 7.143009922150928e+00	 1.571415215828766e+01	 1.149096154817702e+01
0	 7.143009922150927e+00	 1.642845401151721e+01	 1.253575952963116e+01
0	 7.143009922150927e+00	 1.714275536474550e+01	 1.321493146631454e+01
0	 7.143009922150927e+00	 1.785705605130510e+01	 1.356408044239701e+01
0	 7.143009922150926e+00	 1.857135590452859e+01	 1.361880921441254e+01
0	 7.143009922150926e+00	 1.928565475774854e+01	 1.341472021125695e+01
0	 7.143009922150926e+00	 1.999995244429754e+01	 1.298741553418429e+01
0	 7.143009922150927e+00	 2.071424879750816e+01	 1.237249695680225e+01
0	 7.143009922150927e+00	 2.142854365071296e+01	 1.160556592506627e+01
0	 0.000000000000000e+00	 2.142854365071296e+01	 1.440416805084025e+01
0	 0.000000000000000e+00	 2.214283692057824e+01	 1.319604722194214e+01
0	 0.000000000000000e+00	 2.285712885710494e+01	 1.197073435528312e+01
0	 0.000000000000000e+00	 2.357141979362770e+01	 1.078323298469794e+01
0	 0.000000000000000e+00	 2.428571006348117e+01	 9.688545808398871e+00
0	 0.000000000000000e+00	 2.500000000000001e+01	 8.741674688958923e+00
0	 0.000000000000000e+00	 2.571428993651884e+01	 7.997620653300967e+00
0	 0.000000000000000e+00	 2.642858020637231e+01	 7.511383892692685e+00
0	 0.000000000000000e+00	 2.714287114289507e+01	 7.337963762747390e+00
0	 0.000000000000000e+00	 2.785716307942177e+01	 7.532358783430650e+00
0	 0.000000000000000e+00	 2.857145634928704e+01	 8.149566639072850e+00
0	 7.142881171115512e-01	 2.142854365071296e+01	 1.261869905119100e+01
0	 7.142881171115515e-01	 2.214283692057824e+01	 1.208145799396960e+01
0	 7.142881171115514e-01	 2.285712885710494e+01	 1.148936721997628e+01
0	 7.142881171115515e-01	 2.357141979362770e+01	 1.087872621937922e+01
0	 7.142881171115510e-01	 2.428571006348117e+01	 1.028583405381825e+01
0	 7.142881171115515e-01	 2.500000000000001e+01	 9.746989356396366e+00
0	 7.142881171115512e-01	 2.571428993651883e+01	 9.298490331674284e+00
0	 7.142881171115515e-01	 2.642858020637232e+01	 8.976634755668000e+00
0	 7.142881171115513e-01	 2.714287114289507e+01	 8.817719975849288e+00
0	 7.142881171115514e-01	 2.785716307942178e+01	 8.858042911149228e+00
0	 7.142881171115512e-01	 2.857145634928703e+01	 9.133900051964787e+00
0	 1.428580650948409e+00	 2.142854365071297e+01	 1.135382776529867e+01
0	 1.428580650948409e+00	 2.214283692057823e+01	 1.124683350901375e+01
0	 1.428580650948410e+00	 2.285712885710495e+01	 1.107660141359227e+01
0	 1.428580650948409e+00	 2.357141979362771e+01	 1.086326922663053e+01
0	 1.428580650948410e+00	 2.428571006348118e+01	 1.062697455115971e+01
0	 1.428580650948409e+00	 2.500000000000001e+01	 1.038785484564312e+01
0	 1.428580650948410e+00	 2.571428993651884e+01	 1.016604742397447e+01
0	 1.428580650948409e+00	 2.642858020637231e+01	 9.981689455477065e+00
0	 1.428580650948409e+00	 2.714287114289507e+01	 9.854917964904114e+00
0	 1.428580650948409e+00	 2.785716307942177e+01	 9.805869832439987e+00
0	 1.428580650948409e+00	 2.857145634928703e+01	 9.854681793702548e+00
0	 2.142877018163878e+00	 2.142854365071296e+01	 1.053979663552857e+01
0	 2.142877018163878e+00	 2.214283692057824e+01	 1.066067121144234e+01
0	 2.142877018163879e+00	 2.285712885710494e+01	 1.073296155275895e+01
0	 2.142877018163878e+00	 2.357141979362770e+01	 1.076318580661087e+01
0	 2.142877018163879e+00	 2.428571006348117e+01	 1.075786215383684e+01
0	 2.142877018163878e+00	 2.500000000000001e+01	 1.072350880898253e+01
0	 2.142877018163878e+00	 2.571428993651883e+01	 1.066664402030107e+01
0	 2.142877018163878e+00	 2.642858020637231e+01	 1.059378606975334e+01
0	 2.142877018163878e+00	 2.714287114289507e+01	 1.051145327300788e+01
0	 2.142877018163879e+00	 2.785716307942177e+01	 1.042616397944077e+01
0	 2.142877018163879e+00	 2.857145634928704e+01	 1.034443657213510e+01
0	 2.857176635411265e+00	 2.142854365071296e+01	 1.010684856936506e+01
0	 2.857176635411264e+00	 2.214283692057824e+01	 1.029146911951773e+01
0	 2.857176635411264e+00	 2.285712885710494e+01	 1.045897286470505e+01
0	 2.857176635411264e+00	 2.357141979362770e+01	 1.060480034717315e+01
0	 2.857176635411264e+00	 2.428571006348117e+01	 1.072439223289290e+01
0	 2.857176635411265e+00	 2.500000000000001e+01	 1.081318931156229e+01
0	 2.857176635411265e+00	 2.571428993651883e+01	 1.086663249660791e+01
0	 2.857176635411264e+00	 2.642858020637231e+01	 1.088016282518565e+01
0	 2.857176635411265e+00	 2.714287114289507e+01	 1.084922145818041e+01
0	 2.857176635411265e+00	 2.785716307942177e+01	 1.076924968020508e+01
0	 2.857176635411264e+00	 2.857145634928704e+01	 1.063568889959855e+01
0	 3.571478919343872e+00	 2.142854365071296e+01	 9.985226939378249e+00
0	 3.571478919343871e+00	 2.214283692057823e+01	 1.010772582535599e+01
0	 3.571478919343873e+00	 2.285712885710494e+01	 1.025516118721667e+01
0	 3.571478919343873e+00	 2.357141979362770e+01	 1.041443782382224e+01
0	 3.571478919343874e+00	 2.428571006348118e+01	 1.057246067696405e+01
0	 3.571478919343873e+00	 2.500000000000001e+01	 1.071613483136536e+01
0	 3.571478919343873e+00	 2.571428993651884e+01	 1.083236551468301e+01
0	 3.571478919343873e+00	 2.642858020637231e+01	 1.090805809750790e+01
0	 3.571478919343872e+00	 2.714287114289507e+01	 1.093011809336461e+01
0	 3.571478919343872e+00	 2.785716307942177e+01	 1.088545115870992e+01
0	 3.571478919343873e+00	 2.857145634928703e+01	 1.076096309293044e+01
0	 4.285783286615009e+00	 2.142854365071296e+01	 1.010517558319656e+01
0	 4.285783286615009e+00	 2.214283692057824e+01	 1.007794049489306e+01
0	 4.285783286615008e+00	 2.285712885710494e+01	 1.012205296860136e+01
0	 4.285783286615009e+00	 2.357141979362770e+01	 1.021842379968055e+01
0	 4.285783286615009e+00	 2.428571006348118e+01	 1.034796389224894e+01
0	 4.285783286615009e+00	 2.500000000000001e+01	 1.049158425918573e+01
0	 4.285783286615008e+00	 2.571428993651883e+01	 1.063019602213195e+01
0	 4.285783286615009e+00	 2.642858020637231e+01	 1.074471041149057e+01
0	 4.285783286615009e+00	 2.714287114289508e+01	 1.081603876642590e+01
0	 4.285783286615009e+00	 2.785716307942177e+01	 1.082509253486221e+01
0	 4.285783286615008e+00	 2.857145634928704e+01	 1.075278327348163e+01
0	 5.000089153877975e+00	 2.142854365071297e+01	 1.039693880348485e+01
0	 5.000089153877976e+00	 2.214283692057823e+01	 1.017061286785784e+01
0	 5.000089153877976e+00	 2.285712885710494e+01	 1.006017526765952e+01
0	 5.000089153877974e+00	 2.357141979362770e+01	 1.004308442546052e+01
0	 5.000089153877975e+00	 2.428571006348118e+01	 1.009679880248473e+01
0	 5.000089153877975e+00	 2.500000000000000e+01	 1.019877689860938e+01
0	 5.000089153877975e+00	 2.571428993651884e+01	 1.032647725236480e+01
0	 5.000089153877975e+00	 2.642858020637231e+01	 1.045735844093402e+01
0	 5.000089153877977e+00	 2.714287114289508e+01	 1.056887908015188e+01
0	 5.000089153877975e+00	 2.785716307942177e+01	 1.063849782450406e+01
0	 5.000089153877975e+00	 2.857145634928704e+01	 1.064367336712582e+01
0	 5.714395937786080e+00	 2.142854365071296e+01	 1.079076136792832e+01
0	 5.714395937786080e+00	 2.214283692057824e+01	 1.035424325775237e+01
0	 5.714395937786079e+00	 2.285712885710493e+01	 1.007005575366343e+01
0	 5.714395937786081e+00	 2.357141979362770e+01	 9.914746439444523e+00
0	 5.714395937786080e+00	 2.428571006348118e+01	 9.864862848929317e+00
0	 5.714395937786080e+00	 2.500000000000000e+01	 9.896952466000158e+00
0	 5.714395937786082e+00	 2.571428993651883e+01	 9.987562724586500e+00
0	 5.714395937786080e+00	 2.642858020637231e+01	 1.011324100866370e+01
0	 5.714395937786083e+00	 2.714287114289508e+01	 1.025053465225212e+01
0	 5.714395937786081e+00	 2.785716307942177e+01	 1.037599093941669e+01
0	 5.714395937786080e+00	 2.857145634928703e+01	 1.046615710426664e+01
0	 6.428703054992630e+00	 2.142854365071296e+01	 1.121688850922203e+01
0	 6.428703054992628e+00	 2.214283692057824e+01	 1.059733255183912e+01
0	 6.428703054992630e+00	 2.285712885710494e+01	 1.015222270634363e+01
0	 6.428703054992629e+00	 2.357141979362769e+01	 9.859737167471774e+00
0	 6.428703054992629e+00	 2.428571006348118e+01	 9.698053990349973e+00
0	 6.428703054992629e+00	 2.500000000000000e+01	 9.645351090490907e+00
0	 6.428703054992629e+00	 2.571428993651883e+01	 9.679806243790718e+00
0	 6.428703054992629e+00	 2.642858020637231e+01	 9.779597086527049e+00
0	 6.428703054992628e+00	 2.714287114289507e+01	 9.922901115358201e+00
0	 6.428703054992628e+00	 2.785716307942177e+01	 1.008789568732310e+01
0	 6.428703054992631e+00	 2.857145634928704e+01	 1.025275801984238e+01
0	 7.143009922150927e+00	 2.142854365071296e+01	 1.160556592506627e+01
0	 7.143009922150927e+00	 2.214283692057824e+01	 1.086838221113504e+01
0	 7.143009922150925e+00	 2.285712885710493e+01	 1.030720501588288e+01
0	 7.143009922150926e+00	 2.357141979362770e+01	 9.904384522932675e+00
0	 7.143009922150927e+00	 2.428571006348117e+01	 9.642270703018337e+00
0	 7.143009922150926e+00	 2.500000000000000e+01	 9.503213313979446e+00
0	 7.143009922150926e+00	 2.571428993651883e+01	 9.469561900757268e+00
0	 7.143009922150926e+00	 2.642858020637231e+01	 9.523665795392407e+00
0	 7.143009922150928e+00	 2.714287114289507e+01	 9.647874117023838e+00
0	 7.143009922150926e+00	 2.785716307942177e+01	 9.824535771889483e+00
0	 7.143009922150926e+00	 2.857145634928704e+01	 1.003599945332825e+01
0	 0.000000000000000e+00	 2.857145634928704e+01	 8.149566639072850e+00
0	 0.000000000000000e+00	 2.928575120249186e+01	 8.983797989746332e+00
0	 0.000000000000000e+00	 3.000004755570248e+01	 9.774894031655219e+00
0	 0.000000000000000e+00	 3.071434524225148e+01	 1.049629742086028e+01
0	 0.000000000000000e+00	 3.142864409547142e+01	 1.112145053909259e+01
0	 0.000000000000000e+00	 3.214294394869492e+01	 1.162379549375953e+01
0	 0.000000000000000e+00	 3.285724463525451e+01	 1.197677411794961e+01
0	 0.000000000000000e+00	 3.357154598848280e+01	 1.215382797043652e+01
0	 0.000000000000000e+00	 3.428584784171235e+01	 1.212839833568220e+01
0	 0.000000000000000e+00	 3.500015002827575e+01	 1.187392622383877e+01
0	 0.000000000000000e+00	 3.571445238150555e+01	 1.136385237074981e+01
0	 7.142881171115512e-01	 2.857145634928703e+01	 9.133900051964787e+00
0	 7.142881171115513e-01	 2.928575120249186e+01	 9.542787376152239e+00
0	 7.142881171115515e-01	 3.000004755570248e+01	 9.946251863095807e+00
0	 7.142881171115512e-01	 3.071434524225148e+01	 1.032666607217850e+01
0	 7.142881171115513e-01	 3.142864409547143e+01	 1.066640241357204e+01
0	 7.142881171115515e-01	 3.214294394869491e+01	 1.094783314824009e+01
0	 7.142881171115510e-01	 3.285724463525450e+01	 1.115333038794084e+01
0	 7.142881171115512e-01	 3.357154598848280e+01	 1.126526609522922e+01
0	 7.142881171115514e-01	 3.428584784171235e+01	 1.126601208345847e+01
0	 7.142881171115515e-01	 3.500015002827575e+01	 1.113794001678129e+01
0	 7.142881171115512e-01	 3.571445238150555e+01	 1.086342141015032e+01
0	 1.428580650948409e+00	 2.857145634928703e+01	 9.854681793702548e+00
0	 1.428580650948410e+00	 2.928575120249186e+01	 9.969843380416924e+00
0	 1.428580650948409e+00	 3.000004755570248e+01	 1.009982151912116e+01
0	 1.428580650948410e+00	 3.071434524225147e+01	 1.023471888549344e+01
0	 1.428580650948410e+00	 3.142864409547143e+01	 1.036463809689836e+01
0	 1.428580650948409e+00	 3.214294394869490e+01	 1.047968171238825e+01
0	 1.428580650948409e+00	 3.285724463525450e+01	 1.056995223270409e+01
0	 1.428580650948409e+00	 3.357154598848279e+01	 1.062555210027636e+01
0	 1.428580650948410e+00	 3.428584784171235e+01	 1.063658369922562e+01
0	 1.428580650948409e+00	 3.500015002827575e+01	 1.059314935536291e+01
0	 1.428580650948409e+00	 3.571445238150557e+01	 1.048535133618996e+01
0	 2.142877018163879e+00	 2.857145634928704e+01	 1.034443657213510e+01
0	 2.142877018163878e+00	 2.928575120249186e+01	 1.027819773328361e+01
0	 2.142877018163878e+00	 3.000004755570249e+01	 1.023278388081851e+01
0	 2.142877018163878e+00	 3.071434524225147e+01	 1.020482802888924e+01
0	 2.142877018163878e+00	 3.142864409547142e+01	 1.019096319454825e+01
0	 2.142877018163878e+00	 3.214294394869492e+01	 1.018782239775081e+01
0	 2.142877018163879e+00	 3.285724463525450e+01	 1.019203866135494e+01
0	 2.142877018163878e+00	 3.357154598848279e+01	 1.020024501112139e+01
0	 2.142877018163878e+00	 3.428584784171234e+01	 1.020907447571344e+01
0	 2.142877018163878e+00	 3.500015002827574e+01	 1.021516008669694e+01
0	 2.142877018163879e+00	 3.571445238150555e+01	 1.021513487854019e+01
0	 2.857176635411264e+00	 2.857145634928704e+01	 1.063568889959855e+01
0	 2.857176635411264e+00	 2.928575120249186e+01	 1.048108191553368e+01
0	 2.857176635411264e+00	 3.000004755570248e+01	 1.034231955901918e+01
0	 2.857176635411266e+00	 3.071434524225148e+01	 1.022136540817441e+01
0	 2.857176635411264e+00	 3.142864409547143e+01	 1.012018308009639e+01
0	 2.857176635411265e+00	 3.214294394869493e+01	 1.004073623085888e+01
0	 2.857176635411265e+00	 3.285724463525452e+01	 9.984988555511697e+00
0	 2.857176635411264e+00	 3.357154598848280e+01	 9.954903788080106e+00
0	 2.857176635411264e+00	 3.428584784171235e+01	 9.952445701564303e+00
0	 2.857176635411265e+00	 3.500015002827575e+01	 9.979578107939128e+00
0	 2.857176635411265e+00	 3.571445238150556e+01	 1.003826485815387e+01
0	 3.571478919343873e+00	 2.857145634928703e+01	 1.076096309293044e+01
0	 3.571478919343873e+00	 2.928575120249186e+01	 1.059172715800481e+01
0	 3.571478919343873e+00	 3.000004755570248e+01	 1.042560889431823e+01
0	 3.571478919343873e+00	 3.071434524225148e+01	 1.026870266690070e+01
0	 3.571478919343873e+00	 3.142864409547143e+01	 1.012710289523218e+01
0	 3.571478919343873e+00	 3.214294394869492e+01	 1.000690405324136e+01
0	 3.571478919343873e+00	 3.285724463525451e+01	 9.914200669304661e+00
0	 3.571478919343873e+00	 3.357154598848280e+01	 9.855087326245474e+00
0	 3.571478919343873e+00	 3.428584784171236e+01	 9.835658661333454e+00
0	 3.571478919343872e+00	 3.500015002827574e+01	 9.862009366284145e+00
0	 3.571478919343873e+00	 3.571445238150555e+01	 9.940234187258749e+00
0	 4.285783286615008e+00	 2.857145634928704e+01	 1.075278327348163e+01
0	 4.285783286615009e+00	 2.928575120249186e+01	 1.062336444160611e+01
0	 4.285783286615008e+00	 3.000004755570248e+01	 1.047983195709067e+01
0	 4.285783286615008e+00	 3.071434524225148e+01	 1.033121118637892e+01
0	 4.285783286615008e+00	 3.142864409547142e+01	 1.018652754977371e+01
0	 4.285783286615008e+00	 3.214294394869491e+01	 1.005480652143597e+01
0	 4.285783286615007e+00	 3.285724463525450e+01	 9.945073629383785e+00
0	 4.285783286615009e+00	 3.357154598848280e+01	 9.866354455491514e+00
0	 4.285783286615010e+00	 3.428584784171235e+01	 9.827674635489313e+00
0	 4.285783286615008e+00	 3.500015002827575e+01	 9.838059858962644e+00
0	 4.285783286615009e+00	 3.571445238150556e+01	 9.906535869352073e+00
0	 5.000089153877975e+00	 2.857145634928704e+01	 1.064367336712582e+01
0	 5.000089153877975e+00	 2.928575120249186e+01	 1.058922449733012e+01
0	 5.000089153877976e+00	 3.000004755570248e+01	 1.050216854750446e+01
0	 5.000089153877975e+00	 3.071434524225147e+01	 1.039326208569148e+01
0	 5.000089153877978e+00	 3.142864409547143e+01	 1.027326172167880e+01
0	 5.000089153877977e+00	 3.214294394869492e+01	 1.015292410699817e+01
0	 5.000089153877975e+00	 3.285724463525450e+01	 1.004300593492475e+01
0	 5.000089153877975e+00	 3.357154598848280e+01	 9.954263940476489e+00
0	 5.000089153877974e+00	 3.428584784171235e+01	 9.897454900413727e+00
0	 5.000089153877974e+00	 3.500015002827575e+01	 9.883335633238893e+00
0	 5.000089153877975e+00	 3.571445238150555e+01	 9.922662999196286e+00
0	 5.714395937786080e+00	 2.857145634928703e+01	 1.046615710426664e+01
0	 5.714395937786079e+00	 2.928575120249185e+01	 1.050253780626181e+01
0	 5.714395937786082e+00	 3.000004755570248e+01	 1.048979819553015e+01
0	 5.714395937786080e+00	 3.071434524225147e+01	 1.043922622170174e+01
0	 5.714395937786081e+00	 3.142864409547143e+01	 1.036210985705329e+01
0	 5.714395937786081e+00	 3.214294394869491e+01	 1.026973709650767e+01
0	 5.714395937786081e+00	 3.285724463525451e+01	 1.017339595763358e+01
0	 5.714395937786082e+00	 3.357154598848280e+01	 1.008437448064523e+01
0	 5.714395937786080e+00	 3.428584784171235e+01	 1.001396072840217e+01
0	 5.714395937786081e+00	 3.500015002827575e+01	 9.973442786409112e+00
0	 5.714395937786081e+00	 3.571445238150557e+01	 9.974108762815939e+00
0	 6.428703054992631e+00	 2.857145634928704e+01	 1.025275801984238e+01
0	 6.428703054992629e+00	 2.928575120249186e+01	 1.037653459958448e+01
0	 6.428703054992630e+00	 3.000004755570247e+01	 1.043990016094716e+01
0	 6.428703054992631e+00	 3.071434524225149e+01	 1.045347418906009e+01
0	 6.428703054992629e+00	 3.142864409547143e+01	 1.042787617015639e+01
0	 6.428703054992630e+00	 3.214294394869491e+01	 1.037372559157278e+01
0	 6.428703054992629e+00	 3.285724463525450e+01	 1.030164194174956e+01
0	 6.428703054992628e+00	 3.357154598848280e+01	 1.022224471023070e+01
0	 6.428703054992627e+00	 3.428584784171233e+01	 1.014615338766384e+01
0	 6.428703054992628e+00	 3.500015002827574e+01	 1.008398746580039e+01
0	 6.428703054992629e+00	 3.571445238150555e+01	 1.004636643749558e+01
0	 7.143009922150926e+00	 2.857145634928704e+01	 1.003599945332825e+01
0	 7.143009922150928e+00	 2.928575120249186e+01	 1.022444485858260e+01
0	 7.143009922150926e+00	 3.000004755570247e+01	 1.034965343334694e+01
0	 7.143009922150928e+00	 3.071434524225147e+01	 1.042037632020694e+01
0	 7.143009922150927e+00	 3.142864409547143e+01	 1.044536464340332e+01
0	 7.143009922150926e+00	 3.214294394869490e+01	 1.043336950883246e+01
0	 7.143009922150926e+00	 3.285724463525450e+01	 1.039314200404670e+01
0	 7.143009922150926e+00	 3.357154598848279e+01	 1.033343319825472e+01
0	 7.143009922150926e+00	 3.428584784171235e+01	 1.026299414232183e+01
0	 7.143009922150927e+00	 3.500015002827575e+01	 1.019057586877018e+01
0	 7.143009922150928e+00	 3.571445238150556e+01	 1.012492939177886e+01
0	 0.000000000000000e+00	 3.571445238150555e+01	 1.136385237074981e+01
0	 0.000000000000000e+00	 3.642870477623359e+01	 1.074535182918010e+01
0	 0.000000000000000e+00	 3.714295725428858e+01	 1.019198638317040e+01
0	 0.000000000000000e+00	 3.785720989899839e+01	 9.716912397337513e+00
0	 0.000000000000000e+00	 3.857146279369101e+01	 9.333286139567331e+00
0	 0.000000000000000e+00	 3.928571602169433e+01	 9.054263781015035e+00
0	 0.000000000000000e+00	 3.999996966633629e+01	 8.893001396105333e+00
0	 0.000000000000000e+00	 4.071422381094481e+01	 8.862654962532829e+00
0	 0.000000000000000e+00	 4.142847853884783e+01	 8.976380361262738e+00
0	 0.000000000000000e+00	 4.214273393337328e+01	 9.247333376531541e+00
0	 0.000000000000000e+00	 4.285699007784908e+01	 9.688669695848130e+00
0	 7.142881171115512e-01	 3.571445238150555e+01	 1.086342141015032e+01
0	 7.142881171115512e-01	 3.642870477623359e+01	 1.052166347066867e+01
0	 7.142881171115512e-01	 3.714295725428858e+01	 1.020941573842334e+01
0	 7.142881171115513e-01	 3.785720989899840e+01	 9.935437333175958e+00
0	 7.142881171115513e-01	 3.857146279369100e+01	 9.708487319917884e+00
0	 7.142881171115513e-01	 3.928571602169433e+01	 9.537324708870155e+00
0	 7.142881171115515e-01	 3.999996966633629e+01	 9.430708455483819e+00
0	 7.142881171115513e-01	 4.071422381094482e+01	 9.397397460440036e+00
0	 7.142881171115513e-01	 4.142847853884783e+01	 9.446150569650476e+00
0	 7.142881171115513e-01	 4.214273393337328e+01	 9.585726574257743e+00
0	 7.142881171115514e-01	 4.285699007784908e+01	 9.824884210635977e+00
0	 1.428580650948409e+00	 3.571445238150557e+01	 1.048535133618996e+01
0	 1.428580650948409e+00	 3.642870477623361e+01	 1.034345533690105e+01
0	 1.428580650948410e+00	 3.714295725428857e+01	 1.020760300176941e+01
0	 1.428580650948409e+00	 3.785720989899838e+01	 1.008274054850145e+01
0	 1.428580650948409e+00	 3.857146279369102e+01	 9.973814171211210e+00
0	 1.428580650948410e+00	 3.928571602169433e+01	 9.885770040420416e+00
0	 1.428580650948410e+00	 3.999996966633629e+01	 9.823554303058508e+00
0	 1.428580650948409e+00	 4.071422381094482e+01	 9.792113082462784e+00
0	 1.428580650948409e+00	 4.142847853884785e+01	 9.796392478378500e+00
0	 1.428580650948409e+00	 4.214273393337326e+01	 9.841338566959102e+00
0	 1.428580650948409e+00	 4.285699007784908e+01	 9.931897400766442e+00
0	 2.142877018163879e+00	 3.571445238150555e+01	 1.021513487854019e+01
0	 2.142877018163878e+00	 3.642870477623360e+01	 1.020674987206995e+01
0	 2.142877018163878e+00	 3.714295725428858e+01	 1.019114523420512e+01
0	 2.142877018163878e+00	 3.785720989899839e+01	 1.017003860195723e+01
0	 2.142877018163877e+00	 3.857146279369101e+01	 1.014514761050935e+01
0	 2.142877018163878e+00	 3.928571602169432e+01	 1.011818989321615e+01
0	 2.142877018163878e+00	 3.999996966633628e+01	 1.009088308160390e+01
0	 2.142877018163878e+00	 4.071422381094482e+01	 1.006494480537043e+01
0	 2.142877018163879e+00	 4.142847853884784e+01	 1.004209269238518e+01
0	 2.142877018163878e+00	 4.214273393337328e+01	 1.002404436868919e+01
0	 2.142877018163878e+00	 4.285699007784906e+01	 1.001251745849514e+01
0	 2.857176635411265e+00	 3.571445238150556e+01	 1.003826485815387e+01
0	 2.857176635411265e+00	 3.642870477623360e+01	 1.010756963557312e+01
0	 2.857176635411264e+00	 3.714295725428858e+01	 1.016463961995012e+01
0	 2.857176635411264e+00	 3.785720989899839e+01	 1.020854817038573e+01
0	 2.857176635411264e+00	 3.857146279369100e+01	 1.023836865787099e+01
0	 2.857176635411265e+00	 3.928571602169433e+01	 1.025317446528700e+01
0	 2.857176635411265e+00	 3.999996966633628e+01	 1.025203898740495e+01
0	 2.857176635411264e+00	 4.071422381094482e+01	 1.023403563088607e+01
0	 2.857176635411264e+00	 4.142847853884783e+01	 1.019823781428154e+01
0	 2.857176635411265e+00	 4.214273393337328e+01	 1.014371896803235e+01
0	 2.857176635411264e+00	 4.285699007784908e+01	 1.006955253446926e+01
0	 3.571478919343873e+00	 3.571445238150555e+01	 9.940234187258749e+00
0	 3.571478919343872e+00	 3.642870477623359e+01	 1.004193730200505e+01
0	 3.571478919343873e+00	 3.714295725428858e+01	 1.013268346643826e+01
0	 3.571478919343872e+00	 3.785720989899839e+01	 1.020948604882009e+01
0	 3.571478919343873e+00	 3.857146279369100e+01	 1.026935843634421e+01
0	 3.571478919343872e+00	 3.928571602169433e+01	 1.030931403513616e+01
0	 3.571478919343872e+00	 3.999996966633629e+01	 1.032636627025333e+01
0	 3.571478919343872e+00	 4.071422381094479e+01	 1.031752858568486e+01
0	 3.571478919343873e+00	 4.142847853884784e+01	 1.027981444435153e+01
0	 3.571478919343873e+00	 4.214273393337328e+01	 1.021023732810557e+01
0	 3.571478919343873e+00	 4.285699007784908e+01	 1.010581073773051e+01
0	 4.285783286615009e+00	 3.571445238150556e+01	 9.906535869352071e+00
0	 4.285783286615008e+00	 3.642870477623359e+01	 1.000587566115025e+01
0	 4.285783286615007e+00	 3.714295725428858e+01	 1.009987420431047e+01
0	 4.285783286615009e+00	 3.785720989899840e+01	 1.018406915047716e+01
0	 4.285783286615009e+00	 3.857146279369101e+01	 1.025399817196039e+01
0	 4.285783286615009e+00	 3.928571602169433e+01	 1.030519896173575e+01
0	 4.285783286615008e+00	 3.999996966633629e+01	 1.033320923344433e+01
0	 4.285783286615009e+00	 4.071422381094481e+01	 1.033356672139260e+01
0	 4.285783286615009e+00	 4.142847853884784e+01	 1.030180918055228e+01
0	 4.285783286615009e+00	 4.214273393337329e+01	 1.023347438656015e+01
0	 4.285783286615008e+00	 4.285699007784908e+01	 1.012410013571790e+01
0	 5.000089153877975e+00	 3.571445238150555e+01	 9.922662999196286e+00
0	 5.000089153877975e+00	 3.642870477623359e+01	 9.995407617977818e+00
0	 5.000089153877975e+00	 3.714295725428857e+01	 1.007080938740887e+01
0	 5.000089153877975e+00	 3.785720989899840e+01	 1.014351450675198e+01
0	 5.000089153877976e+00	 3.857146279369100e+01	 1.020816919372938e+01
0	 5.000089153877976e+00	 3.928571602169433e+01	 1.025941968452299e+01
0	 5.000089153877977e+00	 3.999996966633629e+01	 1.029191223377438e+01
0	 5.000089153877975e+00	 4.071422381094481e+01	 1.030029311458463e+01
0	 5.000089153877976e+00	 4.142847853884784e+01	 1.027920861851424e+01
0	 5.000089153877975e+00	 4.214273393337327e+01	 1.022330505558296e+01
0	 5.000089153877976e+00	 4.285699007784908e+01	 1.012722875426961e+01
0	 5.714395937786081e+00	 3.571445238150557e+01	 9.974108762815939e+00
0	 5.714395937786083e+00	 3.642870477623359e+01	 1.000655619263741e+01
0	 5.714395937786080e+00	 3.714295725428857e+01	 1.005008669277260e+01
0	 5.714395937786082e+00	 3.785720989899841e+01	 1.009903926721374e+01
0	 5.714395937786081e+00	 3.857146279369100e+01	 1.014775293363602e+01
0	 5.714395937786080e+00	 3.928571602169432e+01	 1.019056672339755e+01
0	 5.714395937786080e+00	 3.999996966633628e+01	 1.022181968153931e+01
0	 5.714395937786082e+00	 4.071422381094482e+01	 1.023585086678512e+01
0	 5.714395937786080e+00	 4.142847853884783e+01	 1.022699935154146e+01
0	 5.714395937786081e+00	 4.214273393337327e+01	 1.018960422189746e+01
0	 5.714395937786082e+00	 4.285699007784908e+01	 1.011800457762467e+01
0	 6.428703054992629e+00	 3.571445238150555e+01	 1.004636643749558e+01
0	 6.428703054992629e+00	 3.642870477623360e+01	 1.003534452045670e+01
0	 6.428703054992628e+00	 3.714295725428856e+01	 1.004230392063494e+01
0	 6.428703054992631e+00	 3.785720989899841e+01	 1.006186069960307e+01
0	 6.428703054992630e+00	 3.857146279369101e+01	 1.008863092663780e+01
0	 6.428703054992627e+00	 3.928571602169432e+01	 1.011723067871969e+01
0	 6.428703054992628e+00	 3.999996966633628e+01	 1.014227604053316e+01
0	 6.428703054992629e+00	 4.071422381094480e+01	 1.015838310446650e+01
0	 6.428703054992630e+00	 4.142847853884783e+01	 1.016016797061167e+01
0	 6.428703054992630e+00	 4.214273393337327e+01	 1.014224674676441e+01
0	 6.428703054992629e+00	 4.285699007784908e+01	 1.009923554842397e+01
0	 7.143009922150928e+00	 3.571445238150556e+01	 1.012492939177886e+01
0	 7.143009922150929e+00	 3.642870477623360e+01	 1.007779585194018e+01
0	 7.143009922150926e+00	 3.714295725428856e+01	 1.005205899442215e+01
0	 7.143009922150927e+00	 3.785720989899839e+01	 1.004319618983091e+01
0	 7.143009922150927e+00	 3.857146279369102e+01	 1.004668481066387e+01
0	 7.143009922150926e+00	 3.928571602169433e+01	 1.005800223130957e+01
0	 7.143009922150926e+00	 3.999996966633628e+01	 1.007262582804777e+01
0	 7.143009922150926e+00	 4.071422381094481e+01	 1.008603297904937e+01
0	 7.143009922150927e+00	 4.142847853884783e+01	 1.009370106437644e+01
0	 7.143009922150926e+00	 4.214273393337328e+01	 1.009110746598215e+01
0	 7.143009922150927e+00	 4.285699007784908e+01	 1.007372956771077e+01
0	 0.000000000000000e+00	 4.285699007784908e+01	 9.688669695848130e+00
0	 0.000000000000000e+00	 4.357129694500737e+01	 1.016613017564277e+01
0	 0.000000000000000e+00	 4.428560406221392e+01	 1.053060997962921e+01
0	 0.000000000000000e+00	 4.499991084612202e+01	 1.077310713223146e+01
0	 0.000000000000000e+00	 4.571421671338500e+01	 1.088461892613589e+01
0	 0.000000000000000e+00	 4.642852108065614e+01	 1.085614192228905e+01
0	 0.000000000000000e+00	 4.714282336458874e+01	 1.067867194988664e+01
0	 0.000000000000000e+00	 4.785712298183613e+01	 1.034320410635361e+01
0	 0.000000000000000e+00	 4.857141934905160e+01	 9.840732757315187e+00
0	 0.000000000000000e+00	 4.928571188288846e+01	 9.162251536558911e+00
0	 0.000000000000000e+00	 5.000000000000000e+01	 8.298753345987830e+00
0	 7.142881171115514e-01	 4.285699007784908e+01	 9.824884210635975e+00
0	 7.142881171115515e-01	 4.357129694500738e+01	 1.008911453216997e+01
0	 7.142881171115514e-01	 4.428560406221393e+01	 1.029396715648477e+01
0	 7.142881171115513e-01	 4.499991084612201e+01	 1.043334961414587e+01
0	 7.142881171115512e-01	 4.571421671338499e+01	 1.050116902713269e+01
0	 7.142881171115517e-01	 4.642852108065615e+01	 1.049133210883761e+01
0	 7.142881171115510e-01	 4.714282336458873e+01	 1.039774516405986e+01
0	 7.142881171115514e-01	 4.785712298183613e+01	 1.021431408899448e+01
0	 7.142881171115514e-01	 4.857141934905159e+01	 9.934944371216238e+00
0	 7.142881171115514e-01	 4.928571188288846e+01	 9.553541089658420e+00
0	 7.142881171115513e-01	 5.000000000000001e+01	 9.064008914587072e+00
0	 1.428580650948409e+00	 4.285699007784908e+01	 9.931897400766440e+00
0	 1.428580650948410e+00	 4.357129694500738e+01	 1.003775438581031e+01
0	 1.428580650948409e+00	 4.428560406221393e+01	 1.012290959384822e+01
0	 1.428580650948409e+00	 4.499991084612203e+01	 1.018380508753933e+01
0	 1.428580650948410e+00	 4.571421671338501e+01	 1.021688276293823e+01
0	 1.428580650948409e+00	 4.642852108065613e+01	 1.021858434949471e+01
0	 1.428580650948409e+00	 4.714282336458876e+01	 1.018535141005134e+01
0	 1.428580650948409e+00	 4.785712298183613e+01	 1.011362534083911e+01
0	 1.428580650948410e+00	 4.857141934905160e+01	 9.999847371470969e+00
0	 1.428580650948409e+00	 4.928571188288845e+01	 9.840458564933432e+00
0	 1.428580650948409e+00	 4.999999999999999e+01	 9.631899817575899e+00
0	 2.142877018163878e+00	 4.285699007784906e+01	 1.001251745849514e+01
0	 2.142877018163878e+00	 4.357129694500737e+01	 1.000784257958697e+01
0	 2.142877018163880e+00	 4.428560406221393e+01	 1.000827409062647e+01
0	 2.142877018163878e+00	 4.499991084612202e+01	 1.001241361324492e+01
0	 2.142877018163878e+00	 4.571421671338499e+01	 1.001886277337105e+01
0	 2.142877018163878e+00	 4.642852108065613e+01	 1.002622320123127e+01
0	 2.142877018163879e+00	 4.714282336458875e+01	 1.003309653134992e+01
0	 2.142877018163878e+00	 4.785712298183613e+01	 1.003808440254961e+01
0	 2.142877018163878e+00	 4.857141934905159e+01	 1.003978845795159e+01
0	 2.142877018163879e+00	 4.928571188288848e+01	 1.003681034497623e+01
0	 2.142877018163878e+00	 4.999999999999999e+01	 1.002775171534334e+01
0	 2.857176635411264e+00	 4.285699007784908e+01	 1.006955253446926e+01
0	 2.857176635411265e+00	 4.357129694500736e+01	 9.995171907857960e+00
0	 2.857176635411265e+00	 4.428560406221392e+01	 9.940897398034149e+00
0	 2.857176635411264e+00	 4.499991084612205e+01	 9.907115211567818e+00
0	 2.857176635411265e+00	 4.571421671338501e+01	 9.894211669239615e+00
0	 2.857176635411264e+00	 4.642852108065615e+01	 9.902573206041422e+00
0	 2.857176635411265e+00	 4.714282336458874e+01	 9.932586371178317e+00
0	 2.857176635411265e+00	 4.785712298183613e+01	 9.984637828071932e+00
0	 2.857176635411265e+00	 4.857141934905161e+01	 1.005911435436527e+01
0	 2.857176635411264e+00	 4.928571188288846e+01	 1.015640284192872e+01
0	 2.857176635411265e+00	 5.000000000000000e+01	 1.027689029686778e+01
0	 3.571478919343873e+00	 4.285699007784908e+01	 1.010581073773052e+01
0	 3.571478919343873e+00	 4.357129694500737e+01	 9.995535116319648e+00
0	 3.571478919343872e+00	 4.428560406221392e+01	 9.911616219597089e+00
0	 3.571478919343873e+00	 4.499991084612203e+01	 9.855849862288242e+00
0	 3.571478919343873e+00	 4.571421671338500e+01	 9.830032032344439e+00
0	 3.571478919343873e+00	 4.642852108065613e+01	 9.835958890943619e+00
0	 3.571478919343873e+00	 4.714282336458874e+01	 9.875426772493139e+00
0	 3.571478919343873e+00	 4.785712298183614e+01	 9.950232184634956e+00
0	 3.571478919343873e+00	 4.857141934905161e+01	 1.006217180825256e+01
0	 3.571478919343874e+00	 4.928571188288846e+01	 1.021304249748031e+01
0	 3.571478919343873e+00	 5.000000000000000e+01	 1.040464127971469e+01
0	 4.285783286615008e+00	 4.285699007784908e+01	 1.012410013571790e+01
0	 4.285783286615007e+00	 4.357129694500736e+01	 1.000472490200985e+01
0	 4.285783286615008e+00	 4.428560406221392e+01	 9.911267211155193e+00
0	 4.285783286615008e+00	 4.499991084612202e+01	 9.846557504663927e+00
0	 4.285783286615009e+00	 4.571421671338499e+01	 9.813426415479926e+00
0	 4.285783286615009e+00	 4.642852108065614e+01	 9.814704767981578e+00
0	 4.285783286615009e+00	 4.714282336458876e+01	 9.853223577985048e+00
0	 4.285783286615008e+00	 4.785712298183612e+01	 9.931814052749726e+00
0	 4.285783286615009e+00	 4.857141934905160e+01	 1.005330759098617e+01
0	 4.285783286615008e+00	 4.928571188288846e+01	 1.022053578286617e+01
0	 4.285783286615008e+00	 5.000000000000000e+01	 1.043633041003543e+01
0	 5.000089153877976e+00	 4.285699007784908e+01	 1.012722875426961e+01
0	 5.000089153877976e+00	 4.357129694500737e+01	 1.001853391331017e+01
0	 5.000089153877976e+00	 4.428560406221393e+01	 9.930686980864868e+00
0	 5.000089153877974e+00	 4.499991084612203e+01	 9.867178037432192e+00
0	 5.000089153877974e+00	 4.571421671338500e+01	 9.831497342435775e+00
0	 5.000089153877977e+00	 4.642852108065615e+01	 9.827135334225115e+00
0	 5.000089153877976e+00	 4.714282336458875e+01	 9.857582630078710e+00
0	 5.000089153877974e+00	 4.785712298183613e+01	 9.926330026209012e+00
0	 5.000089153877975e+00	 4.857141934905160e+01	 1.003686849776994e+01
0	 5.000089153877977e+00	 4.928571188288846e+01	 1.019268919886636e+01
0	 5.000089153877976e+00	 5.000000000000000e+01	 1.039728346256588e+01
0	 5.714395937786082e+00	 4.285699007784908e+01	 1.011800457762467e+01
0	 5.714395937786081e+00	 4.357129694500737e+01	 1.003275474994777e+01
0	 5.714395937786082e+00	 4.428560406221392e+01	 9.960712089200705e+00
0	 5.714395937786083e+00	 4.499991084612203e+01	 9.905651318811278e+00
0	 5.714395937786080e+00	 4.571421671338499e+01	 9.871347307997969e+00
0	 5.714395937786080e+00	 4.642852108065614e+01	 9.861575071770615e+00
0	 5.714395937786080e+00	 4.714282336458874e+01	 9.880109770932915e+00
0	 5.714395937786080e+00	 4.785712298183615e+01	 9.930726712086681e+00
0	 5.714395937786082e+00	 4.857141934905160e+01	 1.001720134763785e+01
0	 5.714395937786081e+00	 4.928571188288847e+01	 1.014330927580437e+01
0	 5.714395937786080e+00	 4.999999999999999e+01	 1.031282624062576e+01
0	 6.428703054992629e+00	 4.285699007784908e+01	 1.009923554842397e+01
0	 6.428703054992631e+00	 4.357129694500737e+01	 1.004317996299664e+01
0	 6.428703054992630e+00	 4.428560406221391e+01	 9.992179048956686e+00
0	 6.428703054992629e+00	 4.499991084612203e+01	 9.949917166501510e+00
0	 6.428703054992631e+00	 4.571421671338499e+01	 9.920078777949664e+00
0	 6.428703054992629e+00	 4.642852108065614e+01	 9.906348447741447e+00
0	 6.428703054992628e+00	 4.714282336458874e+01	 9.912410842440659e+00
0	 6.428703054992630e+00	 4.785712298183614e+01	 9.941950730737689e+00
0	 6.428703054992630e+00	 4.857141934905160e+01	 9.998652983453864e+00
0	 6.428703054992631e+00	 4.928571188288846e+01	 1.008620257354691e+01
0	 6.428703054992629e+00	 5.000000000000000e+01	 1.020828457611792e+01
0	 7.143009922150927e+00	 4.285699007784908e+01	 1.007372956771077e+01
0	 7.143009922150927e+00	 4.357129694500738e+01	 1.004560205487811e+01
0	 7.143009922150926e+00	 4.428560406221391e+01	 1.001592432524669e+01
0	 7.143009922150925e+00	 4.499991084612201e+01	 9.987915357685646e+00
0	 7.143009922150927e+00	 4.571421671338501e+01	 9.964794189071434e+00
0	 7.143009922150927e+00	 4.642852108065613e+01	 9.949779914288250e+00
0	 7.143009922150925e+00	 4.714282336458874e+01	 9.946091686229146e+00
0	 7.143009922150926e+00	 4.785712298183612e+01	 9.956948715797903e+00
0	 7.143009922150928e+00	 4.857141934905161e+01	 9.985570271911557e+00
0	 7.143009922150927e+00	 4.928571188288848e+01	 1.003517568150367e+01
0	 7.143009922150927e+00	 5.000000000000001e+01	 1.010898432952832e+01
0	 7.143009922150927e+00	 0.000000000000000e+00	-7.861334243393341e+01
0	 7.143009922150926e+00	 7.142881171115513e-01	-4.983204926840639e+01
0	 7.143009922150926e+00	 1.428580650948409e+00	-2.555413177056894e+01
0	 7.143009922150927e+00	 2.142877018163878e+00	-5.609316550838222e+00
0	 7.143009922150926e+00	 2.857176635411264e+00	 1.017265268374792e+01
0	 7.143009922150926e+00	 3.571478919343873e+00	 2.196201513077877e+01
0	 7.143009922150926e+00	 4.285783286615008e+00	 2.992899289350943e+01
0	 7.143009922150927e+00	 5.000089153877976e+00	 3.424379098168988e+01
0	 7.143009922150926e+00	 5.714395937786080e+00	 3.507659731218475e+01
0	 7.143009922150927e+00	 6.428703054992628e+00	 3.259758270938345e+01
0	 7.143009922150927e+00	 7.143009922150927e+00	 2.697690090540141e+01
0	 7.857266066626719e+00	 0.000000000000000e+00	-7.550060319050436e+01
0	 7.857266066626720e+00	 7.142881171115513e-01	-4.870579144755573e+01
0	 7.857266066626718e+00	 1.428580650948409e+00	-2.584190681001278e+01
0	 7.857266066626721e+00	 2.142877018163879e+00	-6.814190352136055e+00
0	 7.857266066626720e+00	 2.857176635411265e+00	 8.472100205039613e+00
0	 7.857266066626721e+00	 3.571478919343873e+00	 2.011169049491664e+01
0	 7.857266066626718e+00	 4.285783286615009e+00	 2.819928950634246e+01
0	 7.857266066626718e+00	 5.000089153877975e+00	 3.282958958441328e+01
0	 7.857266066626718e+00	 5.714395937786079e+00	 3.409726643107390e+01
0	 7.857266066626719e+00	 6.428703054992632e+00	 3.209697910551387e+01
0	 7.857266066626718e+00	 7.143009922150926e+00	 2.692337002435938e+01
0	 8.571521461152161e+00	 0.000000000000000e+00	-6.752363669997551e+01
0	 8.571521461152166e+00	 7.142881171115514e-01	-4.406457194151935e+01
0	 8.571521461152162e+00	 1.428580650948409e+00	-2.383110899073776e+01
0	 8.571521461152162e+00	 2.142877018163878e+00	-6.792455345950898e+00
0	 8.571521461152162e+00	 2.857176635411264e+00	 7.082166324309347e+00
0	 8.571521461152164e+00	 3.571478919343873e+00	 1.782351818240103e+01
0	 8.571521461152164e+00	 4.285783286615009e+00	 2.546234722248814e+01
0	 8.571521461152159e+00	 5.000089153877974e+00	 3.002938527127059e+01
0	 8.571521461152161e+00	 5.714395937786080e+00	 3.155534898852851e+01
0	 8.571521461152164e+00	 6.428703054992630e+00	 3.007093986748080e+01
0	 8.571521461152162e+00	 7.143009922150928e+00	 2.560684423495761e+01
0	 9.285776189055182e+00	 0.000000000000000e+00	-5.576057491146371e+01
0	 9.285776189055186e+00	 7.142881171115514e-01	-3.665039953636092e+01
0	 9.285776189055182e+00	 1.428580650948410e+00	-1.997254906471959e+01
0	 9.285776189055181e+00	 2.142877018163878e+00	-5.748647830620785e+00
0	 9.285776189055186e+00	 2.857176635411265e+00	 5.999666944765004e+00
0	 9.285776189055184e+00	 3.571478919343873e+00	 1.525074515411211e+01
0	 9.285776189055184e+00	 4.285783286615009e+00	 2.198292380471597e+01
0	 9.285776189055182e+00	 5.000089153877974e+00	 2.617452701911160e+01
0	 9.285776189055182e+00	 5.714395937786081e+00	 2.780386603553420e+01
0	 9.285776189055186e+00	 6.428703054992631e+00	 2.684923920822179e+01
0	 9.285776189055184e+00	 7.143009922150926e+00	 2.328893200756036e+01
0	 1.000003033366371e+01	 0.000000000000000e+00	-4.128954975484778e+01
0	 1.000003033366371e+01	 7.142881171115514e-01	-2.720528313909790e+01
0	 1.000003033366371e+01	 1.428580650948409e+00	-1.471703799143842e+01
0	 1.000003033366371e+01	 2.142877018163878e+00	-3.887304352985845e+00
0	 1.000003033366371e+01	 2.857176635411265e+00	 5.221417717579754e+00
0	 1.000003033366371e+01	 3.571478919343873e+00	 1.254661814473953e+01
0	 1.000003033366371e+01	 4.285783286615008e+00	 1.802577683673797e+01
0	 1.000003033366371e+01	 5.000089153877975e+00	 2.159636368606216e+01
0	 1.000003033366371e+01	 5.714395937786081e+00	 2.319583856979849e+01
0	 1.000003033366371e+01	 6.428703054992629e+00	 2.276165134986660e+01
0	 1.000003033366371e+01	 7.143009922150926e+00	 2.023124187313064e+01
0	 1.071428397830567e+01	 0.000000000000000e+00	-2.518869314076825e+01
0	 1.071428397830567e+01	 7.142881171115514e-01	-1.647123177770309e+01
0	 1.071428397830567e+01	 1.428580650948409e+00	-8.515386937881473e+00
0	 1.071428397830567e+01	 2.142877018163879e+00	-1.412961708391265e+00
0	 1.071428397830567e+01	 2.857176635411265e+00	 4.744234041889085e+00
0	 1.071428397830567e+01	 3.571478919343873e+00	 9.864383662779868e+00
0	 1.071428397830567e+01	 4.285783286615008e+00	 1.385566372320647e+01
0	 1.071428397830567e+01	 5.000089153877975e+00	 1.662624401152259e+01
0	 1.071428397830567e+01	 5.714395937786082e+00	 1.808428753575031e+01
0	 1.071428397830567e+01	 6.428703054992630e+00	 1.813795052373737e+01
0	 1.071428397830567e+01	 7.143009922150928e+00	 1.669538242323098e+01
0	 1.142853720630899e+01	 0.000000000000000e+00	-8.536136960627863e+00
0	 1.142853720630899e+01	 7.142881171115514e-01	-5.190254601106115e+00
0	 1.142853720630899e+01	 1.428580650948409e+00	-1.818407278545158e+00
0	 1.142853720630899e+01	 2.142877018163878e+00	 1.469843059310206e+00
0	 1.142853720630899e+01	 2.857176635411265e+00	 4.564931064788301e+00
0	 1.142853720630899e+01	 3.571478919343873e+00	 7.357287990534323e+00
0	 1.142853720630899e+01	 4.285783286615008e+00	 9.737341689712544e+00
0	 1.142853720630899e+01	 5.000089153877976e+00	 1.159551661616683e+01
0	 1.142853720630899e+01	 5.714395937786080e+00	 1.282223382453957e+01
0	 1.142853720630899e+01	 6.428703054992629e+00	 1.330791097034884e+01
0	 1.142853720630899e+01	 7.143009922150926e+00	 1.294296231002413e+01
0	 1.214279010100160e+01	 0.000000000000000e+00	 7.589986913408264e+00
0	 1.214279010100160e+01	 7.142881171115514e-01	 5.895639120805167e+00
0	 1.214279010100159e+01	 1.428580650948409e+00	 4.923089404562873e+00
0	 1.214279010100159e+01	 2.142877018163878e+00	 4.556572657756018e+00
0	 1.214279010100160e+01	 2.857176635411265e+00	 4.680323681330425e+00
0	 1.214279010100160e+01	 3.571478919343873e+00	 5.178577184106953e+00
0	 1.214279010100160e+01	 4.285783286615009e+00	 5.935567782784476e+00
0	 1.214279010100160e+01	 5.000089153877975e+00	 6.835530001941480e+00
0	 1.214279010100160e+01	 5.714395937786080e+00	 7.762698274036704e+00
0	 1.214279010100160e+01	 6.428703054992629e+00	 8.601306939408595e+00
0	 1.214279010100160e+01	 7.143009922150926e+00	 9.235590246273597e+00
0	 1.285704274571142e+01	 0.000000000000000e+00	 2.211154662841245e+01
0	 1.285704274571142e+01	 7.142881171115512e-01	 1.604443999718378e+01
0	 1.285704274571142e+01	 1.428580650948410e+00	 1.125829132192243e+01
0	 1.285704274571142e+01	 2.142877018163878e+00	 7.642689546072278e+00
0	 1.285704274571142e+01	 2.857176635411265e+00	 5.087226534524528e+00
0	 1.285704274571143e+01	 3.571478919343873e+00	 3.481497073403221e+00
0	 1.285704274571142e+01	 4.285783286615008e+00	 2.715098869886748e+00
0	 1.285704274571142e+01	 5.000089153877977e+00	 2.677632552065032e+00
0	 1.285704274571142e+01	 5.714395937786080e+00	 3.258701668832526e+00
0	 1.285704274571142e+01	 6.428703054992629e+00	 4.347912689817006e+00
0	 1.285704274571143e+01	 7.143009922150927e+00	 5.834875005344128e+00
0	 1.357129522376639e+01	 0.000000000000000e+00	 3.395041035069406e+01
0	 1.357129522376640e+01	 7.142881171115514e-01	 2.451413851622279e+01
0	 1.357129522376639e+01	 1.428580650948409e+00	 1.673638647649955e+01
0	 1.357129522376640e+01	 2.142877018163878e+00	 1.052365593487242e+01
0	 1.357129522376639e+01	 2.857176635411264e+00	 5.782454015334578e+00
0	 1.357129522376639e+01	 3.571478919343872e+00	 2.419293262128916e+00
0	 1.357129522376640e+01	 4.285783286615009e+00	 3.406916394191750e-01
0	 1.357129522376640e+01	 5.000089153877975e+00	-5.468274689725670e-01
0	 1.357129522376639e+01	 5.714395937786080e+00	-3.367352597620439e-01
0	 1.357129522376639e+01	 6.428703054992629e+00	 8.775024896675245e-01
0	 1.357129522376639e+01	 7.143009922150926e+00	 3.002425421202081e+00
0	 1.428554761849444e+01	 0.000000000000000e+00	 4.202844626579923e+01
0	 1.428554761849444e+01	 7.142881171115513e-01	 3.056272504515460e+01
0	 1.428554761849444e+01	 1.428580650948410e+00	 2.090656266374573e+01
0	 1.428554761849444e+01	 2.142877018163878e+00	 1.299493378625641e+01
0	 1.428554761849445e+01	 2.857176635411265e+00	 6.762820262678657e+00
0	 1.428554761849444e+01	 3.571478919343873e+00	 2.145211127789596e+00
0	 1.428554761849444e+01	 4.285783286615009e+00	-9.228973992834777e-01
0	 1.428554761849444e+01	 5.000089153877974e+00	-2.506501915410182e+00
0	 1.428554761849444e+01	 5.714395937786081e+00	-2.670591833715998e+00
0	 1.428554761849444e+01	 6.428703054992629e+00	-1.480149383753292e+00
0	 1.428554761849444e+01	 7.143009922150925e+00	 9.998503884156886e-01
0	 7.143009922150927e+00	 7.143009922150927e+00	 2.697690090540141e+01
0	 7.143009922150926e+00	 7.857266066626718e+00	 2.048112922755605e+01
0	 7.143009922150929e+00	 8.571521461152162e+00	 1.521208685182911e+01
0	 7.143009922150926e+00	 9.285776189055184e+00	 1.109427533014115e+01
0	 7.143009922150927e+00	 1.000003033366371e+01	 8.052195664530817e+00
0	 7.143009922150926e+00	 1.071428397830567e+01	 6.010348307148361e+00
0	 7.143009922150925e+00	 1.142853720630899e+01	 4.893233160250045e+00
0	 7.143009922150927e+00	 1.214279010100160e+01	 4.625349576193580e+00
0	 7.143009922150928e+00	 1.285704274571143e+01	 5.131196357434467e+00
0	 7.143009922150926e+00	 1.357129522376639e+01	 6.335271756523330e+00
0	 7.143009922150930e+00	 1.428554761849445e+01	 8.162073476104224e+00
0	 7.857266066626718e+00	 7.143009922150926e+00	 2.692337002435938e+01
0	 7.857266066626719e+00	 7.857266066626718e+00	 2.074674027448749e+01
0	 7.857266066626720e+00	 8.571521461152162e+00	 1.564172788672589e+01
0	 7.857266066626720e+00	 9.285776189055186e+00	 1.156088079537457e+01
0	 7.857266066626719e+00	 1.000003033366371e+01	 8.456746373822124e+00
0	 7.857266066626719e+00	 1.071428397830567e+01	 6.281871434539134e+00
0	 7.857266066626720e+00	 1.142853720630899e+01	 4.988802229072554e+00
0	 7.857266066626721e+00	 1.214279010100160e+01	 4.530084448041029e+00
0	 7.857266066626718e+00	 1.285704274571142e+01	 4.858263221131284e+00
0	 7.857266066626720e+00	 1.357129522376639e+01	 5.925883117095395e+00
0	 7.857266066626718e+00	 1.428554761849444e+01	 7.685488143749132e+00
0	 8.571521461152162e+00	 7.143009922150928e+00	 2.560684423495761e+01
0	 8.571521461152162e+00	 7.857266066626720e+00	 2.011144785273549e+01
0	 8.571521461152162e+00	 8.571521461152162e+00	 1.549639649783950e+01
0	 8.571521461152161e+00	 9.285776189055182e+00	 1.173850290255737e+01
0	 8.571521461152162e+00	 1.000003033366371e+01	 8.814579269049617e+00
0	 8.571521461152164e+00	 1.071428397830567e+01	 6.701437269343298e+00
0	 8.571521461152164e+00	 1.142853720630899e+01	 5.375888045326754e+00
0	 8.571521461152159e+00	 1.214279010100159e+01	 4.814742208745241e+00
0	 8.571521461152162e+00	 1.285704274571142e+01	 4.994809841197525e+00
0	 8.571521461152161e+00	 1.357129522376639e+01	 5.892900494133363e+00
0	 8.571521461152162e+00	 1.428554761849444e+01	 7.485823188851962e+00
0	 9.285776189055184e+00	 7.143009922150926e+00	 2.328893200756036e+01
0	 9.285776189055184e+00	 7.857266066626718e+00	 1.875222122655565e+01
0	 9.285776189055181e+00	 8.571521461152162e+00	 1.488038217013668e+01
0	 9.285776189055184e+00	 9.285776189055182e+00	 1.167071082546105e+01
0	 9.285776189055184e+00	 1.000003033366371e+01	 9.120502713785802e+00
0	 9.285776189055184e+00	 1.071428397830567e+01	 7.227052890462022e+00
0	 9.285776189055184e+00	 1.142853720630899e+01	 5.987655944930250e+00
0	 9.285776189055184e+00	 1.214279010100160e+01	 5.399606000716651e+00
0	 9.285776189055182e+00	 1.285704274571142e+01	 5.460196715430065e+00
0	 9.285776189055182e+00	 1.357129522376639e+01	 6.166721280759837e+00
0	 9.285776189055182e+00	 1.428554761849444e+01	 7.516472422474473e+00
0	 1.000003033366371e+01	 7.143009922150926e+00	 2.023124187313064e+01
0	 1.000003033366371e+01	 7.857266066626718e+00	 1.684602975484435e+01
0	 1.000003033366371e+01	 8.571521461152162e+00	 1.389797450076453e+01
0	 1.000003033366371e+01	 9.285776189055182e+00	 1.140107385372132e+01
0	 1.000003033366371e+01	 1.000003033366371e+01	 9.369325179942384e+00
0	 1.000003033366371e+01	 1.071428397830567e+01	 7.816725469048592e+00
0	 1.000003033366371e+01	 1.142853720630899e+01	 6.757271334050311e+00
0	 1.000003033366371e+01	 1.214279010100160e+01	 6.204959011344373e+00
0	 1.000003033366371e+01	 1.285704274571143e+01	 6.173784360711694e+00
0	 1.000003033366371e+01	 1.357129522376639e+01	 6.677742865315595e+00
0	 1.000003033366371e+01	 1.428554761849444e+01	 7.730829631700719e+00
0	 1.071428397830567e+01	 7.143009922150928e+00	 1.669538242323098e+01
0	 1.071428397830567e+01	 7.857266066626718e+00	 1.456984289113996e+01
0	 1.071428397830567e+01	 8.571521461152164e+00	 1.265346319905187e+01
0	 1.071428397830567e+01	 9.285776189055184e+00	 1.097316139283954e+01
0	 1.071428397830567e+01	 1.000003033366371e+01	 9.555855247771628e+00
0	 1.071428397830567e+01	 1.071428397830567e+01	 8.428462268509513e+00
0	 1.071428397830567e+01	 1.142853720630899e+01	 7.617899689104697e+00
0	 1.071428397830567e+01	 1.214279010100160e+01	 7.151084472996699e+00
0	 1.071428397830567e+01	 1.285704274571142e+01	 7.054933313011331e+00
0	 1.071428397830567e+01	 1.357129522376639e+01	 7.356362631359556e+00
0	 1.071428397830567e+01	 1.428554761849444e+01	 8.082288579636744e+00
0	 1.142853720630899e+01	 7.143009922150926e+00	 1.294296231002413e+01
0	 1.142853720630899e+01	 7.857266066626721e+00	 1.210063018362376e+01
0	 1.142853720630899e+01	 8.571521461152164e+00	 1.125113808651038e+01
0	 1.142853720630899e+01	 9.285776189055182e+00	 1.043054296418390e+01
0	 1.142853720630899e+01	 1.000003033366371e+01	 9.674901605867417e+00
0	 1.142853720630899e+01	 1.071428397830567e+01	 9.020270644505414e+00
0	 1.142853720630899e+01	 1.142853720630899e+01	 8.502706556762385e+00
0	 1.142853720630899e+01	 1.214279010100160e+01	 8.158265663021611e+00
0	 1.142853720630899e+01	 1.285704274571143e+01	 8.023004127384244e+00
0	 1.142853720630899e+01	 1.357129522376639e+01	 8.132977957668723e+00
0	 1.142853720630899e+01	 1.428554761849444e+01	 8.524243005410364e+00
0	 1.214279010100160e+01	 7.143009922150926e+00	 9.235590246273597e+00
0	 1.214279010100160e+01	 7.857266066626720e+00	 9.615361275120870e+00
0	 1.214279010100160e+01	 8.571521461152164e+00	 9.795289096835642e+00
0	 1.214279010100160e+01	 9.285776189055186e+00	 9.816788204990450e+00
0	 1.214279010100160e+01	 1.000003033366371e+01	 9.721273051166230e+00
0	 1.214279010100160e+01	 1.071428397830567e+01	 9.550158044951912e+00
0	 1.214279010100160e+01	 1.142853720630899e+01	 9.344857553944150e+00
0	 1.214279010100160e+01	 1.214279010100160e+01	 9.146785903747082e+00
0	 1.214279010100160e+01	 1.285704274571143e+01	 8.997357377972179e+00
0	 1.214279010100160e+01	 1.357129522376640e+01	 8.937986218238134e+00
0	 1.214279010100160e+01	 1.428554761849445e+01	 9.010086624170912e+00
0	 1.285704274571143e+01	 7.143009922150927e+00	 5.834875005344130e+00
0	 1.285704274571142e+01	 7.857266066626718e+00	 7.291005903100901e+00
0	 1.285704274571142e+01	 8.571521461152162e+00	 8.390206275907914e+00
0	 1.285704274571142e+01	 9.285776189055184e+00	 9.175466868363875e+00
0	 1.285704274571143e+01	 1.000003033366371e+01	 9.689778488947855e+00
0	 1.285704274571143e+01	 1.071428397830567e+01	 9.976132010020144e+00
0	 1.285704274571142e+01	 1.142853720630899e+01	 1.007751836782303e+01
0	 1.285704274571143e+01	 1.214279010100160e+01	 1.003692856248144e+01
0	 1.285704274571142e+01	 1.285704274571142e+01	 9.897353658003468e+00
0	 1.285704274571142e+01	 1.357129522376639e+01	 9.701784782280827e+00
0	 1.285704274571142e+01	 1.428554761849444e+01	 9.493213127089124e+00
0	 1.357129522376639e+01	 7.143009922150926e+00	 3.002425421202082e+00
0	 1.357129522376639e+01	 7.857266066626719e+00	 5.304533899678451e+00
0	 1.357129522376639e+01	 8.571521461152164e+00	 7.140179781792671e+00
0	 1.357129522376639e+01	 9.285776189055182e+00	 8.550148823278093e+00
0	 1.357129522376639e+01	 1.000003033366370e+01	 9.575226932835950e+00
0	 1.357129522376639e+01	 1.071428397830567e+01	 1.025620017213731e+01
0	 1.357129522376639e+01	 1.142853720630899e+01	 1.063385475582471e+01
0	 1.357129522376639e+01	 1.214279010100160e+01	 1.074897705151355e+01
0	 1.357129522376640e+01	 1.285704274571143e+01	 1.064235357979318e+01
0	 1.357129522376639e+01	 1.357129522376639e+01	 1.035477101422779e+01
0	 1.357129522376639e+01	 1.428554761849444e+01	 9.927016181356981e+00
0	 1.428554761849444e+01	 7.143009922150925e+00	 9.998503884156886e-01
0	 1.428554761849444e+01	 7.857266066626719e+00	 3.832915191613474e+00
0	 1.428554761849444e+01	 8.571521461152162e+00	 6.149499884741043e+00
0	 1.428554761849444e+01	 9.285776189055181e+00	 7.984404054576637e+00
0	 1.428554761849444e+01	 1.000003033366371e+01	 9.372427504798383e+00
0	 1.428554761849444e+01	 1.071428397830567e+01	 1.034837025598692e+01
0	 1.428554761849444e+01	 1.142853720630899e+01	 1.094703254562771e+01
0	 1.428554761849444e+01	 1.214279010100160e+01	 1.120321482811296e+01
0	 1.428554761849444e+01	 1.285704274571142e+01	 1.115171777474310e+01
0	 1.428554761849444e+01	 1.357129522376639e+01	 1.082734227372799e+01
0	 1.428554761849444e+01	 1.428554761849444e+01	 1.026488943018763e+01
0	 7.143009922150930e+00	 1.428554761849445e+01	 8.162073476104228e+00
0	 7.143009922150927e+00	 1.499984997172427e+01	 1.004493411014768e+01
0	 7.143009922150928e+00	 1.571415215828766e+01	 1.149096154817702e+01
0	 7.143009922150927e+00	 1.642845401151721e+01	 1.253575952963116e+01
0	 7.143009922150927e+00	 1.714275536474550e+01	 1.321493146631455e+01
0	 7.143009922150927e+00	 1.785705605130510e+01	 1.356408044239701e+01
0	 7.143009922150926e+00	 1.857135590452859e+01	 1.361880921441254e+01
0	 7.143009922150926e+00	 1.928565475774854e+01	 1.341472021125695e+01
0	 7.143009922150926e+00	 1.999995244429754e+01	 1.298741553418429e+01
0	 7.143009922150927e+00	 2.071424879750816e+01	 1.237249695680225e+01
0	 7.143009922150927e+00	 2.142854365071296e+01	 1.160556592506627e+01
0	 7.857266066626718e+00	 1.428554761849444e+01	 7.685488143749132e+00
0	 7.857266066626718e+00	 1.499984997172426e+01	 9.572175793640863e+00
0	 7.857266066626718e+00	 1.571415215828766e+01	 1.106833270237714e+01
0	 7.857266066626720e+00	 1.642845401151721e+01	 1.219787477667381e+01
0	 7.857266066626718e+00	 1.714275536474550e+01	 1.298471756261597e+01
0	 7.857266066626718e+00	 1.785705605130510e+01	 1.345277624565790e+01
0	 7.857266066626721e+00	 1.857135590452858e+01	 1.362596565062161e+01
0	 7.857266066626719e+00	 1.928565475774854e+01	 1.352820024169423e+01
0	 7.857266066626718e+00	 1.999995244429753e+01	 1.318339412242400e+01
0	 7.857266066626718e+00	 2.071424879750815e+01	 1.261546103571520e+01
0	 7.857266066626719e+00	 2.142854365071296e+01	 1.184831436382158e+01
0	 8.571521461152162e+00	 1.428554761849444e+01	 7.485823188851962e+00
0	 8.571521461152164e+00	 1.499984997172426e+01	 9.248946908357011e+00
0	 8.571521461152162e+00	 1.571415215828766e+01	 1.068195815558307e+01
0	 8.571521461152161e+00	 1.642845401151722e+01	 1.179854743118420e+01
0	 8.571521461152164e+00	 1.714275536474550e+01	 1.261240487454129e+01
0	 8.571521461152168e+00	 1.785705605130510e+01	 1.313722026376194e+01
0	 8.571521461152161e+00	 1.857135590452858e+01	 1.338668301567909e+01
0	 8.571521461152164e+00	 1.928565475774854e+01	 1.337448218584822e+01
0	 8.571521461152161e+00	 1.999995244429754e+01	 1.311430646854349e+01
0	 8.571521461152162e+00	 2.071424879750816e+01	 1.261984419675241e+01
0	 8.571521461152161e+00	 2.142854365071296e+01	 1.190478334216948e+01
0	 9.285776189055182e+00	 1.428554761849444e+01	 7.516472422474473e+00
0	 9.285776189055182e+00	 1.499984997172426e+01	 9.055511353122601e+00
0	 9.285776189055179e+00	 1.571415215828766e+01	 1.033475568615118e+01
0	 9.285776189055184e+00	 1.642845401151721e+01	 1.135913296217390e+01
0	 9.285776189055186e+00	 1.714275536474550e+01	 1.213357038634019e+01
0	 9.285776189055182e+00	 1.785705605130510e+01	 1.266299482833514e+01
0	 9.285776189055184e+00	 1.857135590452859e+01	 1.295233282237806e+01
0	 9.285776189055184e+00	 1.928565475774854e+01	 1.300651056722000e+01
0	 9.285776189055181e+00	 1.999995244429753e+01	 1.283045392614011e+01
0	 9.285776189055186e+00	 2.071424879750816e+01	 1.242908842694071e+01
0	 9.285776189055184e+00	 2.142854365071296e+01	 1.180733926194125e+01
0	 1.000003033366371e+01	 1.428554761849444e+01	 7.730829631700719e+00
0	 1.000003033366371e+01	 1.499984997172427e+01	 8.972132990296737e+00
0	 1.000003033366371e+01	 1.571415215828766e+01	 1.002964302977670e+01
0	 1.000003033366371e+01	 1.642845401151722e+01	 1.090098679507184e+01
0	 1.000003033366371e+01	 1.714275536474550e+01	 1.158379104200684e+01
0	 1.000003033366371e+01	 1.785705605130510e+01	 1.207568223729978e+01
0	 1.000003033366371e+01	 1.857135590452859e+01	 1.237428655856087e+01
0	 1.000003033366371e+01	 1.928565475774854e+01	 1.247722989429036e+01
0	 1.000003033366371e+01	 1.999995244429753e+01	 1.238213784387522e+01
0	 1.000003033366371e+01	 2.071424879750815e+01	 1.208663571758508e+01
0	 1.000003033366371e+01	 2.142854365071297e+01	 1.158834853656690e+01
0	 1.071428397830567e+01	 1.428554761849444e+01	 8.082288579636744e+00
0	 1.071428397830567e+01	 1.499984997172426e+01	 8.979075645770747e+00
0	 1.071428397830567e+01	 1.571415215828767e+01	 9.769537879493303e+00
0	 1.071428397830567e+01	 1.642845401151721e+01	 1.044546431172384e+01
0	 1.071428397830567e+01	 1.714275536474550e+01	 1.099864374527929e+01
0	 1.071428397830567e+01	 1.785705605130510e+01	 1.142086475487406e+01
0	 1.071428397830567e+01	 1.857135590452858e+01	 1.170391568711898e+01
0	 1.071428397830567e+01	 1.928565475774854e+01	 1.183958466051968e+01
0	 1.071428397830567e+01	 1.999995244429754e+01	 1.181965956547401e+01
0	 1.071428397830567e+01	 2.071424879750815e+01	 1.163592806426872e+01
0	 1.071428397830567e+01	 2.142854365071296e+01	 1.128017759107541e+01
0	 1.142853720630899e+01	 1.428554761849444e+01	 8.524243005410364e+00
0	 1.142853720630899e+01	 1.499984997172426e+01	 9.056603108967742e+00
0	 1.142853720630899e+01	 1.571415215828766e+01	 9.557357885672584e+00
0	 1.142853720630899e+01	 1.642845401151721e+01	 1.001392085039216e+01
0	 1.142853720630899e+01	 1.714275536474550e+01	 1.041370535963919e+01
0	 1.142853720630899e+01	 1.785705605130509e+01	 1.074412461157172e+01
0	 1.142853720630899e+01	 1.857135590452859e+01	 1.099259164599251e+01
0	 1.142853720630899e+01	 1.928565475774854e+01	 1.114651934434780e+01
0	 1.142853720630899e+01	 1.999995244429754e+01	 1.119332042972557e+01
0	 1.142853720630899e+01	 2.071424879750815e+01	 1.112040746685325e+01
0	 1.142853720630899e+01	 2.142854365071296e+01	 1.091519286209483e+01
0	 1.214279010100160e+01	 1.428554761849445e+01	 9.010086624170912e+00
0	 1.214279010100159e+01	 1.499984997172426e+01	 9.184979132842363e+00
0	 1.214279010100160e+01	 1.571415215828766e+01	 9.396020656023737e+00
0	 1.214279010100160e+01	 1.642845401151721e+01	 9.627711705755141e+00
0	 1.214279010100160e+01	 1.714275536474550e+01	 9.864552708311356e+00
0	 1.214279010100160e+01	 1.785705605130510e+01	 1.009104400420182e+01
0	 1.214279010100160e+01	 1.857135590452858e+01	 1.029168584817021e+01
0	 1.214279010100160e+01	 1.928565475774854e+01	 1.045097840919389e+01
0	 1.214279010100160e+01	 1.999995244429754e+01	 1.055342177048285e+01
0	 1.214279010100160e+01	 2.071424879750815e+01	 1.058351592947858e+01
0	 1.214279010100160e+01	 2.142854365071297e+01	 1.052576079785239e+01
0	 1.285704274571142e+01	 1.428554761849444e+01	 9.493213127089128e+00
0	 1.285704274571142e+01	 1.499984997172426e+01	 9.344467433880503e+00
0	 1.285704274571143e+01	 1.571415215828767e+01	 9.288443755593278e+00
0	 1.285704274571142e+01	 1.642845401151721e+01	 9.308192128906891e+00
0	 1.285704274571142e+01	 1.714275536474550e+01	 9.386762574263612e+00
0	 1.285704274571142e+01	 1.785705605130510e+01	 9.507205095868484e+00
0	 1.285704274571142e+01	 1.857135590452858e+01	 9.652569681689281e+00
0	 1.285704274571142e+01	 1.928565475774854e+01	 9.805906303456393e+00
0	 1.285704274571142e+01	 1.999995244429753e+01	 9.950264916662668e+00
0	 1.285704274571142e+01	 2.071424879750816e+01	 1.006869546056311e+01
0	 1.285704274571142e+01	 2.142854365071296e+01	 1.014424785817467e+01
0	 1.357129522376639e+01	 1.428554761849444e+01	 9.927016181356977e+00
0	 1.357129522376639e+01	 1.499984997172426e+01	 9.515331692099142e+00
0	 1.357129522376640e+01	 1.571415215828766e+01	 9.237544706764808e+00
0	 1.357129522376639e+01	 1.642845401151722e+01	 9.076717327357120e+00
0	 1.357129522376640e+01	 1.714275536474550e+01	 9.015911700206519e+00
0	 1.357129522376639e+01	 1.785705605130510e+01	 9.038190015970784e+00
0	 1.357129522376639e+01	 1.857135590452858e+01	 9.126614509635214e+00
0	 1.357129522376639e+01	 1.928565475774854e+01	 9.264247460512987e+00
0	 1.357129522376639e+01	 1.999995244429753e+01	 9.434151192245636e+00
0	 1.357129522376640e+01	 2.071424879750815e+01	 9.619388072803728e+00
0	 1.357129522376639e+01	 2.142854365071297e+01	 9.803020514487669e+00
0	 1.428554761849444e+01	 1.428554761849444e+01	 1.026488943018763e+01
0	 1.428554761849444e+01	 1.499984997172426e+01	 9.677835551046210e+00
0	 1.428554761849444e+01	 1.571415215828766e+01	 9.246240989258908e+00
0	 1.428554761849444e+01	 1.642845401151721e+01	 8.954642465030956e+00
0	 1.428554761849444e+01	 1.714275536474550e+01	 8.787576788593304e+00
0	 1.428554761849445e+01	 1.785705605130510e+01	 8.729580860202637e+00
0	 1.428554761849444e+01	 1.857135590452859e+01	 8.765191670141814e+00
0	 1.428554761849444e+01	 1.928565475774854e+01	 8.878946298720500e+00
0	 1.428554761849444e+01	 1.999995244429753e+01	 9.055381916276271e+00
0	 1.428554761849444e+01	 2.071424879750816e+01	 9.279035783175850e+00
0	 1.428554761849444e+01	 2.142854365071296e+01	 9.534445249816795e+00
0	 7.143009922150927e+00	 2.142854365071296e+01	 1.160556592506627e+01
0	 7.143009922150927e+00	 2.214283692057824e+01	 1.086838221113504e+01
0	 7.143009922150925e+00	 2.285712885710493e+01	 1.030720501588288e+01
0	 7.143009922150926e+00	 2.357141979362770e+01	 9.904384522932675e+00
0	 7.143009922150927e+00	 2.428571006348117e+01	 9.642270703018340e+00
0	 7.143009922150926e+00	 2.500000000000000e+01	 9.503213313979446e+00
0	 7.143009922150926e+00	 2.571428993651883e+01	 9.469561900757268e+00
0	 7.143009922150926e+00	 2.642858020637231e+01	 9.523665795392407e+00
0	 7.143009922150928e+00	 2.714287114289507e+01	 9.647874117023838e+00
0	 7.143009922150926e+00	 2.785716307942177e+01	 9.824535771889483e+00
0	 7.143009922150926e+00	 2.857145634928704e+01	 1.003599945332825e+01
0	 7.857266066626719e+00	 2.142854365071296e+01	 1.184831436382158e+01
0	 7.857266066626720e+00	 2.214283692057824e+01	 1.107432995643694e+01
0	 7.857266066626718e+00	 2.285712885710494e+01	 1.046160666258029e+01
0	 7.857266066626717e+00	 2.357141979362770e+01	 9.997641900942920e+00
0	 7.857266066626718e+00	 2.428571006348117e+01	 9.669932834132686e+00
0	 7.857266066626719e+00	 2.500000000000000e+01	 9.465976368667746e+00
0	 7.857266066626718e+00	 2.571428993651883e+01	 9.373269154972132e+00
0	 7.857266066626718e+00	 2.642858020637231e+01	 9.379307587373045e+00
0	 7.857266066626716e+00	 2.714287114289507e+01	 9.471587804100022e+00
0	 7.857266066626720e+00	 2.785716307942178e+01	 9.637605687285806e+00
0	 7.857266066626718e+00	 2.857145634928704e+01	 9.864856862969081e+00
0	 8.571521461152161e+00	 2.142854365071296e+01	 1.190478334216948e+01
0	 8.571521461152161e+00	 2.214283692057824e+01	 1.115653267169046e+01
0	 8.571521461152164e+00	 2.285712885710494e+01	 1.054807901027181e+01
0	 8.571521461152164e+00	 2.357141979362770e+01	 1.007147694289350e+01
0	 8.571521461152161e+00	 2.428571006348118e+01	 9.718780784087624e+00
0	 8.571521461152161e+00	 2.500000000000001e+01	 9.482044577931935e+00
0	 8.571521461152162e+00	 2.571428993651883e+01	 9.353322098045270e+00
0	 8.571521461152164e+00	 2.642858020637231e+01	 9.324666847584888e+00
0	 8.571521461152162e+00	 2.714287114289508e+01	 9.388132059245676e+00
0	 8.571521461152161e+00	 2.785716307942177e+01	 9.535770695261300e+00
0	 8.571521461152162e+00	 2.857145634928703e+01	 9.759635447407184e+00
0	 9.285776189055184e+00	 2.142854365071296e+01	 1.180733926194125e+01
0	 9.285776189055182e+00	 2.214283692057824e+01	 1.113506335488669e+01
0	 9.285776189055184e+00	 2.285712885710494e+01	 1.057618226792206e+01
0	 9.285776189055184e+00	 2.357141979362770e+01	 1.012671770362909e+01
0	 9.285776189055179e+00	 2.428571006348117e+01	 9.782691103621616e+00
0	 9.285776189055184e+00	 2.500000000000001e+01	 9.540123648539389e+00
0	 9.285776189055186e+00	 2.571428993651884e+01	 9.395036258043781e+00
0	 9.285776189055184e+00	 2.642858020637231e+01	 9.343449590815379e+00
0	 9.285776189055184e+00	 2.714287114289507e+01	 9.381384044553281e+00
0	 9.285776189055182e+00	 2.785716307942177e+01	 9.504859755976316e+00
0	 9.285776189055181e+00	 2.857145634928704e+01	 9.709896600826063e+00
0	 1.000003033366371e+01	 2.142854365071297e+01	 1.158834853656690e+01
0	 1.000003033366371e+01	 2.214283692057824e+01	 1.102999502025814e+01
0	 1.000003033366371e+01	 2.285712885710494e+01	 1.055547666287540e+01
0	 1.000003033366371e+01	 2.357141979362770e+01	 1.016419225642098e+01
0	 1.000003033366371e+01	 2.428571006348118e+01	 9.855540360267980e+00
0	 1.000003033366371e+01	 2.500000000000000e+01	 9.628919301154976e+00
0	 1.000003033366371e+01	 2.571428993651883e+01	 9.483727173182281e+00
0	 1.000003033366371e+01	 2.642858020637231e+01	 9.419361837809804e+00
0	 1.000003033366371e+01	 2.714287114289508e+01	 9.435220923856644e+00
0	 1.000003033366371e+01	 2.785716307942178e+01	 9.530701827502192e+00
0	 1.000003033366371e+01	 2.857145634928704e+01	 9.705201712288936e+00
0	 1.071428397830567e+01	 2.142854365071296e+01	 1.128017759107541e+01
0	 1.071428397830567e+01	 2.214283692057824e+01	 1.086140069827901e+01
0	 1.071428397830567e+01	 2.285712885710494e+01	 1.049552244085621e+01
0	 1.071428397830567e+01	 2.357141979362770e+01	 1.018472869296722e+01
0	 1.071428397830566e+01	 2.428571006348118e+01	 9.931205138355072e+00
0	 1.071428397830567e+01	 2.500000000000000e+01	 9.737137270341298e+00
0	 1.071428397830567e+01	 2.571428993651884e+01	 9.604710391823033e+00
0	 1.071428397830567e+01	 2.642858020637232e+01	 9.536109615271343e+00
0	 1.071428397830567e+01	 2.714287114289508e+01	 9.533519862730941e+00
0	 1.071428397830567e+01	 2.785716307942177e+01	 9.599125865821234e+00
0	 1.071428397830567e+01	 2.857145634928704e+01	 9.735112165738682e+00
0	 1.142853720630899e+01	 2.142854365071296e+01	 1.091519286209483e+01
0	 1.142853720630899e+01	 2.214283692057824e+01	 1.064935343566538e+01
0	 1.142853720630899e+01	 2.285712885710494e+01	 1.040587986596903e+01
0	 1.142853720630899e+01	 2.357141979362770e+01	 1.018915512339288e+01
0	 1.142853720630899e+01	 2.428571006348118e+01	 1.000356203900646e+01
0	 1.142853720630898e+01	 2.499999999999999e+01	 9.853483304558750e+00
0	 1.142853720630899e+01	 2.571428993651884e+01	 9.743301472476102e+00
0	 1.142853720630899e+01	 2.642858020637232e+01	 9.677398955861145e+00
0	 1.142853720630899e+01	 2.714287114289508e+01	 9.660158028492704e+00
0	 1.142853720630899e+01	 2.785716307942177e+01	 9.695960824826665e+00
0	 1.142853720630899e+01	 2.857145634928704e+01	 9.789189339997820e+00
0	 1.214279010100160e+01	 2.142854365071297e+01	 1.052576079785239e+01
0	 1.214279010100160e+01	 2.214283692057823e+01	 1.041392629537535e+01
0	 1.214279010100160e+01	 2.285712885710493e+01	 1.029610922069880e+01
0	 1.214279010100160e+01	 2.357141979362770e+01	 1.017829967625020e+01
0	 1.214279010100160e+01	 2.428571006348117e+01	 1.006648768014116e+01
0	 1.214279010100160e+01	 2.500000000000000e+01	 9.966663166165759e+00
0	 1.214279010100160e+01	 2.571428993651884e+01	 9.884815983799404e+00
0	 1.214279010100160e+01	 2.642858020637230e+01	 9.826935898198375e+00
0	 1.214279010100160e+01	 2.714287114289508e+01	 9.799012590199863e+00
0	 1.214279010100160e+01	 2.785716307942177e+01	 9.807035656322649e+00
0	 1.214279010100160e+01	 2.857145634928704e+01	 9.856994608768378e+00
0	 1.285704274571142e+01	 2.142854365071296e+01	 1.014424785817467e+01
0	 1.285704274571142e+01	 2.214283692057824e+01	 1.017519235660923e+01
0	 1.285704274571143e+01	 2.285712885710494e+01	 1.017577080591099e+01
0	 1.285704274571142e+01	 2.357141979362770e+01	 1.015299049851877e+01
0	 1.285704274571143e+01	 2.428571006348118e+01	 1.011385869647370e+01
0	 1.285704274571142e+01	 2.500000000000001e+01	 1.006538263141879e+01
0	 1.285704274571143e+01	 2.571428993651884e+01	 1.001456950459880e+01
0	 1.285704274571142e+01	 2.642858020637232e+01	 9.968426486860277e+00
0	 1.285704274571142e+01	 2.714287114289507e+01	 9.933960718651749e+00
0	 1.285704274571142e+01	 2.785716307942177e+01	 9.918179310024250e+00
0	 1.285704274571142e+01	 2.857145634928703e+01	 9.928089340631955e+00
0	 1.357129522376639e+01	 2.142854365071297e+01	 9.803020514487669e+00
0	 1.357129522376640e+01	 2.214283692057824e+01	 9.953224714809567e+00
0	 1.357129522376640e+01	 2.285712885710494e+01	 1.005442494085170e+01
0	 1.357129522376639e+01	 2.357141979362770e+01	 1.011405575560561e+01
0	 1.357129522376639e+01	 2.428571006348117e+01	 1.013955173951423e+01
0	 1.357129522376640e+01	 2.500000000000001e+01	 1.013834749047252e+01
0	 1.357129522376639e+01	 2.571428993651883e+01	 1.011787762382819e+01
0	 1.357129522376639e+01	 2.642858020637231e+01	 1.008557677238219e+01
0	 1.357129522376639e+01	 2.714287114289508e+01	 1.004887958638911e+01
0	 1.357129522376640e+01	 2.785716307942178e+01	 1.001522073355740e+01
0	 1.357129522376639e+01	 2.857145634928703e+01	 9.992034899049608e+00
0	 1.428554761849444e+01	 2.142854365071296e+01	 9.534445249816795e+00
0	 1.428554761849444e+01	 2.214283692057823e+01	 9.768096481661319e+00
0	 1.428554761849445e+01	 2.285712885710494e+01	 9.941631963147783e+00
0	 1.428554761849444e+01	 2.357141979362770e+01	 1.006232363134529e+01
0	 1.428554761849445e+01	 2.428571006348118e+01	 1.013744347756863e+01
0	 1.428554761849444e+01	 2.500000000000000e+01	 1.017426354737983e+01
0	 1.428554761849444e+01	 2.571428993651883e+01	 1.018005594058948e+01
0	 1.428554761849444e+01	 2.642858020637231e+01	 1.016209281125760e+01
0	 1.428554761849444e+01	 2.714287114289507e+01	 1.012764636769410e+01
0	 1.428554761849444e+01	 2.785716307942177e+01	 1.008398887245895e+01
0	 1.428554761849444e+01	 2.857145634928703e+01	 1.003839264236187e+01
0	 7.143009922150926e+00	 2.857145634928704e+01	 1.003599945332825e+01
0	 7.143009922150928e+00	 2.928575120249186e+01	 1.022444485858260e+01
0	 7.143009922150926e+00	 3.000004755570247e+01	 1.034965343334694e+01
0	 7.143009922150928e+00	 3.071434524225147e+01	 1.042037632020694e+01
0	 7.143009922150927e+00	 3.142864409547143e+01	 1.044536464340332e+01
0	 7.143009922150926e+00	 3.214294394869490e+01	 1.043336950883245e+01
0	 7.143009922150926e+00	 3.285724463525450e+01	 1.039314200404670e+01
0	 7.143009922150926e+00	 3.357154598848279e+01	 1.033343319825472e+01
0	 7.143009922150926e+00	 3.428584784171235e+01	 1.026299414232183e+01
0	 7.143009922150927e+00	 3.500015002827575e+01	 1.019057586877019e+01
0	 7.143009922150928e+00	 3.571445238150556e+01	 1.012492939177886e+01
0	 7.857266066626718e+00	 2.857145634928704e+01	 9.864856862969081e+00
0	 7.857266066626717e+00	 2.928575120249185e+01	 1.008680619346557e+01
0	 7.857266066626720e+00	 3.000004755570248e+01	 1.024952542490852e+01
0	 7.857266066626719e+00	 3.071434524225147e+01	 1.035942029294638e+01
0	 7.857266066626719e+00	 3.142864409547143e+01	 1.042289650116361e+01
0	 7.857266066626718e+00	 3.214294394869491e+01	 1.044635972108137e+01
0	 7.857266066626720e+00	 3.285724463525450e+01	 1.043621559215830e+01
0	 7.857266066626721e+00	 3.357154598848281e+01	 1.039886972179097e+01
0	 7.857266066626721e+00	 3.428584784171235e+01	 1.034072768531434e+01
0	 7.857266066626719e+00	 3.500015002827575e+01	 1.026819502600214e+01
0	 7.857266066626717e+00	 3.571445238150555e+01	 1.018767725506696e+01
0	 8.571521461152162e+00	 2.857145634928703e+01	 9.759635447407184e+00
0	 8.571521461152162e+00	 2.928575120249185e+01	 9.991223754253809e+00
0	 8.571521461152162e+00	 3.000004755570248e+01	 1.017020192308006e+01
0	 8.571521461152166e+00	 3.071434524225148e+01	 1.030087571584949e+01
0	 8.571521461152162e+00	 3.142864409547143e+01	 1.038755085448167e+01
0	 8.571521461152166e+00	 3.214294394869491e+01	 1.043453302085312e+01
0	 8.571521461152161e+00	 3.285724463525451e+01	 1.044612785679819e+01
0	 8.571521461152161e+00	 3.357154598848280e+01	 1.042664096410959e+01
0	 8.571521461152162e+00	 3.428584784171236e+01	 1.038037790453900e+01
0	 8.571521461152162e+00	 3.500015002827575e+01	 1.031164419979748e+01
0	 8.571521461152161e+00	 3.571445238150555e+01	 1.022474533155563e+01
0	 9.285776189055181e+00	 2.857145634928704e+01	 9.709896600826063e+00
0	 9.285776189055184e+00	 2.928575120249186e+01	 9.931562390417925e+00
0	 9.285776189055184e+00	 3.000004755570248e+01	 1.010921265722357e+01
0	 9.285776189055182e+00	 3.071434524225146e+01	 1.024529863060397e+01
0	 9.285776189055184e+00	 3.142864409547143e+01	 1.034227149674132e+01
0	 9.285776189055184e+00	 3.214294394869492e+01	 1.040258239864005e+01
0	 9.285776189055182e+00	 3.285724463525450e+01	 1.042868243612766e+01
0	 9.285776189055182e+00	 3.357154598848279e+01	 1.042302266585541e+01
0	 9.285776189055182e+00	 3.428584784171235e+01	 1.038805410129892e+01
0	 9.285776189055184e+00	 3.500015002827575e+01	 1.032622771275848e+01
0	 9.285776189055182e+00	 3.571445238150556e+01	 1.023999442735940e+01
0	 1.000003033366371e+01	 2.857145634928704e+01	 9.705201712288936e+00
0	 1.000003033366371e+01	 2.928575120249186e+01	 9.901686944391571e+00
0	 1.000003033366371e+01	 3.000004755570247e+01	 1.006408734878757e+01
0	 1.000003033366371e+01	 3.071434524225147e+01	 1.019324507097595e+01
0	 1.000003033366371e+01	 3.142864409547143e+01	 1.029000221409324e+01
0	 1.000003033366371e+01	 3.214294394869491e+01	 1.035520083891449e+01
0	 1.000003033366371e+01	 3.285724463525451e+01	 1.038968296385411e+01
0	 1.000003033366371e+01	 3.357154598848280e+01	 1.039429056496656e+01
0	 1.000003033366371e+01	 3.428584784171236e+01	 1.036986557594682e+01
0	 1.000003033366371e+01	 3.500015002827575e+01	 1.031724988813082e+01
0	 1.000003033366371e+01	 3.571445238150557e+01	 1.023728535049570e+01
0	 1.071428397830567e+01	 2.857145634928704e+01	 9.735112165738682e+00
0	 1.071428397830567e+01	 2.928575120249186e+01	 9.895462251571304e+00
0	 1.071428397830567e+01	 3.000004755570248e+01	 1.003235571130705e+01
0	 1.071428397830566e+01	 3.071434524225146e+01	 1.014527106280991e+01
0	 1.071428397830567e+01	 3.142864409547143e+01	 1.023368678545483e+01
0	 1.071428397830567e+01	 3.214294394869491e+01	 1.029708132012868e+01
0	 1.071428397830567e+01	 3.285724463525451e+01	 1.033493306923092e+01
0	 1.071428397830567e+01	 3.357154598848280e+01	 1.034672039667425e+01
0	 1.071428397830567e+01	 3.428584784171235e+01	 1.033192162788502e+01
0	 1.071428397830567e+01	 3.500015002827575e+01	 1.029001504980369e+01
0	 1.071428397830567e+01	 3.571445238150556e+01	 1.022047891088489e+01
0	 1.142853720630899e+01	 2.857145634928704e+01	 9.789189339997820e+00
0	 1.142853720630899e+01	 2.928575120249186e+01	 9.906753140316603e+00
0	 1.142853720630899e+01	 3.000004755570248e+01	 1.001154745040331e+01
0	 1.142853720630899e+01	 3.071434524225147e+01	 1.010193262402848e+01
0	 1.142853720630899e+01	 3.142864409547143e+01	 1.017626898251018e+01
0	 1.142853720630899e+01	 3.214294394869491e+01	 1.023291681471476e+01
0	 1.142853720630899e+01	 3.285724463525451e+01	 1.027023637705745e+01
0	 1.142853720630899e+01	 3.357154598848280e+01	 1.028658789350288e+01
0	 1.142853720630899e+01	 3.428584784171234e+01	 1.028033155556547e+01
0	 1.142853720630899e+01	 3.500015002827575e+01	 1.024982752230970e+01
0	 1.142853720630899e+01	 3.571445238150555e+01	 1.019343592035028e+01
0	 1.214279010100160e+01	 2.857145634928704e+01	 9.856994608768378e+00
0	 1.214279010100160e+01	 2.928575120249185e+01	 9.929424431949695e+00
0	 1.214279010100160e+01	 3.000004755570248e+01	 9.999192263783948e+00
0	 1.214279010100160e+01	 3.071434524225148e+01	 1.006378576463253e+01
0	 1.214279010100160e+01	 3.142864409547143e+01	 1.012069256971001e+01
0	 1.214279010100160e+01	 3.214294394869492e+01	 1.016740028908466e+01
0	 1.214279010100160e+01	 3.285724463525450e+01	 1.020139650767896e+01
0	 1.214279010100160e+01	 3.357154598848280e+01	 1.022016878527000e+01
0	 1.214279010100160e+01	 3.428584784171235e+01	 1.022120465648967e+01
0	 1.214279010100160e+01	 3.500015002827575e+01	 1.020199163082498e+01
0	 1.214279010100160e+01	 3.571445238150555e+01	 1.016001719261816e+01
0	 1.285704274571142e+01	 2.857145634928703e+01	 9.928089340631955e+00
0	 1.285704274571142e+01	 2.928575120249185e+01	 9.957340940755591e+00
0	 1.285704274571142e+01	 3.000004755570248e+01	 9.992819841242774e+00
0	 1.285704274571142e+01	 3.071434524225148e+01	 1.003138648670097e+01
0	 1.285704274571143e+01	 3.142864409547143e+01	 1.006990130427156e+01
0	 1.285704274571143e+01	 3.214294394869491e+01	 1.010522470363009e+01
0	 1.285704274571142e+01	 3.285724463525451e+01	 1.013421707698667e+01
0	 1.285704274571143e+01	 3.357154598848281e+01	 1.015373879908624e+01
0	 1.285704274571143e+01	 3.428584784171235e+01	 1.016065022720872e+01
0	 1.285704274571142e+01	 3.500015002827575e+01	 1.015181170116915e+01
0	 1.285704274571142e+01	 3.571445238150555e+01	 1.012408354331778e+01
0	 1.357129522376639e+01	 2.857145634928703e+01	 9.992034899049608e+00
0	 1.357129522376640e+01	 2.928575120249185e+01	 9.984367473982010e+00
0	 1.357129522376640e+01	 3.000004755570248e+01	 9.989959864659774e+00
0	 1.357129522376639e+01	 3.071434524225147e+01	 1.000529078439081e+01
0	 1.357129522376640e+01	 3.142864409547143e+01	 1.002683893617862e+01
0	 1.357129522376640e+01	 3.214294394869492e+01	 1.005108301272248e+01
0	 1.357129522376640e+01	 3.285724463525452e+01	 1.007450169641761e+01
0	 1.357129522376640e+01	 3.357154598848280e+01	 1.009357365935539e+01
0	 1.357129522376640e+01	 3.428584784171235e+01	 1.010477756332334e+01
0	 1.357129522376639e+01	 3.500015002827574e+01	 1.010459205980531e+01
0	 1.357129522376639e+01	 3.571445238150555e+01	 1.008949578998144e+01
0	 1.428554761849444e+01	 2.857145634928703e+01	 1.003839264236187e+01
0	 1.428554761849444e+01	 2.928575120249186e+01	 1.000436883183932e+01
0	 1.428554761849444e+01	 3.000004755570247e+01	 9.988142008001066e+00
0	 1.428554761849444e+01	 3.071434524225147e+01	 9.986054643937036e+00
0	 1.428554761849444e+01	 3.142864409547143e+01	 9.994449208181464e+00
0	 1.428554761849444e+01	 3.214294394869491e+01	 1.000966816471298e+01
0	 1.428554761849444e+01	 3.285724463525450e+01	 1.002805397295470e+01
0	 1.428554761849444e+01	 3.357154598848280e+01	 1.004594908777425e+01
0	 1.428554761849444e+01	 3.428584784171235e+01	 1.005969595948380e+01
0	 1.428554761849444e+01	 3.500015002827575e+01	 1.006563703384011e+01
0	 1.428554761849444e+01	 3.571445238150556e+01	 1.006011475204445e+01
0	 7.143009922150928e+00	 3.571445238150556e+01	 1.012492939177886e+01
0	 7.143009922150929e+00	 3.642870477623360e+01	 1.007779585194018e+01
0	 7.143009922150926e+00	 3.714295725428856e+01	 1.005205899442214e+01
0	 7.143009922150927e+00	 3.785720989899839e+01	 1.004319618983091e+01
0	 7.143009922150927e+00	 3.857146279369102e+01	 1.004668481066387e+01
0	 7.143009922150926e+00	 3.928571602169433e+01	 1.005800223130957e+01
0	 7.143009922150926e+00	 3.999996966633628e+01	 1.007262582804777e+01
0	 7.143009922150926e+00	 4.071422381094481e+01	 1.008603297904937e+01
0	 7.143009922150927e+00	 4.142847853884783e+01	 1.009370106437644e+01
0	 7.143009922150926e+00	 4.214273393337328e+01	 1.009110746598215e+01
0	 7.143009922150927e+00	 4.285699007784908e+01	 1.007372956771077e+01
0	 7.857266066626717e+00	 3.571445238150555e+01	 1.018767725506697e+01
0	 7.857266066626719e+00	 3.642870477623360e+01	 1.011728616272030e+01
0	 7.857266066626718e+00	 3.714295725428857e+01	 1.006857105599568e+01
0	 7.857266066626720e+00	 3.785720989899840e+01	 1.003811099374801e+01
0	 7.857266066626719e+00	 3.857146279369100e+01	 1.002248503218733e+01
0	 7.857266066626721e+00	 3.928571602169433e+01	 1.001827222487877e+01
0	 7.857266066626718e+00	 3.999996966633628e+01	 1.002205162274264e+01
0	 7.857266066626718e+00	 4.071422381094482e+01	 1.003040227405434e+01
0	 7.857266066626720e+00	 4.142847853884783e+01	 1.003990322444441e+01
0	 7.857266066626718e+00	 4.214273393337327e+01	 1.004713351689852e+01
0	 7.857266066626720e+00	 4.285699007784908e+01	 1.004867219175754e+01
0	 8.571521461152161e+00	 3.571445238150555e+01	 1.022474533155563e+01
0	 8.571521461152161e+00	 3.642870477623359e+01	 1.014133517111823e+01
0	 8.571521461152162e+00	 3.714295725428857e+01	 1.007856899860325e+01
0	 8.571521461152161e+00	 3.785720989899839e+01	 1.003402422882474e+01
0	 8.571521461152164e+00	 3.857146279369102e+01	 1.000527827076743e+01
0	 8.571521461152162e+00	 3.928571602169433e+01	 9.989908527586930e+00
0	 8.571521461152161e+00	 3.999996966633627e+01	 9.985492396609564e+00
0	 8.571521461152162e+00	 4.071422381094482e+01	 9.989607269332485e+00
0	 8.571521461152162e+00	 4.142847853884781e+01	 9.999830531423651e+00
0	 8.571521461152162e+00	 4.214273393337329e+01	 1.001373956272192e+01
0	 8.571521461152164e+00	 4.285699007784906e+01	 1.002891173723702e+01
0	 9.285776189055182e+00	 3.571445238150556e+01	 1.023999442735940e+01
0	 9.285776189055184e+00	 3.642870477623359e+01	 1.015217175924957e+01
0	 9.285776189055184e+00	 3.714295725428858e+01	 1.008291125562167e+01
0	 9.285776189055184e+00	 3.785720989899840e+01	 1.003068535464474e+01
0	 9.285776189055182e+00	 3.857146279369099e+01	 9.993966486642982e+00
0	 9.285776189055186e+00	 3.928571602169433e+01	 9.971227074095658e+00
0	 9.285776189055181e+00	 3.999996966633628e+01	 9.960939531637210e+00
0	 9.285776189055181e+00	 4.071422381094482e+01	 9.961576266057197e+00
0	 9.285776189055184e+00	 4.142847853884782e+01	 9.971609676300410e+00
0	 9.285776189055184e+00	 4.214273393337329e+01	 9.989512153466897e+00
0	 9.285776189055184e+00	 4.285699007784908e+01	 1.001375608081204e+01
0	 1.000003033366371e+01	 3.571445238150557e+01	 1.023728535049570e+01
0	 1.000003033366371e+01	 3.642870477623359e+01	 1.015202481192670e+01
0	 1.000003033366371e+01	 3.714295725428858e+01	 1.008245626348455e+01
0	 1.000003033366371e+01	 3.785720989899840e+01	 1.002784383384717e+01
0	 1.000003033366371e+01	 3.857146279369099e+01	 9.987451642817623e+00
0	 1.000003033366371e+01	 3.928571602169432e+01	 9.960543801324054e+00
0	 1.000003033366371e+01	 3.999996966633628e+01	 9.946384411419807e+00
0	 1.000003033366371e+01	 4.071422381094481e+01	 9.944237566283373e+00
0	 1.000003033366371e+01	 4.142847853884783e+01	 9.953367350218477e+00
0	 1.000003033366371e+01	 4.214273393337327e+01	 9.973037838654168e+00
0	 1.000003033366371e+01	 4.285699007784907e+01	 1.000251309814487e+01
0	 1.071428397830567e+01	 3.571445238150556e+01	 1.022047891088489e+01
0	 1.071428397830567e+01	 3.642870477623359e+01	 1.014312321665881e+01
0	 1.071428397830567e+01	 3.714295725428858e+01	 1.007806246168246e+01
0	 1.071428397830567e+01	 3.785720989899841e+01	 1.002524913212662e+01
0	 1.071428397830567e+01	 3.857146279369099e+01	 9.984635705059915e+00
0	 1.071428397830567e+01	 3.928571602169433e+01	 9.956174648448718e+00
0	 1.071428397830567e+01	 3.999996966633628e+01	 9.939818421157202e+00
0	 1.071428397830567e+01	 4.071422381094482e+01	 9.935519472947394e+00
0	 1.071428397830567e+01	 4.142847853884785e+01	 9.943230244479208e+00
0	 1.071428397830567e+01	 4.214273393337328e+01	 9.962903167310515e+00
0	 1.071428397830567e+01	 4.285699007784907e+01	 9.994490663897265e+00
0	 1.142853720630899e+01	 3.571445238150555e+01	 1.019343592035028e+01
0	 1.142853720630899e+01	 3.642870477623361e+01	 1.012769586365199e+01
0	 1.142853720630899e+01	 3.714295725428857e+01	 1.007058829276287e+01
0	 1.142853720630899e+01	 3.785720989899840e+01	 1.002265071823321e+01
0	 1.142853720630899e+01	 3.857146279369100e+01	 9.984420641903377e+00
0	 1.142853720630899e+01	 3.928571602169433e+01	 9.956435556903774e+00
0	 1.142853720630899e+01	 3.999996966633628e+01	 9.939232947654844e+00
0	 1.142853720630899e+01	 4.071422381094479e+01	 9.933350289867189e+00
0	 1.142853720630899e+01	 4.142847853884783e+01	 9.939325050541527e+00
0	 1.142853720630899e+01	 4.214273393337327e+01	 9.957694687968837e+00
0	 1.142853720630899e+01	 4.285699007784908e+01	 9.988996651730398e+00
0	 1.214279010100160e+01	 3.571445238150555e+01	 1.016001719261816e+01
0	 1.214279010100160e+01	 3.642870477623360e+01	 1.010797164580918e+01
0	 1.214279010100160e+01	 3.714295725428856e+01	 1.006089220233025e+01
0	 1.214279010100160e+01	 3.785720989899840e+01	 1.001979806397265e+01
0	 1.214279010100160e+01	 3.857146279369100e+01	 9.985708424646516e+00
0	 1.214279010100160e+01	 3.928571602169431e+01	 9.959642470380899e+00
0	 1.214279010100160e+01	 3.999996966633629e+01	 9.942619379323808e+00
0	 1.214279010100160e+01	 4.071422381094482e+01	 9.935658321742164e+00
0	 1.214279010100160e+01	 4.142847853884783e+01	 9.939778460021921e+00
0	 1.214279010100160e+01	 4.214273393337327e+01	 9.955998948668107e+00
0	 1.214279010100160e+01	 4.285699007784908e+01	 9.985338934304899e+00
0	 1.285704274571142e+01	 3.571445238150555e+01	 1.012408354331778e+01
0	 1.285704274571143e+01	 3.642870477623360e+01	 1.008617945873024e+01
0	 1.285704274571142e+01	 3.714295725428856e+01	 1.004983263904609e+01
0	 1.285704274571142e+01	 3.785720989899839e+01	 1.001644064420621e+01
0	 1.285704274571142e+01	 3.857146279369100e+01	 9.987401027352810e+00
0	 1.285704274571142e+01	 3.928571602169433e+01	 9.964111334829386e+00
0	 1.285704274571142e+01	 3.999996966633628e+01	 9.947969106180810e+00
0	 1.285704274571142e+01	 4.071422381094481e+01	 9.940371874153293e+00
0	 1.285704274571142e+01	 4.142847853884783e+01	 9.942717164694457e+00
0	 1.285704274571142e+01	 4.214273393337328e+01	 9.956402496953395e+00
0	 1.285704274571142e+01	 4.285699007784907e+01	 9.982825383280789e+00
0	 1.357129522376639e+01	 3.571445238150555e+01	 1.008949578998144e+01
0	 1.357129522376639e+01	 3.642870477623359e+01	 1.006454820071198e+01
0	 1.357129522376639e+01	 3.714295725428857e+01	 1.003826805462884e+01
0	 1.357129522376640e+01	 3.785720989899841e+01	 1.001232793685079e+01
0	 1.357129522376639e+01	 3.857146279369101e+01	 9.988400426850786e+00
0	 1.357129522376639e+01	 3.928571602169433e+01	 9.968158098456101e+00
0	 1.357129522376639e+01	 3.999996966633628e+01	 9.953273519848247e+00
0	 1.357129522376639e+01	 4.071422381094480e+01	 9.945419253563067e+00
0	 1.357129522376640e+01	 4.142847853884783e+01	 9.946267856490751e+00
0	 1.357129522376640e+01	 4.214273393337328e+01	 9.957491879875885e+00
0	 1.357129522376640e+01	 4.285699007784908e+01	 9.980763869317533e+00
0	 1.428554761849444e+01	 3.571445238150556e+01	 1.006011475204445e+01
0	 1.428554761849444e+01	 3.642870477623360e+01	 1.004530677274814e+01
0	 1.428554761849444e+01	 3.714295725428857e+01	 1.002705690385408e+01
0	 1.428554761849445e+01	 3.785720989899840e+01	 1.000720942287892e+01
0	 1.428554761849444e+01	 3.857146279369100e+01	 9.987608602734024e+00
0	 1.428554761849444e+01	 3.928571602169433e+01	 9.970098711725493e+00
0	 1.428554761849444e+01	 3.999996966633629e+01	 9.956524013554137e+00
0	 1.428554761849444e+01	 4.071422381094481e+01	 9.948728767315528e+00
0	 1.428554761849444e+01	 4.142847853884783e+01	 9.948557227500013e+00
0	 1.428554761849444e+01	 4.214273393337327e+01	 9.957853643992809e+00
0	 1.428554761849445e+01	 4.285699007784908e+01	 9.978462262073982e+00
0	 7.143009922150927e+00	 4.285699007784908e+01	 1.007372956771077e+01
0	 7.143009922150927e+00	 4.357129694500738e+01	 1.004560205487811e+01
0	 7.143009922150926e+00	 4.428560406221391e+01	 1.001592432524669e+01
0	 7.143009922150925e+00	 4.499991084612201e+01	 9.987915357685644e+00
0	 7.143009922150927e+00	 4.571421671338501e+01	 9.964794189071432e+00
0	 7.143009922150927e+00	 4.642852108065613e+01	 9.949779914288250e+00
0	 7.143009922150925e+00	 4.714282336458874e+01	 9.946091686229146e+00
0	 7.143009922150926e+00	 4.785712298183612e+01	 9.956948715797903e+00
0	 7.143009922150928e+00	 4.857141934905161e+01	 9.985570271911556e+00
0	 7.143009922150927e+00	 4.928571188288848e+01	 1.003517568150367e+01
0	 7.143009922150927e+00	 5.000000000000001e+01	 1.010898432952832e+01
0	 7.857266066626720e+00	 4.285699007784908e+01	 1.004867219175755e+01
0	 7.857266066626719e+00	 4.357129694500738e+01	 1.004242210767314e+01
0	 7.857266066626719e+00	 4.428560406221392e+01	 1.003029067642123e+01
0	 7.857266066626719e+00	 4.499991084612203e+01	 1.001486326832019e+01
0	 7.857266066626721e+00	 4.571421671338501e+01	 9.998725275376190e+00
0	 7.857266066626720e+00	 4.642852108065613e+01	 9.984462111283619e+00
0	 7.857266066626719e+00	 4.714282336458874e+01	 9.974659211425596e+00
0	 7.857266066626720e+00	 4.785712298183614e+01	 9.971902032874869e+00
0	 7.857266066626717e+00	 4.857141934905159e+01	 9.978776054394787e+00
0	 7.857266066626719e+00	 4.928571188288846e+01	 9.997866776440874e+00
0	 7.857266066626719e+00	 5.000000000000001e+01	 1.003175972116229e+01
0	 8.571521461152164e+00	 4.285699007784906e+01	 1.002891173723703e+01
0	 8.571521461152164e+00	 4.357129694500738e+01	 1.003888210159556e+01
0	 8.571521461152162e+00	 4.428560406221392e+01	 1.004012552208474e+01
0	 8.571521461152161e+00	 4.499991084612203e+01	 1.003463224267758e+01
0	 8.571521461152164e+00	 4.571421671338500e+01	 1.002439250132614e+01
0	 8.571521461152164e+00	 4.642852108065613e+01	 1.001139652996177e+01
0	 8.571521461152164e+00	 4.714282336458874e+01	 9.997634554495146e+00
0	 8.571521461152164e+00	 4.785712298183612e+01	 9.985096794816513e+00
0	 8.571521461152164e+00	 4.857141934905161e+01	 9.975773464795484e+00
0	 8.571521461152166e+00	 4.928571188288846e+01	 9.971654772281134e+00
0	 8.571521461152161e+00	 5.000000000000001e+01	 9.974730919101725e+00
0	 9.285776189055184e+00	 4.285699007784908e+01	 1.001375608081204e+01
0	 9.285776189055184e+00	 4.357129694500739e+01	 1.003503647500014e+01
0	 9.285776189055184e+00	 4.428560406221393e+01	 1.004601874819456e+01
0	 9.285776189055181e+00	 4.499991084612202e+01	 1.004813650182627e+01
0	 9.285776189055184e+00	 4.571421671338499e+01	 1.004282331117262e+01
0	 9.285776189055186e+00	 4.642852108065615e+01	 1.003151272535749e+01
0	 9.285776189055184e+00	 4.714282336458876e+01	 1.001563826735111e+01
0	 9.285776189055182e+00	 4.785712298183613e+01	 9.996633433969670e+00
0	 9.285776189055182e+00	 4.857141934905159e+01	 9.975931695874353e+00
0	 9.285776189055181e+00	 4.928571188288846e+01	 9.954966497570267e+00
0	 9.285776189055182e+00	 5.000000000000000e+01	 9.935171257405070e+00
0	 1.000003033366371e+01	 4.285699007784907e+01	 1.000251309814487e+01
0	 1.000003033366371e+01	 4.357129694500738e+01	 1.003093966493498e+01
0	 1.000003033366371e+01	 4.428560406221392e+01	 1.004856023928560e+01
0	 1.000003033366371e+01	 4.499991084612203e+01	 1.005629026545968e+01
0	 1.000003033366371e+01	 4.571421671338500e+01	 1.005504514797560e+01
0	 1.000003033366371e+01	 4.642852108065613e+01	 1.004574025160741e+01
0	 1.000003033366371e+01	 4.714282336458874e+01	 1.002929090138427e+01
0	 1.000003033366371e+01	 4.785712298183614e+01	 1.000661238258973e+01
0	 1.000003033366371e+01	 4.857141934905159e+01	 9.978619940760332e+00
0	 1.000003033366371e+01	 4.928571188288844e+01	 9.946228781683669e+00
0	 1.000003033366371e+01	 5.000000000000000e+01	 9.910354071396114e+00
0	 1.071428397830567e+01	 4.285699007784907e+01	 9.994490663897263e+00
0	 1.071428397830567e+01	 4.357129694500738e+01	 1.002664610714158e+01
0	 1.071428397830567e+01	 4.428560406221392e+01	 1.004833987847029e+01
0	 1.071428397830567e+01	 4.499991084612203e+01	 1.006000775189615e+01
0	 1.071428397830567e+01	 4.571421671338499e+01	 1.006208545360386e+01
0	 1.071428397830567e+01	 4.642852108065615e+01	 1.005500866195008e+01
0	 1.071428397830566e+01	 4.714282336458873e+01	 1.003921300746291e+01
0	 1.071428397830567e+01	 4.785712298183613e+01	 1.001513407284078e+01
0	 1.071428397830567e+01	 4.857141934905161e+01	 9.983207392950732e+00
0	 1.071428397830567e+01	 4.928571188288846e+01	 9.943868454826235e+00
0	 1.071428397830567e+01	 4.999999999999999e+01	 9.897552697664191e+00
0	 1.142853720630899e+01	 4.285699007784908e+01	 9.988996651730400e+00
0	 1.142853720630899e+01	 4.357129694500737e+01	 1.002221023605484e+01
0	 1.142853720630899e+01	 4.428560406221392e+01	 1.004594754743854e+01
0	 1.142853720630899e+01	 4.499991084612203e+01	 1.006020317807899e+01
0	 1.142853720630899e+01	 4.571421671338499e+01	 1.006497166873484e+01
0	 1.142853720630899e+01	 4.642852108065613e+01	 1.006024750872594e+01
0	 1.142853720630899e+01	 4.714282336458874e+01	 1.004602513593280e+01
0	 1.142853720630899e+01	 4.785712298183613e+01	 1.002229893679533e+01
0	 1.142853720630899e+01	 4.857141934905161e+01	 9.989063246311060e+00
0	 1.142853720630899e+01	 4.928571188288846e+01	 9.946312348032528e+00
0	 1.142853720630899e+01	 5.000000000000000e+01	 9.894040474064258e+00
0	 1.214279010100160e+01	 4.285699007784908e+01	 9.985338934304897e+00
0	 1.214279010100160e+01	 4.357129694500738e+01	 1.001768648480294e+01
0	 1.214279010100160e+01	 4.428560406221393e+01	 1.004197312645782e+01
0	 1.214279010100160e+01	 4.499991084612202e+01	 1.005779075957648e+01
0	 1.214279010100159e+01	 4.571421671338499e+01	 1.006473123285471e+01
0	 1.214279010100160e+01	 4.642852108065613e+01	 1.006238634337728e+01
0	 1.214279010100160e+01	 4.714282336458875e+01	 1.005034783661721e+01
0	 1.214279010100160e+01	 4.785712298183612e+01	 1.002820740643470e+01
0	 1.214279010100160e+01	 4.857141934905160e+01	 9.995556695075123e+00
0	 1.214279010100160e+01	 4.928571188288846e+01	 9.951987293166638e+00
0	 1.214279010100160e+01	 5.000000000000000e+01	 9.897090739716937e+00
0	 1.285704274571142e+01	 4.285699007784907e+01	 9.982825383280790e+00
0	 1.285704274571142e+01	 4.357129694500737e+01	 1.001312928520747e+01
0	 1.285704274571143e+01	 4.428560406221393e+01	 1.003700649437306e+01
0	 1.285704274571142e+01	 4.499991084612201e+01	 1.005368471058178e+01
0	 1.285704274571142e+01	 4.571421671338500e+01	 1.006239158425836e+01
0	 1.285704274571143e+01	 4.642852108065614e+01	 1.006235471644825e+01
0	 1.285704274571142e+01	 4.714282336458875e+01	 1.005280165881692e+01
0	 1.285704274571142e+01	 4.785712298183612e+01	 1.003295991364874e+01
0	 1.285704274571142e+01	 4.857141934905160e+01	 1.000205693384514e+01
0	 1.285704274571142e+01	 4.928571188288846e+01	 9.959320122922303e+00
0	 1.285704274571142e+01	 4.999999999999999e+01	 9.903976835008148e+00
0	 1.357129522376640e+01	 4.285699007784908e+01	 9.980763869317531e+00
0	 1.357129522376639e+01	 4.357129694500737e+01	 1.000859306778332e+01
0	 1.357129522376639e+01	 4.428560406221392e+01	 1.003163752860669e+01
0	 1.357129522376639e+01	 4.499991084612203e+01	 1.004879924391296e+01
0	 1.357129522376639e+01	 4.571421671338499e+01	 1.005898016004932e+01
0	 1.357129522376640e+01	 4.642852108065613e+01	 1.006108217758490e+01
0	 1.357129522376640e+01	 4.714282336458874e+01	 1.005400715131016e+01
0	 1.357129522376639e+01	 4.785712298183612e+01	 1.003665689023588e+01
0	 1.357129522376639e+01	 4.857141934905160e+01	 1.000793315759149e+01
0	 1.357129522376639e+01	 4.928571188288845e+01	 9.966737670822912e+00
0	 1.357129522376639e+01	 5.000000000000000e+01	 9.911972101589619e+00
0	 1.428554761849445e+01	 4.285699007784908e+01	 9.978462262073982e+00
0	 1.428554761849444e+01	 4.357129694500737e+01	 1.000413226173872e+01
0	 1.428554761849444e+01	 4.428560406221393e+01	 1.002645610515859e+01
0	 1.428554761849444e+01	 4.499991084612204e+01	 1.004404857101305e+01
0	 1.428554761849444e+01	 4.571421671338500e+01	 1.005552439613987e+01
0	 1.428554761849444e+01	 4.642852108065614e+01	 1.005949827553511e+01
0	 1.428554761849445e+01	 4.714282336458874e+01	 1.005458486235264e+01
0	 1.428554761849444e+01	 4.785712298183613e+01	 1.003939876790325e+01
0	 1.428554761849444e+01	 4.857141934905160e+01	 1.001255456165298e+01
0	 1.428554761849445e+01	 4.928571188288846e+01	 9.972666771221345e+00
0	 1.428554761849444e+01	 5.000000000000000e+01	 9.918349882378571e+00
0	 1.428554761849444e+01	 0.000000000000000e+00	 4.202844626579923e+01
0	 1.428554761849444e+01	 7.142881171115513e-01	 3.056272504515460e+01
0	 1.428554761849444e+01	 1.428580650948410e+00	 2.090656266374573e+01
0	 1.428554761849444e+01	 2.142877018163878e+00	 1.299493378625641e+01
0	 1.428554761849445e+01	 2.857176635411265e+00	 6.762820262678657e+00
0	 1.428554761849444e+01	 3.571478919343873e+00	 2.145211127789595e+00
0	 1.428554761849444e+01	 4.285783286615009e+00	-9.228973992834790e-01
0	 1.428554761849444e+01	 5.000089153877974e+00	-2.506501915410182e+00
0	 1.428554761849444e+01	 5.714395937786081e+00	-2.670591833715998e+00
0	 1.428554761849444e+01	 6.428703054992629e+00	-1.480149383753292e+00
0	 1.428554761849444e+01	 7.143009922150925e+00	 9.998503884156886e-01
0	 1.499984997172426e+01	 0.000000000000000e+00	 4.571320025933237e+01
0	 1.499984997172426e+01	 7.142881171115516e-01	 3.362716360519578e+01
0	 1.499984997172426e+01	 1.428580650948409e+00	 2.330088464470500e+01
0	 1.499984997172426e+01	 2.142877018163878e+00	 1.470102129353284e+01
0	 1.499984997172427e+01	 2.857176635411265e+00	 7.794239523786990e+00
0	 1.499984997172426e+01	 3.571478919343873e+00	 2.547213363424024e+00
0	 1.499984997172426e+01	 4.285783286615008e+00	-1.073375104238107e+00
0	 1.499984997172426e+01	 5.000089153877974e+00	-3.100835740908805e+00
0	 1.499984997172426e+01	 5.714395937786080e+00	-3.568470353614905e+00
0	 1.499984997172426e+01	 6.428703054992627e+00	-2.509572694892070e+00
0	 1.499984997172427e+01	 7.143009922150928e+00	 4.257153712246892e-02
0	 1.571415215828766e+01	 0.000000000000000e+00	 4.557989097911845e+01
0	 1.571415215828766e+01	 7.142881171115513e-01	 3.397731878086000e+01
0	 1.571415215828766e+01	 1.428580650948409e+00	 2.395943759309008e+01
0	 1.571415215828766e+01	 2.142877018163879e+00	 1.551944252012733e+01
0	 1.571415215828766e+01	 2.857176635411264e+00	 8.650536785643730e+00
0	 1.571415215828766e+01	 3.571478919343873e+00	 3.345931732073878e+00
0	 1.571415215828766e+01	 4.285783286615008e+00	-4.011531798762225e-01
0	 1.571415215828766e+01	 5.000089153877976e+00	-2.597490371621049e+00
0	 1.571415215828766e+01	 5.714395937786080e+00	-3.249844146987932e+00
0	 1.571415215828766e+01	 6.428703054992629e+00	-2.364970692409970e+00
0	 1.571415215828766e+01	 7.143009922150927e+00	 5.038192298047406e-02
0	 1.642845401151722e+01	 0.000000000000000e+00	 4.236312213361713e+01
0	 1.642845401151721e+01	 7.142881171115510e-01	 3.212149590703378e+01
0	 1.642845401151721e+01	 1.428580650948410e+00	 2.319414665987571e+01
0	 1.642845401151721e+01	 2.142877018163879e+00	 1.559565963646487e+01
0	 1.642845401151722e+01	 2.857176635411265e+00	 9.340627601803046e+00
0	 1.642845401151721e+01	 3.571478919343872e+00	 4.443650841024345e+00
0	 1.642845401151721e+01	 4.285783286615008e+00	 9.193371589398549e-01
0	 1.642845401151721e+01	 5.000089153877974e+00	-1.217698120325637e+00
0	 1.642845401151721e+01	 5.714395937786080e+00	-1.952832153604749e+00
0	 1.642845401151722e+01	 6.428703054992629e+00	-1.271434578866508e+00
0	 1.642845401151721e+01	 7.143009922150928e+00	 8.411324846967340e-01
0	 1.714275536474550e+01	 0.000000000000000e+00	 3.679749779456110e+01
0	 1.714275536474550e+01	 7.142881171115513e-01	 2.856800047792841e+01
0	 1.714275536474550e+01	 1.428580650948410e+00	 2.131693700693013e+01
0	 1.714275536474550e+01	 2.142877018163879e+00	 1.507513472373791e+01
0	 1.714275536474550e+01	 2.857176635411265e+00	 9.873427377553813e+00
0	 1.714275536474549e+01	 3.571478919343872e+00	 5.742655124143607e+00
0	 1.714275536474550e+01	 4.285783286615008e+00	 2.713664525448169e+00
0	 1.714275536474550e+01	 5.000089153877976e+00	 8.173085492734931e-01
0	 1.714275536474550e+01	 5.714395937786080e+00	 8.444656905916703e-02
0	 1.714275536474550e+01	 6.428703054992629e+00	 5.459443637253365e-01
0	 1.714275536474550e+01	 7.143009922150927e+00	 2.232674117598110e+00
0	 1.785705605130510e+01	 0.000000000000000e+00	 2.961762239695793e+01
0	 1.785705605130510e+01	 7.142881171115514e-01	 2.382513814708083e+01
0	 1.785705605130510e+01	 1.428580650948410e+00	 1.863973380701581e+01
0	 1.785705605130510e+01	 2.142877018163878e+00	 1.410332977390677e+01
0	 1.785705605130510e+01	 2.857176635411265e+00	 1.025785136991967e+01
0	 1.785705605130510e+01	 3.571478919343873e+00	 7.145228841882720e+00
0	 1.785705605130509e+01	 4.285783286615009e+00	 4.807397360986871e+00
0	 1.785705605130509e+01	 5.000089153877974e+00	 3.286297022546822e+00
0	 1.785705605130509e+01	 5.714395937786081e+00	 2.623872845822104e+00
0	 1.785705605130510e+01	 6.428703054992631e+00	 2.862074773898696e+00
0	 1.785705605130510e+01	 7.143009922150926e+00	 4.042857673630827e+00
0	 1.857135590452858e+01	 0.000000000000000e+00	 2.155810073909259e+01
0	 1.857135590452859e+01	 7.142881171115513e-01	 1.840121472735552e+01
0	 1.857135590452859e+01	 1.428580650948409e+00	 1.547446224378998e+01
0	 1.857135590452858e+01	 2.142877018163879e+00	 1.282570668969966e+01
0	 1.857135590452859e+01	 2.857176635411265e+00	 1.050281468765860e+01
0	 1.857135590452858e+01	 3.571478919343873e+00	 8.553656081274838e+00
0	 1.857135590452859e+01	 4.285783286615008e+00	 7.026103934993350e+00
0	 1.857135590452858e+01	 5.000089153877976e+00	 5.968034533938359e+00
0	 1.857135590452859e+01	 5.714395937786082e+00	 5.427327383795302e+00
0	 1.857135590452858e+01	 6.428703054992628e+00	 5.451865210732093e+00
0	 1.857135590452858e+01	 7.143009922150925e+00	 6.089533961359912e+00
0	 1.928565475774854e+01	 0.000000000000000e+00	 1.335353798253151e+01
0	 1.928565475774854e+01	 7.142881171115513e-01	 1.280453619094623e+01
0	 1.928565475774854e+01	 1.428580650948409e+00	 1.213304751180551e+01
0	 1.928565475774854e+01	 2.142877018163878e+00	 1.138772728461229e+01
0	 1.928565475774854e+01	 2.857176635411265e+00	 1.061723229126187e+01
0	 1.928565475774854e+01	 3.571478919343872e+00	 9.870220755933984e+00
0	 1.928565475774854e+01	 4.285783286615009e+00	 9.195352345002769e+00
0	 1.928565475774854e+01	 5.000089153877976e+00	 8.641288166964268e+00
0	 1.928565475774854e+01	 5.714395937786080e+00	 8.256690772381749e+00
0	 1.928565475774854e+01	 6.428703054992630e+00	 8.090224153848506e+00
0	 1.928565475774854e+01	 7.143009922150928e+00	 8.190553745968515e+00
0	 1.999995244429753e+01	 0.000000000000000e+00	 5.738539652127965e+00
0	 1.999995244429753e+01	 7.142881171115514e-01	 7.543408669379074e+00
0	 1.999995244429754e+01	 1.428580650948409e+00	 8.927414816511458e+00
0	 1.999995244429753e+01	 2.142877018163878e+00	 9.934853282907339e+00
0	 1.999995244429753e+01	 2.857176635411265e+00	 1.061001899295268e+01
0	 1.999995244429753e+01	 3.571478919343873e+00	 1.099720660605300e+01
0	 1.999995244429753e+01	 4.285783286615008e+00	 1.114071051664601e+01
0	 1.999995244429754e+01	 5.000089153877976e+00	 1.108482485421091e+01
0	 1.999995244429753e+01	 5.714395937786080e+00	 1.087384348327451e+01
0	 1.999995244429753e+01	 6.428703054992630e+00	 1.055206000341410e+01
0	 1.999995244429753e+01	 7.143009922150927e+00	 1.016376774925699e+01
0	 2.071424879750816e+01	 0.000000000000000e+00	-5.522883639713116e-01
0	 2.071424879750816e+01	 7.142881171115513e-01	 3.126138453515501e+00
0	 2.071424879750816e+01	 1.428580650948410e+00	 6.169489374254068e+00
0	 2.071424879750816e+01	 2.142877018163879e+00	 8.612546319613458e+00
0	 2.071424879750816e+01	 2.857176635411265e+00	 1.049008945668401e+01
0	 2.071424879750816e+01	 3.571478919343873e+00	 1.183689719840103e+01
0	 2.071424879750815e+01	 4.285783286615008e+00	 1.268774620364700e+01
0	 2.071424879750815e+01	 5.000089153877976e+00	 1.307741137733235e+01
0	 2.071424879750815e+01	 5.714395937786080e+00	 1.304066587045472e+01
0	 2.071424879750815e+01	 6.428703054992628e+00	 1.261228108013663e+01
0	 2.071424879750816e+01	 7.143009922150927e+00	 1.182702664964189e+01
0	 2.142854365071296e+01	 0.000000000000000e+00	-4.784339814318334e+00
0	 2.142854365071296e+01	 7.142881171115512e-01	 6.103199355632505e-02
0	 2.142854365071297e+01	 1.428580650948409e+00	 4.171196412277475e+00
0	 2.142854365071296e+01	 2.142877018163878e+00	 7.566267940524078e+00
0	 2.142854365071296e+01	 2.857176635411264e+00	 1.026635819813623e+01
0	 2.142854365071296e+01	 3.571478919343873e+00	 1.229157592632039e+01
0	 2.142854365071296e+01	 4.285783286615009e+00	 1.366202698781946e+01
0	 2.142854365071296e+01	 5.000089153877975e+00	 1.439781436704746e+01
0	 2.142854365071296e+01	 5.714395937786081e+00	 1.451903817018907e+01
0	 2.142854365071296e+01	 6.428703054992630e+00	 1.404579562526375e+01
0	 2.142854365071297e+01	 7.143009922150927e+00	 1.299818108215478e+01
0	 1.428554761849444e+01	 7.143009922150925e+00	 9.998503884156884e-01
0	 1.428554761849444e+01	 7.857266066626719e+00	 3.832915191613474e+00
0	 1.428554761849444e+01	 8.571521461152162e+00	 6.149499884741043e+00
0	 1.428554761849444e+01	 9.285776189055181e+00	 7.984404054576637e+00
0	 1.428554761849444e+01	 1.000003033366371e+01	 9.372427504798383e+00
0	 1.428554761849444e+01	 1.071428397830567e+01	 1.034837025598692e+01
0	 1.428554761849444e+01	 1.142853720630899e+01	 1.094703254562771e+01
0	 1.428554761849444e+01	 1.214279010100160e+01	 1.120321482811296e+01
0	 1.428554761849444e+01	 1.285704274571142e+01	 1.115171777474310e+01
0	 1.428554761849444e+01	 1.357129522376639e+01	 1.082734227372799e+01
0	 1.428554761849444e+01	 1.428554761849444e+01	 1.026488943018763e+01
0	 1.499984997172427e+01	 7.143009922150928e+00	 4.257153712246897e-02
0	 1.499984997172426e+01	 7.857266066626720e+00	 3.064414650033648e+00
0	 1.499984997172426e+01	 8.571521461152161e+00	 5.573264109368023e+00
0	 1.499984997172426e+01	 9.285776189055182e+00	 7.596432784036681e+00
0	 1.499984997172427e+01	 1.000003033366371e+01	 9.161233792511256e+00
0	 1.499984997172426e+01	 1.071428397830567e+01	 1.029498050282697e+01
0	 1.499984997172426e+01	 1.142853720630899e+01	 1.102498653258524e+01
0	 1.499984997172426e+01	 1.214279010100160e+01	 1.137856574895584e+01
0	 1.499984997172426e+01	 1.285704274571142e+01	 1.138303226867865e+01
0	 1.499984997172426e+01	 1.357129522376639e+01	 1.106570045806494e+01
0	 1.499984997172427e+01	 1.428554761849445e+01	 1.045388493299822e+01
0	 1.571415215828766e+01	 7.143009922150927e+00	 5.038192298047406e-02
0	 1.571415215828766e+01	 7.857266066626718e+00	 2.984188100795695e+00
0	 1.571415215828766e+01	 8.571521461152162e+00	 5.443099906717877e+00
0	 1.571415215828766e+01	 9.285776189055182e+00	 7.447724606996641e+00
0	 1.571415215828766e+01	 1.000003033366371e+01	 9.018669721726672e+00
0	 1.571415215828766e+01	 1.071428397830567e+01	 1.017654302485080e+01
0	 1.571415215828766e+01	 1.142853720630899e+01	 1.094195254416262e+01
0	 1.571415215828766e+01	 1.214279010100160e+01	 1.133550656130875e+01
0	 1.571415215828766e+01	 1.285704274571142e+01	 1.137781361179047e+01
0	 1.571415215828766e+01	 1.357129522376639e+01	 1.108948248496515e+01
0	 1.571415215828766e+01	 1.428554761849444e+01	 1.049112222404701e+01
0	 1.642845401151721e+01	 7.143009922150928e+00	 8.411324846967340e-01
0	 1.642845401151721e+01	 7.857266066626720e+00	 3.464299357687866e+00
0	 1.642845401151721e+01	 8.571521461152161e+00	 5.677919004427869e+00
0	 1.642845401151722e+01	 9.285776189055184e+00	 7.496674161529928e+00
0	 1.642845401151722e+01	 1.000003033366371e+01	 8.935247800515905e+00
0	 1.642845401151721e+01	 1.071428397830567e+01	 1.000832312781921e+01
0	 1.642845401151722e+01	 1.142853720630899e+01	 1.073058358478721e+01
0	 1.642845401151721e+01	 1.214279010100160e+01	 1.111671284768325e+01
0	 1.642845401151722e+01	 1.285704274571142e+01	 1.118139482768828e+01
0	 1.642845401151722e+01	 1.357129522376639e+01	 1.093931367090210e+01
0	 1.642845401151721e+01	 1.428554761849444e+01	 1.040515375834403e+01
0	 1.714275536474550e+01	 7.143009922150927e+00	 2.232674117598110e+00
0	 1.714275536474550e+01	 7.857266066626718e+00	 4.376812219182961e+00
0	 1.714275536474550e+01	 8.571521461152161e+00	 6.196633134587945e+00
0	 1.714275536474550e+01	 9.285776189055184e+00	 7.701676102727416e+00
0	 1.714275536474550e+01	 1.000003033366371e+01	 8.901480560422401e+00
0	 1.714275536474550e+01	 1.071428397830567e+01	 9.805586142403007e+00
0	 1.714275536474550e+01	 1.142853720630899e+01	 1.042353268131045e+01
0	 1.714275536474550e+01	 1.214279010100160e+01	 1.076486020769882e+01
0	 1.714275536474550e+01	 1.285704274571143e+01	 1.083910895003634e+01
0	 1.714275536474550e+01	 1.357129522376640e+01	 1.065581933470649e+01
0	 1.714275536474550e+01	 1.428554761849444e+01	 1.022453198600858e+01
0	 1.785705605130510e+01	 7.143009922150926e+00	 4.042857673630827e+00
0	 1.785705605130510e+01	 7.857266066626718e+00	 5.593790468437905e+00
0	 1.785705605130510e+01	 8.571521461152162e+00	 6.918154033740379e+00
0	 1.785705605130510e+01	 9.285776189055186e+00	 8.021125102697173e+00
0	 1.785705605130510e+01	 1.000003033366371e+01	 8.907880556461517e+00
0	 1.785705605130509e+01	 1.071428397830567e+01	 9.583597424182763e+00
0	 1.785705605130510e+01	 1.142853720630899e+01	 1.005345288300790e+01
0	 1.785705605130509e+01	 1.214279010100160e+01	 1.032262425808284e+01
0	 1.785705605130510e+01	 1.285704274571142e+01	 1.039628902255345e+01
0	 1.785705605130510e+01	 1.357129522376639e+01	 1.027962479756630e+01
0	 1.785705605130510e+01	 1.428554761849444e+01	 9.977809352269187e+00
0	 1.857135590452858e+01	 7.143009922150925e+00	 6.089533961359913e+00
0	 1.857135590452858e+01	 7.857266066626718e+00	 6.987297873293296e+00
0	 1.857135590452858e+01	 8.571521461152162e+00	 7.761393442879396e+00
0	 1.857135590452858e+01	 9.285776189055182e+00	 8.413415850564151e+00
0	 1.857135590452859e+01	 1.000003033366371e+01	 8.944960367120352e+00
0	 1.857135590452859e+01	 1.071428397830567e+01	 9.357622353648750e+00
0	 1.857135590452859e+01	 1.142853720630899e+01	 9.652997261579015e+00
0	 1.857135590452859e+01	 1.214279010100160e+01	 9.832680632670517e+00
0	 1.857135590452858e+01	 1.285704274571142e+01	 9.898268099012956e+00
0	 1.857135590452858e+01	 1.357129522376639e+01	 9.851355383026828e+00
0	 1.857135590452859e+01	 1.428554761849444e+01	 9.693538297463739e+00
0	 1.928565475774854e+01	 7.143009922150928e+00	 8.190553745968517e+00
0	 1.928565475774854e+01	 7.857266066626719e+00	 8.429398186272934e+00
0	 1.928565475774854e+01	 8.571521461152164e+00	 8.645263107450903e+00
0	 1.928565475774854e+01	 9.285776189055184e+00	 8.836943052470065e+00
0	 1.928565475774854e+01	 1.000003033366371e+01	 9.003232594357668e+00
0	 1.928565475774854e+01	 1.071428397830567e+01	 9.142926336200905e+00
0	 1.928565475774854e+01	 1.142853720630899e+01	 9.254818911147318e+00
0	 1.928565475774854e+01	 1.214279010100160e+01	 9.337704982404981e+00
0	 1.928565475774854e+01	 1.285704274571142e+01	 9.390379243242801e+00
0	 1.928565475774854e+01	 1.357129522376639e+01	 9.411636416990625e+00
0	 1.928565475774854e+01	 1.428554761849444e+01	 9.400271257039408e+00
0	 1.999995244429753e+01	 7.143009922150927e+00	 1.016376774925699e+01
0	 1.999995244429753e+01	 7.857266066626718e+00	 9.792155144583242e+00
0	 1.999995244429754e+01	 8.571521461152161e+00	 9.488674777352109e+00
0	 1.999995244429753e+01	 9.285776189055181e+00	 9.250101431573192e+00
0	 1.999995244429754e+01	 1.000003033366371e+01	 9.073209863603852e+00
0	 1.999995244429753e+01	 1.071428397830567e+01	 8.954774802148908e+00
0	 1.999995244429754e+01	 1.142853720630899e+01	 8.891570948260396e+00
0	 1.999995244429753e+01	 1.214279010100159e+01	 8.880372975337343e+00
0	 1.999995244429753e+01	 1.285704274571142e+01	 8.917955529125583e+00
0	 1.999995244429753e+01	 1.357129522376639e+01	 9.001093227717654e+00
0	 1.999995244429753e+01	 1.428554761849444e+01	 9.126560661552721e+00
0	 2.071424879750816e+01	 7.143009922150927e+00	 1.182702664964189e+01
0	 2.071424879750815e+01	 7.857266066626718e+00	 1.094763247011267e+01
0	 2.071424879750816e+01	 8.571521461152162e+00	 1.021054020693131e+01
0	 2.071424879750816e+01	 9.285776189055184e+00	 9.611285728048353e+00
0	 2.071424879750815e+01	 1.000003033366371e+01	 9.145404823761019e+00
0	 2.071424879750816e+01	 1.071428397830566e+01	 8.808433206712291e+00
0	 2.071424879750815e+01	 1.142853720630899e+01	 8.595906511890135e+00
0	 2.071424879750815e+01	 1.214279010100160e+01	 8.503360296626889e+00
0	 2.071424879750816e+01	 1.285704274571142e+01	 8.526330040598719e+00
0	 2.071424879750816e+01	 1.357129522376640e+01	 8.660351145825295e+00
0	 2.071424879750816e+01	 1.428554761849445e+01	 8.900958936669497e+00
0	 2.142854365071297e+01	 7.143009922150927e+00	 1.299818108215478e+01
0	 2.142854365071296e+01	 7.857266066626718e+00	 1.176789386943098e+01
0	 2.142854365071296e+01	 8.571521461152164e+00	 1.072977115498751e+01
0	 2.142854365071296e+01	 9.285776189055184e+00	 9.878890699086867e+00
0	 2.142854365071297e+01	 1.000003033366371e+01	 9.210330147203166e+00
0	 2.142854365071296e+01	 1.071428397830567e+01	 8.719167030020735e+00
0	 2.142854365071296e+01	 1.142853720630899e+01	 8.400478763432943e+00
0	 2.142854365071297e+01	 1.214279010100160e+01	 8.249342648541276e+00
0	 2.142854365071296e+01	 1.285704274571142e+01	 8.260835871654553e+00
0	 2.142854365071296e+01	 1.357129522376639e+01	 8.430035504288387e+00
0	 2.142854365071296e+01	 1.428554761849444e+01	 8.752018503164823e+00
0	 1.428554761849444e+01	 1.428554761849444e+01	 1.026488943018763e+01
0	 1.428554761849444e+01	 1.499984997172426e+01	 9.677835551046211e+00
0	 1.428554761849444e+01	 1.571415215828766e+01	 9.246240989258908e+00
0	 1.428554761849444e+01	 1.642845401151721e+01	 8.954642465030956e+00
0	 1.428554761849444e+01	 1.714275536474550e+01	 8.787576788593304e+00
0	 1.428554761849445e+01	 1.785705605130510e+01	 8.729580860202640e+00
0	 1.428554761849444e+01	 1.857135590452859e+01	 8.765191670141814e+00
0	 1.428554761849444e+01	 1.928565475774854e+01	 8.878946298720500e+00
0	 1.428554761849444e+01	 1.999995244429753e+01	 9.055381916276271e+00
0	 1.428554761849444e+01	 2.071424879750816e+01	 9.279035783175850e+00
0	 1.428554761849444e+01	 2.142854365071296e+01	 9.534445249816795e+00
0	 1.499984997172427e+01	 1.428554761849445e+01	 1.045388493299822e+01
0	 1.499984997172426e+01	 1.499984997172426e+01	 9.787948688940476e+00
0	 1.499984997172426e+01	 1.571415215828766e+01	 9.281280621709588e+00
0	 1.499984997172426e+01	 1.642845401151721e+01	 8.920576974360158e+00
0	 1.499984997172426e+01	 1.714275536474550e+01	 8.692534106408838e+00
0	 1.499984997172426e+01	 1.785705605130509e+01	 8.583848493834386e+00
0	 1.499984997172426e+01	 1.857135590452858e+01	 8.581216729078214e+00
0	 1.499984997172426e+01	 1.928565475774854e+01	 8.671335521045247e+00
0	 1.499984997172426e+01	 1.999995244429753e+01	 8.840901695105247e+00
0	 1.499984997172426e+01	 2.071424879750815e+01	 9.076612193094569e+00
0	 1.499984997172426e+01	 2.142854365071296e+01	 9.365164073318214e+00
0	 1.571415215828766e+01	 1.428554761849444e+01	 1.049112222404701e+01
0	 1.571415215828766e+01	 1.499984997172426e+01	 9.824053046280472e+00
0	 1.571415215828766e+01	 1.571415215828766e+01	 9.308468601549290e+00
0	 1.571415215828766e+01	 1.642845401151721e+01	 8.933131592456471e+00
0	 1.571415215828766e+01	 1.714275536474550e+01	 8.686804846862099e+00
0	 1.571415215828766e+01	 1.785705605130510e+01	 8.558251317883460e+00
0	 1.571415215828766e+01	 1.857135590452858e+01	 8.536234083895572e+00
0	 1.571415215828766e+01	 1.928565475774854e+01	 8.609516348532178e+00
0	 1.571415215828766e+01	 1.999995244429754e+01	 8.766861440687130e+00
0	 1.571415215828766e+01	 2.071424879750815e+01	 8.997032814516290e+00
0	 1.571415215828766e+01	 2.142854365071296e+01	 9.288794049439771e+00
0	 1.642845401151721e+01	 1.428554761849444e+01	 1.040515375834404e+01
0	 1.642845401151721e+01	 1.499984997172426e+01	 9.800062492596465e+00
0	 1.642845401151721e+01	 1.571415215828766e+01	 9.329316121590320e+00
0	 1.642845401151721e+01	 1.642845401151721e+01	 8.983650739190693e+00
0	 1.642845401151722e+01	 1.714275536474550e+01	 8.753802558803759e+00
0	 1.642845401151722e+01	 1.785705605130510e+01	 8.630507913376883e+00
0	 1.642845401151720e+01	 1.857135590452858e+01	 8.604503255399116e+00
0	 1.642845401151721e+01	 1.928565475774854e+01	 8.666525156902130e+00
0	 1.642845401151722e+01	 1.999995244429753e+01	 8.807310309461638e+00
0	 1.642845401151721e+01	 2.071424879750816e+01	 9.017595524199102e+00
0	 1.642845401151721e+01	 2.142854365071296e+01	 9.288117731783974e+00
0	 1.714275536474550e+01	 1.428554761849444e+01	 1.022453198600858e+01
0	 1.714275536474550e+01	 1.499984997172426e+01	 9.729890886618222e+00
0	 1.714275536474550e+01	 1.571415215828766e+01	 9.345334359347099e+00
0	 1.714275536474550e+01	 1.642845401151722e+01	 9.063478815920497e+00
0	 1.714275536474550e+01	 1.714275536474549e+01	 8.876940770507897e+00
0	 1.714275536474550e+01	 1.785705605130510e+01	 8.778336839723050e+00
0	 1.714275536474549e+01	 1.857135590452858e+01	 8.760283742624456e+00
0	 1.714275536474550e+01	 1.928565475774855e+01	 8.815398300716160e+00
0	 1.714275536474549e+01	 1.999995244429753e+01	 8.936297437948975e+00
0	 1.714275536474550e+01	 2.071424879750815e+01	 9.115598180721964e+00
0	 1.714275536474550e+01	 2.142854365071296e+01	 9.345917657884353e+00
0	 1.785705605130510e+01	 1.428554761849444e+01	 9.977809352269190e+00
0	 1.785705605130509e+01	 1.499984997172426e+01	 9.627452076275004e+00
0	 1.785705605130509e+01	 1.571415215828766e+01	 9.358034477036265e+00
0	 1.785705605130509e+01	 1.642845401151721e+01	 9.163960205490545e+00
0	 1.785705605130509e+01	 1.714275536474550e+01	 9.039632989672064e+00
0	 1.785705605130510e+01	 1.785705605130510e+01	 8.979456634711761e+00
0	 1.785705605130510e+01	 1.857135590452859e+01	 8.977835022837665e+00
0	 1.785705605130510e+01	 1.928565475774854e+01	 9.029172113375550e+00
0	 1.785705605130510e+01	 1.999995244429754e+01	 9.127871942749783e+00
0	 1.785705605130510e+01	 2.071424879750816e+01	 9.268338624484571e+00
0	 1.785705605130510e+01	 2.142854365071297e+01	 9.444976349205319e+00
0	 1.857135590452859e+01	 1.428554761849444e+01	 9.693538297463739e+00
0	 1.857135590452859e+01	 1.499984997172426e+01	 9.506659898695670e+00
0	 1.857135590452858e+01	 1.571415215828766e+01	 9.368927621576676e+00
0	 1.857135590452858e+01	 1.642845401151721e+01	 9.276439272232418e+00
0	 1.857135590452858e+01	 1.714275536474549e+01	 9.225292703417219e+00
0	 1.857135590452858e+01	 1.785705605130510e+01	 9.211585814514113e+00
0	 1.857135590452859e+01	 1.857135590452859e+01	 9.231416551535139e+00
0	 1.857135590452858e+01	 1.928565475774854e+01	 9.280882907121669e+00
0	 1.857135590452858e+01	 1.999995244429753e+01	 9.356082920545042e+00
0	 1.857135590452858e+01	 2.071424879750815e+01	 9.453114677707303e+00
0	 1.857135590452858e+01	 2.142854365071296e+01	 9.568076311142040e+00
0	 1.928565475774854e+01	 1.428554761849444e+01	 9.400271257039408e+00
0	 1.928565475774854e+01	 1.499984997172426e+01	 9.381428180208616e+00
0	 1.928565475774854e+01	 1.571415215828766e+01	 9.379524924589367e+00
0	 1.928565475774854e+01	 1.642845401151721e+01	 9.392260361964597e+00
0	 1.928565475774854e+01	 1.714275536474550e+01	 9.417333378287683e+00
0	 1.928565475774854e+01	 1.785705605130509e+01	 9.452442873682482e+00
0	 1.928565475774854e+01	 1.857135590452859e+01	 9.495287762443448e+00
0	 1.928565475774854e+01	 1.928565475774854e+01	 9.543566973035833e+00
0	 1.928565475774854e+01	 1.999995244429753e+01	 9.594979448095854e+00
0	 1.928565475774854e+01	 2.071424879750815e+01	 9.647224144430982e+00
0	 1.928565475774854e+01	 2.142854365071297e+01	 9.698000033020271e+00
0	 1.999995244429753e+01	 1.428554761849444e+01	 9.126560661552721e+00
0	 1.999995244429753e+01	 1.499984997172426e+01	 9.265670736341750e+00
0	 1.999995244429753e+01	 1.571415215828766e+01	 9.391337502397462e+00
0	 1.999995244429754e+01	 1.642845401151721e+01	 9.502767801992317e+00
0	 1.999995244429753e+01	 1.714275536474550e+01	 9.599168460250938e+00
0	 1.999995244429753e+01	 1.785705605130510e+01	 9.679746285150195e+00
0	 1.999995244429753e+01	 1.857135590452857e+01	 9.743708067519167e+00
0	 1.999995244429754e+01	 1.928565475774854e+01	 9.790260581039085e+00
0	 1.999995244429754e+01	 1.999995244429754e+01	 9.818610582243208e+00
0	 1.999995244429753e+01	 2.071424879750816e+01	 9.827964810516649e+00
0	 1.999995244429754e+01	 2.142854365071297e+01	 9.817529988096096e+00
0	 2.071424879750816e+01	 1.428554761849445e+01	 8.900958936669493e+00
0	 2.071424879750814e+01	 1.499984997172426e+01	 9.173301371822392e+00
0	 2.071424879750816e+01	 1.571415215828766e+01	 9.405876456026039e+00
0	 2.071424879750815e+01	 1.642845401151721e+01	 9.599305901107360e+00
0	 2.071424879750816e+01	 1.714275536474550e+01	 9.754211374697411e+00
0	 2.071424879750816e+01	 1.785705605130510e+01	 9.871214500231368e+00
0	 2.071424879750816e+01	 1.857135590452858e+01	 9.950936856948498e+00
0	 2.071424879750815e+01	 1.928565475774854e+01	 9.993999979891806e+00
0	 2.071424879750816e+01	 1.999995244429753e+01	 1.000102535990766e+01
0	 2.071424879750816e+01	 2.071424879750816e+01	 9.972634443645205e+00
0	 2.071424879750816e+01	 2.142854365071296e+01	 9.909448633555623e+00
0	 2.142854365071296e+01	 1.428554761849444e+01	 8.752018503164821e+00
0	 2.142854365071297e+01	 1.499984997172426e+01	 9.118233880577179e+00
0	 2.142854365071296e+01	 1.571415215828766e+01	 9.424652871201927e+00
0	 2.142854365071296e+01	 1.642845401151721e+01	 9.673218949587833e+00
0	 2.142854365071296e+01	 1.714275536474550e+01	 9.865875526440110e+00
0	 2.142854365071296e+01	 1.785705605130510e+01	 1.000456594862048e+01
0	 2.142854365071296e+01	 1.857135590452858e+01	 1.009123349914693e+01
0	 2.142854365071297e+01	 1.928565475774854e+01	 1.012782139719338e+01
0	 2.142854365071297e+01	 1.999995244429754e+01	 1.011627279808892e+01
0	 2.142854365071296e+01	 2.071424879750816e+01	 1.005853079331707e+01
0	 2.142854365071296e+01	 2.142854365071296e+01	 9.956538410514604e+00
0	 1.428554761849444e+01	 2.142854365071296e+01	 9.534445249816795e+00
0	 1.428554761849444e+01	 2.214283692057823e+01	 9.768096481661317e+00
0	 1.428554761849445e+01	 2.285712885710494e+01	 9.941631963147783e+00
0	 1.428554761849444e+01	 2.357141979362770e+01	 1.006232363134529e+01
0	 1.428554761849445e+01	 2.428571006348118e+01	 1.013744347756863e+01
0	 1.428554761849444e+01	 2.500000000000000e+01	 1.017426354737983e+01
0	 1.428554761849444e+01	 2.571428993651883e+01	 1.018005594058949e+01
0	 1.428554761849444e+01	 2.642858020637231e+01	 1.016209281125760e+01
0	 1.428554761849444e+01	 2.714287114289507e+01	 1.012764636769410e+01
0	 1.428554761849444e+01	 2.785716307942177e+01	 1.008398887245895e+01
0	 1.428554761849444e+01	 2.857145634928703e+01	 1.003839264236187e+01
0	 1.499984997172426e+01	 2.142854365071296e+01	 9.365164073318214e+00
0	 1.499984997172426e+01	 2.214283692057824e+01	 9.641393484588749e+00
0	 1.499984997172426e+01	 2.285712885710494e+01	 9.853527973049918e+00
0	 1.499984997172426e+01	 2.357141979362770e+01	 1.000835183753057e+01
0	 1.499984997172426e+01	 2.428571006348118e+01	 1.011264945309358e+01
0	 1.499984997172426e+01	 2.500000000000001e+01	 1.017320527103801e+01
0	 1.499984997172426e+01	 2.571428993651884e+01	 1.019680381890077e+01
0	 1.499984997172426e+01	 2.642858020637230e+01	 1.019022970045762e+01
0	 1.499984997172426e+01	 2.714287114289509e+01	 1.016026759572389e+01
0	 1.499984997172426e+01	 2.785716307942178e+01	 1.011370226095437e+01
0	 1.499984997172426e+01	 2.857145634928704e+01	 1.005731852864285e+01
0	 1.571415215828766e+01	 2.142854365071296e+01	 9.288794049439771e+00
0	 1.571415215828766e+01	 2.214283692057824e+01	 9.573977858362941e+00
0	 1.571415215828766e+01	 2.285712885710493e+01	 9.796065511604144e+00
0	 1.571415215828766e+01	 2.357141979362770e+01	 9.961293582097158e+00
0	 1.571415215828766e+01	 2.428571006348118e+01	 1.007589872737062e+01
0	 1.571415215828766e+01	 2.500000000000001e+01	 1.014611768955036e+01
0	 1.571415215828766e+01	 2.571428993651883e+01	 1.017818729536117e+01
0	 1.571415215828766e+01	 2.642858020637231e+01	 1.017834445612801e+01
0	 1.571415215828766e+01	 2.714287114289508e+01	 1.015282616777656e+01
0	 1.571415215828766e+01	 2.785716307942177e+01	 1.010786951083324e+01
0	 1.571415215828766e+01	 2.857145634928703e+01	 1.004971165042459e+01
0	 1.642845401151721e+01	 2.142854365071296e+01	 9.288117731783974e+00
0	 1.642845401151721e+01	 2.214283692057823e+01	 9.554803572234491e+00
0	 1.642845401151721e+01	 2.285712885710494e+01	 9.763507462662970e+00
0	 1.642845401151721e+01	 2.357141979362769e+01	 9.919858150348126e+00
0	 1.642845401151721e+01	 2.428571006348117e+01	 1.002948446431171e+01
0	 1.642845401151721e+01	 2.500000000000001e+01	 1.009801531532082e+01
0	 1.642845401151721e+01	 2.571428993651883e+01	 1.013107969588960e+01
0	 1.642845401151721e+01	 2.642858020637231e+01	 1.013430668028039e+01
0	 1.642845401151722e+01	 2.714287114289507e+01	 1.011332542450432e+01
0	 1.642845401151722e+01	 2.785716307942178e+01	 1.007376516632130e+01
0	 1.642845401151722e+01	 2.857145634928704e+01	 1.002125522523948e+01
0	 1.714275536474550e+01	 2.142854365071296e+01	 9.345917657884353e+00
0	 1.714275536474550e+01	 2.214283692057824e+01	 9.572824581742186e+00
0	 1.714275536474550e+01	 2.285712885710494e+01	 9.750116698879602e+00
0	 1.714275536474550e+01	 2.357141979362770e+01	 9.882754818970735e+00
0	 1.714275536474550e+01	 2.428571006348117e+01	 9.975699821783319e+00
0	 1.714275536474550e+01	 2.500000000000000e+01	 1.003391265718075e+01
0	 1.714275536474550e+01	 2.571428993651883e+01	 1.006235434512353e+01
0	 1.714275536474550e+01	 2.642858020637232e+01	 1.006598597567037e+01
0	 1.714275536474550e+01	 2.714287114289508e+01	 1.004976870897866e+01
0	 1.714275536474550e+01	 2.785716307942177e+01	 1.001866377530461e+01
0	 1.714275536474550e+01	 2.857145634928703e+01	 9.977632475002721e+00
0	 1.785705605130510e+01	 2.142854365071297e+01	 9.444976349205319e+00
0	 1.785705605130509e+01	 2.214283692057824e+01	 9.616994828713000e+00
0	 1.785705605130509e+01	 2.285712885710494e+01	 9.750156081707908e+00
0	 1.785705605130509e+01	 2.357141979362770e+01	 9.848692856036402e+00
0	 1.785705605130510e+01	 2.428571006348117e+01	 9.916837951606363e+00
0	 1.785705605130511e+01	 2.500000000000001e+01	 9.958824220388800e+00
0	 1.785705605130509e+01	 2.571428993651883e+01	 9.978884566419028e+00
0	 1.785705605130510e+01	 2.642858020637231e+01	 9.981251945797522e+00
0	 1.785705605130510e+01	 2.714287114289508e+01	 9.970159366690412e+00
0	 1.785705605130510e+01	 2.785716307942177e+01	 9.949839889329589e+00
0	 1.785705605130510e+01	 2.857145634928704e+01	 9.924526626012474e+00
0	 1.857135590452858e+01	 2.142854365071296e+01	 9.568076311142040e+00
0	 1.857135590452859e+01	 2.214283692057824e+01	 9.676268241261926e+00
0	 1.857135590452859e+01	 2.285712885710494e+01	 9.757888461402281e+00
0	 1.857135590452858e+01	 2.357141979362770e+01	 9.816381521000599e+00
0	 1.857135590452859e+01	 2.428571006348117e+01	 9.855191999556142e+00
0	 1.857135590452858e+01	 2.500000000000001e+01	 9.877764506630964e+00
0	 1.857135590452858e+01	 2.571428993651883e+01	 9.887543681850758e+00
0	 1.857135590452859e+01	 2.642858020637231e+01	 9.887974194905468e+00
0	 1.857135590452858e+01	 2.714287114289507e+01	 9.882500745549731e+00
0	 1.857135590452859e+01	 2.785716307942177e+01	 9.874568063603052e+00
0	 1.857135590452859e+01	 2.857145634928704e+01	 9.867620908949789e+00
0	 1.928565475774854e+01	 2.142854365071297e+01	 9.698000033020271e+00
0	 1.928565475774854e+01	 2.214283692057824e+01	 9.739598733791786e+00
0	 1.928565475774853e+01	 2.285712885710494e+01	 9.767576677017470e+00
0	 1.928565475774854e+01	 2.357141979362769e+01	 9.784530064702718e+00
0	 1.928565475774854e+01	 2.428571006348117e+01	 9.793055105362225e+00
0	 1.928565475774854e+01	 2.500000000000000e+01	 9.795748014020409e+00
0	 1.928565475774854e+01	 2.571428993651884e+01	 9.795205012211873e+00
0	 1.928565475774854e+01	 2.642858020637232e+01	 9.794022327981768e+00
0	 1.928565475774854e+01	 2.714287114289507e+01	 9.794796195886160e+00
0	 1.928565475774854e+01	 2.785716307942177e+01	 9.800122856992274e+00
0	 1.928565475774854e+01	 2.857145634928704e+01	 9.812598558878769e+00
0	 1.999995244429754e+01	 2.142854365071297e+01	 9.817529988096096e+00
0	 1.999995244429753e+01	 2.214283692057824e+01	 9.795940206993054e+00
0	 1.999995244429753e+01	 2.285712885710494e+01	 9.773483556408419e+00
0	 1.999995244429754e+01	 2.357141979362770e+01	 9.751847729365924e+00
0	 1.999995244429754e+01	 2.428571006348117e+01	 9.732720402708365e+00
0	 1.999995244429753e+01	 2.500000000000000e+01	 9.717789237097495e+00
0	 1.999995244429753e+01	 2.571428993651883e+01	 9.708741877014075e+00
0	 1.999995244429754e+01	 2.642858020637231e+01	 9.707265950758025e+00
0	 1.999995244429753e+01	 2.714287114289507e+01	 9.715049070448671e+00
0	 1.999995244429754e+01	 2.785716307942177e+01	 9.733778832025074e+00
0	 1.999995244429754e+01	 2.857145634928704e+01	 9.765142815246634e+00
0	 2.071424879750816e+01	 2.142854365071296e+01	 9.909448633555623e+00
0	 2.071424879750815e+01	 2.214283692057824e+01	 9.834246547843517e+00
0	 2.071424879750816e+01	 2.285712885710494e+01	 9.769871916229983e+00
0	 2.071424879750816e+01	 2.357141979362770e+01	 9.717043748596931e+00
0	 2.071424879750816e+01	 2.428571006348117e+01	 9.676481019232318e+00
0	 2.071424879750815e+01	 2.500000000000000e+01	 9.648902666829624e+00
0	 2.071424879750815e+01	 2.571428993651884e+01	 9.635027594487525e+00
0	 2.071424879750816e+01	 2.642858020637231e+01	 9.635574669709833e+00
0	 2.071424879750816e+01	 2.714287114289508e+01	 9.651262724405669e+00
0	 2.071424879750815e+01	 2.785716307942177e+01	 9.682810554889887e+00
0	 2.071424879750816e+01	 2.857145634928704e+01	 9.730936921883796e+00
0	 2.142854365071296e+01	 2.142854365071296e+01	 9.956538410514604e+00
0	 2.142854365071296e+01	 2.214283692057824e+01	 9.843471629608018e+00
0	 2.142854365071296e+01	 2.285712885710494e+01	 9.751004561936718e+00
0	 2.142854365071296e+01	 2.357141979362770e+01	 9.678827347385813e+00
0	 2.142854365071296e+01	 2.428571006348117e+01	 9.626630076525714e+00
0	 2.142854365071296e+01	 2.500000000000001e+01	 9.594102790611171e+00
0	 2.142854365071296e+01	 2.571428993651884e+01	 9.580935481580818e+00
0	 2.142854365071296e+01	 2.642858020637231e+01	 9.586818092056836e+00
0	 2.142854365071296e+01	 2.714287114289507e+01	 9.611440515345144e+00
0	 2.142854365071296e+01	 2.785716307942177e+01	 9.654492595435848e+00
0	 2.142854365071296e+01	 2.857145634928703e+01	 9.715664127004057e+00
0	 1.428554761849444e+01	 2.857145634928703e+01	 1.003839264236187e+01
0	 1.428554761849444e+01	 2.928575120249186e+01	 1.000436883183932e+01
0	 1.428554761849444e+01	 3.000004755570247e+01	 9.988142008001066e+00
0	 1.428554761849444e+01	 3.071434524225147e+01	 9.986054643937036e+00
0	 1.428554761849444e+01	 3.142864409547143e+01	 9.994449208181463e+00
0	 1.428554761849444e+01	 3.214294394869491e+01	 1.000966816471298e+01
0	 1.428554761849444e+01	 3.285724463525450e+01	 1.002805397295470e+01
0	 1.428554761849444e+01	 3.357154598848280e+01	 1.004594908777425e+01
0	 1.428554761849444e+01	 3.428584784171235e+01	 1.005969595948380e+01
0	 1.428554761849444e+01	 3.500015002827575e+01	 1.006563703384011e+01
0	 1.428554761849444e+01	 3.571445238150556e+01	 1.006011475204445e+01
0	 1.499984997172426e+01	 2.857145634928704e+01	 1.005731852864285e+01
0	 1.499984997172426e+01	 2.928575120249186e+01	 1.000945594246747e+01
0	 1.499984997172426e+01	 3.000004755570248e+01	 9.981508585278188e+00
0	 1.499984997172426e+01	 3.071434524225147e+01	 9.969843154826821e+00
0	 1.499984997172426e+01	 3.142864409547142e+01	 9.970826347960511e+00
0	 1.499984997172426e+01	 3.214294394869491e+01	 9.980824860621819e+00
0	 1.499984997172426e+01	 3.285724463525451e+01	 9.996205387848670e+00
0	 1.499984997172426e+01	 3.357154598848280e+01	 1.001333462377434e+01
0	 1.499984997172426e+01	 3.428584784171235e+01	 1.002857926162747e+01
0	 1.499984997172426e+01	 3.500015002827575e+01	 1.003830599373206e+01
0	 1.499984997172427e+01	 3.571445238150557e+01	 1.003888151150736e+01
0	 1.571415215828766e+01	 2.857145634928703e+01	 1.004971165042459e+01
0	 1.571415215828766e+01	 2.928575120249185e+01	 9.998354164077064e+00
0	 1.571415215828766e+01	 3.000004755570248e+01	 9.967284714472783e+00
0	 1.571415215828766e+01	 3.071434524225147e+01	 9.952969658521269e+00
0	 1.571415215828766e+01	 3.142864409547143e+01	 9.951875353931896e+00
0	 1.571415215828766e+01	 3.214294394869493e+01	 9.960468159213908e+00
0	 1.571415215828766e+01	 3.285724463525451e+01	 9.975214433676415e+00
0	 1.571415215828766e+01	 3.357154598848280e+01	 9.992580537428298e+00
0	 1.571415215828766e+01	 3.428584784171235e+01	 1.000903283137820e+01
0	 1.571415215828766e+01	 3.500015002827575e+01	 1.002103767723452e+01
0	 1.571415215828766e+01	 3.571445238150557e+01	 1.002506143750538e+01
0	 1.642845401151722e+01	 2.857145634928704e+01	 1.002125522523948e+01
0	 1.642845401151721e+01	 2.928575120249185e+01	 9.974852973436189e+00
0	 1.642845401151721e+01	 3.000004755570248e+01	 9.947623827439367e+00
0	 1.642845401151721e+01	 3.071434524225147e+01	 9.936209235282449e+00
0	 1.642845401151721e+01	 3.142864409547142e+01	 9.937250645917594e+00
0	 1.642845401151721e+01	 3.214294394869491e+01	 9.947389509215594e+00
0	 1.642845401151721e+01	 3.285724463525450e+01	 9.963267275965853e+00
0	 1.642845401151721e+01	 3.357154598848280e+01	 9.981525397876378e+00
0	 1.642845401151721e+01	 3.428584784171235e+01	 9.998805327573686e+00
0	 1.642845401151722e+01	 3.500015002827575e+01	 1.001174851860286e+01
0	 1.642845401151721e+01	 3.571445238150555e+01	 1.001699642542751e+01
0	 1.714275536474550e+01	 2.857145634928703e+01	 9.977632475002721e+00
0	 1.714275536474550e+01	 2.928575120249186e+01	 9.942741851847289e+00
0	 1.714275536474550e+01	 3.000004755570248e+01	 9.924679360221047e+00
0	 1.714275536474549e+01	 3.071434524225146e+01	 9.920336968823790e+00
0	 1.714275536474549e+01	 3.142864409547142e+01	 9.926606646167784e+00
0	 1.714275536474550e+01	 3.214294394869490e+01	 9.940380360577826e+00
0	 1.714275536474550e+01	 3.285724463525451e+01	 9.958550080191177e+00
0	 1.714275536474550e+01	 3.357154598848279e+01	 9.978007772957593e+00
0	 1.714275536474549e+01	 3.428584784171235e+01	 9.995645406639264e+00
0	 1.714275536474550e+01	 3.500015002827575e+01	 1.000835494881089e+01
0	 1.714275536474550e+01	 3.571445238150555e+01	 1.001302836685963e+01
0	 1.785705605130510e+01	 2.857145634928704e+01	 9.924526626012474e+00
0	 1.785705605130509e+01	 2.928575120249185e+01	 9.905810285147071e+00
0	 1.785705605130510e+01	 3.000004755570248e+01	 9.900604753049599e+00
0	 1.785705605130510e+01	 3.071434524225147e+01	 9.906127946310114e+00
0	 1.785705605130510e+01	 3.142864409547143e+01	 9.919597779360860e+00
0	 1.785705605130510e+01	 3.214294394869492e+01	 9.938232164476233e+00
0	 1.785705605130510e+01	 3.285724463525451e+01	 9.959249011772890e+00
0	 1.785705605130510e+01	 3.357154598848280e+01	 9.979866229209712e+00
0	 1.785705605130510e+01	 3.428584784171234e+01	 9.997301722587878e+00
0	 1.785705605130509e+01	 3.500015002827575e+01	 1.000877339555086e+01
0	 1.785705605130510e+01	 3.571445238150556e+01	 1.001149914958444e+01
0	 1.857135590452859e+01	 2.857145634928704e+01	 9.867620908949789e+00
0	 1.857135590452859e+01	 2.928575120249186e+01	 9.867847763706703e+00
0	 1.857135590452858e+01	 3.000004755570248e+01	 9.877553450345506e+00
0	 1.857135590452858e+01	 3.071434524225147e+01	 9.894357258357765e+00
0	 1.857135590452858e+01	 3.142864409547142e+01	 9.915878472603485e+00
0	 1.857135590452858e+01	 3.214294394869491e+01	 9.939736373311145e+00
0	 1.857135590452858e+01	 3.285724463525451e+01	 9.963550236077818e+00
0	 1.857135590452858e+01	 3.357154598848279e+01	 9.984939331869281e+00
0	 1.857135590452858e+01	 3.428584784171235e+01	 1.000152292702006e+01
0	 1.857135590452858e+01	 3.500015002827575e+01	 1.001092028323343e+01
0	 1.857135590452859e+01	 3.571445238150556e+01	 1.001075065758149e+01
0	 1.928565475774854e+01	 2.857145634928704e+01	 9.812598558878769e+00
0	 1.928565475774854e+01	 2.928575120249186e+01	 9.832643782431788e+00
0	 1.928565475774854e+01	 3.000004755570248e+01	 9.857678900718026e+00
0	 1.928565475774853e+01	 3.071434524225146e+01	 9.885799999034601e+00
0	 1.928565475774854e+01	 3.142864409547142e+01	 9.915103155430653e+00
0	 1.928565475774854e+01	 3.214294394869491e+01	 9.943684440707585e+00
0	 1.928565475774854e+01	 3.285724463525451e+01	 9.969639918419158e+00
0	 1.928565475774854e+01	 3.357154598848280e+01	 9.991065644871647e+00
0	 1.928565475774854e+01	 3.428584784171235e+01	 1.000605766912396e+01
0	 1.928565475774854e+01	 3.500015002827575e+01	 1.001271203298766e+01
0	 1.928565475774854e+01	 3.571445238150557e+01	 1.000912477102704e+01
0	 1.999995244429754e+01	 2.857145634928704e+01	 9.765142815246634e+00
0	 1.999995244429754e+01	 2.928575120249187e+01	 9.803987840762558e+00
0	 1.999995244429753e+01	 3.000004755570248e+01	 9.843134556965360e+00
0	 1.999995244429753e+01	 3.071434524225148e+01	 9.881231265860116e+00
0	 1.999995244429753e+01	 3.142864409547143e+01	 9.916926259805765e+00
0	 1.999995244429754e+01	 3.214294394869491e+01	 9.948867821515414e+00
0	 1.999995244429753e+01	 3.285724463525451e+01	 9.975704224056468e+00
0	 1.999995244429753e+01	 3.357154598848280e+01	 9.996083730850904e+00
0	 1.999995244429754e+01	 3.428584784171235e+01	 1.000865459567529e+01
0	 1.999995244429753e+01	 3.500015002827574e+01	 1.001206506266098e+01
0	 1.999995244429753e+01	 3.571445238150556e+01	 1.000496336629412e+01
0	 2.071424879750816e+01	 2.857145634928704e+01	 9.730936921883796e+00
0	 2.071424879750815e+01	 2.928575120249186e+01	 9.785669442673900e+00
0	 2.071424879750816e+01	 3.000004755570249e+01	 9.836073876074666e+00
0	 2.071424879750816e+01	 3.071434524225147e+01	 9.881426159805534e+00
0	 2.071424879750815e+01	 3.142864409547143e+01	 9.921002220120686e+00
0	 2.071424879750816e+01	 3.214294394869491e+01	 9.954077971809273e+00
0	 2.071424879750816e+01	 3.285724463525452e+01	 9.979929318195733e+00
0	 2.071424879750816e+01	 3.357154598848280e+01	 9.997832151139907e+00
0	 2.071424879750814e+01	 3.428584784171235e+01	 1.000706235103728e+01
0	 2.071424879750815e+01	 3.500015002827574e+01	 1.000689578681909e+01
0	 2.071424879750816e+01	 3.571445238150557e+01	 9.996608315952376e+00
0	 2.142854365071296e+01	 2.857145634928703e+01	 9.715664127004057e+00
0	 2.142854365071296e+01	 2.928575120249186e+01	 9.781478096675565e+00
0	 2.142854365071296e+01	 3.000004755570248e+01	 9.838650319222209e+00
0	 2.142854365071297e+01	 3.071434524225148e+01	 9.887159785293901e+00
0	 2.142854365071296e+01	 3.142864409547142e+01	 9.926985473195812e+00
0	 2.142854365071296e+01	 3.214294394869491e+01	 9.958106348888737e+00
0	 2.142854365071296e+01	 3.285724463525451e+01	 9.980501365989319e+00
0	 2.142854365071296e+01	 3.357154598848279e+01	 9.994149465770295e+00
0	 2.142854365071296e+01	 3.428584784171235e+01	 9.999029577160698e+00
0	 2.142854365071296e+01	 3.500015002827575e+01	 9.995120616745968e+00
0	 2.142854365071297e+01	 3.571445238150556e+01	 9.982401488768051e+00
0	 1.428554761849444e+01	 3.571445238150556e+01	 1.006011475204445e+01
0	 1.428554761849444e+01	 3.642870477623360e+01	 1.004530677274814e+01
0	 1.428554761849444e+01	 3.714295725428857e+01	 1.002705690385408e+01
0	 1.428554761849445e+01	 3.785720989899840e+01	 1.000720942287892e+01
0	 1.428554761849444e+01	 3.857146279369100e+01	 9.987608602734024e+00
0	 1.428554761849444e+01	 3.928571602169433e+01	 9.970098711725493e+00
0	 1.428554761849444e+01	 3.999996966633629e+01	 9.956524013554137e+00
0	 1.428554761849444e+01	 4.071422381094481e+01	 9.948728767315528e+00
0	 1.428554761849444e+01	 4.142847853884783e+01	 9.948557227500013e+00
0	 1.428554761849444e+01	 4.214273393337327e+01	 9.957853643992809e+00
0	 1.428554761849445e+01	 4.285699007784908e+01	 9.978462262073979e+00
0	 1.499984997172427e+01	 3.571445238150557e+01	 1.003888151150736e+01
0	 1.499984997172426e+01	 3.642870477623358e+01	 1.003065466290479e+01
0	 1.499984997172426e+01	 3.714295725428857e+01	 1.001768540049681e+01
0	 1.499984997172427e+01	 3.785720989899841e+01	 1.000190816341807e+01
0	 1.499984997172426e+01	 3.857146279369100e+01	 9.985257386981495e+00
0	 1.499984997172426e+01	 3.928571602169432e+01	 9.969667502678277e+00
0	 1.499984997172427e+01	 3.999996966633630e+01	 9.957072938177904e+00
0	 1.499984997172426e+01	 4.071422381094480e+01	 9.949408117328179e+00
0	 1.499984997172426e+01	 4.142847853884783e+01	 9.948607460155264e+00
0	 1.499984997172426e+01	 4.214273393337327e+01	 9.956605382863673e+00
0	 1.499984997172427e+01	 4.285699007784908e+01	 9.975336297836346e+00
0	 1.571415215828766e+01	 3.571445238150557e+01	 1.002506143750538e+01
0	 1.571415215828765e+01	 3.642870477623359e+01	 1.002054886771361e+01
0	 1.571415215828766e+01	 3.714295725428857e+01	 1.001061022599502e+01
0	 1.571415215828766e+01	 3.785720989899840e+01	 9.997210367287071e+00
0	 1.571415215828766e+01	 3.857146279369102e+01	 9.982314143241982e+00
0	 1.571415215828766e+01	 3.928571602169433e+01	 9.967886402226723e+00
0	 1.571415215828766e+01	 3.999996966633628e+01	 9.955891989323044e+00
0	 1.571415215828766e+01	 4.071422381094482e+01	 9.948295746327483e+00
0	 1.571415215828766e+01	 4.142847853884783e+01	 9.947062511751399e+00
0	 1.571415215828766e+01	 4.214273393337327e+01	 9.954157120821010e+00
0	 1.571415215828766e+01	 4.285699007784908e+01	 9.971544405477445e+00
0	 1.642845401151721e+01	 3.571445238150555e+01	 1.001699642542751e+01
0	 1.642845401151722e+01	 3.642870477623360e+01	 1.001385091603588e+01
0	 1.642845401151721e+01	 3.714295725428857e+01	 1.000514327893412e+01
0	 1.642845401151721e+01	 3.785720989899838e+01	 9.992809038884619e+00
0	 1.642845401151721e+01	 3.857146279369101e+01	 9.978783717702409e+00
0	 1.642845401151721e+01	 3.928571602169433e+01	 9.965002834255163e+00
0	 1.642845401151722e+01	 3.999996966633629e+01	 9.953401904463231e+00
0	 1.642845401151721e+01	 4.071422381094481e+01	 9.945916441299627e+00
0	 1.642845401151722e+01	 4.142847853884783e+01	 9.944481954790081e+00
0	 1.642845401151721e+01	 4.214273393337327e+01	 9.951033952013045e+00
0	 1.642845401151721e+01	 4.285699007784907e+01	 9.967507937099757e+00
0	 1.714275536474550e+01	 3.571445238150555e+01	 1.001302836685963e+01
0	 1.714275536474550e+01	 3.642870477623359e+01	 1.000942233282974e+01
0	 1.714275536474550e+01	 3.714295725428856e+01	 1.000059645426582e+01
0	 1.714275536474550e+01	 3.785720989899840e+01	 9.988397179530946e+00
0	 1.714275536474550e+01	 3.857146279369100e+01	 9.974670954228635e+00
0	 1.714275536474550e+01	 3.928571602169432e+01	 9.961264221202793e+00
0	 1.714275536474550e+01	 3.999996966633629e+01	 9.950023420537804e+00
0	 1.714275536474551e+01	 4.071422381094482e+01	 9.942794989558505e+00
0	 1.714275536474550e+01	 4.142847853884782e+01	 9.941425362830193e+00
0	 1.714275536474550e+01	 4.214273393337329e+01	 9.947760972158687e+00
0	 1.714275536474550e+01	 4.285699007784908e+01	 9.963648246590349e+00
0	 1.785705605130510e+01	 3.571445238150556e+01	 1.001149914958444e+01
0	 1.785705605130510e+01	 3.642870477623360e+01	 1.000612463915016e+01
0	 1.785705605130510e+01	 3.714295725428857e+01	 9.996281643308098e+00
0	 1.785705605130510e+01	 3.785720989899841e+01	 9.983667787467805e+00
0	 1.785705605130509e+01	 3.857146279369100e+01	 9.969980694365407e+00
0	 1.785705605130510e+01	 3.928571602169432e+01	 9.956917984063631e+00
0	 1.785705605130509e+01	 3.999996966633628e+01	 9.946177273951740e+00
0	 1.785705605130510e+01	 4.071422381094481e+01	 9.939456178745646e+00
0	 1.785705605130510e+01	 4.142847853884783e+01	 9.938452310487884e+00
0	 1.785705605130510e+01	 4.214273393337327e+01	 9.944863278547661e+00
0	 1.785705605130510e+01	 4.285699007784908e+01	 9.960386689620863e+00
0	 1.857135590452859e+01	 3.571445238150556e+01	 1.001075065758148e+01
0	 1.857135590452858e+01	 3.642870477623359e+01	 1.000281935214892e+01
0	 1.857135590452858e+01	 3.714295725428858e+01	 9.991510733745203e+00
0	 1.857135590452859e+01	 3.785720989899841e+01	 9.978313857858469e+00
0	 1.857135590452858e+01	 3.857146279369100e+01	 9.964717777336476e+00
0	 1.857135590452858e+01	 3.928571602169432e+01	 9.952211542386548e+00
0	 1.857135590452858e+01	 3.999996966633628e+01	 9.942284200575621e+00
0	 1.857135590452859e+01	 4.071422381094482e+01	 9.936424796830231e+00
0	 1.857135590452858e+01	 4.142847853884783e+01	 9.936122373436575e+00
0	 1.857135590452859e+01	 4.214273393337328e+01	 9.942865970040513e+00
0	 1.857135590452858e+01	 4.285699007784907e+01	 9.958144623647597e+00
0	 1.928565475774854e+01	 3.571445238150557e+01	 1.000912477102704e+01
0	 1.928565475774853e+01	 3.642870477623359e+01	 9.998367985074568e+00
0	 1.928565475774854e+01	 3.714295725428857e+01	 9.985595609627568e+00
0	 1.928565475774854e+01	 3.785720989899841e+01	 9.972028382787659e+00
0	 1.928565475774854e+01	 3.857146279369100e+01	 9.958887040044395e+00
0	 1.928565475774854e+01	 3.928571602169433e+01	 9.947392314275268e+00
0	 1.928565475774854e+01	 3.999996966633628e+01	 9.938764935745708e+00
0	 1.928565475774854e+01	 4.071422381094481e+01	 9.934225632109122e+00
0	 1.928565475774854e+01	 4.142847853884783e+01	 9.934995128406937e+00
0	 1.928565475774854e+01	 4.214273393337326e+01	 9.942294147068562e+00
0	 1.928565475774854e+01	 4.285699007784908e+01	 9.957343407911500e+00
0	 1.999995244429753e+01	 3.571445238150556e+01	 1.000496336629412e+01
0	 1.999995244429753e+01	 3.642870477623359e+01	 9.991632047272329e+00
0	 1.999995244429754e+01	 3.714295725428858e+01	 9.977848151371811e+00
0	 1.999995244429754e+01	 3.785720989899840e+01	 9.964504351261542e+00
0	 1.999995244429754e+01	 3.857146279369100e+01	 9.952493317070628e+00
0	 1.999995244429753e+01	 3.928571602169433e+01	 9.942707716388290e+00
0	 1.999995244429753e+01	 3.999996966633629e+01	 9.936040214263871e+00
0	 1.999995244429754e+01	 4.071422381094481e+01	 9.933383473206877e+00
0	 1.999995244429753e+01	 4.142847853884784e+01	 9.935630153186988e+00
0	 1.999995244429753e+01	 4.214273393337328e+01	 9.943672911634064e+00
0	 1.999995244429753e+01	 4.285699007784908e+01	 9.958404403438218e+00
0	 2.071424879750816e+01	 3.571445238150557e+01	 9.996608315952374e+00
0	 2.071424879750816e+01	 3.642870477623360e+01	 9.981473044184101e+00
0	 2.071424879750816e+01	 3.714295725428858e+01	 9.967580235760627e+00
0	 2.071424879750815e+01	 3.785720989899840e+01	 9.955434749207642e+00
0	 2.071424879750815e+01	 3.857146279369100e+01	 9.945541440675425e+00
0	 2.071424879750816e+01	 3.928571602169432e+01	 9.938405163938917e+00
0	 2.071424879750816e+01	 3.999996966633629e+01	 9.934530770397616e+00
0	 2.071424879750816e+01	 4.071422381094482e+01	 9.934423109075720e+00
0	 2.071424879750816e+01	 4.142847853884783e+01	 9.938587026622045e+00
0	 2.071424879750816e+01	 4.214273393337326e+01	 9.947527367310114e+00
0	 2.071424879750816e+01	 4.285699007784908e+01	 9.961748973038125e+00
0	 2.142854365071297e+01	 3.571445238150556e+01	 9.982401488768051e+00
0	 2.142854365071297e+01	 3.642870477623361e+01	 9.966752477348324e+00
0	 2.142854365071296e+01	 3.714295725428858e+01	 9.954103735942734e+00
0	 2.142854365071296e+01	 3.785720989899840e+01	 9.944512559474759e+00
0	 2.142854365071296e+01	 3.857146279369100e+01	 9.938036240797821e+00
0	 2.142854365071296e+01	 3.928571602169432e+01	 9.934732070695198e+00
0	 2.142854365071296e+01	 3.999996966633628e+01	 9.934657337880084e+00
0	 2.142854365071296e+01	 4.071422381094482e+01	 9.937869328995607e+00
0	 2.142854365071296e+01	 4.142847853884783e+01	 9.944425328614823e+00
0	 2.142854365071296e+01	 4.214273393337329e+01	 9.954382619240750e+00
0	 2.142854365071296e+01	 4.285699007784907e+01	 9.967798481306415e+00
0	 1.428554761849445e+01	 4.285699007784908e+01	 9.978462262073981e+00
0	 1.428554761849444e+01	 4.357129694500737e+01	 1.000413226173872e+01
0	 1.428554761849444e+01	 4.428560406221393e+01	 1.002645610515859e+01
0	 1.428554761849444e+01	 4.499991084612204e+01	 1.004404857101305e+01
0	 1.428554761849444e+01	 4.571421671338500e+01	 1.005552439613987e+01
0	 1.428554761849444e+01	 4.642852108065614e+01	 1.005949827553511e+01
0	 1.428554761849445e+01	 4.714282336458874e+01	 1.005458486235264e+01
0	 1.428554761849444e+01	 4.785712298183613e+01	 1.003939876790325e+01
0	 1.428554761849444e+01	 4.857141934905160e+01	 1.001255456165298e+01
0	 1.428554761849445e+01	 4.928571188288846e+01	 9.972666771221345e+00
0	 1.428554761849444e+01	 5.000000000000000e+01	 9.918349882378569e+00
0	 1.499984997172427e+01	 4.285699007784908e+01	 9.975336297836346e+00
0	 1.499984997172426e+01	 4.357129694500736e+01	 9.999496359143363e+00
0	 1.499984997172426e+01	 4.428560406221391e+01	 1.002141293784130e+01
0	 1.499984997172426e+01	 4.499991084612203e+01	 1.003947243624480e+01
0	 1.499984997172426e+01	 4.571421671338501e+01	 1.005206121825976e+01
0	 1.499984997172426e+01	 4.642852108065613e+01	 1.005756560938342e+01
0	 1.499984997172426e+01	 4.714282336458875e+01	 1.005437189670389e+01
0	 1.499984997172426e+01	 4.785712298183612e+01	 1.004086632889929e+01
0	 1.499984997172426e+01	 4.857141934905160e+01	 1.001543511623639e+01
0	 1.499984997172426e+01	 4.928571188288846e+01	 9.976464430568820e+00
0	 1.499984997172426e+01	 5.000000000000000e+01	 9.922340405334658e+00
0	 1.571415215828766e+01	 4.285699007784908e+01	 9.971544405477442e+00
0	 1.571415215828766e+01	 4.357129694500737e+01	 9.994597339519547e+00
0	 1.571415215828766e+01	 4.428560406221393e+01	 1.001620060979927e+01
0	 1.571415215828766e+01	 4.499991084612203e+01	 1.003459145856419e+01
0	 1.571415215828766e+01	 4.571421671338501e+01	 1.004800709252646e+01
0	 1.571415215828766e+01	 4.642852108065615e+01	 1.005468468286303e+01
0	 1.571415215828766e+01	 4.714282336458876e+01	 1.005286136521516e+01
0	 1.571415215828766e+01	 4.785712298183612e+01	 1.004077423968770e+01
0	 1.571415215828766e+01	 4.857141934905160e+01	 1.001666037084769e+01
0	 1.571415215828766e+01	 4.928571188288846e+01	 9.978756787722981e+00
0	 1.571415215828766e+01	 5.000000000000001e+01	 9.925300483799703e+00
0	 1.642845401151721e+01	 4.285699007784907e+01	 9.967507937099757e+00
0	 1.642845401151722e+01	 4.357129694500738e+01	 9.989732438422648e+00
0	 1.642845401151721e+01	 4.428560406221392e+01	 1.001102077372466e+01
0	 1.642845401151722e+01	 4.499991084612203e+01	 1.002954024123353e+01
0	 1.642845401151721e+01	 4.571421671338500e+01	 1.004345810609528e+01
0	 1.642845401151721e+01	 4.642852108065613e+01	 1.005094160037424e+01
0	 1.642845401151722e+01	 4.714282336458874e+01	 1.005015792305282e+01
0	 1.642845401151721e+01	 4.785712298183612e+01	 1.003927424003071e+01
0	 1.642845401151722e+01	 4.857141934905160e+01	 1.001645768412360e+01
0	 1.642845401151721e+01	 4.928571188288846e+01	 9.979875355061983e+00
0	 1.642845401151722e+01	 5.000000000000000e+01	 9.927694319488761e+00
0	 1.714275536474550e+01	 4.285699007784908e+01	 9.963648246590347e+00
0	 1.714275536474550e+01	 4.357129694500738e+01	 9.985198893055482e+00
0	 1.714275536474550e+01	 4.428560406221391e+01	 1.000607508354736e+01
0	 1.714275536474550e+01	 4.499991084612203e+01	 1.002445338818168e+01
0	 1.714275536474550e+01	 4.571421671338501e+01	 1.003851034616608e+01
0	 1.714275536474550e+01	 4.642852108065615e+01	 1.004642246580021e+01
0	 1.714275536474550e+01	 4.714282336458875e+01	 1.004636622447542e+01
0	 1.714275536474550e+01	 4.785712298183613e+01	 1.003651806867410e+01
0	 1.714275536474550e+01	 4.857141934905160e+01	 1.001505441396862e+01
0	 1.714275536474550e+01	 4.928571188288845e+01	 9.980151645019838e+00
0	 1.714275536474550e+01	 4.999999999999999e+01	 9.929986115575410e+00
0	 1.785705605130510e+01	 4.285699007784908e+01	 9.960386689620863e+00
0	 1.785705605130510e+01	 4.357129694500737e+01	 9.981293942268366e+00
0	 1.785705605130510e+01	 4.428560406221392e+01	 1.000156519443516e+01
0	 1.785705605130510e+01	 4.499991084612202e+01	 1.001946550400410e+01
0	 1.785705605130510e+01	 4.571421671338501e+01	 1.003325989998347e+01
0	 1.785705605130510e+01	 4.642852108065613e+01	 1.004121338250702e+01
0	 1.785705605130510e+01	 4.714282336458876e+01	 1.004159092283379e+01
0	 1.785705605130509e+01	 4.785712298183613e+01	 1.003265746334737e+01
0	 1.785705605130510e+01	 4.857141934905161e+01	 1.001267791755505e+01
0	 1.785705605130510e+01	 4.928571188288846e+01	 9.979917170086418e+00
0	 1.785705605130510e+01	 5.000000000000000e+01	 9.932640076691701e+00
0	 1.857135590452858e+01	 4.285699007784907e+01	 9.958144623647595e+00
0	 1.857135590452858e+01	 4.357129694500737e+01	 9.978314826559073e+00
0	 1.857135590452859e+01	 4.428560406221392e+01	 9.997692762793676e+00
0	 1.857135590452858e+01	 4.499991084612203e+01	 1.001471119396289e+01
0	 1.857135590452859e+01	 4.571421671338500e+01	 1.002780285483666e+01
0	 1.857135590452858e+01	 4.642852108065613e+01	 1.003540045334366e+01
0	 1.857135590452858e+01	 4.714282336458874e+01	 1.003593667057093e+01
0	 1.857135590452858e+01	 4.785712298183611e+01	 1.002784416076342e+01
0	 1.857135590452858e+01	 4.857141934905161e+01	 1.000955555132303e+01
0	 1.857135590452858e+01	 4.928571188288845e+01	 9.979503442807378e+00
0	 1.857135590452858e+01	 5.000000000000000e+01	 9.936120408928357e+00
0	 1.928565475774854e+01	 4.285699007784908e+01	 9.957343407911496e+00
0	 1.928565475774854e+01	 4.357129694500738e+01	 9.976558788072946e+00
0	 1.928565475774854e+01	 4.428560406221393e+01	 9.994659446266466e+00
0	 1.928565475774854e+01	 4.499991084612203e+01	 1.001032506398673e+01
0	 1.928565475774853e+01	 4.571421671338499e+01	 1.002223529805955e+01
0	 1.928565475774853e+01	 4.642852108065613e+01	 1.002906978064197e+01
0	 1.928565475774854e+01	 4.714282336458874e+01	 1.002950811922217e+01
0	 1.928565475774854e+01	 4.785712298183613e+01	 1.002222989661883e+01
0	 1.928565475774854e+01	 4.857141934905160e+01	 1.000591467098050e+01
0	 1.928565475774854e+01	 4.928571188288846e+01	 9.979241975784257e+00
0	 1.928565475774854e+01	 5.000000000000000e+01	 9.940891319834620e+00
0	 1.999995244429753e+01	 4.285699007784908e+01	 9.958404403438214e+00
0	 1.999995244429754e+01	 4.357129694500737e+01	 9.976323070602851e+00
0	 1.999995244429753e+01	 4.428560406221391e+01	 9.992666903734928e+00
0	 1.999995244429754e+01	 4.499991084612203e+01	 1.000644172067101e+01
0	 1.999995244429754e+01	 4.571421671338501e+01	 1.001665331703073e+01
0	 1.999995244429754e+01	 4.642852108065614e+01	 1.002230746621681e+01
0	 1.999995244429753e+01	 4.714282336458875e+01	 1.002240991941503e+01
0	 1.999995244429754e+01	 4.785712298183613e+01	 1.001596640559377e+01
0	 1.999995244429754e+01	 4.857141934905161e+01	 1.000198263150320e+01
0	 1.999995244429753e+01	 4.928571188288845e+01	 9.979464281674499e+00
0	 1.999995244429753e+01	 5.000000000000000e+01	 9.947417018418459e+00
0	 2.071424879750816e+01	 4.285699007784908e+01	 9.961748973038123e+00
0	 2.071424879750815e+01	 4.357129694500737e+01	 9.977904919589314e+00
0	 2.071424879750816e+01	 4.428560406221393e+01	 9.991916795318490e+00
0	 2.071424879750816e+01	 4.499991084612203e+01	 1.000319577127782e+01
0	 2.071424879750816e+01	 4.571421671338500e+01	 1.001115299917350e+01
0	 2.071424879750815e+01	 4.642852108065613e+01	 1.001519961136588e+01
0	 2.071424879750816e+01	 4.714282336458874e+01	 1.001474672086931e+01
0	 2.071424879750816e+01	 4.785712298183612e+01	 1.000920542135187e+01
0	 2.071424879750815e+01	 4.857141934905159e+01	 9.997986787134733e+00
0	 2.071424879750815e+01	 4.928571188288845e+01	 9.980501873191326e+00
0	 2.071424879750816e+01	 5.000000000000000e+01	 9.956161715146379e+00
0	 2.142854365071296e+01	 4.285699007784907e+01	 9.967798481306414e+00
0	 2.142854365071296e+01	 4.357129694500738e+01	 9.981601582120472e+00
0	 2.142854365071296e+01	 4.428560406221393e+01	 9.992610782374499e+00
0	 2.142854365071296e+01	 4.499991084612203e+01	 1.000072182373588e+01
0	 2.142854365071296e+01	 4.571421671338500e+01	 1.000583043195587e+01
0	 2.142854365071296e+01	 4.642852108065613e+01	 1.000783231686982e+01
0	 2.142854365071296e+01	 4.714282336458874e+01	 1.000662317239700e+01
0	 2.142854365071296e+01	 4.785712298183613e+01	 1.000209867654042e+01
0	 2.142854365071296e+01	 4.857141934905160e+01	 9.994154491386453e+00
0	 2.142854365071296e+01	 4.928571188288846e+01	 9.982686263103952e+00
0	 2.142854365071296e+01	 5.000000000000001e+01	 9.967589621943713e+00
0	 2.142854365071296e+01	 0.000000000000000e+00	-4.784339814318334e+00
0	 2.142854365071296e+01	 7.142881171115512e-01	 6.103199355632505e-02
0	 2.142854365071297e+01	 1.428580650948409e+00	 4.171196412277475e+00
0	 2.142854365071296e+01	 2.142877018163878e+00	 7.566267940524078e+00
0	 2.142854365071296e+01	 2.857176635411264e+00	 1.026635819813623e+01
0	 2.142854365071296e+01	 3.571478919343873e+00	 1.229157592632039e+01
0	 2.142854365071296e+01	 4.285783286615009e+00	 1.366202698781946e+01
0	 2.142854365071296e+01	 5.000089153877975e+00	 1.439781436704746e+01
0	 2.142854365071296e+01	 5.714395937786081e+00	 1.451903817018907e+01
0	 2.142854365071296e+01	 6.428703054992630e+00	 1.404579562526375e+01
0	 2.142854365071297e+01	 7.143009922150927e+00	 1.299818108215478e+01
0	 2.214283692057824e+01	 0.000000000000000e+00	-6.673539856579322e+00
0	 2.214283692057823e+01	 7.142881171115514e-01	-1.409021034942694e+00
0	 2.214283692057824e+01	 1.428580650948409e+00	 3.124479460614529e+00
0	 2.214283692057824e+01	 2.142877018163879e+00	 6.931221401989760e+00
0	 2.214283692057824e+01	 2.857176635411265e+00	 1.001546103201892e+01
0	 2.214283692057824e+01	 3.571478919343871e+00	 1.238145106472900e+01
0	 2.214283692057824e+01	 4.285783286615008e+00	 1.403344068554744e+01
0	 2.214283692057824e+01	 5.000089153877977e+00	 1.497567555146814e+01
0	 2.214283692057824e+01	 5.714395937786080e+00	 1.521239779117446e+01
0	 2.214283692057824e+01	 6.428703054992628e+00	 1.474784600511881e+01
0	 2.214283692057824e+01	 7.143009922150926e+00	 1.358625526555909e+01
0	 2.285712885710494e+01	 0.000000000000000e+00	-6.673316723234954e+00
0	 2.285712885710494e+01	 7.142881171115515e-01	-1.550586255161075e+00
0	 2.285712885710494e+01	 1.428580650948409e+00	 2.909672469835154e+00
0	 2.285712885710493e+01	 2.142877018163878e+00	 6.698645105004381e+00
0	 2.285712885710494e+01	 2.857176635411264e+00	 9.807513560260979e+00
0	 2.285712885710494e+01	 3.571478919343873e+00	 1.222745600245141e+01
0	 2.285712885710494e+01	 4.285783286615009e+00	 1.394964685557678e+01
0	 2.285712885710493e+01	 5.000089153877974e+00	 1.496525680096948e+01
0	 2.285712885710493e+01	 5.714395937786078e+00	 1.526545277742404e+01
0	 2.285712885710494e+01	 6.428703054992631e+00	 1.484139798128207e+01
0	 2.285712885710494e+01	 7.143009922150927e+00	 1.368425186647140e+01
0	 2.357141979362770e+01	 0.000000000000000e+00	-5.155317929678505e+00
0	 2.357141979362770e+01	 7.142881171115514e-01	-6.195397046823616e-01
0	 2.357141979362770e+01	 1.428580650948409e+00	 3.371286466548053e+00
0	 2.357141979362770e+01	 2.142877018163878e+00	 6.798053271172945e+00
0	 2.357141979362770e+01	 2.857176635411264e+00	 9.641649799298445e+00
0	 2.357141979362770e+01	 3.571478919343873e+00	 1.188296154423470e+01
0	 2.357141979362771e+01	 4.285783286615009e+00	 1.350287040271002e+01
0	 2.357141979362770e+01	 5.000089153877974e+00	 1.448225467504087e+01
0	 2.357141979362770e+01	 5.714395937786081e+00	 1.480198906525778e+01
0	 2.357141979362770e+01	 6.428703054992629e+00	 1.444294468118735e+01
0	 2.357141979362770e+01	 7.143009922150926e+00	 1.338598903449001e+01
0	 2.428571006348117e+01	 0.000000000000000e+00	-2.491190227421940e+00
0	 2.428571006348117e+01	 7.142881171115510e-01	 1.128243033334738e+00
0	 2.428571006348117e+01	 1.428580650948409e+00	 4.353832691212906e+00
0	 2.428571006348118e+01	 2.142877018163878e+00	 7.158960156466303e+00
0	 2.428571006348117e+01	 2.857176635411265e+00	 9.517003673742872e+00
0	 2.428571006348118e+01	 3.571478919343873e+00	 1.140133832231205e+01
0	 2.428571006348117e+01	 4.285783286615008e+00	 1.278533601625329e+01
0	 2.428571006348118e+01	 5.000089153877976e+00	 1.364236550460581e+01
0	 2.428571006348117e+01	 5.714395937786081e+00	 1.394579237147957e+01
0	 2.428571006348117e+01	 6.428703054992627e+00	 1.366897903612740e+01
0	 2.428571006348117e+01	 7.143009922150927e+00	 1.278528475297851e+01
0	 2.500000000000001e+01	 0.000000000000000e+00	 9.474203959187493e-01
0	 2.500000000000001e+01	 7.142881171115514e-01	 3.436886830164969e+00
0	 2.500000000000001e+01	 1.428580650948409e+00	 5.701822598144311e+00
0	 2.500000000000000e+01	 2.142877018163878e+00	 7.710880051221579e+00
0	 2.500000000000001e+01	 2.857176635411265e+00	 9.432709016379333e+00
0	 2.500000000000001e+01	 3.571478919343873e+00	 1.083595679639913e+01
0	 2.500000000000001e+01	 4.285783286615009e+00	 1.188926817001196e+01
0	 2.500000000000001e+01	 5.000089153877975e+00	 1.256128539201753e+01
0	 2.500000000000001e+01	 5.714395937786082e+00	 1.282064819337296e+01
0	 2.500000000000000e+01	 6.428703054992628e+00	 1.263599378125017e+01
0	 2.500000000000000e+01	 7.143009922150926e+00	 1.197595683906268e+01
0	 2.571428993651884e+01	 0.000000000000000e+00	 4.788868716632916e+00
0	 2.571428993651883e+01	 7.142881171115512e-01	 6.050517011521970e+00
0	 2.571428993651884e+01	 1.428580650948409e+00	 7.259767855514182e+00
0	 2.571428993651884e+01	 2.142877018163879e+00	 8.383327280142360e+00
0	 2.571428993651883e+01	 2.857176635411264e+00	 9.387899568165023e+00
0	 2.571428993651884e+01	 3.571478919343873e+00	 1.024018725369187e+01
0	 2.571428993651883e+01	 4.285783286615008e+00	 1.090689112228788e+01
0	 2.571428993651885e+01	 5.000089153877976e+00	 1.135471021105602e+01
0	 2.571428993651883e+01	 5.714395937786081e+00	 1.155034180869846e+01
0	 2.571428993651884e+01	 6.428703054992630e+00	 1.146048145555639e+01
0	 2.571428993651883e+01	 7.143009922150926e+00	 1.105182294362848e+01
0	 2.642858020637231e+01	 0.000000000000000e+00	 8.661510274919253e+00
0	 2.642858020637231e+01	 7.142881171115515e-01	 8.713259357560529e+00
0	 2.642858020637231e+01	 1.428580650948409e+00	 8.872180345352660e+00
0	 2.642858020637231e+01	 2.142877018163878e+00	 9.105816202298652e+00
0	 2.642858020637231e+01	 2.857176635411265e+00	 9.381708978228627e+00
0	 2.642858020637231e+01	 3.571478919343873e+00	 9.667399808865275e+00
0	 2.642858020637232e+01	 4.285783286615009e+00	 9.930428915878158e+00
0	 2.642858020637231e+01	 5.000089153877977e+00	 1.013833560692675e+01
0	 2.642858020637231e+01	 5.714395937786080e+00	 1.025865827569232e+01
0	 2.642858020637232e+01	 6.428703054992629e+00	 1.025893440189859e+01
0	 2.642858020637231e+01	 7.143009922150926e+00	 1.010670055132121e+01
0	 2.714287114289507e+01	 0.000000000000000e+00	 1.219370137488450e+01
0	 2.714287114289507e+01	 7.142881171115513e-01	 1.116924010287565e+01
0	 2.714287114289507e+01	 1.428580650948409e+00	 1.038357216354759e+01
0	 2.714287114289507e+01	 2.142877018163879e+00	 9.807861211126600e+00
0	 2.714287114289508e+01	 2.857176635411265e+00	 9.413270803870166e+00
0	 2.714287114289507e+01	 3.571478919343872e+00	 9.170964404073578e+00
0	 2.714287114289507e+01	 4.285783286615009e+00	 9.052105378075257e+00
0	 2.714287114289507e+01	 5.000089153877976e+00	 9.027856996260979e+00
0	 2.714287114289508e+01	 5.714395937786081e+00	 9.069382433066918e+00
0	 2.714287114289507e+01	 6.428703054992627e+00	 9.147844766981448e+00
0	 2.714287114289508e+01	 7.143009922150927e+00	 9.234406980545895e+00
0	 2.785716307942177e+01	 0.000000000000000e+00	 1.501379908453666e+01
0	 2.785716307942177e+01	 7.142881171115513e-01	 1.316258593649847e+01
0	 2.785716307942177e+01	 1.428580650948409e+00	 1.163845561984239e+01
0	 2.785716307942177e+01	 2.142877018163878e+00	 1.041897673442791e+01
0	 2.785716307942178e+01	 2.857176635411265e+00	 9.481718510561659e+00
0	 2.785716307942177e+01	 3.571478919343873e+00	 8.804250808951558e+00
0	 2.785716307942177e+01	 4.285783286615009e+00	 8.364144120668847e+00
0	 2.785716307942177e+01	 5.000089153877974e+00	 8.138969567117682e+00
0	 2.785716307942177e+01	 5.714395937786081e+00	 8.106298900012600e+00
0	 2.785716307942178e+01	 6.428703054992629e+00	 8.243704501363551e+00
0	 2.785716307942178e+01	 7.143009922150927e+00	 8.528759383468806e+00
0	 2.857145634928704e+01	 0.000000000000000e+00	 1.675016123577301e+01
0	 2.857145634928703e+01	 7.142881171115513e-01	 1.443742400188892e+01
0	 2.857145634928704e+01	 1.428580650948409e+00	 1.248134323783250e+01
0	 2.857145634928704e+01	 2.142877018163878e+00	 1.086867723436916e+01
0	 2.857145634928703e+01	 2.857176635411264e+00	 9.586185471948266e+00
0	 2.857145634928704e+01	 3.571478919343873e+00	 8.620628620617032e+00
0	 2.857145634928704e+01	 4.285783286615009e+00	 7.958768539948990e+00
0	 2.857145634928704e+01	 5.000089153877975e+00	 7.587368278987046e+00
0	 2.857145634928703e+01	 5.714395937786080e+00	 7.493192076201150e+00
0	 2.857145634928704e+01	 6.428703054992629e+00	 7.663005359460437e+00
0	 2.857145634928703e+01	 7.143009922150926e+00	 8.083574746020078e+00
0	 2.142854365071297e+01	 7.143009922150927e+00	 1.299818108215478e+01
0	 2.142854365071296e+01	 7.857266066626718e+00	 1.176789386943098e+01
0	 2.142854365071296e+01	 8.571521461152164e+00	 1.072977115498751e+01
0	 2.142854365071296e+01	 9.285776189055184e+00	 9.878890699086867e+00
0	 2.142854365071297e+01	 1.000003033366371e+01	 9.210330147203166e+00
0	 2.142854365071296e+01	 1.071428397830567e+01	 8.719167030020735e+00
0	 2.142854365071296e+01	 1.142853720630899e+01	 8.400478763432943e+00
0	 2.142854365071297e+01	 1.214279010100160e+01	 8.249342648541276e+00
0	 2.142854365071296e+01	 1.285704274571142e+01	 8.260835871654553e+00
0	 2.142854365071296e+01	 1.357129522376639e+01	 8.430035504288387e+00
0	 2.142854365071296e+01	 1.428554761849444e+01	 8.752018503164823e+00
0	 2.214283692057824e+01	 7.143009922150926e+00	 1.358625526555909e+01
0	 2.214283692057824e+01	 7.857266066626720e+00	 1.218704155564843e+01
0	 2.214283692057824e+01	 8.571521461152162e+00	 1.100329750954945e+01
0	 2.214283692057824e+01	 9.285776189055181e+00	 1.003008724901962e+01
0	 2.214283692057823e+01	 1.000003033366371e+01	 9.262474760603839e+00
0	 2.214283692057824e+01	 1.071428397830567e+01	 8.695523895632807e+00
0	 2.214283692057823e+01	 1.142853720630899e+01	 8.324298370221662e+00
0	 2.214283692057823e+01	 1.214279010100160e+01	 8.143861765268854e+00
0	 2.214283692057824e+01	 1.285704274571142e+01	 8.149277526455247e+00
0	 2.214283692057824e+01	 1.357129522376640e+01	 8.335608964243452e+00
0	 2.214283692057824e+01	 1.428554761849444e+01	 8.697919253877405e+00
0	 2.285712885710494e+01	 7.143009922150927e+00	 1.368425186647140e+01
0	 2.285712885710494e+01	 7.857266066626718e+00	 1.226806038566215e+01
0	 2.285712885710493e+01	 8.571521461152161e+00	 1.106932383803339e+01
0	 2.285712885710493e+01	 9.285776189055182e+00	 1.008320087312172e+01
0	 2.285712885710494e+01	 1.000003033366371e+01	 9.304850000141695e+00
0	 2.285712885710495e+01	 1.071428397830567e+01	 8.729429587984086e+00
0	 2.285712885710494e+01	 1.142853720630899e+01	 8.352097865214539e+00
0	 2.285712885710493e+01	 1.214279010100160e+01	 8.168012920072350e+00
0	 2.285712885710494e+01	 1.285704274571142e+01	 8.172332700469495e+00
0	 2.285712885710494e+01	 1.357129522376640e+01	 8.360215013990015e+00
0	 2.285712885710494e+01	 1.428554761849444e+01	 8.726817527889501e+00
0	 2.357141979362770e+01	 7.143009922150926e+00	 1.338598903449001e+01
0	 2.357141979362770e+01	 7.857266066626717e+00	 1.207633791797674e+01
0	 2.357141979362770e+01	 8.571521461152166e+00	 1.096867384064436e+01
0	 2.357141979362770e+01	 9.285776189055182e+00	 1.005835816659149e+01
0	 2.357141979362770e+01	 1.000003033366371e+01	 9.340752127093252e+00
0	 2.357141979362770e+01	 1.071428397830567e+01	 8.811216820599720e+00
0	 2.357141979362770e+01	 1.142853720630899e+01	 8.465113212734529e+00
0	 2.357141979362770e+01	 1.214279010100160e+01	 8.297802136293795e+00
0	 2.357141979362770e+01	 1.285704274571142e+01	 8.304644291245195e+00
0	 2.357141979362770e+01	 1.357129522376639e+01	 8.481000244727326e+00
0	 2.357141979362770e+01	 1.428554761849444e+01	 8.822230431049263e+00
0	 2.428571006348117e+01	 7.143009922150927e+00	 1.278528475297851e+01
0	 2.428571006348117e+01	 7.857266066626718e+00	 1.167726157475225e+01
0	 2.428571006348117e+01	 8.571521461152159e+00	 1.074217110956753e+01
0	 2.428571006348117e+01	 9.285776189055184e+00	 9.975685643063278e+00
0	 2.428571006348118e+01	 1.000003033366371e+01	 9.373477345455058e+00
0	 2.428571006348118e+01	 1.071428397830567e+01	 8.931218271533659e+00
0	 2.428571006348118e+01	 1.142853720630899e+01	 8.644580360663880e+00
0	 2.428571006348117e+01	 1.214279010100160e+01	 8.509235436783609e+00
0	 2.428571006348117e+01	 1.285704274571142e+01	 8.520855208402997e+00
0	 2.428571006348117e+01	 1.357129522376639e+01	 8.675111268603922e+00
0	 2.428571006348118e+01	 1.428554761849444e+01	 8.967675095039585e+00
0	 2.500000000000000e+01	 7.143009922150926e+00	 1.197595683906268e+01
0	 2.500000000000000e+01	 7.857266066626717e+00	 1.113621864180174e+01
0	 2.500000000000000e+01	 8.571521461152161e+00	 1.043063912896619e+01
0	 2.500000000000001e+01	 9.285776189055186e+00	 9.855309734605957e+00
0	 2.500000000000000e+01	 1.000003033366371e+01	 9.406321801942553e+00
0	 2.500000000000001e+01	 1.071428397830567e+01	 9.079766583368002e+00
0	 2.500000000000000e+01	 1.142853720630899e+01	 8.871735240443863e+00
0	 2.500000000000001e+01	 1.214279010100160e+01	 8.778318843900502e+00
0	 2.500000000000001e+01	 1.285704274571142e+01	 8.795608373636421e+00
0	 2.500000000000000e+01	 1.357129522376639e+01	 8.919694718717853e+00
0	 2.500000000000000e+01	 1.428554761849444e+01	 9.146668677378418e+00
0	 2.571428993651883e+01	 7.143009922150926e+00	 1.105182294362848e+01
0	 2.571428993651883e+01	 7.857266066626718e+00	 1.051859626858961e+01
0	 2.571428993651883e+01	 8.571521461152162e+00	 1.007490127498056e+01
0	 2.571428993651884e+01	 9.285776189055184e+00	 9.717356791721965e+00
0	 2.571428993651883e+01	 1.000003033366371e+01	 9.442581585989389e+00
0	 2.571428993651884e+01	 1.071428397830567e+01	 9.247194363212500e+00
0	 2.571428993651884e+01	 1.142853720630899e+01	 9.127813767074455e+00
0	 2.571428993651884e+01	 1.214279010100160e+01	 9.081058379511351e+00
0	 2.571428993651883e+01	 1.285704274571143e+01	 9.103546720711826e+00
0	 2.571428993651883e+01	 1.357129522376639e+01	 9.191897249116725e+00
0	 2.571428993651884e+01	 1.428554761849445e+01	 9.342728361418866e+00
0	 2.642858020637231e+01	 7.143009922150926e+00	 1.010670055132121e+01
0	 2.642858020637231e+01	 7.857266066626718e+00	 9.889781468230977e+00
0	 2.642858020637231e+01	 8.571521461152164e+00	 9.715780815727211e+00
0	 2.642858020637231e+01	 9.285776189055182e+00	 9.581953083346965e+00
0	 2.642858020637231e+01	 1.000003033366371e+01	 9.485552729747200e+00
0	 2.642858020637232e+01	 1.071428397830567e+01	 9.423834182704393e+00
0	 2.642858020637231e+01	 1.142853720630899e+01	 9.394051839114184e+00
0	 2.642858020637231e+01	 1.214279010100160e+01	 9.393460064991107e+00
0	 2.642858020637231e+01	 1.285704274571142e+01	 9.419313195468362e+00
0	 2.642858020637231e+01	 1.357129522376640e+01	 9.468865534797670e+00
0	 2.642858020637231e+01	 1.428554761849444e+01	 9.539371356349129e+00
0	 2.714287114289508e+01	 7.143009922150927e+00	 9.234406980545899e+00
0	 2.714287114289507e+01	 7.857266066626718e+00	 9.315161117491998e+00
0	 2.714287114289508e+01	 8.571521461152164e+00	 9.394100911299390e+00
0	 2.714287114289507e+01	 9.285776189055186e+00	 9.469224796849971e+00
0	 2.714287114289507e+01	 1.000003033366371e+01	 9.538531208085676e+00
0	 2.714287114289507e+01	 1.071428397830567e+01	 9.600018578008438e+00
0	 2.714287114289507e+01	 1.142853720630899e+01	 9.651685338680153e+00
0	 2.714287114289509e+01	 1.214279010100160e+01	 9.691529921222687e+00
0	 2.714287114289507e+01	 1.285704274571142e+01	 9.717550755817784e+00
0	 2.714287114289508e+01	 1.357129522376640e+01	 9.727746271707131e+00
0	 2.714287114289507e+01	 1.428554761849444e+01	 9.720114897192257e+00
0	 2.785716307942178e+01	 7.143009922150927e+00	 8.528759383468806e+00
0	 2.785716307942177e+01	 7.857266066626719e+00	 8.860121956791115e+00
0	 2.785716307942177e+01	 8.571521461152162e+00	 9.150684613768005e+00
0	 2.785716307942177e+01	 9.285776189055184e+00	 9.399298038034200e+00
0	 2.785716307942177e+01	 1.000003033366371e+01	 9.604812938593117e+00
0	 2.785716307942177e+01	 1.071428397830567e+01	 9.766080049817184e+00
0	 2.785716307942177e+01	 1.142853720630899e+01	 9.881950131448081e+00
0	 2.785716307942177e+01	 1.214279010100160e+01	 9.951273968596871e+00
0	 2.785716307942178e+01	 1.285704274571143e+01	 9.972902371744214e+00
0	 2.785716307942177e+01	 1.357129522376639e+01	 9.945686176740466e+00
0	 2.785716307942178e+01	 1.428554761849445e+01	 9.868476244805681e+00
0	 2.857145634928703e+01	 7.143009922150926e+00	 8.083574746020078e+00
0	 2.857145634928704e+01	 7.857266066626718e+00	 8.590050590201312e+00
0	 2.857145634928704e+01	 8.571521461152164e+00	 9.026354867183413e+00
0	 2.857145634928704e+01	 9.285776189055182e+00	 9.392298831138330e+00
0	 2.857145634928704e+01	 1.000003033366371e+01	 9.687693781577334e+00
0	 2.857145634928704e+01	 1.071428397830567e+01	 9.912351063351579e+00
0	 2.857145634928704e+01	 1.142853720630899e+01	 1.006608206665250e+01
0	 2.857145634928704e+01	 1.214279010100160e+01	 1.014869822701222e+01
0	 2.857145634928703e+01	 1.285704274571142e+01	 1.016001102530379e+01
0	 2.857145634928704e+01	 1.357129522376639e+01	 1.009983198774145e+01
0	 2.857145634928703e+01	 1.428554761849444e+01	 9.967972685880669e+00
0	 2.142854365071296e+01	 1.428554761849444e+01	 8.752018503164821e+00
0	 2.142854365071297e+01	 1.499984997172426e+01	 9.118233880577179e+00
0	 2.142854365071296e+01	 1.571415215828766e+01	 9.424652871201927e+00
0	 2.142854365071296e+01	 1.642845401151721e+01	 9.673218949587833e+00
0	 2.142854365071296e+01	 1.714275536474550e+01	 9.865875526440110e+00
0	 2.142854365071296e+01	 1.785705605130510e+01	 1.000456594862048e+01
0	 2.142854365071296e+01	 1.857135590452858e+01	 1.009123349914693e+01
0	 2.142854365071297e+01	 1.928565475774854e+01	 1.012782139719338e+01
0	 2.142854365071297e+01	 1.999995244429754e+01	 1.011627279808892e+01
0	 2.142854365071296e+01	 2.071424879750816e+01	 1.005853079331707e+01
0	 2.142854365071296e+01	 2.142854365071296e+01	 9.956538410514604e+00
0	 2.214283692057824e+01	 1.428554761849444e+01	 8.697919253877405e+00
0	 2.214283692057823e+01	 1.499984997172426e+01	 9.109708794593995e+00
0	 2.214283692057824e+01	 1.571415215828766e+01	 9.449761231216705e+00
0	 2.214283692057824e+01	 1.642845401151721e+01	 9.721158672704227e+00
0	 2.214283692057825e+01	 1.714275536474550e+01	 9.926983154258703e+00
0	 2.214283692057824e+01	 1.785705605130510e+01	 1.007031663732578e+01
0	 2.214283692057824e+01	 1.857135590452858e+01	 1.015424100959439e+01
0	 2.214283692057824e+01	 1.928565475774854e+01	 1.018183808499622e+01
0	 2.214283692057824e+01	 1.999995244429753e+01	 1.015618960370498e+01
0	 2.214283692057824e+01	 2.071424879750816e+01	 1.008037723213541e+01
0	 2.214283692057824e+01	 2.142854365071296e+01	 9.957482562941971e+00
0	 2.285712885710494e+01	 1.428554761849444e+01	 8.726817527889501e+00
0	 2.285712885710494e+01	 1.499984997172426e+01	 9.141846749046813e+00
0	 2.285712885710493e+01	 1.571415215828766e+01	 9.480805633575411e+00
0	 2.285712885710494e+01	 1.642845401151721e+01	 9.747641779197151e+00
0	 2.285712885710494e+01	 1.714275536474550e+01	 9.946302708849611e+00
0	 2.285712885710494e+01	 1.785705605130510e+01	 1.008073587068609e+01
0	 2.285712885710494e+01	 1.857135590452858e+01	 1.015488863807537e+01
0	 2.285712885710494e+01	 1.928565475774854e+01	 1.017270830960121e+01
0	 2.285712885710494e+01	 1.999995244429754e+01	 1.013814210906159e+01
0	 2.285712885710493e+01	 2.071424879750816e+01	 1.005513718546771e+01
0	 2.285712885710494e+01	 2.142854365071296e+01	 9.927640613042657e+00
0	 2.357141979362770e+01	 1.428554761849444e+01	 8.822230431049267e+00
0	 2.357141979362770e+01	 1.499984997172426e+01	 9.205881704493434e+00
0	 2.357141979362770e+01	 1.571415215828766e+01	 9.515561591733148e+00
0	 2.357141979362770e+01	 1.642845401151721e+01	 9.755810034401696e+00
0	 2.357141979362770e+01	 1.714275536474550e+01	 9.931166905560104e+00
0	 2.357141979362770e+01	 1.785705605130509e+01	 1.004617200969715e+01
0	 2.357141979362770e+01	 1.857135590452859e+01	 1.010536508272920e+01
0	 2.357141979362769e+01	 1.928565475774853e+01	 1.011328579199965e+01
0	 2.357141979362770e+01	 1.999995244429754e+01	 1.007447373627833e+01
0	 2.357141979362770e+01	 2.071424879750816e+01	 9.993468445760533e+00
0	 2.357141979362770e+01	 2.142854365071297e+01	 9.874809382065802e+00
0	 2.428571006348118e+01	 1.428554761849444e+01	 8.967675095039585e+00
0	 2.428571006348118e+01	 1.499984997172427e+01	 9.293047648095524e+00
0	 2.428571006348118e+01	 1.571415215828766e+01	 9.551804642987998e+00
0	 2.428571006348118e+01	 1.642845401151721e+01	 9.748805221969636e+00
0	 2.428571006348117e+01	 1.714275536474550e+01	 9.888908470527255e+00
0	 2.428571006348117e+01	 1.785705605130509e+01	 9.976973417381876e+00
0	 2.428571006348117e+01	 1.857135590452859e+01	 1.001785903448858e+01
0	 2.428571006348117e+01	 1.928565475774854e+01	 1.001642423703611e+01
0	 2.428571006348117e+01	 1.999995244429754e+01	 9.977527883446321e+00
0	 2.428571006348117e+01	 2.071424879750816e+01	 9.906028775373397e+00
0	 2.428571006348117e+01	 2.142854365071296e+01	 9.806785657702909e+00
0	 2.500000000000000e+01	 1.428554761849444e+01	 9.146668677378418e+00
0	 2.500000000000001e+01	 1.499984997172427e+01	 9.394578593618959e+00
0	 2.500000000000000e+01	 1.571415215828766e+01	 9.587310348481219e+00
0	 2.500000000000001e+01	 1.642845401151721e+01	 9.729769143869571e+00
0	 2.500000000000000e+01	 1.714275536474550e+01	 9.826860140678004e+00
0	 2.500000000000001e+01	 1.785705605130510e+01	 9.883488458790168e+00
0	 2.500000000000001e+01	 1.857135590452858e+01	 9.904559177079312e+00
0	 2.500000000000000e+01	 1.928565475774854e+01	 9.894977333407999e+00
0	 2.500000000000000e+01	 1.999995244429753e+01	 9.859647924627687e+00
0	 2.500000000000001e+01	 2.071424879750815e+01	 9.803475906578239e+00
0	 2.500000000000001e+01	 2.142854365071296e+01	 9.731366194087169e+00
0	 2.571428993651884e+01	 1.428554761849445e+01	 9.342728361418867e+00
0	 2.571428993651883e+01	 1.499984997172426e+01	 9.501708581433874e+00
0	 2.571428993651883e+01	 1.571415215828766e+01	 9.619854293197344e+00
0	 2.571428993651883e+01	 1.642845401151721e+01	 9.701843620386944e+00
0	 2.571428993651884e+01	 1.714275536474551e+01	 9.752354663729040e+00
0	 2.571428993651883e+01	 1.785705605130509e+01	 9.776065500998783e+00
0	 2.571428993651883e+01	 1.857135590452858e+01	 9.777654187020030e+00
0	 2.571428993651884e+01	 1.928565475774854e+01	 9.761798753665213e+00
0	 2.571428993651884e+01	 1.999995244429754e+01	 9.733177209855175e+00
0	 2.571428993651883e+01	 2.071424879750815e+01	 9.696467541558876e+00
0	 2.571428993651884e+01	 2.142854365071296e+01	 9.656347711792987e+00
0	 2.642858020637231e+01	 1.428554761849444e+01	 9.539371356349131e+00
0	 2.642858020637231e+01	 1.499984997172426e+01	 9.605671678514659e+00
0	 2.642858020637231e+01	 1.571415215828766e+01	 9.647212085964057e+00
0	 2.642858020637231e+01	 1.642845401151721e+01	 9.668170490123890e+00
0	 2.642858020637231e+01	 1.714275536474550e+01	 9.672724798186728e+00
0	 2.642858020637232e+01	 1.785705605130510e+01	 9.665052913111204e+00
0	 2.642858020637231e+01	 1.857135590452858e+01	 9.649332733622009e+00
0	 2.642858020637232e+01	 1.928565475774854e+01	 9.629742154209953e+00
0	 2.642858020637231e+01	 1.999995244429754e+01	 9.610459065131913e+00
0	 2.642858020637231e+01	 2.071424879750815e+01	 9.595661352410852e+00
0	 2.642858020637232e+01	 2.142854365071296e+01	 9.589526897835754e+00
0	 2.714287114289507e+01	 1.428554761849444e+01	 9.720114897192255e+00
0	 2.714287114289507e+01	 1.499984997172426e+01	 9.697701978439646e+00
0	 2.714287114289508e+01	 1.571415215828766e+01	 9.667159359451970e+00
0	 2.714287114289507e+01	 1.642845401151721e+01	 9.631891609999046e+00
0	 2.714287114289508e+01	 1.714275536474550e+01	 9.595303313346824e+00
0	 2.714287114289507e+01	 1.785705605130510e+01	 9.560799066257388e+00
0	 2.714287114289507e+01	 1.857135590452858e+01	 9.531783478989084e+00
0	 2.714287114289507e+01	 1.928565475774854e+01	 9.511661175296632e+00
0	 2.714287114289507e+01	 1.999995244429753e+01	 9.503836792431359e+00
0	 2.714287114289508e+01	 2.071424879750816e+01	 9.511714981141369e+00
0	 2.714287114289507e+01	 2.142854365071296e+01	 9.538700405671886e+00
0	 2.785716307942178e+01	 1.428554761849445e+01	 9.868476244805681e+00
0	 2.785716307942177e+01	 1.499984997172426e+01	 9.769033601390650e+00
0	 2.785716307942177e+01	 1.571415215828766e+01	 9.677471770174147e+00
0	 2.785716307942178e+01	 1.642845401151722e+01	 9.596148855247140e+00
0	 2.785716307942177e+01	 1.714275536474550e+01	 9.527422989294227e+00
0	 2.785716307942177e+01	 1.785705605130510e+01	 9.473652333593643e+00
0	 2.785716307942177e+01	 1.857135590452858e+01	 9.437195078017488e+00
0	 2.785716307942178e+01	 1.928565475774854e+01	 9.420409441031893e+00
0	 2.785716307942177e+01	 1.999995244429754e+01	 9.425653669697436e+00
0	 2.785716307942177e+01	 2.071424879750815e+01	 9.455286039669524e+00
0	 2.785716307942178e+01	 2.142854365071296e+01	 9.511664855199022e+00
0	 2.857145634928703e+01	 1.428554761849444e+01	 9.967972685880671e+00
0	 2.857145634928704e+01	 1.499984997172426e+01	 9.810900694152364e+00
0	 2.857145634928703e+01	 1.571415215828766e+01	 9.675924998485575e+00
0	 2.857145634928704e+01	 1.642845401151721e+01	 9.564084119418517e+00
0	 2.857145634928704e+01	 1.714275536474550e+01	 9.476416616902608e+00
0	 2.857145634928704e+01	 1.785705605130510e+01	 9.413961090302397e+00
0	 2.857145634928704e+01	 1.857135590452858e+01	 9.377756178395877e+00
0	 2.857145634928703e+01	 1.928565475774853e+01	 9.368840559374728e+00
0	 2.857145634928703e+01	 1.999995244429753e+01	 9.388252950844794e+00
0	 2.857145634928704e+01	 2.071424879750816e+01	 9.437032109826696e+00
0	 2.857145634928704e+01	 2.142854365071296e+01	 9.516216832756561e+00
0	 2.142854365071296e+01	 2.142854365071296e+01	 9.956538410514604e+00
0	 2.142854365071296e+01	 2.214283692057824e+01	 9.843471629608018e+00
0	 2.142854365071296e+01	 2.285712885710494e+01	 9.751004561936718e+00
0	 2.142854365071296e+01	 2.357141979362770e+01	 9.678827347385813e+00
0	 2.142854365071296e+01	 2.428571006348117e+01	 9.626630076525714e+00
0	 2.142854365071296e+01	 2.500000000000001e+01	 9.594102790611171e+00
0	 2.142854365071296e+01	 2.571428993651884e+01	 9.580935481580818e+00
0	 2.142854365071296e+01	 2.642858020637231e+01	 9.586818092056836e+00
0	 2.142854365071296e+01	 2.714287114289507e+01	 9.611440515345144e+00
0	 2.142854365071296e+01	 2.785716307942177e+01	 9.654492595435848e+00
0	 2.142854365071296e+01	 2.857145634928703e+01	 9.715664127004057e+00
0	 2.214283692057824e+01	 2.142854365071296e+01	 9.957482562941971e+00
0	 2.214283692057824e+01	 2.214283692057824e+01	 9.826125211655054e+00
0	 2.214283692057824e+01	 2.285712885710494e+01	 9.722026356070302e+00
0	 2.214283692057824e+01	 2.357141979362770e+01	 9.643919835256352e+00
0	 2.214283692057824e+01	 2.428571006348118e+01	 9.590539432730402e+00
0	 2.214283692057824e+01	 2.500000000000000e+01	 9.560618876457204e+00
0	 2.214283692057824e+01	 2.571428993651884e+01	 9.552891838848254e+00
0	 2.214283692057824e+01	 2.642858020637232e+01	 9.566091936761602e+00
0	 2.214283692057824e+01	 2.714287114289507e+01	 9.598952731501798e+00
0	 2.214283692057824e+01	 2.785716307942177e+01	 9.650207728820517e+00
0	 2.214283692057824e+01	 2.857145634928704e+01	 9.718590378917288e+00
0	 2.285712885710494e+01	 2.142854365071296e+01	 9.927640613042657e+00
0	 2.285712885710494e+01	 2.214283692057824e+01	 9.795137528176681e+00
0	 2.285712885710493e+01	 2.285712885710493e+01	 9.693137001163453e+00
0	 2.285712885710494e+01	 2.357141979362770e+01	 9.619621909736590e+00
0	 2.285712885710494e+01	 2.428571006348118e+01	 9.572575076625062e+00
0	 2.285712885710494e+01	 2.500000000000000e+01	 9.549979269552054e+00
0	 2.285712885710494e+01	 2.571428993651883e+01	 9.549817201234269e+00
0	 2.285712885710494e+01	 2.642858020637232e+01	 9.570071529381636e+00
0	 2.285712885710494e+01	 2.714287114289507e+01	 9.608724856697295e+00
0	 2.285712885710494e+01	 2.785716307942177e+01	 9.663759730878056e+00
0	 2.285712885710494e+01	 2.857145634928704e+01	 9.733158644615276e+00
0	 2.357141979362770e+01	 2.142854365071297e+01	 9.874809382065802e+00
0	 2.357141979362770e+01	 2.214283692057824e+01	 9.755093128964436e+00
0	 2.357141979362770e+01	 2.285712885710493e+01	 9.666181530660351e+00
0	 2.357141979362770e+01	 2.357141979362770e+01	 9.605511851243122e+00
0	 2.357141979362770e+01	 2.428571006348117e+01	 9.570521305804167e+00
0	 2.357141979362770e+01	 2.500000000000001e+01	 9.558647060435701e+00
0	 2.357141979362770e+01	 2.571428993651884e+01	 9.567326232230187e+00
0	 2.357141979362770e+01	 2.642858020637231e+01	 9.593995889279929e+00
0	 2.357141979362770e+01	 2.714287114289508e+01	 9.636093050677211e+00
0	 2.357141979362770e+01	 2.785716307942177e+01	 9.691054686514574e+00
0	 2.357141979362770e+01	 2.857145634928704e+01	 9.756317717885659e+00
0	 2.428571006348117e+01	 2.142854365071296e+01	 9.806785657702909e+00
0	 2.428571006348117e+01	 2.214283692057824e+01	 9.710576529910908e+00
0	 2.428571006348118e+01	 2.285712885710494e+01	 9.643004946542568e+00
0	 2.428571006348118e+01	 2.357141979362770e+01	 9.601167913368837e+00
0	 2.428571006348118e+01	 2.428571006348118e+01	 9.582162397305019e+00
0	 2.428571006348117e+01	 2.500000000000000e+01	 9.583085326409972e+00
0	 2.428571006348117e+01	 2.571428993651883e+01	 9.601033589885599e+00
0	 2.428571006348117e+01	 2.642858020637231e+01	 9.633104038076633e+00
0	 2.428571006348118e+01	 2.714287114289508e+01	 9.676393482470649e+00
0	 2.428571006348117e+01	 2.785716307942176e+01	 9.727998695698393e+00
0	 2.428571006348117e+01	 2.857145634928703e+01	 9.785016411534386e+00
0	 2.500000000000001e+01	 2.142854365071296e+01	 9.731366194087169e+00
0	 2.500000000000001e+01	 2.214283692057824e+01	 9.666172213009128e+00
0	 2.500000000000000e+01	 2.285712885710494e+01	 9.625452219328491e+00
0	 2.500000000000000e+01	 2.357141979362770e+01	 9.606168322882455e+00
0	 2.500000000000000e+01	 2.428571006348117e+01	 9.605282607607357e+00
0	 2.500000000000001e+01	 2.500000000000000e+01	 9.619757131538190e+00
0	 2.500000000000000e+01	 2.571428993651883e+01	 9.646553926808265e+00
0	 2.500000000000001e+01	 2.642858020637231e+01	 9.682634999649071e+00
0	 2.500000000000000e+01	 2.714287114289507e+01	 9.724962330390358e+00
0	 2.500000000000001e+01	 2.785716307942178e+01	 9.770497873460304e+00
0	 2.500000000000001e+01	 2.857145634928704e+01	 9.816203557385970e+00
0	 2.571428993651884e+01	 2.142854365071296e+01	 9.656347711792987e+00
0	 2.571428993651884e+01	 2.214283692057824e+01	 9.626464626352053e+00
0	 2.571428993651883e+01	 2.285712885710494e+01	 9.615368288072883e+00
0	 2.571428993651883e+01	 2.357141979362770e+01	 9.620091279728138e+00
0	 2.571428993651883e+01	 2.428571006348117e+01	 9.637666172633004e+00
0	 2.571428993651883e+01	 2.500000000000000e+01	 9.665125526645022e+00
0	 2.571428993651883e+01	 2.571428993651883e+01	 9.699501890163974e+00
0	 2.571428993651883e+01	 2.642858020637231e+01	 9.737827800131843e+00
0	 2.571428993651884e+01	 2.714287114289507e+01	 9.777135782032870e+00
0	 2.571428993651883e+01	 2.785716307942177e+01	 9.814458349893759e+00
0	 2.571428993651884e+01	 2.857145634928704e+01	 9.846828006283792e+00
0	 2.642858020637232e+01	 2.142854365071296e+01	 9.589526897835754e+00
0	 2.642858020637232e+01	 2.214283692057824e+01	 9.596038184132411e+00
0	 2.642858020637231e+01	 2.285712885710493e+01	 9.614598060366724e+00
0	 2.642858020637231e+01	 2.357141979362770e+01	 9.642514957025380e+00
0	 2.642858020637232e+01	 2.428571006348118e+01	 9.677097307745825e+00
0	 2.642858020637231e+01	 2.500000000000000e+01	 9.715653549316434e+00
0	 2.642858020637232e+01	 2.571428993651884e+01	 9.755492121676555e+00
0	 2.642858020637231e+01	 2.642858020637230e+01	 9.793921467916675e+00
0	 2.642858020637231e+01	 2.714287114289508e+01	 9.828250034278490e+00
0	 2.642858020637231e+01	 2.785716307942177e+01	 9.855786270154896e+00
0	 2.642858020637231e+01	 2.857145634928704e+01	 9.873838628090082e+00
0	 2.714287114289507e+01	 2.142854365071296e+01	 9.538700405671886e+00
0	 2.714287114289508e+01	 2.214283692057824e+01	 9.579477266642680e+00
0	 2.714287114289506e+01	 2.285712885710494e+01	 9.624986412337206e+00
0	 2.714287114289507e+01	 2.357141979362770e+01	 9.673017501069001e+00
0	 2.714287114289507e+01	 2.428571006348117e+01	 9.721360207751731e+00
0	 2.714287114289507e+01	 2.500000000000001e+01	 9.767804223899631e+00
0	 2.714287114289508e+01	 2.571428993651884e+01	 9.810139257627831e+00
0	 2.714287114289508e+01	 2.642858020637231e+01	 9.846155033652559e+00
0	 2.714287114289508e+01	 2.714287114289508e+01	 9.873641293291255e+00
0	 2.714287114289508e+01	 2.785716307942177e+01	 9.890387794462502e+00
0	 2.714287114289507e+01	 2.857145634928703e+01	 9.894184311685940e+00
0	 2.785716307942178e+01	 2.142854365071296e+01	 9.511664855199022e+00
0	 2.785716307942178e+01	 2.214283692057824e+01	 9.581366220275383e+00
0	 2.785716307942177e+01	 2.285712885710494e+01	 9.648378188648019e+00
0	 2.785716307942177e+01	 2.357141979362770e+01	 9.711177031329383e+00
0	 2.785716307942177e+01	 2.428571006348117e+01	 9.768239046898803e+00
0	 2.785716307942178e+01	 2.500000000000000e+01	 9.818040561503226e+00
0	 2.785716307942177e+01	 2.571428993651883e+01	 9.859057928857677e+00
0	 2.785716307942177e+01	 2.642858020637231e+01	 9.889767530245578e+00
0	 2.785716307942177e+01	 2.714287114289508e+01	 9.908645774518858e+00
0	 2.785716307942177e+01	 2.785716307942177e+01	 9.914169098097869e+00
0	 2.785716307942177e+01	 2.857145634928704e+01	 9.904813964971106e+00
0	 2.857145634928704e+01	 2.142854365071296e+01	 9.516216832756561e+00
0	 2.857145634928704e+01	 2.214283692057824e+01	 9.606289357523568e+00
0	 2.857145634928704e+01	 2.285712885710494e+01	 9.686618202499801e+00
0	 2.857145634928704e+01	 2.357141979362770e+01	 9.756571640452847e+00
0	 2.857145634928703e+01	 2.428571006348117e+01	 9.815517978877649e+00
0	 2.857145634928704e+01	 2.500000000000001e+01	 9.862825559997390e+00
0	 2.857145634928704e+01	 2.571428993651884e+01	 9.897862760764065e+00
0	 2.857145634928704e+01	 2.642858020637232e+01	 9.919997992858910e+00
0	 2.857145634928704e+01	 2.714287114289508e+01	 9.928599702692464e+00
0	 2.857145634928704e+01	 2.785716307942177e+01	 9.923036371404489e+00
0	 2.857145634928703e+01	 2.857145634928703e+01	 9.902676514863598e+00
0	 2.142854365071296e+01	 2.857145634928703e+01	 9.715664127004057e+00
0	 2.142854365071296e+01	 2.928575120249186e+01	 9.781478096675565e+00
0	 2.142854365071296e+01	 3.000004755570248e+01	 9.838650319222209e+00
0	 2.142854365071297e+01	 3.071434524225148e+01	 9.887159785293901e+00
0	 2.142854365071296e+01	 3.142864409547142e+01	 9.926985473195812e+00
0	 2.142854365071296e+01	 3.214294394869491e+01	 9.958106348888737e+00
0	 2.142854365071296e+01	 3.285724463525451e+01	 9.980501365989319e+00
0	 2.142854365071296e+01	 3.357154598848279e+01	 9.994149465770295e+00
0	 2.142854365071296e+01	 3.428584784171235e+01	 9.999029577160698e+00
0	 2.142854365071296e+01	 3.500015002827575e+01	 9.995120616745968e+00
0	 2.142854365071297e+01	 3.571445238150556e+01	 9.982401488768051e+00
0	 2.214283692057824e+01	 2.857145634928704e+01	 9.718590378917288e+00
0	 2.214283692057824e+01	 2.928575120249186e+01	 9.788939238915869e+00
0	 2.214283692057824e+01	 3.000004755570248e+01	 9.847371083967742e+00
0	 2.214283692057824e+01	 3.071434524225147e+01	 9.894536640632039e+00
0	 2.214283692057825e+01	 3.142864409547143e+01	 9.931086623443331e+00
0	 2.214283692057824e+01	 3.214294394869491e+01	 9.957671734911960e+00
0	 2.214283692057824e+01	 3.285724463525450e+01	 9.974942665524239e+00
0	 2.214283692057823e+01	 3.357154598848279e+01	 9.983550093742755e+00
0	 2.214283692057823e+01	 3.428584784171235e+01	 9.984144686006488e+00
0	 2.214283692057824e+01	 3.500015002827574e+01	 9.977377096731001e+00
0	 2.214283692057824e+01	 3.571445238150555e+01	 9.963897968308505e+00
0	 2.285712885710494e+01	 2.857145634928704e+01	 9.733158644615276e+00
0	 2.285712885710493e+01	 2.928575120249186e+01	 9.801812210274806e+00
0	 2.285712885710494e+01	 3.000004755570248e+01	 9.856745686173241e+00
0	 2.285712885710494e+01	 3.071434524225146e+01	 9.899143484687666e+00
0	 2.285712885710494e+01	 3.142864409547142e+01	 9.930190007546257e+00
0	 2.285712885710493e+01	 3.214294394869492e+01	 9.951069645828589e+00
0	 2.285712885710494e+01	 3.285724463525452e+01	 9.962966779965795e+00
0	 2.285712885710495e+01	 3.357154598848280e+01	 9.967065779740857e+00
0	 2.285712885710494e+01	 3.428584784171235e+01	 9.964551004288769e+00
0	 2.285712885710493e+01	 3.500015002827574e+01	 9.956606802096617e+00
0	 2.285712885710494e+01	 3.571445238150555e+01	 9.944417511003719e+00
0	 2.357141979362770e+01	 2.857145634928704e+01	 9.756317717885659e+00
0	 2.357141979362770e+01	 2.928575120249186e+01	 9.818237395313126e+00
0	 2.357141979362770e+01	 3.000004755570247e+01	 9.865931082943266e+00
0	 2.357141979362770e+01	 3.071434524225147e+01	 9.900978829209226e+00
0	 2.357141979362770e+01	 3.142864409547143e+01	 9.924960674081371e+00
0	 2.357141979362770e+01	 3.214294394869493e+01	 9.939456649067475e+00
0	 2.357141979362770e+01	 3.285724463525450e+01	 9.946046777212981e+00
0	 2.357141979362770e+01	 3.357154598848280e+01	 9.946311073101121e+00
0	 2.357141979362770e+01	 3.428584784171235e+01	 9.941829542853089e+00
0	 2.357141979362770e+01	 3.500015002827573e+01	 9.934182184128183e+00
0	 2.357141979362770e+01	 3.571445238150556e+01	 9.924948986123812e+00
0	 2.428571006348117e+01	 2.857145634928703e+01	 9.785016411534386e+00
0	 2.428571006348117e+01	 2.928575120249185e+01	 9.836355199328526e+00
0	 2.428571006348117e+01	 3.000004755570247e+01	 9.874084251826748e+00
0	 2.428571006348117e+01	 3.071434524225147e+01	 9.900041204472320e+00
0	 2.428571006348117e+01	 3.142864409547142e+01	 9.916063686997198e+00
0	 2.428571006348117e+01	 3.214294394869491e+01	 9.923989323422273e+00
0	 2.428571006348118e+01	 3.285724463525452e+01	 9.925655732057475e+00
0	 2.428571006348118e+01	 3.357154598848279e+01	 9.922900525501952e+00
0	 2.428571006348118e+01	 3.428584784171235e+01	 9.917561310644098e+00
0	 2.428571006348118e+01	 3.500015002827575e+01	 9.911475688661731e+00
0	 2.428571006348117e+01	 3.571445238150555e+01	 9.906481255022161e+00
0	 2.500000000000001e+01	 2.857145634928704e+01	 9.816203557385970e+00
0	 2.500000000000000e+01	 2.928575120249186e+01	 9.854306048355932e+00
0	 2.500000000000001e+01	 3.000004755570248e+01	 9.880362190817337e+00
0	 2.500000000000001e+01	 3.071434524225147e+01	 9.896329159279997e+00
0	 2.500000000000000e+01	 3.142864409547142e+01	 9.904164125614360e+00
0	 2.500000000000001e+01	 3.214294394869491e+01	 9.905824259051622e+00
0	 2.500000000000000e+01	 3.285724463525450e+01	 9.903266726183782e+00
0	 2.500000000000001e+01	 3.357154598848280e+01	 9.898448690963789e+00
0	 2.500000000000000e+01	 3.428584784171235e+01	 9.893327314705544e+00
0	 2.500000000000000e+01	 3.500015002827574e+01	 9.889859756084025e+00
0	 2.500000000000000e+01	 3.571445238150555e+01	 9.890003171135296e+00
0	 2.571428993651884e+01	 2.857145634928704e+01	 9.846828006283792e+00
0	 2.571428993651884e+01	 2.928575120249186e+01	 9.870230389167792e+00
0	 2.571428993651884e+01	 3.000004755570248e+01	 9.883921918353593e+00
0	 2.571428993651884e+01	 3.071434524225148e+01	 9.889841260962998e+00
0	 2.571428993651883e+01	 3.142864409547142e+01	 9.889927084625718e+00
0	 2.571428993651884e+01	 3.214294394869492e+01	 9.886118057479296e+00
0	 2.571428993651883e+01	 3.285724463525451e+01	 9.880352848169279e+00
0	 2.571428993651883e+01	 3.357154598848280e+01	 9.874570125849115e+00
0	 2.571428993651883e+01	 3.428584784171235e+01	 9.870708560180294e+00
0	 2.571428993651884e+01	 3.500015002827574e+01	 9.870706821332332e+00
0	 2.571428993651884e+01	 3.571445238150556e+01	 9.876503579982801e+00
0	 2.642858020637231e+01	 2.857145634928704e+01	 9.873838628090082e+00
0	 2.642858020637231e+01	 2.928575120249186e+01	 9.882268689274136e+00
0	 2.642858020637231e+01	 3.000004755570248e+01	 9.883920473319149e+00
0	 2.642858020637231e+01	 3.071434524225146e+01	 9.880576095379860e+00
0	 2.642858020637231e+01	 3.142864409547142e+01	 9.874017674096407e+00
0	 2.642858020637231e+01	 3.214294394869491e+01	 9.866027331594257e+00
0	 2.642858020637232e+01	 3.285724463525452e+01	 9.858387193484234e+00
0	 2.642858020637231e+01	 3.357154598848280e+01	 9.852879388862430e+00
0	 2.642858020637231e+01	 3.428584784171235e+01	 9.851286050310295e+00
0	 2.642858020637231e+01	 3.500015002827576e+01	 9.855389313894554e+00
0	 2.642858020637231e+01	 3.571445238150556e+01	 9.866971319167289e+00
0	 2.714287114289507e+01	 2.857145634928703e+01	 9.894184311685940e+00
0	 2.714287114289508e+01	 2.928575120249186e+01	 9.888561436922510e+00
0	 2.714287114289507e+01	 3.000004755570247e+01	 9.879514915042588e+00
0	 2.714287114289507e+01	 3.071434524225147e+01	 9.868532266916787e+00
0	 2.714287114289509e+01	 3.142864409547143e+01	 9.857101019463849e+00
0	 2.714287114289507e+01	 3.214294394869491e+01	 9.846708705650608e+00
0	 2.714287114289507e+01	 3.285724463525450e+01	 9.838842864491854e+00
0	 2.714287114289508e+01	 3.357154598848279e+01	 9.834991041050312e+00
0	 2.714287114289508e+01	 3.428584784171235e+01	 9.836640786436599e+00
0	 2.714287114289507e+01	 3.500015002827575e+01	 9.845279657809190e+00
0	 2.714287114289507e+01	 3.571445238150555e+01	 9.862395218374443e+00
0	 2.785716307942177e+01	 2.857145634928704e+01	 9.904813964971106e+00
0	 2.785716307942177e+01	 2.928575120249185e+01	 9.887249141097794e+00
0	 2.785716307942177e+01	 3.000004755570247e+01	 9.869862323297287e+00
0	 2.785716307942177e+01	 3.071434524225147e+01	 9.853708398487516e+00
0	 2.785716307942177e+01	 3.142864409547143e+01	 9.839842261537566e+00
0	 2.785716307942177e+01	 3.214294394869491e+01	 9.829318815267477e+00
0	 2.785716307942177e+01	 3.285724463525450e+01	 9.823192970448167e+00
0	 2.785716307942178e+01	 3.357154598848280e+01	 9.822519645801332e+00
0	 2.785716307942177e+01	 3.428584784171235e+01	 9.828353767999371e+00
0	 2.785716307942178e+01	 3.500015002827575e+01	 9.841750271665367e+00
0	 2.785716307942177e+01	 3.571445238150555e+01	 9.863764099373080e+00
0	 2.857145634928703e+01	 2.857145634928703e+01	 9.902676514863598e+00
0	 2.857145634928704e+01	 2.928575120249186e+01	 9.876472331521803e+00
0	 2.857145634928703e+01	 3.000004755570248e+01	 9.854119798301005e+00
0	 2.857145634928704e+01	 3.071434524225148e+01	 9.836103131533022e+00
0	 2.857145634928703e+01	 3.142864409547142e+01	 9.822906556498928e+00
0	 2.857145634928704e+01	 3.214294394869491e+01	 9.815014307428861e+00
0	 2.857145634928704e+01	 3.285724463525451e+01	 9.812910627501928e+00
0	 2.857145634928703e+01	 3.357154598848279e+01	 9.817079768846058e+00
0	 2.857145634928704e+01	 3.428584784171235e+01	 9.828005992537946e+00
0	 2.857145634928704e+01	 3.500015002827575e+01	 9.846173568602987e+00
0	 2.857145634928704e+01	 3.571445238150556e+01	 9.872066776015316e+00
0	 2.142854365071297e+01	 3.571445238150556e+01	 9.982401488768051e+00
0	 2.142854365071297e+01	 3.642870477623361e+01	 9.966752477348324e+00
0	 2.142854365071296e+01	 3.714295725428858e+01	 9.954103735942734e+00
0	 2.142854365071296e+01	 3.785720989899840e+01	 9.944512559474759e+00
0	 2.142854365071296e+01	 3.857146279369100e+01	 9.938036240797821e+00
0	 2.142854365071296e+01	 3.928571602169432e+01	 9.934732070695198e+00
0	 2.142854365071296e+01	 3.999996966633628e+01	 9.934657337880084e+00
0	 2.142854365071296e+01	 4.071422381094482e+01	 9.937869328995607e+00
0	 2.142854365071296e+01	 4.142847853884783e+01	 9.944425328614823e+00
0	 2.142854365071296e+01	 4.214273393337329e+01	 9.954382619240750e+00
0	 2.142854365071296e+01	 4.285699007784907e+01	 9.967798481306415e+00
0	 2.214283692057824e+01	 3.571445238150555e+01	 9.963897968308505e+00
0	 2.214283692057823e+01	 3.642870477623359e+01	 9.949618952344075e+00
0	 2.214283692057824e+01	 3.714295725428858e+01	 9.939765298665234e+00
0	 2.214283692057823e+01	 3.785720989899838e+01	 9.933961526501077e+00
0	 2.214283692057824e+01	 3.857146279369099e+01	 9.931832153489015e+00
0	 2.214283692057824e+01	 3.928571602169433e+01	 9.933001695674776e+00
0	 2.214283692057824e+01	 3.999996966633629e+01	 9.937094667512381e+00
0	 2.214283692057824e+01	 4.071422381094481e+01	 9.943735581864194e+00
0	 2.214283692057823e+01	 4.142847853884784e+01	 9.952548950000928e+00
0	 2.214283692057824e+01	 4.214273393337328e+01	 9.963159281601643e+00
0	 2.214283692057824e+01	 4.285699007784908e+01	 9.975191084753764e+00
0	 2.285712885710494e+01	 3.571445238150555e+01	 9.944417511003719e+00
0	 2.285712885710494e+01	 3.642870477623360e+01	 9.933348355994667e+00
0	 2.285712885710494e+01	 3.714295725428858e+01	 9.927493774387811e+00
0	 2.285712885710494e+01	 3.785720989899840e+01	 9.926134836331858e+00
0	 2.285712885710494e+01	 3.857146279369100e+01	 9.928552611003090e+00
0	 2.285712885710494e+01	 3.928571602169432e+01	 9.934028166605307e+00
0	 2.285712885710494e+01	 3.999996966633628e+01	 9.941842570369886e+00
0	 2.285712885710494e+01	 4.071422381094481e+01	 9.951276888555755e+00
0	 2.285712885710494e+01	 4.142847853884783e+01	 9.961612186449409e+00
0	 2.285712885710493e+01	 4.214273393337326e+01	 9.972129528364922e+00
0	 2.285712885710493e+01	 4.285699007784907e+01	 9.982109977643987e+00
0	 2.357141979362770e+01	 3.571445238150556e+01	 9.924948986123812e+00
0	 2.357141979362770e+01	 3.642870477623360e+01	 9.918493102010217e+00
0	 2.357141979362770e+01	 3.714295725428858e+01	 9.917474332418704e+00
0	 2.357141979362770e+01	 3.785720989899838e+01	 9.920919626042341e+00
0	 2.357141979362770e+01	 3.857146279369101e+01	 9.927855931313383e+00
0	 2.357141979362770e+01	 3.928571602169432e+01	 9.937310196403189e+00
0	 2.357141979362770e+01	 3.999996966633628e+01	 9.948309369222354e+00
0	 2.357141979362770e+01	 4.071422381094482e+01	 9.959880397420608e+00
0	 2.357141979362770e+01	 4.142847853884783e+01	 9.971050228386872e+00
0	 2.357141979362771e+01	 4.214273393337327e+01	 9.980845809249242e+00
0	 2.357141979362770e+01	 4.285699007784907e+01	 9.988294086875021e+00
0	 2.428571006348117e+01	 3.571445238150555e+01	 9.906481255022161e+00
0	 2.428571006348117e+01	 3.642870477623359e+01	 9.905605595078047e+00
0	 2.428571006348118e+01	 3.714295725428857e+01	 9.909892133154425e+00
0	 2.428571006348117e+01	 3.785720989899839e+01	 9.918203024874071e+00
0	 2.428571006348117e+01	 3.857146279369100e+01	 9.929400426354455e+00
0	 2.428571006348117e+01	 3.928571602169433e+01	 9.942346494207756e+00
0	 2.428571006348118e+01	 3.999996966633628e+01	 9.955903385540871e+00
0	 2.428571006348117e+01	 4.071422381094479e+01	 9.968933257955413e+00
0	 2.428571006348118e+01	 4.142847853884783e+01	 9.980298269547701e+00
0	 2.428571006348118e+01	 4.214273393337328e+01	 9.988860578908778e+00
0	 2.428571006348117e+01	 4.285699007784908e+01	 9.993482345124397e+00
0	 2.500000000000000e+01	 3.571445238150555e+01	 9.890003171135296e+00
0	 2.500000000000000e+01	 3.642870477623359e+01	 9.895238230862461e+00
0	 2.500000000000001e+01	 3.714295725428857e+01	 9.904932328079470e+00
0	 2.500000000000001e+01	 3.785720989899841e+01	 9.917872154234633e+00
0	 2.500000000000000e+01	 3.857146279369099e+01	 9.932844402021946e+00
0	 2.499999999999999e+01	 3.928571602169431e+01	 9.948635765381200e+00
0	 2.500000000000000e+01	 3.999996966633628e+01	 9.964032939497868e+00
0	 2.500000000000001e+01	 4.071422381094482e+01	 9.977822620803197e+00
0	 2.500000000000001e+01	 4.142847853884783e+01	 9.988791506974136e+00
0	 2.500000000000000e+01	 4.214273393337328e+01	 9.995726296933382e+00
0	 2.500000000000001e+01	 4.285699007784908e+01	 9.997413690849310e+00
0	 2.571428993651884e+01	 3.571445238150556e+01	 9.876503579982801e+00
0	 2.571428993651884e+01	 3.642870477623360e+01	 9.887943396004733e+00
0	 2.571428993651884e+01	 3.714295725428857e+01	 9.902780059766343e+00
0	 2.571428993651884e+01	 3.785720989899838e+01	 9.919814127697681e+00
0	 2.571428993651883e+01	 3.857146279369100e+01	 9.937846158172547e+00
0	 2.571428993651883e+01	 3.928571602169433e+01	 9.955676711508564e+00
0	 2.571428993651884e+01	 3.999996966633630e+01	 9.972106349967122e+00
0	 2.571428993651884e+01	 4.071422381094480e+01	 9.985935637753380e+00
0	 2.571428993651884e+01	 4.142847853884785e+01	 9.995965141016288e+00
0	 2.571428993651883e+01	 4.214273393337327e+01	 1.000099542784858e+01
0	 2.571428993651883e+01	 4.285699007784908e+01	 9.999827068286688e+00
0	 2.642858020637231e+01	 3.571445238150556e+01	 9.866971319167288e+00
0	 2.642858020637232e+01	 3.642870477623360e+01	 9.884273468123000e+00
0	 2.642858020637231e+01	 3.714295725428858e+01	 9.903620461875470e+00
0	 2.642858020637231e+01	 3.785720989899839e+01	 9.923916051002905e+00
0	 2.642858020637231e+01	 3.857146279369100e+01	 9.944063988623988e+00
0	 2.642858020637232e+01	 3.928571602169432e+01	 9.962968030397768e+00
0	 2.642858020637230e+01	 3.999996966633628e+01	 9.979531934523742e+00
0	 2.642858020637231e+01	 4.071422381094481e+01	 9.992659461741802e+00
0	 2.642858020637231e+01	 4.142847853884783e+01	 1.000125437533224e+01
0	 2.642858020637231e+01	 4.214273393337328e+01	 1.000422044111572e+01
0	 2.642858020637231e+01	 4.285699007784907e+01	 1.000046142745331e+01
0	 2.714287114289507e+01	 3.571445238150555e+01	 9.862395218374441e+00
0	 2.714287114289507e+01	 3.642870477623360e+01	 9.884780815812356e+00
0	 2.714287114289507e+01	 3.714295725428858e+01	 9.907638659155205e+00
0	 2.714287114289508e+01	 3.785720989899840e+01	 9.930065022056013e+00
0	 2.714287114289507e+01	 3.857146279369100e+01	 9.951156181155008e+00
0	 2.714287114289508e+01	 3.928571602169433e+01	 9.970008416079555e+00
0	 2.714287114289508e+01	 3.999996966633629e+01	 9.985718009444220e+00
0	 2.714287114289508e+01	 4.071422381094482e+01	 9.997381246850734e+00
0	 2.714287114289507e+01	 4.142847853884783e+01	 1.000409441688797e+01
0	 2.714287114289507e+01	 4.214273393337327e+01	 1.000495381113192e+01
0	 2.714287114289507e+01	 4.285699007784906e+01	 9.999055724145734e+00
0	 2.785716307942177e+01	 3.571445238150555e+01	 9.863764099373080e+00
0	 2.785716307942177e+01	 3.642870477623359e+01	 9.890017798644905e+00
0	 2.785716307942177e+01	 3.714295725428857e+01	 9.915019767442029e+00
0	 2.785716307942178e+01	 3.785720989899840e+01	 9.938148130928885e+00
0	 2.785716307942177e+01	 3.857146279369100e+01	 9.958781017505530e+00
0	 2.785716307942177e+01	 3.928571602169432e+01	 9.976296558807626e+00
0	 2.785716307942178e+01	 3.999996966633628e+01	 9.990072889706450e+00
0	 2.785716307942177e+01	 4.071422381094481e+01	 9.999488148308897e+00
0	 2.785716307942177e+01	 4.142847853884783e+01	 1.000392047595741e+01
0	 2.785716307942179e+01	 4.214273393337329e+01	 1.000274801723002e+01
0	 2.785716307942177e+01	 4.285699007784907e+01	 9.995348919940319e+00
0	 2.857145634928704e+01	 3.571445238150556e+01	 9.872066776015316e+00
0	 2.857145634928704e+01	 3.642870477623359e+01	 9.900536767169960e+00
0	 2.857145634928703e+01	 3.714295725428856e+01	 9.925948893660623e+00
0	 2.857145634928704e+01	 3.785720989899840e+01	 9.948052459859650e+00
0	 2.857145634928704e+01	 3.857146279369101e+01	 9.966596773376699e+00
0	 2.857145634928704e+01	 3.928571602169432e+01	 9.981331145058666e+00
0	 2.857145634928703e+01	 3.999996966633628e+01	 9.992004888989758e+00
0	 2.857145634928704e+01	 4.071422381094482e+01	 9.998367322491434e+00
0	 2.857145634928704e+01	 4.142847853884783e+01	 1.000016776612240e+01
0	 2.857145634928703e+01	 4.214273393337326e+01	 9.997155543678563e+00
0	 2.857145634928704e+01	 4.285699007784908e+01	 9.989079982193109e+00
0	 2.142854365071296e+01	 4.285699007784907e+01	 9.967798481306414e+00
0	 2.142854365071296e+01	 4.357129694500738e+01	 9.981601582120472e+00
0	 2.142854365071296e+01	 4.428560406221393e+01	 9.992610782374499e+00
0	 2.142854365071296e+01	 4.499991084612203e+01	 1.000072182373588e+01
0	 2.142854365071296e+01	 4.571421671338500e+01	 1.000583043195587e+01
0	 2.142854365071296e+01	 4.642852108065613e+01	 1.000783231686982e+01
0	 2.142854365071296e+01	 4.714282336458874e+01	 1.000662317239700e+01
0	 2.142854365071296e+01	 4.785712298183613e+01	 1.000209867654042e+01
0	 2.142854365071296e+01	 4.857141934905160e+01	 9.994154491386453e+00
0	 2.142854365071296e+01	 4.928571188288846e+01	 9.982686263103952e+00
0	 2.142854365071296e+01	 5.000000000000001e+01	 9.967589621943713e+00
0	 2.214283692057824e+01	 4.285699007784908e+01	 9.975191084753769e+00
0	 2.214283692057824e+01	 4.357129694500737e+01	 9.986047731169926e+00
0	 2.214283692057824e+01	 4.428560406221392e+01	 9.993628778465528e+00
0	 2.214283692057824e+01	 4.499991084612204e+01	 9.998305653280019e+00
0	 2.214283692057824e+01	 4.571421671338499e+01	 1.000044977040024e+01
0	 2.214283692057823e+01	 4.642852108065612e+01	 1.000043253276053e+01
0	 2.214283692057824e+01	 4.714282336458876e+01	 9.998625331442758e+00
0	 2.214283692057824e+01	 4.785712298183613e+01	 9.995399545676174e+00
0	 2.214283692057824e+01	 4.857141934905160e+01	 9.991126542837101e+00
0	 2.214283692057823e+01	 4.928571188288845e+01	 9.986177678448538e+00
0	 2.214283692057824e+01	 5.000000000000000e+01	 9.980924296179509e+00
0	 2.285712885710493e+01	 4.285699007784907e+01	 9.982109977643987e+00
0	 2.285712885710494e+01	 4.357129694500738e+01	 9.989636151907440e+00
0	 2.285712885710494e+01	 4.428560406221392e+01	 9.993768719137865e+00
0	 2.285712885710494e+01	 4.499991084612204e+01	 9.995257801278544e+00
0	 2.285712885710494e+01	 4.571421671338500e+01	 9.994853512931279e+00
0	 2.285712885710494e+01	 4.642852108065613e+01	 9.993305961356697e+00
0	 2.285712885710494e+01	 4.714282336458876e+01	 9.991365246474171e+00
0	 2.285712885710493e+01	 4.785712298183613e+01	 9.989781460861948e+00
0	 2.285712885710494e+01	 4.857141934905161e+01	 9.989304689756867e+00
0	 2.285712885710494e+01	 4.928571188288846e+01	 9.990685011054275e+00
0	 2.285712885710494e+01	 5.000000000000000e+01	 9.994672495307684e+00
0	 2.357141979362770e+01	 4.285699007784907e+01	 9.988294086875021e+00
0	 2.357141979362770e+01	 4.357129694500738e+01	 9.992301265208500e+00
0	 2.357141979362770e+01	 4.428560406221391e+01	 9.993109303261381e+00
0	 2.357141979362771e+01	 4.499991084612203e+01	 9.991750027951491e+00
0	 2.357141979362770e+01	 4.571421671338499e+01	 9.989255263563326e+00
0	 2.357141979362770e+01	 4.642852108065613e+01	 9.986656831748082e+00
0	 2.357141979362770e+01	 4.714282336458876e+01	 9.984986551523869e+00
0	 2.357141979362770e+01	 4.785712298183613e+01	 9.985276239275775e+00
0	 2.357141979362769e+01	 4.857141934905160e+01	 9.988557708755977e+00
0	 2.357141979362770e+01	 4.928571188288846e+01	 9.995862771083722e+00
0	 2.357141979362770e+01	 5.000000000000000e+01	 1.000822323474527e+01
0	 2.428571006348117e+01	 4.285699007784908e+01	 9.993482345124402e+00
0	 2.428571006348118e+01	 4.357129694500737e+01	 9.993977497625133e+00
0	 2.428571006348118e+01	 4.428560406221393e+01	 9.991729234516930e+00
0	 2.428571006348117e+01	 4.499991084612201e+01	 9.987954096973713e+00
0	 2.428571006348118e+01	 4.571421671338501e+01	 9.983868628189793e+00
0	 2.428571006348117e+01	 4.642852108065613e+01	 9.980689373380146e+00
0	 2.428571006348118e+01	 4.714282336458876e+01	 9.979632879780478e+00
0	 2.428571006348118e+01	 4.785712298183613e+01	 9.981915696647482e+00
0	 2.428571006348118e+01	 4.857141934905160e+01	 9.988754375259131e+00
0	 2.428571006348117e+01	 4.928571188288846e+01	 1.000136546891485e+01
0	 2.428571006348117e+01	 5.000000000000000e+01	 1.002096553293590e+01
0	 2.500000000000001e+01	 4.285699007784908e+01	 9.997413690849310e+00
0	 2.500000000000000e+01	 4.357129694500736e+01	 9.994599281386114e+00
0	 2.500000000000000e+01	 4.428560406221392e+01	 9.989707221396747e+00
0	 2.500000000000000e+01	 4.499991084612201e+01	 9.984041775474889e+00
0	 2.500000000000000e+01	 4.571421671338501e+01	 9.978907214583339e+00
0	 2.500000000000001e+01	 4.642852108065613e+01	 9.975607816054092e+00
0	 2.500000000000001e+01	 4.714282336458875e+01	 9.975447863588743e+00
0	 2.500000000000001e+01	 4.785712298183613e+01	 9.979731647258651e+00
0	 2.500000000000001e+01	 4.857141934905160e+01	 9.989763463505451e+00
0	 2.500000000000001e+01	 4.928571188288846e+01	 1.000684761514142e+01
0	 2.500000000000001e+01	 5.000000000000001e+01	 1.003228841135017e+01
0	 2.571428993651883e+01	 4.285699007784908e+01	 9.999827068286688e+00
0	 2.571428993651884e+01	 4.357129694500737e+01	 9.994101054396955e+00
0	 2.571428993651883e+01	 4.428560406221392e+01	 9.987121977204307e+00
0	 2.571428993651884e+01	 4.499991084612203e+01	 9.980184834039697e+00
0	 2.571428993651883e+01	 4.571421671338499e+01	 9.974584632395764e+00
0	 2.571428993651884e+01	 4.642852108065614e+01	 9.971616389926849e+00
0	 2.571428993651883e+01	 4.714282336458874e+01	 9.972575134449489e+00
0	 2.571428993651883e+01	 4.785712298183613e+01	 9.978755903942680e+00
0	 2.571428993651884e+01	 4.857141934905160e+01	 9.991453746548494e+00
0	 2.571428993651884e+01	 4.928571188288846e+01	 1.001196372057275e+01
0	 2.571428993651884e+01	 5.000000000000001e+01	 1.004158089448567e+01
0	 2.642858020637231e+01	 4.285699007784907e+01	 1.000046142745331e+01
0	 2.642858020637232e+01	 4.357129694500738e+01	 9.992417260240000e+00
0	 2.642858020637231e+01	 4.428560406221391e+01	 9.984052220054453e+00
0	 2.642858020637231e+01	 4.499991084612202e+01	 9.976555046707793e+00
0	 2.642858020637231e+01	 4.571421671338499e+01	 9.971114493158211e+00
0	 2.642858020637230e+01	 4.642852108065612e+01	 9.968919325511148e+00
0	 2.642858020637231e+01	 4.714282336458874e+01	 9.971158323019651e+00
0	 2.642858020637231e+01	 4.785712298183613e+01	 9.979020278084828e+00
0	 2.642858020637231e+01	 4.857141934905160e+01	 9.993693996256477e+00
0	 2.642858020637231e+01	 4.928571188288846e+01	 1.001636829623397e+01
0	 2.642858020637231e+01	 4.999999999999999e+01	 1.004823200986717e+01
0	 2.714287114289507e+01	 4.285699007784906e+01	 9.999055724145732e+00
0	 2.714287114289508e+01	 4.357129694500738e+01	 9.989482348174459e+00
0	 2.714287114289508e+01	 4.428560406221392e+01	 9.980576672873450e+00
0	 2.714287114289507e+01	 4.499991084612203e+01	 9.973324190973807e+00
0	 2.714287114289507e+01	 4.571421671338499e+01	 9.968710410281105e+00
0	 2.714287114289507e+01	 4.642852108065613e+01	 9.967720853675546e+00
0	 2.714287114289508e+01	 4.714282336458874e+01	 9.971341059112330e+00
0	 2.714287114289508e+01	 4.785712298183613e+01	 9.980556579622180e+00
0	 2.714287114289507e+01	 4.857141934905161e+01	 9.996352983312017e+00
0	 2.714287114289508e+01	 4.928571188288846e+01	 1.001971585336595e+01
0	 2.714287114289507e+01	 5.000000000000000e+01	 1.005163078804630e+01
0	 2.785716307942177e+01	 4.285699007784907e+01	 9.995348919940323e+00
0	 2.785716307942178e+01	 4.357129694500738e+01	 9.985230773136326e+00
0	 2.785716307942178e+01	 4.428560406221393e+01	 9.976774063398890e+00
0	 2.785716307942177e+01	 4.499991084612203e+01	 9.970664047787412e+00
0	 2.785716307942177e+01	 4.571421671338499e+01	 9.967585999054203e+00
0	 2.785716307942177e+01	 4.642852108065613e+01	 9.968225205644472e+00
0	 2.785716307942177e+01	 4.714282336458874e+01	 9.973266971696855e+00
0	 2.785716307942177e+01	 4.785712298183613e+01	 9.983396617043837e+00
0	 2.785716307942177e+01	 4.857141934905159e+01	 9.999299477212466e+00
0	 2.785716307942177e+01	 4.928571188288845e+01	 1.002166090342540e+01
0	 2.785716307942177e+01	 4.999999999999999e+01	 1.005116626260192e+01
0	 2.857145634928704e+01	 4.285699007784908e+01	 9.989079982193109e+00
0	 2.857145634928704e+01	 4.357129694500738e+01	 9.979596995738365e+00
0	 2.857145634928704e+01	 4.428560406221392e+01	 9.972723124179685e+00
0	 2.857145634928704e+01	 4.499991084612204e+01	 9.968746401553251e+00
0	 2.857145634928704e+01	 4.571421671338500e+01	 9.967954876646498e+00
0	 2.857145634928704e+01	 4.642852108065615e+01	 9.970636612998186e+00
0	 2.857145634928703e+01	 4.714282336458874e+01	 9.977079688898758e+00
0	 2.857145634928704e+01	 4.785712298183613e+01	 9.987572197390769e+00
0	 2.857145634928704e+01	 4.857141934905160e+01	 1.000240224626973e+01
0	 2.857145634928704e+01	 4.928571188288845e+01	 1.002185795808480e+01
0	 2.857145634928704e+01	 5.000000000000000e+01	 1.004622747014007e+01
0	 2.857145634928704e+01	 0.000000000000000e+00	 1.675016123577301e+01
0	 2.857145634928703e+01	 7.142881171115513e-01	 1.443742400188892e+01
0	 2.857145634928704e+01	 1.428580650948409e+00	 1.248134323783250e+01
0	 2.857145634928704e+01	 2.142877018163878e+00	 1.086867723436916e+01
0	 2.857145634928703e+01	 2.857176635411264e+00	 9.586185471948266e+00
0	 2.857145634928704e+01	 3.571478919343873e+00	 8.620628620617032e+00
0	 2.857145634928704e+01	 4.285783286615009e+00	 7.958768539948990e+00
0	 2.857145634928704e+01	 5.000089153877975e+00	 7.587368278987046e+00
0	 2.857145634928703e+01	 5.714395937786080e+00	 7.493192076201150e+00
0	 2.857145634928704e+01	 6.428703054992629e+00	 7.663005359460437e+00
0	 2.857145634928703e+01	 7.143009922150926e+00	 8.083574746020078e+00
0	 2.928575120249186e+01	 0.000000000000000e+00	 1.735655777082446e+01
0	 2.928575120249186e+01	 7.142881171115513e-01	 1.494223200491102e+01
0	 2.928575120249186e+01	 1.428580650948409e+00	 1.286408202786846e+01
0	 2.928575120249186e+01	 2.142877018163879e+00	 1.111858295272869e+01
0	 2.928575120249185e+01	 2.857176635411264e+00	 9.702211417354931e+00
0	 2.928575120249186e+01	 3.571478919343873e+00	 8.611445584331504e+00
0	 2.928575120249186e+01	 4.285783286615009e+00	 7.842765140872225e+00
0	 2.928575120249186e+01	 5.000089153877974e+00	 7.392651298747477e+00
0	 2.928575120249186e+01	 5.714395937786080e+00	 7.257586794230001e+00
0	 2.928575120249186e+01	 6.428703054992629e+00	 7.434055888059326e+00
0	 2.928575120249185e+01	 7.143009922150927e+00	 7.918544365424875e+00
0	 3.000004755570248e+01	 0.000000000000000e+00	 1.714932177079907e+01
0	 3.000004755570248e+01	 7.142881171115514e-01	 1.487481768209645e+01
0	 3.000004755570248e+01	 1.428580650948409e+00	 1.288970009196291e+01
0	 3.000004755570248e+01	 2.142877018163878e+00	 1.119842998212351e+01
0	 3.000004755570248e+01	 2.857176635411266e+00	 9.805469987204578e+00
0	 3.000004755570248e+01	 3.571478919343873e+00	 8.715284394614214e+00
0	 3.000004755570247e+01	 4.285783286615006e+00	 7.932339144442956e+00
0	 3.000004755570248e+01	 5.000089153877976e+00	 7.461101829384777e+00
0	 3.000004755570248e+01	 5.714395937786081e+00	 7.306041694678221e+00
0	 3.000004755570248e+01	 6.428703054992631e+00	 7.471629638067895e+00
0	 3.000004755570246e+01	 7.143009922150926e+00	 7.962338209786102e+00
0	 3.071434524225148e+01	 0.000000000000000e+00	 1.630065655538426e+01
0	 3.071434524225148e+01	 7.142881171115513e-01	 1.435330369155333e+01
0	 3.071434524225147e+01	 1.428580650948409e+00	 1.262948181743036e+01
0	 3.071434524225147e+01	 2.142877018163877e+00	 1.113990660552620e+01
0	 3.071434524225148e+01	 2.857176635411265e+00	 9.895295337737956e+00
0	 3.071434524225148e+01	 3.571478919343873e+00	 8.906366905232479e+00
0	 3.071434524225148e+01	 4.285783286615009e+00	 8.183841808349642e+00
0	 3.071434524225147e+01	 5.000089153877974e+00	 7.738442156525285e+00
0	 3.071434524225147e+01	 5.714395937786081e+00	 7.580891668233885e+00
0	 3.071434524225148e+01	 6.428703054992629e+00	 7.721915670950946e+00
0	 3.071434524225147e+01	 7.143009922150926e+00	 8.172241101135098e+00
0	 3.142864409547142e+01	 0.000000000000000e+00	 1.498276571968485e+01
0	 3.142864409547143e+01	 7.142881171115514e-01	 1.349581286182736e+01
0	 3.142864409547143e+01	 1.428580650948410e+00	 1.215471167936983e+01
0	 3.142864409547142e+01	 2.142877018163878e+00	 1.097470113094223e+01
0	 3.142864409547142e+01	 2.857176635411265e+00	 9.971021604953105e+00
0	 3.142864409547143e+01	 3.571478919343873e+00	 9.158914919486035e+00
0	 3.142864409547142e+01	 4.285783286615009e+00	 8.553624322213551e+00
0	 3.142864409547142e+01	 5.000089153877974e+00	 8.170394490328546e+00
0	 3.142864409547143e+01	 5.714395937786081e+00	 8.024471530493257e+00
0	 3.142864409547143e+01	 6.428703054992628e+00	 8.131102978805716e+00
0	 3.142864409547142e+01	 7.143009922150926e+00	 8.505537800783721e+00
0	 3.214294394869492e+01	 0.000000000000000e+00	 1.336785313421723e+01
0	 3.214294394869492e+01	 7.142881171115515e-01	 1.242046819189818e+01
0	 3.214294394869490e+01	 1.428580650948409e+00	 1.153667424066307e+01
0	 3.214294394869491e+01	 2.142877018163878e+00	 1.073450189140947e+01
0	 3.214294394869492e+01	 2.857176635411265e+00	 1.003198290460585e+01
0	 3.214294394869491e+01	 3.571478919343872e+00	 9.447150190208138e+00
0	 3.214294394869491e+01	 4.285783286615008e+00	 8.998037807590265e+00
0	 3.214294394869492e+01	 5.000089153877976e+00	 8.702680965488950e+00
0	 3.214294394869491e+01	 5.714395937786081e+00	 8.579116021962419e+00
0	 3.214294394869491e+01	 6.428703054992630e+00	 8.645380484363326e+00
0	 3.214294394869491e+01	 7.143009922150928e+00	 8.919513009325652e+00
0	 3.285724463525451e+01	 0.000000000000000e+00	 1.162812294490432e+01
0	 3.285724463525450e+01	 7.142881171115512e-01	 1.124539285117640e+01
0	 3.285724463525450e+01	 1.428580650948409e+00	 1.084665415197295e+01
0	 3.285724463525450e+01	 2.142877018163878e+00	 1.045099724499778e+01
0	 3.285724463525451e+01	 2.857176635411265e+00	 1.007751333221021e+01
0	 3.285724463525452e+01	 3.571478919343873e+00	 9.745294419766466e+00
0	 3.285724463525450e+01	 4.285783286615007e+00	 9.473433317970908e+00
0	 3.285724463525451e+01	 5.000089153877974e+00	 9.281023641237081e+00
0	 3.285724463525451e+01	 5.714395937786081e+00	 9.187159808058617e+00
0	 3.285724463525452e+01	 6.428703054992631e+00	 9.210937040990071e+00
0	 3.285724463525451e+01	 7.143009922150926e+00	 9.371451366637483e+00
0	 3.357154598848280e+01	 0.000000000000000e+00	 9.935779573071645e+00
0	 3.357154598848280e+01	 7.142881171115514e-01	 1.008871017950104e+01
0	 3.357154598848279e+01	 1.428580650948409e+00	 1.015593615174225e+01
0	 3.357154598848279e+01	 2.142877018163878e+00	 1.015587557480866e+01
0	 3.357154598848280e+01	 2.857176635411265e+00	 1.010694696303865e+01
0	 3.357154598848280e+01	 3.571478919343873e+00	 1.002756926006394e+01
0	 3.357154598848279e+01	 4.285783286615009e+00	 9.936161838783187e+00
0	 3.357154598848280e+01	 5.000089153877975e+00	 9.851144501340871e+00
0	 3.357154598848279e+01	 5.714395937786080e+00	 9.790937479111385e+00
0	 3.357154598848281e+01	 6.428703054992630e+00	 9.773961432688427e+00
0	 3.357154598848280e+01	 7.143009922150926e+00	 9.818637451879633e+00
0	 3.428584784171235e+01	 0.000000000000000e+00	 8.463027715444305e+00
0	 3.428584784171235e+01	 7.142881171115514e-01	 9.068543687137751e+00
0	 3.428584784171235e+01	 1.428580650948410e+00	 9.535805066192689e+00
0	 3.428584784171235e+01	 2.142877018163879e+00	 9.880825288975025e+00
0	 3.428584784171235e+01	 2.857176635411264e+00	 1.011961785212244e+01
0	 3.428584784171235e+01	 3.571478919343873e+00	 1.026819631253925e+01
0	 3.428584784171237e+01	 4.285783286615009e+00	 1.034257428739214e+01
0	 3.428584784171236e+01	 5.000089153877976e+00	 1.035876545410645e+01
0	 3.428584784171235e+01	 5.714395937786081e+00	 1.033278355036339e+01
0	 3.428584784171235e+01	 6.428703054992630e+00	 1.028064237409783e+01
0	 3.428584784171235e+01	 7.143009922150926e+00	 1.021835578349698e+01
0	 3.500015002827575e+01	 0.000000000000000e+00	 7.382072344144917e+00
0	 3.500015002827576e+01	 7.142881171115514e-01	 8.303017054777541e+00
0	 3.500015002827575e+01	 1.428580650948410e+00	 9.057545809324292e+00
0	 3.500015002827575e+01	 2.142877018163878e+00	 9.657534820661004e+00
0	 3.500015002827575e+01	 2.857176635411264e+00	 1.011486003425173e+01
0	 3.500015002827575e+01	 3.571478919343872e+00	 1.044139712816733e+01
0	 3.500015002827575e+01	 4.285783286615009e+00	 1.064902151310069e+01
0	 3.500015002827576e+01	 5.000089153877975e+00	 1.074960833237872e+01
0	 3.500015002827575e+01	 5.714395937786082e+00	 1.075503246197099e+01
0	 3.500015002827575e+01	 6.428703054992629e+00	 1.067716851049522e+01
0	 3.500015002827575e+01	 7.143009922150927e+00	 1.052789081921937e+01
0	 3.571445238150555e+01	 0.000000000000000e+00	 6.865118706692518e+00
0	 3.571445238150555e+01	 7.142881171115513e-01	 7.910254133536110e+00
0	 3.571445238150556e+01	 1.428580650948409e+00	 8.792443382915138e+00
0	 3.571445238150555e+01	 2.142877018163878e+00	 9.517692628061916e+00
0	 3.571445238150556e+01	 2.857176635411264e+00	 1.009200752397574e+01
0	 3.571445238150555e+01	 3.571478919343873e+00	 1.052139320745949e+01
0	 3.571445238150556e+01	 4.285783286615009e+00	 1.081185429714995e+01
0	 3.571445238150555e+01	 5.000089153877976e+00	 1.096939489354165e+01
0	 3.571445238150555e+01	 5.714395937786081e+00	 1.100001857900457e+01
0	 3.571445238150555e+01	 6.428703054992629e+00	 1.090972841779527e+01
0	 3.571445238150555e+01	 7.143009922150927e+00	 1.070452695606183e+01
0	 2.857145634928703e+01	 7.143009922150926e+00	 8.083574746020078e+00
0	 2.857145634928704e+01	 7.857266066626718e+00	 8.590050590201312e+00
0	 2.857145634928704e+01	 8.571521461152164e+00	 9.026354867183413e+00
0	 2.857145634928704e+01	 9.285776189055182e+00	 9.392298831138330e+00
0	 2.857145634928704e+01	 1.000003033366371e+01	 9.687693781577334e+00
0	 2.857145634928704e+01	 1.071428397830567e+01	 9.912351063351579e+00
0	 2.857145634928704e+01	 1.142853720630899e+01	 1.006608206665250e+01
0	 2.857145634928704e+01	 1.214279010100160e+01	 1.014869822701222e+01
0	 2.857145634928703e+01	 1.285704274571142e+01	 1.016001102530379e+01
0	 2.857145634928704e+01	 1.357129522376639e+01	 1.009983198774145e+01
0	 2.857145634928703e+01	 1.428554761849444e+01	 9.967972685880669e+00
0	 2.928575120249185e+01	 7.143009922150927e+00	 7.918544365424875e+00
0	 2.928575120249185e+01	 7.857266066626719e+00	 8.511971481035003e+00
0	 2.928575120249185e+01	 8.571521461152164e+00	 9.018178124471424e+00
0	 2.928575120249187e+01	 9.285776189055184e+00	 9.437899883252076e+00
0	 2.928575120249185e+01	 1.000003033366371e+01	 9.771872401836305e+00
0	 2.928575120249185e+01	 1.071428397830567e+01	 1.002083138162556e+01
0	 2.928575120249186e+01	 1.142853720630899e+01	 1.018551258096392e+01
0	 2.928575120249185e+01	 1.214279010100160e+01	 1.026665181513860e+01
0	 2.928575120249185e+01	 1.285704274571142e+01	 1.026498495638025e+01
0	 2.928575120249186e+01	 1.357129522376640e+01	 1.018124793386329e+01
0	 2.928575120249185e+01	 1.428554761849444e+01	 1.001617673370597e+01
0	 3.000004755570246e+01	 7.143009922150926e+00	 7.962338209786100e+00
0	 3.000004755570248e+01	 7.857266066626720e+00	 8.570008826630634e+00
0	 3.000004755570248e+01	 8.571521461152161e+00	 9.084578084634728e+00
0	 3.000004755570247e+01	 9.285776189055184e+00	 9.507525091003590e+00
0	 3.000004755570248e+01	 1.000003033366371e+01	 9.840329013791273e+00
0	 3.000004755570247e+01	 1.071428397830567e+01	 1.008446908190136e+01
0	 3.000004755570247e+01	 1.142853720630899e+01	 1.024142458508759e+01
0	 3.000004755570247e+01	 1.214279010100160e+01	 1.031267487395434e+01
0	 3.000004755570247e+01	 1.285704274571142e+01	 1.029969935995701e+01
0	 3.000004755570247e+01	 1.357129522376639e+01	 1.020397751540234e+01
0	 3.000004755570248e+01	 1.428554761849444e+01	 1.002698887344853e+01
0	 3.071434524225147e+01	 7.143009922150926e+00	 8.172241101135102e+00
0	 3.071434524225148e+01	 7.857266066626721e+00	 8.735198691433460e+00
0	 3.071434524225148e+01	 8.571521461152164e+00	 9.208413448730614e+00
0	 3.071434524225147e+01	 9.285776189055184e+00	 9.593927177981660e+00
0	 3.071434524225146e+01	 1.000003033366371e+01	 9.893781742553218e+00
0	 3.071434524225146e+01	 1.071428397830566e+01	 1.011001906422412e+01
0	 3.071434524225146e+01	 1.142853720630899e+01	 1.024468112318603e+01
0	 3.071434524225147e+01	 1.214279010100160e+01	 1.029980995804384e+01
0	 3.071434524225148e+01	 1.285704274571142e+01	 1.027744766581614e+01
0	 3.071434524225147e+01	 1.357129522376639e+01	 1.017963640193543e+01
0	 3.071434524225146e+01	 1.428554761849444e+01	 1.000841838024832e+01
0	 3.142864409547142e+01	 7.143009922150926e+00	 8.505537800783719e+00
0	 3.142864409547143e+01	 7.857266066626719e+00	 8.978577088677227e+00
0	 3.142864409547143e+01	 8.571521461152162e+00	 9.372542876358073e+00
0	 3.142864409547142e+01	 9.285776189055182e+00	 9.689858836061925e+00
0	 3.142864409547142e+01	 1.000003033366371e+01	 9.932948691003919e+00
0	 3.142864409547143e+01	 1.071428397830567e+01	 1.010423621537931e+01
0	 3.142864409547143e+01	 1.142853720630899e+01	 1.020614523436393e+01
0	 3.142864409547143e+01	 1.214279010100160e+01	 1.024109962411464e+01
0	 3.142864409547144e+01	 1.285704274571143e+01	 1.021152331176966e+01
0	 3.142864409547143e+01	 1.357129522376640e+01	 1.011984027544880e+01
0	 3.142864409547142e+01	 1.428554761849444e+01	 9.968474544253587e+00
0	 3.214294394869491e+01	 7.143009922150928e+00	 8.919513009325652e+00
0	 3.214294394869491e+01	 7.857266066626718e+00	 9.271179980385256e+00
0	 3.214294394869492e+01	 8.571521461152166e+00	 9.559824985658627e+00
0	 3.214294394869491e+01	 9.285776189055181e+00	 9.788072725407538e+00
0	 3.214294394869491e+01	 1.000003033366371e+01	 9.958547939796460e+00
0	 3.214294394869491e+01	 1.071428397830567e+01	 1.007387540889298e+01
0	 3.214294394869492e+01	 1.142853720630899e+01	 1.013667995266827e+01
0	 3.214294394869492e+01	 1.214279010100160e+01	 1.014958643099735e+01
0	 3.214294394869491e+01	 1.285704274571142e+01	 1.011521974365936e+01
0	 3.214294394869492e+01	 1.357129522376639e+01	 1.003620483033782e+01
0	 3.214294394869491e+01	 1.428554761849444e+01	 9.915166670620639e+00
0	 3.285724463525451e+01	 7.143009922150926e+00	 9.371451366637483e+00
0	 3.285724463525451e+01	 7.857266066626719e+00	 9.584043277371379e+00
0	 3.285724463525451e+01	 8.571521461152162e+00	 9.753118353317094e+00
0	 3.285724463525451e+01	 9.285776189055182e+00	 9.881321474469772e+00
0	 3.285724463525452e+01	 1.000003033366371e+01	 9.971297547355581e+00
0	 3.285724463525450e+01	 1.071428397830567e+01	 1.002569150503207e+01
0	 3.285724463525451e+01	 1.142853720630899e+01	 1.004714830708840e+01
0	 3.285724463525451e+01	 1.214279010100160e+01	 1.003831293964558e+01
0	 3.285724463525450e+01	 1.285704274571142e+01	 1.000183041535666e+01
0	 3.285724463525451e+01	 1.357129522376639e+01	 9.940345773406818e+00
0	 3.285724463525450e+01	 1.428554761849444e+01	 9.856504079513483e+00
0	 3.357154598848280e+01	 7.143009922150926e+00	 9.818637451879633e+00
0	 3.357154598848280e+01	 7.857266066626720e+00	 9.888202839240630e+00
0	 3.357154598848280e+01	 8.571521461152161e+00	 9.935281514562181e+00
0	 3.357154598848280e+01	 9.285776189055182e+00	 9.962357679988420e+00
0	 3.357154598848280e+01	 1.000003033366371e+01	 9.971915549878048e+00
0	 3.357154598848279e+01	 1.071428397830567e+01	 9.966439350804505e+00
0	 3.357154598848280e+01	 1.142853720630899e+01	 9.948413321556068e+00
0	 3.357154598848280e+01	 1.214279010100160e+01	 9.920321713135957e+00
0	 3.357154598848280e+01	 1.285704274571142e+01	 9.884648788762430e+00
0	 3.357154598848280e+01	 1.357129522376640e+01	 9.843878823868829e+00
0	 3.357154598848280e+01	 1.428554761849444e+01	 9.800496106103626e+00
0	 3.428584784171235e+01	 7.143009922150926e+00	 1.021835578349698e+01
0	 3.428584784171235e+01	 7.857266066626718e+00	 1.015469447438991e+01
0	 3.428584784171237e+01	 8.571521461152164e+00	 1.008917296316697e+01
0	 3.428584784171235e+01	 9.285776189055184e+00	 1.002393390699220e+01
0	 3.428584784171235e+01	 1.000003033366371e+01	 9.961119961332843e+00
0	 3.428584784171235e+01	 1.071428397830567e+01	 9.902873779959398e+00
0	 3.428584784171234e+01	 1.142853720630899e+01	 9.851338014945513e+00
0	 3.428584784171235e+01	 1.214279010100160e+01	 9.808655316668029e+00
0	 3.428584784171235e+01	 1.285704274571143e+01	 9.776968333806948e+00
0	 3.428584784171235e+01	 1.357129522376639e+01	 9.758419713345459e+00
0	 3.428584784171235e+01	 1.428554761849444e+01	 9.755152100569893e+00
0	 3.500015002827575e+01	 7.143009922150927e+00	 1.052789081921937e+01
0	 3.500015002827575e+01	 7.857266066626719e+00	 1.035455394000829e+01
0	 3.500015002827575e+01	 8.571521461152161e+00	 1.019765115144919e+01
0	 3.500015002827573e+01	 9.285776189055184e+00	 1.005880268879893e+01
0	 3.500015002827575e+01	 1.000003033366371e+01	 9.939628773461365e+00
0	 3.500015002827575e+01	 1.071428397830566e+01	 9.841749612987112e+00
0	 3.500015002827574e+01	 1.142853720630899e+01	 9.766785401073465e+00
0	 3.500015002827575e+01	 1.214279010100160e+01	 9.716356317564273e+00
0	 3.500015002827575e+01	 1.285704274571142e+01	 9.692082528449820e+00
0	 3.500015002827573e+01	 1.357129522376639e+01	 9.695584185866814e+00
0	 3.500015002827575e+01	 1.428554761849444e+01	 9.728481428098309e+00
0	 3.571445238150555e+01	 7.143009922150927e+00	 1.070452695606183e+01
0	 3.571445238150555e+01	 7.857266066626719e+00	 1.045881694207725e+01
0	 3.571445238150555e+01	 8.571521461152161e+00	 1.024357449027139e+01
0	 3.571445238150557e+01	 9.285776189055184e+00	 1.005971652701573e+01
0	 3.571445238150557e+01	 1.000003033366371e+01	 9.908159955777469e+00
0	 3.571445238150555e+01	 1.071428397830567e+01	 9.789821657119305e+00
0	 3.571445238150555e+01	 1.142853720630899e+01	 9.705618488699169e+00
0	 3.571445238150555e+01	 1.214279010100160e+01	 9.656467285270066e+00
0	 3.571445238150557e+01	 1.285704274571143e+01	 9.643284858679905e+00
0	 3.571445238150556e+01	 1.357129522376639e+01	 9.666987997871404e+00
0	 3.571445238150556e+01	 1.428554761849444e+01	 9.728493468882018e+00
0	 2.857145634928703e+01	 1.428554761849444e+01	 9.967972685880671e+00
0	 2.857145634928704e+01	 1.499984997172426e+01	 9.810900694152364e+00
0	 2.857145634928703e+01	 1.571415215828766e+01	 9.675924998485575e+00
0	 2.857145634928704e+01	 1.642845401151721e+01	 9.564084119418517e+00
0	 2.857145634928704e+01	 1.714275536474550e+01	 9.476416616902608e+00
0	 2.857145634928704e+01	 1.785705605130510e+01	 9.413961090302397e+00
0	 2.857145634928704e+01	 1.857135590452858e+01	 9.377756178395877e+00
0	 2.857145634928703e+01	 1.928565475774853e+01	 9.368840559374728e+00
0	 2.857145634928703e+01	 1.999995244429753e+01	 9.388252950844794e+00
0	 2.857145634928704e+01	 2.071424879750816e+01	 9.437032109826696e+00
0	 2.857145634928704e+01	 2.142854365071296e+01	 9.516216832756561e+00
0	 2.928575120249185e+01	 1.428554761849444e+01	 1.001617673370597e+01
0	 2.928575120249185e+01	 1.499984997172426e+01	 9.826975451706206e+00
0	 2.928575120249185e+01	 1.571415215828766e+01	 9.670190677735373e+00
0	 2.928575120249185e+01	 1.642845401151721e+01	 9.545529059608517e+00
0	 2.928575120249186e+01	 1.714275536474550e+01	 9.452697289880646e+00
0	 2.928575120249185e+01	 1.785705605130509e+01	 9.391402105846812e+00
0	 2.928575120249186e+01	 1.857135590452858e+01	 9.361350289542248e+00
0	 2.928575120249185e+01	 1.928565475774854e+01	 9.362248667742790e+00
0	 2.928575120249186e+01	 1.999995244429754e+01	 9.393804111965309e+00
0	 2.928575120249186e+01	 2.071424879750816e+01	 9.455723538468472e+00
0	 2.928575120249186e+01	 2.142854365071297e+01	 9.547713908253520e+00
0	 3.000004755570248e+01	 1.428554761849444e+01	 1.002698887344854e+01
0	 3.000004755570248e+01	 1.499984997172426e+01	 9.829289607607983e+00
0	 3.000004755570248e+01	 1.571415215828766e+01	 9.669562087401950e+00
0	 3.000004755570248e+01	 1.642845401151721e+01	 9.546429620114296e+00
0	 3.000004755570249e+01	 1.714275536474550e+01	 9.458515558110886e+00
0	 3.000004755570247e+01	 1.785705605130510e+01	 9.404443298839684e+00
0	 3.000004755570247e+01	 1.857135590452858e+01	 9.382836284830928e+00
0	 3.000004755570248e+01	 1.928565475774855e+01	 9.392318003697437e+00
0	 3.000004755570247e+01	 1.999995244429754e+01	 9.431511988135208e+00
0	 3.000004755570248e+01	 2.071424879750816e+01	 9.499041815924002e+00
0	 3.000004755570248e+01	 2.142854365071296e+01	 9.593531109928225e+00
0	 3.071434524225146e+01	 1.428554761849444e+01	 1.000841838024831e+01
0	 3.071434524225147e+01	 1.499984997172426e+01	 9.821616648211094e+00
0	 3.071434524225147e+01	 1.571415215828766e+01	 9.674247405904939e+00
0	 3.071434524225147e+01	 1.642845401151721e+01	 9.564099148245774e+00
0	 3.071434524225147e+01	 1.714275536474550e+01	 9.488960411527483e+00
0	 3.071434524225148e+01	 1.785705605130510e+01	 9.446619773421983e+00
0	 3.071434524225148e+01	 1.857135590452858e+01	 9.434865852979382e+00
0	 3.071434524225146e+01	 1.928565475774853e+01	 9.451487310628298e+00
0	 3.071434524225148e+01	 1.999995244429754e+01	 9.494272848176328e+00
0	 3.071434524225147e+01	 2.071424879750816e+01	 9.561011208810651e+00
0	 3.071434524225148e+01	 2.142854365071297e+01	 9.649491177098756e+00
0	 3.142864409547142e+01	 1.428554761849444e+01	 9.968474544253587e+00
0	 3.142864409547143e+01	 1.499984997172426e+01	 9.807730075542569e+00
0	 3.142864409547143e+01	 1.571415215828766e+01	 9.684454826316745e+00
0	 3.142864409547143e+01	 1.642845401151722e+01	 9.595851003606576e+00
0	 3.142864409547142e+01	 1.714275536474550e+01	 9.539120849008986e+00
0	 3.142864409547143e+01	 1.785705605130510e+01	 9.511466638687386e+00
0	 3.142864409547142e+01	 1.857135590452858e+01	 9.510090683371832e+00
0	 3.142864409547142e+01	 1.928565475774854e+01	 9.532195328359236e+00
0	 3.142864409547143e+01	 1.999995244429754e+01	 9.574982953513821e+00
0	 3.142864409547143e+01	 2.071424879750816e+01	 9.635655973267536e+00
0	 3.142864409547142e+01	 2.142854365071296e+01	 9.711416836620749e+00
0	 3.214294394869491e+01	 1.428554761849444e+01	 9.915166670620639e+00
0	 3.214294394869492e+01	 1.499984997172426e+01	 9.791403407302711e+00
0	 3.214294394869492e+01	 1.571415215828766e+01	 9.700392556362196e+00
0	 3.214294394869491e+01	 1.642845401151722e+01	 9.638998558093734e+00
0	 3.214294394869491e+01	 1.714275536474550e+01	 9.604085878378108e+00
0	 3.214294394869492e+01	 1.785705605130510e+01	 9.592519008682210e+00
0	 3.214294394869491e+01	 1.857135590452858e+01	 9.601162466059137e+00
0	 3.214294394869491e+01	 1.928565475774854e+01	 9.626880793148413e+00
0	 3.214294394869491e+01	 1.999995244429753e+01	 9.666538558176196e+00
0	 3.214294394869491e+01	 2.071424879750816e+01	 9.717000354955724e+00
0	 3.214294394869491e+01	 2.142854365071296e+01	 9.775130802887700e+00
0	 3.285724463525450e+01	 1.428554761849444e+01	 9.856504079513483e+00
0	 3.285724463525450e+01	 1.499984997172426e+01	 9.776410176864811e+00
0	 3.285724463525451e+01	 1.571415215828766e+01	 9.722268818418266e+00
0	 3.285724463525451e+01	 1.642845401151721e+01	 9.690855195897470e+00
0	 3.285724463525451e+01	 1.714275536474550e+01	 9.678944516401572e+00
0	 3.285724463525450e+01	 1.785705605130510e+01	 9.683312002405268e+00
0	 3.285724463525451e+01	 1.857135590452859e+01	 9.700732891758864e+00
0	 3.285724463525450e+01	 1.928565475774854e+01	 9.727982437688350e+00
0	 3.285724463525452e+01	 1.999995244429754e+01	 9.761835908795574e+00
0	 3.285724463525450e+01	 2.071424879750815e+01	 9.799068589058438e+00
0	 3.285724463525451e+01	 2.142854365071296e+01	 9.836455777831162e+00
0	 3.357154598848280e+01	 1.428554761849444e+01	 9.800496106103626e+00
0	 3.357154598848279e+01	 1.499984997172426e+01	 9.766523933274865e+00
0	 3.357154598848280e+01	 1.571415215828766e+01	 9.750291849513895e+00
0	 3.357154598848280e+01	 1.642845401151721e+01	 9.748734313501009e+00
0	 3.357154598848280e+01	 1.714275536474550e+01	 9.758785788789936e+00
0	 3.357154598848279e+01	 1.785705605130509e+01	 9.777380743807816e+00
0	 3.357154598848280e+01	 1.857135590452859e+01	 9.801453651855169e+00
0	 3.357154598848280e+01	 1.928565475774854e+01	 9.827938991105979e+00
0	 3.357154598848280e+01	 1.999995244429753e+01	 9.853771244607653e+00
0	 3.357154598848280e+01	 2.071424879750816e+01	 9.875884900281115e+00
0	 3.357154598848279e+01	 2.142854365071296e+01	 9.891214450920891e+00
0	 3.428584784171235e+01	 1.428554761849444e+01	 9.755152100569893e+00
0	 3.428584784171235e+01	 1.499984997172426e+01	 9.765518241251455e+00
0	 3.428584784171235e+01	 1.571415215828766e+01	 9.784669901329737e+00
0	 3.428584784171235e+01	 1.642845401151721e+01	 9.809949319680417e+00
0	 3.428584784171235e+01	 1.714275536474550e+01	 9.838698730197521e+00
0	 3.428584784171235e+01	 1.785705605130510e+01	 9.868260361793441e+00
0	 3.428584784171235e+01	 1.857135590452859e+01	 9.895976438398847e+00
0	 3.428584784171235e+01	 1.928565475774854e+01	 9.919189178962622e+00
0	 3.428584784171235e+01	 1.999995244429753e+01	 9.935240797451838e+00
0	 3.428584784171234e+01	 2.071424879750815e+01	 9.941473502851609e+00
0	 3.428584784171235e+01	 2.142854365071296e+01	 9.935229499164981e+00
0	 3.500015002827575e+01	 1.428554761849444e+01	 9.728481428098311e+00
0	 3.500015002827575e+01	 1.499984997172426e+01	 9.777166681185580e+00
0	 3.500015002827573e+01	 1.571415215828766e+01	 9.825611240198114e+00
0	 3.500015002827575e+01	 1.642845401151721e+01	 9.871813635504504e+00
0	 3.500015002827574e+01	 1.714275536474550e+01	 9.913772384222300e+00
0	 3.500015002827575e+01	 1.785705605130510e+01	 9.949485990218072e+00
0	 3.500015002827575e+01	 1.857135590452858e+01	 9.976952944107248e+00
0	 3.500015002827575e+01	 1.928565475774854e+01	 9.994171723254057e+00
0	 3.500015002827575e+01	 1.999995244429754e+01	 9.999140791771291e+00
0	 3.500015002827575e+01	 2.071424879750816e+01	 9.989858600520154e+00
0	 3.500015002827575e+01	 2.142854365071296e+01	 9.964323587109959e+00
0	 3.571445238150556e+01	 1.428554761849444e+01	 9.728493468882021e+00
0	 3.571445238150555e+01	 1.499984997172426e+01	 9.805242849140576e+00
0	 3.571445238150556e+01	 1.571415215828766e+01	 9.873324147102906e+00
0	 3.571445238150557e+01	 1.642845401151722e+01	 9.931640694334755e+00
0	 3.571445238150556e+01	 1.714275536474550e+01	 9.979095803405853e+00
0	 3.571445238150555e+01	 1.785705605130510e+01	 1.001459276788987e+01
0	 3.571445238150555e+01	 1.857135590452859e+01	 1.003703486236434e+01
0	 3.571445238150556e+01	 1.928565475774854e+01	 1.004532534241046e+01
0	 3.571445238150557e+01	 1.999995244429754e+01	 1.003836744461291e+01
0	 3.571445238150557e+01	 2.071424879750816e+01	 1.001506438655948e+01
0	 3.571445238150556e+01	 2.142854365071296e+01	 9.974319366840794e+00
0	 2.857145634928704e+01	 2.142854365071296e+01	 9.516216832756561e+00
0	 2.857145634928704e+01	 2.214283692057824e+01	 9.606289357523568e+00
0	 2.857145634928704e+01	 2.285712885710494e+01	 9.686618202499801e+00
0	 2.857145634928704e+01	 2.357141979362770e+01	 9.756571640452847e+00
0	 2.857145634928703e+01	 2.428571006348117e+01	 9.815517978877649e+00
0	 2.857145634928704e+01	 2.500000000000001e+01	 9.862825559997390e+00
0	 2.857145634928704e+01	 2.571428993651884e+01	 9.897862760764065e+00
0	 2.857145634928704e+01	 2.642858020637232e+01	 9.919997992858910e+00
0	 2.857145634928704e+01	 2.714287114289508e+01	 9.928599702692464e+00
0	 2.857145634928704e+01	 2.785716307942177e+01	 9.923036371404489e+00
0	 2.857145634928703e+01	 2.857145634928703e+01	 9.902676514863598e+00
0	 2.928575120249186e+01	 2.142854365071297e+01	 9.547713908253520e+00
0	 2.928575120249186e+01	 2.214283692057824e+01	 9.646968489890646e+00
0	 2.928575120249184e+01	 2.285712885710493e+01	 9.731060746199564e+00
0	 2.928575120249186e+01	 2.357141979362770e+01	 9.800267990956115e+00
0	 2.928575120249185e+01	 2.428571006348117e+01	 9.854867575060853e+00
0	 2.928575120249187e+01	 2.500000000000001e+01	 9.895136886540021e+00
0	 2.928575120249185e+01	 2.571428993651883e+01	 9.921353350546120e+00
0	 2.928575120249186e+01	 2.642858020637231e+01	 9.933794429358361e+00
0	 2.928575120249186e+01	 2.714287114289508e+01	 9.932737622382806e+00
0	 2.928575120249186e+01	 2.785716307942178e+01	 9.918460466152171e+00
0	 2.928575120249185e+01	 2.857145634928703e+01	 9.891240534325547e+00
0	 3.000004755570248e+01	 2.142854365071296e+01	 9.593531109928225e+00
0	 3.000004755570248e+01	 2.214283692057824e+01	 9.691602371253893e+00
0	 3.000004755570248e+01	 2.285712885710494e+01	 9.771472339119743e+00
0	 3.000004755570248e+01	 2.357141979362770e+01	 9.834156053825103e+00
0	 3.000004755570247e+01	 2.428571006348117e+01	 9.880668590939148e+00
0	 3.000004755570248e+01	 2.500000000000001e+01	 9.912025061301865e+00
0	 3.000004755570248e+01	 2.571428993651884e+01	 9.929240611024605e+00
0	 3.000004755570248e+01	 2.642858020637231e+01	 9.933330421490520e+00
0	 3.000004755570247e+01	 2.714287114289507e+01	 9.925309709354668e+00
0	 3.000004755570247e+01	 2.785716307942177e+01	 9.906193726543934e+00
0	 3.000004755570248e+01	 2.857145634928704e+01	 9.876997760256643e+00
0	 3.071434524225148e+01	 2.142854365071297e+01	 9.649491177098756e+00
0	 3.071434524225148e+01	 2.214283692057824e+01	 9.737990692418311e+00
0	 3.071434524225148e+01	 2.285712885710494e+01	 9.807316102064085e+00
0	 3.071434524225146e+01	 2.357141979362770e+01	 9.859048856044843e+00
0	 3.071434524225147e+01	 2.428571006348117e+01	 9.894770434410049e+00
0	 3.071434524225148e+01	 2.500000000000001e+01	 9.916062347250602e+00
0	 3.071434524225147e+01	 2.571428993651883e+01	 9.924506134699357e+00
0	 3.071434524225147e+01	 2.642858020637231e+01	 9.921683366931543e+00
0	 3.071434524225147e+01	 2.714287114289507e+01	 9.909175644164854e+00
0	 3.071434524225147e+01	 2.785716307942177e+01	 9.888564596659357e+00
0	 3.071434524225148e+01	 2.857145634928704e+01	 9.861431884717270e+00
0	 3.142864409547142e+01	 2.142854365071296e+01	 9.711416836620749e+00
0	 3.142864409547143e+01	 2.214283692057824e+01	 9.783933131089746e+00
0	 3.142864409547142e+01	 2.285712885710494e+01	 9.838055143305761e+00
0	 3.142864409547143e+01	 2.357141979362770e+01	 9.875759413604010e+00
0	 3.142864409547143e+01	 2.428571006348117e+01	 9.899022504634612e+00
0	 3.142864409547143e+01	 2.500000000000001e+01	 9.909821001363134e+00
0	 3.142864409547142e+01	 2.571428993651883e+01	 9.910131511071128e+00
0	 3.142864409547143e+01	 2.642858020637232e+01	 9.901930663356321e+00
0	 3.142864409547143e+01	 2.714287114289508e+01	 9.887195110132810e+00
0	 3.142864409547143e+01	 2.785716307942177e+01	 9.867901525631005e+00
0	 3.142864409547142e+01	 2.857145634928703e+01	 9.846026606397462e+00
0	 3.214294394869491e+01	 2.142854365071296e+01	 9.775130802887700e+00
0	 3.214294394869491e+01	 2.214283692057824e+01	 9.827229351875028e+00
0	 3.214294394869491e+01	 2.285712885710493e+01	 9.863152558587608e+00
0	 3.214294394869491e+01	 2.357141979362770e+01	 9.885100731495116e+00
0	 3.214294394869491e+01	 2.428571006348117e+01	 9.895274192037563e+00
0	 3.214294394869491e+01	 2.500000000000000e+01	 9.895873274625789e+00
0	 3.214294394869491e+01	 2.571428993651883e+01	 9.889098326641665e+00
0	 3.214294394869491e+01	 2.642858020637231e+01	 9.877149708438388e+00
0	 3.214294394869492e+01	 2.714287114289507e+01	 9.862227793340564e+00
0	 3.214294394869491e+01	 2.785716307942177e+01	 9.846532967644233e+00
0	 3.214294394869491e+01	 2.857145634928704e+01	 9.832265630616861e+00
0	 3.285724463525451e+01	 2.142854365071296e+01	 9.836455777831162e+00
0	 3.285724463525451e+01	 2.214283692057825e+01	 9.865679006282290e+00
0	 3.285724463525452e+01	 2.285712885710494e+01	 9.882071431122354e+00
0	 3.285724463525451e+01	 2.357141979362770e+01	 9.887885803714680e+00
0	 3.285724463525451e+01	 2.428571006348117e+01	 9.885374878307521e+00
0	 3.285724463525451e+01	 2.500000000000000e+01	 9.876791412034303e+00
0	 3.285724463525451e+01	 2.571428993651883e+01	 9.864388164913736e+00
0	 3.285724463525452e+01	 2.642858020637231e+01	 9.850417899849958e+00
0	 3.285724463525451e+01	 2.714287114289507e+01	 9.837133382632672e+00
0	 3.285724463525451e+01	 2.785716307942177e+01	 9.826787381937184e+00
0	 3.285724463525450e+01	 2.857145634928703e+01	 9.821632669324506e+00
0	 3.357154598848279e+01	 2.142854365071296e+01	 9.891214450920891e+00
0	 3.357154598848280e+01	 2.214283692057824e+01	 9.897081732721103e+00
0	 3.357154598848279e+01	 2.285712885710494e+01	 9.894274831592789e+00
0	 3.357154598848278e+01	 2.357141979362770e+01	 9.884927613263443e+00
0	 3.357154598848280e+01	 2.428571006348118e+01	 9.871173936397035e+00
0	 3.357154598848280e+01	 2.500000000000001e+01	 9.855147652593994e+00
0	 3.357154598848281e+01	 2.571428993651884e+01	 9.838982606391180e+00
0	 3.357154598848280e+01	 2.642858020637231e+01	 9.824812635261935e+00
0	 3.357154598848280e+01	 2.714287114289508e+01	 9.814771569616187e+00
0	 3.357154598848279e+01	 2.785716307942177e+01	 9.810993232800602e+00
0	 3.357154598848279e+01	 2.857145634928703e+01	 9.815611441098779e+00
0	 3.428584784171235e+01	 2.142854365071296e+01	 9.935229499164981e+00
0	 3.428584784171235e+01	 2.214283692057824e+01	 9.919237156502628e+00
0	 3.428584784171235e+01	 2.285712885710494e+01	 9.899225818151853e+00
0	 3.428584784171236e+01	 2.357141979362770e+01	 9.877039132146390e+00
0	 3.428584784171235e+01	 2.428571006348118e+01	 9.854520730522701e+00
0	 3.428584784171235e+01	 2.500000000000001e+01	 9.833514229319768e+00
0	 3.428584784171235e+01	 2.571428993651883e+01	 9.815863228578923e+00
0	 3.428584784171235e+01	 2.642858020637231e+01	 9.803411312343830e+00
0	 3.428584784171236e+01	 2.714287114289508e+01	 9.798002048660578e+00
0	 3.428584784171235e+01	 2.785716307942178e+01	 9.801478989577857e+00
0	 3.428584784171235e+01	 2.857145634928704e+01	 9.815685671147293e+00
0	 3.500015002827575e+01	 2.142854365071296e+01	 9.964323587109959e+00
0	 3.500015002827575e+01	 2.214283692057824e+01	 9.929944889839650e+00
0	 3.500015002827574e+01	 2.285712885710494e+01	 9.896387436422755e+00
0	 3.500015002827575e+01	 2.357141979362770e+01	 9.865033321372875e+00
0	 3.500015002827575e+01	 2.428571006348118e+01	 9.837264616165212e+00
0	 3.500015002827575e+01	 2.500000000000000e+01	 9.814463369236153e+00
0	 3.500015002827574e+01	 2.571428993651883e+01	 9.798011605982976e+00
0	 3.500015002827574e+01	 2.642858020637231e+01	 9.789291328763829e+00
0	 3.500015002827574e+01	 2.714287114289507e+01	 9.789684516897729e+00
0	 3.500015002827575e+01	 2.785716307942177e+01	 9.800573126664847e+00
0	 3.500015002827575e+01	 2.857145634928704e+01	 9.823339091306861e+00
0	 3.571445238150556e+01	 2.142854365071296e+01	 9.974319366840794e+00
0	 3.571445238150555e+01	 2.214283692057824e+01	 9.927004531846686e+00
0	 3.571445238150556e+01	 2.285712885710494e+01	 9.885222719498989e+00
0	 3.571445238150555e+01	 2.357141979362770e+01	 9.849723130956638e+00
0	 3.571445238150556e+01	 2.428571006348118e+01	 9.821254940069387e+00
0	 3.571445238150555e+01	 2.500000000000000e+01	 9.800567293377316e+00
0	 3.571445238150556e+01	 2.571428993651884e+01	 9.788409310110460e+00
0	 3.571445238150556e+01	 2.642858020637231e+01	 9.785530082188734e+00
0	 3.571445238150555e+01	 2.714287114289507e+01	 9.792678674221929e+00
0	 3.571445238150556e+01	 2.785716307942177e+01	 9.810604123509986e+00
0	 3.571445238150555e+01	 2.857145634928703e+01	 9.840055440043441e+00
0	 2.857145634928703e+01	 2.857145634928703e+01	 9.902676514863598e+00
0	 2.857145634928704e+01	 2.928575120249186e+01	 9.876472331521803e+00
0	 2.857145634928703e+01	 3.000004755570248e+01	 9.854119798301005e+00
0	 2.857145634928704e+01	 3.071434524225148e+01	 9.836103131533022e+00
0	 2.857145634928703e+01	 3.142864409547142e+01	 9.822906556498928e+00
0	 2.857145634928704e+01	 3.214294394869491e+01	 9.815014307428861e+00
0	 2.857145634928704e+01	 3.285724463525451e+01	 9.812910627501928e+00
0	 2.857145634928703e+01	 3.357154598848279e+01	 9.817079768846058e+00
0	 2.857145634928704e+01	 3.428584784171235e+01	 9.828005992537946e+00
0	 2.857145634928704e+01	 3.500015002827575e+01	 9.846173568602987e+00
0	 2.857145634928704e+01	 3.571445238150556e+01	 9.872066776015316e+00
0	 2.928575120249185e+01	 2.857145634928703e+01	 9.891240534325547e+00
0	 2.928575120249186e+01	 2.928575120249186e+01	 9.861091522366788e+00
0	 2.928575120249186e+01	 3.000004755570248e+01	 9.837775185262231e+00
0	 2.928575120249185e+01	 3.071434524225147e+01	 9.821191220454816e+00
0	 2.928575120249186e+01	 3.142864409547142e+01	 9.811239334261876e+00
0	 2.928575120249186e+01	 3.214294394869491e+01	 9.807819241874901e+00
0	 2.928575120249185e+01	 3.285724463525450e+01	 9.810830667359429e+00
0	 2.928575120249186e+01	 3.357154598848280e+01	 9.820173343654940e+00
0	 2.928575120249186e+01	 3.428584784171236e+01	 9.835747012574762e+00
0	 2.928575120249187e+01	 3.500015002827575e+01	 9.857451424806019e+00
0	 2.928575120249186e+01	 3.571445238150555e+01	 9.885186339909620e+00
0	 3.000004755570248e+01	 2.857145634928704e+01	 9.876997760256643e+00
0	 3.000004755570248e+01	 2.928575120249186e+01	 9.847579769036729e+00
0	 3.000004755570247e+01	 3.000004755570247e+01	 9.826737841499323e+00
0	 3.000004755570247e+01	 3.071434524225147e+01	 9.813897492302257e+00
0	 3.000004755570248e+01	 3.142864409547142e+01	 9.808484243968953e+00
0	 3.000004755570247e+01	 3.214294394869491e+01	 9.809923626888381e+00
0	 3.000004755570247e+01	 3.285724463525450e+01	 9.817641179314919e+00
0	 3.000004755570248e+01	 3.357154598848280e+01	 9.831062447368222e+00
0	 3.000004755570248e+01	 3.428584784171235e+01	 9.849612985033161e+00
0	 3.000004755570248e+01	 3.500015002827575e+01	 9.872718354159812e+00
0	 3.000004755570247e+01	 3.571445238150556e+01	 9.899804124463390e+00
0	 3.071434524225148e+01	 2.857145634928704e+01	 9.861431884717270e+00
0	 3.071434524225146e+01	 2.928575120249185e+01	 9.836496434142711e+00
0	 3.071434524225148e+01	 3.000004755570248e+01	 9.820797156134860e+00
0	 3.071434524225146e+01	 3.071434524225147e+01	 9.813395716224262e+00
0	 3.071434524225148e+01	 3.142864409547143e+01	 9.813353786080787e+00
0	 3.071434524225146e+01	 3.214294394869491e+01	 9.819733043513464e+00
0	 3.071434524225147e+01	 3.285724463525450e+01	 9.831595172470397e+00
0	 3.071434524225148e+01	 3.357154598848279e+01	 9.848001863038723e+00
0	 3.071434524225146e+01	 3.428584784171235e+01	 9.868014811444489e+00
0	 3.071434524225148e+01	 3.500015002827574e+01	 9.890695720052701e+00
0	 3.071434524225148e+01	 3.571445238150555e+01	 9.915106297367270e+00
0	 3.142864409547142e+01	 2.857145634928703e+01	 9.846026606397462e+00
0	 3.142864409547143e+01	 2.928575120249186e+01	 9.828400887614618e+00
0	 3.142864409547142e+01	 3.000004755570248e+01	 9.819742525500210e+00
0	 3.142864409547143e+01	 3.071434524225149e+01	 9.818859667824285e+00
0	 3.142864409547143e+01	 3.142864409547143e+01	 9.824560466268188e+00
0	 3.142864409547143e+01	 3.214294394869491e+01	 9.835653076424519e+00
0	 3.142864409547143e+01	 3.285724463525452e+01	 9.850945657797073e+00
0	 3.142864409547142e+01	 3.357154598848279e+01	 9.869246373800816e+00
0	 3.142864409547143e+01	 3.428584784171236e+01	 9.889363391761810e+00
0	 3.142864409547142e+01	 3.500015002827574e+01	 9.910104882917267e+00
0	 3.142864409547142e+01	 3.571445238150555e+01	 9.930279022415469e+00
0	 3.214294394869491e+01	 2.857145634928704e+01	 9.832265630616861e+00
0	 3.214294394869491e+01	 2.928575120249186e+01	 9.823852506700909e+00
0	 3.214294394869491e+01	 3.000004755570247e+01	 9.823363353135550e+00
0	 3.214294394869491e+01	 3.071434524225147e+01	 9.829463129160144e+00
0	 3.214294394869491e+01	 3.142864409547142e+01	 9.840816795411961e+00
0	 3.214294394869491e+01	 3.214294394869491e+01	 9.856089313926034e+00
0	 3.214294394869492e+01	 3.285724463525452e+01	 9.873945648135274e+00
0	 3.214294394869491e+01	 3.357154598848279e+01	 9.893050762870418e+00
0	 3.214294394869491e+01	 3.428584784171235e+01	 9.912069624359992e+00
0	 3.214294394869491e+01	 3.500015002827575e+01	 9.929667200230382e+00
0	 3.214294394869491e+01	 3.571445238150556e+01	 9.944508459505776e+00
0	 3.285724463525450e+01	 2.857145634928703e+01	 9.821632669324506e+00
0	 3.285724463525451e+01	 2.928575120249185e+01	 9.823410675968535e+00
0	 3.285724463525451e+01	 3.000004755570248e+01	 9.831449049789587e+00
0	 3.285724463525451e+01	 3.071434524225148e+01	 9.844379888743937e+00
0	 3.285724463525452e+01	 3.142864409547143e+01	 9.860835289602836e+00
0	 3.285724463525451e+01	 3.214294394869491e+01	 9.879447347952564e+00
0	 3.285724463525450e+01	 3.285724463525450e+01	 9.898848158194456e+00
0	 3.285724463525451e+01	 3.357154598848280e+01	 9.917669813544967e+00
0	 3.285724463525451e+01	 3.428584784171235e+01	 9.934544406035680e+00
0	 3.285724463525450e+01	 3.500015002827573e+01	 9.948104026513285e+00
0	 3.285724463525451e+01	 3.571445238150555e+01	 9.956980764639672e+00
0	 3.357154598848279e+01	 2.857145634928703e+01	 9.815611441098779e+00
0	 3.357154598848280e+01	 2.928575120249186e+01	 9.827634787302788e+00
0	 3.357154598848280e+01	 3.000004755570248e+01	 9.843789033419554e+00
0	 3.357154598848280e+01	 3.071434524225148e+01	 9.862783741541886e+00
0	 3.357154598848278e+01	 3.142864409547141e+01	 9.883328470141397e+00
0	 3.357154598848280e+01	 3.214294394869491e+01	 9.904132774068632e+00
0	 3.357154598848280e+01	 3.285724463525452e+01	 9.923906204553115e+00
0	 3.357154598848280e+01	 3.357154598848280e+01	 9.941358309203437e+00
0	 3.357154598848280e+01	 3.428584784171235e+01	 9.955198632007320e+00
0	 3.357154598848280e+01	 3.500015002827575e+01	 9.964136713331628e+00
0	 3.357154598848280e+01	 3.571445238150556e+01	 9.966882089922388e+00
0	 3.428584784171235e+01	 2.857145634928704e+01	 9.815685671147293e+00
0	 3.428584784171235e+01	 2.928575120249185e+01	 9.837084239907243e+00
0	 3.428584784171235e+01	 3.000004755570248e+01	 9.860172729191063e+00
0	 3.428584784171235e+01	 3.071434524225147e+01	 9.883848488974303e+00
0	 3.428584784171235e+01	 3.142864409547142e+01	 9.907008863537991e+00
0	 3.428584784171235e+01	 3.214294394869491e+01	 9.928551191468733e+00
0	 3.428584784171235e+01	 3.285724463525450e+01	 9.947372805658802e+00
0	 3.428584784171235e+01	 3.357154598848280e+01	 9.962371033306297e+00
0	 3.428584784171235e+01	 3.428584784171235e+01	 9.972443195915220e+00
0	 3.428584784171235e+01	 3.500015002827573e+01	 9.976486609295449e+00
0	 3.428584784171235e+01	 3.571445238150555e+01	 9.973398583562899e+00
0	 3.500015002827575e+01	 2.857145634928704e+01	 9.823339091306861e+00
0	 3.500015002827575e+01	 2.928575120249186e+01	 9.852318440303673e+00
0	 3.500015002827575e+01	 3.000004755570248e+01	 9.880389569478041e+00
0	 3.500015002827575e+01	 3.071434524225147e+01	 9.906747938915558e+00
0	 3.500015002827575e+01	 3.142864409547143e+01	 9.930589001512732e+00
0	 3.500015002827575e+01	 3.214294394869491e+01	 9.951108202977260e+00
0	 3.500015002827574e+01	 3.285724463525450e+01	 9.967500981828067e+00
0	 3.500015002827575e+01	 3.357154598848280e+01	 9.978962769395531e+00
0	 3.500015002827576e+01	 3.428584784171235e+01	 9.984688989821459e+00
0	 3.500015002827575e+01	 3.500015002827575e+01	 9.983875060059290e+00
0	 3.500015002827575e+01	 3.571445238150555e+01	 9.975716389873989e+00
0	 3.571445238150555e+01	 2.857145634928703e+01	 9.840055440043441e+00
0	 3.571445238150555e+01	 2.928575120249185e+01	 9.873896802332007e+00
0	 3.571445238150555e+01	 3.000004755570247e+01	 9.904228993862747e+00
0	 3.571445238150556e+01	 3.071434524225148e+01	 9.930655905693961e+00
0	 3.571445238150556e+01	 3.142864409547142e+01	 9.952781420995395e+00
0	 3.571445238150556e+01	 3.214294394869491e+01	 9.970209415048512e+00
0	 3.571445238150555e+01	 3.285724463525451e+01	 9.982543755246519e+00
0	 3.571445238150555e+01	 3.357154598848280e+01	 9.989388301094621e+00
0	 3.571445238150555e+01	 3.428584784171235e+01	 9.990346904210023e+00
0	 3.571445238150556e+01	 3.500015002827574e+01	 9.985023408322077e+00
0	 3.571445238150555e+01	 3.571445238150556e+01	 9.973021649272258e+00
0	 2.857145634928704e+01	 3.571445238150556e+01	 9.872066776015316e+00
0	 2.857145634928704e+01	 3.642870477623359e+01	 9.900536767169960e+00
0	 2.857145634928703e+01	 3.714295725428856e+01	 9.925948893660623e+00
0	 2.857145634928704e+01	 3.785720989899840e+01	 9.948052459859650e+00
0	 2.857145634928704e+01	 3.857146279369101e+01	 9.966596773376699e+00
0	 2.857145634928704e+01	 3.928571602169432e+01	 9.981331145058666e+00
0	 2.857145634928703e+01	 3.999996966633628e+01	 9.992004888989758e+00
0	 2.857145634928704e+01	 4.071422381094482e+01	 9.998367322491434e+00
0	 2.857145634928704e+01	 4.142847853884783e+01	 1.000016776612240e+01
0	 2.857145634928703e+01	 4.214273393337326e+01	 9.997155543678563e+00
0	 2.857145634928704e+01	 4.285699007784908e+01	 9.989079982193109e+00
0	 2.928575120249186e+01	 3.571445238150555e+01	 9.885186339909620e+00
0	 2.928575120249186e+01	 3.642870477623359e+01	 9.913602417405212e+00
0	 2.928575120249186e+01	 3.714295725428858e+01	 9.937507202884586e+00
0	 2.928575120249186e+01	 3.785720989899841e+01	 9.957029343504248e+00
0	 2.928575120249186e+01	 3.857146279369100e+01	 9.972297489382886e+00
0	 2.928575120249185e+01	 3.928571602169433e+01	 9.983440293601282e+00
0	 2.928575120249185e+01	 3.999996966633629e+01	 9.990586412202436e+00
0	 2.928575120249186e+01	 4.071422381094482e+01	 9.993864504191389e+00
0	 2.928575120249185e+01	 4.142847853884783e+01	 9.993403231535403e+00
0	 2.928575120249185e+01	 4.214273393337328e+01	 9.989331259163775e+00
0	 2.928575120249185e+01	 4.285699007784907e+01	 9.981777254967922e+00
0	 3.000004755570247e+01	 3.571445238150556e+01	 9.899804124463389e+00
0	 3.000004755570247e+01	 3.642870477623359e+01	 9.925900377792670e+00
0	 3.000004755570248e+01	 3.714295725428858e+01	 9.946714181731561e+00
0	 3.000004755570248e+01	 3.785720989899839e+01	 9.962680526714449e+00
0	 3.000004755570247e+01	 3.857146279369102e+01	 9.974234405629627e+00
0	 3.000004755570247e+01	 3.928571602169432e+01	 9.981810813819237e+00
0	 3.000004755570247e+01	 3.999996966633628e+01	 9.985844749079394e+00
0	 3.000004755570248e+01	 4.071422381094482e+01	 9.986771211660063e+00
0	 3.000004755570248e+01	 4.142847853884784e+01	 9.985025204265103e+00
0	 3.000004755570248e+01	 4.214273393337328e+01	 9.981041732052255e+00
0	 3.000004755570247e+01	 4.285699007784908e+01	 9.975255802633090e+00
0	 3.071434524225148e+01	 3.571445238150555e+01	 9.915106297367270e+00
0	 3.071434524225147e+01	 3.642870477623359e+01	 9.937114387534521e+00
0	 3.071434524225148e+01	 3.714295725428858e+01	 9.953662409614550e+00
0	 3.071434524225147e+01	 3.785720989899839e+01	 9.965418698365566e+00
0	 3.071434524225147e+01	 3.857146279369101e+01	 9.973051590320406e+00
0	 3.071434524225148e+01	 3.928571602169432e+01	 9.977229423786619e+00
0	 3.071434524225147e+01	 3.999996966633629e+01	 9.978620538846311e+00
0	 3.071434524225147e+01	 4.071422381094480e+01	 9.977893277356351e+00
0	 3.071434524225148e+01	 4.142847853884784e+01	 9.975715982948154e+00
0	 3.071434524225147e+01	 4.214273393337327e+01	 9.972757001027814e+00
0	 3.071434524225147e+01	 4.285699007784906e+01	 9.969684678776048e+00
0	 3.142864409547142e+01	 3.571445238150555e+01	 9.930279022415473e+00
0	 3.142864409547143e+01	 3.642870477623360e+01	 9.946928181544269e+00
0	 3.142864409547143e+01	 3.714295725428858e+01	 9.958444461754521e+00
0	 3.142864409547143e+01	 3.785720989899840e+01	 9.965656543624315e+00
0	 3.142864409547142e+01	 3.857146279369100e+01	 9.969393108718219e+00
0	 3.142864409547143e+01	 3.928571602169433e+01	 9.970482839587302e+00
0	 3.142864409547143e+01	 3.999996966633628e+01	 9.969754419769169e+00
0	 3.142864409547143e+01	 4.071422381094481e+01	 9.968036533787906e+00
0	 3.142864409547142e+01	 4.142847853884781e+01	 9.966157867154138e+00
0	 3.142864409547143e+01	 4.214273393337328e+01	 9.964947106364939e+00
0	 3.142864409547142e+01	 4.285699007784908e+01	 9.965232938903942e+00
0	 3.214294394869491e+01	 3.571445238150556e+01	 9.944508459505775e+00
0	 3.214294394869492e+01	 3.642870477623360e+01	 9.955025490446747e+00
0	 3.214294394869491e+01	 3.714295725428858e+01	 9.961152909180530e+00
0	 3.214294394869491e+01	 3.785720989899838e+01	 9.963806743948961e+00
0	 3.214294394869492e+01	 3.857146279369100e+01	 9.963903023145475e+00
0	 3.214294394869491e+01	 3.928571602169432e+01	 9.962357775315034e+00
0	 3.214294394869491e+01	 3.999996966633629e+01	 9.960087029154218e+00
0	 3.214294394869491e+01	 4.071422381094480e+01	 9.958006813511155e+00
0	 3.214294394869491e+01	 4.142847853884783e+01	 9.957033157385561e+00
0	 3.214294394869491e+01	 4.214273393337326e+01	 9.958082089928743e+00
0	 3.214294394869491e+01	 4.285699007784907e+01	 9.962069640443591e+00
0	 3.285724463525451e+01	 3.571445238150555e+01	 9.956980764639672e+00
0	 3.285724463525450e+01	 3.642870477623359e+01	 9.961090040578252e+00
0	 3.285724463525452e+01	 3.714295725428858e+01	 9.961880318729744e+00
0	 3.285724463525450e+01	 3.785720989899840e+01	 9.960281977089355e+00
0	 3.285724463525450e+01	 3.857146279369100e+01	 9.957225392984217e+00
0	 3.285724463525451e+01	 3.928571602169433e+01	 9.953640943073445e+00
0	 3.285724463525451e+01	 3.999996966633628e+01	 9.950459003348090e+00
0	 3.285724463525451e+01	 4.071422381094482e+01	 9.948609949131210e+00
0	 3.285724463525451e+01	 4.142847853884782e+01	 9.949024155077804e+00
0	 3.285724463525451e+01	 4.214273393337327e+01	 9.952631995174878e+00
0	 3.285724463525451e+01	 4.285699007784908e+01	 9.960363842741437e+00
0	 3.357154598848280e+01	 3.571445238150556e+01	 9.966882089922388e+00
0	 3.357154598848280e+01	 3.642870477623360e+01	 9.964805553986604e+00
0	 3.357154598848280e+01	 3.714295725428857e+01	 9.960719253047603e+00
0	 3.357154598848279e+01	 3.785720989899838e+01	 9.955494917086984e+00
0	 3.357154598848279e+01	 3.857146279369100e+01	 9.950004274676093e+00
0	 3.357154598848280e+01	 3.928571602169433e+01	 9.945119052976057e+00
0	 3.357154598848280e+01	 3.999996966633629e+01	 9.941710977737797e+00
0	 3.357154598848280e+01	 4.071422381094481e+01	 9.940651773301994e+00
0	 3.357154598848280e+01	 4.142847853884785e+01	 9.942813162599162e+00
0	 3.357154598848280e+01	 4.214273393337328e+01	 9.949066867149616e+00
0	 3.357154598848280e+01	 4.285699007784907e+01	 9.960284607063512e+00
0	 3.428584784171235e+01	 3.571445238150555e+01	 9.973398583562899e+00
0	 3.428584784171235e+01	 3.642870477623359e+01	 9.965855748431135e+00
0	 3.428584784171235e+01	 3.714295725428857e+01	 9.957762270587734e+00
0	 3.428584784171235e+01	 3.785720989899839e+01	 9.949858234275000e+00
0	 3.428584784171235e+01	 3.857146279369100e+01	 9.942883721722350e+00
0	 3.428584784171235e+01	 3.928571602169433e+01	 9.937578813146352e+00
0	 3.428584784171235e+01	 3.999996966633628e+01	 9.934683586750676e+00
0	 3.428584784171235e+01	 4.071422381094480e+01	 9.934938118726150e+00
0	 3.428584784171235e+01	 4.142847853884783e+01	 9.939082483250795e+00
0	 3.428584784171234e+01	 4.214273393337328e+01	 9.947856752489773e+00
0	 3.428584784171236e+01	 4.285699007784908e+01	 9.962000996595503e+00
0	 3.500015002827575e+01	 3.571445238150555e+01	 9.975716389873989e+00
0	 3.500015002827575e+01	 3.642870477623359e+01	 9.963924337382799e+00
0	 3.500015002827575e+01	 3.714295725428857e+01	 9.953101925612089e+00
0	 3.500015002827574e+01	 3.785720989899839e+01	 9.943784595278293e+00
0	 3.500015002827575e+01	 3.857146279369101e+01	 9.936507784683959e+00
0	 3.500015002827575e+01	 3.928571602169433e+01	 9.931806929717744e+00
0	 3.500015002827575e+01	 3.999996966633629e+01	 9.930217463854458e+00
0	 3.500015002827575e+01	 4.071422381094481e+01	 9.932274818155086e+00
0	 3.500015002827575e+01	 4.142847853884783e+01	 9.938514421266731e+00
0	 3.500015002827575e+01	 4.214273393337328e+01	 9.949471699422730e+00
0	 3.500015002827575e+01	 4.285699007784908e+01	 9.965682076442626e+00
0	 3.571445238150555e+01	 3.571445238150556e+01	 9.973021649272258e+00
0	 3.571445238150556e+01	 3.642870477623360e+01	 9.958695030024117e+00
0	 3.571445238150556e+01	 3.714295725428856e+01	 9.946830768190905e+00
0	 3.571445238150555e+01	 3.785720989899839e+01	 9.937686663013459e+00
0	 3.571445238150557e+01	 3.857146279369101e+01	 9.931520511181489e+00
0	 3.571445238150555e+01	 3.928571602169433e+01	 9.928590106833600e+00
0	 3.571445238150555e+01	 3.999996966633629e+01	 9.929153241557280e+00
0	 3.571445238150555e+01	 4.071422381094481e+01	 9.933467704388930e+00
0	 3.571445238150555e+01	 4.142847853884783e+01	 9.941791281813865e+00
0	 3.571445238150555e+01	 4.214273393337327e+01	 9.954381757766379e+00
0	 3.571445238150556e+01	 4.285699007784908e+01	 9.971496913629704e+00
0	 2.857145634928704e+01	 4.285699007784908e+01	 9.989079982193109e+00
0	 2.857145634928704e+01	 4.357129694500738e+01	 9.979596995738365e+00
0	 2.857145634928704e+01	 4.428560406221392e+01	 9.972723124179685e+00
0	 2.857145634928704e+01	 4.499991084612204e+01	 9.968746401553251e+00
0	 2.857145634928704e+01	 4.571421671338500e+01	 9.967954876646498e+00
0	 2.857145634928704e+01	 4.642852108065615e+01	 9.970636612998186e+00
0	 2.857145634928703e+01	 4.714282336458874e+01	 9.977079688898758e+00
0	 2.857145634928704e+01	 4.785712298183613e+01	 9.987572197390769e+00
0	 2.857145634928704e+01	 4.857141934905160e+01	 1.000240224626973e+01
0	 2.857145634928704e+01	 4.928571188288845e+01	 1.002185795808480e+01
0	 2.857145634928704e+01	 5.000000000000000e+01	 1.004622747014007e+01
0	 2.928575120249185e+01	 4.285699007784907e+01	 9.981777254967918e+00
0	 2.928575120249186e+01	 4.357129694500737e+01	 9.974179857716233e+00
0	 2.928575120249186e+01	 4.428560406221393e+01	 9.969814776270429e+00
0	 2.928575120249186e+01	 4.499991084612202e+01	 9.968564351921797e+00
0	 2.928575120249186e+01	 4.571421671338500e+01	 9.970310938072103e+00
0	 2.928575120249186e+01	 4.642852108065615e+01	 9.974936900233740e+00
0	 2.928575120249185e+01	 4.714282336458874e+01	 9.982324616030011e+00
0	 2.928575120249186e+01	 4.785712298183613e+01	 9.992356475195534e+00
0	 2.928575120249186e+01	 4.857141934905161e+01	 1.000491487957681e+01
0	 2.928575120249186e+01	 4.928571188288846e+01	 1.001988224313297e+01
0	 2.928575120249186e+01	 5.000000000000000e+01	 1.003714099193668e+01
0	 3.000004755570247e+01	 4.285699007784908e+01	 9.975255802633086e+00
0	 3.000004755570248e+01	 4.357129694500736e+01	 9.970532942839746e+00
0	 3.000004755570247e+01	 4.428560406221392e+01	 9.969154048192689e+00
0	 3.000004755570247e+01	 4.499991084612203e+01	 9.970675813314497e+00
0	 3.000004755570248e+01	 4.571421671338500e+01	 9.974654940906900e+00
0	 3.000004755570247e+01	 4.642852108065615e+01	 9.980648141750990e+00
0	 3.000004755570247e+01	 4.714282336458875e+01	 9.988212134707272e+00
0	 3.000004755570248e+01	 4.785712298183612e+01	 9.996903646716188e+00
0	 3.000004755570248e+01	 4.857141934905160e+01	 1.000627941279828e+01
0	 3.000004755570247e+01	 4.928571188288844e+01	 1.001589617605496e+01
0	 3.000004755570248e+01	 4.999999999999999e+01	 1.002531068766893e+01
0	 3.071434524225147e+01	 4.285699007784906e+01	 9.969684678776050e+00
0	 3.071434524225148e+01	 4.357129694500737e+01	 9.968522830420603e+00
0	 3.071434524225148e+01	 4.428560406221393e+01	 9.970390838405667e+00
0	 3.071434524225148e+01	 4.499991084612203e+01	 9.974599795541220e+00
0	 3.071434524225148e+01	 4.571421671338500e+01	 9.980460797714919e+00
0	 3.071434524225148e+01	 4.642852108065614e+01	 9.987284943892156e+00
0	 3.071434524225147e+01	 4.714282336458874e+01	 9.994383336116226e+00
0	 3.071434524225148e+01	 4.785712298183613e+01	 1.000106707950845e+01
0	 3.071434524225148e+01	 4.857141934905160e+01	 1.000664728226838e+01
0	 3.071434524225148e+01	 4.928571188288846e+01	 1.001043505567420e+01
0	 3.071434524225148e+01	 5.000000000000000e+01	 1.001174151408272e+01
0	 3.142864409547142e+01	 4.285699007784908e+01	 9.965232938903942e+00
0	 3.142864409547142e+01	 4.357129694500738e+01	 9.968016101624073e+00
0	 3.142864409547143e+01	 4.428560406221393e+01	 9.973175046837156e+00
0	 3.142864409547142e+01	 4.499991084612203e+01	 9.979855309288684e+00
0	 3.142864409547142e+01	 4.571421671338500e+01	 9.987202421250480e+00
0	 3.142864409547143e+01	 4.642852108065613e+01	 9.994361912520688e+00
0	 3.142864409547143e+01	 4.714282336458875e+01	 1.000047931042389e+01
0	 3.142864409547142e+01	 4.785712298183613e+01	 1.000470013981103e+01
0	 3.142864409547142e+01	 4.857141934905159e+01	 1.000616992305952e+01
0	 3.142864409547142e+01	 4.928571188288846e+01	 1.000403418007303e+01
0	 3.142864409547142e+01	 4.999999999999999e+01	 9.997438428281622e+00
0	 3.214294394869491e+01	 4.285699007784907e+01	 9.962069640443596e+00
0	 3.214294394869491e+01	 4.357129694500737e+01	 9.968879339469005e+00
0	 3.214294394869491e+01	 4.428560406221393e+01	 9.977156574883526e+00
0	 3.214294394869491e+01	 4.499991084612203e+01	 9.985961366120387e+00
0	 3.214294394869491e+01	 4.571421671338501e+01	 9.994353724458184e+00
0	 3.214294394869492e+01	 4.642852108065613e+01	 1.000139365302111e+01
0	 3.214294394869491e+01	 4.714282336458875e+01	 1.000614114677866e+01
0	 3.214294394869491e+01	 4.785712298183613e+01	 1.000765619254576e+01
0	 3.214294394869491e+01	 4.857141934905160e+01	 1.000499876898229e+01
0	 3.214294394869491e+01	 4.928571188288846e+01	 9.997228846592904e+00
0	 3.214294394869492e+01	 5.000000000000000e+01	 9.983406387726491e+00
0	 3.285724463525451e+01	 4.285699007784908e+01	 9.960363842741437e+00
0	 3.285724463525451e+01	 4.357129694500737e+01	 9.970979128827720e+00
0	 3.285724463525450e+01	 4.428560406221391e+01	 9.981985325409729e+00
0	 3.285724463525450e+01	 4.499991084612203e+01	 9.992436978476631e+00
0	 3.285724463525451e+01	 4.571421671338500e+01	 1.000138862047304e+01
0	 3.285724463525451e+01	 4.642852108065614e+01	 1.000789477029912e+01
0	 3.285724463525451e+01	 4.714282336458874e+01	 1.001100993331039e+01
0	 3.285724463525450e+01	 4.785712298183613e+01	 1.000978860131749e+01
0	 3.285724463525450e+01	 4.857141934905159e+01	 1.000328525258574e+01
0	 3.285724463525451e+01	 4.928571188288845e+01	 9.990554351834321e+00
0	 3.285724463525451e+01	 4.999999999999999e+01	 9.970650350235708e+00
0	 3.357154598848280e+01	 4.285699007784907e+01	 9.960284607063514e+00
0	 3.357154598848280e+01	 4.357129694500738e+01	 9.974182056426054e+00
0	 3.357154598848280e+01	 4.428560406221391e+01	 9.987311202749220e+00
0	 3.357154598848280e+01	 4.499991084612202e+01	 9.998801159674514e+00
0	 3.357154598848280e+01	 4.571421671338501e+01	 1.000778102262025e+01
0	 3.357154598848279e+01	 4.642852108065612e+01	 1.001337986878159e+01
0	 3.357154598848280e+01	 4.714282336458875e+01	 1.001472675713029e+01
0	 3.357154598848278e+01	 4.785712298183611e+01	 1.001095072841428e+01
0	 3.357154598848280e+01	 4.857141934905160e+01	 1.000118080515706e+01
0	 3.357154598848280e+01	 4.928571188288846e+01	 9.984545991656809e+00
0	 3.357154598848280e+01	 5.000000000000000e+01	 9.960175273985268e+00
0	 3.428584784171236e+01	 4.285699007784908e+01	 9.962000996595503e+00
0	 3.428584784171235e+01	 4.357129694500737e+01	 9.978354710843375e+00
0	 3.428584784171234e+01	 4.428560406221391e+01	 9.992784112703998e+00
0	 3.428584784171235e+01	 4.499991084612203e+01	 1.000457292390793e+01
0	 3.428584784171235e+01	 4.571421671338499e+01	 1.001300484441541e+01
0	 3.428584784171235e+01	 4.642852108065614e+01	 1.001736355241658e+01
0	 3.428584784171235e+01	 4.714282336458875e+01	 1.001693270433097e+01
0	 3.428584784171235e+01	 4.785712298183614e+01	 1.001099593480717e+01
0	 3.428584784171235e+01	 4.857141934905160e+01	 9.998836856721889e+00
0	 3.428584784171235e+01	 4.928571188288846e+01	 9.979739061179043e+00
0	 3.428584784171235e+01	 4.999999999999999e+01	 9.952986117508342e+00
0	 3.500015002827575e+01	 4.285699007784908e+01	 9.965682076442629e+00
0	 3.500015002827575e+01	 4.357129694500737e+01	 9.983363682512458e+00
0	 3.500015002827575e+01	 4.428560406221392e+01	 9.998053962544573e+00
0	 3.500015002827575e+01	 4.499991084612203e+01	 1.000927128624749e+01
0	 3.500015002827575e+01	 4.571421671338499e+01	 1.001653399956442e+01
0	 3.500015002827575e+01	 4.642852108065614e+01	 1.001936042467332e+01
0	 3.500015002827575e+01	 4.714282336458875e+01	 1.001726885998656e+01
0	 3.500015002827575e+01	 4.785712298183614e+01	 1.000977758015041e+01
0	 3.500015002827574e+01	 4.857141934905159e+01	 9.996404836044087e+00
0	 3.500015002827575e+01	 4.928571188288846e+01	 9.976668854778746e+00
0	 3.500015002827575e+01	 5.000000000000001e+01	 9.950087839695813e+00
0	 3.571445238150556e+01	 4.285699007784908e+01	 9.971496913629700e+00
0	 3.571445238150555e+01	 4.357129694500737e+01	 9.989075563719542e+00
0	 3.571445238150556e+01	 4.428560406221391e+01	 1.000277066100996e+01
0	 3.571445238150556e+01	 4.499991084612203e+01	 1.001241526264069e+01
0	 3.571445238150556e+01	 4.571421671338500e+01	 1.001784240196349e+01
0	 3.571445238150556e+01	 4.642852108065614e+01	 1.001888508854224e+01
0	 3.571445238150556e+01	 4.714282336458874e+01	 1.001537630815258e+01
0	 3.571445238150555e+01	 4.785712298183612e+01	 1.000714902278146e+01
0	 3.571445238150555e+01	 4.857141934905161e+01	 9.994036170626035e+00
0	 3.571445238150555e+01	 4.928571188288847e+01	 9.975870666092810e+00
0	 3.571445238150555e+01	 5.000000000000000e+01	 9.952485399795874e+00
0	 3.571445238150555e+01	 0.000000000000000e+00	 6.865118706692514e+00
0	 3.571445238150555e+01	 7.142881171115513e-01	 7.910254133536111e+00
0	 3.571445238150556e+01	 1.428580650948409e+00	 8.792443382915138e+00
0	 3.571445238150555e+01	 2.142877018163878e+00	 9.517692628061916e+00
0	 3.571445238150556e+01	 2.857176635411264e+00	 1.009200752397574e+01
0	 3.571445238150555e+01	 3.571478919343873e+00	 1.052139320745949e+01
0	 3.571445238150556e+01	 4.285783286615009e+00	 1.081185429714995e+01
0	 3.571445238150555e+01	 5.000089153877976e+00	 1.096939489354165e+01
0	 3.571445238150555e+01	 5.714395937786081e+00	 1.100001857900457e+01
0	 3.571445238150555e+01	 6.428703054992629e+00	 1.090972841779527e+01
0	 3.571445238150555e+01	 7.143009922150927e+00	 1.070452695606183e+01
0	 3.642870477623359e+01	 0.000000000000000e+00	 6.872877467800866e+00
0	 3.642870477623360e+01	 7.142881171115514e-01	 7.874219047783583e+00
0	 3.642870477623360e+01	 1.428580650948409e+00	 8.739574339353036e+00
0	 3.642870477623360e+01	 2.142877018163879e+00	 9.468823124205910e+00
0	 3.642870477623360e+01	 2.857176635411264e+00	 1.006184451858416e+01
0	 3.642870477623360e+01	 3.571478919343873e+00	 1.051851697332231e+01
0	 3.642870477623360e+01	 4.285783286615009e+00	 1.083871827388658e+01
0	 3.642870477623359e+01	 5.000089153877975e+00	 1.102232554040591e+01
0	 3.642870477623360e+01	 5.714395937786082e+00	 1.106921522769478e+01
0	 3.642870477623360e+01	 6.428703054992630e+00	 1.097926312526791e+01
0	 3.642870477623362e+01	 7.143009922150928e+00	 1.075234435734681e+01
0	 3.714295725428858e+01	 0.000000000000000e+00	 7.197231439528327e+00
0	 3.714295725428858e+01	 7.142881171115513e-01	 8.063271369593840e+00
0	 3.714295725428857e+01	 1.428580650948410e+00	 8.828485755736986e+00
0	 3.714295725428856e+01	 2.142877018163878e+00	 9.487847397237275e+00
0	 3.714295725428856e+01	 2.857176635411264e+00	 1.003632837596163e+01
0	 3.714295725428858e+01	 3.571478919343872e+00	 1.046890005641556e+01
0	 3.714295725428859e+01	 4.285783286615009e+00	 1.078053308578554e+01
0	 3.714295725428856e+01	 5.000089153877974e+00	 1.096619739397245e+01
0	 3.714295725428858e+01	 5.714395937786080e+00	 1.102086219361646e+01
0	 3.714295725428857e+01	 6.428703054992629e+00	 1.093949598011294e+01
0	 3.714295725428855e+01	 7.143009922150926e+00	 1.071706653161968e+01
0	 3.785720989899839e+01	 0.000000000000000e+00	 7.757181656367408e+00
0	 3.785720989899838e+01	 7.142881171115513e-01	 8.422163366702041e+00
0	 3.785720989899839e+01	 1.428580650948409e+00	 9.026196810915021e+00
0	 3.785720989899841e+01	 2.142877018163878e+00	 9.560567330983675e+00
0	 3.785720989899840e+01	 2.857176635411264e+00	 1.001655957770378e+01
0	 3.785720989899839e+01	 3.571478919343872e+00	 1.038545751073891e+01
0	 3.785720989899840e+01	 4.285783286615009e+00	 1.065854439866134e+01
0	 3.785720989899841e+01	 5.000089153877976e+00	 1.082710281898444e+01
0	 3.785720989899841e+01	 5.714395937786081e+00	 1.088241465818661e+01
0	 3.785720989899841e+01	 6.428703054992631e+00	 1.081576111172680e+01
0	 3.785720989899840e+01	 7.143009922150927e+00	 1.061842268405149e+01
0	 3.857146279369101e+01	 0.000000000000000e+00	 8.471729252084238e+00
0	 3.857146279369100e+01	 7.142881171115515e-01	 8.895647368978869e+00
0	 3.857146279369100e+01	 1.428580650948409e+00	 9.299726716599412e+00
0	 3.857146279369101e+01	 2.142877018163878e+00	 9.672784819878609e+00
0	 3.857146279369100e+01	 2.857176635411265e+00	 1.000363859991246e+01
0	 3.857146279369100e+01	 3.571478919343873e+00	 1.028110437400335e+01
0	 3.857146279369101e+01	 4.285783286615009e+00	 1.049399785569583e+01
0	 3.857146279369100e+01	 5.000089153877975e+00	 1.063113415480505e+01
0	 3.857146279369100e+01	 5.714395937786080e+00	 1.068132777743764e+01
0	 3.857146279369101e+01	 6.428703054992628e+00	 1.063339262600541e+01
0	 3.857146279369101e+01	 7.143009922150927e+00	 1.047614199923146e+01
0	 3.928571602169433e+01	 0.000000000000000e+00	 9.259875459718467e+00
0	 3.928571602169432e+01	 7.142881171115514e-01	 9.428475768430442e+00
0	 3.928571602169433e+01	 1.428580650948409e+00	 9.616094717366645e+00
0	 3.928571602169432e+01	 2.142877018163878e+00	 9.810301768961402e+00
0	 3.928571602169433e+01	 2.857176635411265e+00	 9.998665913195754e+00
0	 3.928571602169433e+01	 3.571478919343872e+00	 1.016875566763129e+01
0	 3.928571602169433e+01	 4.285783286615009e+00	 1.030813907743818e+01
0	 3.928571602169433e+01	 5.000089153877975e+00	 1.040438371541743e+01
0	 3.928571602169433e+01	 5.714395937786081e+00	 1.044505668201734e+01
0	 3.928571602169432e+01	 6.428703054992627e+00	 1.041772460534418e+01
0	 3.928571602169433e+01	 7.143009922150926e+00	 1.030995364116709e+01
0	 3.999996966633629e+01	 0.000000000000000e+00	 1.004062161158294e+01
0	 3.999996966633629e+01	 7.142881171115515e-01	 9.965401019198152e+00
0	 3.999996966633628e+01	 1.428580650948410e+00	 9.942320090657368e+00
0	 3.999996966633628e+01	 2.142877018163878e+00	 9.958920093877159e+00
0	 3.999996966633628e+01	 2.857176635411265e+00	 1.000274198266797e+01
0	 3.999996966633629e+01	 3.571478919343873e+00	 1.006132639675661e+01
0	 3.999996966633629e+01	 4.285783286615008e+00	 1.012221366180497e+01
0	 3.999996966633629e+01	 5.000089153877975e+00	 1.017294378942486e+01
0	 3.999996966633628e+01	 5.714395937786079e+00	 1.020105647718897e+01
0	 3.999996966633628e+01	 6.428703054992628e+00	 1.019409110863806e+01
0	 3.999996966633630e+01	 7.143009922150927e+00	 1.013958675328419e+01
0	 4.071422381094481e+01	 0.000000000000000e+00	 1.073296913926330e+01
0	 4.071422381094481e+01	 7.142881171115513e-01	 1.045117563755837e+01
0	 4.071422381094482e+01	 1.428580650948409e+00	 1.024542214677619e+01
0	 4.071422381094482e+01	 2.142877018163878e+00	 1.010444172087676e+01
0	 4.071422381094481e+01	 2.857176635411264e+00	 1.001696726794969e+01
0	 4.071422381094479e+01	 3.571478919343872e+00	 9.971731550224689e+00
0	 4.071422381094481e+01	 4.285783286615009e+00	 9.957467184080285e+00
0	 4.071422381094481e+01	 5.000089153877975e+00	 9.962906640050777e+00
0	 4.071422381094481e+01	 5.714395937786081e+00	 9.976782242831401e+00
0	 4.071422381094481e+01	 6.428703054992629e+00	 9.987826171281652e+00
0	 4.071422381094480e+01	 7.143009922150926e+00	 9.984770458426905e+00
0	 4.142847853884783e+01	 0.000000000000000e+00	 1.125591957361734e+01
0	 4.142847853884783e+01	 7.142881171115512e-01	 1.083055220192208e+01
0	 4.142847853884783e+01	 1.428580650948409e+00	 1.049242022889151e+01
0	 4.142847853884784e+01	 2.142877018163879e+00	 1.023266858681675e+01
0	 4.142847853884783e+01	 2.857176635411265e+00	 1.004244222316781e+01
0	 4.142847853884784e+01	 3.571478919343873e+00	 9.912886100592562e+00
0	 4.142847853884783e+01	 4.285783286615008e+00	 9.835145196915864e+00
0	 4.142847853884784e+01	 5.000089153877975e+00	 9.800364505139015e+00
0	 4.142847853884783e+01	 5.714395937786081e+00	 9.799689033439225e+00
0	 4.142847853884783e+01	 6.428703054992631e+00	 9.824263805169377e+00
0	 4.142847853884784e+01	 7.143009922150928e+00	 9.865233858857954e+00
0	 4.214273393337328e+01	 0.000000000000000e+00	 1.152847454477420e+01
0	 4.214273393337328e+01	 7.142881171115515e-01	 1.104828335283436e+01
0	 4.214273393337328e+01	 1.428580650948410e+00	 1.065033371303523e+01
0	 4.214273393337327e+01	 2.142877018163878e+00	 1.032940263915927e+01
0	 4.214273393337327e+01	 2.857176635411264e+00	 1.008026729695557e+01
0	 4.214273393337327e+01	 3.571478919343873e+00	 9.897705004128994e+00
0	 4.214273393337329e+01	 4.285783286615009e+00	 9.776493230331289e+00
0	 4.214273393337327e+01	 5.000089153877975e+00	 9.711409597153947e+00
0	 4.214273393337329e+01	 5.714395937786081e+00	 9.697231878123004e+00
0	 4.214273393337328e+01	 6.428703054992631e+00	 9.728737998695637e+00
0	 4.214273393337328e+01	 7.143009922150927e+00	 9.800706036258688e+00
0	 4.285699007784908e+01	 0.000000000000000e+00	 1.146963578213337e+01
0	 4.285699007784909e+01	 7.142881171115515e-01	 1.104912179297375e+01
0	 4.285699007784908e+01	 1.428580650948409e+00	 1.068618200810247e+01
0	 4.285699007784908e+01	 2.142877018163878e+00	 1.038044583597199e+01
0	 4.285699007784908e+01	 2.857176635411264e+00	 1.013154293245261e+01
0	 4.285699007784908e+01	 3.571478919343873e+00	 9.939103200814715e+00
0	 4.285699007784908e+01	 4.285783286615009e+00	 9.802756791714190e+00
0	 4.285699007784908e+01	 5.000089153877975e+00	 9.722134103180776e+00
0	 4.285699007784908e+01	 5.714395937786081e+00	 9.696865780609485e+00
0	 4.285699007784907e+01	 6.428703054992629e+00	 9.726582716755045e+00
0	 4.285699007784908e+01	 7.143009922150927e+00	 9.810916051729381e+00
0	 3.571445238150555e+01	 7.143009922150927e+00	 1.070452695606183e+01
0	 3.571445238150555e+01	 7.857266066626719e+00	 1.045881694207725e+01
0	 3.571445238150555e+01	 8.571521461152161e+00	 1.024357449027139e+01
0	 3.571445238150557e+01	 9.285776189055184e+00	 1.005971652701573e+01
0	 3.571445238150557e+01	 1.000003033366371e+01	 9.908159955777469e+00
0	 3.571445238150555e+01	 1.071428397830567e+01	 9.789821657119305e+00
0	 3.571445238150555e+01	 1.142853720630899e+01	 9.705618488699169e+00
0	 3.571445238150555e+01	 1.214279010100160e+01	 9.656467285270066e+00
0	 3.571445238150557e+01	 1.285704274571143e+01	 9.643284858679905e+00
0	 3.571445238150556e+01	 1.357129522376639e+01	 9.666987997871404e+00
0	 3.571445238150556e+01	 1.428554761849444e+01	 9.728493468882021e+00
0	 3.642870477623362e+01	 7.143009922150928e+00	 1.075234435734681e+01
0	 3.642870477623359e+01	 7.857266066626718e+00	 1.047618232195039e+01
0	 3.642870477623359e+01	 8.571521461152159e+00	 1.023866716779712e+01
0	 3.642870477623360e+01	 9.285776189055186e+00	 1.003998566728274e+01
0	 3.642870477623359e+01	 1.000003033366371e+01	 9.880324564960649e+00
0	 3.642870477623360e+01	 1.071428397830567e+01	 9.759870577541646e+00
0	 3.642870477623360e+01	 1.142853720630899e+01	 9.678810393893603e+00
0	 3.642870477623360e+01	 1.214279010100160e+01	 9.637330675041220e+00
0	 3.642870477623361e+01	 1.285704274571143e+01	 9.635618054165903e+00
0	 3.642870477623361e+01	 1.357129522376640e+01	 9.673859136605582e+00
0	 3.642870477623360e+01	 1.428554761849444e+01	 9.752240499854643e+00
0	 3.714295725428855e+01	 7.143009922150926e+00	 1.071706653161968e+01
0	 3.714295725428858e+01	 7.857266066626718e+00	 1.044325470915874e+01
0	 3.714295725428856e+01	 8.571521461152166e+00	 1.021077778913667e+01
0	 3.714295725428858e+01	 9.285776189055184e+00	 1.001921948596838e+01
0	 3.714295725428858e+01	 1.000003033366371e+01	 9.868163485040560e+00
0	 3.714295725428858e+01	 1.071428397830567e+01	 9.757193442711223e+00
0	 3.714295725428857e+01	 1.142853720630899e+01	 9.685892986309552e+00
0	 3.714295725428856e+01	 1.214279010100160e+01	 9.653845714135564e+00
0	 3.714295725428857e+01	 1.285704274571142e+01	 9.660635195459959e+00
0	 3.714295725428858e+01	 1.357129522376639e+01	 9.705844970523971e+00
0	 3.714295725428857e+01	 1.428554761849445e+01	 9.789058550539293e+00
0	 3.785720989899840e+01	 7.143009922150927e+00	 1.061842268405149e+01
0	 3.785720989899840e+01	 7.857266066626719e+00	 1.037291861062599e+01
0	 3.785720989899839e+01	 8.571521461152159e+00	 1.016694947326273e+01
0	 3.785720989899839e+01	 9.285776189055184e+00	 9.999623029564276e+00
0	 3.785720989899840e+01	 1.000003033366371e+01	 9.870047009968825e+00
0	 3.785720989899840e+01	 1.071428397830567e+01	 9.777329117749851e+00
0	 3.785720989899840e+01	 1.142853720630899e+01	 9.720577029015834e+00
0	 3.785720989899840e+01	 1.214279010100160e+01	 9.698898392710053e+00
0	 3.785720989899839e+01	 1.285704274571142e+01	 9.711400830610376e+00
0	 3.785720989899841e+01	 1.357129522376639e+01	 9.757191937329168e+00
0	 3.785720989899840e+01	 1.428554761849444e+01	 9.835379280313155e+00
0	 3.857146279369101e+01	 7.143009922150927e+00	 1.047614199923147e+01
0	 3.857146279369099e+01	 7.857266066626718e+00	 1.027805851592073e+01
0	 3.857146279369100e+01	 8.571521461152164e+00	 1.011422532511122e+01
0	 3.857146279369099e+01	 9.285776189055182e+00	 9.983401333846210e+00
0	 3.857146279369098e+01	 1.000003033366371e+01	 9.884345426215990e+00
0	 3.857146279369100e+01	 1.071428397830567e+01	 9.815816463357589e+00
0	 3.857146279369100e+01	 1.142853720630899e+01	 9.776573283454537e+00
0	 3.857146279369101e+01	 1.214279010100160e+01	 9.765374701736667e+00
0	 3.857146279369100e+01	 1.285704274571142e+01	 9.780979510479975e+00
0	 3.857146279369102e+01	 1.357129522376639e+01	 9.822146479006499e+00
0	 3.857146279369101e+01	 1.428554761849444e+01	 9.887634353684223e+00
0	 3.928571602169433e+01	 7.143009922150926e+00	 1.030995364116710e+01
0	 3.928571602169433e+01	 7.857266066626721e+00	 1.017155889725651e+01
0	 3.928571602169433e+01	 8.571521461152164e+00	 1.005964843558135e+01
0	 3.928571602169433e+01	 9.285776189055184e+00	 9.972759423874241e+00
0	 3.928571602169432e+01	 1.000003033366371e+01	 9.909429012771445e+00
0	 3.928571602169433e+01	 1.071428397830567e+01	 9.868194335812708e+00
0	 3.928571602169433e+01	 1.142853720630899e+01	 9.847592509440990e+00
0	 3.928571602169432e+01	 1.214279010100160e+01	 9.846160633002411e+00
0	 3.928571602169432e+01	 1.285704274571142e+01	 9.862435788746099e+00
0	 3.928571602169432e+01	 1.357129522376640e+01	 9.894955041824087e+00
0	 3.928571602169433e+01	 1.428554761849444e+01	 9.942255440291261e+00
0	 3.999996966633630e+01	 7.143009922150927e+00	 1.013958675328419e+01
0	 3.999996966633629e+01	 7.857266066626719e+00	 1.006630420949180e+01
0	 3.999996966633629e+01	 8.571521461152164e+00	 1.001026188153556e+01
0	 3.999996966633628e+01	 9.285776189055181e+00	 9.969902313992637e+00
0	 3.999996966633628e+01	 1.000003033366371e+01	 9.943668041143496e+00
0	 3.999996966633630e+01	 1.071428397830567e+01	 9.930001586971690e+00
0	 3.999996966633628e+01	 1.142853720630899e+01	 9.927345465163796e+00
0	 3.999996966633628e+01	 1.214279010100160e+01	 9.934142179109323e+00
0	 3.999996966633629e+01	 1.285704274571143e+01	 9.948834221900613e+00
0	 3.999996966633629e+01	 1.357129522376639e+01	 9.969864076332810e+00
0	 3.999996966633630e+01	 1.428554761849444e+01	 9.995674214903792e+00
0	 4.071422381094480e+01	 7.143009922150926e+00	 9.984770458426906e+00
0	 4.071422381094481e+01	 7.857266066626719e+00	 9.975178890130149e+00
0	 4.071422381094482e+01	 8.571521461152162e+00	 9.973108725799641e+00
0	 4.071422381094481e+01	 9.285776189055181e+00	 9.977035007829999e+00
0	 4.071422381094481e+01	 1.000003033366371e+01	 9.985432775359346e+00
0	 4.071422381094482e+01	 1.071428397830567e+01	 9.996777064269276e+00
0	 4.071422381094480e+01	 1.142853720630899e+01	 1.000954290718483e+01
0	 4.071422381094482e+01	 1.214279010100160e+01	 1.002220533347442e+01
0	 4.071422381094482e+01	 1.285704274571142e+01	 1.003323936924985e+01
0	 4.071422381094481e+01	 1.357129522376640e+01	 1.004112003736624e+01
0	 4.071422381094482e+01	 1.428554761849444e+01	 1.004432235742205e+01
0	 4.142847853884784e+01	 7.143009922150928e+00	 9.865233858857954e+00
0	 4.142847853884783e+01	 7.857266066626719e+00	 9.911067359320237e+00
0	 4.142847853884783e+01	 8.571521461152161e+00	 9.955232017162849e+00
0	 4.142847853884783e+01	 9.285776189055182e+00	 9.996362498299277e+00
0	 4.142847853884783e+01	 1.000003033366371e+01	 1.003309347196520e+01
0	 4.142847853884783e+01	 1.071428397830567e+01	 1.006405961071849e+01
0	 4.142847853884782e+01	 1.142853720630899e+01	 1.008789559043923e+01
0	 4.142847853884783e+01	 1.214279010100160e+01	 1.010323609032975e+01
0	 4.142847853884783e+01	 1.285704274571143e+01	 1.010871579291463e+01
0	 4.142847853884784e+01	 1.357129522376640e+01	 1.010296938404069e+01
0	 4.142847853884783e+01	 1.428554761849444e+01	 1.008463155287701e+01
0	 4.214273393337328e+01	 7.143009922150927e+00	 9.800706036258692e+00
0	 4.214273393337326e+01	 7.857266066626718e+00	 9.886854019856056e+00
0	 4.214273393337329e+01	 8.571521461152162e+00	 9.963674790377929e+00
0	 4.214273393337328e+01	 9.285776189055184e+00	 1.003008976759785e+01
0	 4.214273393337328e+01	 1.000003033366371e+01	 1.008502038002627e+01
0	 4.214273393337328e+01	 1.071428397830567e+01	 1.012738806491063e+01
0	 4.214273393337328e+01	 1.142853720630899e+01	 1.015611426823543e+01
0	 4.214273393337326e+01	 1.214279010100160e+01	 1.017012044472235e+01
0	 4.214273393337328e+01	 1.285704274571142e+01	 1.016832805783023e+01
0	 4.214273393337327e+01	 1.357129522376640e+01	 1.014965857975510e+01
0	 4.214273393337328e+01	 1.428554761849444e+01	 1.011303349143026e+01
0	 4.285699007784908e+01	 7.143009922150927e+00	 9.810916051729384e+00
0	 4.285699007784908e+01	 7.857266066626719e+00	 9.915423257177032e+00
0	 4.285699007784907e+01	 8.571521461152162e+00	 1.000548006616135e+01
0	 4.285699007784908e+01	 9.285776189055184e+00	 1.008042178720768e+01
0	 4.285699007784908e+01	 1.000003033366371e+01	 1.013958374112688e+01
0	 4.285699007784908e+01	 1.071428397830567e+01	 1.018230126101534e+01
0	 4.285699007784908e+01	 1.142853720630899e+01	 1.020790969225517e+01
0	 4.285699007784908e+01	 1.214279010100160e+01	 1.021574439251425e+01
0	 4.285699007784907e+01	 1.285704274571142e+01	 1.020514073174633e+01
0	 4.285699007784908e+01	 1.357129522376640e+01	 1.017543409219105e+01
0	 4.285699007784908e+01	 1.428554761849444e+01	 1.012595986837400e+01
0	 3.571445238150556e+01	 1.428554761849444e+01	 9.728493468882021e+00
0	 3.571445238150555e+01	 1.499984997172426e+01	 9.805242849140576e+00
0	 3.571445238150556e+01	 1.571415215828766e+01	 9.873324147102904e+00
0	 3.571445238150557e+01	 1.642845401151722e+01	 9.931640694334755e+00
0	 3.571445238150556e+01	 1.714275536474550e+01	 9.979095803405853e+00
0	 3.571445238150555e+01	 1.785705605130510e+01	 1.001459276788987e+01
0	 3.571445238150555e+01	 1.857135590452859e+01	 1.003703486236434e+01
0	 3.571445238150556e+01	 1.928565475774854e+01	 1.004532534241046e+01
0	 3.571445238150557e+01	 1.999995244429754e+01	 1.003836744461291e+01
0	 3.571445238150557e+01	 2.071424879750816e+01	 1.001506438655948e+01
0	 3.571445238150556e+01	 2.142854365071296e+01	 9.974319366840790e+00
0	 3.642870477623360e+01	 1.428554761849444e+01	 9.752240499854647e+00
0	 3.642870477623359e+01	 1.499984997172426e+01	 9.843319433539234e+00
0	 3.642870477623359e+01	 1.571415215828766e+01	 9.919411387619176e+00
0	 3.642870477623360e+01	 1.642845401151722e+01	 9.980360831966173e+00
0	 3.642870477623359e+01	 1.714275536474550e+01	 1.002601221491890e+01
0	 3.642870477623360e+01	 1.785705605130510e+01	 1.005620996328295e+01
0	 3.642870477623359e+01	 1.857135590452859e+01	 1.007079848233079e+01
0	 3.642870477623360e+01	 1.928565475774854e+01	 1.006962215580149e+01
0	 3.642870477623360e+01	 1.999995244429754e+01	 1.005252534590052e+01
0	 3.642870477623359e+01	 2.071424879750814e+01	 1.001935239329940e+01
0	 3.642870477623360e+01	 2.142854365071297e+01	 9.969947617135286e+00
0	 3.714295725428857e+01	 1.428554761849445e+01	 9.789058550539295e+00
0	 3.714295725428856e+01	 1.499984997172426e+01	 9.881730288646077e+00
0	 3.714295725428857e+01	 1.571415215828766e+01	 9.955984542931347e+00
0	 3.714295725428857e+01	 1.642845401151722e+01	 1.001243123152303e+01
0	 3.714295725428858e+01	 1.714275536474550e+01	 1.005168025135000e+01
0	 3.714295725428858e+01	 1.785705605130510e+01	 1.007434147814203e+01
0	 3.714295725428858e+01	 1.857135590452858e+01	 1.008102476642968e+01
0	 3.714295725428857e+01	 1.928565475774854e+01	 1.007233994954417e+01
0	 3.714295725428858e+01	 1.999995244429754e+01	 1.004889683961708e+01
0	 3.714295725428858e+01	 2.071424879750816e+01	 1.001130522758002e+01
0	 3.714295725428858e+01	 2.142854365071296e+01	 9.960174883164242e+00
0	 3.785720989899840e+01	 1.428554761849444e+01	 9.835379280313157e+00
0	 3.785720989899840e+01	 1.499984997172426e+01	 9.919382890118367e+00
0	 3.785720989899840e+01	 1.571415215828766e+01	 9.984004387004846e+00
0	 3.785720989899839e+01	 1.642845401151722e+01	 1.003044344812499e+01
0	 3.785720989899841e+01	 1.714275536474550e+01	 1.005989973204555e+01
0	 3.785720989899840e+01	 1.785705605130510e+01	 1.007357287874768e+01
0	 3.785720989899840e+01	 1.857135590452858e+01	 1.007266250962674e+01
0	 3.785720989899840e+01	 1.928565475774854e+01	 1.005836822749221e+01
0	 3.785720989899840e+01	 1.999995244429753e+01	 1.003188961656746e+01
0	 3.785720989899840e+01	 2.071424879750816e+01	 9.994426242489443e+00
0	 3.785720989899839e+01	 2.142854365071296e+01	 9.947177652308349e+00
0	 3.857146279369101e+01	 1.428554761849444e+01	 9.887634353684223e+00
0	 3.857146279369100e+01	 1.499984997172426e+01	 9.955184718918275e+00
0	 3.857146279369101e+01	 1.571415215828766e+01	 1.000443169869775e+01
0	 3.857146279369101e+01	 1.642845401151721e+01	 1.003698904090870e+01
0	 3.857146279369100e+01	 1.714275536474550e+01	 1.005447047915298e+01
0	 3.857146279369100e+01	 1.785705605130510e+01	 1.005848973274817e+01
0	 3.857146279369101e+01	 1.857135590452858e+01	 1.005066050672751e+01
0	 3.857146279369099e+01	 1.928565475774854e+01	 1.003259649183981e+01
0	 3.857146279369100e+01	 1.999995244429754e+01	 1.000591136454926e+01
0	 3.857146279369100e+01	 2.071424879750815e+01	 9.972218787035224e+00
0	 3.857146279369100e+01	 2.142854365071296e+01	 9.933132407191955e+00
0	 3.928571602169433e+01	 1.428554761849444e+01	 9.942255440291262e+00
0	 3.928571602169431e+01	 1.499984997172426e+01	 9.988043261312830e+00
0	 3.928571602169433e+01	 1.571415215828766e+01	 1.001822726176074e+01
0	 3.928571602169433e+01	 1.642845401151722e+01	 1.003465957302789e+01
0	 3.928571602169431e+01	 1.714275536474550e+01	 1.003919231762073e+01
0	 3.928571602169432e+01	 1.785705605130509e+01	 1.003367760915934e+01
0	 3.928571602169432e+01	 1.857135590452858e+01	 1.001996755237731e+01
0	 3.928571602169433e+01	 1.928565475774854e+01	 9.999914243121674e+00
0	 3.928571602169433e+01	 1.999995244429753e+01	 9.975369768352824e+00
0	 3.928571602169433e+01	 2.071424879750816e+01	 9.948186206144404e+00
0	 3.928571602169432e+01	 2.142854365071296e+01	 9.920215625683083e+00
0	 3.999996966633630e+01	 1.428554761849444e+01	 9.995674214903792e+00
0	 3.999996966633629e+01	 1.499984997172427e+01	 1.001686600887391e+01
0	 3.999996966633628e+01	 1.571415215828766e+01	 1.002635186483715e+01
0	 3.999996966633630e+01	 1.642845401151722e+01	 1.002604661165324e+01
0	 3.999996966633629e+01	 1.714275536474550e+01	 1.001786507519830e+01
0	 3.999996966633628e+01	 1.785705605130510e+01	 1.000372207836473e+01
0	 3.999996966633628e+01	 1.857135590452858e+01	 9.985532441061286e+00
0	 3.999996966633628e+01	 1.928565475774854e+01	 9.965210980213014e+00
0	 3.999996966633628e+01	 1.999995244429753e+01	 9.944672509761222e+00
0	 3.999996966633629e+01	 2.071424879750816e+01	 9.925831840663458e+00
0	 3.999996966633628e+01	 2.142854365071296e+01	 9.910603780893403e+00
0	 4.071422381094482e+01	 1.428554761849444e+01	 1.004432235742206e+01
0	 4.071422381094480e+01	 1.499984997172426e+01	 1.004056045847826e+01
0	 4.071422381094482e+01	 1.571415215828767e+01	 1.002976630146290e+01
0	 4.071422381094481e+01	 1.642845401151721e+01	 1.001374172797254e+01
0	 4.071422381094481e+01	 1.714275536474550e+01	 9.994288582436189e+00
0	 4.071422381094482e+01	 1.785705605130510e+01	 9.973208712115433e+00
0	 4.071422381094482e+01	 1.857135590452859e+01	 9.952303967104351e+00
0	 4.071422381094481e+01	 1.928565475774854e+01	 9.933376200329564e+00
0	 4.071422381094482e+01	 1.999995244429754e+01	 9.918227267550295e+00
0	 4.071422381094482e+01	 2.071424879750816e+01	 9.908659027358363e+00
0	 4.071422381094481e+01	 2.142854365071296e+01	 9.906473341178303e+00
0	 4.142847853884783e+01	 1.428554761849444e+01	 1.008463155287702e+01
0	 4.142847853884783e+01	 1.499984997172426e+01	 1.005803411230738e+01
0	 4.142847853884783e+01	 1.571415215828766e+01	 1.002943137006647e+01
0	 4.142847853884783e+01	 1.642845401151722e+01	 1.000033649719041e+01
0	 4.142847853884783e+01	 1.714275536474550e+01	 9.972262672685881e+00
0	 4.142847853884784e+01	 1.785705605130509e+01	 9.946723083530186e+00
0	 4.142847853884784e+01	 1.857135590452858e+01	 9.925230924671217e+00
0	 4.142847853884783e+01	 1.928565475774854e+01	 9.909299399027571e+00
0	 4.142847853884784e+01	 1.999995244429754e+01	 9.900441717488611e+00
0	 4.142847853884783e+01	 2.071424879750816e+01	 9.900171098914607e+00
0	 4.142847853884782e+01	 2.142854365071296e+01	 9.910000770136870e+00
0	 4.214273393337328e+01	 1.428554761849444e+01	 1.011303349143026e+01
0	 4.214273393337327e+01	 1.499984997172426e+01	 1.006819447784756e+01
0	 4.214273393337328e+01	 1.571415215828766e+01	 1.002630787396886e+01
0	 4.214273393337328e+01	 1.642845401151721e+01	 9.988422498528509e+00
0	 4.214273393337329e+01	 1.714275536474550e+01	 9.955587182099851e+00
0	 4.214273393337327e+01	 1.785705605130510e+01	 9.928850767095316e+00
0	 4.214273393337327e+01	 1.857135590452858e+01	 9.909262107766400e+00
0	 4.214273393337328e+01	 1.928565475774854e+01	 9.897870070203810e+00
0	 4.214273393337328e+01	 1.999995244429753e+01	 9.895723532337566e+00
0	 4.214273393337327e+01	 2.071424879750816e+01	 9.903871383937201e+00
0	 4.214273393337327e+01	 2.142854365071296e+01	 9.923362526611967e+00
0	 4.285699007784908e+01	 1.428554761849444e+01	 1.012595986837400e+01
0	 4.285699007784907e+01	 1.499984997172426e+01	 1.006994906788976e+01
0	 4.285699007784906e+01	 1.571415215828766e+01	 1.002135662138356e+01
0	 4.285699007784907e+01	 1.642845401151721e+01	 9.980591315225343e+00
0	 4.285699007784908e+01	 1.714275536474550e+01	 9.948061949631491e+00
0	 4.285699007784907e+01	 1.785705605130510e+01	 9.924177338664716e+00
0	 4.285699007784908e+01	 1.857135590452858e+01	 9.909346310234193e+00
0	 4.285699007784908e+01	 1.928565475774854e+01	 9.903977706095604e+00
0	 4.285699007784908e+01	 1.999995244429753e+01	 9.908480381851350e+00
0	 4.285699007784907e+01	 2.071424879750816e+01	 9.923263206950750e+00
0	 4.285699007784908e+01	 2.142854365071297e+01	 9.948735064690240e+00
0	 3.571445238150556e+01	 2.142854365071296e+01	 9.974319366840790e+00
0	 3.571445238150555e+01	 2.214283692057824e+01	 9.927004531846686e+00
0	 3.571445238150556e+01	 2.285712885710494e+01	 9.885222719498989e+00
0	 3.571445238150555e+01	 2.357141979362770e+01	 9.849723130956638e+00
0	 3.571445238150556e+01	 2.428571006348118e+01	 9.821254940069387e+00
0	 3.571445238150555e+01	 2.500000000000000e+01	 9.800567293377320e+00
0	 3.571445238150556e+01	 2.571428993651884e+01	 9.788409310110460e+00
0	 3.571445238150556e+01	 2.642858020637231e+01	 9.785530082188734e+00
0	 3.571445238150555e+01	 2.714287114289507e+01	 9.792678674221929e+00
0	 3.571445238150556e+01	 2.785716307942177e+01	 9.810604123509986e+00
0	 3.571445238150555e+01	 2.857145634928703e+01	 9.840055440043436e+00
0	 3.642870477623360e+01	 2.142854365071297e+01	 9.969947617135286e+00
0	 3.642870477623360e+01	 2.214283692057824e+01	 9.916921718674770e+00
0	 3.642870477623360e+01	 2.285712885710494e+01	 9.873051183492423e+00
0	 3.642870477623361e+01	 2.357141979362770e+01	 9.838428969893174e+00
0	 3.642870477623360e+01	 2.428571006348118e+01	 9.813148007990538e+00
0	 3.642870477623360e+01	 2.500000000000000e+01	 9.797301199706046e+00
0	 3.642870477623359e+01	 2.571428993651883e+01	 9.790981418768910e+00
0	 3.642870477623360e+01	 2.642858020637231e+01	 9.794281510715805e+00
0	 3.642870477623360e+01	 2.714287114289507e+01	 9.807294292891022e+00
0	 3.642870477623360e+01	 2.785716307942177e+01	 9.830112554446581e+00
0	 3.642870477623360e+01	 2.857145634928704e+01	 9.862829056342747e+00
0	 3.714295725428858e+01	 2.142854365071296e+01	 9.960174883164242e+00
0	 3.714295725428858e+01	 2.214283692057824e+01	 9.908174091479131e+00
0	 3.714295725428857e+01	 2.285712885710494e+01	 9.867272155129626e+00
0	 3.714295725428858e+01	 2.357141979362769e+01	 9.837030334610679e+00
0	 3.714295725428857e+01	 2.428571006348118e+01	 9.817009864311215e+00
0	 3.714295725428857e+01	 2.500000000000001e+01	 9.806771952513611e+00
0	 3.714295725428857e+01	 2.571428993651883e+01	 9.805877781393328e+00
0	 3.714295725428858e+01	 2.642858020637231e+01	 9.813888507018786e+00
0	 3.714295725428858e+01	 2.714287114289507e+01	 9.830365259351371e+00
0	 3.714295725428858e+01	 2.785716307942177e+01	 9.854869142245645e+00
0	 3.714295725428857e+01	 2.857145634928703e+01	 9.886961233449748e+00
0	 3.785720989899839e+01	 2.142854365071296e+01	 9.947177652308349e+00
0	 3.785720989899839e+01	 2.214283692057824e+01	 9.901521447856158e+00
0	 3.785720989899840e+01	 2.285712885710493e+01	 9.867471626879944e+00
0	 3.785720989899840e+01	 2.357141979362770e+01	 9.844182300062876e+00
0	 3.785720989899839e+01	 2.428571006348117e+01	 9.830807556355033e+00
0	 3.785720989899841e+01	 2.500000000000001e+01	 9.826501462972995e+00
0	 3.785720989899838e+01	 2.571428993651883e+01	 9.830418065399522e+00
0	 3.785720989899840e+01	 2.642858020637231e+01	 9.841711387383469e+00
0	 3.785720989899841e+01	 2.714287114289509e+01	 9.859535430939735e+00
0	 3.785720989899840e+01	 2.785716307942177e+01	 9.883044176349443e+00
0	 3.785720989899839e+01	 2.857145634928704e+01	 9.911391582160302e+00
0	 3.857146279369100e+01	 2.142854365071296e+01	 9.933132407191955e+00
0	 3.857146279369100e+01	 2.214283692057824e+01	 9.897723580455525e+00
0	 3.857146279369100e+01	 2.285712885710494e+01	 9.873235586508940e+00
0	 3.857146279369102e+01	 2.357141979362770e+01	 9.858539937088674e+00
0	 3.857146279369102e+01	 2.428571006348118e+01	 9.852508128178616e+00
0	 3.857146279369100e+01	 2.500000000000000e+01	 9.854011640009752e+00
0	 3.857146279369101e+01	 2.571428993651885e+01	 9.861921937059899e+00
0	 3.857146279369100e+01	 2.642858020637232e+01	 9.875110468053657e+00
0	 3.857146279369101e+01	 2.714287114289507e+01	 9.892448665962345e+00
0	 3.857146279369100e+01	 2.785716307942177e+01	 9.912807948004167e+00
0	 3.857146279369101e+01	 2.857145634928704e+01	 9.935059715644391e+00
0	 3.928571602169432e+01	 2.142854365071296e+01	 9.920215625683083e+00
0	 3.928571602169433e+01	 2.214283692057824e+01	 9.897540276980219e+00
0	 3.928571602169432e+01	 2.285712885710494e+01	 9.884150017078317e+00
0	 3.928571602169432e+01	 2.357141979362771e+01	 9.878758312412106e+00
0	 3.928571602169432e+01	 2.428571006348117e+01	 9.880078620571602e+00
0	 3.928571602169433e+01	 2.500000000000001e+01	 9.886824390301992e+00
0	 3.928571602169432e+01	 2.571428993651883e+01	 9.897709061503477e+00
0	 3.928571602169432e+01	 2.642858020637231e+01	 9.911446065231123e+00
0	 3.928571602169433e+01	 2.714287114289508e+01	 9.926748823694965e+00
0	 3.928571602169433e+01	 2.785716307942177e+01	 9.942330750259972e+00
0	 3.928571602169433e+01	 2.857145634928704e+01	 9.956905249446198e+00
0	 3.999996966633628e+01	 2.142854365071296e+01	 9.910603780893403e+00
0	 3.999996966633629e+01	 2.214283692057824e+01	 9.901731320186506e+00
0	 3.999996966633628e+01	 2.285712885710493e+01	 9.899800896946010e+00
0	 3.999996966633628e+01	 2.357141979362770e+01	 9.903492488642348e+00
0	 3.999996966633629e+01	 2.428571006348117e+01	 9.911486071056602e+00
0	 3.999996966633629e+01	 2.500000000000001e+01	 9.922461618280394e+00
0	 3.999996966633630e+01	 2.571428993651884e+01	 9.935099102715863e+00
0	 3.999996966633628e+01	 2.642858020637231e+01	 9.948078495075636e+00
0	 3.999996966633630e+01	 2.714287114289509e+01	 9.960079764382808e+00
0	 3.999996966633629e+01	 2.785716307942177e+01	 9.969782877970935e+00
0	 3.999996966633628e+01	 2.857145634928704e+01	 9.975867801484032e+00
0	 4.071422381094481e+01	 2.142854365071296e+01	 9.906473341178303e+00
0	 4.071422381094480e+01	 2.214283692057824e+01	 9.911056487883990e+00
0	 4.071422381094482e+01	 2.285712885710494e+01	 9.919774199766133e+00
0	 4.071422381094480e+01	 2.357141979362770e+01	 9.931397524273809e+00
0	 4.071422381094480e+01	 2.428571006348118e+01	 9.944697513889299e+00
0	 4.071422381094480e+01	 2.500000000000001e+01	 9.958445226128163e+00
0	 4.071422381094480e+01	 2.571428993651884e+01	 9.971411723539312e+00
0	 4.071422381094482e+01	 2.642858020637231e+01	 9.982368073704947e+00
0	 4.071422381094482e+01	 2.714287114289507e+01	 9.990085349240626e+00
0	 4.071422381094480e+01	 2.785716307942177e+01	 9.993334627795104e+00
0	 4.071422381094482e+01	 2.857145634928704e+01	 9.990886992050307e+00
0	 4.142847853884782e+01	 2.142854365071296e+01	 9.910000770136870e+00
0	 4.142847853884783e+01	 2.214283692057824e+01	 9.926275552935618e+00
0	 4.142847853884783e+01	 2.285712885710494e+01	 9.943655894489067e+00
0	 4.142847853884783e+01	 2.357141979362770e+01	 9.961128473686028e+00
0	 4.142847853884784e+01	 2.428571006348118e+01	 9.977679980058356e+00
0	 4.142847853884783e+01	 2.500000000000000e+01	 9.992297113781113e+00
0	 4.142847853884784e+01	 2.571428993651885e+01	 1.000396658567268e+01
0	 4.142847853884783e+01	 2.642858020637231e+01	 1.001167511719481e+01
0	 4.142847853884783e+01	 2.714287114289507e+01	 1.001440944045262e+01
0	 4.142847853884783e+01	 2.785716307942177e+01	 1.001115629819441e+01
0	 4.142847853884782e+01	 2.857145634928703e+01	 1.000090244381159e+01
0	 4.214273393337327e+01	 2.142854365071296e+01	 9.923362526611967e+00
0	 4.214273393337328e+01	 2.214283692057824e+01	 9.948148283257716e+00
0	 4.214273393337327e+01	 2.285712885710494e+01	 9.971031945361432e+00
0	 4.214273393337328e+01	 2.357141979362770e+01	 9.991340387143801e+00
0	 4.214273393337328e+01	 2.428571006348118e+01	 1.000840049728555e+01
0	 4.214273393337328e+01	 2.500000000000000e+01	 1.002153917892763e+01
0	 4.214273393337328e+01	 2.571428993651884e+01	 1.003008334967145e+01
0	 4.214273393337329e+01	 2.642858020637231e+01	 1.003335994157893e+01
0	 4.214273393337327e+01	 2.714287114289507e+01	 1.003069590117245e+01
0	 4.214273393337329e+01	 2.785716307942178e+01	 1.002141818943471e+01
0	 4.214273393337328e+01	 2.857145634928704e+01	 1.000485378180853e+01
0	 4.285699007784908e+01	 2.142854365071297e+01	 9.948735064690240e+00
0	 4.285699007784907e+01	 2.214283692057824e+01	 9.977434441820055e+00
0	 4.285699007784908e+01	 2.285712885710493e+01	 1.000148831192619e+01
0	 4.285699007784908e+01	 2.357141979362770e+01	 1.002068831079720e+01
0	 4.285699007784908e+01	 2.428571006348117e+01	 1.003482609002571e+01
0	 4.285699007784908e+01	 2.500000000000001e+01	 1.004369331700872e+01
0	 4.285699007784907e+01	 2.571428993651883e+01	 1.004708167494775e+01
0	 4.285699007784907e+01	 2.642858020637231e+01	 1.004478286284901e+01
0	 4.285699007784906e+01	 2.714287114289507e+01	 1.003658859552325e+01
0	 4.285699007784908e+01	 2.785716307942178e+01	 1.002229060358572e+01
0	 4.285699007784907e+01	 2.857145634928704e+01	 1.000168063345583e+01
0	 3.571445238150555e+01	 2.857145634928703e+01	 9.840055440043436e+00
0	 3.571445238150555e+01	 2.928575120249185e+01	 9.873896802332007e+00
0	 3.571445238150555e+01	 3.000004755570247e+01	 9.904228993862747e+00
0	 3.571445238150556e+01	 3.071434524225148e+01	 9.930655905693961e+00
0	 3.571445238150556e+01	 3.142864409547142e+01	 9.952781420995395e+00
0	 3.571445238150556e+01	 3.214294394869491e+01	 9.970209415048512e+00
0	 3.571445238150555e+01	 3.285724463525451e+01	 9.982543755246521e+00
0	 3.571445238150555e+01	 3.357154598848280e+01	 9.989388301094626e+00
0	 3.571445238150555e+01	 3.428584784171235e+01	 9.990346904210023e+00
0	 3.571445238150556e+01	 3.500015002827574e+01	 9.985023408322073e+00
0	 3.571445238150555e+01	 3.571445238150556e+01	 9.973021649272260e+00
0	 3.642870477623360e+01	 2.857145634928704e+01	 9.862829056342747e+00
0	 3.642870477623360e+01	 2.928575120249186e+01	 9.897760135480755e+00
0	 3.642870477623359e+01	 3.000004755570247e+01	 9.927177776118910e+00
0	 3.642870477623360e+01	 3.071434524225148e+01	 9.951108183374121e+00
0	 3.642870477623361e+01	 3.142864409547143e+01	 9.969577554716198e+00
0	 3.642870477623359e+01	 3.214294394869492e+01	 9.982612079967941e+00
0	 3.642870477623359e+01	 3.285724463525450e+01	 9.990237941305411e+00
0	 3.642870477623359e+01	 3.357154598848280e+01	 9.992481313257962e+00
0	 3.642870477623359e+01	 3.428584784171234e+01	 9.989368362708380e+00
0	 3.642870477623359e+01	 3.500015002827574e+01	 9.980925248892952e+00
0	 3.642870477623360e+01	 3.571445238150555e+01	 9.967178123401506e+00
0	 3.714295725428857e+01	 2.857145634928703e+01	 9.886961233449748e+00
0	 3.714295725428858e+01	 2.928575120249186e+01	 9.919317968674692e+00
0	 3.714295725428857e+01	 3.000004755570248e+01	 9.945152435507264e+00
0	 3.714295725428858e+01	 3.071434524225148e+01	 9.964830664979988e+00
0	 3.714295725428857e+01	 3.142864409547142e+01	 9.978718681525883e+00
0	 3.714295725428857e+01	 3.214294394869491e+01	 9.987182502978637e+00
0	 3.714295725428858e+01	 3.285724463525452e+01	 9.990588140572688e+00
0	 3.714295725428858e+01	 3.357154598848280e+01	 9.989301598943396e+00
0	 3.714295725428856e+01	 3.428584784171234e+01	 9.983688876127072e+00
0	 3.714295725428857e+01	 3.500015002827574e+01	 9.974115963561083e+00
0	 3.714295725428857e+01	 3.571445238150556e+01	 9.960948846083891e+00
0	 3.785720989899839e+01	 2.857145634928704e+01	 9.911391582160302e+00
0	 3.785720989899840e+01	 2.928575120249186e+01	 9.938327565712001e+00
0	 3.785720989899839e+01	 3.000004755570248e+01	 9.958581665367298e+00
0	 3.785720989899840e+01	 3.071434524225147e+01	 9.972777251195703e+00
0	 3.785720989899841e+01	 3.142864409547143e+01	 9.981537688316358e+00
0	 3.785720989899840e+01	 3.214294394869492e+01	 9.985486336898129e+00
0	 3.785720989899840e+01	 3.285724463525450e+01	 9.985246552159769e+00
0	 3.785720989899840e+01	 3.357154598848280e+01	 9.981441684369898e+00
0	 3.785720989899840e+01	 3.428584784171235e+01	 9.974695078847207e+00
0	 3.785720989899840e+01	 3.500015002827575e+01	 9.965630075960377e+00
0	 3.785720989899840e+01	 3.571445238150555e+01	 9.954870011128190e+00
0	 3.857146279369101e+01	 2.857145634928704e+01	 9.935059715644391e+00
0	 3.857146279369100e+01	 2.928575120249186e+01	 9.954546193007930e+00
0	 3.857146279369101e+01	 3.000004755570248e+01	 9.967894161604825e+00
0	 3.857146279369100e+01	 3.071434524225147e+01	 9.975901844985014e+00
0	 3.857146279369100e+01	 3.142864409547142e+01	 9.979367463794068e+00
0	 3.857146279369099e+01	 3.214294394869491e+01	 9.979089235773110e+00
0	 3.857146279369100e+01	 3.285724463525451e+01	 9.975865375758946e+00
0	 3.857146279369100e+01	 3.357154598848278e+01	 9.970494095684170e+00
0	 3.857146279369099e+01	 3.428584784171234e+01	 9.963773604577113e+00
0	 3.857146279369100e+01	 3.500015002827574e+01	 9.956502108561907e+00
0	 3.857146279369101e+01	 3.571445238150555e+01	 9.949477810858532e+00
0	 3.928571602169433e+01	 2.857145634928704e+01	 9.956905249446198e+00
0	 3.928571602169432e+01	 2.928575120249186e+01	 9.967731119594848e+00
0	 3.928571602169433e+01	 3.000004755570248e+01	 9.973518622691923e+00
0	 3.928571602169433e+01	 3.071434524225148e+01	 9.975158351591213e+00
0	 3.928571602169432e+01	 3.142864409547142e+01	 9.973540898480067e+00
0	 3.928571602169433e+01	 3.214294394869492e+01	 9.969556854879349e+00
0	 3.928571602169433e+01	 3.285724463525451e+01	 9.964096811643513e+00
0	 3.928571602169432e+01	 3.357154598848279e+01	 9.958051358960624e+00
0	 3.928571602169434e+01	 3.428584784171237e+01	 9.952311086352337e+00
0	 3.928571602169431e+01	 3.500015002827575e+01	 9.947766582673941e+00
0	 3.928571602169433e+01	 3.571445238150556e+01	 9.945308436114399e+00
0	 3.999996966633628e+01	 2.857145634928704e+01	 9.975867801484032e+00
0	 3.999996966633628e+01	 2.928575120249185e+01	 9.977639617122136e+00
0	 3.999996966633629e+01	 3.000004755570247e+01	 9.975883749667004e+00
0	 3.999996966633628e+01	 3.071434524225147e+01	 9.971500678537158e+00
0	 3.999996966633628e+01	 3.142864409547142e+01	 9.965390884710015e+00
0	 3.999996966633628e+01	 3.214294394869491e+01	 9.958454850721827e+00
0	 3.999996966633629e+01	 3.285724463525451e+01	 9.951593060667644e+00
0	 3.999996966633629e+01	 3.357154598848280e+01	 9.945706000201355e+00
0	 3.999996966633628e+01	 3.428584784171234e+01	 9.941694156535632e+00
0	 3.999996966633631e+01	 3.500015002827576e+01	 9.940458018441946e+00
0	 3.999996966633630e+01	 3.571445238150556e+01	 9.942898076250579e+00
0	 4.071422381094482e+01	 2.857145634928704e+01	 9.990886992050307e+00
0	 4.071422381094482e+01	 2.928575120249186e+01	 9.984028959856248e+00
0	 4.071422381094481e+01	 3.000004755570248e+01	 9.975418246134698e+00
0	 4.071422381094482e+01	 3.071434524225147e+01	 9.965882735625200e+00
0	 4.071422381094481e+01	 3.142864409547142e+01	 9.956250316634126e+00
0	 4.071422381094481e+01	 3.214294394869491e+01	 9.947348881034594e+00
0	 4.071422381094482e+01	 3.285724463525451e+01	 9.940006324266445e+00
0	 4.071422381094481e+01	 3.357154598848280e+01	 9.935050545336194e+00
0	 4.071422381094482e+01	 3.428584784171235e+01	 9.933309446816978e+00
0	 4.071422381094480e+01	 3.500015002827575e+01	 9.935610934848530e+00
0	 4.071422381094482e+01	 3.571445238150556e+01	 9.942782919137230e+00
0	 4.142847853884782e+01	 2.857145634928703e+01	 1.000090244381159e+01
0	 4.142847853884783e+01	 2.928575120249184e+01	 9.986656424680662e+00
0	 4.142847853884783e+01	 3.000004755570248e+01	 9.972550818265946e+00
0	 4.142847853884783e+01	 3.071434524225148e+01	 9.959258434937267e+00
0	 4.142847853884783e+01	 3.142864409547142e+01	 9.947452090217180e+00
0	 4.142847853884783e+01	 3.214294394869491e+01	 9.937804604780855e+00
0	 4.142847853884783e+01	 3.285724463525451e+01	 9.930988804455971e+00
0	 4.142847853884784e+01	 3.357154598848280e+01	 9.927677520222700e+00
0	 4.142847853884784e+01	 3.428584784171235e+01	 9.928543588213579e+00
0	 4.142847853884783e+01	 3.500015002827574e+01	 9.934259849713531e+00
0	 4.142847853884783e+01	 3.571445238150555e+01	 9.945499151159844e+00
0	 4.214273393337328e+01	 2.857145634928704e+01	 1.000485378180853e+01
0	 4.214273393337327e+01	 2.928575120249186e+01	 9.985279291095903e+00
0	 4.214273393337328e+01	 3.000004755570248e+01	 9.967710174797888e+00
0	 4.214273393337327e+01	 3.071434524225148e+01	 9.952581690834739e+00
0	 4.214273393337327e+01	 3.142864409547142e+01	 9.940329103238508e+00
0	 4.214273393337326e+01	 3.214294394869491e+01	 9.931387682152899e+00
0	 4.214273393337327e+01	 3.285724463525452e+01	 9.926192703833182e+00
0	 4.214273393337327e+01	 3.357154598848280e+01	 9.925179450646121e+00
0	 4.214273393337329e+01	 3.428584784171234e+01	 9.928783211069861e+00
0	 4.214273393337328e+01	 3.500015002827575e+01	 9.937439279693960e+00
0	 4.214273393337327e+01	 3.571445238150555e+01	 9.951582957219300e+00
0	 4.285699007784907e+01	 2.857145634928704e+01	 1.000168063345583e+01
0	 4.285699007784908e+01	 2.928575120249185e+01	 9.979654841219430e+00
0	 4.285699007784908e+01	 3.000004755570248e+01	 9.961325027033888e+00
0	 4.285699007784908e+01	 3.071434524225148e+01	 9.946806419958524e+00
0	 4.285699007784907e+01	 3.142864409547143e+01	 9.936214255291970e+00
0	 4.285699007784908e+01	 3.214294394869492e+01	 9.929663774572111e+00
0	 4.285699007784908e+01	 3.285724463525452e+01	 9.927270225575924e+00
0	 4.285699007784908e+01	 3.357154598848280e+01	 9.929148862319405e+00
0	 4.285699007784908e+01	 3.428584784171235e+01	 9.935414945057493e+00
0	 4.285699007784908e+01	 3.500015002827575e+01	 9.946183740284063e+00
0	 4.285699007784907e+01	 3.571445238150555e+01	 9.961570520731840e+00
0	 3.571445238150555e+01	 3.571445238150556e+01	 9.973021649272258e+00
0	 3.571445238150556e+01	 3.642870477623360e+01	 9.958695030024117e+00
0	 3.571445238150556e+01	 3.714295725428856e+01	 9.946830768190903e+00
0	 3.571445238150555e+01	 3.785720989899839e+01	 9.937686663013459e+00
0	 3.571445238150557e+01	 3.857146279369101e+01	 9.931520511181489e+00
0	 3.571445238150555e+01	 3.928571602169433e+01	 9.928590106833600e+00
0	 3.571445238150555e+01	 3.999996966633629e+01	 9.929153241557280e+00
0	 3.571445238150555e+01	 4.071422381094481e+01	 9.933467704388930e+00
0	 3.571445238150555e+01	 4.142847853884783e+01	 9.941791281813865e+00
0	 3.571445238150555e+01	 4.214273393337327e+01	 9.954381757766379e+00
0	 3.571445238150556e+01	 4.285699007784908e+01	 9.971496913629704e+00
0	 3.642870477623360e+01	 3.571445238150555e+01	 9.967178123401506e+00
0	 3.642870477623361e+01	 3.642870477623361e+01	 9.952579546420258e+00
0	 3.642870477623360e+01	 3.714295725428857e+01	 9.941543889730980e+00
0	 3.642870477623360e+01	 3.785720989899840e+01	 9.934043456712104e+00
0	 3.642870477623360e+01	 3.857146279369100e+01	 9.930050548357457e+00
0	 3.642870477623360e+01	 3.928571602169432e+01	 9.929537463276237e+00
0	 3.642870477623360e+01	 3.999996966633628e+01	 9.932476497693017e+00
0	 3.642870477623359e+01	 4.071422381094481e+01	 9.938839945447812e+00
0	 3.642870477623359e+01	 4.142847853884784e+01	 9.948600097996039e+00
0	 3.642870477623359e+01	 4.214273393337328e+01	 9.961729244408563e+00
0	 3.642870477623362e+01	 4.285699007784908e+01	 9.978199671371730e+00
0	 3.714295725428857e+01	 3.571445238150556e+01	 9.960948846083889e+00
0	 3.714295725428858e+01	 3.642870477623360e+01	 9.948209574760515e+00
0	 3.714295725428858e+01	 3.714295725428858e+01	 9.939503505833869e+00
0	 3.714295725428856e+01	 3.785720989899840e+01	 9.934574692293221e+00
0	 3.714295725428858e+01	 3.857146279369101e+01	 9.933167185165097e+00
0	 3.714295725428857e+01	 3.928571602169432e+01	 9.935025033513227e+00
0	 3.714295725428858e+01	 3.999996966633629e+01	 9.939892284438635e+00
0	 3.714295725428858e+01	 4.071422381094482e+01	 9.947512983079582e+00
0	 3.714295725428855e+01	 4.142847853884783e+01	 9.957631172611617e+00
0	 3.714295725428857e+01	 4.214273393337327e+01	 9.969990894247598e+00
0	 3.714295725428856e+01	 4.285699007784907e+01	 9.984336187237684e+00
0	 3.785720989899840e+01	 3.571445238150555e+01	 9.954870011128190e+00
0	 3.785720989899839e+01	 3.642870477623359e+01	 9.945600238544580e+00
0	 3.785720989899840e+01	 3.714295725428857e+01	 9.940304328146231e+00
0	 3.785720989899838e+01	 3.785720989899838e+01	 9.938555328150626e+00
0	 3.785720989899841e+01	 3.857146279369100e+01	 9.939926285419219e+00
0	 3.785720989899841e+01	 3.928571602169433e+01	 9.943990245457496e+00
0	 3.785720989899840e+01	 3.999996966633629e+01	 9.950320252414969e+00
0	 3.785720989899839e+01	 4.071422381094482e+01	 9.958489349085120e+00
0	 3.785720989899838e+01	 4.142847853884782e+01	 9.968070576905500e+00
0	 3.785720989899838e+01	 4.214273393337328e+01	 9.978636975957683e+00
0	 3.785720989899840e+01	 4.285699007784908e+01	 9.989761584967297e+00
0	 3.857146279369101e+01	 3.571445238150555e+01	 9.949477810858534e+00
0	 3.857146279369101e+01	 3.642870477623359e+01	 9.944766659675278e+00
0	 3.857146279369100e+01	 3.714295725428857e+01	 9.943541066791465e+00
0	 3.857146279369100e+01	 3.785720989899841e+01	 9.945260321374217e+00
0	 3.857146279369099e+01	 3.857146279369099e+01	 9.949383711955841e+00
0	 3.857146279369099e+01	 3.928571602169433e+01	 9.955370526433846e+00
0	 3.857146279369099e+01	 3.999996966633628e+01	 9.962680052070958e+00
0	 3.857146279369100e+01	 4.071422381094481e+01	 9.970771575495117e+00
0	 3.857146279369100e+01	 4.142847853884783e+01	 9.979104382699450e+00
0	 3.857146279369100e+01	 4.214273393337327e+01	 9.987137759042328e+00
0	 3.857146279369101e+01	 4.285699007784907e+01	 9.994330989247349e+00
0	 3.928571602169433e+01	 3.571445238150556e+01	 9.945308436114399e+00
0	 3.928571602169433e+01	 3.642870477623360e+01	 9.945723958458526e+00
0	 3.928571602169431e+01	 3.714295725428856e+01	 9.948808430369681e+00
0	 3.928571602169434e+01	 3.785720989899840e+01	 9.953964627750043e+00
0	 3.928571602169433e+01	 3.857146279369100e+01	 9.960595326632140e+00
0	 3.928571602169433e+01	 3.928571602169433e+01	 9.968103303178909e+00
0	 3.928571602169433e+01	 3.999996966633629e+01	 9.975891333683643e+00
0	 3.928571602169432e+01	 4.071422381094481e+01	 9.983362194570022e+00
0	 3.928571602169432e+01	 4.142847853884783e+01	 9.989918662392125e+00
0	 3.928571602169432e+01	 4.214273393337328e+01	 9.994963513834390e+00
0	 3.928571602169431e+01	 4.285699007784905e+01	 9.997899525711636e+00
0	 3.999996966633630e+01	 3.571445238150556e+01	 9.942898076250579e+00
0	 3.999996966633628e+01	 3.642870477623360e+01	 9.948487253603401e+00
0	 3.999996966633630e+01	 3.714295725428858e+01	 9.955701125957791e+00
0	 3.999996966633629e+01	 3.785720989899839e+01	 9.963943201760284e+00
0	 3.999996966633628e+01	 3.857146279369100e+01	 9.972616990326538e+00
0	 3.999996966633629e+01	 3.928571602169434e+01	 9.981126001841233e+00
0	 3.999996966633628e+01	 3.999996966633628e+01	 9.988873747358136e+00
0	 3.999996966633630e+01	 4.071422381094482e+01	 9.995263738800128e+00
0	 3.999996966633629e+01	 4.142847853884783e+01	 9.999699488959097e+00
0	 3.999996966633628e+01	 4.214273393337327e+01	 1.000158451149602e+01
0	 3.999996966633630e+01	 4.285699007784908e+01	 1.000032232094093e+01
0	 4.071422381094482e+01	 3.571445238150556e+01	 9.942782919137230e+00
0	 4.071422381094482e+01	 3.642870477623361e+01	 9.953071662222097e+00
0	 4.071422381094482e+01	 3.714295725428857e+01	 9.963813859109385e+00
0	 4.071422381094482e+01	 3.785720989899840e+01	 9.974470996583232e+00
0	 4.071422381094482e+01	 3.857146279369100e+01	 9.984504562938568e+00
0	 4.071422381094482e+01	 3.928571602169432e+01	 9.993376047981190e+00
0	 4.071422381094482e+01	 3.999996966633629e+01	 1.000054694302767e+01
0	 4.071422381094481e+01	 4.071422381094480e+01	 1.000547874090547e+01
0	 4.071422381094481e+01	 4.142847853884782e+01	 1.000763293595280e+01
0	 4.071422381094482e+01	 4.214273393337328e+01	 1.000647102401871e+01
0	 4.071422381094481e+01	 4.285699007784907e+01	 1.000145450246304e+01
0	 4.142847853884783e+01	 3.571445238150555e+01	 9.945499151159847e+00
0	 4.142847853884783e+01	 3.642870477623360e+01	 9.959492299829941e+00
0	 4.142847853884783e+01	 3.714295725428857e+01	 9.972741333854895e+00
0	 4.142847853884783e+01	 3.785720989899841e+01	 9.984822964093318e+00
0	 4.142847853884782e+01	 3.857146279369100e+01	 9.995313903389041e+00
0	 4.142847853884783e+01	 3.928571602169433e+01	 1.000379086657106e+01
0	 4.142847853884784e+01	 3.999996966633629e+01	 1.000983057045355e+01
0	 4.142847853884783e+01	 4.071422381094482e+01	 1.001300973383588e+01
0	 4.142847853884782e+01	 4.142847853884782e+01	 1.001290507750256e+01
0	 4.142847853884783e+01	 4.214273393337326e+01	 1.000909332422325e+01
0	 4.142847853884783e+01	 4.285699007784908e+01	 1.000115119875275e+01
0	 4.214273393337327e+01	 3.571445238150555e+01	 9.951582957219300e+00
0	 4.214273393337328e+01	 3.642870477623360e+01	 9.967764280345460e+00
0	 4.214273393337327e+01	 3.714295725428857e+01	 9.982078252701466e+00
0	 4.214273393337327e+01	 3.785720989899839e+01	 9.994274054861137e+00
0	 4.214273393337329e+01	 3.857146279369100e+01	 1.000410086961992e+01
0	 4.214273393337328e+01	 3.928571602169432e+01	 1.001130788199499e+01
0	 4.214273393337328e+01	 3.999996966633628e+01	 1.001564427922519e+01
0	 4.214273393337328e+01	 4.071422381094482e+01	 1.001685925077099e+01
0	 4.214273393337329e+01	 4.142847853884783e+01	 1.001470198831459e+01
0	 4.214273393337328e+01	 4.214273393337328e+01	 1.000892168575974e+01
0	 4.214273393337329e+01	 4.285699007784908e+01	 9.999267539231875e+00
0	 4.285699007784907e+01	 3.571445238150555e+01	 9.961570520731838e+00
0	 4.285699007784907e+01	 3.642870477623359e+01	 9.977902716090307e+00
0	 4.285699007784907e+01	 3.714295725428857e+01	 9.991419316633078e+00
0	 4.285699007784908e+01	 3.785720989899839e+01	 1.000209921815340e+01
0	 4.285699007784907e+01	 3.857146279369100e+01	 1.000992131859440e+01
0	 4.285699007784906e+01	 3.928571602169431e+01	 1.001486451804902e+01
0	 4.285699007784908e+01	 3.999996966633628e+01	 1.001690771876006e+01
0	 4.285699007784908e+01	 4.071422381094481e+01	 1.001602982512023e+01
0	 4.285699007784908e+01	 4.142847853884783e+01	 1.001220974367195e+01
0	 4.285699007784908e+01	 4.214273393337328e+01	 1.000542638310759e+01
0	 4.285699007784907e+01	 4.285699007784908e+01	 9.995658654269183e+00
0	 3.571445238150556e+01	 4.285699007784908e+01	 9.971496913629704e+00
0	 3.571445238150555e+01	 4.357129694500737e+01	 9.989075563719544e+00
0	 3.571445238150556e+01	 4.428560406221391e+01	 1.000277066100996e+01
0	 3.571445238150556e+01	 4.499991084612203e+01	 1.001241526264069e+01
0	 3.571445238150556e+01	 4.571421671338500e+01	 1.001784240196349e+01
0	 3.571445238150556e+01	 4.642852108065614e+01	 1.001888508854224e+01
0	 3.571445238150556e+01	 4.714282336458874e+01	 1.001537630815258e+01
0	 3.571445238150555e+01	 4.785712298183612e+01	 1.000714902278146e+01
0	 3.571445238150555e+01	 4.857141934905161e+01	 9.994036170626035e+00
0	 3.571445238150555e+01	 4.928571188288847e+01	 9.975870666092810e+00
0	 3.571445238150555e+01	 5.000000000000000e+01	 9.952485399795874e+00
0	 3.642870477623362e+01	 4.285699007784908e+01	 9.978199671371732e+00
0	 3.642870477623359e+01	 4.357129694500737e+01	 9.994109816106022e+00
0	 3.642870477623360e+01	 4.428560406221392e+01	 1.000567656769880e+01
0	 3.642870477623359e+01	 4.499991084612202e+01	 1.001305368053805e+01
0	 3.642870477623359e+01	 4.571421671338500e+01	 1.001639488743205e+01
0	 3.642870477623359e+01	 4.642852108065613e+01	 1.001585389960941e+01
0	 3.642870477623360e+01	 4.714282336458875e+01	 1.001158440671888e+01
0	 3.642870477623360e+01	 4.785712298183613e+01	 1.000374007682866e+01
0	 3.642870477623361e+01	 4.857141934905160e+01	 9.992474556425869e+00
0	 3.642870477623359e+01	 4.928571188288846e+01	 9.977941470415225e+00
0	 3.642870477623359e+01	 4.999999999999998e+01	 9.960294422117855e+00
0	 3.714295725428856e+01	 4.285699007784907e+01	 9.984336187237680e+00
0	 3.714295725428857e+01	 4.357129694500737e+01	 9.997331863020799e+00
0	 3.714295725428858e+01	 4.428560406221394e+01	 1.000608223583761e+01
0	 3.714295725428856e+01	 4.499991084612201e+01	 1.001099378776167e+01
0	 3.714295725428857e+01	 4.571421671338500e+01	 1.001247298333817e+01
0	 3.714295725428858e+01	 4.642852108065614e+01	 1.001092626958388e+01
0	 3.714295725428858e+01	 4.714282336458875e+01	 1.000676007598693e+01
0	 3.714295725428856e+01	 4.785712298183613e+01	 1.000038081450645e+01
0	 3.714295725428856e+01	 4.857141934905160e+01	 9.992194879571947e+00
0	 3.714295725428858e+01	 4.928571188288846e+01	 9.982608648082378e+00
0	 3.714295725428858e+01	 5.000000000000000e+01	 9.972028479405191e+00
0	 3.785720989899840e+01	 4.285699007784908e+01	 9.989761584967299e+00
0	 3.785720989899841e+01	 4.357129694500737e+01	 9.998975977443102e+00
0	 3.785720989899839e+01	 4.428560406221393e+01	 1.000448895835836e+01
0	 3.785720989899841e+01	 4.499991084612204e+01	 1.000689176849146e+01
0	 3.785720989899839e+01	 4.571421671338500e+01	 1.000677563643726e+01
0	 3.785720989899841e+01	 4.642852108065614e+01	 1.000473177860696e+01
0	 3.785720989899841e+01	 4.714282336458876e+01	 1.000135139922808e+01
0	 3.785720989899840e+01	 4.785712298183613e+01	 9.997225690344223e+00
0	 3.785720989899838e+01	 4.857141934905158e+01	 9.992945831814470e+00
0	 3.785720989899840e+01	 4.928571188288847e+01	 9.989102991313048e+00
0	 3.785720989899839e+01	 5.000000000000001e+01	 9.986288324328505e+00
0	 3.857146279369101e+01	 4.285699007784907e+01	 9.994330989247349e+00
0	 3.857146279369100e+01	 4.357129694500736e+01	 9.999276433256622e+00
0	 3.857146279369100e+01	 4.428560406221391e+01	 1.000139802892775e+01
0	 3.857146279369100e+01	 4.499991084612203e+01	 1.000140380739260e+01
0	 3.857146279369100e+01	 4.571421671338499e+01	 1.000000179368835e+01
0	 3.857146279369102e+01	 4.642852108065615e+01	 9.997900006757558e+00
0	 3.857146279369101e+01	 4.714282336458875e+01	 9.995806459448193e+00
0	 3.857146279369100e+01	 4.785712298183613e+01	 9.994429158513412e+00
0	 3.857146279369100e+01	 4.857141934905160e+01	 9.994476104611458e+00
0	 3.857146279369101e+01	 4.928571188288846e+01	 9.996655292305334e+00
0	 3.857146279369101e+01	 5.000000000000001e+01	 1.000167471006260e+01
0	 3.928571602169431e+01	 4.285699007784905e+01	 9.997899525711636e+00
0	 3.928571602169431e+01	 4.357129694500736e+01	 9.998467505249536e+00
0	 3.928571602169433e+01	 4.428560406221393e+01	 9.997310741947196e+00
0	 3.928571602169432e+01	 4.499991084612203e+01	 9.995186089615434e+00
0	 3.928571602169433e+01	 4.571421671338499e+01	 9.992850402254120e+00
0	 3.928571602169433e+01	 4.642852108065613e+01	 9.991060534052135e+00
0	 3.928571602169433e+01	 4.714282336458874e+01	 9.990573339387538e+00
0	 3.928571602169434e+01	 4.785712298183613e+01	 9.992145672827553e+00
0	 3.928571602169433e+01	 4.857141934905160e+01	 9.996534389128662e+00
0	 3.928571602169432e+01	 4.928571188288845e+01	 1.000449634323664e+01
0	 3.928571602169433e+01	 5.000000000000000e+01	 1.001678839028673e+01
0	 3.999996966633630e+01	 4.285699007784908e+01	 1.000032232094093e+01
0	 3.999996966633629e+01	 4.357129694500738e+01	 9.996783469114529e+00
0	 3.999996966633628e+01	 4.428560406221393e+01	 9.992728392552788e+00
0	 3.999996966633630e+01	 4.499991084612203e+01	 9.988894800795611e+00
0	 3.999996966633628e+01	 4.571421671338500e+01	 9.986020409500931e+00
0	 3.999996966633629e+01	 4.642852108065614e+01	 9.984842940444675e+00
0	 3.999996966633628e+01	 4.714282336458874e+01	 9.986100121520911e+00
0	 3.999996966633629e+01	 4.785712298183614e+01	 9.990529686742203e+00
0	 3.999996966633628e+01	 4.857141934905158e+01	 9.998869376239735e+00
0	 3.999996966633628e+01	 4.928571188288846e+01	 1.001185693626373e+01
0	 3.999996966633629e+01	 5.000000000000000e+01	 1.003023011918402e+01
0	 4.071422381094481e+01	 4.285699007784907e+01	 1.000145450246304e+01
0	 4.071422381094481e+01	 4.357129694500738e+01	 9.994458601448754e+00
0	 4.071422381094482e+01	 4.428560406221392e+01	 9.988152276615310e+00
0	 4.071422381094482e+01	 4.499991084612203e+01	 9.983186127054005e+00
0	 4.071422381094481e+01	 4.571421671338499e+01	 9.980210762998823e+00
0	 4.071422381094482e+01	 4.642852108065613e+01	 9.979876805826722e+00
0	 4.071422381094482e+01	 4.714282336458875e+01	 9.982834888057635e+00
0	 4.071422381094481e+01	 4.785712298183613e+01	 9.989735653354979e+00
0	 4.071422381094481e+01	 4.857141934905158e+01	 1.000122975652605e+01
0	 4.071422381094481e+01	 4.928571188288846e+01	 1.001796786352271e+01
0	 4.071422381094481e+01	 5.000000000000001e+01	 1.004060065144206e+01
0	 4.142847853884783e+01	 4.285699007784908e+01	 1.000115119875275e+01
0	 4.142847853884783e+01	 4.357129694500738e+01	 9.991727179753841e+00
0	 4.142847853884783e+01	 4.428560406221393e+01	 9.984083690740313e+00
0	 4.142847853884784e+01	 4.499991084612204e+01	 9.978716254996675e+00
0	 4.142847853884783e+01	 4.571421671338500e+01	 9.976120410521478e+00
0	 4.142847853884784e+01	 4.642852108065613e+01	 9.976791710027420e+00
0	 4.142847853884783e+01	 4.714282336458875e+01	 9.981225720941490e+00
0	 4.142847853884783e+01	 4.785712298183613e+01	 9.989918025405540e+00
0	 4.142847853884784e+01	 4.857141934905161e+01	 1.000336422027688e+01
0	 4.142847853884784e+01	 4.928571188288846e+01	 1.002205991712898e+01
0	 4.142847853884783e+01	 4.999999999999999e+01	 1.004650074225267e+01
0	 4.214273393337329e+01	 4.285699007784908e+01	 9.999267539231875e+00
0	 4.214273393337328e+01	 4.357129694500738e+01	 9.988823482435906e+00
0	 4.214273393337328e+01	 4.428560406221392e+01	 9.981023932267929e+00
0	 4.214273393337327e+01	 4.499991084612203e+01	 9.976141371714967e+00
0	 4.214273393337327e+01	 4.571421671338499e+01	 9.974448300046248e+00
0	 4.214273393337327e+01	 4.642852108065613e+01	 9.976217232813443e+00
0	 4.214273393337327e+01	 4.714282336458876e+01	 9.981720701850781e+00
0	 4.214273393337327e+01	 4.785712298183612e+01	 9.991231255275657e+00
0	 4.214273393337328e+01	 4.857141934905160e+01	 1.000502145748923e+01
0	 4.214273393337327e+01	 4.928571188288846e+01	 1.002336388917736e+01
0	 4.214273393337328e+01	 5.000000000000000e+01	 1.004653114731154e+01
0	 4.285699007784907e+01	 4.285699007784908e+01	 9.995658654269183e+00
0	 4.285699007784908e+01	 4.357129694500737e+01	 9.985981788805514e+00
0	 4.285699007784906e+01	 4.428560406221393e+01	 9.979474299273077e+00
0	 4.285699007784908e+01	 4.499991084612203e+01	 9.976117664785416e+00
0	 4.285699007784908e+01	 4.571421671338501e+01	 9.975893379754121e+00
0	 4.285699007784907e+01	 4.642852108065613e+01	 9.978782953889011e+00
0	 4.285699007784908e+01	 4.714282336458876e+01	 9.984767912198297e+00
0	 4.285699007784908e+01	 4.785712298183613e+01	 9.993829794989104e+00
0	 4.285699007784908e+01	 4.857141934905160e+01	 1.000595015786797e+01
0	 4.285699007784908e+01	 4.928571188288846e+01	 1.002111057174185e+01
0	 4.285699007784908e+01	 5.000000000000001e+01	 1.003929262281897e+01
0	 4.285699007784908e+01	 0.000000000000000e+00	 1.146963578213337e+01
0	 4.285699007784909e+01	 7.142881171115515e-01	 1.104912179297375e+01
0	 4.285699007784908e+01	 1.428580650948409e+00	 1.068618200810247e+01
0	 4.285699007784908e+01	 2.142877018163878e+00	 1.038044583597199e+01
0	 4.285699007784908e+01	 2.857176635411264e+00	 1.013154293245261e+01
0	 4.285699007784908e+01	 3.571478919343873e+00	 9.939103200814714e+00
0	 4.285699007784908e+01	 4.285783286615009e+00	 9.802756791714188e+00
0	 4.285699007784908e+01	 5.000089153877975e+00	 9.722134103180778e+00
0	 4.285699007784908e+01	 5.714395937786081e+00	 9.696865780609485e+00
0	 4.285699007784907e+01	 6.428703054992629e+00	 9.726582716755045e+00
0	 4.285699007784908e+01	 7.143009922150927e+00	 9.810916051729381e+00
0	 4.357129694500737e+01	 0.000000000000000e+00	 1.116849841301305e+01
0	 4.357129694500739e+01	 7.142881171115514e-01	 1.088423711874361e+01
0	 4.357129694500737e+01	 1.428580650948410e+00	 1.062296195704524e+01
0	 4.357129694500737e+01	 2.142877018163878e+00	 1.038901424375835e+01
0	 4.357129694500737e+01	 2.857176635411265e+00	 1.018673558387073e+01
0	 4.357129694500735e+01	 3.571478919343872e+00	 1.002046787149696e+01
0	 4.357129694500737e+01	 4.285783286615008e+00	 9.894553289861166e+00
0	 4.357129694500738e+01	 5.000089153877975e+00	 9.813334311283434e+00
0	 4.357129694500737e+01	 5.714395937786082e+00	 9.781153697169694e+00
0	 4.357129694500738e+01	 6.428703054992631e+00	 9.802354498005162e+00
0	 4.357129694500738e+01	 7.143009922150927e+00	 9.881280053351389e+00
0	 4.428560406221392e+01	 0.000000000000000e+00	 1.080238168954871e+01
0	 4.428560406221393e+01	 7.142881171115514e-01	 1.066489643354438e+01
0	 4.428560406221393e+01	 1.428580650948409e+00	 1.051947378523630e+01
0	 4.428560406221393e+01	 2.142877018163880e+00	 1.037366480194792e+01
0	 4.428560406221392e+01	 2.857176635411264e+00	 1.023502082452093e+01
0	 4.428560406221393e+01	 3.571478919343873e+00	 1.011109347729508e+01
0	 4.428560406221392e+01	 4.285783286615009e+00	 1.000943466809119e+01
0	 4.428560406221392e+01	 5.000089153877976e+00	 9.937596588197758e+00
0	 4.428560406221392e+01	 5.714395937786083e+00	 9.903131712360985e+00
0	 4.428560406221391e+01	 6.428703054992628e+00	 9.913592798778346e+00
0	 4.428560406221393e+01	 7.143009922150928e+00	 9.976532889095539e+00
0	 4.499991084612202e+01	 0.000000000000000e+00	 1.042257134503248e+01
0	 4.499991084612204e+01	 7.142881171115514e-01	 1.042597262656603e+01
0	 4.499991084612203e+01	 1.428580650948409e+00	 1.039643457531505e+01
0	 4.499991084612202e+01	 2.142877018163878e+00	 1.034321575799532e+01
0	 4.499991084612204e+01	 2.857176635411265e+00	 1.027557498291426e+01
0	 4.499991084612203e+01	 3.571478919343873e+00	 1.020277129995338e+01
0	 4.499991084612203e+01	 4.285783286615008e+00	 1.013406400055392e+01
0	 4.499991084612203e+01	 5.000089153877975e+00	 1.007871261770528e+01
0	 4.499991084612203e+01	 5.714395937786082e+00	 1.004597692593645e+01
0	 4.499991084612203e+01	 6.428703054992630e+00	 1.004511694131045e+01
0	 4.499991084612203e+01	 7.143009922150927e+00	 1.008539292142169e+01
0	 4.571421671338500e+01	 0.000000000000000e+00	 1.008035386903419e+01
0	 4.571421671338500e+01	 7.142881171115513e-01	 1.020233904794116e+01
0	 4.571421671338499e+01	 1.428580650948409e+00	 1.027456164083723e+01
0	 4.571421671338500e+01	 2.142877018163878e+00	 1.030648541819221e+01
0	 4.571421671338499e+01	 2.857176635411264e+00	 1.030757432490417e+01
0	 4.571421671338499e+01	 3.571478919343873e+00	 1.028729248028666e+01
0	 4.571421671338499e+01	 4.285783286615009e+00	 1.025510417805823e+01
0	 4.571421671338500e+01	 5.000089153877975e+00	 1.022047388633396e+01
0	 4.571421671338498e+01	 5.714395937786080e+00	 1.019286624761919e+01
0	 4.571421671338499e+01	 6.428703054992630e+00	 1.018174607880535e+01
0	 4.571421671338501e+01	 7.143009922150926e+00	 1.019657837116801e+01
0	 4.642852108065614e+01	 0.000000000000000e+00	 9.827016507403535e+00
0	 4.642852108065613e+01	 7.142881171115514e-01	 1.002886950874607e+01
0	 4.642852108065613e+01	 1.428580650948409e+00	 1.017457252627541e+01
0	 4.642852108065614e+01	 2.142877018163878e+00	 1.027229214766714e+01
0	 4.642852108065614e+01	 2.857176635411264e+00	 1.033019505368613e+01
0	 4.642852108065613e+01	 3.571478919343873e+00	 1.035644801817966e+01
0	 4.642852108065614e+01	 4.285783286615009e+00	 1.035921790807156e+01
0	 4.642852108065615e+01	 5.000089153877976e+00	 1.034667168335757e+01
0	 4.642852108065614e+01	 5.714395937786081e+00	 1.032697639710186e+01
0	 4.642852108065613e+01	 6.428703054992630e+00	 1.030829919543458e+01
0	 4.642852108065613e+01	 7.143009922150926e+00	 1.029880731755070e+01
0	 4.714282336458874e+01	 0.000000000000000e+00	 9.713847262281440e+00
0	 4.714282336458874e+01	 7.142881171115513e-01	 9.940438281007612e+00
0	 4.714282336458874e+01	 1.428580650948409e+00	 1.011718500702223e+01
0	 4.714282336458874e+01	 2.142877018163879e+00	 1.024945437038623e+01
0	 4.714282336458874e+01	 2.857176635411265e+00	 1.034261330979645e+01
0	 4.714282336458873e+01	 3.571478919343873e+00	 1.040202877258472e+01
0	 4.714282336458875e+01	 4.285783286615009e+00	 1.043306771471700e+01
0	 4.714282336458874e+01	 5.000089153877975e+00	 1.044109710079265e+01
0	 4.714282336458874e+01	 5.714395937786080e+00	 1.043148390404381e+01
0	 4.714282336458874e+01	 6.428703054992628e+00	 1.040959510633485e+01
0	 4.714282336458874e+01	 7.143009922150926e+00	 1.038079769816202e+01
0	 4.785712298183613e+01	 0.000000000000000e+00	 9.792134892120682e+00
0	 4.785712298183613e+01	 7.142881171115514e-01	 9.971920097715573e+00
0	 4.785712298183613e+01	 1.428580650948409e+00	 1.012311708939643e+01
0	 4.785712298183613e+01	 2.142877018163878e+00	 1.024679056915455e+01
0	 4.785712298183612e+01	 2.857176635411265e+00	 1.034400517111029e+01
0	 4.785712298183613e+01	 3.571478919343872e+00	 1.041582546151771e+01
0	 4.785712298183613e+01	 4.285783286615009e+00	 1.046331593876815e+01
0	 4.785712298183613e+01	 5.000089153877973e+00	 1.048754103339304e+01
0	 4.785712298183614e+01	 5.714395937786080e+00	 1.048956510806590e+01
0	 4.785712298183614e+01	 6.428703054992630e+00	 1.047045245760358e+01
0	 4.785712298183613e+01	 7.143009922150927e+00	 1.043126730896652e+01
0	 4.857141934905160e+01	 0.000000000000000e+00	 1.011316891171578e+01
0	 4.857141934905161e+01	 7.142881171115514e-01	 1.015819015284080e+01
0	 4.857141934905160e+01	 1.428580650948409e+00	 1.021308701065183e+01
0	 4.857141934905160e+01	 2.142877018163879e+00	 1.027311928561812e+01
0	 4.857141934905161e+01	 2.857176635411265e+00	 1.033354665283897e+01
0	 4.857141934905160e+01	 3.571478919343873e+00	 1.038962866205232e+01
0	 4.857141934905159e+01	 4.285783286615009e+00	 1.043662473764178e+01
0	 4.857141934905162e+01	 5.000089153877976e+00	 1.046979417864203e+01
0	 4.857141934905160e+01	 5.714395937786081e+00	 1.048439615874304e+01
0	 4.857141934905160e+01	 6.428703054992631e+00	 1.047568972629224e+01
0	 4.857141934905160e+01	 7.143009922150926e+00	 1.043893380429562e+01
0	 4.928571188288846e+01	 0.000000000000000e+00	 1.072823959224219e+01
0	 4.928571188288846e+01	 7.142881171115513e-01	 1.053412410135893e+01
0	 4.928571188288845e+01	 1.428580650948409e+00	 1.040781323898894e+01
0	 4.928571188288845e+01	 2.142877018163878e+00	 1.033725912026672e+01
0	 4.928571188288846e+01	 2.857176635411265e+00	 1.031041370752645e+01
0	 4.928571188288846e+01	 3.571478919343873e+00	 1.031522881031250e+01
0	 4.928571188288846e+01	 4.285783286615008e+00	 1.033965608538811e+01
0	 4.928571188288846e+01	 5.000089153877976e+00	 1.037164703674219e+01
0	 4.928571188288846e+01	 5.714395937786080e+00	 1.039915301559432e+01
0	 4.928571188288846e+01	 6.428703054992630e+00	 1.041012522039768e+01
0	 4.928571188288846e+01	 7.143009922150927e+00	 1.039251469684041e+01
0	 5.000000000000000e+01	 0.000000000000000e+00	 1.168863796130469e+01
0	 5.000000000000001e+01	 7.142881171115513e-01	 1.113459805927972e+01
0	 4.999999999999999e+01	 1.428580650948409e+00	 1.072801447356968e+01
0	 4.999999999999999e+01	 2.142877018163878e+00	 1.044802873243750e+01
0	 5.000000000000000e+01	 2.857176635411265e+00	 1.027378222504513e+01
0	 5.000000000000000e+01	 3.571478919343873e+00	 1.018441620146323e+01
0	 5.000000000000000e+01	 4.285783286615008e+00	 1.015907177267902e+01
0	 5.000000000000000e+01	 5.000089153877976e+00	 1.017688991060248e+01
0	 4.999999999999999e+01	 5.714395937786080e+00	 1.021701144807087e+01
0	 5.000000000000000e+01	 6.428703054992629e+00	 1.025857707885146e+01
0	 5.000000000000001e+01	 7.143009922150927e+00	 1.028072735764268e+01
0	 4.285699007784908e+01	 7.143009922150927e+00	 9.810916051729381e+00
0	 4.285699007784908e+01	 7.857266066626719e+00	 9.915423257177032e+00
0	 4.285699007784907e+01	 8.571521461152162e+00	 1.000548006616135e+01
0	 4.285699007784908e+01	 9.285776189055184e+00	 1.008042178720768e+01
0	 4.285699007784908e+01	 1.000003033366371e+01	 1.013958374112688e+01
0	 4.285699007784908e+01	 1.071428397830567e+01	 1.018230126101534e+01
0	 4.285699007784908e+01	 1.142853720630899e+01	 1.020790969225517e+01
0	 4.285699007784908e+01	 1.214279010100160e+01	 1.021574439251425e+01
0	 4.285699007784907e+01	 1.285704274571142e+01	 1.020514073174633e+01
0	 4.285699007784908e+01	 1.357129522376640e+01	 1.017543409219105e+01
0	 4.285699007784908e+01	 1.428554761849444e+01	 1.012595986837399e+01
0	 4.357129694500738e+01	 7.143009922150927e+00	 9.881280053351389e+00
0	 4.357129694500737e+01	 7.857266066626718e+00	 9.982385716543064e+00
0	 4.357129694500738e+01	 8.571521461152164e+00	 1.006709880966773e+01
0	 4.357129694500738e+01	 9.285776189055184e+00	 1.013519791326961e+01
0	 4.357129694500738e+01	 1.000003033366371e+01	 1.018646162136274e+01
0	 4.357129694500736e+01	 1.071428397830567e+01	 1.022066854143102e+01
0	 4.357129694500737e+01	 1.142853720630899e+01	 1.023759729442841e+01
0	 4.357129694500738e+01	 1.214279010100160e+01	 1.023702651477900e+01
0	 4.357129694500738e+01	 1.285704274571142e+01	 1.021873485037709e+01
0	 4.357129694500738e+01	 1.357129522376640e+01	 1.018250096258727e+01
0	 4.357129694500737e+01	 1.428554761849444e+01	 1.012810352624441e+01
0	 4.428560406221393e+01	 7.143009922150928e+00	 9.976532889095539e+00
0	 4.428560406221391e+01	 7.857266066626718e+00	 1.006033532001145e+01
0	 4.428560406221393e+01	 8.571521461152159e+00	 1.012846303163526e+01
0	 4.428560406221392e+01	 9.285776189055182e+00	 1.018106943671350e+01
0	 4.428560406221391e+01	 1.000003033366371e+01	 1.021830796060124e+01
0	 4.428560406221393e+01	 1.071428397830567e+01	 1.024033204126225e+01
0	 4.428560406221391e+01	 1.142853720630899e+01	 1.024729512926913e+01
0	 4.428560406221392e+01	 1.214279010100159e+01	 1.023935068780338e+01
0	 4.428560406221392e+01	 1.285704274571142e+01	 1.021665219265549e+01
0	 4.428560406221392e+01	 1.357129522376639e+01	 1.017935313222500e+01
0	 4.428560406221391e+01	 1.428554761849444e+01	 1.012760700752052e+01
0	 4.499991084612203e+01	 7.143009922150927e+00	 1.008539292142169e+01
0	 4.499991084612204e+01	 7.857266066626720e+00	 1.014264371394600e+01
0	 4.499991084612203e+01	 8.571521461152162e+00	 1.018685002071265e+01
0	 4.499991084612202e+01	 9.285776189055184e+00	 1.021847164416906e+01
0	 4.499991084612203e+01	 1.000003033366371e+01	 1.023796839698779e+01
0	 4.499991084612203e+01	 1.071428397830567e+01	 1.024580010206672e+01
0	 4.499991084612203e+01	 1.142853720630899e+01	 1.024242659252905e+01
0	 4.499991084612203e+01	 1.214279010100160e+01	 1.022830771172350e+01
0	 4.499991084612203e+01	 1.285704274571142e+01	 1.020390331322422e+01
0	 4.499991084612203e+01	 1.357129522376640e+01	 1.016967326083102e+01
0	 4.499991084612203e+01	 1.428554761849445e+01	 1.012607742856922e+01
0	 4.571421671338501e+01	 7.143009922150926e+00	 1.019657837116801e+01
0	 4.571421671338501e+01	 7.857266066626719e+00	 1.022268243071850e+01
0	 4.571421671338500e+01	 8.571521461152164e+00	 1.023953697790108e+01
0	 4.571421671338499e+01	 9.285776189055182e+00	 1.024783975934252e+01
0	 4.571421671338499e+01	 1.000003033366371e+01	 1.024828852851241e+01
0	 4.571421671338500e+01	 1.071428397830567e+01	 1.024158104572339e+01
0	 4.571421671338498e+01	 1.142853720630899e+01	 1.022841507813114e+01
0	 4.571421671338499e+01	 1.214279010100160e+01	 1.020948839973442e+01
0	 4.571421671338499e+01	 1.285704274571142e+01	 1.018549879137513e+01
0	 4.571421671338500e+01	 1.357129522376639e+01	 1.015714404073836e+01
0	 4.571421671338500e+01	 1.428554761849444e+01	 1.012512194235237e+01
0	 4.642852108065613e+01	 7.143009922150926e+00	 1.029880731755071e+01
0	 4.642852108065613e+01	 7.857266066626718e+00	 1.029382288870848e+01
0	 4.642852108065613e+01	 8.571521461152161e+00	 1.028380101655414e+01
0	 4.642852108065613e+01	 9.285776189055182e+00	 1.026960894301655e+01
0	 4.642852108065613e+01	 1.000003033366371e+01	 1.025211391300968e+01
0	 4.642852108065614e+01	 1.071428397830567e+01	 1.023218317443263e+01
0	 4.642852108065614e+01	 1.142853720630899e+01	 1.021068397816969e+01
0	 4.642852108065613e+01	 1.214279010100160e+01	 1.018848357809033e+01
0	 4.642852108065614e+01	 1.285704274571143e+01	 1.016644923104923e+01
0	 4.642852108065613e+01	 1.357129522376639e+01	 1.014544819688631e+01
0	 4.642852108065614e+01	 1.428554761849444e+01	 1.012634773842671e+01
0	 4.714282336458874e+01	 7.143009922150926e+00	 1.038079769816202e+01
0	 4.714282336458874e+01	 7.857266066626722e+00	 1.034943639230172e+01
0	 4.714282336458874e+01	 8.571521461152161e+00	 1.031691916237666e+01
0	 4.714282336458874e+01	 9.285776189055184e+00	 1.028421429304959e+01
0	 4.714282336458874e+01	 1.000003033366371e+01	 1.025229006815836e+01
0	 4.714282336458874e+01	 1.071428397830567e+01	 1.022211477071590e+01
0	 4.714282336458874e+01	 1.142853720630899e+01	 1.019465668291027e+01
0	 4.714282336458874e+01	 1.214279010100160e+01	 1.017088408610457e+01
0	 4.714282336458875e+01	 1.285704274571142e+01	 1.015176526083700e+01
0	 4.714282336458874e+01	 1.357129522376639e+01	 1.013826848682079e+01
0	 4.714282336458874e+01	 1.428554761849444e+01	 1.013136204294429e+01
0	 4.785712298183613e+01	 7.143009922150927e+00	 1.043126730896652e+01
0	 4.785712298183613e+01	 7.857266066626720e+00	 1.038289413188732e+01
0	 4.785712298183613e+01	 8.571521461152164e+00	 1.033616835342255e+01
0	 4.785712298183613e+01	 9.285776189055182e+00	 1.029209084437415e+01
0	 4.785712298183613e+01	 1.000003033366371e+01	 1.025166247148030e+01
0	 4.785712298183614e+01	 1.071428397830567e+01	 1.021588409741535e+01
0	 4.785712298183612e+01	 1.142853720630899e+01	 1.018575658078975e+01
0	 4.785712298183613e+01	 1.214279010100160e+01	 1.016228077615010e+01
0	 4.785712298183613e+01	 1.285704274571142e+01	 1.014645753397901e+01
0	 4.785712298183613e+01	 1.357129522376639e+01	 1.013928770069516e+01
0	 4.785712298183613e+01	 1.428554761849445e+01	 1.014177211865328e+01
0	 4.857141934905160e+01	 7.143009922150926e+00	 1.043893380429562e+01
0	 4.857141934905159e+01	 7.857266066626718e+00	 1.038756718385329e+01
0	 4.857141934905160e+01	 8.571521461152162e+00	 1.033882544009141e+01
0	 4.857141934905160e+01	 9.285776189055184e+00	 1.029367356899454e+01
0	 4.857141934905161e+01	 1.000003033366371e+01	 1.025307656033908e+01
0	 4.857141934905160e+01	 1.071428397830567e+01	 1.021799939769308e+01
0	 4.857141934905161e+01	 1.142853720630899e+01	 1.018940705841625e+01
0	 4.857141934905160e+01	 1.214279010100160e+01	 1.016826451365990e+01
0	 4.857141934905160e+01	 1.285704274571142e+01	 1.015553672836683e+01
0	 4.857141934905160e+01	 1.357129522376639e+01	 1.015218866127137e+01
0	 4.857141934905161e+01	 1.428554761849444e+01	 1.015918526489935e+01
0	 4.928571188288846e+01	 7.143009922150927e+00	 1.039251469684040e+01
0	 4.928571188288846e+01	 7.857266066626719e+00	 1.035682651058088e+01
0	 4.928571188288846e+01	 8.571521461152164e+00	 1.032216718512424e+01
0	 4.928571188288846e+01	 9.285776189055184e+00	 1.028939737598378e+01
0	 4.928571188288846e+01	 1.000003033366371e+01	 1.025937773193798e+01
0	 4.928571188288846e+01	 1.071428397830567e+01	 1.023296889503029e+01
0	 4.928571188288846e+01	 1.142853720630899e+01	 1.021103150056909e+01
0	 4.928571188288846e+01	 1.214279010100160e+01	 1.019442617712770e+01
0	 4.928571188288846e+01	 1.285704274571142e+01	 1.018401354654421e+01
0	 4.928571188288846e+01	 1.357129522376639e+01	 1.018065422392153e+01
0	 4.928571188288846e+01	 1.428554761849444e+01	 1.018520881762738e+01
0	 5.000000000000001e+01	 7.143009922150927e+00	 1.028072735764268e+01
0	 5.000000000000001e+01	 7.857266066626719e+00	 1.028404296043740e+01
0	 5.000000000000001e+01	 8.571521461152161e+00	 1.028347026359794e+01
0	 5.000000000000000e+01	 9.285776189055182e+00	 1.027969711147968e+01
0	 5.000000000000000e+01	 1.000003033366371e+01	 1.027341134331757e+01
0	 4.999999999999999e+01	 1.071428397830567e+01	 1.026530079322596e+01
0	 5.000000000000000e+01	 1.142853720630899e+01	 1.025605329019865e+01
0	 5.000000000000000e+01	 1.214279010100160e+01	 1.024635665810872e+01
0	 4.999999999999999e+01	 1.285704274571142e+01	 1.023689871570860e+01
0	 5.000000000000000e+01	 1.357129522376639e+01	 1.022836727662993e+01
0	 5.000000000000000e+01	 1.428554761849444e+01	 1.022145014938364e+01
0	 4.285699007784908e+01	 1.428554761849444e+01	 1.012595986837400e+01
0	 4.285699007784907e+01	 1.499984997172426e+01	 1.006994906788976e+01
0	 4.285699007784906e+01	 1.571415215828766e+01	 1.002135662138356e+01
0	 4.285699007784907e+01	 1.642845401151721e+01	 9.980591315225341e+00
0	 4.285699007784908e+01	 1.714275536474550e+01	 9.948061949631491e+00
0	 4.285699007784907e+01	 1.785705605130510e+01	 9.924177338664716e+00
0	 4.285699007784908e+01	 1.857135590452858e+01	 9.909346310234193e+00
0	 4.285699007784908e+01	 1.928565475774854e+01	 9.903977706095604e+00
0	 4.285699007784908e+01	 1.999995244429753e+01	 9.908480381851351e+00
0	 4.285699007784907e+01	 2.071424879750816e+01	 9.923263206950750e+00
0	 4.285699007784908e+01	 2.142854365071297e+01	 9.948735064690243e+00
0	 4.357129694500737e+01	 1.428554761849444e+01	 1.012810352624441e+01
0	 4.357129694500738e+01	 1.499984997172426e+01	 1.006979229763242e+01
0	 4.357129694500738e+01	 1.571415215828766e+01	 1.002181361172887e+01
0	 4.357129694500737e+01	 1.642845401151722e+01	 9.983927684917054e+00
0	 4.357129694500737e+01	 1.714275536474550e+01	 9.955894747178778e+00
0	 4.357129694500736e+01	 1.785705605130510e+01	 9.937475042094267e+00
0	 4.357129694500738e+01	 1.857135590452858e+01	 9.928428826842261e+00
0	 4.357129694500738e+01	 1.928565475774854e+01	 9.928516372200134e+00
0	 4.357129694500737e+01	 1.999995244429754e+01	 9.937497962544022e+00
0	 4.357129694500738e+01	 2.071424879750815e+01	 9.955133895849000e+00
0	 4.357129694500737e+01	 2.142854365071296e+01	 9.981184483689375e+00
0	 4.428560406221391e+01	 1.428554761849444e+01	 1.012760700752052e+01
0	 4.428560406221393e+01	 1.499984997172426e+01	 1.007452698408425e+01
0	 4.428560406221393e+01	 1.571415215828766e+01	 1.003264569721726e+01
0	 4.428560406221391e+01	 1.642845401151721e+01	 1.000123349714056e+01
0	 4.428560406221392e+01	 1.714275536474550e+01	 9.979560745566289e+00
0	 4.428560406221392e+01	 1.785705605130509e+01	 9.966897815697646e+00
0	 4.428560406221392e+01	 1.857135590452858e+01	 9.962515092228935e+00
0	 4.428560406221391e+01	 1.928565475774854e+01	 9.965682971345661e+00
0	 4.428560406221392e+01	 1.999995244429753e+01	 9.975671860724653e+00
0	 4.428560406221393e+01	 2.071424879750816e+01	 9.991752179534219e+00
0	 4.428560406221392e+01	 2.142854365071295e+01	 1.001319435843430e+01
0	 4.499991084612203e+01	 1.428554761849445e+01	 1.012607742856922e+01
0	 4.499991084612202e+01	 1.499984997172426e+01	 1.008352268343331e+01
0	 4.499991084612203e+01	 1.571415215828766e+01	 1.005140882905033e+01
0	 4.499991084612203e+01	 1.642845401151722e+01	 1.002867505130662e+01
0	 4.499991084612203e+01	 1.714275536474550e+01	 1.001426054420631e+01
0	 4.499991084612203e+01	 1.785705605130509e+01	 1.000710450987124e+01
0	 4.499991084612203e+01	 1.857135590452858e+01	 1.000614615854105e+01
0	 4.499991084612202e+01	 1.928565475774854e+01	 1.001032470857311e+01
0	 4.499991084612203e+01	 1.999995244429754e+01	 1.001857938644276e+01
0	 4.499991084612202e+01	 2.071424879750816e+01	 1.002984942674329e+01
0	 4.499991084612203e+01	 2.142854365071297e+01	 1.004307407218611e+01
0	 4.571421671338500e+01	 1.428554761849444e+01	 1.012512194235237e+01
0	 4.571421671338501e+01	 1.499984997172427e+01	 1.009614898833271e+01
0	 4.571421671338501e+01	 1.571415215828766e+01	 1.007565899123801e+01
0	 4.571421671338500e+01	 1.642845401151722e+01	 1.006241867322840e+01
0	 4.571421671338501e+01	 1.714275536474550e+01	 1.005519476053596e+01
0	 4.571421671338499e+01	 1.785705605130509e+01	 1.005275398346475e+01
0	 4.571421671338500e+01	 1.857135590452858e+01	 1.005386307639082e+01
0	 4.571421671338501e+01	 1.928565475774853e+01	 1.005728877776218e+01
0	 4.571421671338501e+01	 1.999995244429753e+01	 1.006179783009886e+01
0	 4.571421671338501e+01	 2.071424879750816e+01	 1.006615697999293e+01
0	 4.571421671338499e+01	 2.142854365071296e+01	 1.006913297810855e+01
0	 4.642852108065614e+01	 1.428554761849444e+01	 1.012634773842671e+01
0	 4.642852108065613e+01	 1.499984997172426e+01	 1.011177552790054e+01
0	 4.642852108065614e+01	 1.571415215828766e+01	 1.010295220059849e+01
0	 4.642852108065613e+01	 1.642845401151721e+01	 1.009863071512132e+01
0	 4.642852108065613e+01	 1.714275536474550e+01	 1.009756403001705e+01
0	 4.642852108065613e+01	 1.785705605130510e+01	 1.009850510378100e+01
0	 4.642852108065612e+01	 1.857135590452858e+01	 1.010020689485578e+01
0	 4.642852108065613e+01	 1.928565475774854e+01	 1.010142236163123e+01
0	 4.642852108065614e+01	 1.999995244429753e+01	 1.010090446244440e+01
0	 4.642852108065613e+01	 2.071424879750815e+01	 1.009740615557952e+01
0	 4.642852108065614e+01	 2.142854365071297e+01	 1.008968039926800e+01
0	 4.714282336458874e+01	 1.428554761849444e+01	 1.013136204294429e+01
0	 4.714282336458874e+01	 1.499984997172426e+01	 1.012977196772030e+01
0	 4.714282336458875e+01	 1.571415215828767e+01	 1.013084450675855e+01
0	 4.714282336458874e+01	 1.642845401151722e+01	 1.013347755560335e+01
0	 4.714282336458874e+01	 1.714275536474550e+01	 1.013656900613625e+01
0	 4.714282336458875e+01	 1.785705605130510e+01	 1.013901674657601e+01
0	 4.714282336458874e+01	 1.857135590452858e+01	 1.013971866147857e+01
0	 4.714282336458874e+01	 1.928565475774854e+01	 1.013757263173700e+01
0	 4.714282336458876e+01	 1.999995244429754e+01	 1.013147653458135e+01
0	 4.714282336458875e+01	 2.071424879750815e+01	 1.012032824357869e+01
0	 4.714282336458875e+01	 2.142854365071297e+01	 1.010302562863292e+01
0	 4.785712298183613e+01	 1.428554761849445e+01	 1.014177211865328e+01
0	 4.785712298183613e+01	 1.499984997172426e+01	 1.014950800984170e+01
0	 4.785712298183613e+01	 1.571415215828766e+01	 1.015689199215424e+01
0	 4.785712298183613e+01	 1.642845401151721e+01	 1.016312559969551e+01
0	 4.785712298183612e+01	 1.714275536474550e+01	 1.016741036040541e+01
0	 4.785712298183613e+01	 1.785705605130510e+01	 1.016894779605906e+01
0	 4.785712298183612e+01	 1.857135590452858e+01	 1.016693942226682e+01
0	 4.785712298183613e+01	 1.928565475774854e+01	 1.016058674847418e+01
0	 4.785712298183613e+01	 1.999995244429753e+01	 1.014909127796161e+01
0	 4.785712298183613e+01	 2.071424879750816e+01	 1.013165450784451e+01
0	 4.785712298183611e+01	 2.142854365071296e+01	 1.010747792907301e+01
0	 4.857141934905161e+01	 1.428554761849444e+01	 1.015918526489935e+01
0	 4.857141934905160e+01	 1.499984997172426e+01	 1.017035339278195e+01
0	 4.857141934905160e+01	 1.571415215828766e+01	 1.017865077203209e+01
0	 4.857141934905160e+01	 1.642845401151722e+01	 1.018374127882281e+01
0	 4.857141934905161e+01	 1.714275536474550e+01	 1.018528878236209e+01
0	 4.857141934905160e+01	 1.785705605130510e+01	 1.018295714489284e+01
0	 4.857141934905161e+01	 1.857135590452859e+01	 1.017641022169292e+01
0	 4.857141934905159e+01	 1.928565475774854e+01	 1.016531186107492e+01
0	 4.857141934905160e+01	 1.999995244429754e+01	 1.014932590438612e+01
0	 4.857141934905160e+01	 2.071424879750816e+01	 1.012811618600840e+01
0	 4.857141934905160e+01	 2.142854365071296e+01	 1.010134653335798e+01
0	 4.928571188288846e+01	 1.428554761849444e+01	 1.018520881762738e+01
0	 4.928571188288846e+01	 1.499984997172426e+01	 1.019167789152746e+01
0	 4.928571188288846e+01	 1.571415215828766e+01	 1.019367699445055e+01
0	 4.928571188288846e+01	 1.642845401151722e+01	 1.019149105081534e+01
0	 4.928571188288846e+01	 1.714275536474550e+01	 1.018540497957034e+01
0	 4.928571188288846e+01	 1.785705605130510e+01	 1.017570369419385e+01
0	 4.928571188288846e+01	 1.857135590452858e+01	 1.016267210269388e+01
0	 4.928571188288846e+01	 1.928565475774854e+01	 1.014659510760812e+01
0	 4.928571188288846e+01	 1.999995244429753e+01	 1.012775760600384e+01
0	 4.928571188288846e+01	 2.071424879750816e+01	 1.010644448947775e+01
0	 4.928571188288846e+01	 2.142854365071296e+01	 1.008294064415596e+01
0	 5.000000000000000e+01	 1.428554761849444e+01	 1.022145014938364e+01
0	 5.000000000000000e+01	 1.499984997172426e+01	 1.021285131753608e+01
0	 5.000000000000001e+01	 1.571415215828766e+01	 1.019952684028197e+01
0	 5.000000000000000e+01	 1.642845401151722e+01	 1.018254139990991e+01
0	 4.999999999999999e+01	 1.714275536474550e+01	 1.016295967762176e+01
0	 5.000000000000000e+01	 1.785705605130510e+01	 1.014184635353266e+01
0	 5.000000000000000e+01	 1.857135590452858e+01	 1.012026610667107e+01
0	 5.000000000000000e+01	 1.928565475774854e+01	 1.009928361497866e+01
0	 5.000000000000000e+01	 1.999995244429753e+01	 1.007996355531035e+01
0	 5.000000000000000e+01	 2.071424879750816e+01	 1.006337060343422e+01
0	 5.000000000000001e+01	 2.142854365071296e+01	 1.005056943403153e+01
0	 4.285699007784908e+01	 2.142854365071297e+01	 9.948735064690243e+00
0	 4.285699007784907e+01	 2.214283692057824e+01	 9.977434441820053e+00
0	 4.285699007784908e+01	 2.285712885710493e+01	 1.000148831192619e+01
0	 4.285699007784908e+01	 2.357141979362770e+01	 1.002068831079720e+01
0	 4.285699007784908e+01	 2.428571006348117e+01	 1.003482609002571e+01
0	 4.285699007784908e+01	 2.500000000000001e+01	 1.004369331700872e+01
0	 4.285699007784907e+01	 2.571428993651883e+01	 1.004708167494775e+01
0	 4.285699007784907e+01	 2.642858020637231e+01	 1.004478286284901e+01
0	 4.285699007784906e+01	 2.714287114289507e+01	 1.003658859552325e+01
0	 4.285699007784908e+01	 2.785716307942178e+01	 1.002229060358572e+01
0	 4.285699007784907e+01	 2.857145634928704e+01	 1.000168063345583e+01
0	 4.357129694500737e+01	 2.142854365071296e+01	 9.981184483689375e+00
0	 4.357129694500738e+01	 2.214283692057823e+01	 1.000809110405352e+01
0	 4.357129694500736e+01	 2.285712885710494e+01	 1.002862644991813e+01
0	 4.357129694500738e+01	 2.357141979362770e+01	 1.004304782622808e+01
0	 4.357129694500736e+01	 2.428571006348117e+01	 1.005161255217997e+01
0	 4.357129694500736e+01	 2.500000000000000e+01	 1.005457796122240e+01
0	 4.357129694500737e+01	 2.571428993651884e+01	 1.005220140105610e+01
0	 4.357129694500738e+01	 2.642858020637232e+01	 1.004474023363403e+01
0	 4.357129694500738e+01	 2.714287114289508e+01	 1.003245183516137e+01
0	 4.357129694500737e+01	 2.785716307942177e+01	 1.001559359609533e+01
0	 4.357129694500737e+01	 2.857145634928704e+01	 9.994422921144986e+00
0	 4.428560406221392e+01	 2.142854365071295e+01	 1.001319435843430e+01
0	 4.428560406221392e+01	 2.214283692057824e+01	 1.003352799371558e+01
0	 4.428560406221392e+01	 2.285712885710494e+01	 1.004716914783649e+01
0	 4.428560406221391e+01	 2.357141979362770e+01	 1.005471796713242e+01
0	 4.428560406221393e+01	 2.428571006348117e+01	 1.005677460834531e+01
0	 4.428560406221393e+01	 2.500000000000000e+01	 1.005393923862385e+01
0	 4.428560406221393e+01	 2.571428993651883e+01	 1.004681203552363e+01
0	 4.428560406221391e+01	 2.642858020637231e+01	 1.003599318700716e+01
0	 4.428560406221393e+01	 2.714287114289509e+01	 1.002208289144387e+01
0	 4.428560406221392e+01	 2.785716307942177e+01	 1.000568135760997e+01
0	 4.428560406221392e+01	 2.857145634928704e+01	 9.987388804688308e+00
0	 4.499991084612203e+01	 2.142854365071297e+01	 1.004307407218611e+01
0	 4.499991084612205e+01	 2.214283692057824e+01	 1.005369080154186e+01
0	 4.499991084612203e+01	 2.285712885710494e+01	 1.005839103009114e+01
0	 4.499991084612202e+01	 2.357141979362770e+01	 1.005799491524578e+01
0	 4.499991084612203e+01	 2.428571006348118e+01	 1.005332261954688e+01
0	 4.499991084612203e+01	 2.500000000000001e+01	 1.004519431066483e+01
0	 4.499991084612203e+01	 2.571428993651883e+01	 1.003443016139948e+01
0	 4.499991084612202e+01	 2.642858020637232e+01	 1.002185034968004e+01
0	 4.499991084612203e+01	 2.714287114289507e+01	 1.000827505856511e+01
0	 4.499991084612203e+01	 2.785716307942177e+01	 9.994524476242649e+00
0	 4.499991084612203e+01	 2.857145634928704e+01	 9.981418796029811e+00
0	 4.571421671338499e+01	 2.142854365071296e+01	 1.006913297810855e+01
0	 4.571421671338499e+01	 2.214283692057824e+01	 1.006852518753550e+01
0	 4.571421671338501e+01	 2.285712885710495e+01	 1.006356669259403e+01
0	 4.571421671338499e+01	 2.357141979362770e+01	 1.005517482830835e+01
0	 4.571421671338500e+01	 2.428571006348117e+01	 1.004426692898308e+01
0	 4.571421671338499e+01	 2.500000000000000e+01	 1.003176032820317e+01
0	 4.571421671338499e+01	 2.571428993651883e+01	 1.001857235883396e+01
0	 4.571421671338498e+01	 2.642858020637231e+01	 1.000562035302102e+01
0	 4.571421671338500e+01	 2.714287114289507e+01	 9.993821642190239e+00
0	 4.571421671338499e+01	 2.785716307942177e+01	 9.984093557047821e+00
0	 4.571421671338499e+01	 2.857145634928703e+01	 9.977353427580203e+00
0	 4.642852108065614e+01	 2.142854365071297e+01	 1.008968039926800e+01
0	 4.642852108065613e+01	 2.214283692057824e+01	 1.007797678096695e+01
0	 4.642852108065615e+01	 2.285712885710494e+01	 1.006397070275903e+01
0	 4.642852108065614e+01	 2.357141979362770e+01	 1.004855384006484e+01
0	 4.642852108065613e+01	 2.428571006348117e+01	 1.003261786202556e+01
0	 4.642852108065612e+01	 2.500000000000001e+01	 1.001705443150282e+01
0	 4.642852108065613e+01	 2.571428993651884e+01	 1.000275520507861e+01
0	 4.642852108065613e+01	 2.642858020637231e+01	 9.990611833055191e+00
0	 4.642852108065613e+01	 2.714287114289507e+01	 9.981515959455125e+00
0	 4.642852108065613e+01	 2.785716307942177e+01	 9.976359222021276e+00
0	 4.642852108065615e+01	 2.857145634928704e+01	 9.976033252216872e+00
0	 4.714282336458875e+01	 2.142854365071297e+01	 1.010302562863292e+01
0	 4.714282336458875e+01	 2.214283692057824e+01	 1.008199118037350e+01
0	 4.714282336458875e+01	 2.285712885710494e+01	 1.006087759950156e+01
0	 4.714282336458875e+01	 2.357141979362770e+01	 1.004042806026417e+01
0	 4.714282336458876e+01	 2.428571006348117e+01	 1.002138572621889e+01
0	 4.714282336458874e+01	 2.500000000000000e+01	 1.000449375023354e+01
0	 4.714282336458874e+01	 2.571428993651883e+01	 9.990495274486056e+00
0	 4.714282336458874e+01	 2.642858020637231e+01	 9.980133430464385e+00
0	 4.714282336458874e+01	 2.714287114289508e+01	 9.974151338966475e+00
0	 4.714282336458874e+01	 2.785716307942177e+01	 9.973292110100342e+00
0	 4.714282336458875e+01	 2.857145634928704e+01	 9.978298843284181e+00
0	 4.785712298183611e+01	 2.142854365071296e+01	 1.010747792907301e+01
0	 4.785712298183613e+01	 2.214283692057824e+01	 1.008051395355844e+01
0	 4.785712298183612e+01	 2.285712885710493e+01	 1.005556189323772e+01
0	 4.785712298183613e+01	 2.357141979362770e+01	 1.003309357465873e+01
0	 4.785712298183613e+01	 2.428571006348118e+01	 1.001358081128002e+01
0	 4.785712298183613e+01	 2.500000000000000e+01	 9.997495403470660e+00
0	 4.785712298183613e+01	 2.571428993651884e+01	 9.985309138509935e+00
0	 4.785712298183613e+01	 2.642858020637231e+01	 9.977493790587229e+00
0	 4.785712298183613e+01	 2.714287114289508e+01	 9.974521120802132e+00
0	 4.785712298183613e+01	 2.785716307942177e+01	 9.976862877164310e+00
0	 4.785712298183612e+01	 2.857145634928704e+01	 9.984990794593843e+00
0	 4.857141934905160e+01	 2.142854365071296e+01	 1.010134653335798e+01
0	 4.857141934905160e+01	 2.214283692057824e+01	 1.007349063758980e+01
0	 4.857141934905160e+01	 2.285712885710494e+01	 1.004929806588319e+01
0	 4.857141934905161e+01	 2.357141979362770e+01	 1.002884644500340e+01
0	 4.857141934905159e+01	 2.428571006348117e+01	 1.001221338909761e+01
0	 4.857141934905160e+01	 2.500000000000001e+01	 9.999476499694628e+00
0	 4.857141934905160e+01	 2.571428993651883e+01	 9.990713365704707e+00
0	 4.857141934905160e+01	 2.642858020637231e+01	 9.986001563419380e+00
0	 4.857141934905160e+01	 2.714287114289507e+01	 9.985418656511474e+00
0	 4.857141934905159e+01	 2.785716307942177e+01	 9.989042196035108e+00
0	 4.857141934905160e+01	 2.857145634928703e+01	 9.996949720425864e+00
0	 4.928571188288846e+01	 2.142854365071296e+01	 1.008294064415596e+01
0	 4.928571188288846e+01	 2.214283692057824e+01	 1.006086673879876e+01
0	 4.928571188288846e+01	 2.285712885710494e+01	 1.004336057085170e+01
0	 4.928571188288846e+01	 2.357141979362770e+01	 1.002998270905437e+01
0	 4.928571188288846e+01	 2.428571006348118e+01	 1.002029371373105e+01
0	 4.928571188288845e+01	 2.500000000000000e+01	 1.001385413679042e+01
0	 4.928571188288846e+01	 2.571428993651884e+01	 1.001022452172555e+01
0	 4.928571188288845e+01	 2.642858020637231e+01	 1.000896540361363e+01
0	 4.928571188288846e+01	 2.714287114289507e+01	 1.000963730911597e+01
0	 4.928571188288845e+01	 2.785716307942177e+01	 1.001180075647801e+01
0	 4.928571188288845e+01	 2.857145634928704e+01	 1.001501625552940e+01
0	 5.000000000000001e+01	 2.142854365071296e+01	 1.005056943403153e+01
0	 5.000000000000000e+01	 2.214283692057824e+01	 1.004258773277759e+01
0	 5.000000000000000e+01	 2.285712885710494e+01	 1.003902383305323e+01
0	 5.000000000000000e+01	 2.357141979362770e+01	 1.003879838056754e+01
0	 5.000000000000000e+01	 2.428571006348117e+01	 1.004083202140929e+01
0	 5.000000000000001e+01	 2.500000000000001e+01	 1.004404540204687e+01
0	 5.000000000000001e+01	 2.571428993651884e+01	 1.004735916932809e+01
0	 4.999999999999999e+01	 2.642858020637231e+01	 1.004969397048022e+01
0	 5.000000000000000e+01	 2.714287114289507e+01	 1.004997045310984e+01
0	 4.999999999999999e+01	 2.785716307942177e+01	 1.004710926520278e+01
0	 5.000000000000000e+01	 2.857145634928704e+01	 1.004003105512402e+01
0	 4.285699007784907e+01	 2.857145634928704e+01	 1.000168063345583e+01
0	 4.285699007784908e+01	 2.928575120249185e+01	 9.979654841219428e+00
0	 4.285699007784908e+01	 3.000004755570248e+01	 9.961325027033888e+00
0	 4.285699007784908e+01	 3.071434524225148e+01	 9.946806419958524e+00
0	 4.285699007784907e+01	 3.142864409547143e+01	 9.936214255291974e+00
0	 4.285699007784908e+01	 3.214294394869492e+01	 9.929663774572113e+00
0	 4.285699007784908e+01	 3.285724463525452e+01	 9.927270225575924e+00
0	 4.285699007784908e+01	 3.357154598848280e+01	 9.929148862319405e+00
0	 4.285699007784908e+01	 3.428584784171235e+01	 9.935414945057493e+00
0	 4.285699007784908e+01	 3.500015002827575e+01	 9.946183740284063e+00
0	 4.285699007784907e+01	 3.571445238150555e+01	 9.961570520731838e+00
0	 4.357129694500737e+01	 2.857145634928704e+01	 9.994422921144986e+00
0	 4.357129694500737e+01	 2.928575120249186e+01	 9.973600375973621e+00
0	 4.357129694500736e+01	 3.000004755570248e+01	 9.957480327471190e+00
0	 4.357129694500738e+01	 3.071434524225148e+01	 9.945860896938473e+00
0	 4.357129694500738e+01	 3.142864409547142e+01	 9.938540211093539e+00
0	 4.357129694500737e+01	 3.214294394869492e+01	 9.935316402071718e+00
0	 4.357129694500736e+01	 3.285724463525452e+01	 9.935987607425403e+00
0	 4.357129694500738e+01	 3.357154598848280e+01	 9.940351970124031e+00
0	 4.357129694500738e+01	 3.428584784171235e+01	 9.948207638554013e+00
0	 4.357129694500737e+01	 3.500015002827575e+01	 9.959352766518675e+00
0	 4.357129694500737e+01	 3.571445238150555e+01	 9.973585513238280e+00
0	 4.428560406221392e+01	 2.857145634928704e+01	 9.987388804688308e+00
0	 4.428560406221392e+01	 2.928575120249186e+01	 9.970875788992906e+00
0	 4.428560406221392e+01	 3.000004755570248e+01	 9.959125633362738e+00
0	 4.428560406221393e+01	 3.071434524225148e+01	 9.951707717479088e+00
0	 4.428560406221393e+01	 3.142864409547143e+01	 9.948191424897937e+00
0	 4.428560406221393e+01	 3.214294394869492e+01	 9.948146143049950e+00
0	 4.428560406221393e+01	 3.285724463525452e+01	 9.951141263240340e+00
0	 4.428560406221391e+01	 3.357154598848280e+01	 9.956746180648819e+00
0	 4.428560406221391e+01	 3.428584784171233e+01	 9.964530294329606e+00
0	 4.428560406221391e+01	 3.500015002827573e+01	 9.974063007211322e+00
0	 4.428560406221392e+01	 3.571445238150557e+01	 9.984913726097030e+00
0	 4.499991084612203e+01	 2.857145634928704e+01	 9.981418796029811e+00
0	 4.499991084612202e+01	 2.928575120249186e+01	 9.971150625463681e+00
0	 4.499991084612203e+01	 3.000004755570247e+01	 9.964985107442825e+00
0	 4.499991084612202e+01	 3.071434524225147e+01	 9.962351243619109e+00
0	 4.499991084612203e+01	 3.142864409547143e+01	 9.962678037571793e+00
0	 4.499991084612203e+01	 3.214294394869492e+01	 9.965394494807484e+00
0	 4.499991084612202e+01	 3.285724463525451e+01	 9.969929622760073e+00
0	 4.499991084612203e+01	 3.357154598848279e+01	 9.975712430790754e+00
0	 4.499991084612203e+01	 3.428584784171236e+01	 9.982171930187963e+00
0	 4.499991084612203e+01	 3.500015002827575e+01	 9.988737134167366e+00
0	 4.499991084612202e+01	 3.571445238150555e+01	 9.994837057871869e+00
0	 4.571421671338499e+01	 2.857145634928703e+01	 9.977353427580203e+00
0	 4.571421671338500e+01	 2.928575120249186e+01	 9.974094452189641e+00
0	 4.571421671338499e+01	 3.000004755570248e+01	 9.973782933099425e+00
0	 4.571421671338501e+01	 3.071434524225148e+01	 9.975795855406128e+00
0	 4.571421671338500e+01	 3.142864409547143e+01	 9.979510204097462e+00
0	 4.571421671338500e+01	 3.214294394869492e+01	 9.984302964052247e+00
0	 4.571421671338500e+01	 3.285724463525451e+01	 9.989551120040437e+00
0	 4.571421671338500e+01	 3.357154598848280e+01	 9.994631656723111e+00
0	 4.571421671338501e+01	 3.428584784171235e+01	 9.998921558652469e+00
0	 4.571421671338499e+01	 3.500015002827575e+01	 1.000179781027182e+01
0	 4.571421671338501e+01	 3.571445238150556e+01	 1.000263739591561e+01
0	 4.642852108065615e+01	 2.857145634928704e+01	 9.976033252216872e+00
0	 4.642852108065613e+01	 2.928575120249186e+01	 9.979376857591820e+00
0	 4.642852108065615e+01	 3.000004755570247e+01	 9.984243314374266e+00
0	 4.642852108065613e+01	 3.071434524225148e+01	 9.990045950896622e+00
0	 4.642852108065613e+01	 3.142864409547142e+01	 9.996198093573033e+00
0	 4.642852108065613e+01	 3.214294394869492e+01	 1.000211306689947e+01
0	 4.642852108065615e+01	 3.285724463525451e+01	 1.000720419345371e+01
0	 4.642852108065613e+01	 3.357154598848279e+01	 1.001088479389543e+01
0	 4.642852108065613e+01	 3.428584784171234e+01	 1.001256818696612e+01
0	 4.642852108065613e+01	 3.500015002827575e+01	 1.001166768948923e+01
0	 4.642852108065613e+01	 3.571445238150556e+01	 1.000759661637004e+01
0	 4.714282336458875e+01	 2.857145634928704e+01	 9.978298843284181e+00
0	 4.714282336458874e+01	 2.928575120249186e+01	 9.986667451708801e+00
0	 4.714282336458875e+01	 3.000004755570247e+01	 9.995090475963011e+00
0	 4.714282336458874e+01	 3.071434524225147e+01	 1.000310594615611e+01
0	 4.714282336458874e+01	 3.142864409547143e+01	 1.001025188921247e+01
0	 4.714282336458875e+01	 3.214294394869491e+01	 1.001606632887171e+01
0	 4.714282336458875e+01	 3.285724463525452e+01	 1.002008728568865e+01
0	 4.714282336458874e+01	 3.357154598848280e+01	 1.002185277703340e+01
0	 4.714282336458875e+01	 3.428584784171235e+01	 1.002090081709143e+01
0	 4.714282336458875e+01	 3.500015002827575e+01	 1.001676941686349e+01
0	 4.714282336458874e+01	 3.571445238150555e+01	 1.000899658416571e+01
0	 4.785712298183612e+01	 2.857145634928704e+01	 9.984990794593843e+00
0	 4.785712298183613e+01	 2.928575120249186e+01	 9.995635866197279e+00
0	 4.785712298183612e+01	 3.000004755570247e+01	 1.000504866321580e+01
0	 4.785712298183613e+01	 3.071434524225147e+01	 1.001298027525963e+01
0	 4.785712298183613e+01	 3.142864409547143e+01	 1.001918178834596e+01
0	 4.785712298183613e+01	 3.214294394869492e+01	 1.002340428489907e+01
0	 4.785712298183613e+01	 3.285724463525451e+01	 1.002539884375049e+01
0	 4.785712298183613e+01	 3.357154598848280e+01	 1.002491654013889e+01
0	 4.785712298183613e+01	 3.428584784171235e+01	 1.002170844571019e+01
0	 4.785712298183613e+01	 3.500015002827575e+01	 1.001552562851761e+01
0	 4.785712298183613e+01	 3.571445238150555e+01	 1.000611915302165e+01
0	 4.857141934905160e+01	 2.857145634928703e+01	 9.996949720425864e+00
0	 4.857141934905160e+01	 2.928575120249186e+01	 1.000595175433284e+01
0	 4.857141934905160e+01	 3.000004755570247e+01	 1.001284214213801e+01
0	 4.857141934905160e+01	 3.071434524225148e+01	 1.001767339029239e+01
0	 4.857141934905161e+01	 3.142864409547143e+01	 1.002049800242033e+01
0	 4.857141934905160e+01	 3.214294394869491e+01	 1.002136847931958e+01
0	 4.857141934905160e+01	 3.285724463525450e+01	 1.002033731896120e+01
0	 4.857141934905161e+01	 3.357154598848280e+01	 1.001745701648977e+01
0	 4.857141934905160e+01	 3.428584784171235e+01	 1.001278006422330e+01
0	 4.857141934905160e+01	 3.500015002827575e+01	 1.000635895165331e+01
0	 4.857141934905160e+01	 3.571445238150555e+01	 9.998246165444812e+00
0	 4.928571188288845e+01	 2.857145634928704e+01	 1.001501625552940e+01
0	 4.928571188288846e+01	 2.928575120249186e+01	 1.001728479101107e+01
0	 4.928571188288846e+01	 3.000004755570248e+01	 1.001719519939119e+01
0	 4.928571188288846e+01	 3.071434524225147e+01	 1.001518976135058e+01
0	 4.928571188288846e+01	 3.142864409547142e+01	 1.001171075699988e+01
0	 4.928571188288846e+01	 3.214294394869491e+01	 1.000720046587948e+01
0	 4.928571188288845e+01	 3.285724463525451e+01	 1.000210116695951e+01
0	 4.928571188288846e+01	 3.357154598848280e+01	 9.996855138639923e+00
0	 4.928571188288846e+01	 3.428584784171235e+01	 9.991904658750443e+00
0	 4.928571188288846e+01	 3.500015002827575e+01	 9.987692004550553e+00
0	 4.928571188288846e+01	 3.571445238150555e+01	 9.984659452729563e+00
0	 5.000000000000000e+01	 2.857145634928704e+01	 1.004003105512402e+01
0	 5.000000000000000e+01	 2.928575120249186e+01	 1.002930467274878e+01
0	 4.999999999999999e+01	 3.000004755570248e+01	 1.001683214229442e+01
0	 5.000000000000000e+01	 3.071434524225148e+01	 1.000353387654255e+01
0	 4.999999999999999e+01	 3.142864409547142e+01	 9.990330291767037e+00
0	 5.000000000000000e+01	 3.214294394869492e+01	 9.978141807733895e+00
0	 4.999999999999999e+01	 3.285724463525451e+01	 9.967888847701211e+00
0	 5.000000000000000e+01	 3.357154598848280e+01	 9.960491838419063e+00
0	 4.999999999999999e+01	 3.428584784171235e+01	 9.956871210129602e+00
0	 5.000000000000001e+01	 3.500015002827575e+01	 9.957947396566862e+00
0	 5.000000000000000e+01	 3.571445238150555e+01	 9.964640834956878e+00
0	 4.285699007784907e+01	 3.571445238150555e+01	 9.961570520731838e+00
0	 4.285699007784907e+01	 3.642870477623359e+01	 9.977902716090307e+00
0	 4.285699007784907e+01	 3.714295725428857e+01	 9.991419316633078e+00
0	 4.285699007784908e+01	 3.785720989899839e+01	 1.000209921815340e+01
0	 4.285699007784907e+01	 3.857146279369100e+01	 1.000992131859440e+01
0	 4.285699007784906e+01	 3.928571602169431e+01	 1.001486451804902e+01
0	 4.285699007784908e+01	 3.999996966633628e+01	 1.001690771876006e+01
0	 4.285699007784908e+01	 4.071422381094481e+01	 1.001602982512022e+01
0	 4.285699007784908e+01	 4.142847853884783e+01	 1.001220974367195e+01
0	 4.285699007784908e+01	 4.214273393337328e+01	 1.000542638310759e+01
0	 4.285699007784907e+01	 4.285699007784908e+01	 9.995658654269183e+00
0	 4.357129694500737e+01	 3.571445238150555e+01	 9.973585513238278e+00
0	 4.357129694500738e+01	 3.642870477623360e+01	 9.987598865292622e+00
0	 4.357129694500738e+01	 3.714295725428858e+01	 9.998358193158229e+00
0	 4.357129694500737e+01	 3.785720989899841e+01	 1.000606693837979e+01
0	 4.357129694500735e+01	 3.857146279369100e+01	 1.001092854423381e+01
0	 4.357129694500737e+01	 3.928571602169432e+01	 1.001314645572863e+01
0	 4.357129694500738e+01	 3.999996966633629e+01	 1.001292411960441e+01
0	 4.357129694500738e+01	 4.071422381094482e+01	 1.001046498433316e+01
0	 4.357129694500736e+01	 4.142847853884783e+01	 1.000597250011868e+01
0	 4.357129694500737e+01	 4.214273393337327e+01	 9.999650118896554e+00
0	 4.357129694500737e+01	 4.285699007784908e+01	 9.991701294334165e+00
0	 4.428560406221392e+01	 3.571445238150557e+01	 9.984913726097028e+00
0	 4.428560406221392e+01	 3.642870477623360e+01	 9.994641937751178e+00
0	 4.428560406221393e+01	 3.714295725428858e+01	 1.000133602457735e+01
0	 4.428560406221393e+01	 3.785720989899841e+01	 1.000535635368570e+01
0	 4.428560406221391e+01	 3.857146279369100e+01	 1.000706329324668e+01
0	 4.428560406221392e+01	 3.928571602169433e+01	 1.000681721249101e+01
0	 4.428560406221393e+01	 3.999996966633628e+01	 1.000497848170963e+01
0	 4.428560406221392e+01	 4.071422381094482e+01	 1.000190747225372e+01
0	 4.428560406221393e+01	 4.142847853884784e+01	 9.997964556534766e+00
0	 4.428560406221391e+01	 4.214273393337326e+01	 9.993510108024392e+00
0	 4.428560406221392e+01	 4.285699007784908e+01	 9.988904501254499e+00
0	 4.499991084612202e+01	 3.571445238150555e+01	 9.994837057871869e+00
0	 4.499991084612204e+01	 3.642870477623361e+01	 9.999196289284569e+00
0	 4.499991084612202e+01	 3.714295725428855e+01	 1.000122064843087e+01
0	 4.499991084612204e+01	 3.785720989899841e+01	 1.000135980802094e+01
0	 4.499991084612203e+01	 3.857146279369100e+01	 1.000006344102536e+01
0	 4.499991084612202e+01	 3.928571602169433e+01	 9.997781220675137e+00
0	 4.499991084612203e+01	 3.999996966633629e+01	 9.994962820461618e+00
0	 4.499991084612203e+01	 4.071422381094482e+01	 9.992057914136614e+00
0	 4.499991084612203e+01	 4.142847853884783e+01	 9.989516175712296e+00
0	 4.499991084612203e+01	 4.214273393337327e+01	 9.987787279461227e+00
0	 4.499991084612203e+01	 4.285699007784908e+01	 9.987320899916407e+00
0	 4.571421671338501e+01	 3.571445238150556e+01	 1.000263739591561e+01
0	 4.571421671338500e+01	 3.642870477623360e+01	 1.000142626386484e+01
0	 4.571421671338499e+01	 3.714295725428857e+01	 9.998879891228134e+00
0	 4.571421671338501e+01	 3.785720989899840e+01	 9.995469636239168e+00
0	 4.571421671338499e+01	 3.857146279369100e+01	 9.991666856589173e+00
0	 4.571421671338500e+01	 3.928571602169433e+01	 9.987942909426952e+00
0	 4.571421671338499e+01	 3.999996966633628e+01	 9.984769151358872e+00
0	 4.571421671338499e+01	 4.071422381094482e+01	 9.982616938448830e+00
0	 4.571421671338499e+01	 4.142847853884783e+01	 9.981957626218300e+00
0	 4.571421671338499e+01	 4.214273393337327e+01	 9.983262569646339e+00
0	 4.571421671338501e+01	 4.285699007784908e+01	 9.987003123169531e+00
0	 4.642852108065613e+01	 3.571445238150556e+01	 1.000759661637004e+01
0	 4.642852108065615e+01	 3.642870477623359e+01	 1.000149619361757e+01
0	 4.642852108065614e+01	 3.714295725428858e+01	 9.995181568447356e+00
0	 4.642852108065614e+01	 3.785720989899841e+01	 9.989078164097817e+00
0	 4.642852108065615e+01	 3.857146279369100e+01	 9.983611402584367e+00
0	 4.642852108065613e+01	 3.928571602169432e+01	 9.979206704699450e+00
0	 4.642852108065615e+01	 3.999996966633629e+01	 9.976289490012443e+00
0	 4.642852108065613e+01	 4.071422381094482e+01	 9.975285176869779e+00
0	 4.642852108065613e+01	 4.142847853884783e+01	 9.976619182394870e+00
0	 4.642852108065613e+01	 4.214273393337327e+01	 9.980716922488142e+00
0	 4.642852108065613e+01	 4.285699007784907e+01	 9.988003811827095e+00
0	 4.714282336458874e+01	 3.571445238150555e+01	 1.000899658416571e+01
0	 4.714282336458876e+01	 3.642870477623361e+01	 9.999570398821591e+00
0	 4.714282336458874e+01	 3.714295725428858e+01	 9.990993484535434e+00
0	 4.714282336458875e+01	 3.785720989899841e+01	 9.983577708258025e+00
0	 4.714282336458874e+01	 3.857146279369099e+01	 9.977634935284129e+00
0	 4.714282336458874e+01	 3.928571602169432e+01	 9.973477029252527e+00
0	 4.714282336458874e+01	 3.999996966633628e+01	 9.971415852145979e+00
0	 4.714282336458876e+01	 4.071422381094482e+01	 9.971763264291233e+00
0	 4.714282336458874e+01	 4.142847853884784e+01	 9.974831124359095e+00
0	 4.714282336458874e+01	 4.214273393337327e+01	 9.980931289364367e+00
0	 4.714282336458875e+01	 4.285699007784908e+01	 9.990375614665925e+00
0	 4.785712298183613e+01	 3.571445238150555e+01	 1.000611915302164e+01
0	 4.785712298183611e+01	 3.642870477623359e+01	 9.995813187908656e+00
0	 4.785712298183613e+01	 3.714295725428857e+01	 9.987183432907626e+00
0	 4.785712298183612e+01	 3.785720989899840e+01	 9.980360576284321e+00
0	 4.785712298183613e+01	 3.857146279369100e+01	 9.975475304588299e+00
0	 4.785712298183613e+01	 3.928571602169433e+01	 9.972658302653006e+00
0	 4.785712298183613e+01	 3.999996966633628e+01	 9.972040253595706e+00
0	 4.785712298183613e+01	 4.071422381094481e+01	 9.973751838817524e+00
0	 4.785712298183612e+01	 4.142847853884783e+01	 9.977923738003424e+00
0	 4.785712298183613e+01	 4.214273393337328e+01	 9.984686629122246e+00
0	 4.785712298183613e+01	 4.285699007784907e+01	 9.994171188426765e+00
0	 4.857141934905160e+01	 3.571445238150555e+01	 9.998246165444810e+00
0	 4.857141934905159e+01	 3.642870477623359e+01	 9.990388857462982e+00
0	 4.857141934905160e+01	 3.714295725428857e+01	 9.984619195947118e+00
0	 4.857141934905160e+01	 3.785720989899839e+01	 9.980819066644244e+00
0	 4.857141934905159e+01	 3.857146279369100e+01	 9.978870354023153e+00
0	 4.857141934905158e+01	 3.928571602169432e+01	 9.978654941274431e+00
0	 4.857141934905160e+01	 3.999996966633628e+01	 9.980054710310526e+00
0	 4.857141934905160e+01	 4.071422381094482e+01	 9.982951541765605e+00
0	 4.857141934905160e+01	 4.142847853884783e+01	 9.987227314995739e+00
0	 4.857141934905161e+01	 4.214273393337328e+01	 9.992763908078814e+00
0	 4.857141934905160e+01	 4.285699007784908e+01	 9.999443197814543e+00
0	 4.928571188288846e+01	 3.571445238150555e+01	 9.984659452729563e+00
0	 4.928571188288846e+01	 3.642870477623359e+01	 9.983461692220580e+00
0	 4.928571188288846e+01	 3.714295725428857e+01	 9.984168545004451e+00
0	 4.928571188288846e+01	 3.785720989899840e+01	 9.986345468708002e+00
0	 4.928571188288846e+01	 3.857146279369100e+01	 9.989557920741111e+00
0	 4.928571188288846e+01	 3.928571602169433e+01	 9.993371358296974e+00
0	 4.928571188288846e+01	 3.999996966633628e+01	 9.997351238351868e+00
0	 4.928571188288846e+01	 4.071422381094481e+01	 1.000106301766525e+01
0	 4.928571188288846e+01	 4.142847853884783e+01	 1.000407215277979e+01
0	 4.928571188288846e+01	 4.214273393337328e+01	 1.000594410002131e+01
0	 4.928571188288846e+01	 4.285699007784908e+01	 1.000624431549881e+01
0	 5.000000000000000e+01	 3.571445238150555e+01	 9.964640834956876e+00
0	 4.999999999999998e+01	 3.642870477623359e+01	 9.975195965068531e+00
0	 5.000000000000000e+01	 3.714295725428858e+01	 9.986699240396796e+00
0	 5.000000000000001e+01	 3.785720989899839e+01	 9.998332062747643e+00
0	 5.000000000000001e+01	 3.857146279369101e+01	 1.000927583552029e+01
0	 5.000000000000000e+01	 3.928571602169433e+01	 1.001871196370716e+01
0	 5.000000000000000e+01	 3.999996966633629e+01	 1.002582185389387e+01
0	 5.000000000000001e+01	 4.071422381094481e+01	 1.002978691425931e+01
0	 4.999999999999999e+01	 4.142847853884783e+01	 1.002978855457549e+01
0	 5.000000000000000e+01	 4.214273393337328e+01	 1.002500818620769e+01
0	 5.000000000000001e+01	 4.285699007784908e+01	 1.001462722211427e+01
0	 4.285699007784907e+01	 4.285699007784908e+01	 9.995658654269183e+00
0	 4.285699007784908e+01	 4.357129694500737e+01	 9.985981788805514e+00
0	 4.285699007784906e+01	 4.428560406221393e+01	 9.979474299273077e+00
0	 4.285699007784908e+01	 4.499991084612203e+01	 9.976117664785416e+00
0	 4.285699007784908e+01	 4.571421671338501e+01	 9.975893379754119e+00
0	 4.285699007784907e+01	 4.642852108065613e+01	 9.978782953889011e+00
0	 4.285699007784908e+01	 4.714282336458876e+01	 9.984767912198297e+00
0	 4.285699007784908e+01	 4.785712298183613e+01	 9.993829794989104e+00
0	 4.285699007784908e+01	 4.857141934905160e+01	 1.000595015786797e+01
0	 4.285699007784908e+01	 4.928571188288846e+01	 1.002111057174185e+01
0	 4.285699007784908e+01	 5.000000000000001e+01	 1.003929262281897e+01
0	 4.357129694500737e+01	 4.285699007784908e+01	 9.991701294334165e+00
0	 4.357129694500738e+01	 4.357129694500737e+01	 9.984654606228181e+00
0	 4.357129694500736e+01	 4.428560406221393e+01	 9.980706250559420e+00
0	 4.357129694500738e+01	 4.499991084612203e+01	 9.979559289305492e+00
0	 4.357129694500736e+01	 4.571421671338500e+01	 9.980916795929698e+00
0	 4.357129694500736e+01	 4.642852108065613e+01	 9.984481855381137e+00
0	 4.357129694500738e+01	 4.714282336458875e+01	 9.989957564094755e+00
0	 4.357129694500737e+01	 4.785712298183613e+01	 9.997047029991858e+00
0	 4.357129694500737e+01	 4.857141934905162e+01	 1.000545337248043e+01
0	 4.357129694500738e+01	 4.928571188288846e+01	 1.001487972245582e+01
0	 4.357129694500737e+01	 4.999999999999999e+01	 1.002502922230149e+01
0	 4.428560406221392e+01	 4.285699007784908e+01	 9.988904501254499e+00
0	 4.428560406221392e+01	 4.357129694500737e+01	 9.985702954120242e+00
0	 4.428560406221393e+01	 4.428560406221393e+01	 9.984899620364153e+00
0	 4.428560406221391e+01	 4.499991084612203e+01	 9.986012325463134e+00
0	 4.428560406221392e+01	 4.571421671338499e+01	 9.988558900559696e+00
0	 4.428560406221393e+01	 4.642852108065613e+01	 9.992057182462039e+00
0	 4.428560406221392e+01	 4.714282336458875e+01	 9.996025013644116e+00
0	 4.428560406221393e+01	 4.785712298183614e+01	 9.999980242245856e+00
0	 4.428560406221393e+01	 4.857141934905160e+01	 1.000344072207329e+01
0	 4.428560406221391e+01	 4.928571188288846e+01	 1.000592431259892e+01
0	 4.428560406221392e+01	 5.000000000000001e+01	 1.000694887896205e+01
0	 4.499991084612203e+01	 4.285699007784908e+01	 9.987320899916407e+00
0	 4.499991084612203e+01	 4.357129694500738e+01	 9.988473311965995e+00
0	 4.499991084612203e+01	 4.428560406221393e+01	 9.990918142496330e+00
0	 4.499991084612203e+01	 4.499991084612203e+01	 9.994081159537490e+00
0	 4.499991084612203e+01	 4.571421671338501e+01	 9.997388130052121e+00
0	 4.499991084612203e+01	 4.642852108065615e+01	 1.000026481993553e+01
0	 4.499991084612203e+01	 4.714282336458874e+01	 1.000213699401558e+01
0	 4.499991084612203e+01	 4.785712298183613e+01	 1.000243041605266e+01
0	 4.499991084612203e+01	 4.857141934905160e+01	 1.000057084873968e+01
0	 4.499991084612202e+01	 4.928571188288844e+01	 9.995984053701990e+00
0	 4.499991084612202e+01	 5.000000000000000e+01	 9.988095791497313e+00
0	 4.571421671338501e+01	 4.285699007784908e+01	 9.987003123169533e+00
0	 4.571421671338499e+01	 4.357129694500737e+01	 9.992312166307652e+00
0	 4.571421671338499e+01	 4.428560406221391e+01	 9.997625555842447e+00
0	 4.571421671338499e+01	 4.499991084612203e+01	 1.000237018028653e+01
0	 4.571421671338499e+01	 4.571421671338497e+01	 1.000597292053367e+01
0	 4.571421671338500e+01	 4.642852108065614e+01	 1.000786064985876e+01
0	 4.571421671338501e+01	 4.714282336458874e+01	 1.000746023391783e+01
0	 4.571421671338499e+01	 4.785712298183611e+01	 1.000419853074760e+01
0	 4.571421671338501e+01	 4.857141934905160e+01	 9.997502390765380e+00
0	 4.571421671338501e+01	 4.928571188288847e+01	 9.986798656768562e+00
0	 4.571421671338500e+01	 4.999999999999999e+01	 9.971514163934078e+00
0	 4.642852108065613e+01	 4.285699007784907e+01	 9.988003811827097e+00
0	 4.642852108065613e+01	 4.357129694500737e+01	 9.996566010745303e+00
0	 4.642852108065613e+01	 4.428560406221392e+01	 1.000388560436658e+01
0	 4.642852108065614e+01	 4.499991084612203e+01	 1.000948377894727e+01
0	 4.642852108065614e+01	 4.571421671338501e+01	 1.001288170784968e+01
0	 4.642852108065614e+01	 4.642852108065614e+01	 1.001360055154221e+01
0	 4.642852108065613e+01	 4.714282336458874e+01	 1.001116145759900e+01
0	 4.642852108065613e+01	 4.785712298183613e+01	 1.000508556069962e+01
0	 4.642852108065614e+01	 4.857141934905159e+01	 9.994893982628586e+00
0	 4.642852108065613e+01	 4.928571188288846e+01	 9.980107832274564e+00
0	 4.642852108065614e+01	 5.000000000000001e+01	 9.960248205629757e+00
0	 4.714282336458875e+01	 4.285699007784908e+01	 9.990375614665925e+00
0	 4.714282336458875e+01	 4.357129694500738e+01	 1.000058134593711e+01
0	 4.714282336458875e+01	 4.428560406221391e+01	 1.000856203711042e+01
0	 4.714282336458875e+01	 4.499991084612203e+01	 1.001402634923560e+01
0	 4.714282336458874e+01	 4.571421671338501e+01	 1.001668292756420e+01
0	 4.714282336458875e+01	 4.642852108065614e+01	 1.001624040154959e+01
0	 4.714282336458874e+01	 4.714282336458875e+01	 1.001240738484663e+01
0	 4.714282336458874e+01	 4.785712298183613e+01	 1.000489247531130e+01
0	 4.714282336458874e+01	 4.857141934905159e+01	 9.993404254999977e+00
0	 4.714282336458875e+01	 4.928571188288847e+01	 9.977651290168716e+00
0	 4.714282336458874e+01	 4.999999999999999e+01	 9.957342131272098e+00
0	 4.785712298183613e+01	 4.285699007784907e+01	 9.994171188426765e+00
0	 4.785712298183613e+01	 4.357129694500738e+01	 1.000370467959947e+01
0	 4.785712298183613e+01	 4.428560406221392e+01	 1.001051860819339e+01
0	 4.785712298183613e+01	 4.499991084612203e+01	 1.001460228734648e+01
0	 4.785712298183613e+01	 4.571421671338499e+01	 1.001594501495987e+01
0	 4.785712298183612e+01	 4.642852108065613e+01	 1.001453607369787e+01
0	 4.785712298183613e+01	 4.714282336458874e+01	 1.001036473098758e+01
0	 4.785712298183613e+01	 4.785712298183613e+01	 1.000342023901872e+01
0	 4.785712298183613e+01	 4.857141934905160e+01	 9.993691834742684e+00
0	 4.785712298183613e+01	 4.928571188288846e+01	 9.981168739872139e+00
0	 4.785712298183613e+01	 5.000000000000000e+01	 9.965840160879583e+00
0	 4.857141934905160e+01	 4.285699007784908e+01	 9.999443197814546e+00
0	 4.857141934905160e+01	 4.357129694500738e+01	 1.000528252650730e+01
0	 4.857141934905159e+01	 4.428560406221392e+01	 1.000861907681287e+01
0	 4.857141934905160e+01	 4.499991084612203e+01	 1.000981599195394e+01
0	 4.857141934905160e+01	 4.571421671338500e+01	 1.000923640503795e+01
0	 4.857141934905160e+01	 4.642852108065614e+01	 1.000724343905700e+01
0	 4.857141934905160e+01	 4.714282336458874e+01	 1.000420020688774e+01
0	 4.857141934905160e+01	 4.785712298183613e+01	 1.000046981129112e+01
0	 4.857141934905160e+01	 4.857141934905160e+01	 9.996415344911988e+00
0	 4.857141934905161e+01	 4.928571188288846e+01	 9.992399890278566e+00
0	 4.857141934905160e+01	 5.000000000000000e+01	 9.988786519801785e+00
0	 4.928571188288846e+01	 4.285699007784908e+01	 1.000624431549881e+01
0	 4.928571188288846e+01	 4.357129694500737e+01	 1.000466140849441e+01
0	 4.928571188288845e+01	 4.428560406221392e+01	 1.000172720724450e+01
0	 4.928571188288846e+01	 4.499991084612203e+01	 9.998271864211340e+00
0	 4.928571188288845e+01	 4.571421671338499e+01	 9.995125532518328e+00
0	 4.928571188288846e+01	 4.642852108065613e+01	 9.993118365949927e+00
0	 4.928571188288846e+01	 4.714282336458875e+01	 9.993080518951810e+00
0	 4.928571188288846e+01	 4.785712298183613e+01	 9.995842146630832e+00
0	 4.928571188288846e+01	 4.857141934905161e+01	 1.000223340475523e+01
0	 4.928571188288846e+01	 4.928571188288846e+01	 1.001308444975436e+01
0	 4.928571188288846e+01	 5.000000000000000e+01	 1.002922543871928e+01
0	 5.000000000000001e+01	 4.285699007784908e+01	 1.001462722211427e+01
0	 4.999999999999999e+01	 4.357129694500737e+01	 1.000118785445393e+01
0	 5.000000000000001e+01	 4.428560406221392e+01	 9.988706768842420e+00
0	 5.000000000000000e+01	 4.499991084612202e+01	 9.978574307751341e+00
0	 4.999999999999999e+01	 4.571421671338500e+01	 9.972180831839403e+00
0	 5.000000000000001e+01	 4.642852108065614e+01	 9.970916719952280e+00
0	 4.999999999999999e+01	 4.714282336458874e+01	 9.976172369123040e+00
0	 5.000000000000000e+01	 4.785712298183613e+01	 9.989338194572843e+00
0	 5.000000000000000e+01	 4.857141934905160e+01	 1.001180462971142e+01
0	 5.000000000000000e+01	 4.928571188288846e+01	 1.004496212613839e+01
0	 5.000000000000000e+01	 5.000000000000000e+01	 1.009020115364435e+01
1	 1.000000000000000e+00	 0.000000000000000e+00	 2.735413050274640e+02
1	 9.998426119581704e-01	 1.774123198744521e-02	 2.426114910773115e+02
1	 9.993659466402713e-01	 3.560484089073321e-02	 2.106451668012957e+02
1	 9.985633751090949e-01	 5.358344789747921e-02	 1.776333062203237e+02
1	 9.974284469032259e-01	 7.166933308134273e-02	 1.435690135995449e+02
1	 9.959549086084808e-01	 8.985443791194039e-02	 1.084476619189152e+02
1	 9.941367226520526e-01	 1.081303688402291e-01	 7.226702918941577e+01
1	 9.919680862544972e-01	 1.264884019976692e-01	 3.502743168731416e+01
1	 9.894434504702301e-01	 1.449194890435835e-01	-3.268146861492006e+00
1	 9.865575392429453e-01	 1.634142641907508e-01	-4.261393114945545e+01
1	 9.833053683983746e-01	 1.819630524344169e-01	-8.300123623778428e+01
1	 1.012500000000000e+00	 0.000000000000000e+00	 2.750348914033696e+02
1	 1.012340644607676e+00	 1.796299738536411e-02	 2.432650264223560e+02
1	 1.011858020973390e+00	 3.604990139831822e-02	 2.104039692442585e+02
1	 1.011045417298220e+00	 5.425324099133014e-02	 1.764705894485613e+02
1	 1.009896302489983e+00	 7.256519973898737e-02	 1.414870775676359e+02
1	 1.008404344966822e+00	 9.097761837928382e-02	 1.054790280987485e+02
1	 1.006563431686269e+00	 1.094819984438203e-01	 6.847551201769123e+01
1	 1.004367687334138e+00	 1.280695070157070e-01	 3.050913776409963e+01
1	 1.001811493603026e+00	 1.467309826500149e-01	-8.383900314249196e+00
1	 9.988895084859243e-01	 1.654569424871888e-01	-4.816378704323479e+01
1	 9.955966855063876e-01	 1.842375905849211e-01	-8.878706597682647e+01
1	 1.025000000000000e+00	 0.000000000000000e+00	 2.737943634661785e+02
1	 1.024838677257182e+00	 1.818476278346252e-02	 2.415406272959739e+02
1	 1.024350095306508e+00	 3.649496190623553e-02	 2.081432818631255e+02
1	 1.023527459487344e+00	 5.492303408563875e-02	 1.736485931244761e+02
1	 1.022364158076741e+00	 7.346106639718697e-02	 1.381073182116323e+02
1	 1.020853781325163e+00	 9.210079884725078e-02	 1.015747337656882e+02
1	 1.018990140720485e+00	 1.108336280480742e-01	 6.411064555207668e+01
1	 1.016767288413778e+00	 1.296506120344168e-01	 2.577937822501697e+01
1	 1.014179536735822e+00	 1.485424762570972e-01	-1.335025581496786e+01
1	 1.011221477728904e+00	 1.674996207842254e-01	-5.320500943812762e+01
1	 1.007888002614400e+00	 1.865121287359399e-01	-9.370727654096305e+01
1	 1.037500000000000e+00	 0.000000000000000e+00	 2.699185446240419e+02
1	 1.037336709906687e+00	 1.840652818174046e-02	 2.375242431363548e+02
1	 1.036842169639627e+00	 3.694002241448514e-02	 2.039360982656493e+02
1	 1.036009501676469e+00	 5.559282718040499e-02	 1.692272912075995e+02
1	 1.034832013663499e+00	 7.435693305594146e-02	 1.334766448082385e+02
1	 1.033303217683504e+00	 9.322397931584123e-02	 9.676859797443055e+01
1	 1.031416849754700e+00	 1.121852576529908e-01	 5.919315326108590e+01
1	 1.029166889493419e+00	 1.312317170537988e-01	 2.084579640564966e+01
1	 1.026547579868618e+00	 1.503539698648304e-01	-1.817261328957867e+01
1	 1.023553446971883e+00	 1.695422990818606e-01	-5.775598267747390e+01
1	 1.020179319722413e+00	 1.887866668874734e-01	-9.779315537033503e+01
1	 1.050000000000000e+00	 0.000000000000000e+00	 2.635015524087330e+02
1	 1.049834742556193e+00	 1.862829358019793e-02	 2.312977305514469e+02
1	 1.049334243972746e+00	 3.738508292306705e-02	 1.978519361736037e+02
1	 1.048491543865594e+00	 5.626262027562888e-02	 1.632638017546968e+02
1	 1.047299869250256e+00	 7.525279971525092e-02	 1.276397328591173e+02
1	 1.045752654041845e+00	 9.434715978505519e-02	 9.109282934851454e+01
1	 1.043843558788917e+00	 1.135368872585703e-01	 5.374277178140379e+01
1	 1.041566490573060e+00	 1.328128220738529e-01	 1.571567167321977e+01
1	 1.038915623001414e+00	 1.521654634732144e-01	-2.285611552468015e+01
1	 1.035885416214862e+00	 1.715849773800943e-01	-6.183421565968022e+01
1	 1.032470636830427e+00	 1.910612050395216e-01	-1.010745000269513e+02
1	 1.062500000000000e+00	 0.000000000000000e+00	 2.546330752918923e+02
1	 1.062332775205699e+00	 1.885005897883492e-02	 2.229390940736689e+02
1	 1.061826318305864e+00	 3.783014343198125e-02	 1.899570418866592e+02
1	 1.060973586054718e+00	 5.693241337131042e-02	 1.558125549140431e+02
1	 1.059767724837014e+00	 7.614866637511535e-02	 1.206391554894194e+02
1	 1.058202090400185e+00	 9.547034025489266e-02	 8.457812081156467e+01
1	 1.056270267823133e+00	 1.148885168648125e-01	 4.777830896681692e+01
1	 1.053966091652700e+00	 1.343939270945790e-01	 1.039594083649119e+01
1	 1.051283666134210e+00	 1.539769570822494e-01	-2.740566329338207e+01
1	 1.048217385457841e+00	 1.736276556789267e-01	-6.545639333498141e+01
1	 1.044761953938439e+00	 1.933357431920845e-01	-1.035797058345805e+02
1	 1.075000000000000e+00	 0.000000000000000e+00	 2.433986301885133e+02
1	 1.074830807855204e+00	 1.907182437765143e-02	 2.125227101177819e+02
1	 1.074318392638983e+00	 3.827520394122774e-02	 1.803145804813367e+02
1	 1.073455628243843e+00	 5.760220646744962e-02	 1.469254491991690e+02
1	 1.072235580423771e+00	 7.704453303553466e-02	 1.125155056789734e+02
1	 1.070651526758527e+00	 9.659352072535370e-02	 7.725373770937823e+01
1	 1.068696976857348e+00	 1.162401464717175e-01	 4.131769788721908e+01
1	 1.066365692732341e+00	 1.359750321159773e-01	 4.893218061959342e+00
1	 1.063651709267006e+00	 1.557884506919352e-01	-3.182592942585716e+01
1	 1.060549354700821e+00	 1.756703339783577e-01	-6.863842460940478e+01
1	 1.057053271046452e+00	 1.956102813451620e-01	-1.053358474042314e+02
1	 1.087500000000000e+00	 0.000000000000000e+00	 2.298798022015674e+02
1	 1.087328840504711e+00	 1.929358977664748e-02	 2.001195354933908e+02
1	 1.086810466972101e+00	 3.872026445080654e-02	 1.689848128927927e+02
1	 1.085937670432968e+00	 5.827199956404649e-02	 1.366519969851078e+02
1	 1.084703436010529e+00	 7.794039969650891e-02	 1.033075100637399e+02
1	 1.083100963116868e+00	 9.771670119643823e-02	 6.914759985462723e+01
1	 1.081123685891564e+00	 1.175917760792853e-01	 3.437804710354759e+01
1	 1.078765293811981e+00	 1.375561371380476e-01	-7.861865834895712e-01
1	 1.076019752399802e+00	 1.575999443022719e-01	-3.612137190950995e+01
1	 1.072881323943800e+00	 1.777130122783873e-01	-7.139548694501249e+01
1	 1.069344588154466e+00	 1.978848194987542e-01	-1.063687545371867e+02
1	 1.100000000000000e+00	 0.000000000000000e+00	 2.141544680204053e+02
1	 1.099826873154216e+00	 1.951535517582304e-02	 1.857973017006847e+02
1	 1.099302541305220e+00	 3.916532496071764e-02	 1.560252609228460e+02
1	 1.098419712622092e+00	 5.894179266110097e-02	 1.250394600844421e+02
1	 1.097171291597287e+00	 7.883626635803816e-02	 9.305213497807452e+01
1	 1.095550399475209e+00	 9.883988166814628e-02	 6.028635797760305e+01
1	 1.093550394925780e+00	 1.189434056875159e-01	 2.697568751488249e+01
1	 1.091164894891622e+00	 1.391372421607900e-01	-6.636249854192179e+00
1	 1.088387795532598e+00	 1.594114379132595e-01	-4.029624609595228e+01
1	 1.085213293186779e+00	 1.797556905790154e-01	-7.374206791921820e+01
1	 1.081635905262479e+00	 2.001593576528611e-01	-1.067030829528303e+02
1	 1.112500000000000e+00	 0.000000000000000e+00	 1.962970042585923e+02
1	 1.112324905803722e+00	 1.973712057517813e-02	 1.696206961275896e+02
1	 1.111794615638338e+00	 3.961038547096103e-02	 1.414908611238698e+02
1	 1.110901754811217e+00	 5.961158575861313e-02	 1.121329761833944e+02
1	 1.109639147184044e+00	 7.973213302012230e-02	 8.178468534807487e+01
1	 1.107999835833550e+00	 9.996306214047786e-02	 5.069546502297900e+01
1	 1.105977103959996e+00	 1.202950352964092e-01	 1.912621604731483e+01
1	 1.103564495971262e+00	 1.407183471842045e-01	-1.265121921215521e+01
1	 1.100755838665393e+00	 1.612229315248979e-01	-4.435461608503701e+01
1	 1.097545262429758e+00	 1.817983688802421e-01	-7.569200398235213e+01
1	 1.093927222370492e+00	 2.024338958074826e-01	-1.063623802483045e+02
1	 1.125000000000000e+00	 0.000000000000000e+00	 1.763784819025555e+02
1	 1.124822938453228e+00	 1.995888597471274e-02	 1.516515311671101e+02
1	 1.124286689971457e+00	 4.005544598153672e-02	 1.254341084237554e+02
1	 1.123383797000342e+00	 6.028137885658293e-02	 9.797567684884471e+01
1	 1.122107002770802e+00	 8.062799968276138e-02	 6.953889699203810e+01
1	 1.120449272191891e+00	 1.010862426134330e-01	 4.039924269345502e+01
1	 1.118403812994212e+00	 1.216466649059652e-01	 1.084453643022399e+01
1	 1.115964097050903e+00	 1.422994522082910e-01	-1.882559778774157e+01
1	 1.113123881798189e+00	 1.630344251371873e-01	-4.830036534995544e+01
1	 1.109877231672737e+00	 1.838410471820675e-01	-7.725851663138842e+01
1	 1.106218539478505e+00	 2.047084339626188e-01	-1.053691474608596e+02
1	 9.833053683983746e-01	 1.819630524344169e-01	-8.300123623778428e+01
1	 9.796822644935034e-01	 2.005558790047255e-01	-8.073890984851381e+01
1	 9.756838834365029e-01	 2.191824800562895e-01	-7.864182433045568e+01
1	 9.713062287906588e-01	 2.378323146029681e-01	-7.663179427333790e+01
1	 9.665456696731551e-01	 2.564945776994924e-01	-7.462730533700218e+01
1	 9.613989581557346e-01	 2.751582148638952e-01	-7.254371517910066e+01
1	 9.558632460744549e-01	 2.938119377279353e-01	-7.029347879615993e+01
1	 9.499361011546518e-01	 3.124442408950446e-01	-6.778639796165099e+01
1	 9.436155223571460e-01	 3.310434199775670e-01	-6.492989423540391e+01
1	 9.368999543523497e-01	 3.495975907771368e-01	-6.162930480316979e+01
1	 9.297883010302649e-01	 3.680947095640363e-01	-5.778820018556107e+01
1	 9.955966855063876e-01	 1.842375905849211e-01	-8.878706597682647e+01
1	 9.919282928033321e-01	 2.030628274885299e-01	-8.604576887009209e+01
1	 9.878799319837496e-01	 2.219222610543536e-01	-8.336143053704683e+01
1	 9.834475566554662e-01	 2.408052185339226e-01	-8.067211301271296e+01
1	 9.786274905496307e-01	 2.597007599201509e-01	-7.791336824996650e+01
1	 9.734164451388825e-01	 2.785976925500452e-01	-7.501840022337124e+01
1	 9.678115366572296e-01	 2.974845869507597e-01	-7.191824594799350e+01
1	 9.618103024265737e-01	 3.163497939082676e-01	-6.854197513303723e+01
1	 9.554107163947458e-01	 3.351814627300659e-01	-6.481690802630234e+01
1	 9.486112037905381e-01	 3.539675606653077e-01	-6.066885083703055e+01
1	 9.414106548025766e-01	 3.726958934376526e-01	-5.602234795341661e+01
1	 1.007888002614400e+00	 1.865121287359399e-01	-9.370727654096305e+01
1	 1.004174321113151e+00	 2.055697759727489e-01	-9.069107850640141e+01
1	 1.000075980530958e+00	 2.246620420527318e-01	-8.762667620740756e+01
1	 9.955888845201883e-01	 2.437781224650910e-01	-8.446808109103070e+01
1	 9.907093114259543e-01	 2.629069421409228e-01	-8.116759891148891e+01
1	 9.854339321217915e-01	 2.820371702362078e-01	-7.767595358726790e+01
1	 9.797598272396584e-01	 3.011572361734960e-01	-7.394242455962276e+01
1	 9.736845036980223e-01	 3.202553469213019e-01	-6.991499740819376e+01
1	 9.672059104317243e-01	 3.393195054822754e-01	-6.554052736041390e+01
1	 9.603224532279363e-01	 3.583375305530889e-01	-6.076491520937029e+01
1	 9.530330085739085e-01	 3.772970773107793e-01	-5.553329503105599e+01
1	 1.020179319722413e+00	 1.887866668874734e-01	-9.779315537033503e+01
1	 1.016420349422961e+00	 2.080767244573826e-01	-9.469875018108456e+01
1	 1.012272029078130e+00	 2.274018230514244e-01	-9.145398401159281e+01
1	 1.007730212384825e+00	 2.467510263964731e-01	-8.802853045995860e+01
1	 1.002791132302125e+00	 2.661131243618078e-01	-8.439114788493407e+01
1	 9.974514191044608e-01	 2.854766479223831e-01	-8.050976557255532e+01
1	 9.917081178217403e-01	 3.048298853961441e-01	-7.635157807234104e+01
1	 9.855587049689970e-01	 3.241608999341473e-01	-7.188314749432551e+01
1	 9.790011044680813e-01	 3.434575482341956e-01	-6.707051348332784e+01
1	 9.720337026645446e-01	 3.627075004404805e-01	-6.187931051060002e+01
1	 9.646553623442610e-01	 3.818982611834161e-01	-5.627489204616872e+01
1	 1.032470636830427e+00	 1.910612050395216e-01	-1.010745000269513e+02
1	 1.028666377732762e+00	 2.105836729424308e-01	-9.809155667854171e+01
1	 1.024468077625263e+00	 2.301416040504314e-01	-9.485899458773586e+01
1	 1.019871540249377e+00	 2.497239303280692e-01	-9.136187250203010e+01
1	 1.014872953178144e+00	 2.693193065828061e-01	-8.758511094493454e+01
1	 1.009468906086891e+00	 2.889161256085709e-01	-8.351354122853770e+01
1	 1.003656408403476e+00	 3.085025346187041e-01	-7.913195738262627e+01
1	 9.974329062394982e-01	 3.280664529468040e-01	-7.442517082687721e+01
1	 9.907962985038169e-01	 3.475955909858267e-01	-6.937806758133115e+01
1	 9.837449521003627e-01	 3.670774703274826e-01	-6.397566777921716e+01
1	 9.762777161136343e-01	 3.864994450555633e-01	-5.820318721561074e+01
1	 1.044761953938439e+00	 1.933357431920845e-01	-1.035797058345805e+02
1	 1.040912406042553e+00	 2.130906214278937e-01	-1.008911991227096e+02
1	 1.036664126172359e+00	 2.328813850497527e-01	-9.785661254392704e+01
1	 1.032012868113843e+00	 2.526968342598790e-01	-9.447612277000562e+01
1	 1.026954774054010e+00	 2.725254888039177e-01	-9.075053230025668e+01
1	 1.021486393069082e+00	 2.923556032947711e-01	-8.668128183749710e+01
1	 1.015604698984865e+00	 3.121751838411760e-01	-8.227046040360052e+01
1	 1.009307107509526e+00	 3.319720059592721e-01	-7.752081305610625e+01
1	 1.002591492538931e+00	 3.517336337371683e-01	-7.243574607901492e+01
1	 9.954562015353910e-01	 3.714474402140948e-01	-6.701932953427176e+01
1	 9.879000698820278e-01	 3.911006289272207e-01	-6.127629707545366e+01
1	 1.057053271046452e+00	 1.956102813451620e-01	-1.053358474042314e+02
1	 1.053158434352335e+00	 2.155975699137711e-01	-1.031183692829044e+02
1	 1.048860174719417e+00	 2.356211660493882e-01	-1.004610492506587e+02
1	 1.044154195978224e+00	 2.556697381919028e-01	-9.737892400023205e+01
1	 1.039036594929724e+00	 2.757316710251425e-01	-9.388840759181663e+01
1	 1.033503880051033e+00	 2.957950809809841e-01	-9.000726769184573e+01
1	 1.027552989565909e+00	 3.158478330635599e-01	-8.575459444778298e+01
1	 1.021181308779080e+00	 3.358775589715513e-01	-8.115076189505831e+01
1	 1.014386686573424e+00	 3.558716764882207e-01	-7.621738184634846e+01
1	 1.007167450969629e+00	 3.758174101003176e-01	-7.097725027068142e+01
1	 9.995224236494423e-01	 3.957018127983884e-01	-6.545428622986640e+01
1	 1.069344588154466e+00	 1.978848194987542e-01	-1.063687545371867e+02
1	 1.065404462662107e+00	 2.181045184000633e-01	-1.047928075827093e+02
1	 1.061056223266437e+00	 2.383609470493381e-01	-1.026858626820674e+02
1	 1.056295523842520e+00	 2.586426421241405e-01	-1.000775675388737e+02
1	 1.051118415805285e+00	 2.789378532464805e-01	-9.699968668393598e+01
1	 1.045521367032745e+00	 2.992345586672095e-01	-9.348604205906101e+01
1	 1.039501280146605e+00	 3.195204822858554e-01	-8.957244120413520e+01
1	 1.033055510048160e+00	 3.397831119836419e-01	-8.529659297802709e+01
1	 1.026181880607295e+00	 3.600097192389838e-01	-8.069801083974886e+01
1	 1.018878700403077e+00	 3.801873799861507e-01	-7.581790381694063e+01
1	 1.011144777415877e+00	 4.003029966690664e-01	-7.069905539317841e+01
1	 1.081635905262479e+00	 2.001593576528611e-01	-1.067030829528303e+02
1	 1.077650490971870e+00	 2.206114668867699e-01	-1.059333571537093e+02
1	 1.073252271813420e+00	 2.411007280496023e-01	-1.045439945407272e+02
1	 1.068436851706730e+00	 2.616155460565918e-01	-1.025790133072638e+02
1	 1.063200236680694e+00	 2.821440354679318e-01	-1.000852762652849e+02
1	 1.057538854014219e+00	 3.026740363534475e-01	-9.711239623991997e+01
1	 1.051449570726956e+00	 3.231931315080629e-01	-9.371262410303611e+01
1	 1.044929711316766e+00	 3.436886649955435e-01	-8.994071941048340e+01
1	 1.037977074640545e+00	 3.641477619894577e-01	-8.585380374489644e+01
1	 1.030589949835735e+00	 3.845573498715942e-01	-8.151119700934777e+01
1	 1.022767131181332e+00	 4.049041805392548e-01	-7.697423706543830e+01
1	 1.093927222370492e+00	 2.024338958074826e-01	-1.063623802483045e+02
1	 1.089896519281624e+00	 2.231184153738912e-01	-1.065580142451559e+02
1	 1.085448320360364e+00	 2.438405090501808e-01	-1.060478048796483e+02
1	 1.080578179570856e+00	 2.645884499892571e-01	-1.048899084212775e+02
1	 1.075282057555951e+00	 2.853502176894963e-01	-1.031460422744800e+02
1	 1.069556340995452e+00	 3.061135140396980e-01	-1.008813556340444e+02
1	 1.063397861306960e+00	 3.268657807301824e-01	-9.816427788137014e+01
1	 1.056803912584899e+00	 3.475942180072564e-01	-9.506634472013150e+01
1	 1.049772268673173e+00	 3.682858047396423e-01	-9.166200222789854e+01
1	 1.042301199267603e+00	 3.889273197566481e-01	-8.802838918594911e+01
1	 1.034389484945809e+00	 4.095053644089534e-01	-8.424509824108102e+01
1	 1.106218539478505e+00	 2.047084339626188e-01	-1.053691474608596e+02
1	 1.102142547591368e+00	 2.256253638614272e-01	-1.066839752729858e+02
1	 1.097644368907272e+00	 2.465802900510737e-01	-1.072091044161425e+02
1	 1.092719507434896e+00	 2.675613539221362e-01	-1.070166045694133e+02
1	 1.087363878431055e+00	 2.885563999111739e-01	-1.061828121639770e+02
1	 1.081573827976446e+00	 3.095529917259612e-01	-1.047881667344085e+02
1	 1.075346151886618e+00	 3.305384299522137e-01	-1.029170201766103e+02
1	 1.068678113852559e+00	 3.514997710187806e-01	-1.006574189445628e+02
1	 1.061567462705179e+00	 3.724238474895377e-01	-9.810085943637695e+01
1	 1.054012448698681e+00	 3.932972896413123e-01	-9.534201704755156e+01
1	 1.046011838709305e+00	 4.141065482781622e-01	-9.247844960368360e+01
1	 9.297883010302649e-01	 3.680947095640363e-01	-5.778820018556107e+01
1	 9.222799379563009e-01	 3.865225944039564e-01	-5.784356616696220e+01
1	 9.143747236862125e-01	 4.048689474701951e-01	-5.707798000103170e+01
1	 9.060730098564396e-01	 4.231213782743761e-01	-5.559341857087718e+01
1	 8.973756499704220e-01	 4.412674277413337e-01	-5.349600809005923e+01
1	 8.882840068073012e-01	 4.592945930433334e-01	-5.089567187729450e+01
1	 8.787999583847406e-01	 4.771903531042267e-01	-4.790574940296489e+01
1	 8.689259024143142e-01	 4.949421946770166e-01	-4.464258832634923e+01
1	 8.586647591951593e-01	 5.125376388923134e-01	-4.122511151902653e+01
1	 8.480199728994641e-01	 5.299642681697645e-01	-3.777436133531427e+01
1	 8.369955112118155e-01	 5.472097533798151e-01	-3.441302364125016e+01
1	 9.414106548025766e-01	 3.726958934376526e-01	-5.602234795341661e+01
1	 9.338084371907733e-01	 3.913541268386016e-01	-5.724777490243763e+01
1	 9.258044077427657e-01	 4.099298093186076e-01	-5.770408994779830e+01
1	 9.173989224904455e-01	 4.284103955081879e-01	-5.747807863939712e+01
1	 9.085928456060454e-01	 4.467832705937361e-01	-5.666026975941277e+01
1	 8.993875569034437e-01	 4.650357754621704e-01	-5.534463785154868e+01
1	 8.897849578755234e-01	 4.831552325238889e-01	-5.362828026171482e+01
1	 8.797874762052527e-01	 5.011289721163065e-01	-5.161107011908848e+01
1	 8.693980686955066e-01	 5.189443593841651e-01	-4.939528692965709e+01
1	 8.586202225706245e-01	 5.365888215273571e-01	-4.708522668854685e+01
1	 8.474579551112504e-01	 5.540498753022077e-01	-4.478679363952183e+01
1	 9.530330085739085e-01	 3.772970773107793e-01	-5.553329503105599e+01
1	 9.453369364240809e-01	 3.961856592726618e-01	-5.776472616915008e+01
1	 9.372340917979960e-01	 4.149906711663489e-01	-5.927767919491591e+01
1	 9.287248351230007e-01	 4.336994127412525e-01	-6.014403646395343e+01
1	 9.198100412401194e-01	 4.522991134453253e-01	-6.043902480491691e+01
1	 9.104911069979682e-01	 4.707769578801373e-01	-6.024097192987912e+01
1	 9.007699573646499e-01	 4.891201119426346e-01	-5.963104054365878e+01
1	 8.906490499945261e-01	 5.073157495546431e-01	-5.869294129536883e+01
1	 8.801313781942111e-01	 5.253510798750376e-01	-5.751262592575033e+01
1	 8.692204722401954e-01	 5.432133748839548e-01	-5.617796216732189e+01
1	 8.579203990091799e-01	 5.608899972236004e-01	-5.477839214832300e+01
1	 9.646553623442610e-01	 3.818982611834161e-01	-5.627489204616872e+01
1	 9.568654356562231e-01	 4.010171917061370e-01	-5.935420035789126e+01
1	 9.486637758519040e-01	 4.200515330134196e-01	-6.176450150296546e+01
1	 9.400507477541058e-01	 4.389884299735700e-01	-6.356305236694860e+01
1	 9.310272368726441e-01	 4.578149562961006e-01	-6.481006262290805e+01
1	 9.215946570908742e-01	 4.765181402972340e-01	-6.556850418105732e+01
1	 9.117549568521194e-01	 4.950849913604636e-01	-6.590390147465016e+01
1	 9.015106237821341e-01	 5.135025269920270e-01	-6.588410344386025e+01
1	 8.908646876912724e-01	 5.317578003649310e-01	-6.557903825728883e+01
1	 8.798207219081765e-01	 5.498379282395579e-01	-6.506045198396852e+01
1	 8.683828429056041e-01	 5.677301191439930e-01	-6.440163259492857e+01
1	 9.762777161136343e-01	 3.864994450555633e-01	-5.820318721561074e+01
1	 9.683939348872000e-01	 4.058487241390272e-01	-6.197789307894493e+01
1	 9.600934599044899e-01	 4.251123948598194e-01	-6.513194140583846e+01
1	 9.513766603837601e-01	 4.442774472051405e-01	-6.770823141734044e+01
1	 9.422444325036197e-01	 4.633307991460626e-01	-6.975223025751930e+01
1	 9.326982071821625e-01	 4.822593227134609e-01	-7.131183467058220e+01
1	 9.227399563379315e-01	 5.010498707773759e-01	-7.243721660312346e+01
1	 9.123721975680773e-01	 5.196893044284582e-01	-7.318065331567756e+01
1	 9.015979971866909e-01	 5.381645208538457e-01	-7.359634273377957e+01
1	 8.904209715745676e-01	 5.564624815941661e-01	-7.374020491213031e+01
1	 8.788452868005231e-01	 5.745702410633855e-01	-7.366967062435747e+01
1	 9.879000698820278e-01	 3.911006289272207e-01	-6.127629707545366e+01
1	 9.799224341170119e-01	 4.106802565713322e-01	-6.559930250211795e+01
1	 9.715231439557533e-01	 4.301732567055483e-01	-6.934891828289534e+01
1	 9.627025730119644e-01	 4.495664644359640e-01	-7.255394432790558e+01
1	 9.534616281330460e-01	 4.688466419952109e-01	-7.524537018610449e+01
1	 9.438017572718324e-01	 4.880005051288175e-01	-7.745628816675557e+01
1	 9.337249558220870e-01	 5.070147501933717e-01	-7.922179342817580e+01
1	 9.232337713523547e-01	 5.258760818639360e-01	-8.057887134423729e+01
1	 9.123313066804664e-01	 5.445712413417811e-01	-8.156627257369288e+01
1	 9.010212212393695e-01	 5.630870349477797e-01	-8.222437637139504e+01
1	 8.893077306939365e-01	 5.814103629817780e-01	-8.259504279244609e+01
1	 9.995224236494423e-01	 3.957018127983884e-01	-6.545428622986640e+01
1	 9.914509333456585e-01	 4.155117890030526e-01	-7.018362455676674e+01
1	 9.829528280056942e-01	 4.352341185506064e-01	-7.438579712376367e+01
1	 9.740284856387178e-01	 4.548554816660403e-01	-7.807575387129462e+01
1	 9.646788237609235e-01	 4.743624848435458e-01	-8.127026244521309e+01
1	 9.549053073598841e-01	 4.937416875433039e-01	-8.398787200679786e+01
1	 9.447099553045856e-01	 5.129796296084510e-01	-8.624886700708829e+01
1	 9.340953451349669e-01	 5.320628592984610e-01	-8.807521096605333e+01
1	 9.230646161725991e-01	 5.509779618287377e-01	-8.949048038068648e+01
1	 9.116214709025816e-01	 5.697115883003986e-01	-9.051978897113483e+01
1	 8.997701745858451e-01	 5.882504848991706e-01	-9.118970255940513e+01
1	 1.011144777415877e+00	 4.003029966690664e-01	-7.069905539317841e+01
1	 1.002979432573140e+00	 4.203433214341877e-01	-7.569765535940942e+01
1	 9.943825120543131e-01	 4.402949803949937e-01	-8.021430544728773e+01
1	 9.853543982640206e-01	 4.601444988953695e-01	-8.425034637084454e+01
1	 9.758960193872512e-01	 4.798783276910670e-01	-8.780857074787814e+01
1	 9.660088574463180e-01	 4.994828699569205e-01	-9.089323686874921e+01
1	 9.556949547854272e-01	 5.189445090226136e-01	-9.351007538301548e+01
1	 9.449569189159139e-01	 5.382496367320331e-01	-9.566628867803090e+01
1	 9.337979256630885e-01	 5.573846823147149e-01	-9.737054277664028e+01
1	 9.222217205642039e-01	 5.763361416520226e-01	-9.863295163752984e+01
1	 9.102326184762480e-01	 5.950906068155633e-01	-9.946505380106393e+01
1	 1.022767131181332e+00	 4.049041805392548e-01	-7.697423706543830e+01
1	 1.014507931799456e+00	 4.251748538647378e-01	-8.210970029400028e+01
1	 1.005812196101609e+00	 4.453558422387101e-01	-8.680745588509566e+01
1	 9.966803108878730e-01	 4.654335161239517e-01	-9.105546786247103e+01
1	 9.871132150120300e-01	 4.853941705377748e-01	-9.484279227472450e+01
1	 9.771124075311334e-01	 5.052240523696667e-01	-9.815964021801346e+01
1	 9.666799542646118e-01	 5.249093884358594e-01	-1.009974366880609e+02
1	 9.558184926951958e-01	 5.444364141646523e-01	-1.033488747726709e+02
1	 9.445312351519353e-01	 5.637914027997134e-01	-1.052079647188028e+02
1	 9.328219702242366e-01	 5.829606950026520e-01	-1.065700774364775e+02
1	 9.206950623651458e-01	 6.019307287309560e-01	-1.074319820352547e+02
1	 1.034389484945809e+00	 4.095053644089534e-01	-8.424509824108102e+01
1	 1.026036431024607e+00	 4.300063862947030e-01	-8.938948922162396e+01
1	 1.017241880147583e+00	 4.504167040817556e-01	-9.413947398425188e+01
1	 1.008006223510275e+00	 4.707225333517867e-01	-9.846986456025382e+01
1	 9.983304106352595e-01	 4.909100133836690e-01	-1.023562108499469e+02
1	 9.882159576143311e-01	 5.109652347815431e-01	-1.057749122181808e+02
1	 9.776649537421397e-01	 5.308742678481889e-01	-1.087033277899655e+02
1	 9.666800664728121e-01	 5.506231915963183e-01	-1.111198846978684e+02
1	 9.552645446391390e-01	 5.701981232837328e-01	-1.130041835258938e+02
1	 9.434222198826796e-01	 5.895852483522865e-01	-1.143371001949565e+02
1	 9.311575062525380e-01	 6.087708506453484e-01	-1.151008835430499e+02
1	 1.046011838709305e+00	 4.141065482781622e-01	-9.247844960368360e+01
1	 1.037564930248593e+00	 4.348379187240830e-01	-9.750809734287736e+01
1	 1.028671564192235e+00	 4.554775659241303e-01	-1.021857308230658e+02
1	 1.019332136131226e+00	 4.760115505788748e-01	-1.064732272909833e+02
1	 1.009547606256940e+00	 4.964258562287497e-01	-1.103328532388893e+02
1	 9.993195076959104e-01	 5.167064171925492e-01	-1.137274239144611e+02
1	 9.886499532180107e-01	 5.368391472596017e-01	-1.166204643623495e+02
1	 9.775416402487633e-01	 5.568099690270316e-01	-1.189763709927234e+02
1	 9.659978541247000e-01	 5.766048437667730e-01	-1.207605726358013e+02
1	 9.540224695395332e-01	 5.962098017009265e-01	-1.219396900143005e+02
1	 9.416199501384250e-01	 6.156109725587411e-01	-1.224816925485813e+02
1	 8.369955112118155e-01	 5.472097533798151e-01	-3.441302364125016e+01
1	 8.255958632931958e-01	 5.642618811384013e-01	-2.686450288079075e+01
1	 8.138260360506314e-01	 5.811085811170719e-01	-2.021115503390171e+01
1	 8.016915487021741e-01	 5.977379532449607e-01	-1.447895285467538e+01
1	 7.891984256370140e-01	 6.141382946773878e-01	-9.690932544385234e+00
1	 7.763531875817183e-01	 6.302981264093361e-01	-5.867073417945022e+00
1	 7.631628410930560e-01	 6.462062194093811e-01	-3.024192252762667e+00
1	 7.496348664083717e-01	 6.618516201518141e-01	-1.175853183859594e+00
1	 7.357772036946522e-01	 6.772236754270479e-01	-3.322938900051682e-01
1	 7.215982377473873e-01	 6.923120563137026e-01	-5.003686874909192e-01
1	 7.071067811999999e-01	 7.071067811999999e-01	-1.683509012501325e+00
1	 8.474579551112504e-01	 5.540498753022077e-01	-4.478679363952183e+01
1	 8.359158115929692e-01	 5.713151546574315e-01	-3.731678781717907e+01
1	 8.239988615092374e-01	 5.883724383855524e-01	-3.068016810854401e+01
1	 8.117126930683318e-01	 6.052096776648181e-01	-2.490570299653045e+01
1	 7.990634059643095e-01	 6.218150233649912e-01	-2.001941563075460e+01
1	 7.860576024328196e-01	 6.381768529934919e-01	-1.604445246812858e+01
1	 7.727023766125910e-01	 6.542837971560034e-01	-1.300096557177393e+01
1	 7.590053022439359e-01	 6.701247654077456e-01	-1.090600950234879e+01
1	 7.449744187459286e-01	 6.856889713740123e-01	-9.773453625416025e+00
1	 7.306182157240029e-01	 7.009659570219055e-01	-9.613910538265628e+00
1	 7.159456159695000e-01	 7.159456159695000e-01	-1.043468119106632e+01
1	 8.579203990091799e-01	 5.608899972236004e-01	-5.477839214832300e+01
1	 8.462357598913327e-01	 5.783684281754621e-01	-4.741373249699947e+01
1	 8.341716869665182e-01	 5.956362956530330e-01	-4.082181974342134e+01
1	 8.217338374332409e-01	 6.126814020836755e-01	-3.503417090084683e+01
1	 8.089283862904220e-01	 6.294917520515947e-01	-3.007974567328773e+01
1	 7.957620172827934e-01	 6.460555795766478e-01	-2.598480421997976e+01
1	 7.822419121310444e-01	 6.623613749016258e-01	-2.277277757033104e+01
1	 7.683757380784541e-01	 6.783979106626776e-01	-2.046415169278529e+01
1	 7.541716337961848e-01	 6.941542673199765e-01	-1.907636611911425e+01
1	 7.396381936996136e-01	 7.096198577291084e-01	-1.862372791321664e+01
1	 7.247844507379998e-01	 7.247844507379999e-01	-1.911734165196597e+01
1	 8.683828429056041e-01	 5.677301191439930e-01	-6.440163259492857e+01
1	 8.565557081882860e-01	 5.854217016924925e-01	-5.716818054395336e+01
1	 8.443445124224748e-01	 6.029001529195133e-01	-5.064794227971909e+01
1	 8.317549817969009e-01	 6.201531265015331e-01	-4.487513785332533e+01
1	 8.187933666153511e-01	 6.371684807371980e-01	-3.988161495069777e+01
1	 8.054664321316400e-01	 6.539343061588038e-01	-3.569669592527938e+01
1	 7.917814476484165e-01	 6.704389526462485e-01	-3.234703648897569e+01
1	 7.777461739119264e-01	 6.866710559166093e-01	-2.985649713334297e+01
1	 7.633688488454204e-01	 7.026195632649410e-01	-2.824602825941400e+01
1	 7.486581716742190e-01	 7.182737584353109e-01	-2.753356988984726e+01
1	 7.336232855055000e-01	 7.336232855055000e-01	-2.773396672241390e+01
1	 8.788452868005231e-01	 5.745702410633855e-01	-7.366967062435747e+01
1	 8.668756564838288e-01	 5.924749752085229e-01	-6.659236398060726e+01
1	 8.545173378771065e-01	 6.101640101849937e-01	-6.016980461380103e+01
1	 8.417761261593122e-01	 6.276248509183908e-01	-5.443887174510606e+01
1	 8.286583469390975e-01	 6.448452094218015e-01	-4.943425420461552e+01
1	 8.151708469793590e-01	 6.618130327399596e-01	-4.518828687143426e+01
1	 8.013209831647067e-01	 6.785165303898708e-01	-4.173079779488867e+01
1	 7.871166097443530e-01	 6.949442011695413e-01	-3.908896713656732e+01
1	 7.725660638936355e-01	 7.110848592089053e-01	-3.728719898756420e+01
1	 7.576781496478195e-01	 7.269276591405139e-01	-3.634700701816093e+01
1	 7.424621202719999e-01	 7.424621202720001e-01	-3.628691480928020e+01
1	 8.893077306939365e-01	 5.814103629817780e-01	-8.259504279244609e+01
1	 8.771956047779617e-01	 5.995282487235530e-01	-7.569793920493213e+01
1	 8.646901633304135e-01	 6.174278674494742e-01	-6.939814534102081e+01
1	 8.517972705204740e-01	 6.350965753342479e-01	-6.373515727244914e+01
1	 8.385233272616601e-01	 6.525219381054047e-01	-5.874645978882593e+01
1	 8.248752618259512e-01	 6.696917593201157e-01	-5.446735237938341e+01
1	 8.108605186799150e-01	 6.865941081324930e-01	-5.093078493326397e+01
1	 7.964870455757337e-01	 7.032173464214730e-01	-4.816720436500007e+01
1	 7.817632789408300e-01	 7.195501551518694e-01	-4.620441329463772e+01
1	 7.666981276204146e-01	 7.355815598447166e-01	-4.506744182227732e+01
1	 7.513009550375001e-01	 7.513009550375001e-01	-4.477843333558205e+01
1	 8.997701745858451e-01	 5.882504848991706e-01	-9.118970255940513e+01
1	 8.875155530706845e-01	 6.065815222375835e-01	-8.449602045684965e+01
1	 8.748629887823961e-01	 6.246917247129546e-01	-7.834320358717764e+01
1	 8.618184148803874e-01	 6.425682997491056e-01	-7.277332402945875e+01
1	 8.483883075830400e-01	 6.601986667880082e-01	-6.782661892437758e+01
1	 8.345796766714155e-01	 6.775704858992714e-01	-6.354130612722956e+01
1	 8.204000541940423e-01	 6.946716858741154e-01	-5.995340863091337e+01
1	 8.058574814060682e-01	 7.114904916724046e-01	-5.709658903176181e+01
1	 7.909604939870044e-01	 7.280154510938338e-01	-5.500199524188876e+01
1	 7.757181055920049e-01	 7.442354605479196e-01	-5.369811856938043e+01
1	 7.601397898020000e-01	 7.601397898019999e-01	-5.321066519303338e+01
1	 9.102326184762480e-01	 5.950906068155633e-01	-9.946505380106393e+01
1	 8.978355013619972e-01	 6.136347957506137e-01	-9.299721097674080e+01
1	 8.850358142330540e-01	 6.319555819754350e-01	-8.701474771366212e+01
1	 8.718395592390517e-01	 6.500400241629630e-01	-8.156227266338232e+01
1	 8.582532879032364e-01	 6.678753954696115e-01	-7.668273321295865e+01
1	 8.442840915157530e-01	 6.854492124774274e-01	-7.241722093431071e+01
1	 8.299395897070877e-01	 7.027492636147378e-01	-6.880478486858641e+01
1	 8.152279172353567e-01	 7.197636369223365e-01	-6.588225398385161e+01
1	 8.001577090321583e-01	 7.364807470347983e-01	-6.368407008315752e+01
1	 7.847380835625897e-01	 7.528893612501224e-01	-6.224213236494414e+01
1	 7.689786245654999e-01	 7.689786245654999e-01	-6.158565474959111e+01
1	 9.206950623651458e-01	 6.019307287309560e-01	-1.074319820352547e+02
1	 9.081554496518998e-01	 6.206880692626442e-01	-1.012116320395108e+02
1	 8.952086396823874e-01	 6.392194392369155e-01	-9.542210206543527e+01
1	 8.818607035964670e-01	 6.575117485758205e-01	-9.011049924658857e+01
1	 8.681182682222500e-01	 6.755521241502151e-01	-8.532244054708690e+01
1	 8.539885063589624e-01	 6.933279390545832e-01	-8.110184812817408e+01
1	 8.394791252190520e-01	 7.108268413543603e-01	-7.749075162790670e+01
1	 8.245983530635995e-01	 7.280367821712683e-01	-7.452909875704032e+01
1	 8.093549240762918e-01	 7.449460429747625e-01	-7.225457556074468e+01
1	 7.937580615321697e-01	 7.615432619513252e-01	-7.070243762782975e+01
1	 7.778174593279999e-01	 7.778174593279999e-01	-6.990535344739577e+01
1	 9.311575062525380e-01	 6.087708506453484e-01	-1.151008835430499e+02
1	 9.184753979403921e-01	 6.277413427736747e-01	-1.091489500313019e+02
1	 9.053814651303959e-01	 6.464832964973959e-01	-1.035741719157713e+02
1	 8.918818479526330e-01	 6.649834729876779e-01	-9.842611800549506e+01
1	 8.779832485400803e-01	 6.832288528298185e-01	-9.375303554320993e+01
1	 8.636929212010450e-01	 7.012066656307392e-01	-8.960163560591423e+01
1	 8.490186607299344e-01	 7.189044190929826e-01	-8.601688450930003e+01
1	 8.339687888907961e-01	 7.363099274192001e-01	-8.304180268324274e+01
1	 8.185521391194046e-01	 7.534113389137267e-01	-8.071727243976905e+01
1	 8.027780395007446e-01	 7.701971626515282e-01	-7.908185599402785e+01
1	 7.866562940895000e-01	 7.866562940895000e-01	-7.817162502332286e+01
1	 9.416199501384250e-01	 6.156109725587411e-01	-1.224816925485813e+02
1	 9.287953462274744e-01	 6.347946162837050e-01	-1.168184017210912e+02
1	 9.155542905770797e-01	 6.537471537568762e-01	-1.114794667480183e+02
1	 9.019029923075504e-01	 6.724551973985354e-01	-1.065168825342314e+02
1	 8.878482288567273e-01	 6.909055815084219e-01	-1.019814886125980e+02
1	 8.733973360420002e-01	 7.090853922058951e-01	-9.792274469141981e+01
1	 8.585581962397351e-01	 7.269819968306050e-01	-9.438851130872757e+01
1	 8.433392247169470e-01	 7.445830726661317e-01	-9.142483712406612e+01
1	 8.277493541614975e-01	 7.618766348516912e-01	-8.907575434023232e+01
1	 8.117980174683143e-01	 7.788510633507310e-01	-8.738308369348502e+01
1	 7.954951288500001e-01	 7.954951288500001e-01	-8.638625038149820e+01
1	 7.071067811999999e-01	 7.071067811999999e-01	-1.683509012501325e+00
1	 6.923120563137025e-01	 7.215982377473872e-01	-2.504588765946082e+00
1	 6.772236754270478e-01	 7.357772036946522e-01	-2.345884068679204e+00
1	 6.618516201518141e-01	 7.496348664083716e-01	-1.221032485359196e+00
1	 6.462062194093813e-01	 7.631628410930559e-01	 8.525898716289575e-01
1	 6.302981264093362e-01	 7.763531875817182e-01	 3.853954508783261e+00
1	 6.141382946773881e-01	 7.891984256370137e-01	 7.758485877518709e+00
1	 5.977379532449610e-01	 8.016915487021739e-01	 1.253818503780930e+01
1	 5.811085811170723e-01	 8.138260360506312e-01	 1.816177069074396e+01
1	 5.642618811384018e-01	 8.255958632931955e-01	 2.459483647571330e+01
1	 5.472097533798151e-01	 8.369955112118155e-01	 3.180002330516072e+01
1	 7.159456159695000e-01	 7.159456159695000e-01	-1.043468119106632e+01
1	 7.009659570219053e-01	 7.306182157240030e-01	-1.096741662615842e+01
1	 6.856889713740122e-01	 7.449744187459286e-01	-1.056687445416816e+01
1	 6.701247654077458e-01	 7.590053022439357e-01	-9.245351754289317e+00
1	 6.542837971560036e-01	 7.727023766125908e-01	-7.018729943437300e+00
1	 6.381768529934920e-01	 7.860576024328195e-01	-3.906395790973555e+00
1	 6.218150233649915e-01	 7.990634059643091e-01	 6.885599265606857e-02
1	 6.052096776648186e-01	 8.117126930683318e-01	 4.880937829623591e+00
1	 5.883724383855530e-01	 8.239988615092370e-01	 1.050060110523982e+01
1	 5.713151546574324e-01	 8.359158115929688e-01	 1.689558371861157e+01
1	 5.540498753022077e-01	 8.474579551112504e-01	 2.403077219765741e+01
1	 7.247844507379998e-01	 7.247844507379999e-01	-1.911734165196597e+01
1	 7.096198577291083e-01	 7.396381936996136e-01	-1.934782695913706e+01
1	 6.941542673199766e-01	 7.541716337961849e-01	-1.869027692649512e+01
1	 6.783979106626776e-01	 7.683757380784542e-01	-1.715567861197742e+01
1	 6.623613749016261e-01	 7.822419121310443e-01	-1.475845230985932e+01
1	 6.460555795766482e-01	 7.957620172827933e-01	-1.151637961748995e+01
1	 6.294917520515949e-01	 8.089283862904216e-01	-7.450513795537674e+00
1	 6.126814020836757e-01	 8.217338374332406e-01	-2.585073128406641e+00
1	 5.956362956530332e-01	 8.341716869665180e-01	 3.052681871768769e+00
1	 5.783684281754625e-01	 8.462357598913323e-01	 9.432586447308005e+00
1	 5.608899972236003e-01	 8.579203990091798e-01	 1.652172367762337e+01
1	 7.336232855055000e-01	 7.336232855055000e-01	-2.773396672241390e+01
1	 7.182737584353108e-01	 7.486581716742190e-01	-2.764879871172688e+01
1	 7.026195632649409e-01	 7.633688488454202e-01	-2.671961875971355e+01
1	 6.866710559166094e-01	 7.777461739119265e-01	-2.495613326615018e+01
1	 6.704389526462485e-01	 7.917814476484162e-01	-2.237133376202433e+01
1	 6.539343061588040e-01	 8.054664321316398e-01	-1.898143190363843e+01
1	 6.371684807371982e-01	 8.187933666153508e-01	-1.480577746657104e+01
1	 6.201531265015334e-01	 8.317549817969007e-01	-9.866759990017322e+00
1	 6.029001529195136e-01	 8.443445124224743e-01	-4.189694853838297e+00
1	 5.854217016924929e-01	 8.565557081882855e-01	 2.197305306769337e+00
1	 5.677301191439930e-01	 8.683828429056042e-01	 9.263472832132450e+00
1	 7.424621202719999e-01	 7.424621202720001e-01	-3.628691480928020e+01
1	 7.269276591405137e-01	 7.576781496478194e-01	-3.587316897616007e+01
1	 7.110848592089053e-01	 7.725660638936355e-01	-3.465825926244589e+01
1	 6.949442011695413e-01	 7.871166097443529e-01	-3.265063972416567e+01
1	 6.785165303898705e-01	 8.013209831647063e-01	-2.986190433268050e+01
1	 6.618130327399598e-01	 8.151708469793592e-01	-2.630672877596282e+01
1	 6.448452094218017e-01	 8.286583469390970e-01	-2.200279595330704e+01
1	 6.276248509183910e-01	 8.417761261593117e-01	-1.697070575876432e+01
1	 6.101640101849942e-01	 8.545173378771063e-01	-1.123386987554967e+01
1	 5.924749752085233e-01	 8.668756564838282e-01	-4.818392422078190e+00
1	 5.745702410633855e-01	 8.788452868005230e-01	 2.247062601258421e+00
1	 7.513009550375001e-01	 7.513009550375001e-01	-4.477843333558205e+01
1	 7.355815598447167e-01	 7.666981276204147e-01	-4.402364133444631e+01
1	 7.195501551518695e-01	 7.817632789408299e-01	-4.250939965820302e+01
1	 7.032173464214733e-01	 7.964870455757336e-01	-4.024293733421150e+01
1	 6.865941081324931e-01	 8.108605186799150e-01	-3.723448087656321e+01
1	 6.696917593201157e-01	 8.248752618259508e-01	-3.349720277857990e+01
1	 6.525219381054053e-01	 8.385233272616602e-01	-2.904715438000188e+01
1	 6.350965753342483e-01	 8.517972705204742e-01	-2.390318364979813e+01
1	 6.174278674494746e-01	 8.646901633304133e-01	-1.808683854773272e+01
1	 5.995282487235538e-01	 8.771956047779614e-01	-1.162225674211545e+01
1	 5.814103629817781e-01	 8.893077306939365e-01	-4.536042566218384e+00
1	 7.601397898020000e-01	 7.601397898019999e-01	-5.321066519303338e+01
1	 7.442354605479196e-01	 7.757181055920047e-01	-5.210279362059429e+01
1	 7.280154510938339e-01	 7.909604939870044e-01	-5.027609227637813e+01
1	 7.114904916724047e-01	 8.058574814060682e-01	-4.773659152130342e+01
1	 6.946716858741158e-01	 8.204000541940424e-01	-4.449317946446592e+01
1	 6.775704858992717e-01	 8.345796766714155e-01	-4.055755703494835e+01
1	 6.601986667880085e-01	 8.483883075830395e-01	-3.594417809768848e+01
1	 6.425682997491058e-01	 8.618184148803871e-01	-3.067017510081912e+01
1	 6.246917247129552e-01	 8.748629887823960e-01	-2.475527085943257e+01
1	 6.065815222375840e-01	 8.875155530706840e-01	-1.822167719096919e+01
1	 5.882504848991708e-01	 8.997701745858451e-01	-1.109398121913332e+01
1	 7.689786245654999e-01	 7.689786245654999e-01	-6.158565474959111e+01
1	 7.528893612501225e-01	 7.847380835625901e-01	-6.011308514750886e+01
1	 7.364807470347983e-01	 8.001577090321584e-01	-5.796124910938019e+01
1	 7.197636369223366e-01	 8.152279172353567e-01	-5.513500378286937e+01
1	 7.027492636147382e-01	 8.299395897070879e-01	-5.164192692254683e+01
1	 6.854492124774276e-01	 8.442840915157526e-01	-4.749227843296495e+01
1	 6.678753954696118e-01	 8.582532879032362e-01	-4.269894761367298e+01
1	 6.500400241629634e-01	 8.718395592390513e-01	-3.727738654089529e+01
1	 6.319555819754356e-01	 8.850358142330536e-01	-3.124553013352973e+01
1	 6.136347957506144e-01	 8.978355013619969e-01	-2.462370355740767e+01
1	 5.950906068155634e-01	 9.102326184762480e-01	-1.743451772016414e+01
1	 7.778174593279999e-01	 7.778174593279999e-01	-6.990535344739577e+01
1	 7.615432619513252e-01	 7.937580615321698e-01	-6.805686344114430e+01
1	 7.449460429747624e-01	 8.093549240762917e-01	-6.556764978632673e+01
1	 7.280367821712684e-01	 8.245983530635994e-01	-6.244142100281664e+01
1	 7.108268413543607e-01	 8.394791252190520e-01	-5.868447158486507e+01
1	 6.933279390545833e-01	 8.539885063589621e-01	-5.430564991107505e+01
1	 6.755521241502154e-01	 8.681182682222498e-01	-4.931631250310998e+01
1	 6.575117485758207e-01	 8.818607035964664e-01	-4.373026501595383e+01
1	 6.392194392369160e-01	 8.952086396823867e-01	-3.756369045095285e+01
1	 6.206880692626449e-01	 9.081554496518994e-01	-3.083506518525242e+01
1	 6.019307287309560e-01	 9.206950623651458e-01	-2.356506350641001e+01
1	 7.866562940895000e-01	 7.866562940895000e-01	-7.817162502332286e+01
1	 7.701971626515279e-01	 8.027780395007448e-01	-7.593637052067010e+01
1	 7.534113389137267e-01	 8.185521391194046e-01	-7.309794900918345e+01
1	 7.363099274192003e-01	 8.339687888907965e-01	-6.965894413768639e+01
1	 7.189044190929827e-01	 8.490186607299340e-01	-6.562439332102720e+01
1	 7.012066656307393e-01	 8.636929212010448e-01	-6.100176191610738e+01
1	 6.832288528298186e-01	 8.779832485400799e-01	-5.580090438271839e+01
1	 6.649834729876783e-01	 8.918818479526329e-01	-5.003401276086710e+01
1	 6.464832964973964e-01	 9.053814651303955e-01	-4.371555290022789e+01
1	 6.277413427736752e-01	 9.184753979403918e-01	-3.686218897590353e+01
1	 6.087708506453484e-01	 9.311575062525379e-01	-2.949269691667075e+01
1	 7.954951288500001e-01	 7.954951288500001e-01	-8.638625038149820e+01
1	 7.788510633507308e-01	 8.117980174683144e-01	-8.375374875995922e+01
1	 7.618766348516911e-01	 8.277493541614976e-01	-8.055468349316166e+01
1	 7.445830726661320e-01	 8.433392247169471e-01	-7.679053632372752e+01
1	 7.269819968306053e-01	 8.585581962397351e-01	-7.246511289532297e+01
1	 7.090853922058953e-01	 8.733973360420000e-01	-6.758452309725317e+01
1	 6.909055815084221e-01	 8.878482288567272e-01	-6.215714901958407e+01
1	 6.724551973985359e-01	 9.019029923075501e-01	-5.619360080006747e+01
1	 6.537471537568769e-01	 9.155542905770793e-01	-4.970666074372173e+01
1	 6.347946162837055e-01	 9.287953462274742e-01	-4.271121619069698e+01
1	 6.156109725587411e-01	 9.416199501384250e-01	-3.522418169690798e+01
1	 5.472097533798151e-01	 8.369955112118155e-01	 3.180002330516072e+01
1	 5.299642681697644e-01	 8.480199728994640e-01	 4.725076618210626e+01
1	 5.125376388923134e-01	 8.586647591951594e-01	 5.860539845539799e+01
1	 4.949421946770166e-01	 8.689259024143141e-01	 6.573175515676645e+01
1	 4.771903531042269e-01	 8.787999583847403e-01	 6.851346282237077e+01
1	 4.592945930433337e-01	 8.882840068073012e-01	 6.685016049700944e+01
1	 4.412674277413340e-01	 8.973756499704219e-01	 6.065763503674034e+01
1	 4.231213782743766e-01	 9.060730098564395e-01	 4.986787177060290e+01
1	 4.048689474701956e-01	 9.143747236862123e-01	 3.442902223388585e+01
1	 3.865225944039570e-01	 9.222799379563006e-01	 1.430529130075199e+01
1	 3.680947095640363e-01	 9.297883010302649e-01	-1.052325338303557e+01
1	 5.540498753022077e-01	 8.474579551112504e-01	 2.403077219765741e+01
1	 5.365888215273570e-01	 8.586202225706244e-01	 3.820225537539375e+01
1	 5.189443593841651e-01	 8.693980686955066e-01	 4.847347120256102e+01
1	 5.011289721163066e-01	 8.797874762052528e-01	 5.472663276271217e+01
1	 4.831552325238891e-01	 8.897849578755235e-01	 5.685888908081377e+01
1	 4.650357754621707e-01	 8.993875569034435e-01	 5.478250428232705e+01
1	 4.467832705937365e-01	 9.085928456060449e-01	 4.842495640685506e+01
1	 4.284103955081883e-01	 9.173989224904452e-01	 3.772895705379455e+01
1	 4.099298093186080e-01	 9.258044077427652e-01	 2.265239364214731e+01
1	 3.913541268386022e-01	 9.338084371907733e-01	 3.168196635697868e+00
1	 3.726958934376526e-01	 9.414106548025766e-01	-2.073586538735563e+01
1	 5.608899972236003e-01	 8.579203990091798e-01	 1.652172367762337e+01
1	 5.432133748839548e-01	 8.692204722401957e-01	 2.958456976927933e+01
1	 5.253510798750377e-01	 8.801313781942111e-01	 3.893821421094893e+01
1	 5.073157495546432e-01	 8.906490499945261e-01	 4.447897140420454e+01
1	 4.891201119426348e-01	 9.007699573646497e-01	 4.611725207329205e+01
1	 4.707769578801375e-01	 9.104911069979682e-01	 4.377770124405078e+01
1	 4.522991134453255e-01	 9.198100412401192e-01	 3.739926114328198e+01
1	 4.336994127412528e-01	 9.287248351230004e-01	 2.693516031124266e+01
1	 4.149906711663495e-01	 9.372340917979960e-01	 1.235283077838907e+01
1	 3.961856592726625e-01	 9.453369364240807e-01	-6.366244319051162e+00
1	 3.772970773107793e-01	 9.530330085739084e-01	-2.922674982657259e+01
1	 5.677301191439930e-01	 8.683828429056042e-01	 9.263472832132450e+00
1	 5.498379282395577e-01	 8.798207219081762e-01	 2.138213736845341e+01
1	 5.317578003649310e-01	 8.908646876912723e-01	 2.997806108549037e+01
1	 5.135025269920271e-01	 9.015106237821341e-01	 3.496139297145257e+01
1	 4.950849913604638e-01	 9.117549568521192e-01	 3.625555408646149e+01
1	 4.765181402972344e-01	 9.215946570908742e-01	 3.379733500224042e+01
1	 4.578149562961010e-01	 9.310272368726438e-01	 2.753692334112259e+01
1	 4.389884299735704e-01	 9.400507477541058e-01	 1.743786282085347e+01
1	 4.200515330134201e-01	 9.486637758519038e-01	 3.476945724536762e+00
1	 4.010171917061375e-01	 9.568654356562227e-01	-1.435595880632226e+01
1	 3.818982611834161e-01	 9.646553623442610e-01	-3.605813781789834e+01
1	 5.745702410633855e-01	 8.788452868005230e-01	 2.247062601258421e+00
1	 5.564624815941662e-01	 8.904209715745679e-01	 1.358012770119780e+01
1	 5.381645208538457e-01	 9.015979971866910e-01	 2.157247240231252e+01
1	 5.196893044284583e-01	 9.123721975680770e-01	 2.614782307418525e+01
1	 5.010498707773762e-01	 9.227399563379314e-01	 2.724236872666829e+01
1	 4.822593227134611e-01	 9.326982071821623e-01	 2.480481852838738e+01
1	 4.633307991460628e-01	 9.422444325036196e-01	 1.879639451952902e+01
1	 4.442774472051409e-01	 9.513766603837600e-01	 9.190761037783545e+00
1	 4.251123948598199e-01	 9.600934599044898e-01	-4.026107155662459e+00
1	 4.058487241390278e-01	 9.683939348871998e-01	-2.085611562879533e+01
1	 3.864994450555633e-01	 9.762777161136343e-01	-4.128929709199867e+01
1	 5.814103629817781e-01	 8.893077306939365e-01	-4.536042566218384e+00
1	 5.630870349477796e-01	 9.010212212393696e-01	 6.164408200350486e+00
1	 5.445712413417813e-01	 9.123313066804662e-01	 1.370187529867209e+01
1	 5.258760818639362e-01	 9.232337713523550e-01	 1.801341435226804e+01
1	 5.070147501933719e-01	 9.337249558220868e-01	 1.904774848937708e+01
1	 4.880005051288177e-01	 9.438017572718324e-01	 1.676528653650788e+01
1	 4.688466419952113e-01	 9.534616281330459e-01	 1.113808142028704e+01
1	 4.495664644359644e-01	 9.627025730119640e-01	 2.149730407542101e+00
1	 4.301732567055489e-01	 9.715231439557529e-01	-1.020478076263034e+01
1	 4.106802565713329e-01	 9.799224341170115e-01	-2.591928741019266e+01
1	 3.911006289272207e-01	 9.879000698820278e-01	-4.497670630984942e+01
1	 5.882504848991708e-01	 8.997701745858451e-01	-1.109398121913332e+01
1	 5.697115883003985e-01	 9.116214709025819e-01	-8.784963725410080e-01
1	 5.509779618287376e-01	 9.230646161725989e-01	 6.347607277540341e+00
1	 5.320628592984612e-01	 9.340953451349671e-01	 1.053447513674043e+01
1	 5.129796296084511e-01	 9.447099553045852e-01	 1.164313877724614e+01
1	 4.937416875433043e-01	 9.549053073598841e-01	 9.645495381831857e+00
1	 4.743624848435461e-01	 9.646788237609232e-01	 4.524232332082072e+00
1	 4.548554816660406e-01	 9.740284856387172e-01	-3.727301319496000e+00
1	 4.352341185506070e-01	 9.829528280056942e-01	-1.510527437350536e+01
1	 4.155117890030531e-01	 9.914509333456581e-01	-2.959560153591515e+01
1	 3.957018127983884e-01	 9.995224236494423e-01	-4.717421721795201e+01
1	 5.950906068155634e-01	 9.102326184762480e-01	-1.743451772016414e+01
1	 5.763361416520227e-01	 9.222217205642042e-01	-7.561441704731667e+00
1	 5.573846823147151e-01	 9.337979256630887e-01	-5.081361122661576e-01
1	 5.382496367320332e-01	 9.449569189159140e-01	 3.688403030783974e+00
1	 5.189445090226138e-01	 9.556949547854271e-01	 5.001297847989015e+00
1	 4.994828699569208e-01	 9.660088574463179e-01	 3.413729863032380e+00
1	 4.798783276910674e-01	 9.758960193872510e-01	-1.081168745529915e+00
1	 4.601444988953700e-01	 9.853543982640203e-01	-8.480472036644450e+00
1	 4.402949803949942e-01	 9.943825120543127e-01	-1.877166316072417e+01
1	 4.203433214341882e-01	 1.002979432573140e+00	-3.193288068398090e+01
1	 4.003029966690664e-01	 1.011144777415877e+00	-4.793320562043014e+01
1	 6.019307287309560e-01	 9.206950623651458e-01	-2.356506350641001e+01
1	 5.829606950026519e-01	 9.328219702242370e-01	-1.389669913405148e+01
1	 5.637914027997134e-01	 9.445312351519353e-01	-6.882350028691274e+00
1	 5.444364141646524e-01	 9.558184926951957e-01	-2.546376980741591e+00
1	 5.249093884358597e-01	 9.666799542646118e-01	-9.037777796626187e-01
1	 5.052240523696671e-01	 9.771124075311334e-01	-1.960283621152094e+00
1	 4.853941705377752e-01	 9.871132150120299e-01	-5.712500722058159e+00
1	 4.654335161239521e-01	 9.966803108878728e-01	-1.214809518751619e+01
1	 4.453558422387106e-01	 1.005812196101609e+00	-2.124601887978760e+01
1	 4.251748538647384e-01	 1.014507931799456e+00	-3.297677377430826e+01
1	 4.049041805392548e-01	 1.022767131181332e+00	-4.730271205757414e+01
1	 6.087708506453484e-01	 9.311575062525379e-01	-2.949269691667075e+01
1	 5.895852483522863e-01	 9.434222198826796e-01	-1.989598847752571e+01
1	 5.701981232837326e-01	 9.552645446391391e-01	-1.279126580235093e+01
1	 5.506231915963185e-01	 9.666800664728121e-01	-8.190470249370790e+00
1	 5.308742678481890e-01	 9.776649537421396e-01	-6.096922891185493e+00
1	 5.109652347815433e-01	 9.882159576143307e-01	-6.505458060685896e+00
1	 4.909100133836695e-01	 9.983304106352595e-01	-9.402597387479005e+00
1	 4.707225333517872e-01	 1.008006223510275e+00	-1.476676226319622e+01
1	 4.504167040817562e-01	 1.017241880147583e+00	-2.256852242077483e+01
1	 4.300063862947036e-01	 1.026036431024607e+00	-3.277087808995933e+01
1	 4.095053644089534e-01	 1.034389484945808e+00	-4.532957300043957e+01
1	 6.156109725587411e-01	 9.416199501384250e-01	-3.522418169690798e+01
1	 5.962098017009264e-01	 9.540224695395332e-01	-2.557050867141974e+01
1	 5.766048437667730e-01	 9.659978541247000e-01	-1.825039337138529e+01
1	 5.568099690270316e-01	 9.775416402487633e-01	-1.326356633323177e+01
1	 5.368391472596018e-01	 9.886499532180105e-01	-1.060186850380805e+01
1	 5.167064171925495e-01	 9.993195076959103e-01	-1.024942142375266e+01
1	 4.964258562287501e-01	 1.009547606256940e+00	-1.218283325220986e+01
1	 4.760115505788752e-01	 1.019332136131226e+00	-1.637143846627269e+01
1	 4.554775659241308e-01	 1.028671564192235e+00	-2.277756885642292e+01
1	 4.348379187240837e-01	 1.037564930248593e+00	-3.135685325696388e+01
1	 4.141065482781622e-01	 1.046011838709305e+00	-4.205854329913795e+01
1	 3.680947095640363e-01	 9.297883010302649e-01	-1.052325338303557e+01
1	 3.495975907771368e-01	 9.368999543523497e-01	-1.794677691877850e+01
1	 3.310434199775671e-01	 9.436155223571460e-01	-2.192877997348496e+01
1	 3.124442408950447e-01	 9.499361011546517e-01	-2.240139158781092e+01
1	 2.938119377279355e-01	 9.558632460744549e-01	-1.931280182119707e+01
1	 2.751582148638955e-01	 9.613989581557346e-01	-1.262696292626785e+01
1	 2.564945776994927e-01	 9.665456696731550e-01	-2.323221219573014e+00
1	 2.378323146029685e-01	 9.713062287906586e-01	 1.160411527026935e+01
1	 2.191824800562900e-01	 9.756838834365028e-01	 2.914626802256439e+01
1	 2.005558790047262e-01	 9.796822644935033e-01	 5.028053254901231e+01
1	 1.819630524344169e-01	 9.833053683983746e-01	 7.497087051299471e+01
1	 3.726958934376526e-01	 9.414106548025766e-01	-2.073586538735563e+01
1	 3.539675606653077e-01	 9.486112037905382e-01	-2.528686375187121e+01
1	 3.351814627300657e-01	 9.554107163947457e-01	-2.668756353349909e+01
1	 3.163497939082678e-01	 9.618103024265738e-01	-2.488517964560643e+01
1	 2.974845869507599e-01	 9.678115366572296e-01	-1.984156388623654e+01
1	 2.785976925500455e-01	 9.734164451388825e-01	-1.153289559316740e+01
1	 2.597007599201513e-01	 9.786274905496308e-01	 5.068961611256384e-02
1	 2.408052185339230e-01	 9.834475566554659e-01	 1.490552820664573e+01
1	 2.219222610543540e-01	 9.878799319837492e-01	 3.301490914703201e+01
1	 2.030628274885305e-01	 9.919282928033322e-01	 5.434960117447564e+01
1	 1.842375905849211e-01	 9.955966855063876e-01	 7.886842157574812e+01
1	 3.772970773107793e-01	 9.530330085739084e-01	-2.922674982657259e+01
1	 3.583375305530888e-01	 9.603224532279364e-01	-3.110921617299723e+01
1	 3.393195054822754e-01	 9.672059104317243e-01	-3.012404420156362e+01
1	 3.202553469213020e-01	 9.736845036980224e-01	-2.623330105845238e+01
1	 3.011572361734961e-01	 9.797598272396583e-01	-1.941229256949484e+01
1	 2.820371702362082e-01	 9.854339321217914e-01	-9.649243386024317e+00
1	 2.629069421409231e-01	 9.907093114259542e-01	 3.055077512343537e+00
1	 2.437781224650914e-01	 9.955888845201885e-01	 1.868778140836341e+01
1	 2.246620420527323e-01	 1.000075980530958e+00	 3.722432979332613e+01
1	 2.055697759727496e-01	 1.004174321113151e+00	 5.862904479679351e+01
1	 1.865121287359399e-01	 1.007888002614400e+00	 8.285565514679482e+01
1	 3.818982611834161e-01	 9.646553623442610e-01	-3.605813781789834e+01
1	 3.627075004404804e-01	 9.720337026645445e-01	-3.546869205291867e+01
1	 3.434575482341956e-01	 9.790011044680814e-01	-3.228601605858529e+01
1	 3.241608999341474e-01	 9.855587049689971e-01	-2.648680401881096e+01
1	 3.048298853961442e-01	 9.917081178217401e-01	-1.805961558402965e+01
1	 2.854766479223834e-01	 9.974514191044608e-01	-7.004545517587765e+00
1	 2.661131243618082e-01	 1.002791132302125e+00	 6.667154141232963e+00
1	 2.467510263964736e-01	 1.007730212384825e+00	 2.293349510643770e+01
1	 2.274018230514250e-01	 1.012272029078129e+00	 4.176221262901866e+01
1	 2.080767244573832e-01	 1.016420349422961e+00	 6.311125950014256e+01
1	 1.887866668874734e-01	 1.020179319722413e+00	 8.692932968945330e+01
1	 3.864994450555633e-01	 9.762777161136343e-01	-4.128929709199867e+01
1	 3.670774703274824e-01	 9.837449521003626e-01	-3.841753698282255e+01
1	 3.475955909858267e-01	 9.907962985038169e-01	-3.321899727683721e+01
1	 3.280664529468041e-01	 9.974329062394982e-01	-2.568478204329534e+01
1	 3.085025346187044e-01	 1.003656408403476e+00	-1.581651170416057e+01
1	 2.889161256085711e-01	 1.009468906086891e+00	-3.625982190456991e+00
1	 2.693193065828065e-01	 1.014872953178144e+00	 1.086521633338141e+01
1	 2.497239303280696e-01	 1.019871540249376e+00	 2.762611713994777e+01
1	 2.301416040504319e-01	 1.024468077625263e+00	 4.661682686133298e+01
1	 2.105836729424314e-01	 1.028666377732761e+00	 6.778900345993812e+01
1	 1.910612050395216e-01	 1.032470636830427e+00	 9.108635802593344e+01
1	 3.911006289272207e-01	 9.879000698820278e-01	-4.497670630984942e+01
1	 3.714474402140946e-01	 9.954562015353907e-01	-4.000553793782394e+01
1	 3.517336337371683e-01	 1.002591492538931e+00	-3.296636399693895e+01
1	 3.319720059592722e-01	 1.009307107509526e+00	-2.386448895359818e+01
1	 3.121751838411762e-01	 1.015604698984865e+00	-1.271440776186753e+01
1	 2.923556032947714e-01	 1.021486393069082e+00	 4.605454611436173e-01
1	 2.725254888039181e-01	 1.026954774054010e+00	 1.562858224502246e+01
1	 2.526968342598795e-01	 1.032012868113843e+00	 3.274987427320377e+01
1	 2.328813850497531e-01	 1.036664126172358e+00	 5.177699373480866e+01
1	 2.130906214278943e-01	 1.040912406042553e+00	 7.265537564334684e+01
1	 1.933357431920845e-01	 1.044761953938439e+00	 9.532379825740396e+01
1	 3.957018127983884e-01	 9.995224236494423e-01	-4.717421721795201e+01
1	 3.758174101003174e-01	 1.007167450969629e+00	-4.028016621976267e+01
1	 3.558716764882207e-01	 1.014386686573424e+00	-3.156947486457995e+01
1	 3.358775589715515e-01	 1.021181308779080e+00	-2.106144583550292e+01
1	 3.158478330635600e-01	 1.027552989565908e+00	-8.783268875998088e+00
1	 2.957950809809843e-01	 1.033503880051033e+00	 5.230341006923457e+00
1	 2.757316710251428e-01	 1.039036594929724e+00	 2.093753197862801e+01
1	 2.556697381919033e-01	 1.044154195978224e+00	 3.828972690939825e+01
1	 2.356211660493888e-01	 1.048860174719417e+00	 5.723205443610785e+01
1	 2.155975699137717e-01	 1.053158434352334e+00	 7.770379599581274e+01
1	 1.956102813451620e-01	 1.057053271046452e+00	 9.963884531753936e+01
1	 4.003029966690664e-01	 1.011144777415877e+00	-4.793320562043014e+01
1	 3.801873799861506e-01	 1.018878700403077e+00	-3.928671054187460e+01
1	 3.600097192389839e-01	 1.026181880607295e+00	-2.906778697850623e+01
1	 3.397831119836419e-01	 1.033055510048160e+00	-1.730954062140648e+01
1	 3.195204822858556e-01	 1.039501280146605e+00	-4.051682458769784e+00
1	 2.992345586672098e-01	 1.045521367032745e+00	 1.065984348466642e+01
1	 2.789378532464808e-01	 1.051118415805285e+00	 2.677325229863738e+01
1	 2.586426421241408e-01	 1.056295523842520e+00	 4.423132692744954e+01
1	 2.383609470493386e-01	 1.061056223266437e+00	 6.297184021228681e+01
1	 2.181045184000638e-01	 1.065404462662107e+00	 8.292798699402904e+01
1	 1.978848194987542e-01	 1.069344588154466e+00	 1.040288231085835e+02
1	 4.049041805392548e-01	 1.022767131181332e+00	-4.730271205757414e+01
1	 3.845573498715942e-01	 1.030589949835736e+00	-3.706840103950879e+01
1	 3.641477619894577e-01	 1.037977074640545e+00	-2.549896393296152e+01
1	 3.436886649955436e-01	 1.044929711316767e+00	-1.264112088312811e+01
1	 3.231931315080631e-01	 1.051449570726956e+00	 1.453063505443453e+00
1	 3.026740363534478e-01	 1.057538854014218e+00	 1.672656288499901e+01
1	 2.821440354679321e-01	 1.063200236680694e+00	 3.311778511657339e+01
1	 2.616155460565923e-01	 1.068436851706730e+00	 5.056097839360888e+01
1	 2.411007280496028e-01	 1.073252271813419e+00	 6.898664452645116e+01
1	 2.206114668867706e-01	 1.077650490971870e+00	 8.832195645666337e+01
1	 2.001593576528611e-01	 1.081635905262479e+00	 1.084911771735901e+02
1	 4.095053644089534e-01	 1.034389484945808e+00	-4.532957300043957e+01
1	 3.889273197566479e-01	 1.042301199267603e+00	-3.366652492057169e+01
1	 3.682858047396424e-01	 1.049772268673173e+00	-2.089897657636681e+01
1	 3.475942180072565e-01	 1.056803912584900e+00	-7.087080369019521e+00
1	 3.268657807301825e-01	 1.063397861306960e+00	 7.704907458545112e+00
1	 3.061135140396982e-01	 1.069556340995452e+00	 2.340901998549820e+01
1	 2.853502176894966e-01	 1.075282057555951e+00	 3.995397944907172e+01
1	 2.645884499892575e-01	 1.080578179570855e+00	 5.726560092172134e+01
1	 2.438405090501814e-01	 1.085448320360364e+00	 7.526719709056387e+01
1	 2.231184153738919e-01	 1.089896519281624e+00	 9.387998151390801e+01
1	 2.024338958074826e-01	 1.093927222370491e+00	 1.130234678626685e+02
1	 4.141065482781622e-01	 1.046011838709305e+00	-4.205854329913795e+01
1	 3.932972896413123e-01	 1.054012448698682e+00	-2.912053440594026e+01
1	 3.724238474895377e-01	 1.061567462705179e+00	-1.530219705275599e+01
1	 3.514997710187807e-01	 1.068678113852559e+00	-6.769397719371426e-01
1	 3.305384299522138e-01	 1.075346151886617e+00	 1.467894613392286e+01
1	 3.095529917259615e-01	 1.081573827976446e+00	 3.068669019586194e+01
1	 2.885563999111744e-01	 1.087363878431055e+00	 4.726544657870558e+01
1	 2.675613539221366e-01	 1.092719507434895e+00	 6.433269547613700e+01
1	 2.465802900510743e-01	 1.097644368907271e+00	 8.180463962939638e+01
1	 2.256253638614278e-01	 1.102142547591368e+00	 9.959659364572948e+01
1	 2.047084339626188e-01	 1.106218539478505e+00	 1.176233639548138e+02
1	 1.819630524344169e-01	 9.833053683983746e-01	 7.497087051299471e+01
1	 1.634142641907509e-01	 9.865575392429453e-01	 5.621184822584527e+01
1	 1.449194890435836e-01	 9.894434504702300e-01	 3.731848782481638e+01
1	 1.264884019976694e-01	 9.919680862544974e-01	 1.857269483255271e+01
1	 1.081303688402294e-01	 9.941367226520524e-01	 2.455271041879001e-01
1	 8.985443791194073e-02	 9.959549086084808e-01	-1.740336418919336e+01
1	 7.166933308134309e-02	 9.974284469032259e-01	-3.412621483161020e+01
1	 5.358344789747966e-02	 9.985633751090948e-01	-4.968755040419136e+01
1	 3.560484089073371e-02	 9.993659466402712e-01	-6.386451349625499e+01
1	 1.774123198744578e-02	 9.998426119581703e-01	-7.644711751823532e+01
1	 0.000000000000000e+00	 1.000000000000000e+00	-8.723842973551052e+01
1	 1.842375905849211e-01	 9.955966855063876e-01	 7.886842157574812e+01
1	 1.654569424871889e-01	 9.988895084859244e-01	 6.224918088481780e+01
1	 1.467309826500151e-01	 1.001811493603026e+00	 4.474900370894157e+01
1	 1.280695070157072e-01	 1.004367687334138e+00	 2.663729253188029e+01
1	 1.094819984438205e-01	 1.006563431686268e+00	 8.175589256667347e+00
1	 9.097761837928414e-02	 1.008404344966822e+00	-1.038306942526932e+01
1	 7.256519973898776e-02	 1.009896302489984e+00	-2.879472751124491e+01
1	 5.425324099133060e-02	 1.011045417298220e+00	-4.682501626975688e+01
1	 3.604990139831873e-02	 1.011858020973390e+00	-6.424959266901416e+01
1	 1.796299738536468e-02	 1.012340644607676e+00	-8.085451083634003e+01
1	 0.000000000000000e+00	 1.012500000000000e+00	-9.643652813740225e+01
1	 1.865121287359399e-01	 1.007888002614400e+00	 8.285565514679482e+01
1	 1.674996207842255e-01	 1.011221477728904e+00	 6.802362259439178e+01
1	 1.485424762570973e-01	 1.014179536735822e+00	 5.158373477442057e+01
1	 1.296506120344171e-01	 1.016767288413778e+00	 3.379307247409194e+01
1	 1.108336280480745e-01	 1.018990140720485e+00	 1.490379327655968e+01
1	 9.210079884725111e-02	 1.020853781325163e+00	-4.837597318962567e+00
1	 7.346106639718736e-02	 1.022364158076741e+00	-2.519091506993448e+01
1	 5.492303408563919e-02	 1.023527459487344e+00	-4.592290567317254e+01
1	 3.649496190623605e-02	 1.024350095306508e+00	-6.680779265641355e+01
1	 1.818476278346310e-02	 1.024838677257182e+00	-8.762776463090682e+01
1	 0.000000000000000e+00	 1.025000000000000e+00	-1.081734024790219e+02
1	 1.887866668874734e-01	 1.020179319722413e+00	 8.692932968945330e+01
1	 1.695422990818606e-01	 1.023553446971883e+00	 7.354467543687957e+01
1	 1.503539698648305e-01	 1.026547579868618e+00	 5.784421541206549e+01
1	 1.312317170537990e-01	 1.029166889493419e+00	 4.007288349347566e+01
1	 1.121852576529911e-01	 1.031416849754700e+00	 2.047357981882281e+01
1	 9.322397931584156e-02	 1.033303217683504e+00	-7.136410278257479e-01
1	 7.435693305594188e-02	 1.034832013663499e+00	-2.325233142848976e+01
1	 5.559282718040544e-02	 1.036009501676469e+00	-4.691035993330640e+01
1	 3.694002241448566e-02	 1.036842169639627e+00	-7.146056692411594e+01
1	 1.840652818174105e-02	 1.037336709906688e+00	-9.668136587394324e+01
1	 0.000000000000000e+00	 1.037500000000000e+00	-1.223572897759820e+02
1	 1.910612050395216e-01	 1.032470636830427e+00	 9.108635802593344e+01
1	 1.715849773800944e-01	 1.035885416214862e+00	 7.882138901447679e+01
1	 1.521654634732146e-01	 1.038915623001414e+00	 6.355095456549927e+01
1	 1.328128220738531e-01	 1.041566490573059e+00	 4.550801019411116e+01
1	 1.135368872585706e-01	 1.043843558788917e+00	 2.492632093580797e+01
1	 9.434715978505553e-02	 1.045752654041845e+00	 2.039567869550343e+00
1	 7.525279971525133e-02	 1.047299869250256e+00	-2.291950413048878e+01
1	 5.626262027562935e-02	 1.048491543865594e+00	-4.971989459185815e+01
1	 3.738508292306758e-02	 1.049334243972746e+00	-7.813310924882960e+01
1	 1.862829358019852e-02	 1.049834742556193e+00	-1.079338735862634e+02
1	 0.000000000000000e+00	 1.050000000000000e+00	-1.389007967096315e+02
1	 1.933357431920845e-01	 1.044761953938439e+00	 9.532379825740396e+01
1	 1.736276556789268e-01	 1.048217385457841e+00	 8.386238706574032e+01
1	 1.539769570822495e-01	 1.051283666134210e+00	 6.872349605157858e+01
1	 1.343939270945792e-01	 1.053966091652700e+00	 5.012826496341504e+01
1	 1.148885168648128e-01	 1.056270267823132e+00	 2.830144175976479e+01
1	 9.547034025489304e-02	 1.058202090400186e+00	 3.470408692416452e+00
1	 7.614866637511571e-02	 1.059767724837014e+00	-2.413575942329100e+01
1	 5.693241337131089e-02	 1.060973586054718e+00	-5.428720092966540e+01
1	 3.783014343198180e-02	 1.061826318305864e+00	-8.675413370001932e+01
1	 1.885005897883552e-02	 1.062332775205699e+00	-1.213076793052080e+02
1	 0.000000000000000e+00	 1.062500000000000e+00	-1.577206425879069e+02
1	 1.956102813451620e-01	 1.057053271046452e+00	 9.963884531753936e+01
1	 1.756703339783578e-01	 1.060549354700821e+00	 8.867589222510280e+01
1	 1.557884506919354e-01	 1.063651709267005e+00	 7.338047467241506e+01
1	 1.359750321159775e-01	 1.066365692732341e+00	 5.396207356613030e+01
1	 1.162401464717178e-01	 1.068696976857348e+00	 3.063653369587090e+01
1	 9.659352072535407e-02	 1.070651526758527e+00	 3.625010559152877e+00
1	 7.704453303553507e-02	 1.072235580423771e+00	-2.684705954270581e+01
1	 5.760220646745011e-02	 1.073455628243843e+00	-6.055096133071306e+01
1	 3.827520394122830e-02	 1.074318392638983e+00	-9.725566997172719e+01
1	 1.907182437765204e-02	 1.074830807855205e+00	-1.367287842639293e+02
1	 0.000000000000000e+00	 1.075000000000000e+00	-1.787374202391448e+02
1	 1.978848194987542e-01	 1.069344588154466e+00	 1.040288231085835e+02
1	 1.777130122783873e-01	 1.072881323943800e+00	 9.326974907483408e+01
1	 1.575999443022721e-01	 1.076019752399801e+00	 7.753966845760401e+01
1	 1.375561371380478e-01	 1.078765293811981e+00	 5.703655483528724e+01
1	 1.175917760792856e-01	 1.081123685891564e+00	 3.196745980884445e+01
1	 9.771670119643860e-02	 1.083100963116868e+00	 2.547381709157985e+00
1	 7.794039969650934e-02	 1.084703436010529e+00	-3.100185121940508e+01
1	 5.827199956404695e-02	 1.085937670432968e+00	-6.845267737965651e+01
1	 3.872026445080710e-02	 1.086810466972101e+00	-1.095728728294435e+02
1	 1.929358977664810e-02	 1.087328840504710e+00	-1.541265919376127e+02
1	 0.000000000000000e+00	 1.087500000000000e+00	-2.018753733959763e+02
1	 2.001593576528611e-01	 1.081635905262479e+00	 1.084911771735901e+02
1	 1.797556905790155e-01	 1.085213293186779e+00	 9.765144562527747e+01
1	 1.594114379132596e-01	 1.088387795532598e+00	 8.121804734448027e+01
1	 1.391372421607902e-01	 1.091164894891622e+00	 5.937759492968483e+01
1	 1.189434056875161e-01	 1.093550394925780e+00	 3.232845302410578e+01
1	 9.883988166814665e-02	 1.095550399475209e+00	 2.795300073328910e-01
1	 7.883626635803856e-02	 1.097171291597286e+00	-3.655092451444642e+01
1	 5.894179266110147e-02	 1.098419712622093e+00	-7.793650967997065e+01
1	 3.916532496071819e-02	 1.099302541305220e+00	-1.236438445492323e+02
1	 1.951535517582367e-02	 1.099826873154216e+00	-1.734337147342785e+02
1	 0.000000000000000e+00	 1.100000000000000e+00	-2.270621892575905e+02
1	 2.024338958074826e-01	 1.093927222370491e+00	 1.130234678626685e+02
1	 1.817983688802422e-01	 1.097545262429758e+00	 1.018281333469814e+02
1	 1.612229315248981e-01	 1.100755838665393e+00	 8.443181857656010e+01
1	 1.407183471842047e-01	 1.103564495971262e+00	 6.100991658525365e+01
1	 1.202950352964094e-01	 1.105977103959997e+00	 3.175220770863656e+01
1	 9.996306214047822e-02	 1.107999835833549e+00	-3.138424675328658e+00
1	 7.973213302012272e-02	 1.109639147184044e+00	-4.344728117149833e+01
1	 5.961158575861362e-02	 1.110901754811217e+00	-8.894912847087184e+01
1	 3.961038547096159e-02	 1.111794615638339e+00	-1.394094693272558e+02
1	 1.973712057517876e-02	 1.112324905803722e+00	-1.945857937176628e+02
1	 0.000000000000000e+00	 1.112500000000000e+00	-2.542288050365660e+02
1	 2.047084339626188e-01	 1.106218539478505e+00	 1.176233639548138e+02
1	 1.838410471820675e-01	 1.109877231672737e+00	 1.058066458673547e+02
1	 1.630344251371875e-01	 1.113123881798189e+00	 8.719646907542054e+01
1	 1.422994522082913e-01	 1.115964097050903e+00	 6.195714374965937e+01
1	 1.216466649059655e-01	 1.118403812994212e+00	 3.026996514644857e+01
1	 1.010862426134333e-01	 1.120449272191891e+00	-7.668145573192387e+00
1	 8.062799968276181e-02	 1.122107002770802e+00	-5.164601174558767e+01
1	 6.028137885658343e-02	 1.123383797000342e+00	-1.014395742031139e+02
1	 4.005544598153728e-02	 1.124286689971457e+00	-1.568132587286608e+02
1	 1.995888597471339e-02	 1.124822938453228e+00	-2.175213303485711e+02
1	 0.000000000000000e+00	 1.125000000000000e+00	-2.833092274025784e+02
1	 1.125000000000000e+00	 0.000000000000000e+00	 1.763784819025555e+02
1	 1.124822938453228e+00	 1.995888597471274e-02	 1.516515311671101e+02
1	 1.124286689971457e+00	 4.005544598153672e-02	 1.254341084237554e+02
1	 1.123383797000342e+00	 6.028137885658293e-02	 9.797567684884471e+01
1	 1.122107002770802e+00	 8.062799968276138e-02	 6.953889699203810e+01
1	 1.120449272191891e+00	 1.010862426134330e-01	 4.039924269345502e+01
1	 1.118403812994212e+00	 1.216466649059652e-01	 1.084453643022399e+01
1	 1.115964097050903e+00	 1.422994522082910e-01	-1.882559778774157e+01
1	 1.113123881798189e+00	 1.630344251371873e-01	-4.830036534995544e+01
1	 1.109877231672737e+00	 1.838410471820675e-01	-7.725851663138842e+01
1	 1.106218539478505e+00	 2.047084339626188e-01	-1.053691474608596e+02
1	 1.137500000000000e+00	 0.000000000000000e+00	 1.580488080598339e+02
1	 1.137320971102731e+00	 2.018065137442460e-02	 1.369414384201549e+02
1	 1.136778764304567e+00	 4.050050649243549e-02	 1.144613017209262e+02
1	 1.135865839189446e+00	 6.095117195498952e-02	 9.081667587704293e+01
1	 1.134574858357522e+00	 8.152386634591800e-02	 6.622720719365520e+01
1	 1.132898708550173e+00	 1.022094230869528e-01	 4.092360371272044e+01
1	 1.130830522028343e+00	 1.229982945160989e-01	 1.514726033850269e+01
1	 1.128363698130427e+00	 1.438805572329329e-01	-1.085018595922137e+01
1	 1.125491924930832e+00	 1.648459187499742e-01	-3.680737214588120e+01
1	 1.122209200915521e+00	 1.858837254842960e-01	-6.245379714714477e+01
1	 1.118509856586275e+00	 2.069829721180270e-01	-8.751048221781706e+01
1	 1.150000000000000e+00	 0.000000000000000e+00	 1.431199183249479e+02
1	 1.149819003752230e+00	 2.040241677431140e-02	 1.251381170477822e+02
1	 1.149270838637657e+00	 4.094556700364810e-02	 1.058972979918453e+02
1	 1.148347881378508e+00	 6.162096505381197e-02	 8.556522981911877e+01
1	 1.147042713944167e+00	 8.241973300955485e-02	 6.431925030540246e+01
1	 1.145348144908337e+00	 1.033326035609785e-01	 4.234603613340779e+01
1	 1.143257231062303e+00	 1.243499241267248e-01	 1.984131664333876e+01
1	 1.140763299209717e+00	 1.454616622580135e-01	-2.990469984367222e+00
1	 1.137859968063168e+00	 1.666574123631049e-01	-2.593657930212313e+01
1	 1.134541170157914e+00	 1.879264037867323e-01	-4.877642273983569e+01
1	 1.130801173693560e+00	 2.092575102734646e-01	-7.128208973120573e+01
1	 1.162500000000000e+00	 0.000000000000000e+00	 1.314821099851112e+02
1	 1.162317036401724e+00	 2.062418217437315e-02	 1.161478002316969e+02
1	 1.161762912970730e+00	 4.139062751517460e-02	 9.966439391492176e+01
1	 1.160829923567528e+00	 6.229075815305031e-02	 8.215980464567396e+01
1	 1.159510569530738e+00	 8.331559967367190e-02	 6.376974462055639e+01
1	 1.157797581266385e+00	 1.044557840355102e-01	 4.463756991037148e+01
1	 1.155683940096093e+00	 1.257015537378430e-01	 2.491408171913347e+01
1	 1.153162900288774e+00	 1.470427672835326e-01	 4.757282261288061e+00
1	 1.150228011195196e+00	 1.684689059765797e-01	-1.566791583908712e+01
1	 1.146873139399917e+00	 1.899690820893765e-01	-3.619002743893082e+01
1	 1.143092490800359e+00	 2.115320484289315e-01	-5.663138055689273e+01
1	 1.175000000000000e+00	 0.000000000000000e+00	 1.230303485279045e+02
1	 1.174815069051214e+00	 2.084594757460985e-02	 1.098807112308555e+02
1	 1.174254987303784e+00	 4.183568802701497e-02	 9.568819269281038e+01
1	 1.173311965756507e+00	 6.296055125270457e-02	 8.054148479660336e+01
1	 1.171978425117234e+00	 8.421146633826908e-02	 6.453533531351322e+01
1	 1.170247017624314e+00	 1.055789645105478e-01	 4.777046776634185e+01
1	 1.168110649129713e+00	 1.270531833494537e-01	 3.035346911584884e+01
1	 1.165562501367597e+00	 1.486238723094903e-01	 1.239664408840262e+01
1	 1.162596054326918e+00	 1.702803995903985e-01	-5.982164861434037e+00
1	 1.159205108641529e+00	 1.920117603922284e-01	-2.465979276204784e+01
1	 1.155383807906674e+00	 2.138065865844276e-01	-4.350800309950534e+01
1	 1.187500000000000e+00	 0.000000000000000e+00	 1.176640219465280e+02
1	 1.187313101700699e+00	 2.106771297502151e-02	 1.062508533774060e+02
1	 1.186747061636820e+00	 4.228074853916918e-02	 9.389743002482268e+01
1	 1.185794007945443e+00	 6.363034435277468e-02	 8.065383536692426e+01
1	 1.184446280703655e+00	 8.510733300334646e-02	 6.657449302499393e+01
1	 1.182696453982126e+00	 1.067021449860912e-01	 5.171816030940572e+01
1	 1.180537358163162e+00	 1.284048129615565e-01	 3.614790128660829e+01
1	 1.177962102446187e+00	 1.502049773358866e-01	 1.993103835244706e+01
1	 1.174964097458333e+00	 1.720918932045612e-01	 3.139081393724788e+00
1	 1.171537077882749e+00	 1.940544386952882e-01	-1.415236626820546e+01
1	 1.167675125012503e+00	 2.160811247399532e-01	-3.186372583091294e+01
1	 1.200000000000000e+00	 0.000000000000000e+00	 1.152867104009757e+02
1	 1.199811134350180e+00	 2.128947837560811e-02	 1.051758131978826e+02
1	 1.199239135969837e+00	 4.272580905163728e-02	 9.422381095606411e+01
1	 1.198276050134338e+00	 6.430013745326070e-02	 8.244277290599064e+01
1	 1.196914136290001e+00	 8.600319966890399e-02	 6.984741878567394e+01
1	 1.195145890339820e+00	 1.078253254621407e-01	 5.645518520564428e+01
1	 1.192964067196440e+00	 1.297564425741518e-01	 4.228628308232467e+01
1	 1.190361703524544e+00	 1.517860823627215e-01	 2.736374528991248e+01
1	 1.187332140589441e+00	 1.739033868190680e-01	 1.171346369914330e+01
1	 1.183869047123579e+00	 1.960971169985557e-01	-4.635785201498738e+00
1	 1.179966442117847e+00	 2.183556628955082e-01	-2.165232687005512e+01
1	 1.212500000000000e+00	 0.000000000000000e+00	 1.158059701269717e+02
1	 1.212309166999656e+00	 2.151124377636965e-02	 1.065765757124688e+02
1	 1.211731210302836e+00	 4.317086956441923e-02	 9.660185681837535e+01
1	 1.210758092323192e+00	 6.496993055416259e-02	 8.585644420850853e+01
1	 1.209381991876273e+00	 8.689906633494171e-02	 7.431595482082543e+01
1	 1.207595326697396e+00	 1.089485059386960e-01	 6.195713011428791e+01
1	 1.205390776229548e+00	 1.311080721872393e-01	 4.875797688583400e+01
1	 1.202761304602666e+00	 1.533671873899949e-01	 3.469790986980416e+01
1	 1.199700183720242e+00	 1.757148804339188e-01	 1.975789537301538e+01
1	 1.196201016364018e+00	 1.981397953020310e-01	 3.920595142154072e+00
1	 1.192257759222705e+00	 2.206302010510924e-01	-1.282949039288282e+01
1	 1.225000000000000e+00	 0.000000000000000e+00	 1.191331305749708e+02
1	 1.224807199649127e+00	 2.173300917730615e-02	 1.103773510424704e+02
1	 1.224223284635816e+00	 4.361593007751505e-02	 1.009687615422374e+02
1	 1.223240134512003e+00	 6.563972365548039e-02	 9.084511252650988e+01
1	 1.221849847462470e+00	 8.779493300145964e-02	 7.994350081589991e+01
1	 1.220044763054855e+00	 1.100716864157573e-01	 6.820057911663726e+01
1	 1.217817485262486e+00	 1.324597018008191e-01	 5.555277926843024e+01
1	 1.215160905680556e+00	 1.549482924177070e-01	 4.193654869504412e+01
1	 1.212068226850737e+00	 1.775263740491136e-01	 2.728859939400420e+01
1	 1.208532985604066e+00	 2.001824736057143e-01	 1.154616866255533e+01
1	 1.204549076327078e+00	 2.229047392067060e-01	-5.352709384548824e+00
1	 1.237500000000000e+00	 0.000000000000000e+00	 1.251831038437649e+02
1	 1.237305232298594e+00	 2.195477457841760e-02	 1.165054115264242e+02
1	 1.236715358968778e+00	 4.406099059092473e-02	 1.072642566770447e+02
1	 1.235722176700773e+00	 6.630951675721405e-02	 9.736105067756975e+01
1	 1.234317703048592e+00	 8.869079966845773e-02	 8.669493525692405e+01
1	 1.232494199412197e+00	 1.111948668933245e-01	 7.516306239171649e+01
1	 1.230244194295253e+00	 1.338113314148913e-01	 6.266089906115491e+01
1	 1.227560506758211e+00	 1.565293974458576e-01	 4.908255648560642e+01
1	 1.224436269980924e+00	 1.793378676646523e-01	 3.432114326687552e+01
1	 1.220864954843724e+00	 2.022251519096052e-01	 1.826914162716275e+01
1	 1.216840393430966e+00	 2.251792773623488e-01	 8.188057145952996e-01
1	 1.250000000000000e+00	 0.000000000000000e+00	 1.338742055480724e+02
1	 1.249803264948056e+00	 2.217653997970400e-02	 1.248909386092417e+02
1	 1.249207433301722e+00	 4.450605110464827e-02	 1.154304845101625e+02
1	 1.248204218889501e+00	 6.697930985936361e-02	 1.053584405665311e+02
1	 1.246785558634639e+00	 8.958666633593600e-02	 9.453654149047094e+01
1	 1.244943635769421e+00	 1.123180473713976e-01	 8.282300891138718e+01
1	 1.242670903327850e+00	 1.351629610294558e-01	 7.007293674180985e+01
1	 1.239960107835634e+00	 1.581105024744469e-01	 5.613871217266497e+01
1	 1.236804313110804e+00	 1.811493612805350e-01	 4.087047179619299e+01
1	 1.233196924082991e+00	 2.042678302137040e-01	 2.411659205270829e+01
1	 1.229131710534368e+00	 2.274538155180211e-01	 5.724212881761638e+00
1	 1.106218539478505e+00	 2.047084339626188e-01	-1.053691474608596e+02
1	 1.102142547591368e+00	 2.256253638614272e-01	-1.066839752729858e+02
1	 1.097644368907272e+00	 2.465802900510737e-01	-1.072091044161425e+02
1	 1.092719507434896e+00	 2.675613539221362e-01	-1.070166045694133e+02
1	 1.087363878431055e+00	 2.885563999111739e-01	-1.061828121639770e+02
1	 1.081573827976446e+00	 3.095529917259612e-01	-1.047881667344085e+02
1	 1.075346151886618e+00	 3.305384299522137e-01	-1.029170201766103e+02
1	 1.068678113852559e+00	 3.514997710187806e-01	-1.006574189445628e+02
1	 1.061567462705179e+00	 3.724238474895377e-01	-9.810085943637695e+01
1	 1.054012448698681e+00	 3.932972896413123e-01	-9.534201704755156e+01
1	 1.046011838709305e+00	 4.141065482781622e-01	-9.247844960368360e+01
1	 1.118509856586275e+00	 2.069829721180270e-01	-8.751048221781706e+01
1	 1.114388575900822e+00	 2.281323123490921e-01	-8.964739815213778e+01
1	 1.109840417453845e+00	 2.493200710519664e-01	-9.105781622687317e+01
1	 1.104860835298564e+00	 2.705342578549000e-01	-9.179884766207880e+01
1	 1.099445699305754e+00	 2.917625821326358e-01	-9.193130941339759e+01
1	 1.093591314957006e+00	 3.129924694119225e-01	-9.151960337182504e+01
1	 1.087294442465818e+00	 3.342110791738725e-01	-9.063157276711993e+01
1	 1.080552315119742e+00	 3.554053240298770e-01	-8.933833569544731e+01
1	 1.073362656736697e+00	 3.765618902389651e-01	-8.771409587120530e+01
1	 1.065723698129263e+00	 3.976672595254847e-01	-8.583593089088473e+01
1	 1.057634192472302e+00	 4.187077321468711e-01	-8.378355849147896e+01
1	 1.130801173693560e+00	 2.092575102734646e-01	-7.128208973120573e+01
1	 1.126634604209704e+00	 2.306392608366003e-01	-7.408021460279272e+01
1	 1.122036465999790e+00	 2.520598520525441e-01	-7.621385066042930e+01
1	 1.117002163161574e+00	 2.735071617872195e-01	-7.772540502068938e+01
1	 1.111527520179795e+00	 2.949687643535529e-01	-7.866043837308140e+01
1	 1.105608801936938e+00	 3.164319470972682e-01	-7.906758643496067e+01
1	 1.099242733044450e+00	 3.378837283948746e-01	-7.899846284721809e+01
1	 1.092426516386447e+00	 3.593108770403062e-01	-7.850754332107161e+01
1	 1.085157850767857e+00	 3.806999329877463e-01	-7.765203098723545e+01
1	 1.077434947559639e+00	 4.020372294090629e-01	-7.649170304762976e+01
1	 1.069256546235278e+00	 4.233089160150696e-01	-7.508873898530912e+01
1	 1.143092490800359e+00	 2.115320484289315e-01	-5.663138055689273e+01
1	 1.138880632518016e+00	 2.331462093239517e-01	-5.993502483206078e+01
1	 1.134232514545106e+00	 2.547996330528071e-01	-6.263503601912910e+01
1	 1.129143491023926e+00	 2.764800657190944e-01	-6.475936328172014e+01
1	 1.123609341053178e+00	 2.981749465739247e-01	-6.633856576198666e+01
1	 1.117626288916241e+00	 3.198714247819978e-01	-6.740577571649132e+01
1	 1.111191023622513e+00	 3.415563776152200e-01	-6.799664727204276e+01
1	 1.104300717652674e+00	 3.632164300500684e-01	-6.814929050285345e+01
1	 1.096953044798661e+00	 3.848379757358811e-01	-6.790419063340578e+01
1	 1.089146196989810e+00	 4.064071992920468e-01	-6.730411228179889e+01
1	 1.080878899998233e+00	 4.279100998827580e-01	-6.639398877521703e+01
1	 1.155383807906674e+00	 2.138065865844276e-01	-4.350800309950534e+01
1	 1.151126660825756e+00	 2.356531578111465e-01	-4.716644605957217e+01
1	 1.146428563089792e+00	 2.575394140527553e-01	-5.028099514565986e+01
1	 1.141284818885619e+00	 2.794529696505251e-01	-5.286537986310346e+01
1	 1.135691161925902e+00	 3.013811287937518e-01	-5.493540439615811e+01
1	 1.129643775894916e+00	 3.233109024661115e-01	-5.650895186899189e+01
1	 1.123139314200007e+00	 3.452290268349085e-01	-5.760597834971226e+01
1	 1.116174918918422e+00	 3.671219830591637e-01	-5.824849619109008e+01
1	 1.108748238829107e+00	 3.889760184833697e-01	-5.846054636721110e+01
1	 1.100857446419777e+00	 4.107771691744366e-01	-5.826815953765902e+01
1	 1.092501253761168e+00	 4.325112837499361e-01	-5.769930564954160e+01
1	 1.167675125012503e+00	 2.160811247399532e-01	-3.186372583091294e+01
1	 1.163372689132924e+00	 2.381601062981845e-01	-3.573100635892074e+01
1	 1.158624611633849e+00	 2.602791950523886e-01	-3.911305097358303e+01
1	 1.153426146746654e+00	 2.824258735815113e-01	-4.200960029151884e+01
1	 1.147772982797968e+00	 3.045873110130340e-01	-4.442194234151086e+01
1	 1.141661262872963e+00	 3.267503801496095e-01	-4.635295741230958e+01
1	 1.135087604776933e+00	 3.489016760539403e-01	-4.780715671222026e+01
1	 1.128049120183692e+00	 3.710275360675916e-01	-4.879071432764803e+01
1	 1.120543432859196e+00	 3.931140612302118e-01	-4.931149199635795e+01
1	 1.112568695849540e+00	 4.151471390562321e-01	-4.937905624603393e+01
1	 1.104123607524082e+00	 4.371124676166038e-01	-4.900468748974432e+01
1	 1.179966442117847e+00	 2.183556628955082e-01	-2.165232687005512e+01
1	 1.175618717439522e+00	 2.406670547850658e-01	-2.558704513401694e+01
1	 1.170820660177278e+00	 2.630189760517072e-01	-2.909413798093232e+01
1	 1.165567474607031e+00	 2.853987775120529e-01	-3.215958069672789e+01
1	 1.159854803669377e+00	 3.077934932317711e-01	-3.477037649456506e+01
1	 1.153678749850381e+00	 3.301898578324914e-01	-3.691464142797629e+01
1	 1.147035895353290e+00	 3.525743252723154e-01	-3.858168713190059e+01
1	 1.139923321448485e+00	 3.749330890753527e-01	-3.976210077348576e+01
1	 1.132338626888928e+00	 3.972521039764076e-01	-4.044782158656590e+01
1	 1.124279945279097e+00	 4.195171089374333e-01	-4.063221336146322e+01
1	 1.115745961286976e+00	 4.417136514827613e-01	-4.031013226555908e+01
1	 1.192257759222705e+00	 2.206302010510924e-01	-1.282949039288282e+01
1	 1.187864745745548e+00	 2.431740032717905e-01	-1.669461975154360e+01
1	 1.183016708720077e+00	 2.657587570507109e-01	-2.018871912090910e+01
1	 1.177708802466750e+00	 2.883716814421504e-01	-2.328421510007336e+01
1	 1.171936624540126e+00	 3.109996754499633e-01	-2.595405027158903e+01
1	 1.165696236827171e+00	 3.336293355147576e-01	-2.817180767458481e+01
1	 1.158984185929078e+00	 3.562469744900338e-01	-2.991183707089385e+01
1	 1.151797522712798e+00	 3.788386420824467e-01	-3.114938228189609e+01
1	 1.144133820918304e+00	 4.013901467219569e-01	-3.186070882971112e+01
1	 1.135991194708451e+00	 4.238870788180404e-01	-3.202323107747424e+01
1	 1.127368315049849e+00	 4.463148353484084e-01	-3.161563803044216e+01
1	 1.204549076327078e+00	 2.229047392067060e-01	-5.352709384548824e+00
1	 1.200110774051002e+00	 2.456809517583584e-01	-9.015417889791356e+00
1	 1.195212757262247e+00	 2.684985380493998e-01	-1.236270783845378e+01
1	 1.189850130325810e+00	 2.913445853718033e-01	-1.535366715470376e+01
1	 1.184018445410218e+00	 3.142058576676106e-01	-1.794739511269317e+01
1	 1.177713723803332e+00	 3.370688131964078e-01	-2.010316587977517e+01
1	 1.170932476504299e+00	 3.599196237070955e-01	-2.178059776840173e+01
1	 1.163671723976633e+00	 3.827441950888736e-01	-2.293982737134614e+01
1	 1.155929014947322e+00	 4.055281894668601e-01	-2.354168767514495e+01
1	 1.147702444137599e+00	 4.282570486980532e-01	-2.354788917153201e+01
1	 1.138990668812702e+00	 4.509160192135453e-01	-2.292120291730050e+01
1	 1.216840393430966e+00	 2.251792773623488e-01	 8.188057145952996e-01
1	 1.212356802355885e+00	 2.481879002447696e-01	-2.512675199686491e+00
1	 1.207408805803788e+00	 2.712383190477738e-01	-5.583394813085473e+00
1	 1.201991458184212e+00	 2.943174893010117e-01	-8.339306022753426e+00
1	 1.196100266279652e+00	 3.174120398847128e-01	-1.072587553112980e+01
1	 1.189731210778864e+00	 3.405082908774421e-01	-1.268828598422161e+01
1	 1.182880767078950e+00	 3.635922729235002e-01	-1.417164768628983e+01
1	 1.175545925239990e+00	 3.866497480946335e-01	-1.512121896359965e+01
1	 1.167724208975982e+00	 4.096662322111168e-01	-1.548263413487179e+01
1	 1.159413693566543e+00	 4.326270185774718e-01	-1.520213793514310e+01
1	 1.150613022575534e+00	 4.555172030781720e-01	-1.422682513447931e+01
1	 1.229131710534368e+00	 2.274538155180211e-01	 5.724212881761638e+00
1	 1.224602830660197e+00	 2.506948487310240e-01	 2.848902093842771e+00
1	 1.219604854344699e+00	 2.739781000458331e-01	 1.806209028281636e-01
1	 1.214132786041956e+00	 2.972903932297759e-01	-2.213646099892497e+00
1	 1.208182087148427e+00	 3.206182221012702e-01	-4.265937459635364e+00
1	 1.201748697753769e+00	 3.439477685578606e-01	-5.907555130980484e+00
1	 1.194829057653032e+00	 3.672649221392482e-01	-7.069318147954185e+00
1	 1.187420126502869e+00	 3.905553010997262e-01	-7.681828663552253e+00
1	 1.179519403004286e+00	 4.138042749547273e-01	-7.675749180416691e+00
1	 1.171124942995283e+00	 4.369969884562962e-01	-6.982089648153984e+00
1	 1.162235376338345e+00	 4.601183869422883e-01	-5.532502961989909e+00
1	 1.046011838709305e+00	 4.141065482781622e-01	-9.247844960368360e+01
1	 1.037564930248593e+00	 4.348379187240830e-01	-9.750809734287736e+01
1	 1.028671564192235e+00	 4.554775659241303e-01	-1.021857308230658e+02
1	 1.019332136131226e+00	 4.760115505788748e-01	-1.064732272909833e+02
1	 1.009547606256940e+00	 4.964258562287497e-01	-1.103328532388893e+02
1	 9.993195076959104e-01	 5.167064171925492e-01	-1.137274239144611e+02
1	 9.886499532180107e-01	 5.368391472596017e-01	-1.166204643623495e+02
1	 9.775416402487633e-01	 5.568099690270316e-01	-1.189763709927234e+02
1	 9.659978541247000e-01	 5.766048437667730e-01	-1.207605726358013e+02
1	 9.540224695395332e-01	 5.962098017009265e-01	-1.219396900143005e+02
1	 9.416199501384250e-01	 6.156109725587411e-01	-1.224816925485813e+02
1	 1.057634192472302e+00	 4.187077321468711e-01	-8.378355849147896e+01
1	 1.049093429472079e+00	 4.396694511529656e-01	-8.846996768465006e+01
1	 1.040101248236386e+00	 4.605384277660148e-01	-9.283985570382225e+01
1	 1.030658048751678e+00	 4.813005678054846e-01	-9.685903890987889e+01
1	 1.020764801878120e+00	 5.019416990733694e-01	-1.004936775414247e+02
1	 1.010423057776990e+00	 5.224475996031163e-01	-1.037104183052638e+02
1	 9.996349526933814e-01	 5.428040266706026e-01	-1.064765383618237e+02
1	 9.884032140242147e-01	 5.629967464573652e-01	-1.087600898088688e+02
1	 9.767311636097610e-01	 5.830115642494709e-01	-1.105300437341927e+02
1	 9.646227191958864e-01	 6.028343550492662e-01	-1.117564328835823e+02
1	 9.520823940238123e-01	 6.224510944718811e-01	-1.124104919747871e+02
1	 1.069256546235278e+00	 4.233089160150696e-01	-7.508873898530912e+01
1	 1.060621928695730e+00	 4.445009835814379e-01	-7.946558166770747e+01
1	 1.051530932280860e+00	 4.655992896075891e-01	-8.356080159883152e+01
1	 1.041983961372580e+00	 4.865895850318852e-01	-8.734408693152039e+01
1	 1.031981997499850e+00	 5.074575419178803e-01	-9.078542479921047e+01
1	 1.021526607858687e+00	 5.281887820136757e-01	-9.385522723019274e+01
1	 1.010619952169409e+00	 5.487689060816964e-01	-9.652445832272494e+01
1	 9.992647878003310e-01	 5.691835238878922e-01	-9.876476189090300e+01
1	 9.874644730954648e-01	 5.894182847324629e-01	-1.005485887621730e+02
1	 9.752229688528294e-01	 6.094589083980005e-01	-1.018493228855898e+02
1	 9.625448379097046e-01	 6.292912163855157e-01	-1.026414053959465e+02
1	 1.080878899998233e+00	 4.279100998827580e-01	-6.639398877521703e+01
1	 1.072150427919546e+00	 4.493325160095001e-01	-7.049385078742284e+01
1	 1.062960616325657e+00	 4.706601514488539e-01	-7.434641299145122e+01
1	 1.053309873993932e+00	 4.918786022580766e-01	-7.792517018158802e+01
1	 1.043199193122128e+00	 5.129733847622828e-01	-8.120387169108767e+01
1	 1.032630157941003e+00	 5.339299644242272e-01	-8.415663086556206e+01
1	 1.021604951646094e+00	 5.547337854928831e-01	-8.675803566566647e+01
1	 1.010126361577113e+00	 5.753703013186130e-01	-8.898325971415420e+01
1	 9.981977825818115e-01	 5.958250052157493e-01	-9.080817307690774e+01
1	 9.858232185103620e-01	 6.160834617471294e-01	-9.220945204837872e+01
1	 9.730072817961023e-01	 6.361313382996451e-01	-9.316468719942344e+01
1	 1.092501253761168e+00	 4.325112837499361e-01	-5.769930564954160e+01
1	 1.083678927143527e+00	 4.541640484371521e-01	-6.155373285851539e+01
1	 1.074390300370775e+00	 4.757210132898089e-01	-6.519462608915106e+01
1	 1.064635786615735e+00	 4.971676194840585e-01	-6.859922370594444e+01
1	 1.054416388744956e+00	 5.184892276065766e-01	-7.174497461169022e+01
1	 1.043733708023937e+00	 5.396711468347709e-01	-7.460963150784025e+01
1	 1.032589951123436e+00	 5.606986649041628e-01	-7.717134515506172e+01
1	 1.020987935354560e+00	 5.815570787495272e-01	-7.940875905286758e+01
1	 1.008931092068801e+00	 6.022317256993295e-01	-8.130110393525142e+01
1	 9.964234681684848e-01	 6.227080150966529e-01	-8.282829146263244e+01
1	 9.834697256830054e-01	 6.429714602142690e-01	-8.397100647949195e+01
1	 1.104123607524082e+00	 4.371124676166038e-01	-4.900468748974432e+01
1	 1.095207426367674e+00	 4.589955808643940e-01	-5.264422957718927e+01
1	 1.085819984416216e+00	 4.807818751304540e-01	-5.610346399592785e+01
1	 1.075961699237989e+00	 5.024566367098313e-01	-5.936331160115237e+01
1	 1.065633584368334e+00	 5.240050704507618e-01	-6.240486021271828e+01
1	 1.054837258107488e+00	 5.454123292453066e-01	-6.520944188311586e+01
1	 1.043574950601434e+00	 5.666635443155353e-01	-6.775871103892423e+01
1	 1.031849509132672e+00	 5.877438561806352e-01	-7.003472301710519e+01
1	 1.019664401556434e+00	 6.086384461832040e-01	-7.202001249902712e+01
1	 1.007023717827197e+00	 6.293325684465709e-01	-7.369767133099776e+01
1	 9.939321695704136e-01	 6.498115821293877e-01	-7.505142521065758e+01
1	 1.115745961286976e+00	 4.417136514827613e-01	-4.031013226555908e+01
1	 1.106735925591986e+00	 4.638271132912256e-01	-4.376438423564019e+01
1	 1.097249668461980e+00	 4.858427369707892e-01	-4.707103218644461e+01
1	 1.087287611860693e+00	 5.077456539353947e-01	-5.021462029308318e+01
1	 1.076850779992260e+00	 5.295209132948384e-01	-5.317981653538301e+01
1	 1.065940808191658e+00	 5.511535116558346e-01	-5.595147418722154e+01
1	 1.054559950080090e+00	 5.726284237270007e-01	-5.851469405493065e+01
1	 1.042711082911450e+00	 5.939306336119368e-01	-6.085488708733875e+01
1	 1.030397711044709e+00	 6.150451666673727e-01	-6.295783696497595e+01
1	 1.017623967486499e+00	 6.359571217968834e-01	-6.480976226433752e+01
1	 1.004394613458327e+00	 6.566517040450012e-01	-6.639737778514593e+01
1	 1.127368315049849e+00	 4.463148353484084e-01	-3.161563803044216e+01
1	 1.118264424816463e+00	 4.686586457176470e-01	-3.491327957793180e+01
1	 1.108679352508066e+00	 4.909035988108147e-01	-3.809551426012016e+01
1	 1.098613524483847e+00	 5.130346711607490e-01	-4.115045223128297e+01
1	 1.088067975616736e+00	 5.350367561388065e-01	-4.406628469135984e+01
1	 1.077044358276446e+00	 5.568946940663547e-01	-4.683132980378847e+01
1	 1.065544949559402e+00	 5.785933031385589e-01	-4.943407924023182e+01
1	 1.053572656690893e+00	 6.001174110434317e-01	-5.186324507473820e+01
1	 1.041131020533627e+00	 6.214518871518355e-01	-5.410780673821573e+01
1	 1.028224217146390e+00	 6.425816751475903e-01	-5.615705773491514e+01
1	 1.014857057346746e+00	 6.634918259611092e-01	-5.800065181611301e+01
1	 1.138990668812702e+00	 4.509160192135453e-01	-2.292120291730050e+01
1	 1.129792924041105e+00	 4.734901781436583e-01	-2.609003578714550e+01
1	 1.120109036554474e+00	 4.959644606505302e-01	-2.917516795517217e+01
1	 1.109939437107452e+00	 5.183236883858939e-01	-3.216821996939721e+01
1	 1.099285171241760e+00	 5.405525989826659e-01	-3.506085105307071e+01
1	 1.088147908361853e+00	 5.626358764768669e-01	-3.784478965180796e+01
1	 1.076529949039371e+00	 5.845581825502102e-01	-4.051186448760221e+01
1	 1.064434230471001e+00	 6.063041884751205e-01	-4.305403594103402e+01
1	 1.051864330023189e+00	 6.278586076365928e-01	-4.546342757467063e+01
1	 1.038824466806871e+00	 6.492062284986921e-01	-4.773235760387506e+01
1	 1.025319501235670e+00	 6.703319478777121e-01	-4.985337011616985e+01
1	 1.150613022575534e+00	 4.555172030781720e-01	-1.422682513447931e+01
1	 1.141321423265912e+00	 4.783217105692595e-01	-1.729380859452073e+01
1	 1.131538720601204e+00	 5.010253224899361e-01	-2.030832140423333e+01
1	 1.121265349731507e+00	 5.236127056108295e-01	-2.326544060435767e+01
1	 1.110502366867334e+00	 5.460684418264167e-01	-2.616023991728300e+01
1	 1.099251458447877e+00	 5.683770588873712e-01	-2.898780511818895e+01
1	 1.087514948519997e+00	 5.905230619619543e-01	-3.174324979515633e+01
1	 1.075295804251774e+00	 6.124909659070027e-01	-3.442173141717623e+01
1	 1.062597639513394e+00	 6.342653281216439e-01	-3.701846762396023e+01
1	 1.049424716467942e+00	 6.558307818501883e-01	-3.952875264705680e+01
1	 1.035781945125100e+00	 6.771720697948095e-01	-4.194797376811768e+01
1	 1.162235376338345e+00	 4.601183869422883e-01	-5.532502961989909e+00
1	 1.152849922490885e+00	 4.831532429944503e-01	-8.523787502047480e+00
1	 1.142968404648257e+00	 5.060861843290319e-01	-1.149336961463074e+01
1	 1.132591262356013e+00	 5.289017228355558e-01	-1.443973054921812e+01
1	 1.121719562493458e+00	 5.515842846700590e-01	-1.736130660889230e+01
1	 1.110355008534519e+00	 5.741182412978676e-01	-2.025648953436256e+01
1	 1.098499948001281e+00	 5.964879413737912e-01	-2.312362716108133e+01
1	 1.086157378033213e+00	 6.186777433390787e-01	-2.596102436487357e+01
1	 1.073330949004241e+00	 6.406720486069893e-01	-2.876694430971496e+01
1	 1.060024966129602e+00	 6.624553352020790e-01	-3.153961000926085e+01
1	 1.046244389015035e+00	 6.840121917124017e-01	-3.427720621143857e+01
1	 9.416199501384250e-01	 6.156109725587411e-01	-1.224816925485813e+02
1	 9.287953462274744e-01	 6.347946162837050e-01	-1.168184017210912e+02
1	 9.155542905770797e-01	 6.537471537568762e-01	-1.114794667480183e+02
1	 9.019029923075504e-01	 6.724551973985354e-01	-1.065168825342314e+02
1	 8.878482288567273e-01	 6.909055815084219e-01	-1.019814886125980e+02
1	 8.733973360420002e-01	 7.090853922058951e-01	-9.792274469141981e+01
1	 8.585581962397351e-01	 7.269819968306050e-01	-9.438851130872757e+01
1	 8.433392247169470e-01	 7.445830726661317e-01	-9.142483712406612e+01
1	 8.277493541614975e-01	 7.618766348516912e-01	-8.907575434023232e+01
1	 8.117980174683143e-01	 7.788510633507310e-01	-8.738308369348502e+01
1	 7.954951288500001e-01	 7.954951288500001e-01	-8.638625038149820e+01
1	 9.520823940238123e-01	 6.224510944718811e-01	-1.124104919747871e+02
1	 9.391152945140595e-01	 6.418478897935279e-01	-1.074798977452316e+02
1	 9.257271160232740e-01	 6.610110110161846e-01	-1.028213941586489e+02
1	 9.119241366619902e-01	 6.799269218092460e-01	-9.848204718797875e+01
1	 8.977132091729143e-01	 6.985823101868938e-01	-9.450795181446918e+01
1	 8.831017508825175e-01	 7.169641187809249e-01	-9.094402908082637e+01
1	 8.680977317491259e-01	 7.350595745680968e-01	-8.783382737466842e+01
1	 8.527096605427205e-01	 7.528562179129182e-01	-8.521932932487670e+01
1	 8.369465692032501e-01	 7.703419307894854e-01	-8.314076566215559e+01
1	 8.208179954355866e-01	 7.875049640497287e-01	-8.163643734957870e+01
1	 8.043339636102501e-01	 8.043339636102501e-01	-8.074254722950803e+01
1	 9.625448379097046e-01	 6.292912163855157e-01	-1.026414053959465e+02
1	 9.494352428010591e-01	 6.489011633039358e-01	-9.840194392865286e+01
1	 9.358999414698121e-01	 6.682748682761483e-01	-9.438361776217268e+01
1	 9.219452810167237e-01	 6.873986462206629e-01	-9.062864794833391e+01
1	 9.075781894893646e-01	 7.062590388661032e-01	-8.717846602684982e+01
1	 8.928061657232872e-01	 7.248428453567026e-01	-8.407353226785943e+01
1	 8.776372672587778e-01	 7.431371523063274e-01	-8.135315728044792e+01
1	 8.620800963687846e-01	 7.611293631604144e-01	-7.905532822375143e+01
1	 8.461437842453429e-01	 7.788072267279392e-01	-7.721654083276536e+01
1	 8.298379734032688e-01	 7.961588647493163e-01	-7.587163843374513e+01
1	 8.131727983709998e-01	 8.131727983709998e-01	-7.505365907441865e+01
1	 9.730072817961023e-01	 6.361313382996451e-01	-9.316468719942344e+01
1	 9.597551910884740e-01	 6.559544368149283e-01	-8.957613542758580e+01
1	 9.460727669166951e-01	 6.755387255367674e-01	-8.615903122984436e+01
1	 9.319664253717509e-01	 6.948703706327861e-01	-8.295083203770650e+01
1	 9.174431698060769e-01	 7.139357675460493e-01	-7.998838444297971e+01
1	 9.025105805643084e-01	 7.327215719332285e-01	-7.730776332358633e+01
1	 8.871768027686909e-01	 7.512147300452967e-01	-7.494411348286485e+01
1	 8.714505321951391e-01	 7.694025084086192e-01	-7.293149489496440e+01
1	 8.553409992877762e-01	 7.872725226670531e-01	-7.130273263115529e+01
1	 8.388579513713611e-01	 8.048127654494942e-01	-7.008927251284180e+01
1	 8.220116331322499e-01	 8.220116331322499e-01	-6.932104349699772e+01
1	 9.834697256830054e-01	 6.429714602142690e-01	-8.397100647949195e+01
1	 9.700751393763041e-01	 6.630077103265059e-01	-8.099442505118006e+01
1	 9.562455923639225e-01	 6.828025827980423e-01	-7.814083062988185e+01
1	 9.419875697270718e-01	 7.023420950456155e-01	-7.544299573286867e+01
1	 9.273081501230523e-01	 7.216124962267327e-01	-7.293325799255575e+01
1	 9.122149954055820e-01	 7.406002985105027e-01	-7.064337986924198e+01
1	 8.967163382788652e-01	 7.592923077850046e-01	-6.860441003630146e+01
1	 8.808209680217846e-01	 7.776756536575339e-01	-6.684654738835330e+01
1	 8.645382143305497e-01	 7.957378186068262e-01	-6.539900861177691e+01
1	 8.478779293398637e-01	 8.134666661502616e-01	-6.428990023598644e+01
1	 8.308504678940001e-01	 8.308504678940001e-01	-6.354609605329796e+01
1	 9.939321695704136e-01	 6.498115821293877e-01	-7.505142521065758e+01
1	 9.803950876645493e-01	 6.700609838386684e-01	-7.264910443766739e+01
1	 9.664184178114943e-01	 6.900664400599723e-01	-7.032249851183714e+01
1	 9.520087140826864e-01	 7.098138194591513e-01	-6.809977125683153e+01
1	 9.371731304402908e-01	 7.292892249081534e-01	-6.600882493454930e+01
1	 9.219194102471076e-01	 7.484790250885244e-01	-6.407718025779847e+01
1	 9.062558737893012e-01	 7.673698855254514e-01	-6.233185724548194e+01
1	 8.901914038487204e-01	 7.859487989071573e-01	-6.079925773060504e+01
1	 8.737354293736630e-01	 8.042031145472591e-01	-5.950505032678927e+01
1	 8.568979073087760e-01	 8.221205668516193e-01	-5.847405864601843e+01
1	 8.396893026562502e-01	 8.396893026562502e-01	-5.773015353911577e+01
1	 1.004394613458327e+00	 6.566517040450012e-01	-6.639737778514593e+01
1	 9.907150359532092e-01	 6.771142573514157e-01	-6.453278640701321e+01
1	 9.765912432594107e-01	 6.973302973225582e-01	-6.269778898569331e+01
1	 9.620298584385946e-01	 7.172855438733935e-01	-6.091601448997826e+01
1	 9.470381107577920e-01	 7.369659535903109e-01	-5.921100110047395e+01
1	 9.316238250888850e-01	 7.563577516672941e-01	-5.760609624418733e+01
1	 9.157954092999983e-01	 7.754474632666368e-01	-5.612435665243449e+01
1	 8.995618396759473e-01	 7.942219441574904e-01	-5.478844911396195e+01
1	 8.829326444171172e-01	 8.126684104883521e-01	-5.362055259701179e+01
1	 8.659178852780987e-01	 8.307744675535668e-01	-5.264226240899101e+01
1	 8.485281374190000e-01	 8.485281374190000e-01	-5.187449705042125e+01
1	 1.014857057346746e+00	 6.634918259611092e-01	-5.800065181611301e+01
1	 1.001034984242285e+00	 6.841675308647481e-01	-5.663838840515817e+01
1	 9.867640687076716e-01	 7.045941545857993e-01	-5.526071372390460e+01
1	 9.720510027947967e-01	 7.247572682883416e-01	-5.388679344133431e+01
1	 9.569030910755562e-01	 7.446426822732061e-01	-5.253587074116125e+01
1	 9.413282399309146e-01	 7.642364782468121e-01	-5.122718610891012e+01
1	 9.253349448109566e-01	 7.835250410085610e-01	-4.997989633353677e+01
1	 9.089322755034644e-01	 8.024950894085326e-01	-4.881299325882153e+01
1	 8.921298594609115e-01	 8.211337064301045e-01	-4.774522282797238e+01
1	 8.749378632478313e-01	 8.394283682561041e-01	-4.679500496761517e+01
1	 8.573669721822499e-01	 8.573669721822500e-01	-4.598035485448366e+01
1	 1.025319501235670e+00	 6.703319478777121e-01	-4.985337011616985e+01
1	 1.011354932531775e+00	 6.912208043786654e-01	-4.895911696187611e+01
1	 9.969368941562768e-01	 7.118580118496960e-01	-4.800552882045410e+01
1	 9.820721471512923e-01	 7.322289927039963e-01	-4.700737742567664e+01
1	 9.667680713935828e-01	 7.523194109568380e-01	-4.597967793393889e+01
1	 9.510326547731961e-01	 7.721152048270781e-01	-4.493762820265158e+01
1	 9.348744803221760e-01	 7.916026187512237e-01	-4.389654648449867e+01
1	 9.183027113312726e-01	 8.107682346602844e-01	-4.287180793781046e+01
1	 9.013270745050462e-01	 8.295990023725169e-01	-4.187878036783073e+01
1	 8.839578412179739e-01	 8.480822689592314e-01	-4.093275962408234e+01
1	 8.662058069460000e-01	 8.662058069460000e-01	-4.004890508521287e+01
1	 1.035781945125100e+00	 6.771720697948095e-01	-4.194797376811768e+01
1	 1.021674880821681e+00	 6.982740778931678e-01	-4.148845309058136e+01
1	 1.007109719605227e+00	 7.191218691142480e-01	-4.092672244633269e+01
1	 9.920932915080820e-01	 7.397007171203575e-01	-4.027322689657785e+01
1	 9.766330517118729e-01	 7.599961396412075e-01	-3.953881851058475e+01
1	 9.607370696157297e-01	 7.799939314080919e-01	-3.873471488212994e+01
1	 9.444140158336568e-01	 7.996801964946254e-01	-3.787245527292037e+01
1	 9.276731471593713e-01	 8.190413799127453e-01	-3.696385464991442e+01
1	 9.105242895495208e-01	 8.380642983155886e-01	-3.602095590421502e+01
1	 8.929778191885266e-01	 8.567361696629487e-01	-3.505598055726297e+01
1	 8.750446417102501e-01	 8.750446417102501e-01	-3.408127827514785e+01
1	 1.046244389015035e+00	 6.840121917124017e-01	-3.427720621143857e+01
1	 1.031994829112001e+00	 7.053273514082546e-01	-3.422013856414684e+01
1	 1.017282545054521e+00	 7.263857263794559e-01	-3.401900324568793e+01
1	 1.002114435865165e+00	 7.471724415374245e-01	-3.367998388946530e+01
1	 9.864980320304253e-01	 7.676728683263137e-01	-3.320983246960527e+01
1	 9.704414844585151e-01	 7.878726579898537e-01	-3.261584680979382e+01
1	 9.539535513453987e-01	 8.077577742387658e-01	-3.190584493969898e+01
1	 9.370435829877606e-01	 8.273145251659155e-01	-3.108813643416014e+01
1	 9.197215045943361e-01	 8.465295942593203e-01	-3.017149089724831e+01
1	 9.019977971594894e-01	 8.653900703672559e-01	-2.916510377887229e+01
1	 8.838834764750000e-01	 8.838834764750000e-01	-2.807855973552482e+01
1	 7.954951288500001e-01	 7.954951288500001e-01	-8.638625038149820e+01
1	 7.788510633507308e-01	 8.117980174683144e-01	-8.375374875995922e+01
1	 7.618766348516911e-01	 8.277493541614976e-01	-8.055468349316166e+01
1	 7.445830726661320e-01	 8.433392247169471e-01	-7.679053632372752e+01
1	 7.269819968306053e-01	 8.585581962397351e-01	-7.246511289532297e+01
1	 7.090853922058953e-01	 8.733973360420000e-01	-6.758452309725317e+01
1	 6.909055815084221e-01	 8.878482288567272e-01	-6.215714901958407e+01
1	 6.724551973985359e-01	 9.019029923075501e-01	-5.619360080006747e+01
1	 6.537471537568769e-01	 9.155542905770793e-01	-4.970666074372173e+01
1	 6.347946162837055e-01	 9.287953462274742e-01	-4.271121619069698e+01
1	 6.156109725587411e-01	 9.416199501384250e-01	-3.522418169690798e+01
1	 8.043339636102501e-01	 8.043339636102501e-01	-8.074254722950803e+01
1	 7.875049640497286e-01	 8.208179954355866e-01	-7.790564553372349e+01
1	 7.703419307894857e-01	 8.369465692032504e-01	-7.460576549120680e+01
1	 7.528562179129183e-01	 8.527096605427203e-01	-7.084518325773919e+01
1	 7.350595745680969e-01	 8.680977317491256e-01	-6.662811510864196e+01
1	 7.169641187809250e-01	 8.831017508825173e-01	-6.196069735397401e+01
1	 6.985823101868941e-01	 8.977132091729141e-01	-5.685095589534458e+01
1	 6.799269218092464e-01	 9.119241366619899e-01	-5.130876568266417e+01
1	 6.610110110161852e-01	 9.257271160232733e-01	-4.534580041223585e+01
1	 6.418478897935284e-01	 9.391152945140590e-01	-3.897547288642284e+01
1	 6.224510944718810e-01	 9.520823940238121e-01	-3.221286652879091e+01
1	 8.131727983709998e-01	 8.131727983709998e-01	-7.505365907441865e+01
1	 7.961588647493163e-01	 8.298379734032689e-01	-7.202166631092030e+01
1	 7.788072267279395e-01	 8.461437842453429e-01	-6.862805355501484e+01
1	 7.611293631604142e-01	 8.620800963687844e-01	-6.487587986965602e+01
1	 7.431371523063276e-01	 8.776372672587778e-01	-6.076976642765574e+01
1	 7.248428453567030e-01	 8.928061657232867e-01	-5.631587599992088e+01
1	 7.062590388661033e-01	 9.075781894893641e-01	-5.152188408863904e+01
1	 6.873986462206633e-01	 9.219452810167234e-01	-4.639694194110987e+01
1	 6.682748682761487e-01	 9.358999414698115e-01	-4.095163174671082e+01
1	 6.489011633039364e-01	 9.494352428010588e-01	-3.519791438258780e+01
1	 6.292912163855158e-01	 9.625448379097047e-01	-2.914907013232773e+01
1	 8.220116331322499e-01	 8.220116331322499e-01	-6.932104349699772e+01
1	 8.048127654494940e-01	 8.388579513713611e-01	-6.610296838178080e+01
1	 7.872725226670528e-01	 8.553409992877761e-01	-6.262247652119307e+01
1	 7.694025084086196e-01	 8.714505321951391e-01	-5.888339875053303e+01
1	 7.512147300452968e-01	 8.871768027686908e-01	-5.489075559091123e+01
1	 7.327215719332288e-01	 9.025105805643083e-01	-5.065073631288212e+01
1	 7.139357675460497e-01	 9.174431698060764e-01	-4.617067162150273e+01
1	 6.948703706327866e-01	 9.319664253717506e-01	-4.145900017619992e+01
1	 6.755387255367677e-01	 9.460727669166946e-01	-3.652522920954375e+01
1	 6.559544368149288e-01	 9.597551910884736e-01	-3.137988955659319e+01
1	 6.361313382996451e-01	 9.730072817961023e-01	-2.603448545034599e+01
1	 8.308504678940001e-01	 8.308504678940001e-01	-6.354609605329796e+01
1	 8.134666661502615e-01	 8.478779293398638e-01	-6.015065979014270e+01
1	 7.957378186068262e-01	 8.645382143305497e-01	-5.658992370138579e+01
1	 7.776756536575337e-01	 8.808209680217844e-01	-5.286847961520951e+01
1	 7.592923077850048e-01	 8.967163382788653e-01	-4.899174202893184e+01
1	 7.406002985105028e-01	 9.122149954055819e-01	-4.496592675031482e+01
1	 7.216124962267330e-01	 9.273081501230521e-01	-4.079802511077840e+01
1	 7.023420950456158e-01	 9.419875697270713e-01	-3.649577394188788e+01
1	 6.828025827980426e-01	 9.562455923639220e-01	-3.206762154132809e+01
1	 6.630077103265065e-01	 9.700751393763041e-01	-2.752268988680316e+01
1	 6.429714602142689e-01	 9.834697256830051e-01	-2.287073338555468e+01
1	 8.396893026562502e-01	 8.396893026562502e-01	-5.773015353911577e+01
1	 8.221205668516191e-01	 8.568979073087760e-01	-5.416580192536497e+01
1	 8.042031145472591e-01	 8.737354293736630e-01	-5.053124696253622e+01
1	 7.859487989071573e-01	 8.901914038487202e-01	-4.683183103263710e+01
1	 7.673698855254515e-01	 9.062558737893011e-01	-4.307335740674545e+01
1	 7.484790250885247e-01	 9.219194102471072e-01	-3.926206846620443e+01
1	 7.292892249081535e-01	 9.371731304402904e-01	-3.540462142102065e+01
1	 7.098138194591518e-01	 9.520087140826861e-01	-3.150806169511929e+01
1	 6.900664400599729e-01	 9.664184178114940e-01	-2.757979416726492e+01
1	 6.700609838386691e-01	 9.803950876645489e-01	-2.362755247354627e+01
1	 6.498115821293877e-01	 9.939321695704137e-01	-1.965936659212962e+01
1	 8.485281374190000e-01	 8.485281374190000e-01	-5.187449705042125e+01
1	 8.307744675535665e-01	 8.659178852780989e-01	-4.814941195224959e+01
1	 8.126684104883521e-01	 8.829326444171173e-01	-4.444726267713119e+01
1	 7.942219441574904e-01	 8.995618396759469e-01	-4.077413204806038e+01
1	 7.754474632666368e-01	 9.157954092999980e-01	-3.713620707000354e+01
1	 7.563577516672944e-01	 9.316238250888849e-01	-3.353975673311981e+01
1	 7.369659535903115e-01	 9.470381107577917e-01	-2.999110921409466e+01
1	 7.172855438733938e-01	 9.620298584385945e-01	-2.649662862380020e+01
1	 6.973302973225586e-01	 9.765912432594104e-01	-2.306269145317230e+01
1	 6.771142573514164e-01	 9.907150359532090e-01	-1.969566287130564e+01
1	 6.566517040450012e-01	 1.004394613458327e+00	-1.640187303032399e+01
1	 8.573669721822499e-01	 8.573669721822500e-01	-4.598035485448366e+01
1	 8.394283682561042e-01	 8.749378632478314e-01	-4.210246509065715e+01
1	 8.211337064301045e-01	 8.921298594609115e-01	-3.833875355281209e+01
1	 8.024950894085328e-01	 9.089322755034644e-01	-3.469603370485812e+01
1	 7.835250410085610e-01	 9.253349448109562e-01	-3.118087140164989e+01
1	 7.642364782468123e-01	 9.413282399309145e-01	-2.779956227630792e+01
1	 7.446426822732063e-01	 9.569030910755558e-01	-2.455811040292261e+01
1	 7.247572682883421e-01	 9.720510027947962e-01	-2.146220836169685e+01
1	 7.045941545857998e-01	 9.867640687076713e-01	-1.851721882194845e+01
1	 6.841675308647487e-01	 1.001034984242284e+00	-1.572815774572002e+01
1	 6.634918259611091e-01	 1.014857057346746e+00	-1.309967930120668e+01
1	 8.662058069460000e-01	 8.662058069460000e-01	-4.004890508521287e+01
1	 8.480822689592312e-01	 8.839578412179739e-01	-3.602589675555534e+01
1	 8.295990023725168e-01	 9.013270745050461e-01	-3.220647034996922e+01
1	 8.107682346602842e-01	 9.183027113312724e-01	-2.859816047320979e+01
1	 7.916026187512240e-01	 9.348744803221758e-01	-2.520790709552872e+01
1	 7.721152048270784e-01	 9.510326547731961e-01	-2.204203252610730e+01
1	 7.523194109568384e-01	 9.667680713935827e-01	-1.910622151622609e+01
1	 7.322289927039969e-01	 9.820721471512921e-01	-1.640550459834052e+01
1	 7.118580118496967e-01	 9.969368941562767e-01	-1.394424474045578e+01
1	 6.912208043786661e-01	 1.011354932531775e+00	-1.172612736791371e+01
1	 6.703319478777120e-01	 1.025319501235670e+00	-9.754153777233217e+00
1	 8.750446417102501e-01	 8.750446417102501e-01	-3.408127827514785e+01
1	 8.567361696629487e-01	 8.929778191885266e-01	-2.992060456736684e+01
1	 8.380642983155886e-01	 9.105242895495208e-01	-2.605113349523926e+01
1	 8.190413799127454e-01	 9.276731471593713e-01	-2.248111159217573e+01
1	 7.996801964946257e-01	 9.444140158336568e-01	-1.921784835280387e+01
1	 7.799939314080920e-01	 9.607370696157294e-01	-1.626769279445933e+01
1	 7.599961396412075e-01	 9.766330517118722e-01	-1.363601498055616e+01
1	 7.397007171203579e-01	 9.920932915080817e-01	-1.132719259136216e+01
1	 7.191218691142488e-01	 1.007109719605227e+00	-9.344602585986728e+00
1	 6.982740778931683e-01	 1.021674880821680e+00	-7.690617957652864e+00
1	 6.771720697948095e-01	 1.035781945125100e+00	-6.366609543084311e+00
1	 8.838834764750000e-01	 8.838834764750000e-01	-2.807855973552482e+01
1	 8.653900703672558e-01	 9.019977971594894e-01	-2.378745024169702e+01
1	 8.465295942593203e-01	 9.197215045943362e-01	-1.987343459819296e+01
1	 8.273145251659157e-01	 9.370435829877607e-01	-1.634546233125443e+01
1	 8.077577742387659e-01	 9.539535513453987e-01	-1.321120800659192e+01
1	 7.878726579898540e-01	 9.704414844585149e-01	-1.047704738082740e+01
1	 7.676728683263140e-01	 9.864980320304252e-01	-8.148040325402130e+00
1	 7.471724415374250e-01	 1.002114435865165e+00	-6.227920588087969e+00
1	 7.263857263794565e-01	 1.017282545054521e+00	-4.719092400742580e+00
1	 7.053273514082554e-01	 1.031994829112000e+00	-3.622633885914283e+00
1	 6.840121917124017e-01	 1.046244389015035e+00	-2.938307160054370e+00
1	 6.156109725587411e-01	 9.416199501384250e-01	-3.522418169690798e+01
1	 5.962098017009264e-01	 9.540224695395332e-01	-2.557050867141974e+01
1	 5.766048437667730e-01	 9.659978541247000e-01	-1.825039337138529e+01
1	 5.568099690270316e-01	 9.775416402487633e-01	-1.326356633323177e+01
1	 5.368391472596018e-01	 9.886499532180105e-01	-1.060186850380805e+01
1	 5.167064171925495e-01	 9.993195076959103e-01	-1.024942142375266e+01
1	 4.964258562287501e-01	 1.009547606256940e+00	-1.218283325220986e+01
1	 4.760115505788752e-01	 1.019332136131226e+00	-1.637143846627269e+01
1	 4.554775659241308e-01	 1.028671564192235e+00	-2.277756885642292e+01
1	 4.348379187240837e-01	 1.037564930248593e+00	-3.135685325696388e+01
1	 4.141065482781622e-01	 1.046011838709305e+00	-4.205854329913795e+01
1	 6.224510944718810e-01	 9.520823940238121e-01	-3.221286652879091e+01
1	 6.028343550492661e-01	 9.646227191958865e-01	-2.331464393915685e+01
1	 5.830115642494710e-01	 9.767311636097610e-01	-1.656013929830482e+01
1	 5.629967464573653e-01	 9.884032140242146e-01	-1.195149683229582e+01
1	 5.428040266706029e-01	 9.996349526933817e-01	-9.483586043021365e+00
1	 5.224475996031166e-01	 1.010423057776989e+00	-9.144148505165248e+00
1	 5.019416990733697e-01	 1.020764801878120e+00	-1.091397795354862e+01
1	 4.813005678054852e-01	 1.030658048751678e+00	-1.476713172258280e+01
1	 4.605384277660153e-01	 1.040101248236386e+00	-2.067117139996662e+01
1	 4.396694511529662e-01	 1.049093429472078e+00	-2.858743038426569e+01
1	 4.187077321468711e-01	 1.057634192472302e+00	-3.847130589169447e+01
1	 6.292912163855158e-01	 9.625448379097047e-01	-2.914907013232773e+01
1	 6.094589083980003e-01	 9.752229688528293e-01	-2.101313891265050e+01
1	 5.894182847324629e-01	 9.874644730954647e-01	-1.483515876477715e+01
1	 5.691835238878924e-01	 9.992647878003311e-01	-1.061963751575209e+01
1	 5.487689060816965e-01	 1.010619952169409e+00	-8.364413618078597e+00
1	 5.281887820136760e-01	 1.021526607858687e+00	-8.060779912875997e+00
1	 5.074575419178806e-01	 1.031981997499849e+00	-9.693638168810185e+00
1	 4.865895850318857e-01	 1.041983961372579e+00	-1.324168268368482e+01
1	 4.655992896075897e-01	 1.051530932280860e+00	-1.867761104834279e+01
1	 4.445009835814387e-01	 1.060621928695729e+00	-2.596836000966210e+01
1	 4.233089160150698e-01	 1.069256546235278e+00	-3.507536423200527e+01
1	 6.361313382996451e-01	 9.730072817961023e-01	-2.603448545034599e+01
1	 6.160834617471291e-01	 9.858232185103623e-01	-1.866746585945213e+01
1	 5.958250052157492e-01	 9.981977825818114e-01	-1.307657197922367e+01
1	 5.753703013186131e-01	 1.010126361577113e+00	-9.268626764798739e+00
1	 5.547337854928833e-01	 1.021604951646094e+00	-7.244379937584654e+00
1	 5.339299644242276e-01	 1.032630157941003e+00	-6.998609055835932e+00
1	 5.129733847622833e-01	 1.043199193122128e+00	-8.520248881580002e+00
1	 4.918786022580771e-01	 1.053309873993932e+00	-1.179254755285802e+01
1	 4.706601514488546e-01	 1.062960616325656e+00	-1.679324789519938e+01
1	 4.493325160095007e-01	 1.072150427919546e+00	-2.349479205287507e+01
1	 4.279100998827580e-01	 1.080878899998233e+00	-3.186454748985663e+01
1	 6.429714602142689e-01	 9.834697256830051e-01	-2.287073338555468e+01
1	 6.227080150966526e-01	 9.964234681684844e-01	-1.627903439743157e+01
1	 6.022317256993296e-01	 1.008931092068801e+00	-1.128545148162280e+01
1	 5.815570787495273e-01	 1.020987935354560e+00	-7.899075795476652e+00
1	 5.606986649041629e-01	 1.032589951123436e+00	-6.123512488501422e+00
1	 5.396711468347712e-01	 1.043733708023936e+00	-5.956959410699934e+00
1	 5.184892276065770e-01	 1.054416388744956e+00	-7.392311671885754e+00
1	 4.971676194840591e-01	 1.064635786615735e+00	-1.041729078004981e+01
1	 4.757210132898095e-01	 1.074390300370775e+00	-1.501459692381536e+01
1	 4.541640484371527e-01	 1.083678927143527e+00	-2.116208282002064e+01
1	 4.325112837499361e-01	 1.092501253761168e+00	-2.883294742355383e+01
1	 6.498115821293877e-01	 9.939321695704137e-01	-1.965936659212962e+01
1	 6.293325684465706e-01	 1.007023717827196e+00	-1.384919479212886e+01
1	 6.086384461832042e-01	 1.019664401556434e+00	-9.462824652375957e+00
1	 5.877438561806352e-01	 1.031849509132672e+00	-6.511570088414931e+00
1	 5.666635443155355e-01	 1.043574950601434e+00	-5.001837600445189e+00
1	 5.454123292453070e-01	 1.054837258107488e+00	-4.935182939316004e+00
1	 5.240050704507622e-01	 1.065633584368333e+00	-6.308391211122039e+00
1	 5.024566367098319e-01	 1.075961699237989e+00	-9.113579364682870e+00
1	 4.807818751304545e-01	 1.085819984416216e+00	-1.333831985501535e+01
1	 4.589955808643948e-01	 1.095207426367674e+00	-1.896578414116702e+01
1	 4.371124676166038e-01	 1.104123607524082e+00	-2.597490455947284e+01
1	 6.566517040450012e-01	 1.004394613458327e+00	-1.640187303032399e+01
1	 6.359571217968834e-01	 1.017623967486498e+00	-1.137924104802063e+01
1	 6.150451666673726e-01	 1.030397711044709e+00	-7.609676064368537e+00
1	 5.939306336119369e-01	 1.042711082911450e+00	-5.106670729217104e+00
1	 5.726284237270008e-01	 1.054559950080089e+00	-3.879380505965139e+00
1	 5.511535116558349e-01	 1.065940808191658e+00	-3.932658605121297e+00
1	 5.295209132948389e-01	 1.076850779992260e+00	-5.267111976041488e+00
1	 5.077456539353953e-01	 1.087287611860692e+00	-7.879177514536323e+00
1	 4.858427369707898e-01	 1.097249668461979e+00	-1.176121750458842e+01
1	 4.638271132912263e-01	 1.106735925591985e+00	-1.690163318679541e+01
1	 4.417136514827614e-01	 1.115745961286976e+00	-2.328499523538989e+01
1	 6.634918259611091e-01	 1.014857057346746e+00	-1.309967930120668e+01
1	 6.425816751475903e-01	 1.028224217146390e+00	-8.870413808575828e+00
1	 6.214518871518357e-01	 1.041131020533627e+00	-5.726949689542691e+00
1	 6.001174110434320e-01	 1.053572656690893e+00	-3.684915665936051e+00
1	 5.785933031385591e-01	 1.065544949559402e+00	-2.756165397092529e+00
1	 5.568946940663551e-01	 1.077044358276446e+00	-2.948790981308315e+00
1	 5.350367561388070e-01	 1.088067975616736e+00	-4.267155166004285e+00
1	 5.130346711607495e-01	 1.098613524483847e+00	-6.711941635006362e+00
1	 4.909035988108152e-01	 1.108679352508065e+00	-1.028022261344526e+01
1	 4.686586457176479e-01	 1.118264424816463e+00	-1.496554291417069e+01
1	 4.463148353484084e-01	 1.127368315049849e+00	-2.075801944525468e+01
1	 6.703319478777120e-01	 1.025319501235670e+00	-9.754153777233217e+00
1	 6.492062284986920e-01	 1.038824466806871e+00	-6.323903078754893e+00
1	 6.278586076365926e-01	 1.051864330023189e+00	-3.815550970374783e+00
1	 6.063041884751207e-01	 1.064434230471001e+00	-2.246820889561804e+00
1	 5.845581825502105e-01	 1.076529949039371e+00	-1.632215478429176e+00
1	 5.626358764768672e-01	 1.088147908361853e+00	-1.983008944203837e+00
1	 5.405525989826665e-01	 1.099285171241760e+00	-3.307255808967293e+00
1	 5.183236883858944e-01	 1.109939437107452e+00	-5.609815625145488e+00
1	 4.959644606505308e-01	 1.120109036554474e+00	-8.892393116744335e+00
1	 4.734901781436591e-01	 1.129792924041105e+00	-1.315359309862751e+01
1	 4.509160192135453e-01	 1.138990668812702e+00	-1.838898942816138e+01
1	 6.771720697948095e-01	 1.035781945125100e+00	-6.366609543084311e+00
1	 6.558307818501883e-01	 1.049424716467942e+00	-3.740850782511433e+00
1	 6.342653281216438e-01	 1.062597639513393e+00	-1.876348765807140e+00
1	 6.124909659070029e-01	 1.075295804251774e+00	-7.928815429640856e-01
1	 5.905230619619546e-01	 1.087514948519997e+00	-5.075530170171509e-01
1	 5.683770588873716e-01	 1.099251458447877e+00	-1.034764445838698e+00
1	 5.460684418264172e-01	 1.110502366867334e+00	-2.386200042869410e+00
1	 5.236127056108301e-01	 1.121265349731507e+00	-4.570826458791537e+00
1	 5.010253224899366e-01	 1.131538720601204e+00	-7.594905820950514e+00
1	 4.783217105692602e-01	 1.141321423265912e+00	-1.146202190841622e+01
1	 4.555172030781719e-01	 1.150613022575534e+00	-1.617311894889647e+01
1	 6.840121917124017e-01	 1.046244389015035e+00	-2.938307160054370e+00
1	 6.624553352020789e-01	 1.060024966129602e+00	-1.122353166841304e+00
1	 6.406720486069893e-01	 1.073330949004241e+00	 8.982281957503435e-02
1	 6.186777433390788e-01	 1.086157378033213e+00	 6.764270367024612e-01
1	 5.964879413737916e-01	 1.098499948001280e+00	 6.178006107833087e-01
1	 5.741182412978680e-01	 1.110355008534519e+00	-1.035313601621120e-01
1	 5.515842846700593e-01	 1.121719562493458e+00	-1.502822560130616e+00
1	 5.289017228355563e-01	 1.132591262356013e+00	-3.593080030828203e+00
1	 5.060861843290325e-01	 1.142968404648257e+00	-6.385050460268674e+00
1	 4.831532429944511e-01	 1.152849922490885e+00	-9.887217985056171e+00
1	 4.601183869422882e-01	 1.162235376338345e+00	-1.410581322165475e+01
1	 4.141065482781622e-01	 1.046011838709305e+00	-4.205854329913795e+01
1	 3.932972896413123e-01	 1.054012448698682e+00	-2.912053440594026e+01
1	 3.724238474895377e-01	 1.061567462705179e+00	-1.530219705275599e+01
1	 3.514997710187807e-01	 1.068678113852559e+00	-6.769397719371426e-01
1	 3.305384299522138e-01	 1.075346151886617e+00	 1.467894613392286e+01
1	 3.095529917259615e-01	 1.081573827976446e+00	 3.068669019586194e+01
1	 2.885563999111744e-01	 1.087363878431055e+00	 4.726544657870558e+01
1	 2.675613539221366e-01	 1.092719507434895e+00	 6.433269547613700e+01
1	 2.465802900510743e-01	 1.097644368907271e+00	 8.180463962939638e+01
1	 2.256253638614278e-01	 1.102142547591368e+00	 9.959659364572948e+01
1	 2.047084339626188e-01	 1.106218539478505e+00	 1.176233639548138e+02
1	 4.187077321468711e-01	 1.057634192472302e+00	-3.847130589169447e+01
1	 3.976672595254846e-01	 1.065723698129262e+00	-2.546618918335579e+01
1	 3.765618902389651e-01	 1.073362656736697e+00	-1.190724739149561e+01
1	 3.554053240298771e-01	 1.080552315119742e+00	 2.143783586282389e+00
1	 3.342110791738727e-01	 1.087294442465818e+00	 1.662307408289066e+01
1	 3.129924694119229e-01	 1.093591314957006e+00	 3.146503189846836e+01
1	 2.917625821326362e-01	 1.099445699305754e+00	 4.660263265209028e+01
1	 2.705342578549005e-01	 1.104860835298564e+00	 6.196774714525310e+01
1	 2.493200710519669e-01	 1.109840417453845e+00	 7.749146374665095e+01
1	 2.281323123490928e-01	 1.114388575900822e+00	 9.310440393414498e+01
1	 2.069829721180270e-01	 1.118509856586275e+00	 1.087370292676960e+02
1	 4.233089160150698e-01	 1.069256546235278e+00	-3.507536423200527e+01
1	 4.020372294090627e-01	 1.077434947559639e+00	-2.193678117399056e+01
1	 3.806999329877463e-01	 1.085157850767857e+00	-8.564213086092426e+00
1	 3.593108770403063e-01	 1.092426516386447e+00	 4.992060392925005e+00
1	 3.378837283948748e-01	 1.099242733044450e+00	 1.868044385581560e+01
1	 3.164319470972685e-01	 1.105608801936938e+00	 3.244828604302215e+01
1	 2.949687643535532e-01	 1.111527520179795e+00	 4.624213780403791e+01
1	 2.735071617872199e-01	 1.117002163161573e+00	 6.000800649230067e+01
1	 2.520598520525447e-01	 1.122036465999790e+00	 7.369160527757801e+01
1	 2.306392608366009e-01	 1.126634604209704e+00	 8.723859596547361e+01
1	 2.092575102734646e-01	 1.130801173693560e+00	 1.005948240276425e+02
1	 4.279100998827580e-01	 1.080878899998233e+00	-3.186454748985663e+01
1	 4.064071992920467e-01	 1.089146196989810e+00	-1.852828014545264e+01
1	 3.848379757358810e-01	 1.096953044798660e+00	-5.271419447868478e+00
1	 3.632164300500685e-01	 1.104300717652674e+00	 7.867001826925087e+00
1	 3.415563776152200e-01	 1.111191023622512e+00	 2.084740249055477e+01
1	 3.198714247819980e-01	 1.117626288916241e+00	 3.362984255073133e+01
1	 2.981749465739252e-01	 1.123609341053177e+00	 4.617420980623707e+01
1	 2.764800657190950e-01	 1.129143491023926e+00	 5.844040230192385e+01
1	 2.547996330528077e-01	 1.134232514545106e+00	 7.038850559600209e+01
1	 2.331462093239524e-01	 1.138880632518015e+00	 8.197896387709937e+01
1	 2.115320484289314e-01	 1.143092490800359e+00	 9.317274405895776e+01
1	 4.325112837499361e-01	 1.092501253761168e+00	-2.883294742355383e+01
1	 4.107771691744364e-01	 1.100857446419777e+00	-1.523682736460013e+01
1	 3.889760184833697e-01	 1.108748238829107e+00	-2.027263051494479e+00
1	 3.671219830591637e-01	 1.116174918918422e+00	 1.076775688939052e+01
1	 3.452290268349087e-01	 1.123139314200007e+00	 2.312045247016365e+01
1	 3.233109024661119e-01	 1.129643775894916e+00	 3.500337262275651e+01
1	 3.013811287937522e-01	 1.135691161925902e+00	 4.638951141882112e+01
1	 2.794529696505255e-01	 1.141284818885619e+00	 5.725241958070762e+01
1	 2.575394140527559e-01	 1.146428563089792e+00	 6.756631069815549e+01
1	 2.356531578111472e-01	 1.151126660825756e+00	 7.730616163037141e+01
1	 2.138065865844276e-01	 1.155383807906674e+00	 8.644780664026433e+01
1	 4.371124676166038e-01	 1.104123607524082e+00	-2.597490455947284e+01
1	 4.151471390562320e-01	 1.112568695849540e+00	-1.205872657126598e+01
1	 3.931140612302117e-01	 1.120543432859196e+00	 1.169792015713707e+00
1	 3.710275360675918e-01	 1.128049120183693e+00	 1.369351041296112e+01
1	 3.489016760539405e-01	 1.135087604776933e+00	 2.549624354157055e+01
1	 3.267503801496099e-01	 1.141661262872963e+00	 3.656281393600126e+01
1	 3.045873110130343e-01	 1.147772982797968e+00	 4.687909854887182e+01
1	 2.824258735815118e-01	 1.153426146746654e+00	 5.643207028233829e+01
1	 2.602791950523892e-01	 1.158624611633849e+00	 6.520983411728672e+01
1	 2.381601062981852e-01	 1.163372689132924e+00	 7.320165775671079e+01
1	 2.160811247399532e-01	 1.167675125012503e+00	 8.039799674374781e+01
1	 4.417136514827614e-01	 1.115745961286976e+00	-2.328499523538989e+01
1	 4.195171089374332e-01	 1.124279945279097e+00	-8.990435516123132e+00
1	 3.972521039764076e-01	 1.132338626888928e+00	 4.321217670078365e+00
1	 3.749330890753527e-01	 1.139923321448485e+00	 1.664348119558409e+01
1	 3.525743252723156e-01	 1.147035895353290e+00	 2.797156504558278e+01
1	 3.301898578324918e-01	 1.153678749850381e+00	 3.830235676416788e+01
1	 3.077934932317715e-01	 1.159854803669376e+00	 4.763439977401475e+01
1	 2.853987775120535e-01	 1.165567474607031e+00	 5.596786586244158e+01
1	 2.630189760517078e-01	 1.170820660177278e+00	 6.330452215610703e+01
1	 2.406670547850666e-01	 1.175618717439521e+00	 6.964769293208295e+01
1	 2.183556628955082e-01	 1.179966442117847e+00	 7.500221663444864e+01
1	 4.463148353484084e-01	 1.127368315049849e+00	-2.075801944525468e+01
1	 4.238870788180403e-01	 1.135991194708451e+00	-6.028558021981596e+00
1	 4.013901467219571e-01	 1.144133820918303e+00	 7.428425130340909e+00
1	 3.788386420824468e-01	 1.151797522712798e+00	 1.961692024972401e+01
1	 3.562469744900341e-01	 1.158984185929079e+00	 3.054333872132624e+01
1	 3.336293355147580e-01	 1.165696236827171e+00	 4.021643095730391e+01
1	 3.109996754499638e-01	 1.171936624540127e+00	 4.864719713259689e+01
1	 2.883716814421509e-01	 1.177708802466749e+00	 5.584879153105891e+01
1	 2.657587570507115e-01	 1.183016708720077e+00	 6.183642126980673e+01
1	 2.431740032717912e-01	 1.187864745745547e+00	 6.662724017573291e+01
1	 2.206302010510924e-01	 1.192257759222705e+00	 7.024023858712452e+01
1	 4.509160192135453e-01	 1.138990668812702e+00	-1.838898942816138e+01
1	 4.282570486980531e-01	 1.147702444137599e+00	-3.169836531128507e+00
1	 4.055281894668601e-01	 1.155929014947321e+00	 1.049276801447810e+01
1	 3.827441950888737e-01	 1.163671723976633e+00	 2.261310915876588e+01
1	 3.599196237070956e-01	 1.170932476504298e+00	 3.320861195122820e+01
1	 3.370688131964081e-01	 1.177713723803332e+00	 4.229969371851844e+01
1	 3.142058576676110e-01	 1.184018445410219e+00	 4.990960808997677e+01
1	 2.913445853718038e-01	 1.189850130325810e+00	 5.606428208150405e+01
1	 2.684985380494003e-01	 1.195212757262246e+00	 6.079214744603020e+01
1	 2.456809517583592e-01	 1.200110774051002e+00	 6.412396748573086e+01
1	 2.229047392067060e-01	 1.204549076327078e+00	 6.609266049799734e+01
1	 4.555172030781719e-01	 1.150613022575534e+00	-1.617311894889647e+01
1	 4.326270185774718e-01	 1.159413693566544e+00	-4.111451043443601e-01
1	 4.096662322111168e-01	 1.167724208975982e+00	 1.351554524883112e+01
1	 3.866497480946336e-01	 1.175545925239990e+00	 2.563135853302821e+01
1	 3.635922729235004e-01	 1.182880767078950e+00	 3.596455141539693e+01
1	 3.405082908774424e-01	 1.189731210778864e+00	 4.454701812150428e+01
1	 3.174120398847132e-01	 1.196100266279651e+00	 5.141406859776579e+01
1	 2.943174893010123e-01	 1.201991458184212e+00	 5.660419918413632e+01
1	 2.712383190477745e-01	 1.207408805803788e+00	 6.015885744061043e+01
1	 2.481879002447703e-01	 1.212356802355885e+00	 6.212220273903040e+01
1	 2.251792773623489e-01	 1.216840393430966e+00	 6.254086418669802e+01
1	 4.601183869422882e-01	 1.162235376338345e+00	-1.410581322165475e+01
1	 4.369969884562961e-01	 1.171124942995283e+00	 2.250517160021602e+00
1	 4.138042749547273e-01	 1.179519403004286e+00	 1.649800380268696e+01
1	 3.905553010997264e-01	 1.187420126502869e+00	 2.867100655841745e+01
1	 3.672649221392484e-01	 1.194829057653032e+00	 3.880843712673737e+01
1	 3.439477685578608e-01	 1.201748697753768e+00	 4.695348231700929e+01
1	 3.206182221012706e-01	 1.208182087148427e+00	 5.315331716951462e+01
1	 2.972903932297764e-01	 1.214132786041956e+00	 5.745881004250840e+01
1	 2.739781000458337e-01	 1.219604854344699e+00	 5.992422173915809e+01
1	 2.506948487310247e-01	 1.224602830660197e+00	 6.060690069752304e+01
1	 2.274538155180211e-01	 1.229131710534368e+00	 5.956697620009564e+01
1	 2.047084339626188e-01	 1.106218539478505e+00	 1.176233639548138e+02
1	 1.838410471820675e-01	 1.109877231672737e+00	 1.058066458673547e+02
1	 1.630344251371875e-01	 1.113123881798189e+00	 8.719646907542054e+01
1	 1.422994522082913e-01	 1.115964097050903e+00	 6.195714374965937e+01
1	 1.216466649059655e-01	 1.118403812994212e+00	 3.026996514644857e+01
1	 1.010862426134333e-01	 1.120449272191891e+00	-7.668145573192387e+00
1	 8.062799968276181e-02	 1.122107002770802e+00	-5.164601174558767e+01
1	 6.028137885658343e-02	 1.123383797000342e+00	-1.014395742031139e+02
1	 4.005544598153728e-02	 1.124286689971457e+00	-1.568132587286608e+02
1	 1.995888597471339e-02	 1.124822938453228e+00	-2.175213303485711e+02
1	 0.000000000000000e+00	 1.125000000000000e+00	-2.833092274025784e+02
1	 2.069829721180270e-01	 1.118509856586275e+00	 1.087370292676960e+02
1	 1.858837254842960e-01	 1.122209200915521e+00	 9.579308943343298e+01
1	 1.648459187499743e-01	 1.125491924930832e+00	 7.716597354428811e+01
1	 1.438805572329332e-01	 1.128363698130427e+00	 5.300134634061217e+01
1	 1.229982945160992e-01	 1.130830522028343e+00	 2.345898883826987e+01
1	 1.022094230869531e-01	 1.132898708550173e+00	-1.128836710333425e+01
1	 8.152386634591845e-02	 1.134574858357522e+00	-5.105621189353825e+01
1	 6.095117195499002e-02	 1.135865839189446e+00	-9.564943171144510e+01
1	 4.050050649243606e-02	 1.136778764304567e+00	-1.448634755256601e+02
1	 2.018065137442525e-02	 1.137320971102731e+00	-1.984855092176140e+02
1	 0.000000000000000e+00	 1.137500000000000e+00	-2.562955508743505e+02
1	 2.092575102734646e-01	 1.130801173693560e+00	 1.005948240276425e+02
1	 1.879264037867324e-01	 1.134541170157915e+00	 8.655931543571509e+01
1	 1.666574123631051e-01	 1.137859968063168e+00	 6.792720278561117e+01
1	 1.454616622580137e-01	 1.140763299209717e+00	 4.482591629345463e+01
1	 1.243499241267251e-01	 1.143257231062304e+00	 1.739417431392511e+01
1	 1.033326035609789e-01	 1.145348144908337e+00	-1.421899120890786e+01
1	 8.241973300955530e-02	 1.147042713944167e+00	-4.985521346721107e+01
1	 6.162096505381248e-02	 1.148347881378508e+00	-8.934776771480456e+01
1	 4.094556700364869e-02	 1.149270838637658e+00	-1.325225407764792e+02
1	 2.040241677431206e-02	 1.149819003752230e+00	-1.791989879123308e+02
1	 0.000000000000000e+00	 1.150000000000000e+00	-2.291910722155378e+02
1	 2.115320484289314e-01	 1.143092490800359e+00	 9.317274405895776e+01
1	 1.899690820893766e-01	 1.146873139399917e+00	 7.808016960206646e+01
1	 1.684689059765799e-01	 1.150228011195196e+00	 5.945461729063365e+01
1	 1.470427672835328e-01	 1.153162900288774e+00	 3.740568046757343e+01
1	 1.257015537378434e-01	 1.155683940096093e+00	 1.205145183861780e+01
1	 1.044557840355105e-01	 1.157797581266385e+00	-1.648226296789172e+01
1	 8.331559967367232e-02	 1.159510569530738e+00	-4.806273254936727e+01
1	 6.229075815305083e-02	 1.160829923567528e+00	-8.255108290661138e+01
1	 4.139062751517519e-02	 1.161762912970730e+00	-1.198030722726810e+02
1	 2.062418217437382e-02	 1.162317036401724e+00	-1.596698535349829e+02
1	 0.000000000000000e+00	 1.162500000000000e+00	-2.019987205271846e+02
1	 2.138065865844276e-01	 1.155383807906674e+00	 8.644780664026433e+01
1	 1.920117603922285e-01	 1.159205108641528e+00	 7.033156805493917e+01
1	 1.702803995903987e-01	 1.162596054326918e+00	 5.172376433822524e+01
1	 1.486238723094905e-01	 1.165562501367597e+00	 3.071653691984093e+01
1	 1.270531833494540e-01	 1.168110649129712e+00	 7.407775921589794e+00
1	 1.055789645105481e-01	 1.170247017624314e+00	-1.809948085920333e+01
1	 8.421146633826952e-02	 1.171978425117234e+00	-4.569764624052932e+01
1	 6.296055125270505e-02	 1.173311965756507e+00	-7.527517582312863e+01
1	 4.183568802701556e-02	 1.174254987303784e+00	-1.067171508785450e+02
1	 2.084594757461052e-02	 1.174815069051214e+00	-1.399058490558323e+02
1	 0.000000000000000e+00	 1.175000000000000e+00	-1.747213002677425e+02
1	 2.160811247399532e-01	 1.167675125012503e+00	 8.039799674374781e+01
1	 1.940544386952883e-01	 1.171537077882749e+00	 6.329044097481322e+01
1	 1.720918932045614e-01	 1.174964097458333e+00	 4.471122079553513e+01
1	 1.502049773358868e-01	 1.177962102446187e+00	 2.473539852579990e+01
1	 1.284048129615569e-01	 1.180537358163162e+00	 3.441071408541713e+00
1	 1.067021449860916e-01	 1.182696453982126e+00	-1.909104658370112e+01
1	 8.510733300334690e-02	 1.184446280703655e+00	-4.277803681594270e+01
1	 6.363034435277519e-02	 1.185794007945443e+00	-6.753517979910355e+01
1	 4.228074853916980e-02	 1.186747061636820e+00	-9.327634879038966e+01
1	 2.106771297502218e-02	 1.187313101700699e+00	-1.199143914253498e+02
1	 0.000000000000000e+00	 1.187500000000000e+00	-1.473614978132055e+02
1	 2.183556628955082e-01	 1.179966442117847e+00	 7.500221663444864e+01
1	 1.960971169985559e-01	 1.183869047123579e+00	 5.693467978467339e+01
1	 1.739033868190682e-01	 1.187332140589441e+00	 3.839453949359817e+01
1	 1.517860823627217e-01	 1.190361703524544e+00	 1.944014012452384e+01
1	 1.297564425741521e-01	 1.192964067196440e+00	 1.301829432739652e-01
1	 1.078253254621411e-01	 1.195145890339820e+00	-1.947651177137725e+01
1	 8.600319966890443e-02	 1.196914136290001e+00	-3.932123312272398e+01
1	 6.430013745326123e-02	 1.198276050134339e+00	-5.934559761367858e+01
1	 4.272580905163788e-02	 1.199239135969837e+00	-7.949175602970004e+01
1	 2.128947837560878e-02	 1.199811134350180e+00	-9.970258855441224e+01
1	 0.000000000000000e+00	 1.200000000000000e+00	-1.199218876072390e+02
1	 2.206302010510924e-01	 1.192257759222705e+00	 7.024023858712452e+01
1	 1.981397953020312e-01	 1.196201016364018e+00	 5.124308760142468e+01
1	 1.757148804339190e-01	 1.199700183720243e+00	 3.275219891991915e+01
1	 1.533671873899952e-01	 1.202761304602666e+00	 1.480954893286663e+01
1	 1.311080721872396e-01	 1.205390776229548e+00	-2.545172444585749e+00
1	 1.089485059386964e-01	 1.207595326697396e+00	-1.927462179944175e+01
1	 8.689906633494215e-02	 1.209381991876273e+00	-3.534384941636223e+01
1	 6.496993055416314e-02	 1.210758092323192e+00	-5.072033399325828e+01
1	 4.317086956441985e-02	 1.211731210302836e+00	-6.537400529749657e+01
1	 2.151124377637034e-02	 1.212309166999656e+00	-7.927725524417980e+01
1	 0.000000000000000e+00	 1.212500000000000e+00	-9.240493793088747e+01
1	 2.229047392067060e-01	 1.204549076327078e+00	 6.609266049799734e+01
1	 2.001824736057144e-01	 1.208532985604066e+00	 4.619533272089570e+01
1	 1.775263740491137e-01	 1.212068226850737e+00	 2.776355599110055e+01
1	 1.549482924177072e-01	 1.215160905680556e+00	 1.082327799557611e+01
1	 1.324597018008195e-01	 1.217817485262486e+00	-4.604449849064114e+00
1	 1.100716864157577e-01	 1.220044763054856e+00	-1.850335692766919e+01
1	 8.779493300146010e-02	 1.221849847462470e+00	-3.086182181947526e+01
1	 6.563972365548093e-02	 1.223240134512003e+00	-4.167272612440162e+01
1	 4.361593007751567e-02	 1.224223284635816e+00	-5.093329530701406e+01
1	 2.173300917730685e-02	 1.224807199649127e+00	-5.864492814066913e+01
1	 0.000000000000000e+00	 1.225000000000000e+00	-6.481301631903339e+01
1	 2.251792773623489e-01	 1.216840393430966e+00	 6.254086418669802e+01
1	 2.022251519096053e-01	 1.220864954843724e+00	 4.177190492193235e+01
1	 1.793378676646525e-01	 1.224436269980924e+00	 2.340880168773526e+01
1	 1.565293974458579e-01	 1.227560506758212e+00	 7.461802456611924e+00
1	 1.338113314148917e-01	 1.230244194295253e+00	-6.066318299778750e+00
1	 1.111948668933249e-01	 1.232494199412197e+00	-1.717997094069229e+01
1	 8.869079966845822e-02	 1.234317703048592e+00	-2.589044257094523e+01
1	 6.630951675721461e-02	 1.235722176700773e+00	-3.221557231745266e+01
1	 4.406099059092536e-02	 1.236715358968778e+00	-3.617941270227382e+01
1	 2.195477457841831e-02	 1.237305232298594e+00	-3.781187978299740e+01
1	 0.000000000000000e+00	 1.237500000000000e+00	-3.714839464858808e+01
1	 2.274538155180211e-01	 1.229131710534368e+00	 5.956697620009564e+01
1	 2.042678302137041e-01	 1.233196924082991e+00	 3.795407439224553e+01
1	 1.811493612805352e-01	 1.236804313110804e+00	 1.966891935120718e+01
1	 1.581105024744471e-01	 1.239960107835634e+00	 4.706378454183927e+00
1	 1.351629610294562e-01	 1.242670903327850e+00	-6.948700065159052e+00
1	 1.123180473713980e-01	 1.244943635769421e+00	-1.532102747176088e+01
1	 8.958666633593650e-02	 1.246785558634639e+00	-2.044439222010325e+01
1	 6.697930985936418e-02	 1.248204218889501e+00	-2.236115895034869e+01
1	 4.450605110464890e-02	 1.249207433301722e+00	-2.112175266154541e+01
1	 2.217653997970472e-02	 1.249803264948056e+00	-1.678413180872258e+01
1	 0.000000000000000e+00	 1.250000000000000e+00	-9.413253921389380e+00
1	 1.250000000000000e+00	 0.000000000000000e+00	 1.338742055480724e+02
1	 1.249803264948056e+00	 2.217653997970400e-02	 1.248909386092417e+02
1	 1.249207433301722e+00	 4.450605110464827e-02	 1.154304845101625e+02
1	 1.248204218889501e+00	 6.697930985936361e-02	 1.053584405665311e+02
1	 1.246785558634639e+00	 8.958666633593600e-02	 9.453654149047094e+01
1	 1.244943635769421e+00	 1.123180473713976e-01	 8.282300891138718e+01
1	 1.242670903327850e+00	 1.351629610294558e-01	 7.007293674180985e+01
1	 1.239960107835634e+00	 1.581105024744469e-01	 5.613871217266497e+01
1	 1.236804313110804e+00	 1.811493612805350e-01	 4.087047179619299e+01
1	 1.233196924082991e+00	 2.042678302137040e-01	 2.411659205270829e+01
1	 1.229131710534368e+00	 2.274538155180211e-01	 5.724212881761638e+00
1	 1.262500000000000e+00	 0.000000000000000e+00	 1.397989246886143e+02
1	 1.262301297597516e+00	 2.239830538099040e-02	 1.291860142557977e+02
1	 1.261699507634656e+00	 4.495111161837182e-02	 1.181131714699574e+02
1	 1.260686261078208e+00	 6.764910296151318e-02	 1.064620950786696e+02
1	 1.259253414220649e+00	 9.048253300341427e-02	 9.411114679409633e+01
1	 1.257393072126586e+00	 1.134412278494708e-01	 8.093566295960670e+01
1	 1.255097612360361e+00	 1.365145906440204e-01	 6.680829777031943e+01
1	 1.252359708912939e+00	 1.596916075030361e-01	 5.159939783508497e+01
1	 1.249172356240532e+00	 1.829608548964178e-01	 3.517740761387063e+01
1	 1.245528893322062e+00	 2.063105085178028e-01	 1.740930499711951e+01
1	 1.241423027637528e+00	 2.297283536736933e-01	-1.838933985579690e+00
1	 1.275000000000000e+00	 0.000000000000000e+00	 1.447549896122416e+02
1	 1.274799330246976e+00	 2.262007078210185e-02	 1.326746681401700e+02
1	 1.274191581967590e+00	 4.539617213178149e-02	 1.201518603899547e+02
1	 1.273168303266915e+00	 6.831889606324687e-02	 1.070841223117991e+02
1	 1.271721269806660e+00	 9.137839967041235e-02	 9.336619039036889e+01
1	 1.269842508483751e+00	 1.145644083270380e-01	 7.889025591698098e+01
1	 1.267524321392873e+00	 1.378662202580925e-01	 6.354626657937136e+01
1	 1.264759309990245e+00	 1.612727125311867e-01	 4.722225515978572e+01
1	 1.261540399370259e+00	 1.847723485119565e-01	 2.980469491084882e+01
1	 1.257860862561133e+00	 2.083531868216938e-01	 1.117888094551127e+01
1	 1.253714344740687e+00	 2.320028918293363e-01	-8.770663265907622e+00
1	 1.287500000000000e+00	 0.000000000000000e+00	 1.487706135489349e+02
1	 1.287297362896436e+00	 2.284183618303835e-02	 1.353803882750871e+02
1	 1.286683656300524e+00	 4.584123264487731e-02	 1.215653084947532e+02
1	 1.285650345455622e+00	 6.898868916456465e-02	 1.072385502449853e+02
1	 1.284189125392670e+00	 9.227426633693030e-02	 9.231097990185056e+01
1	 1.282291944840916e+00	 1.156875888040993e-01	 7.669139150459736e+01
1	 1.279951030425384e+00	 1.392178498716724e-01	 6.028676721418903e+01
1	 1.277158911067551e+00	 1.628538175588988e-01	 4.300256070031330e+01
1	 1.273908442499985e+00	 1.865838421271512e-01	 2.474300306158033e+01
1	 1.270192831800205e+00	 2.103958651253769e-01	 5.411430684298494e+00
1	 1.266005661843847e+00	 2.342774299849499e-01	-1.508936576253269e+01
1	 1.300000000000000e+00	 0.000000000000000e+00	 1.518729246043912e+02
1	 1.299795395545896e+00	 2.306360158379989e-02	 1.373257592881372e+02
1	 1.299175730633459e+00	 4.628629315765927e-02	 1.223715515772147e+02
1	 1.298132387644330e+00	 6.965848226546656e-02	 1.069388673196261e+02
1	 1.296656980978680e+00	 9.317013300296803e-02	 9.095446496561580e+01
1	 1.294741381198081e+00	 1.168107692806546e-01	 7.434349637734726e+01
1	 1.292377739457895e+00	 1.405694794847599e-01	 5.702972664133318e+01
1	 1.289558512144857e+00	 1.644349225861723e-01	 3.893577268122773e+01
1	 1.286276485629712e+00	 1.883953357420020e-01	 1.998336031072175e+01
1	 1.282524801039276e+00	 2.124385434288523e-01	 9.359920039906200e-02
1	 1.278296978947007e+00	 2.365519681405341e-01	-2.081272494020973e+01
1	 1.312500000000000e+00	 0.000000000000000e+00	 1.540880174326111e+02
1	 1.312293428195356e+00	 2.328536698438650e-02	 1.385325054401084e+02
1	 1.311667804966393e+00	 4.673135367012735e-02	 1.225879383523571e+02
1	 1.310614429833036e+00	 7.032827536595254e-02	 1.061980481317221e+02
1	 1.309124836564690e+00	 9.406599966852559e-02	 8.930525428017995e+01
1	 1.307190817555246e+00	 1.179339497567040e-01	 7.185082855564973e+01
1	 1.304804448490407e+00	 1.419211090973551e-01	 5.377507460959084e+01
1	 1.301958113222162e+00	 1.660160276130072e-01	 3.501752234710322e+01
1	 1.298644528759440e+00	 1.902068293565088e-01	 1.551713668407611e+01
1	 1.294856770278347e+00	 2.144812217321199e-01	-4.787459756884893e+00
1	 1.290588296050166e+00	 2.388265062960890e-01	-2.595775060792458e+01
1	 1.325000000000000e+00	 0.000000000000000e+00	 1.554410019836230e+02
1	 1.324791460844817e+00	 2.350713238479816e-02	 1.390215312083310e+02
1	 1.324159879299327e+00	 4.717641418228159e-02	 1.222311628666870e+02
1	 1.323096472021744e+00	 7.099806846602269e-02	 1.050285776698677e+02
1	 1.321592692150699e+00	 9.496186633360294e-02	 8.737163168750709e+01
1	 1.319640253912411e+00	 1.190571302322476e-01	 6.921748537990788e+01
1	 1.317231157522919e+00	 1.432727387094580e-01	 5.052274351873834e+01
1	 1.314357714299468e+00	 1.675971326394035e-01	 3.124360580120597e+01
1	 1.311012571889166e+00	 1.920183229706716e-01	 1.133602786684157e+01
1	 1.307188739517419e+00	 2.165239000351796e-01	-9.244107674091561e+00
1	 1.302879613153326e+00	 2.411010444516146e-01	-3.054081069510776e+01
1	 1.337500000000000e+00	 0.000000000000000e+00	 1.559560495176894e+02
1	 1.337289493494276e+00	 2.372889778503485e-02	 1.388129595943167e+02
1	 1.336651953632262e+00	 4.762147469412194e-02	 1.213172950901878e+02
1	 1.335578514210450e+00	 7.166786156567692e-02	 1.034424741941023e+02
1	 1.334060547736709e+00	 9.585773299820013e-02	 8.516157135322281e+01
1	 1.332089690269576e+00	 1.201803107072851e-01	 6.644741101892060e+01
1	 1.329657866555430e+00	 1.446243683210686e-01	 4.727266829566296e+01
1	 1.326757315376773e+00	 1.691782376653612e-01	 2.760997630181787e+01
1	 1.323380615018894e+00	 1.938298165844904e-01	 7.432039985882589e+00
1	 1.319520708756490e+00	 2.185665783380315e-01	-1.328824392612938e+01
1	 1.315170930256486e+00	 2.433755826071108e-01	-3.457766124600560e+01
1	 1.350000000000000e+00	 0.000000000000000e+00	 1.556564360631685e+02
1	 1.349787526143736e+00	 2.395066318509660e-02	 1.379261683031962e+02
1	 1.349144027965196e+00	 4.806653520564843e-02	 1.198618098087518e+02
1	 1.348060556399157e+00	 7.233765466491528e-02	 1.014513108437136e+02
1	 1.346528403322719e+00	 9.675359966231714e-02	 8.268275210348175e+01
1	 1.344539126626741e+00	 1.213034911818168e-01	 6.354440356116061e+01
1	 1.342084575587941e+00	 1.459759979321868e-01	 4.402478627736736e+01
1	 1.339156916454079e+00	 1.707593426908803e-01	 2.411273698654103e+01
1	 1.335748658148621e+00	 1.956413101979651e-01	 3.797475237431418e+00
1	 1.331852677995562e+00	 2.206092566406757e-01	-1.693132717033352e+01
1	 1.327462247359646e+00	 2.456501207625777e-01	-3.808347474769614e+01
1	 1.362500000000000e+00	 0.000000000000000e+00	 1.545645834822001e+02
1	 1.362285558793196e+00	 2.417242858498341e-02	 1.363798239316278e+02
1	 1.361636102298130e+00	 4.851159571686106e-02	 1.178796139262038e+02
1	 1.360542598587865e+00	 7.300744776373773e-02	 9.906623605562217e+01
1	 1.358996258908729e+00	 9.764946632595396e-02	 7.994257097265003e+01
1	 1.356988562983906e+00	 1.224266716558425e-01	 6.051212171570702e+01
1	 1.354511284620453e+00	 1.473276275428128e-01	 4.077903710041365e+01
1	 1.351556517531384e+00	 1.723404477159608e-01	 2.074813399709994e+01
1	 1.348116701278348e+00	 1.974528038110959e-01	 4.249183059245185e-01
1	 1.344184647234633e+00	 2.226519349431120e-01	-2.018439556286722e+01
1	 1.339753564462805e+00	 2.479246589180152e-01	-4.107286689876572e+01
1	 1.375000000000000e+00	 0.000000000000000e+00	 1.527020982964444e+02
1	 1.374783591442656e+00	 2.439419398469526e-02	 1.341919142909112e+02
1	 1.374128176631064e+00	 4.895665622775984e-02	 1.153850722771229e+02
1	 1.373024640776572e+00	 7.367724086214431e-02	 9.629799286903413e+01
1	 1.371464114494739e+00	 9.854533298911061e-02	 7.694815601202308e+01
1	 1.369437999341071e+00	 1.235498521293624e-01	 5.735409114767217e+01
1	 1.366937993652964e+00	 1.486792571529464e-01	 3.753536259639813e+01
1	 1.363956118608690e+00	 1.739215527406027e-01	 1.751254997915401e+01
1	 1.360484744408075e+00	 1.992642974238827e-01	-2.692776476369931e+00
1	 1.356516616473704e+00	 2.246946132453406e-01	-2.305808587241087e+01
1	 1.352044881565965e+00	 2.501991970734234e-01	-4.355992191787534e+01
1	 1.229131710534368e+00	 2.274538155180211e-01	 5.724212881761638e+00
1	 1.224602830660197e+00	 2.506948487310240e-01	 2.848902093842771e+00
1	 1.219604854344699e+00	 2.739781000458331e-01	 1.806209028281636e-01
1	 1.214132786041956e+00	 2.972903932297759e-01	-2.213646099892497e+00
1	 1.208182087148427e+00	 3.206182221012702e-01	-4.265937459635364e+00
1	 1.201748697753769e+00	 3.439477685578606e-01	-5.907555130980484e+00
1	 1.194829057653032e+00	 3.672649221392482e-01	-7.069318147954185e+00
1	 1.187420126502869e+00	 3.905553010997262e-01	-7.681828663552253e+00
1	 1.179519403004286e+00	 4.138042749547273e-01	-7.675749180416691e+00
1	 1.171124942995283e+00	 4.369969884562962e-01	-6.982089648153984e+00
1	 1.162235376338345e+00	 4.601183869422883e-01	-5.532502961989909e+00
1	 1.241423027637528e+00	 2.297283536736933e-01	-1.838933985579690e+00
1	 1.236848858964224e+00	 2.532017972172809e-01	-3.795151187985176e+00
1	 1.231800902885296e+00	 2.767178810439017e-01	-5.567678137221971e+00
1	 1.226274113899371e+00	 3.002632971585613e-01	-7.098595133546763e+00
1	 1.220263908016873e+00	 3.238244043178657e-01	-8.329149561775882e+00
1	 1.213766184728358e+00	 3.473872462383388e-01	-9.199964593920878e+00
1	 1.206777348226831e+00	 3.709375713550829e-01	-9.651259469296427e+00
1	 1.199294327765508e+00	 3.944608541049375e-01	-9.623080455947090e+00
1	 1.191314597032411e+00	 4.179423176984929e-01	-9.055541467299939e+00
1	 1.182836192423920e+00	 4.413669583353181e-01	-7.889073181161187e+00
1	 1.173857730101146e+00	 4.647195708066494e-01	-6.064679386231113e+00
1	 1.253714344740687e+00	 2.320028918293363e-01	-8.770663265907622e+00
1	 1.249094887268250e+00	 2.557087457036991e-01	-9.886051415343001e+00
1	 1.243996951425893e+00	 2.794576620423040e-01	-1.084060485794713e+01
1	 1.238415441756786e+00	 3.032362010878337e-01	-1.158532876371191e+01
1	 1.232345728885320e+00	 3.270305865350823e-01	-1.207053716348960e+01
1	 1.225783671702949e+00	 3.508267239195527e-01	-1.224603048645589e+01
1	 1.218725638800629e+00	 3.746102205717475e-01	-1.206128287817089e+01
1	 1.211168529028148e+00	 3.983664071110527e-01	-1.146563853365293e+01
1	 1.203109791060537e+00	 4.220803604432159e-01	-1.040851616966539e+01
1	 1.194547441852557e+00	 4.457369282153292e-01	-8.839620652927433e+00
1	 1.185480083863948e+00	 4.693207546720106e-01	-6.709160697641188e+00
1	 1.266005661843847e+00	 2.342774299849499e-01	-1.508936576253269e+01
1	 1.261340915572276e+00	 2.582156941902787e-01	-1.543990984210635e+01
1	 1.256192999966490e+00	 2.821974430410401e-01	-1.565200505496434e+01
1	 1.250556769614201e+00	 3.062091050175934e-01	-1.568544549723186e+01
1	 1.244427549753766e+00	 3.302367687529200e-01	-1.549947379388949e+01
1	 1.237801158677538e+00	 3.542662016015020e-01	-1.505292786402750e+01
1	 1.230673929374427e+00	 3.782828697892420e-01	-1.430439569241995e+01
1	 1.223042730290788e+00	 4.022719601180717e-01	-1.321237747089002e+01
1	 1.214904985088662e+00	 4.262184031888958e-01	-1.173545438220856e+01
1	 1.206258691281194e+00	 4.501068980963296e-01	-9.832463210857114e+00
1	 1.197102437626749e+00	 4.739219385383718e-01	-7.462675880061990e+00
1	 1.278296978947007e+00	 2.365519681405341e-01	-2.081272494020973e+01
1	 1.273586943876303e+00	 2.607226426770197e-01	-2.047221805856580e+01
1	 1.268389048507087e+00	 2.849372240401096e-01	-2.001519199330991e+01
1	 1.262698097471615e+00	 3.091820089478399e-01	-1.941009774454760e+01
1	 1.256509370622212e+00	 3.334429509713790e-01	-1.862497246174788e+01
1	 1.249818645652128e+00	 3.577056792841868e-01	-1.762755581841303e+01
1	 1.242622219948226e+00	 3.819555190075664e-01	-1.638541264074188e+01
1	 1.234916931553427e+00	 4.061775131259946e-01	-1.486606128133294e+01
1	 1.226700179116788e+00	 4.303564459355328e-01	-1.303710715752172e+01
1	 1.217969940709831e+00	 4.544768679783192e-01	-1.086638080437721e+01
1	 1.208724791389550e+00	 4.785231224057330e-01	-8.322079725649385e+00
1	 1.290588296050166e+00	 2.388265062960890e-01	-2.595775060792458e+01
1	 1.285832972180329e+00	 2.632295911639221e-01	-2.499787749921579e+01
1	 1.280585097047684e+00	 2.876770050395130e-01	-2.394297176603685e+01
1	 1.274839425329030e+00	 3.121549128785735e-01	-2.277001306238283e+01
1	 1.268591191490658e+00	 3.366491331904589e-01	-2.145570282313102e+01
1	 1.261836132626718e+00	 3.611451569676073e-01	-1.997655061885195e+01
1	 1.254570510522024e+00	 3.856281682267207e-01	-1.830896503360189e+01
1	 1.246791132816067e+00	 4.100830661348213e-01	-1.642934868289863e+01
1	 1.238495373144913e+00	 4.344944886831269e-01	-1.431419693666982e+01
1	 1.229681190138469e+00	 4.588468378612980e-01	-1.194019986103167e+01
1	 1.220347145152352e+00	 4.831243062740942e-01	-9.284346844000970e+00
1	 1.302879613153326e+00	 2.411010444516146e-01	-3.054081069510776e+01
1	 1.298079000484355e+00	 2.657365396509859e-01	-2.903122728029114e+01
1	 1.292781145588281e+00	 2.904167860392501e-01	-2.744766721742176e+01
1	 1.286980753186445e+00	 3.151278168097941e-01	-2.577551419401243e+01
1	 1.280673012359105e+00	 3.398553154101601e-01	-2.400000737728151e+01
1	 1.273853619601308e+00	 3.645846346517633e-01	-2.210629810933469e+01
1	 1.266518801095822e+00	 3.893008174467049e-01	-2.007950941503550e+01
1	 1.258665334078706e+00	 4.139886191445518e-01	-1.790479806452741e+01
1	 1.250290567173038e+00	 4.386325314316781e-01	-1.556741889879121e+01
1	 1.241392439567106e+00	 4.632168077452660e-01	-1.305279109411739e+01
1	 1.231969498915152e+00	 4.877254901434555e-01	-1.034656601038999e+01
1	 1.315170930256486e+00	 2.433755826071108e-01	-3.457766124600560e+01
1	 1.310325028788382e+00	 2.682434881382111e-01	-3.258607047631993e+01
1	 1.304977194128878e+00	 2.931565670393207e-01	-3.054114052468170e+01
1	 1.299122081043860e+00	 3.181007207415019e-01	-2.843653798577865e+01
1	 1.292754833227551e+00	 3.430614976304824e-01	-2.626591675431942e+01
1	 1.285871106575899e+00	 3.680241123366550e-01	-2.402294541071712e+01
1	 1.278467091669621e+00	 3.929734666675191e-01	-2.170133572930428e+01
1	 1.270539535341346e+00	 4.178941721551863e-01	-1.929487217445254e+01
1	 1.262085761201164e+00	 4.427705741811864e-01	-1.679744223501913e+01
1	 1.253103688995743e+00	 4.675867776302233e-01	-1.420306743325637e+01
1	 1.243591852677954e+00	 4.923266740138165e-01	-1.150593483092085e+01
1	 1.327462247359646e+00	 2.456501207625777e-01	-3.808347474769614e+01
1	 1.322571057092408e+00	 2.707504366255978e-01	-3.567569893686838e+01
1	 1.317173242669475e+00	 2.958963480397251e-01	-3.323481452515257e+01
1	 1.311263408901274e+00	 3.210736246736966e-01	-3.076265325268907e+01
1	 1.304836654095997e+00	 3.462676798514259e-01	-2.826116415362757e+01
1	 1.297888593550488e+00	 3.714635900222821e-01	-2.573241197271729e+01
1	 1.290415382243419e+00	 3.966461158891632e-01	-2.317857503384774e+01
1	 1.282413736603985e+00	 4.217997251667246e-01	-2.060194254801120e+01
1	 1.273880955229289e+00	 4.469086169316517e-01	-1.800491135163043e+01
1	 1.264814938424380e+00	 4.719567475161698e-01	-1.538998206993644e+01
1	 1.255214206440755e+00	 4.969278578851778e-01	-1.275975470406442e+01
1	 1.339753564462805e+00	 2.479246589180152e-01	-4.107286689876572e+01
1	 1.334817085396434e+00	 2.732573851131458e-01	-3.831291673722617e+01
1	 1.329369291210072e+00	 2.986361290404630e-01	-3.553969286949371e+01
1	 1.323404736758689e+00	 3.240465286063783e-01	-3.276307766058738e+01
1	 1.316918474964443e+00	 3.494738620729904e-01	-2.999319898746279e+01
1	 1.309906080525078e+00	 3.749030677086448e-01	-2.724040001754523e+01
1	 1.302363672817217e+00	 4.003187651116372e-01	-2.451520678767000e+01
1	 1.294287937866625e+00	 4.257052781791670e-01	-2.182829369172151e+01
1	 1.285676149257414e+00	 4.510466596830741e-01	-1.919044700696513e+01
1	 1.276526187853017e+00	 4.763267174031054e-01	-1.661252661063649e+01
1	 1.266836560203556e+00	 5.015290417575390e-01	-1.410542605954051e+01
1	 1.352044881565965e+00	 2.501991970734234e-01	-4.355992191787534e+01
1	 1.347063113700461e+00	 2.757643336008552e-01	-4.051006234996350e+01
1	 1.341565339750669e+00	 3.013759100415347e-01	-3.746637907562724e+01
1	 1.335546064616104e+00	 3.270194325395472e-01	-3.444669368747866e+01
1	 1.329000295832889e+00	 3.526800442951761e-01	-3.146919978037051e+01
1	 1.321923567499668e+00	 3.783425453957430e-01	-2.855240441388057e+01
1	 1.314311963391016e+00	 4.039914143349411e-01	-2.571506574217732e+01
1	 1.306162139129264e+00	 4.296108311925129e-01	-2.297612703913864e+01
1	 1.297471343285539e+00	 4.551847024354536e-01	-2.035464738633299e+01
1	 1.288237437281654e+00	 4.806966872910303e-01	-1.786972933069062e+01
1	 1.278458913966357e+00	 5.061302256309002e-01	-1.554044385689730e+01
1	 1.162235376338345e+00	 4.601183869422883e-01	-5.532502961989909e+00
1	 1.152849922490885e+00	 4.831532429944503e-01	-8.523787502047480e+00
1	 1.142968404648257e+00	 5.060861843290319e-01	-1.149336961463074e+01
1	 1.132591262356013e+00	 5.289017228355558e-01	-1.443973054921812e+01
1	 1.121719562493458e+00	 5.515842846700590e-01	-1.736130660889230e+01
1	 1.110355008534519e+00	 5.741182412978676e-01	-2.025648953436256e+01
1	 1.098499948001281e+00	 5.964879413737912e-01	-2.312362716108133e+01
1	 1.086157378033213e+00	 6.186777433390787e-01	-2.596102436487357e+01
1	 1.073330949004241e+00	 6.406720486069893e-01	-2.876694430971496e+01
1	 1.060024966129602e+00	 6.624553352020790e-01	-3.153961000926085e+01
1	 1.046244389015035e+00	 6.840121917124017e-01	-3.427720621143857e+01
1	 1.173857730101146e+00	 4.647195708066494e-01	-6.064679386231113e+00
1	 1.164378421715943e+00	 4.879847754199314e-01	-9.176989390056214e+00
1	 1.154398088695481e+00	 5.111470461684536e-01	-1.224536432593190e+01
1	 1.143917174980766e+00	 5.341907400606339e-01	-1.526675709689215e+01
1	 1.132936758119894e+00	 5.571001275140689e-01	-1.823813751606070e+01
1	 1.121458558621532e+00	 5.798594237087382e-01	-2.115650034267702e+01
1	 1.109484947482980e+00	 6.024528207859984e-01	-2.401887342475218e+01
1	 1.097018951815104e+00	 6.248645207715108e-01	-2.682232590904541e+01
1	 1.084064258495567e+00	 6.470787690926668e-01	-2.956397647739278e+01
1	 1.070625215791757e+00	 6.690798885542671e-01	-3.224100156705359e+01
1	 1.056706832905469e+00	 6.908523136302467e-01	-3.485064353171842e+01
1	 1.185480083863948e+00	 4.693207546720106e-01	-6.709160697641188e+00
1	 1.175906920941005e+00	 4.928163078464028e-01	-9.932181143719991e+00
1	 1.165827772742723e+00	 5.162079080088365e-01	-1.308949444225727e+01
1	 1.155243087605563e+00	 5.394797572866247e-01	-1.617654847776765e+01
1	 1.144153953746409e+00	 5.626159703589233e-01	-1.918886910372208e+01
1	 1.132562108708666e+00	 5.856006061203647e-01	-2.212207573494647e+01
1	 1.120469946964856e+00	 6.084177001988529e-01	-2.497189688205176e+01
1	 1.107880525597237e+00	 6.310512982044613e-01	-2.773418553449077e+01
1	 1.094797567987208e+00	 6.534854895787139e-01	-3.040493429729520e+01
1	 1.081225465454313e+00	 6.757044419066560e-01	-3.298029018585896e+01
1	 1.067169276796399e+00	 6.976924355481020e-01	-3.545656898334042e+01
1	 1.197102437626749e+00	 4.739219385383718e-01	-7.462675880061990e+00
1	 1.187435420166073e+00	 4.976478402738645e-01	-1.078639218440229e+01
1	 1.177257456789986e+00	 5.212687698501810e-01	-1.402307640809672e+01
1	 1.166569000230403e+00	 5.447687745135282e-01	-1.716669406561213e+01
1	 1.155371149373001e+00	 5.681318132046219e-01	-2.021134892484997e+01
1	 1.143665658795923e+00	 5.913417885327469e-01	-2.315130606307294e+01
1	 1.131454946446909e+00	 6.143825796123552e-01	-2.598101470207590e+01
1	 1.118742099379610e+00	 6.372380756379310e-01	-2.869513067571189e+01
1	 1.105530877479165e+00	 6.598922100651305e-01	-3.128853838146762e+01
1	 1.091825715117267e+00	 6.823289952592448e-01	-3.375637206775326e+01
1	 1.077631720687823e+00	 7.045325574659680e-01	-3.609403631001533e+01
1	 1.208724791389550e+00	 4.785231224057330e-01	-8.322079725649385e+00
1	 1.198963919391144e+00	 5.024793727023167e-01	-1.173676618649131e+01
1	 1.188687140837268e+00	 5.263296316924868e-01	-1.504352988161457e+01
1	 1.177894912855287e+00	 5.500577917413444e-01	-1.823487595058813e+01
1	 1.166588344999672e+00	 5.736476560511649e-01	-2.130350731884339e+01
1	 1.154769208883302e+00	 5.970829709458854e-01	-2.424235512696409e+01
1	 1.142439945929137e+00	 6.203474590265043e-01	-2.704460877818752e+01
1	 1.129603673162223e+00	 6.434248530719191e-01	-2.970374540434823e+01
1	 1.116264186971437e+00	 6.662989305519170e-01	-3.221355854918569e+01
1	 1.102425964780622e+00	 6.889535486120343e-01	-3.456818586858078e+01
1	 1.088094164579742e+00	 7.113726793838446e-01	-3.676213564992879e+01
1	 1.220347145152352e+00	 4.831243062740942e-01	-9.284346844000970e+00
1	 1.210492418616221e+00	 5.073109051317592e-01	-1.278055563678024e+01
1	 1.200116824884569e+00	 5.313904935357540e-01	-1.614837281971271e+01
1	 1.189220825480215e+00	 5.553468089700732e-01	-1.937886452418629e+01
1	 1.177805540626420e+00	 5.791634988985520e-01	-2.246335346931648e+01
1	 1.165872758970802e+00	 6.028241533597791e-01	-2.539345667700875e+01
1	 1.153424945411542e+00	 6.263123384413013e-01	-2.816112264590894e+01
1	 1.140465246945077e+00	 6.496116305064259e-01	-3.075866773216803e+01
1	 1.126997496464023e+00	 6.727056510390734e-01	-3.317881148375480e+01
1	 1.113026214444376e+00	 6.955781019650239e-01	-3.541471067634565e+01
1	 1.098556608472156e+00	 7.182128013017320e-01	-3.745999180267015e+01
1	 1.231969498915152e+00	 4.877254901434555e-01	-1.034656601038999e+01
1	 1.222020917841303e+00	 5.121424375621921e-01	-1.391511670180645e+01
1	 1.211546508931890e+00	 5.364513553799823e-01	-1.733521684129756e+01
1	 1.200546738105186e+00	 5.606358261997149e-01	-2.059651431406864e+01
1	 1.189022736253246e+00	 5.846793417467834e-01	-2.368897168503102e+01
1	 1.176976309058426e+00	 6.085653357744293e-01	-2.660291111452597e+01
1	 1.164409944894123e+00	 6.322772178567456e-01	-2.932905857527263e+01
1	 1.151326820728172e+00	 6.557984079414517e-01	-3.185858706672440e+01
1	 1.137730805956926e+00	 6.791123715265995e-01	-3.418315852194183e+01
1	 1.123626464108531e+00	 7.022026553182141e-01	-3.629496410403456e+01
1	 1.109019052365064e+00	 7.250529232196299e-01	-3.818676259426095e+01
1	 1.243591852677954e+00	 4.923266740138165e-01	-1.150593483092085e+01
1	 1.233549417066389e+00	 5.169739699936152e-01	-1.513790438300363e+01
1	 1.222976192979229e+00	 5.415122172251722e-01	-1.860176285055100e+01
1	 1.211872650730201e+00	 5.659248434302693e-01	-2.188576005247177e+01
1	 1.200239931880150e+00	 5.901951845958592e-01	-2.497851788937596e+01
1	 1.188079859146171e+00	 6.143065181898351e-01	-2.786908237723559e+01
1	 1.175394944376881e+00	 6.382420972728371e-01	-3.054697482621786e+01
1	 1.162188394511508e+00	 6.619851853769962e-01	-3.300224180968139e+01
1	 1.148464115450142e+00	 6.855190920144951e-01	-3.522550356736521e+01
1	 1.134226713773085e+00	 7.088272086716045e-01	-3.720800048938388e+01
1	 1.119481496258467e+00	 7.318930451375384e-01	-3.894163733386335e+01
1	 1.255214206440755e+00	 4.969278578851778e-01	-1.275975470406442e+01
1	 1.245077916291481e+00	 5.218055024260289e-01	-1.644646794101212e+01
1	 1.234405877026588e+00	 5.465730790713230e-01	-1.994579690335259e+01
1	 1.223198563355260e+00	 5.712138606617362e-01	-2.324461296303189e+01
1	 1.211457127507132e+00	 5.957110274457791e-01	-2.633021630487531e+01
1	 1.199183409234037e+00	 6.200477006059969e-01	-2.919039499775807e+01
1	 1.186379943859815e+00	 6.442069766895762e-01	-3.181348305646531e+01
1	 1.173049968295084e+00	 6.681719628130592e-01	-3.418841708856937e+01
1	 1.159197424943675e+00	 6.919258125027606e-01	-3.630479111980689e+01
1	 1.144826963438039e+00	 7.154517620251954e-01	-3.815290919465961e+01
1	 1.129943940152365e+00	 7.387331670554576e-01	-3.972383535622750e+01
1	 1.266836560203556e+00	 5.015290417575390e-01	-1.410542605954051e+01
1	 1.256606415516577e+00	 5.266370348594331e-01	-1.783844657186197e+01
1	 1.245835561073966e+00	 5.516339409184358e-01	-2.136518630123847e+01
1	 1.234524475980362e+00	 5.765028778941159e-01	-2.467115725200502e+01
1	 1.222674323134192e+00	 6.012268702965434e-01	-2.774235632019996e+01
1	 1.210286959322027e+00	 6.257888830229146e-01	-3.056533132403177e+01
1	 1.197364943342925e+00	 6.501718561069625e-01	-3.312724587207757e+01
1	 1.183911542078901e+00	 6.743587402496409e-01	-3.541594261339538e+01
1	 1.169930734437522e+00	 6.983325329913959e-01	-3.742000441300318e+01
1	 1.155427213103392e+00	 7.220763153789866e-01	-3.912881300002759e+01
1	 1.140406384046757e+00	 7.455732889733871e-01	-4.053260464437083e+01
1	 1.278458913966357e+00	 5.061302256309002e-01	-1.554044385689730e+01
1	 1.268134914741677e+00	 5.314685672938273e-01	-1.931156531900089e+01
1	 1.257265245121364e+00	 5.566948027665093e-01	-2.285787589841690e+01
1	 1.245850388605507e+00	 5.817918951274083e-01	-2.616354679087527e+01
1	 1.233891518761329e+00	 6.067427131481519e-01	-2.921328952807030e+01
1	 1.221390509410137e+00	 6.315300654405880e-01	-3.199242889134385e+01
1	 1.208349942826211e+00	 6.561367355249965e-01	-3.448697451162518e+01
1	 1.194773115862958e+00	 6.805455176867415e-01	-3.668369065016803e+01
1	 1.180664043931685e+00	 7.047392534804008e-01	-3.857016365401041e+01
1	 1.166027462769146e+00	 7.287008687329783e-01	-4.013486658455773e+01
1	 1.150868827941644e+00	 7.524134108913275e-01	-4.136722052738405e+01
1	 1.046244389015035e+00	 6.840121917124017e-01	-3.427720621143857e+01
1	 1.031994829112001e+00	 7.053273514082546e-01	-3.422013856414684e+01
1	 1.017282545054521e+00	 7.263857263794559e-01	-3.401900324568793e+01
1	 1.002114435865165e+00	 7.471724415374245e-01	-3.367998388946530e+01
1	 9.864980320304253e-01	 7.676728683263137e-01	-3.320983246960527e+01
1	 9.704414844585151e-01	 7.878726579898537e-01	-3.261584680979382e+01
1	 9.539535513453987e-01	 8.077577742387658e-01	-3.190584493969898e+01
1	 9.370435829877606e-01	 8.273145251659155e-01	-3.108813643416014e+01
1	 9.197215045943361e-01	 8.465295942593203e-01	-3.017149089724831e+01
1	 9.019977971594894e-01	 8.653900703672559e-01	-2.916510377887229e+01
1	 8.838834764750000e-01	 8.838834764750000e-01	-2.807855973552482e+01
1	 1.056706832905469e+00	 6.908523136302467e-01	-3.485064353171842e+01
1	 1.042314777402819e+00	 7.123806249235496e-01	-3.470117644810156e+01
1	 1.027455370504306e+00	 7.336495836448358e-01	-3.442264029084457e+01
1	 1.012135580222726e+00	 7.546441659546386e-01	-3.401940584869519e+01
1	 9.963630123494379e-01	 7.753495970115514e-01	-3.349634268574001e+01
1	 9.801458993017382e-01	 7.957513845717418e-01	-3.285880405015666e+01
1	 9.634930868575512e-01	 8.158353519830368e-01	-3.211260904908490e+01
1	 9.464140188165280e-01	 8.355876704192311e-01	-3.126402217678276e+01
1	 9.289187196394912e-01	 8.549948902032221e-01	-3.031973030644526e+01
1	 9.110177751307498e-01	 8.740439710717682e-01	-2.928681727841991e+01
1	 8.927223112400001e-01	 8.927223112400001e-01	-2.817273623878269e+01
1	 1.067169276796399e+00	 6.976924355481020e-01	-3.545656898334042e+01
1	 1.052634725694217e+00	 7.194338984386744e-01	-3.519958182083257e+01
1	 1.037628195954726e+00	 7.409134409099047e-01	-3.482818762301719e+01
1	 1.022156724580948e+00	 7.621158903714401e-01	-3.434497202709711e+01
1	 1.006227992669108e+00	 7.830263256963153e-01	-3.375295089238907e+01
1	 9.898503141455847e-01	 8.036301111531332e-01	-3.305556251612562e+01
1	 9.730326223702622e-01	 8.239129297268302e-01	-3.225665752852268e+01
1	 9.557844546457592e-01	 8.438608156721282e-01	-3.136048650681921e+01
1	 9.381159346849866e-01	 8.634601861468045e-01	-3.037168536754389e+01
1	 9.200377531021950e-01	 8.826978717761008e-01	-2.929525861544694e+01
1	 9.015611460049998e-01	 9.015611460049998e-01	-2.813656054611153e+01
1	 1.077631720687823e+00	 7.045325574659680e-01	-3.609403631001533e+01
1	 1.062954673986195e+00	 7.264871719536292e-01	-3.571484883311966e+01
1	 1.047801021405781e+00	 7.481772981746628e-01	-3.523558960274963e+01
1	 1.032177868939832e+00	 7.695876147878290e-01	-3.465708599107975e+01
1	 1.016092972989436e+00	 7.907030543806040e-01	-3.398052802184910e+01
1	 9.995547289900544e-01	 8.115088377340292e-01	-3.320746780305717e+01
1	 9.825721578835327e-01	 8.319905074701464e-01	-3.233981704683605e+01
1	 9.651548904754556e-01	 8.521339609246066e-01	-3.137984266929075e+01
1	 9.473131497308213e-01	 8.719254820900676e-01	-3.033016047903045e+01
1	 9.290577310738252e-01	 8.913517724802531e-01	-2.919372697915504e+01
1	 9.103999807700000e-01	 9.103999807700000e-01	-2.797382932341802e+01
1	 1.088094164579742e+00	 7.113726793838446e-01	-3.676213564992879e+01
1	 1.073274622278753e+00	 7.335404454684142e-01	-3.624649109148240e+01
1	 1.057973846857473e+00	 7.554411554391099e-01	-3.564479273056550e+01
1	 1.042199013299377e+00	 7.770593392038053e-01	-3.495613578526654e+01
1	 1.025957953310421e+00	 7.983797830644190e-01	-3.417991150902039e+01
1	 1.009259143835148e+00	 8.193875643144291e-01	-3.331581375264090e+01
1	 9.921116933973619e-01	 8.400680852129850e-01	-3.236384401635666e+01
1	 9.745253263056164e-01	 8.604071061766666e-01	-3.132431493825845e+01
1	 9.565103647769959e-01	 8.803907780330110e-01	-3.019785217791521e+01
1	 9.380777090456406e-01	 9.000056731842258e-01	-2.898539466685904e+01
1	 9.192388155350000e-01	 9.192388155350000e-01	-2.768819321100494e+01
1	 1.098556608472156e+00	 7.182128013017320e-01	-3.745999180267015e+01
1	 1.083594570571891e+00	 7.405937189830295e-01	-3.679404073171668e+01
1	 1.068146672309800e+00	 7.627050127032456e-01	-3.605574554506350e+01
1	 1.052220157659584e+00	 7.845310636193691e-01	-3.524249467162809e+01
1	 1.035822933632064e+00	 8.060565117477595e-01	-3.435190688652144e+01
1	 1.018963558680864e+00	 8.272662908943328e-01	-3.338184491735949e+01
1	 1.001651228911751e+00	 8.481456629553464e-01	-3.233042793847139e+01
1	 9.838957621362415e-01	 8.686802514283076e-01	-3.119604285353562e+01
1	 9.657075798235105e-01	 8.888560739756349e-01	-2.997735427599248e+01
1	 9.470976870176407e-01	 9.086595738880187e-01	-2.867331312645795e+01
1	 9.280776503000001e-01	 9.280776503000001e-01	-2.728316377717224e+01
1	 1.109019052365064e+00	 7.250529232196299e-01	-3.818676259426095e+01
1	 1.093914518865609e+00	 7.476469924974751e-01	-3.735704754487212e+01
1	 1.078319497762762e+00	 7.699688699670706e-01	-3.646839852678213e+01
1	 1.062241302020453e+00	 7.920027880345202e-01	-3.551652182677780e+01
1	 1.045687913954364e+00	 8.137332404306257e-01	-3.449728928951298e+01
1	 1.028667973527204e+00	 8.351450174737410e-01	-3.340675888545098e+01
1	 1.011190764426698e+00	 8.562232406972299e-01	-3.224119455979876e+01
1	 9.932661979673315e-01	 8.769533966795300e-01	-3.099708521758630e+01
1	 9.749047948703654e-01	 8.973213699179398e-01	-2.967116270536990e+01
1	 9.561176649898260e-01	 9.173134745916315e-01	-2.826041865687890e+01
1	 9.369164850650002e-01	 9.369164850650001e-01	-2.676212007821483e+01
1	 1.119481496258467e+00	 7.318930451375384e-01	-3.894163733386335e+01
1	 1.104234467159906e+00	 7.547002660117507e-01	-3.793507815223968e+01
1	 1.088492323216361e+00	 7.772327272305846e-01	-3.688270400745468e+01
1	 1.072262446381982e+00	 7.994745124492590e-01	-3.577856300016570e+01
1	 1.055552894277321e+00	 8.214099691130178e-01	-3.461680487614060e+01
1	 1.038372388374167e+00	 8.430237440526529e-01	-3.339170847550001e+01
1	 1.020730299942205e+00	 8.643008184386362e-01	-3.209770885138332e+01
1	 1.002636633798886e+00	 8.852265419303337e-01	-3.072942386829831e+01
1	 9.841020099175596e-01	 9.057866658599246e-01	-2.928168009228480e+01
1	 9.651376429621962e-01	 9.259673752950645e-01	-2.774953778886943e+01
1	 9.457553198299999e-01	 9.457553198299999e-01	-2.612831485057378e+01
1	 1.129943940152365e+00	 7.387331670554576e-01	-3.972383535622750e+01
1	 1.114554415454784e+00	 7.617535395258563e-01	-3.852771522617443e+01
1	 1.098665148670595e+00	 7.844965844937873e-01	-3.729861608430581e+01
1	 1.082283590744174e+00	 8.069462368635849e-01	-3.602895113570609e+01
1	 1.065417874600936e+00	 8.290866977949353e-01	-3.471117216906256e+01
1	 1.048076803221754e+00	 8.509024706310688e-01	-3.333780380910707e+01
1	 1.030269835458270e+00	 8.723783961795647e-01	-3.190147782238089e+01
1	 1.012007069630905e+00	 8.934996871807190e-01	-3.039496724215822e+01
1	 9.932992249650937e-01	 9.142519618015905e-01	-2.881122007682140e+01
1	 9.741576209347511e-01	 9.346212759983175e-01	-2.714339236685823e+01
1	 9.545941545949999e-01	 9.545941545949999e-01	-2.538488035897632e+01
1	 1.140406384046757e+00	 7.455732889733871e-01	-4.053260464437083e+01
1	 1.124874363750242e+00	 7.688068130397925e-01	-3.913455675380786e+01
1	 1.108837974125464e+00	 7.917604417566795e-01	-3.771609053906592e+01
1	 1.092304735107027e+00	 8.144179612774985e-01	-3.626800695918835e+01
1	 1.075282854925209e+00	 8.367634264763789e-01	-3.478108332313332e+01
1	 1.057781218069964e+00	 8.587811972089886e-01	-3.324611426946532e+01
1	 1.039809370974894e+00	 8.804559739200161e-01	-3.165395317885876e+01
1	 1.021377505463388e+00	 9.017728324306855e-01	-2.999555374128755e+01
1	 1.002496440012967e+00	 9.227172577429366e-01	-2.826201139484279e+01
1	 9.831775989074915e-01	 9.432751767013908e-01	-2.644460435107873e+01
1	 9.634329893600002e-01	 9.634329893600002e-01	-2.453483392266138e+01
1	 1.150868827941644e+00	 7.524134108913275e-01	-4.136722052738405e+01
1	 1.135194312046280e+00	 7.758600865535584e-01	-3.975521534092155e+01
1	 1.119010799580969e+00	 7.990242990192602e-01	-3.813508476140229e+01
1	 1.102325879470541e+00	 8.218896856909992e-01	-3.649603953364525e+01
1	 1.085147835250138e+00	 8.444401551573477e-01	-3.482720532393962e+01
1	 1.067485632918797e+00	 8.666599237864125e-01	-3.311767035310621e+01
1	 1.049348906492078e+00	 8.885335516599897e-01	-3.135653383757438e+01
1	 1.030747941296336e+00	 9.100459776802332e-01	-2.953295491682373e+01
1	 1.011693655061181e+00	 9.311825536839639e-01	-2.763620173727498e+01
1	 9.921975768804164e-01	 9.519290774042841e-01	-2.565570035776032e+01
1	 9.722718241249999e-01	 9.722718241249999e-01	-2.358108314017434e+01
1	 8.838834764750000e-01	 8.838834764750000e-01	-2.807855973552482e+01
1	 8.653900703672558e-01	 9.019977971594894e-01	-2.378745024169702e+01
1	 8.465295942593203e-01	 9.197215045943362e-01	-1.987343459819296e+01
1	 8.273145251659157e-01	 9.370435829877607e-01	-1.634546233125443e+01
1	 8.077577742387659e-01	 9.539535513453987e-01	-1.321120800659192e+01
1	 7.878726579898540e-01	 9.704414844585149e-01	-1.047704738082740e+01
1	 7.676728683263140e-01	 9.864980320304252e-01	-8.148040325402130e+00
1	 7.471724415374250e-01	 1.002114435865165e+00	-6.227920588087969e+00
1	 7.263857263794565e-01	 1.017282545054521e+00	-4.719092400742580e+00
1	 7.053273514082554e-01	 1.031994829112000e+00	-3.622633885914283e+00
1	 6.840121917124017e-01	 1.046244389015035e+00	-2.938307160054370e+00
1	 8.927223112400001e-01	 8.927223112400001e-01	-2.817273623878269e+01
1	 8.740439710717682e-01	 9.110177751307497e-01	-2.384470127413574e+01
1	 8.549948902032222e-01	 9.289187196394916e-01	-1.986597895837964e+01
1	 8.355876704192313e-01	 9.464140188165279e-01	-1.624809269317165e+01
1	 8.158353519830368e-01	 9.634930868575508e-01	-1.300136301782423e+01
1	 7.957513845717418e-01	 9.801458993017379e-01	-1.013487234638008e+01
1	 7.753495970115517e-01	 9.963630123494376e-01	-7.656436224639924e+00
1	 7.546441659546392e-01	 1.012135580222726e+00	-5.572581251720049e+00
1	 7.336495836448365e-01	 1.027455370504305e+00	-3.888529754975789e+00
1	 7.123806249235501e-01	 1.042314777402819e+00	-2.608191251050107e+00
1	 6.908523136302465e-01	 1.056706832905469e+00	-1.734160670077095e+00
1	 9.015611460049998e-01	 9.015611460049998e-01	-2.813656054611153e+01
1	 8.826978717761006e-01	 9.200377531021950e-01	-2.378966722713336e+01
1	 8.634601861468045e-01	 9.381159346849864e-01	-1.976474283914982e+01
1	 8.438608156721283e-01	 9.557844546457592e-01	-1.607584856467069e+01
1	 8.239129297268304e-01	 9.730326223702622e-01	-1.273591386329578e+01
1	 8.036301111531335e-01	 9.898503141455844e-01	-9.756689929438997e+00
1	 7.830263256963154e-01	 1.006227992669108e+00	-7.148709420857019e+00
1	 7.621158903714405e-01	 1.022156724580948e+00	-4.921252681104770e+00
1	 7.409134409099053e-01	 1.037628195954725e+00	-3.082320624053764e+00
1	 7.194338984386750e-01	 1.052634725694217e+00	-1.638614392477931e+00
1	 6.976924355481020e-01	 1.067169276796399e+00	-5.955218461139147e-01
1	 9.103999807700000e-01	 9.103999807700000e-01	-2.797382932341802e+01
1	 8.913517724802530e-01	 9.290577310738252e-01	-2.362561853990705e+01
1	 8.719254820900674e-01	 9.473131497308210e-01	-1.957245771079317e+01
1	 8.521339609246068e-01	 9.651548904754556e-01	-1.583091075617311e+01
1	 8.319905074701465e-01	 9.825721578835326e-01	-1.241648008184067e+01
1	 8.115088377340296e-01	 9.995547289900545e-01	-9.343548888746353e+00
1	 7.907030543806044e-01	 1.016092972989435e+00	-6.625329507376078e+00
1	 7.695876147878296e-01	 1.032177868939832e+00	-4.273818057853206e+00
1	 7.481772981746633e-01	 1.047801021405781e+00	-2.299755682330725e+00
1	 7.264871719536298e-01	 1.062954673986194e+00	-7.125965400395291e-01
1	 7.045325574659680e-01	 1.077631720687823e+00	 4.795173020889894e-01
1	 9.192388155350000e-01	 9.192388155350000e-01	-2.768819321100494e+01
1	 9.000056731842259e-01	 9.380777090456406e-01	-2.335569986555616e+01
1	 8.803907780330109e-01	 9.565103647769959e-01	-1.929174998705357e+01
1	 8.604071061766667e-01	 9.745253263056164e-01	-1.551537620077848e+01
1	 8.400680852129850e-01	 9.921116933973620e-01	-1.204461892233869e+01
1	 8.193875643144292e-01	 1.009259143835148e+00	-8.896457646170465e+00
1	 7.983797830644193e-01	 1.025957953310421e+00	-6.086748016238660e+00
1	 7.770593392038057e-01	 1.042199013299377e+00	-3.630165056591662e+00
1	 7.554411554391103e-01	 1.057973846857472e+00	-1.540152885916496e+00
1	 7.335404454684151e-01	 1.073274622278753e+00	 1.711188160310848e-01
1	 7.113726793838446e-01	 1.088094164579742e+00	 1.492791380541364e+00
1	 9.280776503000001e-01	 9.280776503000001e-01	-2.728316377717224e+01
1	 9.086595738880183e-01	 9.470976870176407e-01	-2.298293606087710e+01
1	 8.888560739756349e-01	 9.657075798235105e-01	-1.892514602782211e+01
1	 8.686802514283077e-01	 9.838957621362414e-01	-1.513126194842306e+01
1	 8.481456629553463e-01	 1.001651228911750e+00	-1.162182830990417e+01
1	 8.272662908943332e-01	 1.018963558680864e+00	-8.416386207508648e+00
1	 8.060565117477597e-01	 1.035822933632063e+00	-5.533399278265080e+00
1	 7.845310636193695e-01	 1.052220157659584e+00	-2.990185631008454e+00
1	 7.627050127032463e-01	 1.068146672309799e+00	-8.028561735469335e-01
1	 7.405937189830302e-01	 1.083594570571890e+00	 1.013740318459616e+00
1	 7.182128013017320e-01	 1.098556608472156e+00	 2.446065105497019e+00
1	 9.369164850650002e-01	 9.369164850650001e-01	-2.676212007821483e+01
1	 9.173134745916314e-01	 9.561176649898259e-01	-2.251023783713192e+01
1	 8.973213699179396e-01	 9.749047948703653e-01	-1.847507685865711e+01
1	 8.769533966795300e-01	 9.932661979673313e-01	-1.468050893395278e+01
1	 8.562232406972300e-01	 1.011190764426698e+00	-1.114954964417626e+01
1	 8.351450174737411e-01	 1.028667973527204e+00	-7.904267974565681e+00
1	 8.137332404306261e-01	 1.045687913954363e+00	-4.965701234433766e+00
1	 7.920027880345210e-01	 1.062241302020452e+00	-2.353775812011005e+00
1	 7.699688699670710e-01	 1.078319497762762e+00	-8.723424098663718e-02
1	 7.476469924974758e-01	 1.093914518865608e+00	 1.816431000810403e+00
1	 7.250529232196300e-01	 1.109019052365064e+00	 3.341036600140992e+00
1	 9.457553198299999e-01	 9.457553198299999e-01	-2.612831485057378e+01
1	 9.259673752950643e-01	 9.651376429621963e-01	-2.194040709395182e+01
1	 9.057866658599246e-01	 9.841020099175595e-01	-1.794388262566058e+01
1	 8.852265419303337e-01	 1.002636633798885e+00	-1.416498553390372e+01
1	 8.643008184386362e-01	 1.020730299942204e+00	-1.062917044069590e+01
1	 8.430237440526532e-01	 1.038372388374167e+00	-7.361001455621501e+00
1	 8.214099691130180e-01	 1.055552894277321e+00	-4.384056201761052e+00
1	 7.994745124492595e-01	 1.072262446381982e+00	-1.720835517201677e+00
1	 7.772327272305850e-01	 1.088492323216360e+00	 6.073206158406403e-01
1	 7.547002660117512e-01	 1.104234467159906e+00	 2.580310418756398e+00
1	 7.318930451375383e-01	 1.119481496258467e+00	 4.179340506414883e+00
1	 9.545941545949999e-01	 9.545941545949999e-01	-2.538488035897632e+01
1	 9.346212759983176e-01	 9.741576209347513e-01	-2.127614195691171e+01
1	 9.142519618015904e-01	 9.932992249650935e-01	-1.733381680285899e+01
1	 8.934996871807190e-01	 1.012007069630904e+00	-1.358649092568269e+01
1	 8.723783961795650e-01	 1.030269835458270e+00	-1.006202682554043e+01
1	 8.509024706310692e-01	 1.048076803221754e+00	-6.787451880871656e+00
1	 8.290866977949357e-01	 1.065417874600936e+00	-3.788851596632774e+00
1	 8.069462368635854e-01	 1.082283590744173e+00	-1.091268370939095e+00
1	 7.844965844937880e-01	 1.098665148670594e+00	 1.281393593452344e+00
1	 7.617535395258571e-01	 1.114554415454784e+00	 3.306456662943609e+00
1	 7.387331670554576e-01	 1.129943940152365e+00	 4.962550923963147e+00
1	 9.634329893600002e-01	 9.634329893600002e-01	-2.453483392266138e+01
1	 9.432751767013909e-01	 9.831775989074915e-01	-2.052004153780890e+01
1	 9.227172577429366e-01	 1.002496440012967e+00	-1.664705016798805e+01
1	 9.017728324306855e-01	 1.021377505463388e+00	-1.294675826183880e+01
1	 8.804559739200162e-01	 1.039809370974894e+00	-9.449405892638806e+00
1	 8.587811972089889e-01	 1.057781218069964e+00	-6.184452728945129e+00
1	 8.367634264763789e-01	 1.075282854925208e+00	-3.180460618320054e+00
1	 8.144179612774990e-01	 1.092304735107027e+00	-4.649815343021588e-01
1	 7.917604417566800e-01	 1.108837974125464e+00	 1.935548413263760e+00
1	 7.688068130397931e-01	 1.124874363750241e+00	 3.995908261058212e+00
1	 7.455732889733871e-01	 1.140406384046757e+00	 5.692184187303731e+00
1	 9.722718241249999e-01	 9.722718241249999e-01	-2.358108314017434e+01
1	 9.519290774042841e-01	 9.921975768804165e-01	-1.967461043528833e+01
1	 9.311825536839636e-01	 1.011693655061181e+00	-1.588567456141286e+01
1	 9.100459776802337e-01	 1.030747941296336e+00	-1.224745767119427e+01
1	 8.885335516599900e-01	 1.049348906492078e+00	-8.792547932504643e+00
1	 8.666599237864129e-01	 1.067485632918797e+00	-5.552807170156811e+00
1	 8.444401551573482e-01	 1.085147835250138e+00	-2.559242895211122e+00
1	 8.218896856909996e-01	 1.102325879470541e+00	 1.581144556698835e-01
1	 7.990242990192610e-01	 1.119010799580969e+00	 2.570328297729263e+00
1	 7.758600865535591e-01	 1.135194312046279e+00	 4.649665976140998e+00
1	 7.524134108913274e-01	 1.150868827941644e+00	 6.369701491514794e+00
1	 6.840121917124017e-01	 1.046244389015035e+00	-2.938307160054370e+00
1	 6.624553352020789e-01	 1.060024966129602e+00	-1.122353166841304e+00
1	 6.406720486069893e-01	 1.073330949004241e+00	 8.982281957503435e-02
1	 6.186777433390788e-01	 1.086157378033213e+00	 6.764270367024612e-01
1	 5.964879413737916e-01	 1.098499948001280e+00	 6.178006107833087e-01
1	 5.741182412978680e-01	 1.110355008534519e+00	-1.035313601621120e-01
1	 5.515842846700593e-01	 1.121719562493458e+00	-1.502822560130616e+00
1	 5.289017228355563e-01	 1.132591262356013e+00	-3.593080030828203e+00
1	 5.060861843290325e-01	 1.142968404648257e+00	-6.385050460268674e+00
1	 4.831532429944511e-01	 1.152849922490885e+00	-9.887217985056171e+00
1	 4.601183869422882e-01	 1.162235376338345e+00	-1.410581322165475e+01
1	 6.908523136302465e-01	 1.056706832905469e+00	-1.734160670077095e+00
1	 6.690798885542670e-01	 1.070625215791757e+00	 5.755771799456255e-02
1	 6.470787690926667e-01	 1.084064258495567e+00	 1.199473595487304e+00
1	 6.248645207715108e-01	 1.097018951815105e+00	 1.673304850568144e+00
1	 6.024528207859987e-01	 1.109484947482980e+00	 1.463018979094548e+00
1	 5.798594237087384e-01	 1.121458558621532e+00	 5.548650887370732e-01
1	 5.571001275140695e-01	 1.132936758119894e+00	-1.062606107302261e+00
1	 5.341907400606344e-01	 1.143917174980766e+00	-3.398534175123213e+00
1	 5.111470461684543e-01	 1.154398088695481e+00	-6.459752500251169e+00
1	 4.879847754199321e-01	 1.164378421715942e+00	-1.025080317326264e+01
1	 4.647195708066494e-01	 1.173857730101146e+00	-1.477396283031002e+01
1	 6.976924355481020e-01	 1.067169276796399e+00	-5.955218461139147e-01
1	 6.757044419066557e-01	 1.081225465454312e+00	 1.197684791060373e+00
1	 6.534854895787137e-01	 1.094797567987208e+00	 2.295858510988046e+00
1	 6.310512982044615e-01	 1.107880525597236e+00	 2.684173283598583e+00
1	 6.084177001988532e-01	 1.120469946964856e+00	 2.350166203064674e+00
1	 5.856006061203651e-01	 1.132562108708666e+00	 1.283752629004010e+00
1	 5.626159703589236e-01	 1.144153953746409e+00	-5.227708557037545e-01
1	 5.394797572866252e-01	 1.155243087605563e+00	-3.074735423053287e+00
1	 5.162079080088372e-01	 1.165827772742723e+00	-6.375120577771826e+00
1	 4.928163078464036e-01	 1.175906920941005e+00	-1.042458591578077e+01
1	 4.693207546720107e-01	 1.185480083863948e+00	-1.522151356793985e+01
1	 7.045325574659680e-01	 1.077631720687823e+00	 4.795173020889894e-01
1	 6.823289952592447e-01	 1.091825715117267e+00	 2.299186804137689e+00
1	 6.598922100651304e-01	 1.105530877479165e+00	 3.379363950341729e+00
1	 6.372380756379310e-01	 1.118742099379610e+00	 3.708624842010027e+00
1	 6.143825796123554e-01	 1.131454946446909e+00	 3.278021053863437e+00
1	 5.913417885327474e-01	 1.143665658795923e+00	 2.081078122027044e+00
1	 5.681318132046224e-01	 1.155371149373001e+00	 1.137816762225636e-01
1	 5.447687745135287e-01	 1.166569000230403e+00	-2.625448422120552e+00
1	 5.212687698501816e-01	 1.177257456789986e+00	-6.135795487892091e+00
1	 4.976478402738654e-01	 1.187435420166072e+00	-1.041409443922442e+01
1	 4.739219385383718e-01	 1.197102437626749e+00	-1.545489064442206e+01
1	 7.113726793838446e-01	 1.088094164579742e+00	 1.492791380541364e+00
1	 6.889535486120340e-01	 1.102425964780622e+00	 3.363177941630075e+00
1	 6.662989305519171e-01	 1.116264186971437e+00	 4.450361436879835e+00
1	 6.434248530719193e-01	 1.129603673162223e+00	 4.746267704857425e+00
1	 6.203474590265048e-01	 1.142439945929137e+00	 4.245409273001863e+00
1	 5.970829709458856e-01	 1.154769208883302e+00	 2.944867396066117e+00
1	 5.736476560511651e-01	 1.166588344999672e+00	 8.442615668993128e-01
1	 5.500577917413448e-01	 1.177894912855286e+00	-2.054293025690336e+00
1	 5.263296316924875e-01	 1.188687140837267e+00	-5.746239533553368e+00
1	 5.024793727023174e-01	 1.198963919391144e+00	-1.022464434610575e+01
1	 4.785231224057330e-01	 1.208724791389550e+00	-1.548027214617752e+01
1	 7.182128013017320e-01	 1.098556608472156e+00	 2.446065105497019e+00
1	 6.955781019650238e-01	 1.113026214444376e+00	 4.390729942818465e+00
1	 6.727056510390736e-01	 1.126997496464024e+00	 5.509208340663125e+00
1	 6.496116305064261e-01	 1.140465246945077e+00	 5.796724977708583e+00
1	 6.263123384413014e-01	 1.153424945411542e+00	 5.251201335648672e+00
1	 6.028241533597797e-01	 1.165872758970803e+00	 3.873221485925201e+00
1	 5.791634988985525e-01	 1.177805540626420e+00	 1.665985177478246e+00
1	 5.553468089700738e-01	 1.189220825480215e+00	-1.364751187950183e+00
1	 5.313904935357544e-01	 1.200116824884568e+00	-5.210745025202909e+00
1	 5.073109051317600e-01	 1.210492418616221e+00	-9.861348739792684e+00
1	 4.831243062740943e-01	 1.220347145152352e+00	-1.530360080395348e+01
1	 7.250529232196300e-01	 1.109019052365064e+00	 3.341036600140992e+00
1	 7.022026553182140e-01	 1.123626464108531e+00	 5.382874103991304e+00
1	 6.791123715265995e-01	 1.137730805956926e+00	 6.556248546089154e+00
1	 6.557984079414519e-01	 1.151326820728172e+00	 6.859633988562948e+00
1	 6.322772178567455e-01	 1.164409944894123e+00	 6.294310340552091e+00
1	 6.085653357744295e-01	 1.176976309058425e+00	 4.864313085474135e+00
1	 5.846793417467839e-01	 1.189022736253246e+00	 2.576370138502767e+00
1	 5.606358261997154e-01	 1.200546738105186e+00	-5.601734685879727e-01
1	 5.364513553799830e-01	 1.211546508931889e+00	-4.533442299307143e+00
1	 5.121424375621928e-01	 1.222020917841302e+00	-9.329127776355080e+00
1	 4.877254901434555e-01	 1.231969498915153e+00	-1.493059509450666e+01
1	 7.318930451375383e-01	 1.119481496258467e+00	 4.179340506414883e+00
1	 7.088272086716046e-01	 1.134226713773085e+00	 6.340603168302689e+00
1	 6.855190920144951e-01	 1.148464115450143e+00	 7.591813082063929e+00
1	 6.619851853769962e-01	 1.162188394511507e+00	 7.934645623252081e+00
1	 6.382420972728374e-01	 1.175394944376881e+00	 7.373690018284258e+00
1	 6.143065181898355e-01	 1.188079859146170e+00	 5.916383199093575e+00
1	 5.901951845958594e-01	 1.200239931880150e+00	 3.572930617694723e+00
1	 5.659248434302697e-01	 1.211872650730201e+00	 3.562148272773911e-01
1	 5.415122172251726e-01	 1.222976192979229e+00	-3.718307287229131e+00
1	 5.169739699936161e-01	 1.233549417066389e+00	-8.632717680793569e+00
1	 4.923266740138165e-01	 1.243591852677954e+00	-1.436675971976156e+01
1	 7.387331670554576e-01	 1.129943940152365e+00	 4.962550923963147e+00
1	 7.154517620251952e-01	 1.144826963438039e+00	 7.264873110640907e+00
1	 6.919258125027606e-01	 1.159197424943675e+00	 8.616220717162886e+00
1	 6.681719628130595e-01	 1.173049968295084e+00	 9.021423697762373e+00
1	 6.442069766895764e-01	 1.186379943859815e+00	 8.488332850137821e+00
1	 6.200477006059973e-01	 1.199183409234037e+00	 7.027737979151564e+00
1	 5.957110274457796e-01	 1.211457127507132e+00	 4.653272850639130e+00
1	 5.712138606617366e-01	 1.223198563355260e+00	 1.381307850274325e+00
1	 5.465730790713239e-01	 1.234405877026588e+00	-2.769168663614110e+00
1	 5.218055024260299e-01	 1.245077916291480e+00	-7.776679262367644e+00
1	 4.969278578851778e-01	 1.255214206440755e+00	-1.361739550379334e+01
1	 7.455732889733871e-01	 1.140406384046757e+00	 5.692184187303731e+00
1	 7.220763153789865e-01	 1.155427213103392e+00	 8.156604824244617e+00
1	 6.983325329913959e-01	 1.169930734437522e+00	 9.629778522031575e+00
1	 6.743587402496412e-01	 1.183911542078901e+00	 1.011964436510869e+01
1	 6.501718561069627e-01	 1.197364943342925e+00	 9.637268290569628e+00
1	 6.257888830229149e-01	 1.210286959322026e+00	 8.196745737563649e+00
1	 6.012268702965438e-01	 1.222674323134191e+00	 5.815090917488451e+00
1	 5.765028778941165e-01	 1.234524475980362e+00	 2.512113727155985e+00
1	 5.516339409184363e-01	 1.245835561073966e+00	-1.689714601283715e+00
1	 5.266370348594338e-01	 1.256606415516577e+00	-6.765405961188502e+00
1	 5.015290417575390e-01	 1.266836560203556e+00	-1.268760874502289e+01
1	 7.524134108913274e-01	 1.150868827941644e+00	 6.369701491514794e+00
1	 7.287008687329781e-01	 1.166027462769146e+00	 9.016685715325190e+00
1	 7.047392534804007e-01	 1.180664043931685e+00	 1.063278240110993e+01
1	 6.805455176867415e-01	 1.194773115862958e+00	 1.122899555456060e+01
1	 6.561367355249966e-01	 1.208349942826211e+00	 1.081956108660308e+01
1	 6.315300654405884e-01	 1.221390509410137e+00	 9.421834120358874e+00
1	 6.067427131481523e-01	 1.233891518761329e+00	 7.056162750027692e+00
1	 5.817918951274087e-01	 1.245850388605507e+00	 3.745749380068375e+00
1	 5.566948027665101e-01	 1.257265245121364e+00	-4.834991576829424e-01
1	 5.314685672938282e-01	 1.268134914741677e+00	-5.603131455908027e+00
1	 5.061302256309000e-01	 1.278458913966357e+00	-1.158232005829183e+01
1	 4.601183869422882e-01	 1.162235376338345e+00	-1.410581322165475e+01
1	 4.369969884562961e-01	 1.171124942995283e+00	 2.250517160021602e+00
1	 4.138042749547273e-01	 1.179519403004286e+00	 1.649800380268696e+01
1	 3.905553010997264e-01	 1.187420126502869e+00	 2.867100655841745e+01
1	 3.672649221392484e-01	 1.194829057653032e+00	 3.880843712673737e+01
1	 3.439477685578608e-01	 1.201748697753768e+00	 4.695348231700929e+01
1	 3.206182221012706e-01	 1.208182087148427e+00	 5.315331716951462e+01
1	 2.972903932297764e-01	 1.214132786041956e+00	 5.745881004250840e+01
1	 2.739781000458337e-01	 1.219604854344699e+00	 5.992422173915809e+01
1	 2.506948487310247e-01	 1.224602830660197e+00	 6.060690069752304e+01
1	 2.274538155180211e-01	 1.229131710534368e+00	 5.956697620009564e+01
1	 4.647195708066494e-01	 1.173857730101146e+00	-1.477396283031002e+01
1	 4.413669583353180e-01	 1.182836192423920e+00	 1.495758230379899e+00
1	 4.179423176984929e-01	 1.191314597032411e+00	 1.573246337548330e+01
1	 3.944608541049377e-01	 1.199294327765508e+00	 2.796491249289484e+01
1	 3.709375713550830e-01	 1.206777348226831e+00	 3.822634816542559e+01
1	 3.473872462383391e-01	 1.213766184728358e+00	 4.655424312356803e+01
1	 3.238244043178661e-01	 1.220263908016873e+00	 5.299003693056449e+01
1	 3.002632971585618e-01	 1.226274113899371e+00	 5.757886388613016e+01
1	 2.767178810439023e-01	 1.231800902885296e+00	 6.036927411291932e+01
1	 2.532017972172816e-01	 1.236848858964223e+00	 6.141294975065337e+01
1	 2.297283536736934e-01	 1.241423027637528e+00	 6.076441812810203e+01
1	 4.693207546720107e-01	 1.185480083863948e+00	-1.522151356793985e+01
1	 4.457369282153291e-01	 1.194547441852557e+00	 9.226984080136607e-01
1	 4.220803604432159e-01	 1.203109791060537e+00	 1.510852135404526e+01
1	 3.983664071110528e-01	 1.211168529028148e+00	 2.735920184487359e+01
1	 3.746102205717478e-01	 1.218725638800630e+00	 3.770240088152040e+01
1	 3.508267239195530e-01	 1.225783671702948e+00	 4.616996521962508e+01
1	 3.270305865350828e-01	 1.232345728885319e+00	 5.279768731108823e+01
1	 3.032362010878344e-01	 1.238415441756786e+00	 5.762505572597846e+01
1	 2.794576620423047e-01	 1.243996951425893e+00	 6.069499791035813e+01
1	 2.557087457036998e-01	 1.249094887268250e+00	 6.205361710795919e+01
1	 2.320028918293363e-01	 1.253714344740687e+00	 6.174992523068077e+01
1	 4.739219385383718e-01	 1.197102437626749e+00	-1.545489064442206e+01
1	 4.501068980963295e-01	 1.206258691281194e+00	 5.260454858907586e-01
1	 4.262184031888958e-01	 1.214904985088661e+00	 1.462205351295460e+01
1	 4.022719601180718e-01	 1.223042730290787e+00	 2.685095082550122e+01
1	 3.782828697892422e-01	 1.230673929374427e+00	 3.723490182812475e+01
1	 3.542662016015024e-01	 1.237801158677538e+00	 4.580021283949182e+01
1	 3.302367687529205e-01	 1.244427549753766e+00	 5.257711499209985e+01
1	 3.062091050175939e-01	 1.250556769614200e+00	 5.759953688257735e+01
1	 2.821974430410407e-01	 1.256192999966490e+00	 6.090486872109483e+01
1	 2.582156941902795e-01	 1.261340915572276e+00	 6.253371971204379e+01
1	 2.342774299849499e-01	 1.266005661843847e+00	 6.252967036681356e+01
1	 4.785231224057330e-01	 1.208724791389550e+00	-1.548027214617752e+01
1	 4.544768679783190e-01	 1.217969940709831e+00	 3.007108034029322e-01
1	 4.303564459355328e-01	 1.226700179116788e+00	 1.426909425084630e+01
1	 4.061775131259946e-01	 1.234916931553427e+00	 2.643734809934084e+01
1	 3.819555190075666e-01	 1.242622219948226e+00	 3.682222269091346e+01
1	 3.577056792841872e-01	 1.249818645652129e+00	 4.544456697769830e+01
1	 3.334429509713793e-01	 1.256509370622212e+00	 5.232913408995975e+01
1	 3.091820089478404e-01	 1.262698097471615e+00	 5.750437593335627e+01
1	 2.849372240401104e-01	 1.268389048507087e+00	 6.100222845823074e+01
1	 2.607226426770205e-01	 1.273586943876302e+00	 6.285788923849458e+01
1	 2.365519681405341e-01	 1.278296978947007e+00	 6.310958897783973e+01
1	 4.831243062740943e-01	 1.220347145152352e+00	-1.530360080395348e+01
1	 4.588468378612978e-01	 1.229681190138469e+00	 2.417995536781135e-01
1	 4.344944886831269e-01	 1.238495373144913e+00	 1.404582903688263e+01
1	 4.100830661348214e-01	 1.246791132816067e+00	 2.611568942944737e+01
1	 3.856281682267209e-01	 1.254570510522024e+00	 3.646279718658188e+01
1	 3.611451569676077e-01	 1.261836132626718e+00	 4.510262459088662e+01
1	 3.366491331904594e-01	 1.268591191490658e+00	 5.205452770707265e+01
1	 3.121549128785740e-01	 1.274839425329030e+00	 5.734156265279766e+01
1	 2.876770050395138e-01	 1.280585097047684e+00	 6.099029172389668e+01
1	 2.632295911639229e-01	 1.285832972180329e+00	 6.303058091812265e+01
1	 2.388265062960890e-01	 1.290588296050166e+00	 6.349539039305853e+01
1	 4.877254901434555e-01	 1.231969498915153e+00	-1.493059509450666e+01
1	 4.632168077452659e-01	 1.241392439567105e+00	 3.446016395372347e-01
1	 4.386325314316782e-01	 1.250290567173038e+00	 1.394858728478399e+01
1	 4.139886191445520e-01	 1.258665334078706e+00	 2.588337262555129e+01
1	 3.893008174467052e-01	 1.266518801095822e+00	 3.615511813685501e+01
1	 3.645846346517638e-01	 1.273853619601308e+00	 4.477399784488241e+01
1	 3.398553154101606e-01	 1.280673012359104e+00	 5.175404939480948e+01
1	 3.151278168097947e-01	 1.286980753186445e+00	 5.711301172955692e+01
1	 2.904167860392506e-01	 1.292781145588281e+00	 6.087215181448680e+01
1	 2.657365396509867e-01	 1.298079000484355e+00	 6.305608185982800e+01
1	 2.411010444516146e-01	 1.302879613153326e+00	 6.369256849539033e+01
1	 4.923266740138165e-01	 1.243591852677954e+00	-1.436675971976156e+01
1	 4.675867776302232e-01	 1.253103688995743e+00	 6.045830421998488e-01
1	 4.427705741811864e-01	 1.262085761201164e+00	 1.397383562644898e+01
1	 4.178941721551864e-01	 1.270539535341346e+00	 2.573789277552324e+01
1	 3.929734666675194e-01	 1.278467091669621e+00	 3.589773470656956e+01
1	 3.680241123366553e-01	 1.285871106575899e+00	 4.445831340398464e+01
1	 3.430614976304829e-01	 1.292754833227551e+00	 5.142842453439810e+01
1	 3.181007207415024e-01	 1.299122081043860e+00	 5.682056627514545e+01
1	 2.931565670393215e-01	 1.304977194128878e+00	 6.065078638915180e+01
1	 2.682434881382119e-01	 1.310325028788381e+00	 6.293851890676449e+01
1	 2.433755826071108e-01	 1.315170930256486e+00	 6.370641178896364e+01
1	 4.969278578851778e-01	 1.255214206440755e+00	-1.361739550379334e+01
1	 4.719567475161696e-01	 1.264814938424380e+00	 1.017377669506267e+00
1	 4.469086169316517e-01	 1.273880955229289e+00	 1.411817155926008e+01
1	 4.217997251667246e-01	 1.282413736603985e+00	 2.567683774175540e+01
1	 3.966461158891635e-01	 1.290415382243419e+00	 3.568924979519769e+01
1	 3.714635900222824e-01	 1.297888593550488e+00	 4.415521175974015e+01
1	 3.462676798514263e-01	 1.304836654095997e+00	 5.107835164109480e+01
1	 3.210736246736973e-01	 1.311263408901275e+00	 5.646600113768729e+01
1	 2.958963480397257e-01	 1.317173242669475e+00	 6.032906282337326e+01
1	 2.707504366255986e-01	 1.322571057092408e+00	 6.268186605604845e+01
1	 2.456501207625777e-01	 1.327462247359646e+00	 6.354201290739282e+01
1	 5.015290417575390e-01	 1.266836560203556e+00	-1.268760874502289e+01
1	 4.763267174031054e-01	 1.276526187853017e+00	 1.578779652861989e+00
1	 4.510466596830741e-01	 1.285676149257414e+00	 1.437831744308021e+01
1	 4.257052781791671e-01	 1.294287937866625e+00	 2.569788390545046e+01
1	 4.003187651116374e-01	 1.302363672817217e+00	 3.552831757195398e+01
1	 3.749030677086451e-01	 1.309906080525078e+00	 4.386434659666619e+01
1	 3.494738620729909e-01	 1.316918474964443e+00	 5.070450359656955e+01
1	 3.240465286063789e-01	 1.323404736758689e+00	 5.605102603326785e+01
1	 2.986361290404637e-01	 1.329369291210072e+00	 5.990974326784818e+01
1	 2.732573851131466e-01	 1.334817085396434e+00	 6.228995147004665e+01
1	 2.479246589180153e-01	 1.339753564462806e+00	 6.320427759866338e+01
1	 5.061302256309000e-01	 1.278458913966357e+00	-1.158232005829183e+01
1	 4.806966872910303e-01	 1.288237437281654e+00	 2.284736064347886e+00
1	 4.551847024354536e-01	 1.297471343285539e+00	 1.475111482468547e+01
1	 4.296108311925131e-01	 1.306162139129264e+00	 2.579879214303925e+01
1	 4.039914143349413e-01	 1.314311963391015e+00	 3.541364114535423e+01
1	 3.783425453957433e-01	 1.321923567499668e+00	 4.358538419257024e+01
1	 3.526800442951766e-01	 1.329000295832889e+00	 5.030752881406843e+01
1	 3.270194325395477e-01	 1.335546064616104e+00	 5.557728850647970e+01
1	 3.013759100415353e-01	 1.341565339750669e+00	 5.939548943143421e+01
1	 2.757643336008559e-01	 1.347063113700460e+00	 6.176646410522629e+01
1	 2.501991970734234e-01	 1.352044881565965e+00	 6.269793321993285e+01
1	 2.274538155180211e-01	 1.229131710534368e+00	 5.956697620009564e+01
1	 2.042678302137041e-01	 1.233196924082991e+00	 3.795407439224553e+01
1	 1.811493612805352e-01	 1.236804313110804e+00	 1.966891935120718e+01
1	 1.581105024744471e-01	 1.239960107835634e+00	 4.706378454183927e+00
1	 1.351629610294562e-01	 1.242670903327850e+00	-6.948700065159052e+00
1	 1.123180473713980e-01	 1.244943635769421e+00	-1.532102747176088e+01
1	 8.958666633593650e-02	 1.246785558634639e+00	-2.044439222010325e+01
1	 6.697930985936418e-02	 1.248204218889501e+00	-2.236115895034869e+01
1	 4.450605110464890e-02	 1.249207433301722e+00	-2.112175266154541e+01
1	 2.217653997970472e-02	 1.249803264948056e+00	-1.678413180872258e+01
1	 0.000000000000000e+00	 1.250000000000000e+00	-9.413253921389380e+00
1	 2.297283536736934e-01	 1.241423027637528e+00	 6.076441812810203e+01
1	 2.063105085178029e-01	 1.245528893322062e+00	 3.967169096865403e+01
1	 1.829608548964180e-01	 1.249172356240531e+00	 2.171248185106801e+01
1	 1.596916075030363e-01	 1.252359708912939e+00	 6.882425791217116e+00
1	 1.365145906440207e-01	 1.255097612360361e+00	-4.832308465910337e+00
1	 1.134412278494712e-01	 1.257393072126586e+00	-1.345458490186679e+01
1	 9.048253300341476e-02	 1.259253414220649e+00	-1.901584524530809e+01
1	 6.764910296151375e-02	 1.260686261078208e+00	-2.155563630623586e+01
1	 4.495111161837246e-02	 1.261699507634656e+00	-2.112112328071751e+01
1	 2.239830538099112e-02	 1.262301297597516e+00	-1.776659256491425e+01
1	 0.000000000000000e+00	 1.262500000000000e+00	-1.155294747629510e+01
1	 2.320028918293363e-01	 1.253714344740687e+00	 6.174992523068077e+01
1	 2.083531868216939e-01	 1.257860862561134e+00	 4.114535184321887e+01
1	 1.847723485119567e-01	 1.261540399370259e+00	 2.348383878654425e+01
1	 1.612727125311870e-01	 1.264759309990245e+00	 8.761765982749345e+00
1	 1.378662202580929e-01	 1.267524321392872e+00	-3.033407814521944e+00
1	 1.145644083270384e-01	 1.269842508483751e+00	-1.192273720315411e+01
1	 9.137839967041286e-02	 1.271721269806659e+00	-1.793536209439317e+01
1	 6.831889606324743e-02	 1.273168303266915e+00	-2.110806298450133e+01
1	 4.539617213178213e-02	 1.274191581967590e+00	-2.148480298079536e+01
1	 2.262007078210258e-02	 1.274799330246976e+00	-1.911625991558117e+01
1	 0.000000000000000e+00	 1.275000000000000e+00	-1.405935174883489e+01
1	 2.342774299849499e-01	 1.266005661843847e+00	 6.252967036681356e+01
1	 2.103958651253771e-01	 1.270192831800205e+00	 4.238216252179712e+01
1	 1.865838421271515e-01	 1.273908442499986e+00	 2.499091847502709e+01
1	 1.628538175588991e-01	 1.277158911067550e+00	 1.035304098447120e+01
1	 1.392178498716727e-01	 1.279951030425384e+00	-1.542750801813945e+00
1	 1.156875888040997e-01	 1.282291944840916e+00	-1.071573889389456e+01
1	 9.227426633693080e-02	 1.284189125392670e+00	-1.719280498601001e+01
1	 6.898868916456520e-02	 1.285650345455622e+00	-2.100801327663151e+01
1	 4.584123264487796e-02	 1.286683656300524e+00	-2.220218081756116e+01
1	 2.284183618303908e-02	 1.287297362896436e+00	-2.082243852289707e+01
1	 0.000000000000000e+00	 1.287500000000000e+00	-1.692178584420008e+01
1	 2.365519681405341e-01	 1.278296978947007e+00	 6.310958897783973e+01
1	 2.124385434288524e-01	 1.282524801039276e+00	 4.338895522156975e+01
1	 1.883953357420022e-01	 1.286276485629713e+00	 2.624134429863114e+01
1	 1.644349225861726e-01	 1.289558512144856e+00	 1.166456036916746e+01
1	 1.405694794847602e-01	 1.292377739457896e+00	-3.514457843426655e-01
1	 1.168107692806550e-01	 1.294741381198081e+00	-9.824219318580276e+00
1	 9.317013300296850e-02	 1.296656980978679e+00	-1.677842605348116e+01
1	 6.965848226546710e-02	 1.298132387644329e+00	-2.124546246291030e+01
1	 4.628629315765993e-02	 1.299175730633459e+00	-2.326305396004973e+01
1	 2.306360158380064e-02	 1.299795395545896e+00	-2.287484440819999e+01
1	 0.000000000000000e+00	 1.300000000000000e+00	-2.012997967124850e+01
1	 2.388265062960890e-01	 1.290588296050166e+00	 6.349539039305853e+01
1	 2.144812217321199e-01	 1.294856770278347e+00	 4.417230188478591e+01
1	 1.902068293565090e-01	 1.298644528759439e+00	 2.724244922492321e+01
1	 1.660160276130074e-01	 1.301958113222162e+00	 1.270431715447527e+01
1	 1.419211090973555e-01	 1.304804448490407e+00	 5.490601520650742e-01
1	 1.179339497567045e-01	 1.307190817555246e+00	-9.239164799056205e+00
1	 9.406599966852608e-02	 1.309124836564689e+00	-1.668284877743613e+01
1	 7.032827536595314e-02	 1.310614429833036e+00	-2.181076771771364e+01
1	 4.673135367012803e-02	 1.311667804966393e+00	-2.465760825658159e+01
1	 2.328536698438725e-02	 1.312293428195356e+00	-2.526358536345861e+01
1	 0.000000000000000e+00	 1.312500000000000e+00	-2.367405438042472e+01
1	 2.411010444516146e-01	 1.302879613153326e+00	 6.369256849539033e+01
1	 2.165239000351797e-01	 1.307188739517419e+00	 4.473852645588400e+01
1	 1.920183229706717e-01	 1.311012571889167e+00	 2.800128950571938e+01
1	 1.675971326394038e-01	 1.314357714299468e+00	 1.348000273472972e+01
1	 1.432727387094584e-01	 1.317231157522919e+00	 1.166997170106100e+00
1	 1.190571302322480e-01	 1.319640253912411e+00	-8.951901795966926e+00
1	 9.496186633360344e-02	 1.321592692150699e+00	-1.689705046942765e+01
1	 7.099806846602327e-02	 1.323096472021744e+00	-2.269465009563773e+01
1	 4.717641418228224e-02	 1.324159879299327e+00	-2.637639990083545e+01
1	 2.350713238479890e-02	 1.324791460844816e+00	-2.797914247152567e+01
1	 0.000000000000000e+00	 1.325000000000000e+00	-2.754450390896721e+01
1	 2.433755826071108e-01	 1.315170930256486e+00	 6.370641178896364e+01
1	 2.185665783380317e-01	 1.319520708756490e+00	 4.509371647017269e+01
1	 1.938298165844906e-01	 1.323380615018894e+00	 2.852465760772882e+01
1	 1.691782376653614e-01	 1.326757315376773e+00	 1.399902097551091e+01
1	 1.446243683210689e-01	 1.329657866555430e+00	 1.510287762846545e+00
1	 1.201803107072856e-01	 1.332089690269576e+00	-8.954081014419110e+00
1	 9.585773299820063e-02	 1.334060547736709e+00	-1.741234573777630e+01
1	 7.166786156567753e-02	 1.335578514210451e+00	-2.388817752774907e+01
1	 4.762147469412262e-02	 1.336651953632262e+00	-2.841033812598872e+01
1	 2.372889778503561e-02	 1.337289493494276e+00	-3.101235266263807e+01
1	 0.000000000000000e+00	 1.337500000000000e+00	-3.173217756096337e+01
1	 2.456501207625777e-01	 1.327462247359646e+00	 6.354201290739282e+01
1	 2.206092566406758e-01	 1.331852677995562e+00	 4.524373399869803e+01
1	 1.956413101979653e-01	 1.335748658148621e+00	 2.881909442482599e+01
1	 1.707593426908806e-01	 1.339156916454079e+00	 1.426850152515937e+01
1	 1.459759979321872e-01	 1.342084575587941e+00	 1.586560997685574e+00
1	 1.213034911818173e-01	 1.344539126626741e+00	-9.237662392664191e+00
1	 9.675359966231767e-02	 1.346528403322719e+00	-1.822037087197972e+01
1	 7.233765466491589e-02	 1.348060556399157e+00	-2.538274876248866e+01
1	 4.806653520564912e-02	 1.349144027965196e+00	-3.075066886029650e+01
1	 2.395066318509738e-02	 1.349787526143736e+00	-3.435439223999916e+01
1	 0.000000000000000e+00	 1.350000000000000e+00	-3.622826355518046e+01
1	 2.479246589180153e-01	 1.339753564462806e+00	 6.320427759866338e+01
1	 2.226519349431121e-01	 1.344184647234633e+00	 4.519422599064059e+01
1	 1.974528038110961e-01	 1.348116701278348e+00	 2.889090081808863e+01
1	 1.723404477159611e-01	 1.351556517531384e+00	 1.429531239354924e+01
1	 1.473276275428132e-01	 1.354511284620453e+00	 1.403165976248133e+00
1	 1.224266716558430e-01	 1.356988562983906e+00	-9.794900917091244e+00
1	 9.764946632595450e-02	 1.358996258908729e+00	-1.931306908669538e+01
1	 7.300744776373835e-02	 1.360542598587865e+00	-2.717007819056357e+01
1	 4.851159571686176e-02	 1.361636102298130e+00	-3.338895928236264e+01
1	 2.417242858498419e-02	 1.362285558793196e+00	-3.799676131221318e+01
1	 0.000000000000000e+00	 1.362500000000000e+00	-4.102427347851953e+01
1	 2.501991970734234e-01	 1.352044881565965e+00	 6.269793321993285e+01
1	 2.246946132453406e-01	 1.356516616473704e+00	 4.495063405158105e+01
1	 1.992642974238829e-01	 1.360484744408075e+00	 2.874614852637990e+01
1	 1.739215527406030e-01	 1.363956118608690e+00	 1.408607184474542e+01
1	 1.486792571529468e-01	 1.366937993652964e+00	 9.671845601022255e-01
1	 1.235498521293628e-01	 1.369437999341071e+00	-1.061833321094909e+01
1	 9.854533298911115e-02	 1.371464114494739e+00	-2.068267657059561e+01
1	 7.367724086214492e-02	 1.373024640776572e+00	-2.924218149756931e+01
1	 4.895665622776053e-02	 1.374128176631064e+00	-3.631708321885002e+01
1	 2.439419398469604e-02	 1.374783591442656e+00	-4.193126907485335e+01
1	 0.000000000000000e+00	 1.375000000000000e+00	-4.611202758746332e+01
1	 1.375000000000000e+00	 0.000000000000000e+00	 1.527020982964444e+02
1	 1.374783591442656e+00	 2.439419398469526e-02	 1.341919142909112e+02
1	 1.374128176631064e+00	 4.895665622775984e-02	 1.153850722771229e+02
1	 1.373024640776572e+00	 7.367724086214431e-02	 9.629799286903413e+01
1	 1.371464114494739e+00	 9.854533298911061e-02	 7.694815601202308e+01
1	 1.369437999341071e+00	 1.235498521293624e-01	 5.735409114767217e+01
1	 1.366937993652964e+00	 1.486792571529464e-01	 3.753536259639813e+01
1	 1.363956118608690e+00	 1.739215527406027e-01	 1.751254997915401e+01
1	 1.360484744408075e+00	 1.992642974238827e-01	-2.692776476369931e+00
1	 1.356516616473704e+00	 2.246946132453406e-01	-2.305808587241087e+01
1	 1.352044881565965e+00	 2.501991970734234e-01	-4.355992191787534e+01
1	 1.387500000000000e+00	 0.000000000000000e+00	 1.506316182707149e+02
1	 1.387281624092118e+00	 2.461595938431963e-02	 1.324082197106158e+02
1	 1.386620250964008e+00	 4.940171673850166e-02	 1.138582288269501e+02
1	 1.385506682965300e+00	 7.434703396034295e-02	 9.500130176731157e+01
1	 1.383931970080787e+00	 9.944119965202716e-02	 7.585837276374046e+01
1	 1.381887435698295e+00	 1.246730326026292e-01	 5.645164103954706e+01
1	 1.379364702685561e+00	 1.500308867628339e-01	 3.680455172247402e+01
1	 1.376355719686112e+00	 1.755026577650253e-01	 1.694177054162660e+01
1	 1.372852787537955e+00	 2.010757910364976e-01	-3.110847883461855e+00
1	 1.368848585712971e+00	 2.267372915474652e-01	-2.332629831848535e+01
1	 1.364336198669367e+00	 2.524737352288170e-01	-4.367646987307914e+01
1	 1.400000000000000e+00	 0.000000000000000e+00	 1.482112669639304e+02
1	 1.399779656741585e+00	 2.483772478394402e-02	 1.303099581876642e+02
1	 1.399112325296970e+00	 4.984677724924350e-02	 1.120527581851825e+02
1	 1.397988725154069e+00	 7.501682705854158e-02	 9.346251740537022e+01
1	 1.396399825666909e+00	 1.003370663149437e-01	 7.456358045208030e+01
1	 1.394336872055636e+00	 1.257962130758961e-01	 5.538176975960509e+01
1	 1.391791411718328e+00	 1.513825163727214e-01	 3.594436207565558e+01
1	 1.388755320763768e+00	 1.770837627894480e-01	 1.628005748596626e+01
1	 1.385220830668143e+00	 2.028872846491123e-01	-3.581059247744883e+00
1	 1.381180554952629e+00	 2.287799698495898e-01	-2.360756522246559e+01
1	 1.376627515773255e+00	 2.547482733842105e-01	-4.376675394042284e+01
1	 1.412500000000000e+00	 0.000000000000000e+00	 1.454503329941614e+02
1	 1.412277689391056e+00	 2.505949018356840e-02	 1.279054810568104e+02
1	 1.411604399629950e+00	 5.029183775998533e-02	 1.099760575338954e+02
1	 1.410470767342881e+00	 7.568662015674019e-02	 9.168806703790925e+01
1	 1.408867681253106e+00	 1.012329329778603e-01	 7.306922179554842e+01
1	 1.406786308413095e+00	 1.269193935491629e-01	 5.414892211773252e+01
1	 1.404218120751266e+00	 1.527341459826088e-01	 3.495822849064207e+01
1	 1.401154921841658e+00	 1.786648678138706e-01	 1.552982497905221e+01
1	 1.397588873798637e+00	 2.046987782617271e-01	-4.102026322537200e+00
1	 1.393512524192677e+00	 2.308226481517144e-01	-2.390154000578875e+01
1	 1.388918832877628e+00	 2.570228115396040e-01	-4.383147139122877e+01
1	 1.425000000000000e+00	 0.000000000000000e+00	 1.423577790630549e+02
1	 1.424775722040532e+00	 2.528125558319277e-02	 1.252028466235188e+02
1	 1.424096473962949e+00	 5.073689827072717e-02	 1.076352645049163e+02
1	 1.422952809531734e+00	 7.635641325493886e-02	 8.968415240191923e+01
1	 1.421335536839377e+00	 1.021287996407769e-01	 7.138054854007117e+01
1	 1.419235744770672e+00	 1.280425740224298e-01	 5.275738696557368e+01
1	 1.416644829784374e+00	 1.540857755924963e-01	 3.384946528161689e+01
1	 1.413554522919780e+00	 1.802459728382932e-01	 1.469340248015355e+01
1	 1.409956916929438e+00	 2.065102718743419e-01	-4.672413431216139e+00
1	 1.405844493433116e+00	 2.328653264538391e-01	-2.420788825054331e+01
1	 1.401210149982486e+00	 2.592973496949976e-01	-4.387129503115865e+01
1	 1.437500000000000e+00	 0.000000000000000e+00	 1.389422561261142e+02
1	 1.437273754690013e+00	 2.550302098281715e-02	 1.222098329043686e+02
1	 1.436588548295966e+00	 5.118195878146901e-02	 1.050372684646179e+02
1	 1.435434851720629e+00	 7.702620635313746e-02	 8.745675952179978e+01
1	 1.433803392425724e+00	 1.030246663036934e-01	 6.950262976215156e+01
1	 1.431685181128366e+00	 1.291657544956966e-01	 5.121130397732428e+01
1	 1.429071538817652e+00	 1.554374052023837e-01	 3.262127148226980e+01
1	 1.425954123998137e+00	 1.818270778627159e-01	 1.377303842386901e+01
1	 1.422324960060546e+00	 2.083217654869567e-01	-5.290931355476513e+00
1	 1.418176462673946e+00	 2.349080047559637e-01	-2.452628717074517e+01
1	 1.413501467087830e+00	 2.615718878503911e-01	-4.388687426393801e+01
1	 1.450000000000000e+00	 0.000000000000000e+00	 1.352121168300328e+02
1	 1.449771787339498e+00	 2.572478638244153e-02	 1.189339497084705e+02
1	 1.449080622629002e+00	 5.162701929221086e-02	 1.021887212150154e+02
1	 1.447916893909566e+00	 7.769599945133610e-02	 8.501166800731593e+01
1	 1.446271248012145e+00	 1.039205329666100e-01	 6.744035974255080e+01
1	 1.444134617486178e+00	 1.302889349689635e-01	 4.951467007979382e+01
1	 1.441498247851101e+00	 1.567890348122712e-01	 3.127673581478386e+01
1	 1.438353725076727e+00	 1.834081828871385e-01	 1.277090371256955e+01
1	 1.434693003191961e+00	 2.101332590995715e-01	-5.956335332816943e+00
1	 1.430508431915167e+00	 2.369506830580883e-01	-2.485642511096147e+01
1	 1.425792784193659e+00	 2.638464260057847e-01	-4.387883610006038e+01
1	 1.462500000000000e+00	 0.000000000000000e+00	 1.311754282609331e+02
1	 1.462269819988988e+00	 2.594655178206591e-02	 1.153824500993253e+02
1	 1.461572696962056e+00	 5.207207980295267e-02	 9.909604714608898e+01
1	 1.460398936098544e+00	 7.836579254953473e-02	 8.235445987473651e+01
1	 1.458739103598641e+00	 1.048163996295265e-01	 6.519846543619218e+01
1	 1.456584053844107e+00	 1.314121154422303e-01	 4.767134555272117e+01
1	 1.453924956884720e+00	 1.581406644221587e-01	 2.981884140400233e+01
1	 1.450753326155549e+00	 1.849892879115611e-01	 1.168909502974148e+01
1	 1.447061046323683e+00	 2.119447527121864e-01	-6.667423156719110e+00
1	 1.442840401156778e+00	 2.389933613602129e-01	-2.519800107064597e+01
1	 1.438084101299973e+00	 2.661209641611783e-01	-4.384778611376297e+01
1	 1.475000000000000e+00	 0.000000000000000e+00	 1.268399840443919e+02
1	 1.474767852638482e+00	 2.616831718169029e-02	 1.115623412738744e+02
1	 1.474064771295128e+00	 5.251714031369450e-02	 9.576545287188800e+01
1	 1.472880978287565e+00	 7.903558564773337e-02	 7.949052791944004e+01
1	 1.471206959185211e+00	 1.057122662924431e-01	 6.278151356223871e+01
1	 1.469033490202154e+00	 1.325352959154971e-01	 4.568505981890483e+01
1	 1.466351665918510e+00	 1.594922940320462e-01	 2.825047025189226e+01
1	 1.463152927234607e+00	 1.865703929359837e-01	 1.052963798485439e+01
1	 1.459429089455712e+00	 2.137562463248012e-01	-7.423033373428199e+00
1	 1.455172370398780e+00	 2.410360396623376e-01	-2.555072425266085e+01
1	 1.450375418406773e+00	 2.683955023165718e-01	-4.379430935134256e+01
1	 1.487500000000000e+00	 0.000000000000000e+00	 1.222133158353784e+02
1	 1.487265885287981e+00	 2.639008258131467e-02	 1.074803948930278e+02
1	 1.486556845628220e+00	 5.296220082443635e-02	 9.220293638077909e+01
1	 1.485363020476627e+00	 7.970537874593198e-02	 7.642508366637198e+01
1	 1.483674814771857e+00	 1.066081329553596e-01	 6.019391733668829e+01
1	 1.481482926560319e+00	 1.336584763887640e-01	 4.355941694239369e+01
1	 1.478778374952471e+00	 1.608439236419336e-01	 2.657440748640479e+01
1	 1.475552528313897e+00	 1.881514979604064e-01	 9.294490099664495e+00
1	 1.471797132588047e+00	 2.155677399374159e-01	-8.222043569651850e+00
1	 1.467504339641173e+00	 2.430787179644622e-01	-2.591431363456197e+01
1	 1.462666735514058e+00	 2.706700404719652e-01	-4.371897119367424e+01
1	 1.500000000000000e+00	 0.000000000000000e+00	 1.173027042336965e+02
1	 1.499763917937484e+00	 2.661184798093904e-02	 1.031431568956654e+02
1	 1.499048919961329e+00	 5.340726133517817e-02	 8.841429572818382e+01
1	 1.497845062665731e+00	 8.037517184413061e-02	 7.316316492297973e+01
1	 1.496142670358577e+00	 1.075039996182762e-01	 5.743994286833871e+01
1	 1.493932362918601e+00	 1.347816568620308e-01	 4.129790085176805e+01
1	 1.491205083986601e+00	 1.621955532518211e-01	 2.479334539789260e+01
1	 1.487952129393420e+00	 1.897326029848289e-01	 7.985543645202560e+00
1	 1.484165175720690e+00	 2.173792335500308e-01	-9.063368745874296e+00
1	 1.479836308883957e+00	 2.451213962665869e-01	-2.628849756132016e+01
1	 1.474958052621828e+00	 2.729445786273588e-01	-4.362231817560365e+01
1	 1.352044881565965e+00	 2.501991970734234e-01	-4.355992191787534e+01
1	 1.347063113700461e+00	 2.757643336008552e-01	-4.051006234996350e+01
1	 1.341565339750669e+00	 3.013759100415347e-01	-3.746637907562724e+01
1	 1.335546064616104e+00	 3.270194325395472e-01	-3.444669368747866e+01
1	 1.329000295832889e+00	 3.526800442951761e-01	-3.146919978037051e+01
1	 1.321923567499668e+00	 3.783425453957430e-01	-2.855240441388057e+01
1	 1.314311963391016e+00	 4.039914143349411e-01	-2.571506574217732e+01
1	 1.306162139129264e+00	 4.296108311925129e-01	-2.297612703913864e+01
1	 1.297471343285539e+00	 4.551847024354536e-01	-2.035464738633299e+01
1	 1.288237437281654e+00	 4.806966872910303e-01	-1.786972933069062e+01
1	 1.278458913966357e+00	 5.061302256309002e-01	-1.554044385689730e+01
1	 1.364336198669367e+00	 2.524737352288170e-01	-4.367646987307914e+01
1	 1.359309142004773e+00	 2.782712820886430e-01	-4.074690790531034e+01
1	 1.353761388291581e+00	 3.041156910427638e-01	-3.780790373575573e+01
1	 1.347687392473848e+00	 3.299923364729382e-01	-3.487849758180871e+01
1	 1.341082116701665e+00	 3.558862265176344e-01	-3.197819243175915e+01
1	 1.333941054474572e+00	 3.817820230831492e-01	-2.912689343267587e+01
1	 1.326260253965098e+00	 4.076640635585734e-01	-2.634484290943997e+01
1	 1.318036340392143e+00	 4.335163842061925e-01	-2.365255123544321e+01
1	 1.309266537313843e+00	 4.593227451881562e-01	-2.107072381920467e+01
1	 1.299948686710394e+00	 4.850666571792523e-01	-1.862018451463247e+01
1	 1.290081267729169e+00	 5.107314095045163e-01	-1.632179580532501e+01
1	 1.376627515773255e+00	 2.547482733842105e-01	-4.376675394042284e+01
1	 1.371555170309656e+00	 2.807782305764259e-01	-4.096852112945137e+01
1	 1.365957436833121e+00	 3.068554720439740e-01	-3.814554869293711e+01
1	 1.359828720332250e+00	 3.329652404062867e-01	-3.531808169620656e+01
1	 1.353163937571098e+00	 3.590924087400163e-01	-3.250691765639944e+01
1	 1.345958541450105e+00	 3.852215007704358e-01	-2.973334387030184e+01
1	 1.338208544539750e+00	 4.113367127820325e-01	-2.701906984252549e+01
1	 1.329910541655500e+00	 4.374219372196355e-01	-2.438615502729878e+01
1	 1.321061731342504e+00	 4.634607879405481e-01	-2.185693214484555e+01
1	 1.311659936139337e+00	 4.894366270670794e-01	-1.945392638101056e+01
1	 1.301703621492001e+00	 5.153325933776431e-01	-1.719977082588510e+01
1	 1.388918832877628e+00	 2.570228115396040e-01	-4.383147139122877e+01
1	 1.383801198615110e+00	 2.832851790642043e-01	-4.117530642053240e+01
1	 1.378153485375291e+00	 3.095952530451653e-01	-3.847941694811529e+01
1	 1.371970048191311e+00	 3.359381443395925e-01	-3.576523947614647e+01
1	 1.365245758441190e+00	 3.622985909623221e-01	-3.305485158066298e+01
1	 1.357976028426266e+00	 3.886609784576026e-01	-3.037090719352182e+01
1	 1.350156835114969e+00	 4.150093620053185e-01	-2.773656645917151e+01
1	 1.341784742919335e+00	 4.413274902328413e-01	-2.517542037237247e+01
1	 1.332856925371522e+00	 4.675988306926294e-01	-2.271141045463672e+01
1	 1.323371185568486e+00	 4.938065969545113e-01	-2.036874377901586e+01
1	 1.313325975254853e+00	 5.199337772502799e-01	-1.817180370434075e+01
1	 1.401210149982486e+00	 2.592973496949976e-01	-4.387129503115865e+01
1	 1.396047226921136e+00	 2.857921275519781e-01	-4.136765398729055e+01
1	 1.390349533918090e+00	 3.123350340463378e-01	-3.880960788816616e+01
1	 1.384111376051029e+00	 3.389110482728556e-01	-3.621977161462988e+01
1	 1.377327579311940e+00	 3.655047731845517e-01	-3.362148871245240e+01
1	 1.369993515403056e+00	 3.921004561446497e-01	-3.103876464219558e+01
1	 1.362105125690758e+00	 4.186820112284312e-01	-2.849619408351145e+01
1	 1.353658944183649e+00	 4.452330432458106e-01	-2.601888249297490e+01
1	 1.344652119400897e+00	 4.717368734443999e-01	-2.363236217008665e+01
1	 1.335082434997839e+00	 4.981765668415484e-01	-2.136250314207869e+01
1	 1.324948329017727e+00	 5.245349611224271e-01	-1.923541923397267e+01
1	 1.413501467087830e+00	 2.615718878503911e-01	-4.388687426393801e+01
1	 1.408293255227734e+00	 2.882990760397471e-01	-4.154594046598496e+01
1	 1.402545582461518e+00	 3.150748150474914e-01	-3.913621744303067e+01
1	 1.396252703911406e+00	 3.418839522060762e-01	-3.668148573707570e+01
1	 1.389409400183348e+00	 3.687109554067051e-01	-3.420634114200433e+01
1	 1.382011002380474e+00	 3.955399338315773e-01	-3.173612593479660e+01
1	 1.374053416267115e+00	 4.223546604513709e-01	-2.929685364579601e+01
1	 1.365533145448441e+00	 4.491385962585428e-01	-2.691512756020650e+01
1	 1.356447313430629e+00	 4.758749161958595e-01	-2.461805320239096e+01
1	 1.346793684427397e+00	 5.025465367281904e-01	-2.243314511464103e+01
1	 1.336570682780620e+00	 5.291361449940847e-01	-2.038822830220878e+01
1	 1.425792784193659e+00	 2.638464260057847e-01	-4.387883610006038e+01
1	 1.420539283534902e+00	 2.908060245275114e-01	-4.171052950541754e+01
1	 1.414741631005576e+00	 3.178145960486264e-01	-3.945933823472070e+01
1	 1.408394031772441e+00	 3.448568561392540e-01	-3.715019610250909e+01
1	 1.401491221055414e+00	 3.719171376287824e-01	-3.480893778403016e+01
1	 1.394028489358520e+00	 3.989794115183852e-01	-3.246222804088578e+01
1	 1.386001706844041e+00	 4.260273096741372e-01	-3.013748397523310e+01
1	 1.377407346713711e+00	 4.530441492710384e-01	-2.786279049788856e+01
1	 1.368242507460718e+00	 4.800129589470085e-01	-2.566680925891140e+01
1	 1.358504933857160e+00	 5.069165066144373e-01	-2.357868135340588e+01
1	 1.348193036543535e+00	 5.337373288652523e-01	-2.162792417966948e+01
1	 1.438084101299973e+00	 2.661209641611783e-01	-4.384778611376297e+01
1	 1.432785311842642e+00	 2.933129730152711e-01	-4.186177232195246e+01
1	 1.426937679550262e+00	 3.205543770497423e-01	-3.977905971868366e+01
1	 1.420535359634135e+00	 3.478297600723892e-01	-3.762572332007409e+01
1	 1.413573041928139e+00	 3.751233198507835e-01	-3.542882365872131e+01
1	 1.406045976337195e+00	 4.024188892050735e-01	-3.321633401653493e+01
1	 1.397949997421535e+00	 4.296999588967306e-01	-3.101706018037433e+01
1	 1.389281547979460e+00	 4.569497022832971e-01	-2.886055289911400e+01
1	 1.380037701491165e+00	 4.841510016978469e-01	-2.677701328778402e+01
1	 1.370216183287127e+00	 5.112864765002894e-01	-2.479719149262534e+01
1	 1.359815390306469e+00	 5.383385127359304e-01	-2.295227899951853e+01
1	 1.450375418406773e+00	 2.683955023165718e-01	-4.379430935134256e+01
1	 1.445031340150954e+00	 2.958199215030261e-01	-4.200000822631424e+01
1	 1.439133728095578e+00	 3.232941580508395e-01	-4.009546831797891e+01
1	 1.432676687496486e+00	 3.508026640054819e-01	-3.810789407996077e+01
1	 1.425654862801522e+00	 3.783295020727082e-01	-3.606555920931377e+01
1	 1.418063463316499e+00	 4.058583668916420e-01	-3.399773189896631e+01
1	 1.409898287999598e+00	 4.333726081191508e-01	-3.193459211185456e+01
1	 1.401155749245687e+00	 4.608552552953189e-01	-2.990714104873561e+01
1	 1.391832895521968e+00	 4.882890444483744e-01	-2.794710305246279e+01
1	 1.381927432717298e+00	 5.156564463857464e-01	-2.608682026369585e+01
1	 1.371437744069425e+00	 5.429396966061187e-01	-2.435914041582971e+01
1	 1.462666735514058e+00	 2.706700404719652e-01	-4.371897119367424e+01
1	 1.457277368459836e+00	 2.983268699907763e-01	-4.212556512382498e+01
1	 1.451329776641522e+00	 3.260339390519178e-01	-4.040864755068897e+01
1	 1.444818015359496e+00	 3.537755679385318e-01	-3.859654089789906e+01
1	 1.437736683675562e+00	 3.815356842945568e-01	-3.671871965406082e+01
1	 1.430080950296430e+00	 4.092978445780909e-01	-3.480573365692416e+01
1	 1.421846578578230e+00	 4.370452573413978e-01	-3.288912290264052e+01
1	 1.413029950512391e+00	 4.647608083071040e-01	-3.100132404556100e+01
1	 1.403628089553128e+00	 4.924270871985911e-01	-2.917556882855482e+01
1	 1.393638682147674e+00	 5.200264162708083e-01	-2.744577475998414e+01
1	 1.383060097832401e+00	 5.475408804758173e-01	-2.584642843043941e+01
1	 1.474958052621828e+00	 2.729445786273588e-01	-4.362231817560365e+01
1	 1.469523396769290e+00	 3.008338184785218e-01	-4.223875998962918e+01
1	 1.463525825188096e+00	 3.287737200529772e-01	-4.071867815096023e+01
1	 1.456959343223164e+00	 3.567484718715391e-01	-3.909150187242788e+01
1	 1.449818504550261e+00	 3.847418665163292e-01	-3.738789437060755e+01
1	 1.442098437276991e+00	 4.127373222644202e-01	-3.563967419352822e+01
1	 1.433794869157430e+00	 4.407179065634715e-01	-3.387972758126702e+01
1	 1.424904151779575e+00	 4.686663613186522e-01	-3.214191201843782e+01
1	 1.415423283584646e+00	 4.965651299484973e-01	-3.046095121581399e+01
1	 1.405349931578255e+00	 5.243963861554752e-01	-2.887232183841176e+01
1	 1.394682451595397e+00	 5.521420643450261e-01	-2.741213237845644e+01
1	 1.278458913966357e+00	 5.061302256309002e-01	-1.554044385689730e+01
1	 1.268134914741677e+00	 5.314685672938273e-01	-1.931156531900089e+01
1	 1.257265245121364e+00	 5.566948027665093e-01	-2.285787589841690e+01
1	 1.245850388605507e+00	 5.817918951274083e-01	-2.616354679087527e+01
1	 1.233891518761329e+00	 6.067427131481519e-01	-2.921328952807030e+01
1	 1.221390509410137e+00	 6.315300654405880e-01	-3.199242889134385e+01
1	 1.208349942826211e+00	 6.561367355249965e-01	-3.448697451162518e+01
1	 1.194773115862958e+00	 6.805455176867415e-01	-3.668369065016803e+01
1	 1.180664043931685e+00	 7.047392534804008e-01	-3.857016365401041e+01
1	 1.166027462769146e+00	 7.287008687329783e-01	-4.013486658455773e+01
1	 1.150868827941644e+00	 7.524134108913275e-01	-4.136722052738405e+01
1	 1.290081267729169e+00	 5.107314095045163e-01	-1.632179580532501e+01
1	 1.279663413966696e+00	 5.363000997284292e-01	-1.991173362041553e+01
1	 1.268694929168601e+00	 5.617556646147478e-01	-2.330402161000019e+01
1	 1.257176301230428e+00	 5.870809123608272e-01	-2.647983150023252e+01
1	 1.245108714388191e+00	 6.122585559998535e-01	-2.942072389623127e+01
1	 1.232494059497939e+00	 6.372712478583265e-01	-3.210873096670839e+01
1	 1.219334942309169e+00	 6.621016149430717e-01	-3.452643882098210e+01
1	 1.205634689646682e+00	 6.867322951238657e-01	-3.665706903024878e+01
1	 1.191397353425526e+00	 7.111459739694163e-01	-3.848455873502638e+01
1	 1.176627712434604e+00	 7.353254220869723e-01	-3.999363877602528e+01
1	 1.161331271836279e+00	 7.592535328092679e-01	-4.116990928659885e+01
1	 1.301703621492001e+00	 5.153325933776431e-01	-1.719977082588510e+01
1	 1.291191913191545e+00	 5.411316321624557e-01	-2.058463023566037e+01
1	 1.280124613215495e+00	 5.668165264623538e-01	-2.379846343925109e+01
1	 1.268502213854855e+00	 5.923699295935861e-01	-2.681948114638507e+01
1	 1.256325910014428e+00	 6.177743988508976e-01	-2.962613340667961e+01
1	 1.243597609585001e+00	 6.430124302754390e-01	-3.219720196545586e+01
1	 1.230319941791294e+00	 6.680664943605835e-01	-3.451189330700973e+01
1	 1.216496263429501e+00	 6.929190725605179e-01	-3.654993179492906e+01
1	 1.202130662918409e+00	 7.175526944580828e-01	-3.829165229983286e+01
1	 1.187227962099074e+00	 7.419499754407718e-01	-3.971809169121845e+01
1	 1.171793715729913e+00	 7.660936547271976e-01	-4.081107856228560e+01
1	 1.313325975254853e+00	 5.199337772502799e-01	-1.817180370434075e+01
1	 1.302720412416223e+00	 5.459631645959069e-01	-2.132832432460922e+01
1	 1.291554297262048e+00	 5.718773883093278e-01	-2.433991918841335e+01
1	 1.279828126478787e+00	 5.976589468256857e-01	-2.718187542132600e+01
1	 1.267543105640037e+00	 6.232902417012837e-01	-2.982957181673931e+01
1	 1.254701159671323e+00	 6.487536126919254e-01	-3.225858076575484e+01
1	 1.241304941272585e+00	 6.740313737775310e-01	-3.444477185883948e+01
1	 1.227357837211414e+00	 6.991058499966986e-01	-3.636441652692275e+01
1	 1.212863972410334e+00	 7.239594149464007e-01	-3.799429306124271e+01
1	 1.197828211762553e+00	 7.485745287943757e-01	-3.931179132860588e+01
1	 1.182256159622547e+00	 7.729337766451166e-01	-4.029501648230166e+01
1	 1.324948329017727e+00	 5.245349611224271e-01	-1.923541923397267e+01
1	 1.314248911640731e+00	 5.507946970287825e-01	-2.214095279591209e+01
1	 1.302983981308260e+00	 5.769382501556699e-01	-2.492715164912523e+01
1	 1.291154039102225e+00	 6.029479640571251e-01	-2.756641578224140e+01
1	 1.278760301265018e+00	 6.288060845510121e-01	-3.003109099751250e+01
1	 1.265804709756905e+00	 6.544947951077862e-01	-3.229358032022473e+01
1	 1.252289940753044e+00	 6.799962531939144e-01	-3.432645805370439e+01
1	 1.238219410992422e+00	 7.052926274324078e-01	-3.610258580604413e+01
1	 1.223597281901301e+00	 7.303661354343699e-01	-3.759522977723643e+01
1	 1.208428461425044e+00	 7.551990821477844e-01	-3.877817856390743e+01
1	 1.192718603514182e+00	 7.797738985630251e-01	-3.962586071388381e+01
1	 1.336570682780620e+00	 5.291361449940847e-01	-2.038822830220878e+01
1	 1.325777410865070e+00	 5.556262294610830e-01	-2.302071736139641e+01
1	 1.314413665354130e+00	 5.819991120013793e-01	-2.555896664635922e+01
1	 1.302479951725169e+00	 6.082369812879048e-01	-2.797252450519760e+01
1	 1.289977496889373e+00	 6.343219274000825e-01	-3.023074101588915e+01
1	 1.276908259841745e+00	 6.602359775230207e-01	-3.230288878313335e+01
1	 1.263274940232669e+00	 6.859611326097342e-01	-3.415828734441337e+01
1	 1.249080984772522e+00	 7.114794048676448e-01	-3.576643047020248e+01
1	 1.234330591391309e+00	 7.367728559219902e-01	-3.709711559682440e+01
1	 1.219028711086545e+00	 7.618236355009983e-01	-3.812057459021329e+01
1	 1.203181047404816e+00	 7.866140204809229e-01	-3.880760500541396e+01
1	 1.348193036543535e+00	 5.337373288652523e-01	-2.162792417966948e+01
1	 1.337305910089237e+00	 5.604577618928078e-01	-2.396588174282654e+01
1	 1.325843349399657e+00	 5.870599738464568e-01	-2.623421118353662e+01
1	 1.313805864347619e+00	 6.135259985180249e-01	-2.839964378777551e+01
1	 1.301194692513100e+00	 6.398377702484953e-01	-3.042857021231467e+01
1	 1.288011809925847e+00	 6.659771599376293e-01	-3.228717057929163e+01
1	 1.274259939711461e+00	 6.919260120249896e-01	-3.394154913367976e+01
1	 1.259942558551717e+00	 7.176661823024106e-01	-3.535787270772649e+01
1	 1.245063900880360e+00	 7.431795764092617e-01	-3.650251218112333e+01
1	 1.229628960747055e+00	 7.684481888540168e-01	-3.734218607671853e+01
1	 1.213643491294451e+00	 7.934541423988104e-01	-3.784410538981789e+01
1	 1.359815390306469e+00	 5.383385127359304e-01	-2.295227899951853e+01
1	 1.348834409313236e+00	 5.652892943239575e-01	-2.497476902190648e+01
1	 1.337273033444844e+00	 5.921208356909020e-01	-2.695177168276501e+01
1	 1.325131776969575e+00	 6.188150157474851e-01	-2.884723489772430e+01
1	 1.312411888136201e+00	 6.453536130962503e-01	-3.062462527456968e+01
1	 1.299115360009208e+00	 6.717183423516120e-01	-3.224706741813267e+01
1	 1.285244939189419e+00	 6.978908914396811e-01	-3.367748874207360e+01
1	 1.270804132330007e+00	 7.238529597367049e-01	-3.487876899110602e+01
1	 1.255797210368453e+00	 7.495862968961844e-01	-3.581389361309457e+01
1	 1.240229210406577e+00	 7.750727422068403e-01	-3.644611006290548e+01
1	 1.224105935183085e+00	 8.002942643166867e-01	-3.673908606984115e+01
1	 1.371437744069425e+00	 5.429396966061187e-01	-2.435914041582971e+01
1	 1.360362908537064e+00	 5.701208267545316e-01	-2.604575912502822e+01
1	 1.348702717489688e+00	 5.971816975347151e-01	-2.771057231455497e+01
1	 1.336457689591036e+00	 6.241040329762855e-01	-2.931477736490284e+01
1	 1.323629083758674e+00	 6.508694559433473e-01	-3.081895130779839e+01
1	 1.310218910091828e+00	 6.774595247649685e-01	-3.218319925622800e+01
1	 1.296229938666545e+00	 7.038557708538085e-01	-3.336730927590960e+01
1	 1.281665706107390e+00	 7.300397371705269e-01	-3.433091286156208e+01
1	 1.266530519855588e+00	 7.559930173827586e-01	-3.503365010848324e+01
1	 1.250829460065109e+00	 7.816972955594688e-01	-3.543533860387149e+01
1	 1.234568379070720e+00	 8.071343862345530e-01	-3.549614500407296e+01
1	 1.383060097832401e+00	 5.475408804758173e-01	-2.584642843043941e+01
1	 1.371891407760723e+00	 5.749523591845306e-01	-2.717728643483938e+01
1	 1.360132401534192e+00	 6.022425593778959e-01	-2.850957341175252e+01
1	 1.347783602212004e+00	 6.293930502044260e-01	-2.980176821396471e+01
1	 1.334846279380521e+00	 6.563852987897866e-01	-3.101159190100546e+01
1	 1.321322460173709e+00	 6.832007071776993e-01	-3.209616521127312e+01
1	 1.307214938142837e+00	 7.098206502673718e-01	-3.301217340095509e+01
1	 1.292527279883867e+00	 7.362265146038777e-01	-3.371603757321749e+01
1	 1.277263829341764e+00	 7.623997378689840e-01	-3.416409153965066e+01
1	 1.261429709722652e+00	 7.883218489119022e-01	-3.431276318143650e+01
1	 1.245030822957354e+00	 8.139745081524086e-01	-3.411875921132286e+01
1	 1.394682451595397e+00	 5.521420643450261e-01	-2.741213237845644e+01
1	 1.383419906984210e+00	 5.797838916139538e-01	-2.836783752123271e+01
1	 1.371562085578352e+00	 6.073034212204445e-01	-2.934776996277535e+01
1	 1.359109514832477e+00	 6.346820674319068e-01	-3.030772123540800e+01
1	 1.346063475001740e+00	 6.619011416355681e-01	-3.120258919022896e+01
1	 1.332426010254849e+00	 6.889418895898038e-01	-3.198654443037410e+01
1	 1.318199937618296e+00	 7.157855296803712e-01	-3.261320502745247e+01
1	 1.303388853659439e+00	 7.424132920367565e-01	-3.303581860505913e+01
1	 1.287997138826982e+00	 7.688064583548604e-01	-3.320745078321518e+01
1	 1.272029959379205e+00	 7.949464022641402e-01	-3.308117889469646e+01
1	 1.255493266842989e+00	 8.208146300702533e-01	-3.261028980977763e+01
1	 1.150868827941644e+00	 7.524134108913275e-01	-4.136722052738405e+01
1	 1.135194312046280e+00	 7.758600865535584e-01	-3.975521534092155e+01
1	 1.119010799580969e+00	 7.990242990192602e-01	-3.813508476140229e+01
1	 1.102325879470541e+00	 8.218896856909992e-01	-3.649603953364525e+01
1	 1.085147835250138e+00	 8.444401551573477e-01	-3.482720532393962e+01
1	 1.067485632918797e+00	 8.666599237864125e-01	-3.311767035310621e+01
1	 1.049348906492078e+00	 8.885335516599897e-01	-3.135653383757438e+01
1	 1.030747941296336e+00	 9.100459776802332e-01	-2.953295491682373e+01
1	 1.011693655061181e+00	 9.311825536839639e-01	-2.763620173727498e+01
1	 9.921975768804164e-01	 9.519290774042841e-01	-2.565570035776032e+01
1	 9.722718241249999e-01	 9.722718241249999e-01	-2.358108314017434e+01
1	 1.161331271836279e+00	 7.592535328092679e-01	-4.116990928659885e+01
1	 1.145514260342112e+00	 7.829133600673248e-01	-3.947968614620577e+01
1	 1.129183625036312e+00	 8.062881562818414e-01	-3.776510313358170e+01
1	 1.112347023833931e+00	 8.293614101044999e-01	-3.601921042483750e+01
1	 1.095012815574977e+00	 8.521168838383165e-01	-3.423504466154731e+01
1	 1.077190047767566e+00	 8.745386503638365e-01	-3.240566067244940e+01
1	 1.058888442009220e+00	 8.966111293999636e-01	-3.052416353979491e+01
1	 1.040118377129261e+00	 9.183191229297812e-01	-2.858374079370922e+01
1	 1.020890870109385e+00	 9.396478496249905e-01	-2.657769451389867e+01
1	 1.001217554853339e+00	 9.605829781071776e-01	-2.449947311624863e+01
1	 9.811106588900002e-01	 9.811106588899999e-01	-2.234270260236758e+01
1	 1.171793715729913e+00	 7.660936547271976e-01	-4.081107856228560e+01
1	 1.155834208636955e+00	 7.899666335812606e-01	-3.907024041503081e+01
1	 1.139356450490695e+00	 8.135520135447331e-01	-3.728902004227659e+01
1	 1.122368168196411e+00	 8.368331345184133e-01	-3.546425507761347e+01
1	 1.104877795898975e+00	 8.597936125197603e-01	-3.359284033922823e+01
1	 1.086894462615585e+00	 8.824173769417563e-01	-3.167174382075585e+01
1	 1.068427977525723e+00	 9.046887071404149e-01	-2.969802256838505e+01
1	 1.049488812961676e+00	 9.265922681797479e-01	-2.766883833148161e+01
1	 1.030088085157229e+00	 9.481131455663370e-01	-2.558147287415515e+01
1	 1.010237532826072e+00	 9.692368788102509e-01	-2.343334283653992e+01
1	 9.899494936549997e-01	 9.899494936549997e-01	-2.122201403708586e+01
1	 1.182256159622547e+00	 7.729337766451166e-01	-4.029501648230166e+01
1	 1.166154156930807e+00	 7.970199070953664e-01	-3.853043345365891e+01
1	 1.149529275944117e+00	 8.208158708079358e-01	-3.670965234049031e+01
1	 1.132389312557980e+00	 8.443048589327393e-01	-3.483324763988958e+01
1	 1.114742776222132e+00	 8.674703412016775e-01	-3.290192094971813e+01
1	 1.096598877462853e+00	 8.902961035201722e-01	-3.091650140432821e+01
1	 1.077967513041584e+00	 9.127662848813437e-01	-2.887794554298548e+01
1	 1.058859248793580e+00	 9.348654134301332e-01	-2.678733660106989e+01
1	 1.039285300204712e+00	 9.565784415080028e-01	-2.464588321844879e+01
1	 1.019257510798614e+00	 9.778907795135040e-01	-2.245491756385540e+01
1	 9.987883284199998e-01	 9.987883284199998e-01	-2.021589287863507e+01
1	 1.192718603514182e+00	 7.797738985630251e-01	-3.962586071388381e+01
1	 1.176474105223669e+00	 8.040731806096418e-01	-3.786369582076783e+01
1	 1.159702101396579e+00	 8.280797280714499e-01	-3.602971804428088e+01
1	 1.142410456918639e+00	 8.517765833474782e-01	-3.412818948246316e+01
1	 1.124607756544448e+00	 8.751470698840697e-01	-3.216356846846369e+01
1	 1.106303292309371e+00	 8.981748300990842e-01	-3.014049462223027e+01
1	 1.087507048556805e+00	 9.208438626227500e-01	-2.806377288605664e+01
1	 1.068229684624973e+00	 9.431385586809372e-01	-2.593835663582818e+01
1	 1.048482515251834e+00	 9.650437374499877e-01	-2.376932996822496e+01
1	 1.028277488770966e+00	 9.865446802169371e-01	-2.156188927165852e+01
1	 1.007627163185000e+00	 1.007627163185000e+00	-1.932132419521207e+01
1	 1.203181047404816e+00	 7.866140204809229e-01	-3.880760500541396e+01
1	 1.186794053515542e+00	 8.111264541240873e-01	-3.707333875125863e+01
1	 1.169874926848081e+00	 8.353435853352749e-01	-3.525184063001878e+01
1	 1.152431601278387e+00	 8.592483077626292e-01	-3.335101236323468e+01
1	 1.134472736865924e+00	 8.828237985669359e-01	-3.137902028046138e+01
1	 1.116007707155137e+00	 9.060535566784921e-01	-2.934426515355810e+01
1	 1.097046584071386e+00	 9.289214403646335e-01	-2.725535057058255e+01
1	 1.077600120455857e+00	 9.514117039321597e-01	-2.512105004186407e+01
1	 1.057679730298597e+00	 9.735090333922922e-01	-2.295027304331621e+01
1	 1.037297466743129e+00	 9.951985809205499e-01	-2.075203021260101e+01
1	 1.016465997950000e+00	 1.016465997950000e+00	-1.853539792221369e+01
1	 1.213643491294451e+00	 7.934541423988104e-01	-3.784410538981789e+01
1	 1.197114001806424e+00	 8.181797276387025e-01	-3.616255929952167e+01
1	 1.180047752298623e+00	 8.426074425994110e-01	-3.437855310937389e+01
1	 1.162452745637224e+00	 8.667200321781930e-01	-3.250358142776355e+01
1	 1.144337717186559e+00	 8.905005272502764e-01	-3.054947110225915e+01
1	 1.125712122000154e+00	 9.139322832583960e-01	-2.852833599881814e+01
1	 1.106586119585325e+00	 9.369990181069947e-01	-2.645252988082350e+01
1	 1.086970556286230e+00	 9.596848491838008e-01	-2.433459768024824e+01
1	 1.066876945345000e+00	 9.819743293349166e-01	-2.218722546976987e+01
1	 1.046317444715101e+00	 1.003852481624343e+00	-2.002318945821290e+01
1	 1.025304832715000e+00	 1.025304832715000e+00	-1.785530434209818e+01
1	 1.224105935183085e+00	 8.002942643166867e-01	-3.673908606984115e+01
1	 1.207433950096316e+00	 8.252330011534879e-01	-3.513444521894579e+01
1	 1.190220577748204e+00	 8.498712998638577e-01	-3.341230189532789e+01
1	 1.172473889995152e+00	 8.741917565941695e-01	-3.158769805595000e+01
1	 1.154202697506354e+00	 8.981772559340911e-01	-2.967607480539480e+01
1	 1.135416536844419e+00	 9.218110098387959e-01	-2.769321227815710e+01
1	 1.116125655098625e+00	 9.450765958498334e-01	-2.565516718533842e+01
1	 1.096340992116092e+00	 9.679579944358603e-01	-2.357820841680209e+01
1	 1.076074160391042e+00	 9.904396252778599e-01	-2.147875111035199e+01
1	 1.055337422686883e+00	 1.012506382328315e+00	-1.937328961604414e+01
1	 1.034143667480000e+00	 1.034143667480000e+00	-1.727832979604944e+01
1	 1.234568379070720e+00	 8.071343862345530e-01	-3.549614500407296e+01
1	 1.217753898385218e+00	 8.322862746684426e-01	-3.399197959331627e+01
1	 1.200393403196825e+00	 8.571351571286158e-01	-3.235545047161035e+01
1	 1.182495034352168e+00	 8.816634810105580e-01	-3.060510256396863e+01
1	 1.164067677825308e+00	 9.058539846183804e-01	-2.875994614711647e+01
1	 1.145120951687934e+00	 9.296897364196918e-01	-2.683938198900475e+01
1	 1.125665190611283e+00	 9.531541735931494e-01	-2.486312372154955e+01
1	 1.105711427945443e+00	 9.762311396883390e-01	-2.285111793545553e+01
1	 1.085271375436723e+00	 9.989049212211228e-01	-2.082346251044878e+01
1	 1.064357400658475e+00	 1.021160283032468e+00	-1.880032371373132e+01
1	 1.042982502245000e+00	 1.042982502245000e+00	-1.680185261369142e+01
1	 1.245030822957354e+00	 8.139745081524086e-01	-3.411875921132286e+01
1	 1.228073846673131e+00	 8.393395481835675e-01	-3.273804523469712e+01
1	 1.210566228644485e+00	 8.643990143936846e-01	-3.121028287712107e+01
1	 1.192516178708275e+00	 8.891352054273600e-01	-2.955747676997226e+01
1	 1.173932658143422e+00	 9.135307133031441e-01	-2.780216241384028e+01
1	 1.154825366530698e+00	 9.375684630010837e-01	-2.596731672551591e+01
1	 1.135204726123301e+00	 9.612317513369427e-01	-2.407626539116675e+01
1	 1.115081863774285e+00	 9.845042849412358e-01	-2.215258761143574e+01
1	 1.094468590482045e+00	 1.007370217164705e+00	-2.022001885257810e+01
1	 1.073377378629877e+00	 1.029814183736800e+00	-1.830235224017066e+01
1	 1.051821337010000e+00	 1.051821337010000e+00	-1.642333924802757e+01
1	 1.255493266842989e+00	 8.208146300702533e-01	-3.261028980977763e+01
1	 1.238393794960052e+00	 8.463928216988620e-01	-3.137542886141958e+01
1	 1.220739054091186e+00	 8.716628716590645e-01	-2.997900701613101e+01
1	 1.202537323063470e+00	 8.966069298445739e-01	-2.844644643150878e+01
1	 1.183797638460694e+00	 9.212074419883817e-01	-2.680376498243532e+01
1	 1.164529781372711e+00	 9.454471895829715e-01	-2.507747236203975e+01
1	 1.144744261634678e+00	 9.693093290812137e-01	-2.329446256584360e+01
1	 1.124452299602615e+00	 9.927774301945512e-01	-2.148190344079660e+01
1	 1.103665805527006e+00	 1.015835513108607e+00	-1.966712401317615e+01
1	 1.082397356601088e+00	 1.038468084441313e+00	-1.787750033463192e+01
1	 1.060660171775000e+00	 1.060660171775000e+00	-1.614034060363289e+01
1	 9.722718241249999e-01	 9.722718241249999e-01	-2.358108314017434e+01
1	 9.519290774042841e-01	 9.921975768804165e-01	-1.967461043528833e+01
1	 9.311825536839636e-01	 1.011693655061181e+00	-1.588567456141286e+01
1	 9.100459776802337e-01	 1.030747941296336e+00	-1.224745767119427e+01
1	 8.885335516599900e-01	 1.049348906492078e+00	-8.792547932504643e+00
1	 8.666599237864129e-01	 1.067485632918797e+00	-5.552807170156811e+00
1	 8.444401551573482e-01	 1.085147835250138e+00	-2.559242895211122e+00
1	 8.218896856909996e-01	 1.102325879470541e+00	 1.581144556698835e-01
1	 7.990242990192610e-01	 1.119010799580969e+00	 2.570328297729263e+00
1	 7.758600865535591e-01	 1.135194312046279e+00	 4.649665976140998e+00
1	 7.524134108913274e-01	 1.150868827941644e+00	 6.369701491514794e+00
1	 9.811106588900002e-01	 9.811106588899999e-01	-2.234270260236758e+01
1	 9.605829781071776e-01	 1.001217554853339e+00	-1.862535424693544e+01
1	 9.396478496249905e-01	 1.020890870109385e+00	-1.501116977159448e+01
1	 9.183191229297815e-01	 1.040118377129261e+00	-1.152799884707996e+01
1	 8.966111293999636e-01	 1.058888442009220e+00	-8.203186636266102e+00
1	 8.745386503638366e-01	 1.077190047767566e+00	-5.063463322488344e+00
1	 8.521168838383170e-01	 1.095012815574976e+00	-2.134837331601674e+00
1	 8.293614101045006e-01	 1.112347023833931e+00	 5.575070673981095e-01
1	 8.062881562818418e-01	 1.129183625036312e+00	 2.989307139744346e+00
1	 7.829133600673254e-01	 1.145514260342112e+00	 5.137313444319226e+00
1	 7.592535328092677e-01	 1.161331271836278e+00	 6.979375432146881e+00
1	 9.899494936549997e-01	 9.899494936549997e-01	-2.122201403708586e+01
1	 9.692368788102508e-01	 1.010237532826071e+00	-1.765533358448768e+01
1	 9.481131455663370e-01	 1.030088085157229e+00	-1.417775724744260e+01
1	 9.265922681797482e-01	 1.049488812961676e+00	-1.081187544480314e+01
1	 9.046887071404153e-01	 1.068427977525723e+00	-7.579862425781835e+00
1	 8.824173769417565e-01	 1.086894462615585e+00	-4.503387431553006e+00
1	 8.597936125197605e-01	 1.104877795898974e+00	-1.603528864544590e+00
1	 8.368331345184140e-01	 1.122368168196410e+00	 1.099307985893958e+00
1	 8.135520135447336e-01	 1.139356450490694e+00	 3.585469146236152e+00
1	 7.899666335812616e-01	 1.155834208636955e+00	 5.836125613088079e+00
1	 7.660936547271977e-01	 1.171793715729913e+00	 7.833342024946877e+00
1	 9.987883284199998e-01	 9.987883284199998e-01	-2.021589287863507e+01
1	 9.778907795135039e-01	 1.019257510798614e+00	-1.676244484987817e+01
1	 9.565784415080025e-01	 1.039285300204712e+00	-1.338434604383183e+01
1	 9.348654134301334e-01	 1.058859248793580e+00	-1.009899891333258e+01
1	 9.127662848813437e-01	 1.077967513041584e+00	-6.923476971337605e+00
1	 8.902961035201726e-01	 1.096598877462853e+00	-3.874457339204239e+00
1	 8.674703412016779e-01	 1.114742776222131e+00	-9.681556242136606e-01
1	 8.443048589327401e-01	 1.132389312557980e+00	 1.779736459664253e+00
1	 8.208158708079366e-01	 1.149529275944116e+00	 4.354110339412104e+00
1	 7.970199070953669e-01	 1.166154156930806e+00	 6.740496339993703e+00
1	 7.729337766451166e-01	 1.182256159622547e+00	 8.925115624337618e+00
1	 1.007627163185000e+00	 1.007627163185000e+00	-1.932132419521207e+01
1	 9.865446802169368e-01	 1.028277488770966e+00	-1.594465825550276e+01
1	 9.650437374499879e-01	 1.048482515251834e+00	-1.262988349441419e+01
1	 9.431385586809371e-01	 1.068229684624974e+00	-9.389283808690305e+00
1	 9.208438626227501e-01	 1.087507048556805e+00	-6.234900305664691e+00
1	 8.981748300990846e-01	 1.106303292309370e+00	-3.178484998107414e+00
1	 8.751470698840700e-01	 1.124607756544448e+00	-2.314561572673979e-01
1	 8.517765833474784e-01	 1.142410456918638e+00	 2.595144395161687e+00
1	 8.280797280714506e-01	 1.159702101396579e+00	 5.290691793329019e+00
1	 8.040731806096427e-01	 1.176474105223669e+00	 7.845016189328556e+00
1	 7.797738985630250e-01	 1.192718603514182e+00	 1.024843815124424e+01
1	 1.016465997950000e+00	 1.016465997950000e+00	-1.853539792221369e+01
1	 9.951985809205498e-01	 1.037297466743129e+00	-1.520001461506881e+01
1	 9.735090333922922e-01	 1.057679730298597e+00	-1.191335354732562e+01
1	 9.514117039321597e-01	 1.077600120455857e+00	-8.682647658863210e+00
1	 9.289214403646335e-01	 1.097046584071385e+00	-5.514972199485789e+00
1	 9.060535566784923e-01	 1.116007707155137e+00	-2.417219336486746e+00
1	 8.828237985669360e-01	 1.134472736865924e+00	 6.039262434322694e-01
1	 8.592483077626301e-01	 1.152431601278386e+00	 3.542010589048581e+00
1	 8.353435853352754e-01	 1.169874926848081e+00	 6.390832457724997e+00
1	 8.111264541240881e-01	 1.186794053515541e+00	 9.144463879666031e+00
1	 7.866140204809230e-01	 1.203181047404816e+00	 1.179726919889885e+01
1	 1.025304832715000e+00	 1.025304832715000e+00	-1.785530434209818e+01
1	 1.003852481624343e+00	 1.046317444715101e+00	-1.452662230043574e+01
1	 9.819743293349165e-01	 1.066876945345000e+00	-1.123377518697430e+01
1	 9.596848491838006e-01	 1.086970556286229e+00	-7.979010835700801e+00
1	 9.369990181069949e-01	 1.106586119585325e+00	-4.764503465911782e+00
1	 9.139322832583963e-01	 1.125712122000153e+00	-1.592348974694875e+00
1	 8.905005272502765e-01	 1.144337717186559e+00	 1.535439433054136e+00
1	 8.667200321781937e-01	 1.162452745637224e+00	 4.616935258791166e+00
1	 8.426074425994116e-01	 1.180047752298622e+00	 7.650302353035116e+00
1	 8.181797276387035e-01	 1.197114001806424e+00	 1.063379817376088e+01
1	 7.934541423988104e-01	 1.213643491294451e+00	 1.356577665041461e+01
1	 1.034143667480000e+00	 1.034143667480000e+00	-1.727832979604944e+01
1	 1.012506382328315e+00	 1.055337422686883e+00	-1.392265435451367e+01
1	 9.904396252778600e-01	 1.076074160391042e+00	-1.059020093676470e+01
1	 9.679579944358603e-01	 1.096340992116092e+00	-7.278296433382394e+00
1	 9.450765958498334e-01	 1.116125655098624e+00	-3.984277197946379e+00
1	 9.218110098387960e-01	 1.135416536844419e+00	-7.055048024742274e-01
1	 8.981772559340918e-01	 1.154202697506354e+00	 2.560618519581418e+00
1	 8.741917565941700e-01	 1.172473889995151e+00	 5.816634853736123e+00
1	 8.498712998638585e-01	 1.190220577748203e+00	 9.065016114377451e+00
1	 8.252330011534884e-01	 1.207433950096316e+00	 1.230815018435464e+01
1	 8.002942643166867e-01	 1.224105935183085e+00	 1.554832777750801e+01
1	 1.042982502245000e+00	 1.042982502245000e+00	-1.680185261369142e+01
1	 1.021160283032468e+00	 1.064357400658475e+00	-1.338634575096478e+01
1	 9.989049212211227e-01	 1.085271375436723e+00	-9.981715437953230e+00
1	 9.762311396883389e-01	 1.105711427945443e+00	-6.580430153064680e+00
1	 9.531541735931496e-01	 1.125665190611283e+00	-3.175049943066981e+00
1	 9.296897364196920e-01	 1.145120951687934e+00	 2.417375748319284e-01
1	 9.058539846183808e-01	 1.164067677825307e+00	 3.677082166659627e+00
1	 8.816634810105588e-01	 1.182495034352168e+00	 7.137937130031023e+00
1	 8.571351571286164e-01	 1.200393403196824e+00	 1.063102686381248e+01
1	 8.322862746684434e-01	 1.217753898385218e+00	 1.416281607120957e+01
1	 8.071343862345530e-01	 1.234568379070720e+00	 1.773948079183019e+01
1	 1.051821337010000e+00	 1.051821337010000e+00	-1.642333924802757e+01
1	 1.029814183736800e+00	 1.073377378629877e+00	-1.291599079207099e+01
1	 1.007370217164705e+00	 1.094468590482045e+00	-9.407434100158897e+00
1	 9.845042849412359e-01	 1.115081863774285e+00	-5.885340193344008e+00
1	 9.612317513369429e-01	 1.135204726123301e+00	-2.337552818583628e+00
1	 9.375684630010840e-01	 1.154825366530698e+00	 1.247855513404912e+00
1	 9.135307133031443e-01	 1.173932658143421e+00	 4.882529082853507e+00
1	 8.891352054273607e-01	 1.192516178708274e+00	 8.577776473868443e+00
1	 8.643990143936855e-01	 1.210566228644485e+00	 1.234452039156515e+01
1	 8.393395481835683e-01	 1.228073846673130e+00	 1.619325010636126e+01
1	 8.139745081524083e-01	 1.245030822957354e+00	 2.013397682228088e+01
1	 1.060660171775000e+00	 1.060660171775000e+00	-1.614034060363289e+01
1	 1.038468084441312e+00	 1.082397356601088e+00	-1.250994063670739e+01
1	 1.015835513108607e+00	 1.103665805527006e+00	-8.866501819347608e+00
1	 9.927774301945514e-01	 1.124452299602615e+00	-5.192957146197731e+00
1	 9.693093290812139e-01	 1.144744261634678e+00	-1.472492571228430e+00
1	 9.454471895829717e-01	 1.164529781372711e+00	 2.311377124221249e+00
1	 9.212074419883821e-01	 1.183797638460694e+00	 6.174734686443044e+00
1	 8.966069298445744e-01	 1.202537323063470e+00	 1.013318945856720e+01
1	 8.716628716590653e-01	 1.220739054091185e+00	 1.420180962818338e+01
1	 8.463928216988629e-01	 1.238393794960052e+00	 1.839505808610568e+01
1	 8.208146300702533e-01	 1.255493266842989e+00	 2.272673229345643e+01
1	 7.524134108913274e-01	 1.150868827941644e+00	 6.369701491514794e+00
1	 7.287008687329781e-01	 1.166027462769146e+00	 9.016685715325190e+00
1	 7.047392534804007e-01	 1.180664043931685e+00	 1.063278240110993e+01
1	 6.805455176867415e-01	 1.194773115862958e+00	 1.122899555456060e+01
1	 6.561367355249966e-01	 1.208349942826211e+00	 1.081956108660308e+01
1	 6.315300654405884e-01	 1.221390509410137e+00	 9.421834120358874e+00
1	 6.067427131481523e-01	 1.233891518761329e+00	 7.056162750027692e+00
1	 5.817918951274087e-01	 1.245850388605507e+00	 3.745749380068375e+00
1	 5.566948027665101e-01	 1.257265245121364e+00	-4.834991576829424e-01
1	 5.314685672938282e-01	 1.268134914741677e+00	-5.603131455908027e+00
1	 5.061302256309000e-01	 1.278458913966357e+00	-1.158232005829183e+01
1	 7.592535328092677e-01	 1.161331271836278e+00	 6.979375432146881e+00
1	 7.353254220869722e-01	 1.176627712434605e+00	 9.906381644176857e+00
1	 7.111459739694163e-01	 1.191397353425526e+00	 1.174591635550433e+01
1	 6.867322951238658e-01	 1.205634689646682e+00	 1.250317325085646e+01
1	 6.621016149430722e-01	 1.219334942309169e+00	 1.218693397203406e+01
1	 6.372712478583268e-01	 1.232494059497939e+00	 1.080947153275724e+01
1	 6.122585559998541e-01	 1.245108714388192e+00	 8.386437896200000e+00
1	 5.870809123608277e-01	 1.257176301230428e+00	 4.936736808299610e+00
1	 5.617556646147485e-01	 1.268694929168600e+00	 4.823830690490354e-01
1	 5.363000997284300e-01	 1.279663413966696e+00	-4.951650501227451e+00
1	 5.107314095045163e-01	 1.290081267729169e+00	-1.133759708352930e+01
1	 7.660936547271977e-01	 1.171793715729913e+00	 7.833342024946877e+00
1	 7.419499754407716e-01	 1.187227962099074e+00	 1.099545241075928e+01
1	 7.175526944580827e-01	 1.202130662918409e+00	 1.301475917867234e+01
1	 6.929190725605181e-01	 1.216496263429501e+00	 1.389071859871561e+01
1	 6.680664943605837e-01	 1.230319941791294e+00	 1.362672676638556e+01
1	 6.430124302754393e-01	 1.243597609585001e+00	 1.223003894986492e+01
1	 6.177743988508980e-01	 1.256325910014428e+00	 9.711670834410402e+00
1	 5.923699295935869e-01	 1.268502213854855e+00	 6.086282722105334e+00
1	 5.668165264623545e-01	 1.280124613215495e+00	 1.372047853950335e+00
1	 5.411316321624565e-01	 1.291191913191544e+00	-4.409493884741721e+00
1	 5.153325933776431e-01	 1.301703621492001e+00	-1.123359553607698e+01
1	 7.729337766451166e-01	 1.182256159622547e+00	 8.925115624337618e+00
1	 7.485745287943755e-01	 1.197828211762553e+00	 1.227860487783195e+01
1	 7.239594149464007e-01	 1.212863972410334e+00	 1.443517700687218e+01
1	 6.991058499966988e-01	 1.227357837211414e+00	 1.538862183749686e+01
1	 6.740313737775313e-01	 1.241304941272586e+00	 1.513701681721842e+01
1	 6.487536126919259e-01	 1.254701159671323e+00	 1.368266212377152e+01
1	 6.232902417012843e-01	 1.267543105640036e+00	 1.103199542858438e+01
1	 5.976589468256861e-01	 1.279828126478787e+00	 7.195487338678067e+00
1	 5.718773883093287e-01	 1.291554297262048e+00	 2.187518668925140e+00
1	 5.459631645959077e-01	 1.302720412416223e+00	-3.973759190389753e+00
1	 5.199337772502799e-01	 1.313325975254853e+00	-1.126657944882577e+01
1	 7.797738985630250e-01	 1.192718603514182e+00	 1.024843815124424e+01
1	 7.551990821477842e-01	 1.208428461425044e+00	 1.375073163226105e+01
1	 7.303661354343698e-01	 1.223597281901301e+00	 1.600318102420956e+01
1	 7.052926274324078e-01	 1.238219410992421e+00	 1.699397881219313e+01
1	 6.799962531939148e-01	 1.252289940753043e+00	 1.671594893358113e+01
1	 6.544947951077865e-01	 1.265804709756905e+00	 1.516649748193093e+01
1	 6.288060845510125e-01	 1.278760301265018e+00	 1.234754084566731e+01
1	 6.029479640571257e-01	 1.291154039102225e+00	 8.265412271098935e+00
1	 5.769382501556705e-01	 1.302983981308259e+00	 2.930747986864255e+00
1	 5.507946970287833e-01	 1.314248911640731e+00	-3.641645841270307e+00
1	 5.245349611224271e-01	 1.324948329017727e+00	-1.143294394123246e+01
1	 7.866140204809230e-01	 1.203181047404816e+00	 1.179726919889885e+01
1	 7.618236355009980e-01	 1.219028711086544e+00	 1.540690291005811e+01
1	 7.367728559219902e-01	 1.234330591391309e+00	 1.771492115620715e+01
1	 7.114794048676450e-01	 1.249080984772522e+00	 1.870398638188147e+01
1	 6.859611326097343e-01	 1.263274940232669e+00	 1.836173245290108e+01
1	 6.602359775230212e-01	 1.276908259841746e+00	 1.668073079345068e+01
1	 6.343219274000830e-01	 1.289977496889372e+00	 1.365843175984151e+01
1	 6.082369812879054e-01	 1.302479951725169e+00	 9.297082206776484e+00
1	 5.819991120013801e-01	 1.314413665354129e+00	 3.603620368557905e+00
1	 5.556262294610839e-01	 1.325777410865069e+00	-3.410450671852491e+00
1	 5.291361449940846e-01	 1.336570682780620e+00	-1.172920951990399e+01
1	 7.934541423988104e-01	 1.213643491294451e+00	 1.356577665041461e+01
1	 7.684481888540168e-01	 1.229628960747055e+00	 1.724235893909150e+01
1	 7.431795764092617e-01	 1.245063900880360e+00	 1.956668008957173e+01
1	 7.176661823024110e-01	 1.259942558551717e+00	 2.051593806566772e+01
1	 6.919260120249895e-01	 1.274259939711460e+00	 2.007263845958938e+01
1	 6.659771599376296e-01	 1.288011809925846e+00	 1.822457590436481e+01
1	 6.398377702484958e-01	 1.301194692513100e+00	 1.496478854617952e+01
1	 6.135259985180255e-01	 1.313805864347619e+00	 1.029148649907200e+01
1	 5.870599738464576e-01	 1.325843349399657e+00	 4.207955389942015e+00
1	 5.604577618928086e-01	 1.337305910089237e+00	-3.277563729209845e+00
1	 5.337373288652524e-01	 1.348193036543535e+00	-1.215201667397831e+01
1	 8.002942643166867e-01	 1.224105935183085e+00	 1.554832777750801e+01
1	 7.750727422068404e-01	 1.240229210406577e+00	 1.925250267447510e+01
1	 7.495862968961846e-01	 1.255797210368453e+00	 2.155486759864129e+01
1	 7.238529597367048e-01	 1.270804132330007e+00	 2.242721991191679e+01
1	 6.978908914396812e-01	 1.285244939189419e+00	 2.184699714628138e+01
1	 6.717183423516123e-01	 1.299115360009208e+00	 1.979727353776521e+01
1	 6.453536130962506e-01	 1.312411888136201e+00	 1.626672746436700e+01
1	 6.188150157474855e-01	 1.325131776969574e+00	 1.124958067729969e+01
1	 5.921208356909027e-01	 1.337273033444843e+00	 4.745510419228939e+00
1	 5.652892943239584e-01	 1.348834409313236e+00	-3.240464289575829e+00
1	 5.383385127359304e-01	 1.359815390306469e+00	-1.269812074766658e+01
1	 8.071343862345530e-01	 1.234568379070720e+00	 1.773948079183019e+01
1	 7.816972955594687e-01	 1.250829460065110e+00	 2.143289290334808e+01
1	 7.559930173827586e-01	 1.266530519855587e+00	 2.367601516031351e+01
1	 7.300397371705273e-01	 1.281665706107390e+00	 2.443530657752078e+01
1	 7.038557708538088e-01	 1.296229938666545e+00	 2.368319530925021e+01
1	 6.774595247649688e-01	 1.310218910091828e+00	 2.139809015494423e+01
1	 6.508694559433478e-01	 1.323629083758674e+00	 1.756436083308329e+01
1	 6.241040329762860e-01	 1.336457689591036e+00	 1.217228787995054e+01
1	 5.971816975347158e-01	 1.348702717489688e+00	 5.217983252826986e+00
1	 5.701208267545327e-01	 1.360362908537064e+00	-3.296717077447163e+00
1	 5.429396966061187e-01	 1.371437744069425e+00	-1.336438707351200e+01
1	 8.139745081524083e-01	 1.245030822957354e+00	 2.013397682228088e+01
1	 7.883218489119019e-01	 1.261429709722652e+00	 2.377923769730956e+01
1	 7.623997378689837e-01	 1.277263829341764e+00	 2.592677084049479e+01
1	 7.362265146038778e-01	 1.292527279883868e+00	 2.653775760485201e+01
1	 7.098206502673721e-01	 1.307214938142837e+00	 2.557967397010299e+01
1	 6.832007071776995e-01	 1.321322460173709e+00	 2.302631687395635e+01
1	 6.563852987897871e-01	 1.334846279380521e+00	 1.885779719558979e+01
1	 6.293930502044267e-01	 1.347783602212004e+00	 1.306050021565022e+01
1	 6.022425593778966e-01	 1.360132401534191e+00	 5.627014618358068e+00
1	 5.749523591845315e-01	 1.371891407760722e+00	-3.443968675320530e+00
1	 5.475408804758173e-01	 1.383060097832401e+00	-1.414778635103180e+01
1	 8.208146300702533e-01	 1.255493266842989e+00	 2.272673229345643e+01
1	 7.949464022641402e-01	 1.272029959379205e+00	 2.628738819223448e+01
1	 7.688064583548604e-01	 1.287997138826982e+00	 2.830389443622450e+01
1	 7.424132920367567e-01	 1.303388853659439e+00	 2.873221388486846e+01
1	 7.157855296803717e-01	 1.318199937618296e+00	 2.753492611639209e+01
1	 6.889418895898042e-01	 1.332426010254849e+00	 2.468126844225391e+01
1	 6.619011416355685e-01	 1.346063475001740e+00	 2.014714147703973e+01
1	 6.346820674319077e-01	 1.359109514832477e+00	 1.391508005607084e+01
1	 6.073034212204453e-01	 1.371562085578352e+00	 5.974190552524274e+00
1	 5.797838916139548e-01	 1.383419906984210e+00	-3.679944112942785e+00
1	 5.521420643450261e-01	 1.394682451595397e+00	-1.504539025642628e+01
1	 5.061302256309000e-01	 1.278458913966357e+00	-1.158232005829183e+01
1	 4.806966872910303e-01	 1.288237437281654e+00	 2.284736064347886e+00
1	 4.551847024354536e-01	 1.297471343285539e+00	 1.475111482468547e+01
1	 4.296108311925131e-01	 1.306162139129264e+00	 2.579879214303925e+01
1	 4.039914143349413e-01	 1.314311963391015e+00	 3.541364114535423e+01
1	 3.783425453957433e-01	 1.321923567499668e+00	 4.358538419257024e+01
1	 3.526800442951766e-01	 1.329000295832889e+00	 5.030752881406843e+01
1	 3.270194325395477e-01	 1.335546064616104e+00	 5.557728850647970e+01
1	 3.013759100415353e-01	 1.341565339750669e+00	 5.939548943143421e+01
1	 2.757643336008559e-01	 1.347063113700460e+00	 6.176646410522629e+01
1	 2.501991970734234e-01	 1.352044881565965e+00	 6.269793321993285e+01
1	 5.107314095045163e-01	 1.290081267729169e+00	-1.133759708352930e+01
1	 4.850666571792522e-01	 1.299948686710393e+00	 1.787412748515830e+00
1	 4.593227451881562e-01	 1.309266537313843e+00	 1.367692655925286e+01
1	 4.335163842061927e-01	 1.318036340392143e+00	 2.431351042180896e+01
1	 4.076640635585735e-01	 1.326260253965098e+00	 3.368302307271707e+01
1	 3.817820230831497e-01	 1.333941054474572e+00	 4.177458649267322e+01
1	 3.558862265176348e-01	 1.341082116701665e+00	 4.858054265690397e+01
1	 3.299923364729388e-01	 1.347687392473848e+00	 5.409639719785709e+01
1	 3.041156910427644e-01	 1.353761388291580e+00	 5.832075078906738e+01
1	 2.782712820886437e-01	 1.359309142004772e+00	 6.125521911474249e+01
1	 2.524737352288170e-01	 1.364336198669367e+00	 6.290434233477222e+01
1	 5.153325933776431e-01	 1.301703621492001e+00	-1.123359553607698e+01
1	 4.894366270670793e-01	 1.311659936139338e+00	 1.172847443732202e+00
1	 4.634607879405481e-01	 1.321061731342504e+00	 1.250589198630747e+01
1	 4.374219372196355e-01	 1.329910541655500e+00	 2.274869860020657e+01
1	 4.113367127820329e-01	 1.338208544539750e+00	 3.188712321563340e+01
1	 3.852215007704361e-01	 1.345958541450105e+00	 3.990970608604368e+01
1	 3.590924087400167e-01	 1.353163937571098e+00	 4.680764910051484e+01
1	 3.329652404062873e-01	 1.359828720332250e+00	 5.257478203339579e+01
1	 3.068554720439746e-01	 1.365957436833121e+00	 5.720751831782479e+01
1	 2.807782305764268e-01	 1.371555170309656e+00	 6.070480098170408e+01
1	 2.547482733842105e-01	 1.376627515773255e+00	 6.306803942849974e+01
1	 5.199337772502799e-01	 1.313325975254853e+00	-1.126657944882577e+01
1	 4.938065969545112e-01	 1.323371185568486e+00	 4.441527691841500e-01
1	 4.675988306926293e-01	 1.332856925371522e+00	 1.124058224676582e+01
1	 4.413274902328415e-01	 1.341784742919335e+00	 2.110646809683128e+01
1	 4.150093620053187e-01	 1.350156835114969e+00	 3.002767471882313e+01
1	 3.886609784576029e-01	 1.357976028426266e+00	 3.799217879675005e+01
1	 3.622985909623225e-01	 1.365245758441190e+00	 4.499006692540264e+01
1	 3.359381443395930e-01	 1.371970048191310e+00	 5.101352417739717e+01
1	 3.095952530451660e-01	 1.378153485375291e+00	 5.605681397774855e+01
1	 2.832851790642052e-01	 1.383801198615110e+00	 6.011624970102618e+01
1	 2.570228115396040e-01	 1.388918832877628e+00	 6.319015844855518e+01
1	 5.245349611224271e-01	 1.324948329017727e+00	-1.143294394123246e+01
1	 4.981765668415482e-01	 1.335082434997839e+00	-3.956678706498380e-01
1	 4.717368734443999e-01	 1.344652119400897e+00	 9.883478266072844e+00
1	 4.452330432458106e-01	 1.353658944183649e+00	 1.938885624541859e+01
1	 4.186820112284315e-01	 1.362105125690758e+00	 2.810634991491097e+01
1	 3.921004561446502e-01	 1.369993515403056e+00	 3.602339006906834e+01
1	 3.655047731845522e-01	 1.377327579311940e+00	 4.312897214784060e+01
1	 3.389110482728562e-01	 1.384111376051029e+00	 4.941366685857297e+01
1	 3.123350340463384e-01	 1.390349533918090e+00	 5.486962387063305e+01
1	 2.857921275519789e-01	 1.396047226921136e+00	 5.949056877657367e+01
1	 2.592973496949976e-01	 1.401210149982486e+00	 6.327179355474819e+01
1	 5.291361449940846e-01	 1.336570682780620e+00	-1.172920951990399e+01
1	 5.025465367281904e-01	 1.346793684427397e+00	-1.343715537534887e+00
1	 4.758749161958596e-01	 1.356447313430629e+00	 8.436974676614216e+00
1	 4.491385962585430e-01	 1.365533145448441e+00	 1.759782951592071e+01
1	 4.223546604513710e-01	 1.374053416267115e+00	 2.612476296842930e+01
1	 3.955399338315778e-01	 1.382011002380474e+00	 3.400467715790825e+01
1	 3.687109554067056e-01	 1.389409400183348e+00	 4.122549987918781e+01
1	 3.418839522060768e-01	 1.396252703911406e+00	 4.777621701941814e+01
1	 3.150748150474922e-01	 1.402545582461518e+00	 5.364689979908002e+01
1	 2.882990760397479e-01	 1.408293255227734e+00	 5.882872680772927e+01
1	 2.615718878503911e-01	 1.413501467087830e+00	 6.331400084915602e+01
1	 5.337373288652524e-01	 1.348193036543535e+00	-1.215201667397831e+01
1	 5.069165066144372e-01	 1.358504933857160e+00	-2.397191256623932e+00
1	 4.800129589470085e-01	 1.368242507460719e+00	 6.903383537243961e+00
1	 4.530441492710384e-01	 1.377407346713711e+00	 1.573528656898137e+01
1	 4.260273096741375e-01	 1.386001706844041e+00	 2.408447238306442e+01
1	 3.989794115183856e-01	 1.394028489358520e+00	 3.193733120594054e+01
1	 3.719171376287828e-01	 1.401491221055414e+00	 3.928074608903179e+01
1	 3.448568561392546e-01	 1.408394031772441e+00	 4.610214688027288e+01
1	 3.178145960486270e-01	 1.414741631005575e+00	 5.238956074491115e+01
1	 2.908060245275123e-01	 1.420539283534902e+00	 5.813165899389647e+01
1	 2.638464260057847e-01	 1.425792784193659e+00	 6.331780001654271e+01
1	 5.383385127359304e-01	 1.359815390306469e+00	-1.269812074766658e+01
1	 5.112864765002892e-01	 1.370216183287127e+00	-3.553391744518475e+00
1	 4.841510016978469e-01	 1.380037701491165e+00	 5.284937862068746e+00
1	 4.569497022832972e-01	 1.389281547979459e+00	 1.380306115376839e+01
1	 4.296999588967309e-01	 1.397949997421536e+00	 2.198698338032475e+01
1	 4.024188892050738e-01	 1.406045976337196e+00	 2.982259921420587e+01
1	 3.751233198507839e-01	 1.413573041928139e+00	 3.729576927791425e+01
1	 3.478297600723899e-01	 1.420535359634134e+00	 4.439239542317461e+01
1	 3.205543770497430e-01	 1.426937679550262e+00	 5.109849427176650e+01
1	 2.933129730152719e-01	 1.432785311842642e+00	 5.740026856184964e+01
1	 2.661209641611783e-01	 1.438084101299974e+00	 6.328417588065442e+01
1	 5.429396966061187e-01	 1.371437744069425e+00	-1.336438707351200e+01
1	 5.156564463857463e-01	 1.381927432717298e+00	-4.809705354545956e+00
1	 4.882890444483744e-01	 1.391832895521968e+00	 3.583794969801074e+00
1	 4.608552552953190e-01	 1.401155749245686e+00	 1.180292485846011e+01
1	 4.333726081191510e-01	 1.409898287999599e+00	 1.983375015726029e+01
1	 4.058583668916424e-01	 1.418063463316499e+00	 2.766168591252296e+01
1	 3.783295020727088e-01	 1.425654862801521e+00	 3.527159206500224e+01
1	 3.508026640054825e-01	 1.432676687496486e+00	 4.264786980026125e+01
1	 3.232941580508401e-01	 1.439133728095577e+00	 4.977455785638249e+01
1	 2.958199215030269e-01	 1.445031340150954e+00	 5.663542812050609e+01
1	 2.683955023165718e-01	 1.450375418406773e+00	 6.321407988138128e+01
1	 5.475408804758173e-01	 1.383060097832401e+00	-1.414778635103180e+01
1	 5.200264162708083e-01	 1.393638682147674e+00	-6.163608226476891e+00
1	 4.924270871985911e-01	 1.403628089553128e+00	 1.802039664238118e+00
1	 4.647608083071041e-01	 1.413029950512392e+00	 9.736589722052532e+00
1	 4.370452573413979e-01	 1.421846578578230e+00	 1.762617803034771e+01
1	 4.092978445780913e-01	 1.430080950296430e+00	 2.545575553559009e+01
1	 3.815356842945573e-01	 1.437736683675562e+00	 3.320920269570919e+01
1	 3.537755679385325e-01	 1.444818015359496e+00	 4.086944667116093e+01
1	 3.260339390519186e-01	 1.451329776641522e+00	 4.841858015274785e+01
1	 2.983268699907771e-01	 1.457277368459836e+00	 5.583798094739043e+01
1	 2.706700404719653e-01	 1.462666735514058e+00	 6.310843147744060e+01
1	 5.521420643450261e-01	 1.394682451595397e+00	-1.504539025642628e+01
1	 5.243963861554752e-01	 1.405349931578255e+00	-7.612660628757027e+00
1	 4.965651299484972e-01	 1.415423283584646e+00	-5.831274428297739e-02
1	 4.686663613186524e-01	 1.424904151779574e+00	 7.605710715574207e+00
1	 4.407179065634718e-01	 1.433794869157430e+00	 1.536562547218047e+01
1	 4.127373222644204e-01	 1.442098437276991e+00	 2.320593351028215e+01
1	 3.847418665163297e-01	 1.449818504550261e+00	 3.110955647393374e+01
1	 3.567484718715399e-01	 1.456959343223164e+00	 3.905797347351456e+01
1	 3.287737200529779e-01	 1.463525825188096e+00	 4.703136219305158e+01
1	 3.008338184785227e-01	 1.469523396769290e+00	 5.500874221077679e+01
1	 2.729445786273588e-01	 1.474958052621828e+00	 6.296811947892574e+01
1	 2.501991970734234e-01	 1.352044881565965e+00	 6.269793321993285e+01
1	 2.246946132453406e-01	 1.356516616473704e+00	 4.495063405158105e+01
1	 1.992642974238829e-01	 1.360484744408075e+00	 2.874614852637990e+01
1	 1.739215527406030e-01	 1.363956118608690e+00	 1.408607184474542e+01
1	 1.486792571529468e-01	 1.366937993652964e+00	 9.671845601022255e-01
1	 1.235498521293628e-01	 1.369437999341071e+00	-1.061833321094909e+01
1	 9.854533298911115e-02	 1.371464114494739e+00	-2.068267657059561e+01
1	 7.367724086214492e-02	 1.373024640776572e+00	-2.924218149756931e+01
1	 4.895665622776053e-02	 1.374128176631064e+00	-3.631708321885002e+01
1	 2.439419398469604e-02	 1.374783591442656e+00	-4.193126907485335e+01
1	 0.000000000000000e+00	 1.375000000000000e+00	-4.611202758746332e+01
1	 2.524737352288170e-01	 1.364336198669367e+00	 6.290434233477222e+01
1	 2.267372915474652e-01	 1.368848585712971e+00	 4.613914542299651e+01
1	 2.010757910364978e-01	 1.372852787537955e+00	 3.064138889050846e+01
1	 1.755026577650256e-01	 1.376355719686112e+00	 1.641934417593098e+01
1	 1.500308867628343e-01	 1.379364702685561e+00	 3.477103081440553e+00
1	 1.246730326026296e-01	 1.381887435698295e+00	-8.185261273641022e+00
1	 9.944119965202770e-02	 1.383931970080786e+00	-1.857152272570494e+01
1	 7.434703396034356e-02	 1.385506682965300e+00	-2.768912112525999e+01
1	 4.940171673850238e-02	 1.386620250964008e+00	-3.554897371413382e+01
1	 2.461595938432043e-02	 1.387281624092119e+00	-4.216528031718919e+01
1	 0.000000000000000e+00	 1.387500000000000e+00	-4.755532379624227e+01
1	 2.547482733842105e-01	 1.376627515773255e+00	 6.306803942849974e+01
1	 2.287799698495900e-01	 1.381180554952629e+00	 4.729650476387509e+01
1	 2.028872846491126e-01	 1.385220830668143e+00	 3.252172499356948e+01
1	 1.770837627894483e-01	 1.388755320763768e+00	 1.875853645717406e+01
1	 1.513825163727218e-01	 1.391791411718328e+00	 6.018223746042384e+00
1	 1.257962130758965e-01	 1.394336872055636e+00	-5.691371974598376e+00
1	 1.003370663149443e-01	 1.396399825666909e+00	-1.636573410365607e+01
1	 7.501682705854221e-02	 1.397988725154069e+00	-2.600354244026686e+01
1	 4.984677724924420e-02	 1.399112325296969e+00	-3.460653694958319e+01
1	 2.483772478394482e-02	 1.399779656741585e+00	-4.217937467315211e+01
1	 0.000000000000000e+00	 1.400000000000000e+00	-4.872948097268416e+01
1	 2.570228115396040e-01	 1.388918832877628e+00	 6.319015844855518e+01
1	 2.308226481517145e-01	 1.393512524192677e+00	 4.842353911925534e+01
1	 2.046987782617274e-01	 1.397588873798637e+00	 3.438755252389250e+01
1	 1.786648678138709e-01	 1.401154921841657e+00	 2.110349152164384e+01
1	 1.527341459826092e-01	 1.404218120751266e+00	 8.589718178411498e+00
1	 1.269193935491633e-01	 1.406786308413095e+00	-3.138279934053880e+00
1	 1.012329329778609e-01	 1.408867681253106e+00	-1.406782313216782e+01
1	 7.568662015674081e-02	 1.410470767342880e+00	-2.418896362788536e+01
1	 5.029183775998605e-02	 1.411604399629950e+00	-3.349440108253711e+01
1	 2.505949018356920e-02	 1.412277689391056e+00	-4.197939064414550e+01
1	 0.000000000000000e+00	 1.412500000000000e+00	-4.964164440082504e+01
1	 2.592973496949976e-01	 1.401210149982486e+00	 6.327179355474819e+01
1	 2.328653264538391e-01	 1.405844493433116e+00	 4.952104651505088e+01
1	 2.065102718743421e-01	 1.409956916929438e+00	 3.623925328600549e+01
1	 1.802459728382935e-01	 1.413554522919780e+00	 2.345405771713574e+01
1	 1.540857755924967e-01	 1.416644829784374e+00	 1.119078706885728e+01
1	 1.280425740224302e-01	 1.419235744770672e+00	-5.275431188983255e-01
1	 1.021287996407774e-01	 1.421335536839377e+00	-1.168021408359919e+01
1	 7.635641325493947e-02	 1.422952809531733e+00	-2.224877942831203e+01
1	 5.073689827072789e-02	 1.424096473962949e+00	-3.221703187885031e+01
1	 2.528125558319359e-02	 1.424775722040532e+00	-4.157096187187434e+01
1	 0.000000000000000e+00	 1.425000000000000e+00	-5.029870865298082e+01
1	 2.615718878503911e-01	 1.413501467087830e+00	 6.331400084915602e+01
1	 2.349080047559638e-01	 1.418176462673946e+00	 5.058979721975244e+01
1	 2.083217654869569e-01	 1.422324960060546e+00	 3.807719580427941e+01
1	 1.818270778627161e-01	 1.425954123998136e+00	 2.581008866630399e+01
1	 1.554374052023842e-01	 1.429071538817652e+00	 1.382065890976629e+01
1	 1.291657544956971e-01	 1.431685181128366e+00	 2.139334694131275e+00
1	 1.030246663036940e-01	 1.433803392425723e+00	-9.205246907792979e+00
1	 7.702620635313809e-02	 1.435434851720629e+00	-2.018626650382427e+01
1	 5.118195878146975e-02	 1.436588548295966e+00	-3.077873977339010e+01
1	 2.550302098281797e-02	 1.437273754690013e+00	-4.095952604528900e+01
1	 0.000000000000000e+00	 1.437500000000000e+00	-5.070732849025640e+01
1	 2.638464260057847e-01	 1.425792784193659e+00	 6.331780001654271e+01
1	 2.369506830580884e-01	 1.430508431915166e+00	 5.163053494086815e+01
1	 2.101332590995718e-01	 1.434693003191961e+00	 3.990173589534798e+01
1	 1.834081828871388e-01	 1.438353725076726e+00	 2.817144303929791e+01
1	 1.567890348122716e-01	 1.441498247851101e+00	 1.647858879723558e+01
1	 1.302889349689639e-01	 1.444134617486177e+00	 4.860901582666870e+00
1	 1.039205329666105e-01	 1.446271248012144e+00	-6.645180866666024e+00
1	 7.769599945133675e-02	 1.447916893909566e+00	-1.800458852834398e+01
1	 5.162701929221158e-02	 1.449080622629002e+00	-2.918368656533966e+01
1	 2.572478638244236e-02	 1.449771787339498e+00	-4.015033334682455e+01
1	 0.000000000000000e+00	 1.450000000000000e+00	-5.087392919923634e+01
1	 2.661209641611783e-01	 1.438084101299974e+00	 6.328417588065442e+01
1	 2.389933613602131e-01	 1.442840401156778e+00	 5.264397796000829e+01
1	 2.119447527121866e-01	 1.447061046323683e+00	 4.171321721117370e+01
1	 1.849892879115614e-01	 1.450753326155550e+00	 3.053798433805623e+01
1	 1.581406644221591e-01	 1.453924956884721e+00	 1.916385729416240e+01
1	 1.314121154422308e-01	 1.456584053844107e+00	 7.635755262712806e+00
1	 1.048163996295271e-01	 1.458739103598640e+00	-4.002197982411705e+00
1	 7.836579254953538e-02	 1.460398936098545e+00	-1.570680101600214e+01
1	 5.207207980295342e-02	 1.461572696962056e+00	-2.743589177014875e+01
1	 2.594655178206674e-02	 1.462269819988988e+00	-3.914845446549947e+01
1	 0.000000000000000e+00	 1.462500000000000e+00	-5.080471639858808e+01
1	 2.683955023165718e-01	 1.450375418406773e+00	 6.321407988138128e+01
1	 2.410360396623377e-01	 1.455172370398780e+00	 5.363082021025392e+01
1	 2.137562463248014e-01	 1.459429089455712e+00	 4.351197175450013e+01
1	 1.865703929359840e-01	 1.463152927234606e+00	 3.290958069157085e+01
1	 1.594922940320465e-01	 1.466351665918511e+00	 2.187576935114222e+01
1	 1.325352959154976e-01	 1.469033490202154e+00	 1.046254098532373e+01
1	 1.057122662924437e-01	 1.471206959185211e+00	-1.278406310368727e+00
1	 7.903558564773400e-02	 1.472880978287564e+00	-1.329585590417840e+01
1	 5.251714031369526e-02	 1.474064771295128e+00	-2.553923864850709e+01
1	 2.616831718169113e-02	 1.474767852638482e+00	-3.795878820256878e+01
1	 0.000000000000000e+00	 1.475000000000000e+00	-5.050568534702411e+01
1	 2.706700404719653e-01	 1.462666735514058e+00	 6.310843147744060e+01
1	 2.430787179644623e-01	 1.467504339641174e+00	 5.459173229920391e+01
1	 2.155677399374162e-01	 1.471797132588047e+00	 4.529832036831434e+01
1	 1.881514979604067e-01	 1.475552528313897e+00	 3.528610466147259e+01
1	 1.608439236419340e-01	 1.478778374952471e+00	 2.461365328177641e+01
1	 1.336584763887645e-01	 1.481482926560319e+00	 1.333994953933462e+01
1	 1.066081329553602e-01	 1.483674814771857e+00	 1.524156953126219e+00
1	 7.970537874593264e-02	 1.485363020476627e+00	-1.077460590546736e+01
1	 5.296220082443710e-02	 1.486556845628219e+00	-2.349747993133251e+01
1	 2.639008258131552e-02	 1.487265885287981e+00	-3.658606869370039e+01
1	 0.000000000000000e+00	 1.487500000000000e+00	-4.998262978195626e+01
1	 2.729445786273588e-01	 1.474958052621828e+00	 6.296811947892574e+01
1	 2.451213962665869e-01	 1.479836308883957e+00	 5.552736248087109e+01
1	 2.173792335500309e-01	 1.484165175720690e+00	 4.707257320083761e+01
1	 1.897326029848293e-01	 1.487952129393421e+00	 3.766743305733777e+01
1	 1.621955532518215e-01	 1.491205083986602e+00	 2.737685978921198e+01
1	 1.347816568620313e-01	 1.493932362918601e+00	 1.626671535395173e+01
1	 1.075039996182768e-01	 1.496142670358577e+00	 4.403522518281655e+00
1	 8.037517184413129e-02	 1.497845062665731e+00	-8.145808642043576e+00
1	 5.340726133517893e-02	 1.499048919961328e+00	-2.131424325851297e+01
1	 2.661184798093990e-02	 1.499763917937484e+00	-3.503487227003797e+01
1	 0.000000000000000e+00	 1.500000000000000e+00	-4.924115031621604e+01
1	 1.500000000000000e+00	 0.000000000000000e+00	 1.173027042336965e+02
1	 1.499763917937484e+00	 2.661184798093904e-02	 1.031431568956654e+02
1	 1.499048919961329e+00	 5.340726133517817e-02	 8.841429572818382e+01
1	 1.497845062665731e+00	 8.037517184413061e-02	 7.316316492297973e+01
1	 1.496142670358577e+00	 1.075039996182762e-01	 5.743994286833871e+01
1	 1.493932362918601e+00	 1.347816568620308e-01	 4.129790085176805e+01
1	 1.491205083986601e+00	 1.621955532518211e-01	 2.479334539789260e+01
1	 1.487952129393420e+00	 1.897326029848289e-01	 7.985543645202560e+00
1	 1.484165175720690e+00	 2.173792335500308e-01	-9.063368745874296e+00
1	 1.479836308883957e+00	 2.451213962665869e-01	-2.628849756132016e+01
1	 1.474958052621828e+00	 2.729445786273588e-01	-4.362231817560365e+01
1	 1.512500000000000e+00	 0.000000000000000e+00	 1.161783165518303e+02
1	 1.512261950586988e+00	 2.683361338056342e-02	 1.019959926217612e+02
1	 1.511540994294438e+00	 5.385232184592000e-02	 8.741706947829246e+01
1	 1.510327104854835e+00	 8.104496494232924e-02	 7.246061125336452e+01
1	 1.508610525945297e+00	 1.083998662811928e-01	 5.714720902457408e+01
1	 1.506381799276883e+00	 1.359048373352977e-01	 4.149897747091752e+01
1	 1.503631793020732e+00	 1.635471828617086e-01	 2.553954467810744e+01
1	 1.500351730472945e+00	 1.913137080092516e-01	 9.294034767954813e+00
1	 1.496533218853332e+00	 2.191907271626456e-01	-7.210956941647090e+00
1	 1.492168278126741e+00	 2.471640745687115e-01	-2.394739650267874e+01
1	 1.487249369729599e+00	 2.752191167827523e-01	-4.088585184365705e+01
1	 1.525000000000000e+00	 0.000000000000000e+00	 1.167688978196713e+02
1	 1.524759983236486e+00	 2.705537878018779e-02	 1.022974037360701e+02
1	 1.524033068627529e+00	 5.429738235666183e-02	 8.759816450222019e+01
1	 1.522809147043897e+00	 8.171475804052787e-02	 7.266259405807260e+01
1	 1.521078381531942e+00	 1.092957329441093e-01	 5.748204479781584e+01
1	 1.518831235635048e+00	 1.370280178085645e-01	 4.204784186239659e+01
1	 1.516058502054693e+00	 1.648988124715960e-01	 2.635132000149490e+01
1	 1.512751331552235e+00	 1.928948130336742e-01	 1.038386294738482e+01
1	 1.508901261985667e+00	 2.210022207752603e-01	-5.863054781147276e+00
1	 1.504500247369134e+00	 2.492067528708361e-01	-2.239782375200966e+01
1	 1.499540686836884e+00	 2.774936549381459e-01	-3.922865330357410e+01
1	 1.537500000000000e+00	 0.000000000000000e+00	 1.190326195262954e+02
1	 1.537258015885981e+00	 2.727714417981218e-02	 1.040120591315958e+02
1	 1.536525142960601e+00	 5.474244286740368e-02	 8.892884125673403e+01
1	 1.535291189232917e+00	 8.238455113872650e-02	 7.374705147191128e+01
1	 1.533546237118513e+00	 1.101915996070258e-01	 5.842914361208371e+01
1	 1.531280671993095e+00	 1.381511982818314e-01	 4.293601139766854e+01
1	 1.528485211088482e+00	 1.662504420814835e-01	 2.722707195243826e+01
1	 1.525150932631292e+00	 1.944759180580968e-01	 1.126036142609592e+01
1	 1.521269305117696e+00	 2.228137143878751e-01	-5.007357151020038e+00
1	 1.516832216611136e+00	 2.512494311729607e-01	-2.162047374072780e+01
1	 1.511832003943683e+00	 2.797681930935394e-01	-3.862439895057948e+01
1	 1.550000000000000e+00	 0.000000000000000e+00	 1.229290024675812e+02
1	 1.549756048535470e+00	 2.749890957943656e-02	 1.071057674144697e+02
1	 1.549017217293655e+00	 5.518750337814550e-02	 9.138128728063970e+01
1	 1.547773231421895e+00	 8.305434423692513e-02	 7.569263330275834e+01
1	 1.546014092705009e+00	 1.110874662699424e-01	 5.997369265191242e+01
1	 1.543730108351024e+00	 1.392743787550982e-01	 4.415527708137502e+01
1	 1.540911920122102e+00	 1.676020716913709e-01	 2.816525270937287e+01
1	 1.537550533710115e+00	 1.960570230825194e-01	 1.192869140660768e+01
1	 1.533637348249418e+00	 2.246252080004899e-01	-4.631955877050141e+00
1	 1.529164185852748e+00	 2.532921094750853e-01	-2.159666366052308e+01
1	 1.524123321049998e+00	 2.820427312489329e-01	-3.904761432843574e+01
1	 1.562500000000000e+00	 0.000000000000000e+00	 1.284188627739377e+02
1	 1.562254081184955e+00	 2.772067497906093e-02	 1.115454313154265e+02
1	 1.561509291626691e+00	 5.563256388888735e-02	 9.492858011150058e+01
1	 1.560255273610832e+00	 8.372413733512374e-02	 7.847867256463873e+01
1	 1.558481948291430e+00	 1.119833329328590e-01	 6.210135311193109e+01
1	 1.556179544708835e+00	 1.403975592283651e-01	 4.569769260600881e+01
1	 1.553338629155550e+00	 1.689537013012584e-01	 2.916436398102405e+01
1	 1.549950134788705e+00	 1.976381281069421e-01	 1.239384893295948e+01
1	 1.546005391380833e+00	 2.264367016131047e-01	-4.725323846596337e+00
1	 1.541496155093968e+00	 2.553347877772099e-01	-2.230830855294959e+01
1	 1.536414638155826e+00	 2.843172694043264e-01	-4.047364016350211e+01
1	 1.575000000000000e+00	 0.000000000000000e+00	 1.354642605081409e+02
1	 1.574752113834436e+00	 2.794244037868531e-02	 1.172990042721604e+02
1	 1.574001365959708e+00	 5.607762439962918e-02	 9.954465196822647e+01
1	 1.572737315799726e+00	 8.439393043332238e-02	 8.208515836636998e+01
1	 1.570949803877776e+00	 1.128791995957756e-01	 6.479824138693901e+01
1	 1.568628981066530e+00	 1.415207397016319e-01	 4.755556392779277e+01
1	 1.565765338188829e+00	 1.703053309111458e-01	 3.022295504091941e+01
1	 1.562349735867061e+00	 1.992192331313647e-01	 1.266067144461818e+01
1	 1.558373434511941e+00	 2.282481952257195e-01	-5.276299887100364e+00
1	 1.553828124334798e+00	 2.573774660793345e-01	-2.373789758522465e+01
1	 1.548705955261170e+00	 2.865918075597200e-01	-4.287860001621880e+01
1	 1.587500000000000e+00	 0.000000000000000e+00	 1.440284506916180e+02
1	 1.587250146483912e+00	 2.816420577830969e-02	 1.243354490629099e+02
1	 1.586493440292707e+00	 5.652268491037100e-02	 1.052042561022019e+02
1	 1.585219357988580e+00	 8.506372353152102e-02	 8.649271008105798e+01
1	 1.583417659464048e+00	 1.137750662586921e-01	 6.805091115063907e+01
1	 1.581078417424106e+00	 1.426439201748988e-01	 4.972143933503700e+01
1	 1.578192047221937e+00	 1.716569605210333e-01	 3.133962085475892e+01
1	 1.574749336945184e+00	 2.008003381557873e-01	 1.273384402075282e+01
1	 1.570741477642742e+00	 2.300596888383343e-01	-6.274074358997053e+00
1	 1.566160093575237e+00	 2.594201443814592e-01	-2.586847144685632e+01
1	 1.560997272366028e+00	 2.888663457151135e-01	-4.623936946086740e+01
1	 1.600000000000000e+00	 0.000000000000000e+00	 1.540758366263755e+02
1	 1.599748179133383e+00	 2.838597117793407e-02	 1.326246983790928e+02
1	 1.598985514625687e+00	 5.696774542111284e-02	 1.118829347257051e+02
1	 1.597701400177391e+00	 8.573351662971965e-02	 9.168255272639888e+01
1	 1.595885515050245e+00	 1.146709329216086e-01	 7.184633627443046e+01
1	 1.593527853781565e+00	 1.437671006481656e-01	 5.218809998204163e+01
1	 1.590618756254874e+00	 1.730085901309208e-01	 3.251300029556435e+01
1	 1.587148938023073e+00	 2.023814431802099e-01	 1.261790533180873e+01
1	 1.583109520773236e+00	 2.318711824509491e-01	-7.708175423956993e+00
1	 1.578492062815286e+00	 2.614628226835838e-01	-2.868360080580400e+01
1	 1.573288589470401e+00	 2.911408838705071e-01	-5.053354671003096e+01
1	 1.612500000000000e+00	 0.000000000000000e+00	 1.655719253879999e+02
1	 1.612246211782850e+00	 2.860773657755843e-02	 1.421376172317721e+02
1	 1.611477588958649e+00	 5.741280593185468e-02	 1.195569884320279e+02
1	 1.610183442366161e+00	 8.640330972791826e-02	 9.763649349008202e+01
1	 1.608353370636367e+00	 1.155667995845252e-01	 7.617189454067638e+01
1	 1.605977290138907e+00	 1.448902811214324e-01	 5.494855086328332e+01
1	 1.603045465287642e+00	 1.743602197408082e-01	 3.374177444184505e+01
1	 1.599548539100729e+00	 2.039625482046325e-01	 1.231725331426400e+01
1	 1.595477563903424e+00	 2.336826760635639e-01	-9.568455951815148e+00
1	 1.590824032054943e+00	 2.635055009857084e-01	-3.216736576667801e+01
1	 1.585579906574289e+00	 2.934154220259006e-01	-5.573942460535708e+01
1	 1.625000000000000e+00	 0.000000000000000e+00	 1.784832853728286e+02
1	 1.624744244432312e+00	 2.882950197718282e-02	 1.528459670932083e+02
1	 1.623969663291593e+00	 5.785786644259652e-02	 1.282034470269766e+02
1	 1.622665484554890e+00	 8.707310282611692e-02	 1.043368993386373e+02
1	 1.620821226222414e+00	 1.164626662474418e-01	 8.101535210766724e+01
1	 1.618426726496131e+00	 1.460134615946994e-01	 5.799601220417767e+01
1	 1.615472174320238e+00	 1.757118493506957e-01	 3.502466495431018e+01
1	 1.611948140178151e+00	 2.055436532290552e-01	 1.183615058347474e+01
1	 1.607845607033305e+00	 2.354941696761788e-01	-1.184508103179554e+01
1	 1.603156001294210e+00	 2.655481792878331e-01	-3.630433627702256e+01
1	 1.597871223677692e+00	 2.956899601812942e-01	-6.183596390105590e+01
1	 1.474958052621828e+00	 2.729445786273588e-01	-4.362231817560365e+01
1	 1.469523396769290e+00	 3.008338184785218e-01	-4.223875998962918e+01
1	 1.463525825188096e+00	 3.287737200529772e-01	-4.071867815096023e+01
1	 1.456959343223164e+00	 3.567484718715391e-01	-3.909150187242788e+01
1	 1.449818504550261e+00	 3.847418665163292e-01	-3.738789437060755e+01
1	 1.442098437276991e+00	 4.127373222644202e-01	-3.563967419352822e+01
1	 1.433794869157430e+00	 4.407179065634715e-01	-3.387972758126702e+01
1	 1.424904151779575e+00	 4.686663613186522e-01	-3.214191201843782e+01
1	 1.415423283584646e+00	 4.965651299484973e-01	-3.046095121581399e+01
1	 1.405349931578255e+00	 5.243963861554752e-01	-2.887232183841176e+01
1	 1.394682451595397e+00	 5.521420643450261e-01	-2.741213237845644e+01
1	 1.487249369729599e+00	 2.752191167827523e-01	-4.088585184365705e+01
1	 1.481769425078744e+00	 3.033407669662652e-01	-3.969234140775951e+01
1	 1.475721873734670e+00	 3.315135010540273e-01	-3.844480036020671e+01
1	 1.469100671086833e+00	 3.597213758045253e-01	-3.715077878122022e+01
1	 1.461900325424960e+00	 3.879480487380636e-01	-3.581818172828515e+01
1	 1.454115924257551e+00	 4.161767999506894e-01	-3.445525082106505e+01
1	 1.445743159736630e+00	 4.443905557854587e-01	-3.307054343767528e+01
1	 1.436778353046758e+00	 4.725719143300821e-01	-3.167290954843897e+01
1	 1.427218477616163e+00	 5.007031726982478e-01	-3.027146623327028e+01
1	 1.417061181008836e+00	 5.287663560399447e-01	-2.887556994946184e+01
1	 1.406304805358394e+00	 5.567432482139901e-01	-2.749478663769138e+01
1	 1.499540686836884e+00	 2.774936549381459e-01	-3.922865330357410e+01
1	 1.494015453387626e+00	 3.058477154540085e-01	-3.805302392985664e+01
1	 1.487917922280615e+00	 3.342532820550773e-01	-3.690419576075669e+01
1	 1.481241998949843e+00	 3.626942797375113e-01	-3.576810603815335e+01
1	 1.473982146299001e+00	 3.911542309597980e-01	-3.463017820455330e+01
1	 1.466133411237483e+00	 4.196162776369589e-01	-3.347536315238831e+01
1	 1.457691450315262e+00	 4.480632050074460e-01	-3.228818459693679e+01
1	 1.448652554313463e+00	 4.764774673415118e-01	-3.105278846721392e+01
1	 1.439013671647323e+00	 5.048412154479985e-01	-2.975299617153338e+01
1	 1.428772430439212e+00	 5.331363259244142e-01	-2.837236155618614e+01
1	 1.417927159121370e+00	 5.613444320829541e-01	-2.689423133722685e+01
1	 1.511832003943683e+00	 2.797681930935394e-01	-3.862439895057948e+01
1	 1.506261481695937e+00	 3.083546639417515e-01	-3.729868313869811e+01
1	 1.500113970825930e+00	 3.369930630561272e-01	-3.607897964060115e+01
1	 1.493383326812194e+00	 3.656671836704973e-01	-3.492987265911380e+01
1	 1.486063967172383e+00	 3.943604131815324e-01	-3.381457382090143e+01
1	 1.478150898216786e+00	 4.230557553232283e-01	-3.269502251178615e+01
1	 1.469639740893325e+00	 4.517358542294331e-01	-3.153199678335944e+01
1	 1.460526755579689e+00	 4.803830203529415e-01	-3.028523459453470e+01
1	 1.450808865678127e+00	 5.089792581977491e-01	-2.891356505691561e+01
1	 1.440483679869384e+00	 5.375062958088838e-01	-2.737504925625520e+01
1	 1.429549512884325e+00	 5.659456159519182e-01	-2.562713012489047e+01
1	 1.524123321049998e+00	 2.820427312489329e-01	-3.904761432843574e+01
1	 1.518507510003678e+00	 3.108616124294948e-01	-3.740790830793764e+01
1	 1.512310019370616e+00	 3.397328440571772e-01	-3.595184421392386e+01
1	 1.505524654673888e+00	 3.686400876034834e-01	-3.462290672399142e+01
1	 1.498145788045108e+00	 3.975665954032666e-01	-3.336235892070671e+01
1	 1.490168385195461e+00	 4.264952330094976e-01	-3.210940114857014e+01
1	 1.481588031470819e+00	 4.554085034514203e-01	-3.080134682691863e+01
1	 1.472400956845438e+00	 4.842885733643713e-01	-2.937381485276046e+01
1	 1.462604059708573e+00	 5.131173009474997e-01	-2.776093807616813e+01
1	 1.452194929299351e+00	 5.418762656933532e-01	-2.589558717644168e+01
1	 1.441171866647260e+00	 5.705467998208821e-01	-2.370960911147382e+01
1	 1.536414638155826e+00	 2.843172694043264e-01	-4.047364016350211e+01
1	 1.530753538310847e+00	 3.133685609172381e-01	-3.835997385446984e+01
1	 1.524506067914674e+00	 3.424726250582273e-01	-3.650603554405363e+01
1	 1.517665982534923e+00	 3.716129915364694e-01	-3.483445781411944e+01
1	 1.510227608917174e+00	 4.007727776250010e-01	-3.326481215635857e+01
1	 1.502185872173508e+00	 4.299347106957671e-01	-3.171382580007445e+01
1	 1.493536322047746e+00	 4.590811526734075e-01	-3.009562181903065e+01
1	 1.484275158110709e+00	 4.881941263758013e-01	-2.832198202273400e+01
1	 1.474399253738662e+00	 5.172553436972505e-01	-2.630263193006340e+01
1	 1.463906178729113e+00	 5.462462355778226e-01	-2.394554691145603e+01
1	 1.452794220410174e+00	 5.751479836898462e-01	-2.115727837221427e+01
1	 1.548705955261170e+00	 2.865918075597200e-01	-4.287860001621880e+01
1	 1.542999566617443e+00	 3.158755094049813e-01	-4.013481215020671e+01
1	 1.536702116458102e+00	 3.452124060592773e-01	-3.772533156532371e+01
1	 1.529807310395300e+00	 3.745858954694554e-01	-3.555218028602658e+01
1	 1.522309429788582e+00	 4.039789598467353e-01	-3.351348904842479e+01
1	 1.514203359150925e+00	 4.333741883820365e-01	-3.150377156117849e+01
1	 1.505484612624103e+00	 4.627538018953948e-01	-2.941422830852727e+01
1	 1.496149359375500e+00	 4.920996793872311e-01	-2.713307927320693e+01
1	 1.486194447768395e+00	 5.213933864470012e-01	-2.454592469395005e+01
1	 1.475617428158671e+00	 5.506162054622920e-01	-2.153613270379080e+01
1	 1.464416574173068e+00	 5.797491675588102e-01	-1.798525242439672e+01
1	 1.560997272366028e+00	 2.888663457151135e-01	-4.623936946086740e+01
1	 1.555245594923469e+00	 3.183824578927246e-01	-4.271298761833673e+01
1	 1.548898165000901e+00	 3.479521870603273e-01	-3.959402114326853e+01
1	 1.541948638255018e+00	 3.775587994024414e-01	-3.676411733540576e+01
1	 1.534391250659332e+00	 4.071851420684697e-01	-3.410021108532965e+01
1	 1.526220846127715e+00	 4.368136660683060e-01	-3.147485604345887e+01
1	 1.517432903199891e+00	 4.664264511173821e-01	-2.875659153561574e+01
1	 1.508023560639813e+00	 4.960052323986609e-01	-2.581034447627656e+01
1	 1.497989641797769e+00	 5.255314291967518e-01	-2.249786521245462e+01
1	 1.487328677588024e+00	 5.549861753467614e-01	-1.867819590640635e+01
1	 1.476038927935941e+00	 5.843503514277741e-01	-1.420816973750951e+01
1	 1.573288589470401e+00	 2.911408838705071e-01	-5.053354671003096e+01
1	 1.567491623228924e+00	 3.208894063804678e-01	-4.607567204382202e+01
1	 1.561094213543070e+00	 3.506919680613774e-01	-4.209688411637353e+01
1	 1.554089966114079e+00	 3.805317033354274e-01	-3.845868580808432e+01
1	 1.546473071529424e+00	 4.103913242902040e-01	-3.501705533398429e+01
1	 1.538238333103876e+00	 4.402531437545753e-01	-3.162283380813084e+01
1	 1.529381193775111e+00	 4.700991003393692e-01	-2.812215470174688e+01
1	 1.519897761903649e+00	 4.999107854100907e-01	-2.435691432053636e+01
1	 1.509784835826787e+00	 5.296694719465024e-01	-2.016528205380681e+01
1	 1.499039927017173e+00	 5.593561452312309e-01	-1.538224876747852e+01
1	 1.487661281698794e+00	 5.889515352967382e-01	-9.840211328861727e+00
1	 1.585579906574289e+00	 2.934154220259006e-01	-5.573942460535708e+01
1	 1.579737651533808e+00	 3.233963548682111e-01	-5.020462103224428e+01
1	 1.573290262084611e+00	 3.534317490624274e-01	-4.521917226611607e+01
1	 1.566231293972480e+00	 3.835046072684134e-01	-4.062466171746064e+01
1	 1.558554892398857e+00	 4.135975065119385e-01	-3.625634453364412e+01
1	 1.550255820079409e+00	 4.436926214408446e-01	-3.194359105792276e+01
1	 1.541329484349762e+00	 4.737717495613564e-01	-2.751037827344297e+01
1	 1.531771963167006e+00	 5.038163384215205e-01	-2.277582823291721e+01
1	 1.521580029855448e+00	 5.338075146962531e-01	-1.755479204768444e+01
1	 1.510751176446117e+00	 5.637261151157004e-01	-1.165847757399506e+01
1	 1.499283635461626e+00	 5.935527191657022e-01	-4.895118494288199e+00
1	 1.597871223677692e+00	 2.956899601812942e-01	-6.183596390105590e+01
1	 1.591983679838119e+00	 3.259033033559543e-01	-5.508215155516601e+01
1	 1.585486310625523e+00	 3.561715300634776e-01	-4.894659116531192e+01
1	 1.578372621830225e+00	 3.864775112013996e-01	-4.325116643036686e+01
1	 1.570636713267633e+00	 4.168036887336729e-01	-3.781063764697224e+01
1	 1.562273307054313e+00	 4.471320991271141e-01	-3.243314057394089e+01
1	 1.553277774923845e+00	 4.774443987833438e-01	-2.692073931825632e+01
1	 1.543646164429884e+00	 5.077218914329503e-01	-2.107003211952063e+01
1	 1.533375223883753e+00	 5.379455574460040e-01	-1.467280842900374e+01
1	 1.522462425874856e+00	 5.680960850001699e-01	-7.516755188724371e+00
1	 1.510905989224438e+00	 5.981539030346663e-01	 6.137902794860164e-01
1	 1.394682451595397e+00	 5.521420643450261e-01	-2.741213237845644e+01
1	 1.383419906984210e+00	 5.797838916139538e-01	-2.836783752123271e+01
1	 1.371562085578352e+00	 6.073034212204445e-01	-2.934776996277535e+01
1	 1.359109514832477e+00	 6.346820674319068e-01	-3.030772123540800e+01
1	 1.346063475001740e+00	 6.619011416355681e-01	-3.120258919022896e+01
1	 1.332426010254849e+00	 6.889418895898038e-01	-3.198654443037410e+01
1	 1.318199937618296e+00	 7.157855296803712e-01	-3.261320502745247e+01
1	 1.303388853659439e+00	 7.424132920367565e-01	-3.303581860505913e+01
1	 1.287997138826982e+00	 7.688064583548604e-01	-3.320745078321518e+01
1	 1.272029959379205e+00	 7.949464022641402e-01	-3.308117889469646e+01
1	 1.255493266842989e+00	 8.208146300702533e-01	-3.261028980977763e+01
1	 1.406304805358394e+00	 5.567432482139901e-01	-2.749478663769138e+01
1	 1.394948406207697e+00	 5.846154240430896e-01	-2.805361648034541e+01
1	 1.382991769622504e+00	 6.123642830626772e-01	-2.860611081071054e+01
1	 1.370435427452928e+00	 6.399710846590581e-01	-2.912561077558355e+01
1	 1.357280670622920e+00	 6.674169844810206e-01	-2.958495344532358e+01
1	 1.343529560335928e+00	 6.946830720015954e-01	-2.995657242368333e+01
1	 1.329184937093667e+00	 7.217504090930887e-01	-3.021260331421516e+01
1	 1.314250427434890e+00	 7.486000694693998e-01	-3.032499348773862e+01
1	 1.298730448312043e+00	 7.752131788405625e-01	-3.026561554201339e+01
1	 1.282630209035559e+00	 8.015709556162806e-01	-3.000638379579143e+01
1	 1.265955710728375e+00	 8.276547519880928e-01	-2.951937311557712e+01
1	 1.417927159121370e+00	 5.613444320829541e-01	-2.689423133722685e+01
1	 1.406476905431348e+00	 5.894469564722256e-01	-2.717774116423969e+01
1	 1.394421453666978e+00	 6.174251449049096e-01	-2.742486775958750e+01
1	 1.381761340073830e+00	 6.452601018862087e-01	-2.762628471239244e+01
1	 1.368497866244649e+00	 6.729328273264731e-01	-2.777254659157286e+01
1	 1.354633110417626e+00	 7.004242544133872e-01	-2.785412440814245e+01
1	 1.340169936569694e+00	 7.277152885058061e-01	-2.786144254246642e+01
1	 1.325112001211006e+00	 7.547868469020427e-01	-2.778491693810054e+01
1	 1.309463757797747e+00	 7.816198993262644e-01	-2.761499434686207e+01
1	 1.293230458692502e+00	 8.081955089684213e-01	-2.734219239439335e+01
1	 1.276418154614268e+00	 8.344948739059324e-01	-2.695714022193268e+01
1	 1.429549512884325e+00	 5.659456159519182e-01	-2.562713012489047e+01
1	 1.418005404655163e+00	 5.942784889013609e-01	-2.575391045772895e+01
1	 1.405851137711774e+00	 6.224860067471424e-01	-2.581476236798021e+01
1	 1.393087252695183e+00	 6.505491191133597e-01	-2.581748001182843e+01
1	 1.379715061866928e+00	 6.784486701719254e-01	-2.577011914387464e+01
1	 1.365736660499942e+00	 7.061654368251790e-01	-2.568096809131722e+01
1	 1.351154936046379e+00	 7.336801679185235e-01	-2.555851683559931e+01
1	 1.335973574987789e+00	 7.609736243346858e-01	-2.541142435692990e+01
1	 1.320197067284093e+00	 7.880266198119669e-01	-2.524848441613133e+01
1	 1.303830708350034e+00	 8.148200623205618e-01	-2.507858996614215e+01
1	 1.286880598500666e+00	 8.413349958237717e-01	-2.491069640196492e+01
1	 1.441171866647260e+00	 5.705467998208821e-01	-2.370960911147382e+01
1	 1.429533903879145e+00	 5.991100213304970e-01	-2.379538134610939e+01
1	 1.417280821756893e+00	 6.275468685893746e-01	-2.378617033772957e+01
1	 1.404413165316985e+00	 6.558381363405106e-01	-2.370668406033437e+01
1	 1.390932257489756e+00	 6.839645130173780e-01	-2.358226837470919e+01
1	 1.376840210582875e+00	 7.119066192369704e-01	-2.343881415794810e+01
1	 1.362139935523721e+00	 7.396450473312408e-01	-2.330265921625264e+01
1	 1.346835148765235e+00	 7.671604017673291e-01	-2.320048548692210e+01
1	 1.330930376771083e+00	 7.944333402976689e-01	-2.315921209017847e+01
1	 1.314430958008157e+00	 8.214446156727025e-01	-2.320588484229995e+01
1	 1.297343042387568e+00	 8.481751177416111e-01	-2.336756288772139e+01
1	 1.452794220410174e+00	 5.751479836898462e-01	-2.115727837221427e+01
1	 1.441062403103291e+00	 6.039415537596327e-01	-2.131498659114120e+01
1	 1.428710505802334e+00	 6.326077304316072e-01	-2.134913534821291e+01
1	 1.415739077939239e+00	 6.611271535676618e-01	-2.130114464798375e+01
1	 1.402149453113134e+00	 6.894803558628307e-01	-2.121344444383615e+01
1	 1.387943760666427e+00	 7.176478016487620e-01	-2.112931855086363e+01
1	 1.373124935001719e+00	 7.456099267439583e-01	-2.109274005034077e+01
1	 1.357696722543348e+00	 7.733471791999721e-01	-2.114819903900631e+01
1	 1.341663686258716e+00	 8.008400607833710e-01	-2.134052366646890e+01
1	 1.325031207666869e+00	 8.280691690248431e-01	-2.171469548752635e+01
1	 1.307805486274977e+00	 8.550152396594507e-01	-2.231566023182004e+01
1	 1.464416574173068e+00	 5.797491675588102e-01	-1.798525242439672e+01
1	 1.452590902327603e+00	 6.087730861887682e-01	-1.832515156531585e+01
1	 1.440140189848097e+00	 6.376685922738400e-01	-1.851338223183888e+01
1	 1.427064990561943e+00	 6.664161707948125e-01	-1.860787947627389e+01
1	 1.413366648737060e+00	 6.949961987082831e-01	-1.866795623610065e+01
1	 1.399047310750597e+00	 7.233889840605537e-01	-1.875408464327822e+01
1	 1.384109934480375e+00	 7.515748061566756e-01	-1.892766556517774e+01
1	 1.368558296322125e+00	 7.795339566326149e-01	-1.925078757455855e+01
1	 1.352396995746991e+00	 8.072467812690729e-01	-1.978597667111913e+01
1	 1.335631457326171e+00	 8.346937223769836e-01	-2.059593819299793e+01
1	 1.318267930162891e+00	 8.618553615772905e-01	-2.174329246139469e+01
1	 1.476038927935941e+00	 5.843503514277741e-01	-1.420816973750951e+01
1	 1.464119401552080e+00	 6.136046186179041e-01	-1.483791029080413e+01
1	 1.451569873894183e+00	 6.427294541160723e-01	-1.528832952707762e+01
1	 1.438390903185097e+00	 6.717051880219633e-01	-1.563368521673092e+01
1	 1.424583844361535e+00	 7.005120415537357e-01	-1.594997692343820e+01
1	 1.410150860835385e+00	 7.291301664723454e-01	-1.631466530846221e+01
1	 1.395094933959687e+00	 7.575396855693931e-01	-1.680637643761147e+01
1	 1.379419870101568e+00	 7.857207340652584e-01	-1.750459262939959e+01
1	 1.363130305235910e+00	 8.136535017547750e-01	-1.848933154280867e+01
1	 1.346231706986062e+00	 8.413182757291240e-01	-1.984081535095473e+01
1	 1.328730374051309e+00	 8.686954834951300e-01	-2.163913198067355e+01
1	 1.487661281698794e+00	 5.889515352967382e-01	-9.840211328861727e+00
1	 1.475647900776722e+00	 6.184361510470401e-01	-1.086492072657821e+01
1	 1.462999557940591e+00	 6.477903159583051e-01	-1.168310144306839e+01
1	 1.449716815808702e+00	 6.769942052491146e-01	-1.238514614489338e+01
1	 1.435801039986560e+00	 7.060278843991882e-01	-1.306354926615997e+01
1	 1.421254410920791e+00	 7.348713488841370e-01	-1.381256489239615e+01
1	 1.406079933439656e+00	 7.635045649821103e-01	-1.472784644833790e+01
1	 1.390281443881676e+00	 7.919075114979012e-01	-1.590607006635601e+01
1	 1.373863614725471e+00	 8.200602222404771e-01	-1.744454370650754e+01
1	 1.356831956646543e+00	 8.479428290812646e-01	-1.944080427887722e+01
1	 1.339192817940233e+00	 8.755356054129694e-01	-2.199220518124889e+01
1	 1.499283635461626e+00	 5.935527191657022e-01	-4.895118494288199e+00
1	 1.487176400001530e+00	 6.232676834761757e-01	-6.417479344504760e+00
1	 1.474429241987322e+00	 6.528511778005376e-01	-7.706539267732500e+00
1	 1.461042728432757e+00	 6.822832224762654e-01	-8.868642372714874e+00
1	 1.447018235612134e+00	 7.115437272446408e-01	-1.001259066766725e+01
1	 1.432357961006815e+00	 7.406125312959287e-01	-1.124924109467302e+01
1	 1.417064932920283e+00	 7.694694443948278e-01	-1.269108119880725e+01
1	 1.401143017662449e+00	 7.980942889305445e-01	-1.445178564398086e+01
1	 1.384596924215675e+00	 8.264669427261790e-01	-1.664575601586842e+01
1	 1.367432206307614e+00	 8.545673824334052e-01	-1.938764656346980e+01
1	 1.349655261829663e+00	 8.823757273308089e-01	-2.279187872163691e+01
1	 1.510905989224438e+00	 5.981539030346663e-01	 6.137902794860164e-01
1	 1.498704899226502e+00	 6.280992159053116e-01	-1.506535032695353e+00
1	 1.485858926034374e+00	 6.579120396427700e-01	-3.367212249359540e+00
1	 1.472368641057263e+00	 6.875722397034166e-01	-5.090357701009490e+00
1	 1.458235431238258e+00	 7.170595700900936e-01	-6.800897995870661e+00
1	 1.443461511093458e+00	 7.463537137077204e-01	-8.626106762590261e+00
1	 1.428049932401566e+00	 7.754343238075454e-01	-1.069511688734803e+01
1	 1.412004591443889e+00	 8.042810663631879e-01	-1.313841078979465e+01
1	 1.395330233706523e+00	 8.328736632118814e-01	-1.608729154443093e+01
1	 1.378032455969274e+00	 8.611919357855460e-01	-1.967333789646004e+01
1	 1.360117705719598e+00	 8.892158492486488e-01	-2.402784644008839e+01
1	 1.255493266842989e+00	 8.208146300702533e-01	-3.261028980977763e+01
1	 1.238393794960052e+00	 8.463928216988620e-01	-3.137542886141958e+01
1	 1.220739054091186e+00	 8.716628716590645e-01	-2.997900701613101e+01
1	 1.202537323063470e+00	 8.966069298445739e-01	-2.844644643150878e+01
1	 1.183797638460694e+00	 9.212074419883817e-01	-2.680376498243532e+01
1	 1.164529781372711e+00	 9.454471895829715e-01	-2.507747236203975e+01
1	 1.144744261634678e+00	 9.693093290812137e-01	-2.329446256584360e+01
1	 1.124452299602615e+00	 9.927774301945512e-01	-2.148190344079660e+01
1	 1.103665805527006e+00	 1.015835513108607e+00	-1.966712401317615e+01
1	 1.082397356601088e+00	 1.038468084441313e+00	-1.787750033463192e+01
1	 1.060660171775000e+00	 1.060660171775000e+00	-1.614034060363289e+01
1	 1.265955710728375e+00	 8.276547519880928e-01	-2.951937311557712e+01
1	 1.248713743246684e+00	 8.534460952142418e-01	-2.867832658346021e+01
1	 1.230911879537568e+00	 8.789267289246001e-01	-2.766507316359087e+01
1	 1.212558467418335e+00	 9.040786542619943e-01	-2.648973753440671e+01
1	 1.193662618777638e+00	 9.288841706738568e-01	-2.516302835580810e+01
1	 1.174234196214413e+00	 9.533259161651070e-01	-2.369619952627517e+01
1	 1.154283797145776e+00	 9.773869068257236e-01	-2.210100823380292e+01
1	 1.133822735430714e+00	 1.001050575448077e+00	-2.038967004482598e+01
1	 1.112863020571797e+00	 1.024300809052669e+00	-1.857481130262180e+01
1	 1.091417334572207e+00	 1.047121985145915e+00	-1.666941913154021e+01
1	 1.069499006540000e+00	 1.069499006540000e+00	-1.468678936547957e+01
1	 1.276418154614268e+00	 8.344948739059324e-01	-2.695714022193268e+01
1	 1.259033691533726e+00	 8.604993687296211e-01	-2.641182673478987e+01
1	 1.241084704984276e+00	 8.861905861901355e-01	-2.568400664983015e+01
1	 1.222579611773449e+00	 9.115503786794145e-01	-2.476869572666825e+01
1	 1.203527599094765e+00	 9.365608993593316e-01	-2.366148210448130e+01
1	 1.183938611056242e+00	 9.612046427472428e-01	-2.235855204381821e+01
1	 1.163823332656955e+00	 9.854644845702333e-01	-2.085671286850198e+01
1	 1.143193171258858e+00	 1.009323720701601e+00	-1.915341291847665e+01
1	 1.122060235616609e+00	 1.032766104996730e+00	-1.724675834686046e+01
1	 1.100437312543332e+00	 1.055775885850517e+00	-1.513552661888885e+01
1	 1.078337841305000e+00	 1.078337841305000e+00	-1.281917659656208e+01
1	 1.286880598500666e+00	 8.413349958237717e-01	-2.491069640196492e+01
1	 1.269353639821178e+00	 8.675526422450008e-01	-2.456542681711591e+01
1	 1.251257530431308e+00	 8.934544434556709e-01	-2.402768875926473e+01
1	 1.232600756128812e+00	 9.190221030968349e-01	-2.327757303050698e+01
1	 1.213392579412076e+00	 9.442376280448065e-01	-2.229573134125834e+01
1	 1.193643025898199e+00	 9.690833693293788e-01	-2.106346588166564e+01
1	 1.173362868168216e+00	 9.935420623147427e-01	-1.956281649514180e+01
1	 1.152563607087049e+00	 1.017596865955126e+00	-1.777664483565211e+01
1	 1.131257450661441e+00	 1.041231400940791e+00	-1.568871490795236e+01
1	 1.109457290514461e+00	 1.064429786555119e+00	-1.328376941395435e+01
1	 1.087176676070000e+00	 1.087176676070000e+00	-1.054760135856362e+01
1	 1.297343042387568e+00	 8.481751177416111e-01	-2.336756288772139e+01
1	 1.279673588109040e+00	 8.746059157603802e-01	-2.312896312240974e+01
1	 1.261430355878664e+00	 9.007183007212065e-01	-2.268826267035860e+01
1	 1.242621900484424e+00	 9.264938275142550e-01	-2.201080688677337e+01
1	 1.223257559729569e+00	 9.519143567302811e-01	-2.106249069143171e+01
1	 1.203347440740282e+00	 9.769620959115145e-01	-1.980991133045954e+01
1	 1.182902403679558e+00	 1.001619640059252e+00	-1.822051913811074e+01
1	 1.161934042915285e+00	 1.025870011208651e+00	-1.626276525496953e+01
1	 1.140454665706294e+00	 1.049696696884853e+00	-1.390624527176339e+01
1	 1.118477268485596e+00	 1.073083687259721e+00	-1.112183779152204e+01
1	 1.096015510835000e+00	 1.096015510835000e+00	-7.881836936985637e+00
1	 1.307805486274977e+00	 8.550152396594507e-01	-2.231566023182004e+01
1	 1.289993536397313e+00	 8.816591892757599e-01	-2.209259718129629e+01
1	 1.271603181326345e+00	 9.079821579867418e-01	-2.165812297986272e+01
1	 1.252643044840285e+00	 9.339655519316756e-01	-2.096301273820873e+01
1	 1.233122540047246e+00	 9.595910854157564e-01	-1.995857991228369e+01
1	 1.213051855582494e+00	 9.848408224936503e-01	-1.859689163154077e+01
1	 1.192441939190983e+00	 1.009697217803762e+00	-1.683098242101713e+01
1	 1.171304478743568e+00	 1.034143156462176e+00	-1.461506485237101e+01
1	 1.149651880751167e+00	 1.058161992828914e+00	-1.190473566701255e+01
1	 1.127497246456736e+00	 1.081737587964323e+00	-8.657175937585141e+00
1	 1.104854345600000e+00	 1.104854345600000e+00	-4.831343872194847e+00
1	 1.318267930162891e+00	 8.618553615772905e-01	-2.174329246139469e+01
1	 1.300313484685995e+00	 8.887124627911391e-01	-2.144680285675816e+01
1	 1.281776006774351e+00	 9.152460152522772e-01	-2.092990572589849e+01
1	 1.262664189196394e+00	 9.414372763490958e-01	-2.012897696587859e+01
1	 1.242987520365106e+00	 9.672678141012309e-01	-1.898091972118190e+01
1	 1.222756270424832e+00	 9.927195490757862e-01	-1.742344166938218e+01
1	 1.201981474702488e+00	 1.017774795548272e+00	-1.539533109052919e+01
1	 1.180674914571895e+00	 1.042416301715701e+00	-1.283672983789652e+01
1	 1.158849095796060e+00	 1.066627288772976e+00	-9.689401331032366e+00
1	 1.136517224427881e+00	 1.090391488668925e+00	-5.896991714773235e+00
1	 1.113693180365000e+00	 1.113693180365000e+00	-1.405282369944141e+00
1	 1.328730374051309e+00	 8.686954834951300e-01	-2.163913198067355e+01
1	 1.310633432975088e+00	 8.957657363065190e-01	-2.118235404758671e+01
1	 1.291948832222681e+00	 9.225098725178128e-01	-2.049647888239215e+01
1	 1.272685333552753e+00	 9.489090007665163e-01	-1.950365015931705e+01
1	 1.252852500683149e+00	 9.749445427867061e-01	-1.812652782077299e+01
1	 1.232460685267298e+00	 1.000598275657922e+00	-1.628862672579572e+01
1	 1.211521010214075e+00	 1.025852373292782e+00	-1.391465446822425e+01
1	 1.190045350400269e+00	 1.050689446969226e+00	-1.093084606851446e+01
1	 1.168046310840973e+00	 1.075092584717037e+00	-7.265293241712613e+00
1	 1.145537202399030e+00	 1.099045389373528e+00	-2.848265966422213e+00
1	 1.122532015130000e+00	 1.122532015130000e+00	 2.387475874429532e+00
1	 1.339192817940233e+00	 8.755356054129694e-01	-2.199220518124889e+01
1	 1.320953381264590e+00	 9.028190098218986e-01	-2.129031296823301e+01
1	 1.302121657671336e+00	 9.297737297833478e-01	-2.035093329908267e+01
1	 1.282706477909361e+00	 9.563807251839367e-01	-1.908214070213401e+01
1	 1.262717481001375e+00	 9.826212714721810e-01	-1.739251511049487e+01
1	 1.242165100109891e+00	 1.008477002240058e+00	-1.519154129253646e+01
1	 1.221060545725744e+00	 1.033929951037291e+00	-1.239000783438004e+01
1	 1.199415786228689e+00	 1.058962592222751e+00	-8.900402968163725e+00
1	 1.177243525885908e+00	 1.083557880661099e+00	-4.637304533885057e+00
1	 1.154557180370186e+00	 1.107699290078130e+00	 4.822386154858351e-01
1	 1.131370849895000e+00	 1.131370849895000e+00	 6.538336406067551e+00
1	 1.349655261829663e+00	 8.823757273308089e-01	-2.279187872163691e+01
1	 1.331273329554503e+00	 9.098722833372782e-01	-2.176201897378249e+01
1	 1.312294483120316e+00	 9.370375870488835e-01	-2.048657406292413e+01
1	 1.292727622266217e+00	 9.638524496013569e-01	-1.885970865596542e+01
1	 1.272582461319784e+00	 9.902980001576561e-01	-1.677608207429837e+01
1	 1.251869514952611e+00	 1.016355728822194e+00	-1.413130793913442e+01
1	 1.230600081237495e+00	 1.042007528781801e+00	-1.082241374740556e+01
1	 1.208786222057155e+00	 1.067235737476276e+00	-6.748297265468156e+00
1	 1.186440740930863e+00	 1.092023176605160e+00	-1.810176617271089e+00
1	 1.163577158341345e+00	 1.116353190782732e+00	 4.087969034843129e+00
1	 1.140209684660000e+00	 1.140209684660000e+00	 1.103897126483452e+01
1	 1.360117705719598e+00	 8.892158492486488e-01	-2.402784644008839e+01
1	 1.341593277844827e+00	 9.169255568526578e-01	-2.258907790069984e+01
1	 1.322467308569620e+00	 9.443014443144191e-01	-2.089691225819342e+01
1	 1.302748766623323e+00	 9.713241740187775e-01	-1.883175992670323e+01
1	 1.282447441638377e+00	 9.979747288431313e-01	-1.627451533508862e+01
1	 1.261573929795459e+00	 1.024234455404330e+00	-1.310707623297984e+01
1	 1.240139616749326e+00	 1.050085106526311e+00	-9.212863302374572e+00
1	 1.218156657885667e+00	 1.075508882729801e+00	-4.477336558940117e+00
1	 1.195637955975838e+00	 1.100488472549222e+00	 1.211494987936777e+00
1	 1.172597136312511e+00	 1.125007091487334e+00	 7.962573926190183e+00
1	 1.149048519425000e+00	 1.149048519425000e+00	 1.588130873552120e+01
1	 1.060660171775000e+00	 1.060660171775000e+00	-1.614034060363289e+01
1	 1.038468084441312e+00	 1.082397356601088e+00	-1.250994063670739e+01
1	 1.015835513108607e+00	 1.103665805527006e+00	-8.866501819347608e+00
1	 9.927774301945514e-01	 1.124452299602615e+00	-5.192957146197731e+00
1	 9.693093290812139e-01	 1.144744261634678e+00	-1.472492571228430e+00
1	 9.454471895829717e-01	 1.164529781372711e+00	 2.311377124221249e+00
1	 9.212074419883821e-01	 1.183797638460694e+00	 6.174734686443044e+00
1	 8.966069298445744e-01	 1.202537323063470e+00	 1.013318945856720e+01
1	 8.716628716590653e-01	 1.220739054091185e+00	 1.420180962818338e+01
1	 8.463928216988629e-01	 1.238393794960052e+00	 1.839505808610568e+01
1	 8.208146300702533e-01	 1.255493266842989e+00	 2.272673229345643e+01
1	 1.069499006540000e+00	 1.069499006540000e+00	-1.468678936547957e+01
1	 1.047121985145914e+00	 1.091417334572208e+00	-1.055421738675940e+01
1	 1.024300809052668e+00	 1.112863020571797e+00	-6.458077957728986e+00
1	 1.001050575448077e+00	 1.133822735430714e+00	-2.394475941272260e+00
1	 9.773869068257237e-01	 1.154283797145776e+00	 1.640537571219401e+00
1	 9.533259161651076e-01	 1.174234196214413e+00	 5.650942715892640e+00
1	 9.288841706738570e-01	 1.193662618777638e+00	 9.640728337736737e+00
1	 9.040786542619949e-01	 1.212558467418335e+00	 1.361386965988311e+01
1	 8.789267289246008e-01	 1.230911879537568e+00	 1.757430630038998e+01
1	 8.534460952142426e-01	 1.248713743246684e+00	 2.152592079109740e+01
1	 8.276547519880928e-01	 1.265955710728375e+00	 2.547251774667843e+01
1	 1.078337841305000e+00	 1.078337841305000e+00	-1.281917659656208e+01
1	 1.055775885850517e+00	 1.100437312543332e+00	-8.268697049185754e+00
1	 1.032766104996730e+00	 1.122060235616609e+00	-3.803010871902933e+00
1	 1.009323720701601e+00	 1.143193171258858e+00	 5.687644362010160e-01
1	 9.854644845702336e-01	 1.163823332656955e+00	 4.837868299106338e+00
1	 9.612046427472433e-01	 1.183938611056242e+00	 8.995927300528077e+00
1	 9.365608993593318e-01	 1.203527599094765e+00	 1.303498327026795e+01
1	 9.115503786794150e-01	 1.222579611773449e+00	 1.694751905769548e+01
1	 8.861905861901361e-01	 1.241084704984275e+00	 2.072648185003710e+01
1	 8.604993687296220e-01	 1.259033691533725e+00	 2.436530391458299e+01
1	 8.344948739059326e-01	 1.276418154614268e+00	 2.785792066625842e+01
1	 1.087176676070000e+00	 1.087176676070000e+00	-1.054760135856362e+01
1	 1.064429786555119e+00	 1.109457290514461e+00	-5.661423455366142e+00
1	 1.041231400940791e+00	 1.131257450661441e+00	-9.073162502543020e-01
1	 1.017596865955126e+00	 1.152563607087049e+00	 3.692745469814867e+00
1	 9.935420623147430e-01	 1.173362868168216e+00	 8.117443500577050e+00
1	 9.690833693293790e-01	 1.193643025898198e+00	 1.234619870754364e+01
1	 9.442376280448070e-01	 1.213392579412075e+00	 1.635924920885603e+01
1	 9.190221030968353e-01	 1.232600756128811e+00	 2.013772376913269e+01
1	 8.934544434556715e-01	 1.251257530431307e+00	 2.366370996301532e+01
1	 8.675526422450017e-01	 1.269353639821178e+00	 2.692031671463212e+01
1	 8.413349958237718e-01	 1.286880598500666e+00	 2.989173087008965e+01
1	 1.096015510835000e+00	 1.096015510835000e+00	-7.881836936985637e+00
1	 1.073083687259721e+00	 1.118477268485596e+00	-2.740180958250099e+00
1	 1.049696696884853e+00	 1.140454665706294e+00	 2.223184273294377e+00
1	 1.025870011208651e+00	 1.161934042915285e+00	 6.973578272722160e+00
1	 1.001619640059253e+00	 1.182902403679558e+00	 1.147727338996486e+01
1	 9.769620959115149e-01	 1.203347440740282e+00	 1.570162902992202e+01
1	 9.519143567302818e-01	 1.223257559729569e+00	 1.961521943558340e+01
1	 9.264938275142555e-01	 1.242621900484423e+00	 2.318795423012718e+01
1	 9.007183007212070e-01	 1.261430355878663e+00	 2.639119098051035e+01
1	 8.746059157603812e-01	 1.279673588109040e+00	 2.919783911841103e+01
1	 8.481751177416113e-01	 1.297343042387569e+00	 3.158245463355622e+01
1	 1.104854345600000e+00	 1.104854345600000e+00	-4.831343872194847e+00
1	 1.081737587964323e+00	 1.127497246456736e+00	 4.874951885061805e-01
1	 1.058161992828914e+00	 1.149651880751166e+00	 5.582855357105298e+00
1	 1.034143156462176e+00	 1.171304478743567e+00	 1.040749840245486e+01
1	 1.009697217803762e+00	 1.192441939190982e+00	 1.491543185474297e+01
1	 9.848408224936508e-01	 1.213051855582493e+00	 1.906209445367086e+01
1	 9.595910854157568e-01	 1.233122540047245e+00	 2.280453304750751e+01
1	 9.339655519316761e-01	 1.252643044840284e+00	 2.610156982266206e+01
1	 9.079821579867426e-01	 1.271603181326344e+00	 2.891395883279163e+01
1	 8.816591892757606e-01	 1.289993536397312e+00	 3.120453089541861e+01
1	 8.550152396594509e-01	 1.307805486274977e+00	 3.293832603123196e+01
1	 1.113693180365000e+00	 1.113693180365000e+00	-1.405282369944141e+00
1	 1.090391488668925e+00	 1.136517224427881e+00	 4.014308945646795e+00
1	 1.066627288772976e+00	 1.158849095796060e+00	 9.166240559274012e+00
1	 1.042416301715701e+00	 1.180674914571895e+00	 1.399086092265322e+01
1	 1.017774795548272e+00	 1.201981474702488e+00	 1.843005392881457e+01
1	 9.927195490757867e-01	 1.222756270424832e+00	 2.242747509540064e+01
1	 9.672678141012316e-01	 1.242987520365105e+00	 2.592877710685823e+01
1	 9.414372763490964e-01	 1.262664189196394e+00	 2.888182328167439e+01
1	 9.152460152522779e-01	 1.281776006774350e+00	 3.123688764282041e+01
1	 8.887124627911401e-01	 1.300313484685995e+00	 3.294684039390251e+01
1	 8.618553615772904e-01	 1.318267930162891e+00	 3.396731773850157e+01
1	 1.122532015130000e+00	 1.122532015130000e+00	 2.387475874429532e+00
1	 1.099045389373527e+00	 1.145537202399030e+00	 7.833194070426774e+00
1	 1.075092584717037e+00	 1.168046310840974e+00	 1.296805529433276e+01
1	 1.050689446969226e+00	 1.190045350400269e+00	 1.772013569810271e+01
1	 1.025852373292782e+00	 1.211521010214075e+00	 2.201933338517141e+01
1	 1.000598275657922e+00	 1.232460685267297e+00	 2.579765484757634e+01
1	 9.749445427867065e-01	 1.252852500683148e+00	 2.898948868965424e+01
1	 9.489090007665166e-01	 1.272685333552752e+00	 3.153186489375823e+01
1	 9.225098725178134e-01	 1.291948832222681e+00	 3.336469801787494e+01
1	 8.957657363065197e-01	 1.310633432975087e+00	 3.443101286453007e+01
1	 8.686954834951300e-01	 1.328730374051309e+00	 3.467715132286573e+01
1	 1.131370849895000e+00	 1.131370849895000e+00	 6.538336406067551e+00
1	 1.107699290078130e+00	 1.154557180370186e+00	 1.193730514018602e+01
1	 1.083557880661099e+00	 1.177243525885908e+00	 1.698318012010897e+01
1	 1.058962592222751e+00	 1.199415786228689e+00	 2.159190291031283e+01
1	 1.033929951037292e+00	 1.221060545725744e+00	 2.568152044139948e+01
1	 1.008477002240058e+00	 1.242165100109890e+00	 2.917252123102354e+01
1	 9.826212714721815e-01	 1.262717481001375e+00	 3.198815683828926e+01
1	 9.563807251839371e-01	 1.282706477909361e+00	 3.405474649905203e+01
1	 9.297737297833488e-01	 1.302121657671336e+00	 3.530196304625849e+01
1	 9.028190098218994e-01	 1.320953381264590e+00	 3.566309839388627e+01
1	 8.755356054129694e-01	 1.339192817940233e+00	 3.507530705284339e+01
1	 1.140209684660000e+00	 1.140209684660000e+00	 1.103897126483452e+01
1	 1.116353190782732e+00	 1.163577158341346e+00	 1.632000899343063e+01
1	 1.092023176605160e+00	 1.186440740930862e+00	 2.120665433682181e+01
1	 1.067235737476276e+00	 1.208786222057155e+00	 2.560284878167620e+01
1	 1.042007528781801e+00	 1.230600081237494e+00	 2.941491957190222e+01
1	 1.016355728822194e+00	 1.251869514952611e+00	 3.255196525429437e+01
1	 9.902980001576563e-01	 1.272582461319784e+00	 3.492622442330038e+01
1	 9.638524496013575e-01	 1.292727622266217e+00	 3.645342530699304e+01
1	 9.370375870488843e-01	 1.312294483120315e+00	 3.705311401508724e+01
1	 9.098722833372790e-01	 1.331273329554503e+00	 3.664895946897487e+01
1	 8.823757273308089e-01	 1.349655261829663e+00	 3.516903325064519e+01
1	 1.149048519425000e+00	 1.149048519425000e+00	 1.588130873552120e+01
1	 1.125007091487334e+00	 1.172597136312511e+00	 2.097487656594312e+01
1	 1.100488472549222e+00	 1.195637955975838e+00	 2.563366988160646e+01
1	 1.075508882729801e+00	 1.218156657885667e+00	 2.974976149697291e+01
1	 1.050085106526311e+00	 1.240139616749326e+00	 3.321788742110229e+01
1	 1.024234455404330e+00	 1.261573929795459e+00	 3.593588127952390e+01
1	 9.979747288431317e-01	 1.282447441638376e+00	 3.780508991920759e+01
1	 9.713241740187781e-01	 1.302748766623323e+00	 3.873076753596057e+01
1	 9.443014443144199e-01	 1.322467308569620e+00	 3.862244586418304e+01
1	 9.169255568526588e-01	 1.341593277844826e+00	 3.739427819258573e+01
1	 8.892158492486486e-01	 1.360117705719598e+00	 3.496535521318539e+01
1	 8.208146300702533e-01	 1.255493266842989e+00	 2.272673229345643e+01
1	 7.949464022641402e-01	 1.272029959379205e+00	 2.628738819223448e+01
1	 7.688064583548604e-01	 1.287997138826982e+00	 2.830389443622450e+01
1	 7.424132920367567e-01	 1.303388853659439e+00	 2.873221388486846e+01
1	 7.157855296803717e-01	 1.318199937618296e+00	 2.753492611639209e+01
1	 6.889418895898042e-01	 1.332426010254849e+00	 2.468126844225391e+01
1	 6.619011416355685e-01	 1.346063475001740e+00	 2.014714147703973e+01
1	 6.346820674319077e-01	 1.359109514832477e+00	 1.391508005607084e+01
1	 6.073034212204453e-01	 1.371562085578352e+00	 5.974190552524274e+00
1	 5.797838916139548e-01	 1.383419906984210e+00	-3.679944112942785e+00
1	 5.521420643450261e-01	 1.394682451595397e+00	-1.504539025642628e+01
1	 8.276547519880928e-01	 1.265955710728375e+00	 2.547251774667843e+01
1	 8.015709556162803e-01	 1.282630209035559e+00	 2.821015914504656e+01
1	 7.752131788405626e-01	 1.298730448312043e+00	 2.957347096115758e+01
1	 7.486000694693997e-01	 1.314250427434890e+00	 2.952542050636000e+01
1	 7.217504090930887e-01	 1.329184937093667e+00	 2.803482487144369e+01
1	 6.946830720015958e-01	 1.343529560335928e+00	 2.507637979116958e+01
1	 6.674169844810209e-01	 1.357280670622919e+00	 2.063065735115020e+01
1	 6.399710846590586e-01	 1.370435427452928e+00	 1.468407327952639e+01
1	 6.123642830626780e-01	 1.382991769622504e+00	 7.228824792472938e+00
1	 5.846154240430909e-01	 1.394948406207696e+00	-1.737199827353759e+00
1	 5.567432482139901e-01	 1.406304805358394e+00	-1.221053854865517e+01
1	 8.344948739059326e-01	 1.276418154614268e+00	 2.785792066625842e+01
1	 8.081955089684212e-01	 1.293230458692502e+00	 2.982989043218064e+01
1	 7.816198993262644e-01	 1.309463757797747e+00	 3.059421944762057e+01
1	 7.547868469020430e-01	 1.325112001211007e+00	 3.012080042086632e+01
1	 7.277152885058064e-01	 1.340169936569694e+00	 2.838461789181911e+01
1	 7.004242544133874e-01	 1.354633110417626e+00	 2.536576505348168e+01
1	 6.729328273264735e-01	 1.368497866244649e+00	 2.104943365806137e+01
1	 6.452601018862094e-01	 1.381761340073830e+00	 1.542587770092661e+01
1	 6.174251449049104e-01	 1.394421453666977e+00	 8.490351769617021e+00
1	 5.894469564722263e-01	 1.406476905431347e+00	 2.430251243814752e-01
1	 5.613444320829541e-01	 1.417927159121370e+00	-9.311127260317567e+00
1	 8.413349958237718e-01	 1.286880598500666e+00	 2.989173087008965e+01
1	 8.148200623205618e-01	 1.303830708350034e+00	 3.115397326500381e+01
1	 7.880266198119669e-01	 1.320197067284093e+00	 3.137220887217275e+01
1	 7.609736243346860e-01	 1.335973574987789e+00	 3.052317867003050e+01
1	 7.336801679185236e-01	 1.351154936046379e+00	 2.858796629300293e+01
1	 7.061654368251792e-01	 1.365736660499941e+00	 2.555200291422670e+01
1	 6.784486701719261e-01	 1.379715061866928e+00	 2.140504941159754e+01
1	 6.505491191133607e-01	 1.393087252695183e+00	 1.614115646177066e+01
1	 6.224860067471428e-01	 1.405851137711774e+00	 9.758603368399248e+00
1	 5.942784889013624e-01	 1.418005404655163e+00	 2.259816579660956e+00
1	 5.659456159519182e-01	 1.429549512884325e+00	-6.348731015335309e+00
1	 8.481751177416113e-01	 1.297343042387569e+00	 3.158245463355622e+01
1	 8.214446156727022e-01	 1.314430958008157e+00	 3.218956042871150e+01
1	 7.944333402976689e-01	 1.330930376771083e+00	 3.191331243793705e+01
1	 7.671604017673291e-01	 1.346835148765235e+00	 3.073722464899121e+01
1	 7.396450473312413e-01	 1.362139935523721e+00	 2.864841308997862e+01
1	 7.119066192369707e-01	 1.376840210582875e+00	 2.563758887505178e+01
1	 6.839645130173785e-01	 1.390932257489756e+00	 2.169903268965341e+01
1	 6.558381363405112e-01	 1.404413165316985e+00	 1.683055131189661e+01
1	 6.275468685893755e-01	 1.417280821756893e+00	 1.103341689634468e+01
1	 5.991100213304978e-01	 1.429533903879145e+00	 4.312289864998704e+00
1	 5.705467998208821e-01	 1.441171866647260e+00	-3.324873643309125e+00
1	 8.550152396594509e-01	 1.307805486274977e+00	 3.293832603123196e+01
1	 8.280691690248427e-01	 1.325031207666869e+00	 3.294357581937452e+01
1	 8.008400607833710e-01	 1.341663686258716e+00	 3.222321540553677e+01
1	 7.733471791999721e-01	 1.357696722543348e+00	 3.076745833224177e+01
1	 7.456099267439583e-01	 1.373124935001719e+00	 2.856938792125007e+01
1	 7.176478016487626e-01	 1.387943760666427e+00	 2.562493858155130e+01
1	 6.894803558628312e-01	 1.402149453113133e+00	 2.193286267163007e+01
1	 6.611271535676622e-01	 1.415739077939239e+00	 1.749468346514661e+01
1	 6.326077304316081e-01	 1.428710505802333e+00	 1.231463486713755e+01
1	 6.039415537596337e-01	 1.441062403103291e+00	 6.399588616460827e+00
1	 5.751479836898462e-01	 1.452794220410174e+00	-2.410302112916494e-01
1	 8.618553615772904e-01	 1.318267930162891e+00	 3.396731773850157e+01
1	 8.346937223769834e-01	 1.335631457326171e+00	 3.342272352684077e+01
1	 8.072467812690728e-01	 1.352396995746991e+00	 3.230742255113196e+01
1	 7.795339566326152e-01	 1.368558296322125e+00	 3.061825620302280e+01
1	 7.515748061566757e-01	 1.384109934480375e+00	 2.835421154790845e+01
1	 7.233889840605542e-01	 1.399047310750597e+00	 2.551639099215689e+01
1	 6.949961987082838e-01	 1.413366648737060e+00	 2.210797157885241e+01
1	 6.664161707948132e-01	 1.427064990561942e+00	 1.813415441428916e+01
1	 6.376685922738407e-01	 1.440140189848097e+00	 1.360210479402786e+01
1	 6.087730861887695e-01	 1.452590902327603e+00	 8.520883656270620e+00
1	 5.797491675588102e-01	 1.464416574173068e+00	 2.901371041190544e+00
1	 8.686954834951300e-01	 1.328730374051309e+00	 3.467715132286573e+01
1	 8.413182757291239e-01	 1.346231706986062e+00	 3.363349648852267e+01
1	 8.136535017547751e-01	 1.363130305235910e+00	 3.217126527210624e+01
1	 7.857207340652586e-01	 1.379419870101568e+00	 3.029385690258224e+01
1	 7.575396855693932e-01	 1.395094933959687e+00	 2.800610014014351e+01
1	 7.291301664723457e-01	 1.410150860835385e+00	 2.531421139731853e+01
1	 7.005120415537363e-01	 1.424583844361535e+00	 2.222574652331124e+01
1	 6.717051880219642e-01	 1.438390903185097e+00	 1.874954670743738e+01
1	 6.427294541160733e-01	 1.451569873894183e+00	 1.489567899299840e+01
1	 6.136046186179049e-01	 1.464119401552080e+00	 1.067537192248755e+01
1	 5.843503514277741e-01	 1.476038927935941e+00	 6.100946858534035e+00
1	 8.755356054129694e-01	 1.339192817940233e+00	 3.507530705284339e+01
1	 8.479428290812644e-01	 1.356831956646543e+00	 3.358218473754068e+01
1	 8.200602222404771e-01	 1.373863614725471e+00	 3.181990835967478e+01
1	 7.919075114979014e-01	 1.390281443881676e+00	 2.979836661462917e+01
1	 7.635045649821107e-01	 1.406079933439657e+00	 2.752816936282585e+01
1	 7.348713488841375e-01	 1.421254410920791e+00	 2.502059429715784e+01
1	 7.060278843991887e-01	 1.435801039986560e+00	 2.228753126974790e+01
1	 6.769942052491154e-01	 1.449716815808702e+00	 1.934142468807725e+01
1	 6.477903159583056e-01	 1.462999557940591e+00	 1.619521439515676e+01
1	 6.184361510470409e-01	 1.475647900776722e+00	 1.286227544885654e+01
1	 5.889515352967382e-01	 1.487661281698794e+00	 9.356357211873290e+00
1	 8.823757273308089e-01	 1.349655261829663e+00	 3.516903325064519e+01
1	 8.545673824334050e-01	 1.367432206307614e+00	 3.327488326722964e+01
1	 8.264669427261790e-01	 1.384596924215675e+00	 3.125835645648949e+01
1	 7.980942889305445e-01	 1.401143017662449e+00	 2.913576419934645e+01
1	 7.694694443948279e-01	 1.417064932920282e+00	 2.692343827106317e+01
1	 7.406125312959290e-01	 1.432357961006815e+00	 2.463766614528163e+01
1	 7.115437272446413e-01	 1.447018235612134e+00	 2.229462791577935e+01
1	 6.822832224762662e-01	 1.461042728432757e+00	 1.991033520066991e+01
1	 6.528511778005384e-01	 1.474429241987322e+00	 1.750057236785595e+01
1	 6.232676834761766e-01	 1.487176400001529e+00	 1.508084039210778e+01
1	 5.935527191657022e-01	 1.499283635461626e+00	 1.266630362362686e+01
1	 8.892158492486486e-01	 1.360117705719598e+00	 3.496535521318539e+01
1	 8.611919357855461e-01	 1.378032455969275e+00	 3.271749953266867e+01
1	 8.328736632118816e-01	 1.395330233706523e+00	 3.049146021619732e+01
1	 8.042810663631879e-01	 1.412004591443889e+00	 2.830990609045041e+01
1	 7.754343238075456e-01	 1.428049932401566e+00	 2.619483302595919e+01
1	 7.463537137077207e-01	 1.443461511093458e+00	 2.416748796595440e+01
1	 7.170595700900940e-01	 1.458235431238257e+00	 2.224829849447977e+01
1	 6.875722397034173e-01	 1.472368641057263e+00	 2.045680826369392e+01
1	 6.579120396427711e-01	 1.485858926034374e+00	 1.881161854406880e+01
1	 6.280992159053126e-01	 1.498704899226502e+00	 1.733033610414938e+01
1	 5.981539030346663e-01	 1.510905989224438e+00	 1.602952756936965e+01
1	 5.521420643450261e-01	 1.394682451595397e+00	-1.504539025642628e+01
1	 5.243963861554752e-01	 1.405349931578255e+00	-7.612660628757027e+00
1	 4.965651299484972e-01	 1.415423283584646e+00	-5.831274428297739e-02
1	 4.686663613186524e-01	 1.424904151779574e+00	 7.605710715574207e+00
1	 4.407179065634718e-01	 1.433794869157430e+00	 1.536562547218047e+01
1	 4.127373222644204e-01	 1.442098437276991e+00	 2.320593351028215e+01
1	 3.847418665163297e-01	 1.449818504550261e+00	 3.110955647393374e+01
1	 3.567484718715399e-01	 1.456959343223164e+00	 3.905797347351456e+01
1	 3.287737200529779e-01	 1.463525825188096e+00	 4.703136219305158e+01
1	 3.008338184785227e-01	 1.469523396769290e+00	 5.500874221077679e+01
1	 2.729445786273588e-01	 1.474958052621828e+00	 6.296811947892574e+01
1	 5.567432482139901e-01	 1.406304805358394e+00	-1.221053854865517e+01
1	 5.287663560399445e-01	 1.417061181008836e+00	-3.886723842353037e+00
1	 5.007031726982477e-01	 1.427218477616163e+00	 4.177220989296554e+00
1	 4.725719143300822e-01	 1.436778353046758e+00	 1.197508940688281e+01
1	 4.443905557854591e-01	 1.445743159736631e+00	 1.950002435063937e+01
1	 4.161767999506898e-01	 1.454115924257551e+00	 2.674458262694591e+01
1	 3.879480487380641e-01	 1.461900325424960e+00	 3.370080140051674e+01
1	 3.597213758045257e-01	 1.469100671086833e+00	 4.036026621925731e+01
1	 3.315135010540280e-01	 1.475721873734670e+00	 4.671418001020213e+01
1	 3.033407669662659e-01	 1.481769425078743e+00	 5.275343250154179e+01
1	 2.752191167827523e-01	 1.487249369729599e+00	 5.846866954701570e+01
1	 5.613444320829541e-01	 1.417927159121370e+00	-9.311127260317567e+00
1	 5.331363259244141e-01	 1.428772430439212e+00	-9.466285479982517e-02
1	 5.048412154479984e-01	 1.439013671647323e+00	 8.486636176021113e+00
1	 4.764774673415119e-01	 1.448652554313463e+00	 1.643220466420327e+01
1	 4.480632050074462e-01	 1.457691450315262e+00	 2.374200532448286e+01
1	 4.196162776369592e-01	 1.466133411237483e+00	 3.041653035782890e+01
1	 3.911542309597985e-01	 1.473982146299001e+00	 3.645680176285612e+01
1	 3.626942797375119e-01	 1.481241998949842e+00	 4.186437032791865e+01
1	 3.342532820550780e-01	 1.487917922280614e+00	 4.664131328613476e+01
1	 3.058477154540093e-01	 1.494015453387626e+00	 5.079023062515573e+01
1	 2.774936549381459e-01	 1.499540686836884e+00	 5.431424005307507e+01
1	 5.659456159519182e-01	 1.429549512884325e+00	-6.348731015335309e+00
1	 5.375062958088834e-01	 1.440483679869384e+00	 3.761909548512515e+00
1	 5.089792581977491e-01	 1.450808865678127e+00	 1.286813082923637e+01
1	 4.803830203529417e-01	 1.460526755579689e+00	 2.097491657129920e+01
1	 4.517358542294334e-01	 1.469639740893325e+00	 2.808894444016975e+01
1	 4.230557553232287e-01	 1.478150898216786e+00	 3.421852551721749e+01
1	 3.943604131815328e-01	 1.486063967172383e+00	 3.937353913568091e+01
1	 3.656671836704979e-01	 1.493383326812194e+00	 4.356536357111730e+01
1	 3.369930630561280e-01	 1.500113970825930e+00	 4.680680310719254e+01
1	 3.083546639417524e-01	 1.506261481695937e+00	 4.911201200028874e+01
1	 2.797681930935394e-01	 1.511832003943683e+00	 5.049641586441436e+01
1	 5.705467998208821e-01	 1.441171866647260e+00	-3.324873643309125e+00
1	 5.418762656933529e-01	 1.452194929299350e+00	 7.681432607529805e+00
1	 5.131173009474997e-01	 1.462604059708573e+00	 1.731996109089042e+01
1	 4.842885733643716e-01	 1.472400956845438e+00	 2.560115424149025e+01
1	 4.554085034514207e-01	 1.481588031470819e+00	 3.253830238782142e+01
1	 4.264952330094980e-01	 1.490168385195461e+00	 3.814742179635684e+01
1	 3.975665954032672e-01	 1.498145788045108e+00	 4.244712472034257e+01
1	 3.686400876034840e-01	 1.505524654673887e+00	 4.545848250203282e+01
1	 3.397328440571781e-01	 1.512310019370616e+00	 4.720488278273984e+01
1	 3.108616124294957e-01	 1.518507510003677e+00	 4.771188187081474e+01
1	 2.820427312489330e-01	 1.524123321049998e+00	 4.700705330423583e+01
1	 5.751479836898462e-01	 1.452794220410174e+00	-2.410302112916494e-01
1	 5.462462355778224e-01	 1.463906178729113e+00	 1.166239550652045e+01
1	 5.172553436972506e-01	 1.474399253738663e+00	 2.184043890638971e+01
1	 4.881941263758014e-01	 1.484275158110708e+00	 3.030891305647121e+01
1	 4.590811526734078e-01	 1.493536322047745e+00	 3.708762111547604e+01
1	 4.299347106957674e-01	 1.502185872173508e+00	 4.220017356837267e+01
1	 4.007727776250016e-01	 1.510227608917174e+00	 4.567379415974916e+01
1	 3.716129915364700e-01	 1.517665982534923e+00	 4.753911610414315e+01
1	 3.424726250582280e-01	 1.524506067914673e+00	 4.782997015624069e+01
1	 3.133685609172390e-01	 1.530753538310846e+00	 4.658316611280283e+01
1	 2.843172694043264e-01	 1.536414638155826e+00	 4.383826929339867e+01
1	 5.797491675588102e-01	 1.464416574173068e+00	 2.901371041190544e+00
1	 5.506162054622918e-01	 1.475617428158671e+00	 1.570333539215760e+01
1	 5.213933864470012e-01	 1.486194447768394e+00	 2.642792981017565e+01
1	 4.920996793872311e-01	 1.496149359375500e+00	 3.509625203661272e+01
1	 4.627538018953951e-01	 1.505484612624103e+00	 4.173452060456785e+01
1	 4.333741883820368e-01	 1.514203359150925e+00	 4.637383189295824e+01
1	 4.039789598467358e-01	 1.522309429788582e+00	 4.904990260020860e+01
1	 3.745858954694560e-01	 1.529807310395299e+00	 4.980279974240261e+01
1	 3.452124060592781e-01	 1.536702116458102e+00	 4.867666028247717e+01
1	 3.158755094049823e-01	 1.542999566617443e+00	 4.571940247927169e+01
1	 2.865918075597200e-01	 1.548705955261170e+00	 4.098243100924157e+01
1	 5.843503514277741e-01	 1.476038927935941e+00	 6.100946858534035e+00
1	 5.549861753467613e-01	 1.487328677588024e+00	 1.980283548523533e+01
1	 5.255314291967518e-01	 1.497989641797769e+00	 3.108085081592076e+01
1	 4.960052323986610e-01	 1.508023560639814e+00	 3.996129133550342e+01
1	 4.664264511173823e-01	 1.517432903199891e+00	 4.647669579774599e+01
1	 4.368136660683061e-01	 1.526220846127715e+00	 5.066554070981707e+01
1	 4.071851420684702e-01	 1.534391250659332e+00	 5.257191998657051e+01
1	 3.775587994024420e-01	 1.541948638255018e+00	 5.224520940019245e+01
1	 3.479521870603281e-01	 1.548898165000901e+00	 4.973971845072677e+01
1	 3.183824578927254e-01	 1.555245594923469e+00	 4.511433225857741e+01
1	 2.888663457151135e-01	 1.560997272366028e+00	 3.843214603296575e+01
1	 5.889515352967382e-01	 1.487661281698794e+00	 9.356357211873290e+00
1	 5.593561452312308e-01	 1.499039927017173e+00	 2.395952328089882e+01
1	 5.296694719465024e-01	 1.509784835826787e+00	 3.579766840562074e+01
1	 4.999107854100908e-01	 1.519897761903649e+00	 4.490220985193223e+01
1	 4.700991003393695e-01	 1.529381193775111e+00	 5.131191367070241e+01
1	 4.402531437545756e-01	 1.538238333103876e+00	 5.507253321053679e+01
1	 4.103913242902046e-01	 1.546473071529423e+00	 5.623642657790793e+01
1	 3.805317033354282e-01	 1.554089966114078e+00	 5.486215618641288e+01
1	 3.506919680613781e-01	 1.561094213543070e+00	 5.101407353497605e+01
1	 3.208894063804688e-01	 1.567491623228924e+00	 4.476189232381462e+01
1	 2.911408838705071e-01	 1.573288589470401e+00	 3.618025295885911e+01
1	 5.935527191657022e-01	 1.499283635461626e+00	 1.266630362362686e+01
1	 5.637261151157001e-01	 1.510751176446117e+00	 2.817206883258374e+01
1	 5.338075146962531e-01	 1.521580029855448e+00	 4.057689661221708e+01
1	 5.038163384215206e-01	 1.531771963167005e+00	 4.991724295294332e+01
1	 4.737717495613566e-01	 1.541329484349762e+00	 5.623801044019280e+01
1	 4.436926214408450e-01	 1.550255820079409e+00	 5.959212837921457e+01
1	 4.135975065119389e-01	 1.558554892398857e+00	 6.004010867177262e+01
1	 3.835046072684140e-01	 1.566231293972480e+00	 5.764958109806042e+01
1	 3.534317490624282e-01	 1.573290262084611e+00	 5.249481165342920e+01
1	 3.233963548682120e-01	 1.579737651533807e+00	 4.465620755201202e+01
1	 2.934154220259006e-01	 1.585579906574289e+00	 3.421981244030066e+01
1	 5.981539030346663e-01	 1.510905989224438e+00	 1.602952756936965e+01
1	 5.680960850001699e-01	 1.522462425874857e+00	 3.243918311515931e+01
1	 5.379455574460040e-01	 1.533375223883753e+00	 4.541709519071617e+01
1	 5.077218914329504e-01	 1.543646164429884e+00	 5.500468030198017e+01
1	 4.774443987833440e-01	 1.553277774923845e+00	 6.125288890091980e+01
1	 4.471320991271144e-01	 1.562273307054313e+00	 6.422172769274495e+01
1	 4.168036887336734e-01	 1.570636713267633e+00	 6.397975452579169e+01
1	 3.864775112014002e-01	 1.578372621830225e+00	 6.060355002453149e+01
1	 3.561715300634782e-01	 1.585486310625523e+00	 5.417717012065305e+01
1	 3.259033033559552e-01	 1.591983679838119e+00	 4.479158359321244e+01
1	 2.956899601812942e-01	 1.597871223677692e+00	 3.254409864902581e+01
1	 2.729445786273588e-01	 1.474958052621828e+00	 6.296811947892574e+01
1	 2.451213962665869e-01	 1.479836308883957e+00	 5.552736248087109e+01
1	 2.173792335500309e-01	 1.484165175720690e+00	 4.707257320083761e+01
1	 1.897326029848293e-01	 1.487952129393421e+00	 3.766743305733777e+01
1	 1.621955532518215e-01	 1.491205083986602e+00	 2.737685978921198e+01
1	 1.347816568620313e-01	 1.493932362918601e+00	 1.626671535395173e+01
1	 1.075039996182768e-01	 1.496142670358577e+00	 4.403522518281655e+00
1	 8.037517184413129e-02	 1.497845062665731e+00	-8.145808642043576e+00
1	 5.340726133517893e-02	 1.499048919961328e+00	-2.131424325851297e+01
1	 2.661184798093990e-02	 1.499763917937484e+00	-3.503487227003797e+01
1	 0.000000000000000e+00	 1.500000000000000e+00	-4.924115031621604e+01
1	 2.752191167827523e-01	 1.487249369729599e+00	 5.846866954701570e+01
1	 2.471640745687116e-01	 1.492168278126741e+00	 4.940969397578863e+01
1	 2.191907271626458e-01	 1.496533218853332e+00	 4.009049842192673e+01
1	 1.913137080092519e-01	 1.500351730472944e+00	 3.055218024658345e+01
1	 1.635471828617090e-01	 1.503631793020732e+00	 2.083544178098304e+01
1	 1.359048373352982e-01	 1.506381799276883e+00	 1.098045569340645e+01
1	 1.083998662811933e-01	 1.508610525945297e+00	 1.026738648831994e+00
1	 8.104496494232989e-02	 1.510327104854834e+00	-8.986966420773655e+00
1	 5.385232184592077e-02	 1.511540994294438e+00	-1.902279919772895e+01
1	 2.683361338056428e-02	 1.512261950586988e+00	-2.904388185088167e+01
1	 0.000000000000000e+00	 1.512500000000000e+00	-3.901440981177991e+01
1	 2.774936549381459e-01	 1.499540686836884e+00	 5.431424005307507e+01
1	 2.492067528708362e-01	 1.504500247369135e+00	 4.357227082471401e+01
1	 2.210022207752605e-01	 1.508901261985668e+00	 3.331229044576970e+01
1	 1.928948130336745e-01	 1.512751331552235e+00	 2.355314629535718e+01
1	 1.648988124715964e-01	 1.516058502054692e+00	 1.431167521609032e+01
1	 1.370280178085651e-01	 1.518831235635048e+00	 5.602724688970536e+00
1	 1.092957329441099e-01	 1.521078381531942e+00	-2.560818087462092e+00
1	 8.171475804052857e-02	 1.522809147043897e+00	-1.016798978621250e+01
1	 5.429738235666262e-02	 1.524033068627529e+00	-1.720970780044975e+01
1	 2.705537878018867e-02	 1.524759983236486e+00	-2.367872095541447e+01
1	 0.000000000000000e+00	 1.525000000000000e+00	-2.956955469380566e+01
1	 2.797681930935394e-01	 1.511832003943683e+00	 5.049641586441436e+01
1	 2.512494311729608e-01	 1.516832216611136e+00	 3.800825777506056e+01
1	 2.228137143878753e-01	 1.521269305117696e+00	 2.673297691127986e+01
1	 1.944759180580971e-01	 1.525150932631291e+00	 1.666749659729197e+01
1	 1.662504420814838e-01	 1.528485211088482e+00	 7.805129571495808e+00
1	 1.381511982818319e-01	 1.531280671993094e+00	 1.357533490078104e-01
1	 1.101915996070264e-01	 1.533546237118513e+00	-6.354006888988152e+00
1	 8.238455113872716e-02	 1.535291189232917e+00	-1.168058933382055e+01
1	 5.474244286740446e-02	 1.536525142960601e+00	-1.586330192855389e+01
1	 2.727714417981305e-02	 1.537258015885981e+00	-1.892412544892618e+01
1	 0.000000000000000e+00	 1.537500000000000e+00	-2.088751458703398e+01
1	 2.820427312489330e-01	 1.524123321049998e+00	 4.700705330423583e+01
1	 2.532921094750855e-01	 1.529164185852748e+00	 3.271104006625941e+01
1	 2.246252080004902e-01	 1.533637348249418e+00	 2.034774585611550e+01
1	 1.960570230825197e-01	 1.537550533710115e+00	 9.892487984936153e+00
1	 1.676020716913713e-01	 1.540911920122102e+00	 1.315388212000791e+00
1	 1.392743787550988e-01	 1.543730108351024e+00	-5.418299286129770e+00
1	 1.110874662699430e-01	 1.546014092705009e+00	-1.034785278644437e+01
1	 8.305434423692580e-02	 1.547773231421895e+00	-1.351674305920459e+01
1	 5.518750337814630e-02	 1.549017217293655e+00	-1.497229080321345e+01
1	 2.749890957943743e-02	 1.549756048535470e+00	-1.476532358814921e+01
1	 0.000000000000000e+00	 1.550000000000000e+00	-1.294983428960054e+01
1	 2.843172694043264e-01	 1.536414638155826e+00	 4.383826929339867e+01
1	 2.553347877772101e-01	 1.541496155093969e+00	 2.767421461007960e+01
1	 2.264367016131050e-01	 1.546005391380833e+00	 1.415193930072898e+01
1	 1.976381281069424e-01	 1.549950134788705e+00	 3.225465072196450e+00
1	 1.689537013012588e-01	 1.553338629155550e+00	-5.157952165266636e+00
1	 1.403975592283656e-01	 1.556179544708835e+00	-1.105734326538112e+01
1	 1.119833329328596e-01	 1.558481948291430e+00	-1.453754000954583e+01
1	 8.372413733512445e-02	 1.560255273610832e+00	-1.566868566211175e+01
1	 5.563256388888813e-02	 1.561509291626691e+00	-1.452574495052351e+01
1	 2.772067497906182e-02	 1.562254081184955e+00	-1.118801632560025e+01
1	 0.000000000000000e+00	 1.562500000000000e+00	-5.738649166099833e+00
1	 2.865918075597200e-01	 1.548705955261170e+00	 4.098243100924157e+01
1	 2.573774660793346e-01	 1.553828124334798e+00	 2.289158159093208e+01
1	 2.282481952257197e-01	 1.558373434511941e+00	 8.141047137939271e+00
1	 1.992192331313650e-01	 1.562349735867061e+00	-3.336143229050194e+00
1	 1.703053309111463e-01	 1.565765338188829e+00	-1.161528205991287e+01
1	 1.415207397016324e-01	 1.568628981066530e+00	-1.677935498533794e+01
1	 1.128791995957761e-01	 1.570949803877776e+00	-1.891840566960449e+01
1	 8.439393043332308e-02	 1.572737315799727e+00	-1.812889835975712e+01
1	 5.607762439962997e-02	 1.574001365959708e+00	-1.451308186400371e+01
1	 2.794244037868620e-02	 1.574752113834436e+00	-8.178358551809858e+00
1	 0.000000000000000e+00	 1.575000000000000e+00	 7.633382875914805e-01
1	 2.888663457151135e-01	 1.560997272366028e+00	 3.843214603296575e+01
1	 2.594201443814593e-01	 1.566160093575237e+00	 1.835713646300924e+01
1	 2.300596888383345e-01	 1.570741477642742e+00	 2.310701311184658e+00
1	 2.008003381557876e-01	 1.574749336945183e+00	-9.794827027773035e+00
1	 1.716569605210337e-01	 1.578192047221936e+00	-1.805697967234442e+01
1	 1.426439201748993e-01	 1.581078417424107e+00	-2.258237457813225e+01
1	 1.137750662586927e-01	 1.583417659464048e+00	-2.348593374056773e+01
1	 8.506372353152170e-02	 1.585219357988580e+00	-2.089009918141247e+01
1	 5.652268491037181e-02	 1.586493440292707e+00	-1.492405234446457e+01
1	 2.816420577831059e-02	 1.587250146483912e+00	-5.722941223749196e+00
1	 0.000000000000000e+00	 1.587500000000000e+00	 6.572880772317738e+00
1	 2.911408838705071e-01	 1.573288589470401e+00	 3.618025295885911e+01
1	 2.614628226835839e-01	 1.578492062815286e+00	 1.406506232255923e+01
1	 2.318711824509493e-01	 1.583109520773236e+00	-3.343329734329110e+00
1	 2.023814431802102e-01	 1.587148938023073e+00	-1.615299861703610e+01
1	 1.730085901309212e-01	 1.590618756254874e+00	-2.448341138420413e+01
1	 1.437671006481662e-01	 1.593527853781566e+00	-2.846450342176782e+01
1	 1.146709329216093e-01	 1.595885515050245e+00	-2.823574932219665e+01
1	 8.573351662972034e-02	 1.597701400177391e+00	-2.394523371793362e+01
1	 5.696774542111365e-02	 1.598985514625687e+00	-1.574872748019111e+01
1	 2.838597117793497e-02	 1.599748179133383e+00	-3.808774330983525e+00
1	 0.000000000000000e+00	 1.600000000000000e+00	 1.170620746702234e+01
1	 2.934154220259006e-01	 1.585579906574289e+00	 3.421981244030066e+01
1	 2.635055009857086e-01	 1.590824032054943e+00	 1.000972263493865e+01
1	 2.336826760635642e-01	 1.595477563903424e+00	-8.825146342395580e+00
1	 2.039625482046329e-01	 1.599548539100729e+00	-2.241299549011837e+01
1	 1.743602197408086e-01	 1.603045465287642e+00	-3.089493221646484e+01
1	 1.448902811214330e-01	 1.605977290138907e+00	-3.442390176624597e+01
1	 1.155667995845258e-01	 1.608353370636367e+00	-3.316361317007369e+01
1	 8.640330972791899e-02	 1.610183442366161e+00	-2.728746630154591e+01
1	 5.741280593185549e-02	 1.611477588958649e+00	-1.697748623269942e+01
1	 2.860773657755936e-02	 1.612246211782850e+00	-2.423270654098483e+00
1	 0.000000000000000e+00	 1.612500000000000e+00	 1.617904432029479e+01
1	 2.956899601812942e-01	 1.597871223677692e+00	 3.254409864902581e+01
1	 2.655481792878332e-01	 1.603156001294210e+00	 6.185654297338427e+00
1	 2.354941696761790e-01	 1.607845607033304e+00	-1.413872269238373e+01
1	 2.055436532290555e-01	 1.611948140178152e+00	-2.857708321742971e+01
1	 1.757118493506961e-01	 1.615472174320239e+00	-3.729188626637726e+01
1	 1.460134615946999e-01	 1.618426726496131e+00	-4.045878646926270e+01
1	 1.164626662474424e-01	 1.620821226222415e+00	-3.826541647807191e+01
1	 8.707310282611763e-02	 1.622665484554889e+00	-3.091017159271333e+01
1	 5.785786644259734e-02	 1.623969663291593e+00	-1.860100359545836e+01
1	 2.882950197718375e-02	 1.624744244432313e+00	-1.554230272738911e+00
1	 0.000000000000000e+00	 1.625000000000000e+00	 2.000663340538360e+01
1	 1.625000000000000e+00	 0.000000000000000e+00	 1.784832853728286e+02
1	 1.624744244432312e+00	 2.882950197718282e-02	 1.528459670932083e+02
1	 1.623969663291593e+00	 5.785786644259652e-02	 1.282034470269766e+02
1	 1.622665484554890e+00	 8.707310282611692e-02	 1.043368993386373e+02
1	 1.620821226222414e+00	 1.164626662474418e-01	 8.101535210766724e+01
1	 1.618426726496131e+00	 1.460134615946994e-01	 5.799601220417767e+01
1	 1.615472174320238e+00	 1.757118493506957e-01	 3.502466495431018e+01
1	 1.611948140178151e+00	 2.055436532290552e-01	 1.183615058347474e+01
1	 1.607845607033305e+00	 2.354941696761788e-01	-1.184508103179554e+01
1	 1.603156001294210e+00	 2.655481792878331e-01	-3.630433627702256e+01
1	 1.597871223677692e+00	 2.956899601812942e-01	-6.183596390105590e+01
1	 1.637500000000000e+00	 0.000000000000000e+00	 1.648946683501628e+02
1	 1.637242277081775e+00	 2.905126737680721e-02	 1.425568590862819e+02
1	 1.636461737624536e+00	 5.830292695333835e-02	 1.202068124410087e+02
1	 1.635147526743617e+00	 8.774289592431556e-02	 9.770344887405273e+01
1	 1.633289081808462e+00	 1.173585329103583e-01	 7.489977601361221e+01
1	 1.630876162853355e+00	 1.471366420679662e-01	 5.164318243344313e+01
1	 1.627898883352835e+00	 1.770634789605832e-01	 2.777577485509155e+01
1	 1.624347741255574e+00	 2.071247582534779e-01	 3.134759300895659e+00
1	 1.620213650163185e+00	 2.373056632887935e-01	-2.244713357923375e+01
1	 1.615487970533477e+00	 2.675908575899578e-01	-4.914117911068083e+01
1	 1.610162540781094e+00	 2.979644983366877e-01	-7.712214557846302e+01
1	 1.650000000000000e+00	 0.000000000000000e+00	 1.455109990658826e+02
1	 1.649740309731242e+00	 2.927303277643158e-02	 1.272553256263308e+02
1	 1.648953811957498e+00	 5.874798746408018e-02	 1.079986224005517e+02
1	 1.647629568932387e+00	 8.841268902251417e-02	 8.767672553167392e+01
1	 1.645756937394584e+00	 1.182543995732749e-01	 6.622572552414749e+01
1	 1.643325599210696e+00	 1.482598225412330e-01	 4.358222999774737e+01
1	 1.640325592385603e+00	 1.784151085704706e-01	 1.968363878860152e+01
1	 1.636747342333229e+00	 2.087058632779004e-01	-5.531569525739272e+00
1	 1.632581693293372e+00	 2.391171569014083e-01	-3.212354074933296e+01
1	 1.627819939773135e+00	 2.696335358920823e-01	-6.015073906107359e+01
1	 1.622453857884982e+00	 3.002390364920812e-01	-8.966963324929606e+01
1	 1.662500000000000e+00	 0.000000000000000e+00	 1.204629929844073e+02
1	 1.662238342380713e+00	 2.949479817605596e-02	 1.070544289415422e+02
1	 1.661445886290478e+00	 5.919304797482201e-02	 9.167387439704920e+01
1	 1.660111611121198e+00	 8.908248212071281e-02	 7.433326930128811e+01
1	 1.658224792980781e+00	 1.191502662361914e-01	 5.505091058817966e+01
1	 1.655775035568156e+00	 1.493830030144999e-01	 3.385168397996780e+01
1	 1.652752301418540e+00	 1.797667381803581e-01	 1.076727734083731e+01
1	 1.649146943411119e+00	 2.102869683023231e-01	-1.416362677858307e+01
1	 1.644949736423866e+00	 2.409286505140231e-01	-4.089518176080073e+01
1	 1.640151909013183e+00	 2.716762141942070e-01	-6.937423303502487e+01
1	 1.634745174989355e+00	 3.025135746474747e-01	-9.954020196606845e+01
1	 1.675000000000000e+00	 0.000000000000000e+00	 8.987746361599824e+01
1	 1.674736375030189e+00	 2.971656357568033e-02	 8.206385626821975e+01
1	 1.673937960623477e+00	 5.963810848556386e-02	 7.132473017593264e+01
1	 1.672593653310052e+00	 8.975227521891144e-02	 5.774733539686792e+01
1	 1.670692648567052e+00	 1.200461328991080e-01	 4.143131846957223e+01
1	 1.668224471925732e+00	 1.505061834877667e-01	 2.248892334110315e+01
1	 1.665179010451648e+00	 1.811183677902456e-01	 1.045143319108362e+00
1	 1.661546544489242e+00	 2.118680733267457e-01	-2.276217973136614e+01
1	 1.657317779554668e+00	 2.427401441266379e-01	-4.878231257208208e+01
1	 1.652483878253622e+00	 2.737188924963316e-01	-7.685164758392483e+01
1	 1.647036492094213e+00	 3.047881128028683e-01	-1.067937827498641e+02
1	 1.687500000000000e+00	 0.000000000000000e+00	 5.387746703357891e+01
1	 1.687234407679670e+00	 2.993832897530471e-02	 5.239004485048289e+01
1	 1.686430034956494e+00	 6.008316899630568e-02	 4.704062076425150e+01
1	 1.685075695498947e+00	 9.042206831711005e-02	 3.799097887789718e+01
1	 1.683160504153399e+00	 1.209419995620246e-01	 2.542127755029539e+01
1	 1.680673908283426e+00	 1.516293639610336e-01	 9.530219517380601e+00
1	 1.677605719484926e+00	 1.824699974001330e-01	-9.464857219123106e+00
1	 1.673946145567598e+00	 2.134491783511683e-01	-3.132797292378235e+01
1	 1.669685822685775e+00	 2.445516377392527e-01	-5.580458896507345e+01
1	 1.664815847494452e+00	 2.757615707984562e-01	-8.262178447245012e+01
1	 1.659327809199556e+00	 3.070626509582619e-01	-1.114885308877980e+02
1	 1.700000000000000e+00	 0.000000000000000e+00	 1.258244001381422e+01
1	 1.699732440329154e+00	 3.016009437492909e-02	 1.813630142527211e+01
1	 1.698922109289530e+00	 6.052822950704752e-02	 1.890834686473127e+01
1	 1.697557737687883e+00	 9.109186141530867e-02	 1.513413553740496e+01
1	 1.695628359739820e+00	 1.218378662249411e-01	 7.073518318730706e+00
1	 1.693123344641237e+00	 1.527525444343004e-01	-4.989222861922318e+00
1	 1.690032428518375e+00	 1.838216270100204e-01	-2.074534486514502e+01
1	 1.686345746646188e+00	 2.150302833755909e-01	-3.986172899729932e+01
1	 1.682053865817190e+00	 2.463631313518675e-01	-6.198108861043595e+01
1	 1.677147816735672e+00	 2.778042491005809e-01	-8.672230423689831e+01
1	 1.671619126305386e+00	 3.093371891136554e-01	-1.136808912173529e+02
1	 1.712500000000000e+00	 0.000000000000000e+00	-3.389166787178584e+01
1	 1.712230472978644e+00	 3.038185977455347e-02	-2.059708352556150e+01
1	 1.711414183622584e+00	 6.097329001778935e-02	-1.298782514698838e+01
1	 1.710039779876862e+00	 9.176165451350732e-02	-1.075530075254485e+01
1	 1.708096215326316e+00	 1.227337328878577e-01	-1.356076831304374e+01
1	 1.705572780999167e+00	 1.538757249075673e-01	-2.103522703991619e+01
1	 1.702459137551995e+00	 1.851732566199080e-01	-3.277944763823784e+01
1	 1.698745347725011e+00	 2.166113884000136e-01	-4.836414949436382e+01
1	 1.694421908948913e+00	 2.481746249644823e-01	-6.733033216654782e+01
1	 1.689479785977284e+00	 2.798469274027054e-01	-8.918976783586002e+01
1	 1.683910443411700e+00	 3.116117272690490e-01	-1.134256605515504e+02
1	 1.725000000000000e+00	 0.000000000000000e+00	-8.543226790885342e+01
1	 1.724728505628139e+00	 3.060362517417785e-02	-6.371272649065415e+01
1	 1.723906257955657e+00	 6.141835052853120e-02	-4.856607139890903e+01
1	 1.722521822065882e+00	 9.243144761170595e-02	-3.961140405820882e+01
1	 1.720564070912886e+00	 1.236295995507742e-01	-3.643187522750433e+01
1	 1.718022217357214e+00	 1.549989053808341e-01	-3.857460689034835e+01
1	 1.714885846585785e+00	 1.865248862297954e-01	-4.555078260060218e+01
1	 1.711144948804068e+00	 2.181924934244362e-01	-5.683591562285815e+01
1	 1.706789952080941e+00	 2.499861185770972e-01	-7.187030346110629e+01
1	 1.701811755219286e+00	 2.818896057048301e-01	-9.005967648999027e+01
1	 1.696201760518499e+00	 3.138862654244425e-01	-1.107760473899806e+02
1	 1.737499999999999e+00	 0.000000000000000e+00	-1.419300113460207e+02
1	 1.737226538277637e+00	 3.082539057380222e-02	-1.111160463618452e+02
1	 1.736398332288748e+00	 6.186341103927302e-02	-8.774692266283040e+01
1	 1.735003864254944e+00	 9.310124070990457e-02	-7.137014559501586e+01
1	 1.733031926499532e+00	 1.245254662136908e-01	-6.149152572777646e+01
1	 1.730471653715378e+00	 1.561220858541010e-01	-5.757513128340571e+01
1	 1.727312555619745e+00	 1.878765158396829e-01	-5.904343826588783e+01
1	 1.723544549883358e+00	 2.197735984488587e-01	-6.527768898756109e+01
1	 1.719157995213276e+00	 2.517976121897119e-01	-7.561846880158622e+01
1	 1.714143724461679e+00	 2.839322840069546e-01	-8.936650980207841e+01
1	 1.708493077625785e+00	 3.161608035798360e-01	-1.057837290523805e+02
1	 1.750000000000000e+00	 0.000000000000000e+00	-2.032786736819586e+02
1	 1.749724570927141e+00	 3.104715597342660e-02	-1.627151643483493e+02
1	 1.748890406621857e+00	 6.230847155001488e-02	-1.304531802599292e+02
1	 1.747485906444049e+00	 9.377103380810323e-02	-1.059693259722425e+02
1	 1.745499782086252e+00	 1.254213328766073e-01	-8.869282245118313e+01
1	 1.742921090073661e+00	 1.572452663273678e-01	-7.800548997870017e+01
1	 1.739739264653876e+00	 1.892281454495704e-01	-7.324195776164076e+01
1	 1.735944150962882e+00	 2.213547034732815e-01	-7.369011229025722e+01
1	 1.731526038345919e+00	 2.536091058023268e-01	-7.859179545810338e+01
1	 1.726475693704463e+00	 2.859749623090794e-01	-8.714376224340081e+01
1	 1.720784394733555e+00	 3.184353417352296e-01	-9.849890636362829e+01
1	 1.597871223677692e+00	 2.956899601812942e-01	-6.183596390105590e+01
1	 1.591983679838119e+00	 3.259033033559543e-01	-5.508215155516601e+01
1	 1.585486310625523e+00	 3.561715300634776e-01	-4.894659116531192e+01
1	 1.578372621830225e+00	 3.864775112013996e-01	-4.325116643036686e+01
1	 1.570636713267633e+00	 4.168036887336729e-01	-3.781063764697224e+01
1	 1.562273307054313e+00	 4.471320991271141e-01	-3.243314057394089e+01
1	 1.553277774923845e+00	 4.774443987833438e-01	-2.692073931825632e+01
1	 1.543646164429884e+00	 5.077218914329503e-01	-2.107003211952063e+01
1	 1.533375223883753e+00	 5.379455574460040e-01	-1.467280842900374e+01
1	 1.522462425874856e+00	 5.680960850001699e-01	-7.516755188724371e+00
1	 1.510905989224438e+00	 5.981539030346663e-01	 6.137902794860164e-01
1	 1.610162540781094e+00	 2.979644983366877e-01	-7.712214557846302e+01
1	 1.604229708142434e+00	 3.284102518436999e-01	-6.991046744227982e+01
1	 1.597682359166444e+00	 3.589113110645371e-01	-6.299683199495080e+01
1	 1.590513949687990e+00	 3.894504151344069e-01	-5.625703496721862e+01
1	 1.582718534136446e+00	 4.200098709554452e-01	-4.956230915000668e+01
1	 1.574290794029277e+00	 4.505715768134433e-01	-4.277968752550130e+01
1	 1.565226065498014e+00	 4.811170480054174e-01	-3.577240269401552e+01
1	 1.555520365692882e+00	 5.116274444444987e-01	-2.840032166119561e+01
1	 1.545170417912212e+00	 5.420836001959101e-01	-2.052041471914042e+01
1	 1.534173675303793e+00	 5.724660548848370e-01	-1.198725681869510e+01
1	 1.522528342987494e+00	 6.027550869038752e-01	-2.653559492261397e+00
1	 1.622453857884982e+00	 3.002390364920812e-01	-8.966963324929606e+01
1	 1.616475736447324e+00	 3.309172003314502e-01	-8.240965460026632e+01
1	 1.609878407708013e+00	 3.616510920656152e-01	-7.513299473209003e+01
1	 1.602655277546456e+00	 3.924233190674569e-01	-6.776875140048600e+01
1	 1.594800355005993e+00	 4.232160531772940e-01	-6.024399242122205e+01
1	 1.586308281004989e+00	 4.540110544998922e-01	-5.248398431072341e+01
1	 1.577174356072925e+00	 4.847896972276646e-01	-4.441243966259312e+01
1	 1.567394566956594e+00	 5.155329974562836e-01	-3.595178251099333e+01
1	 1.556965611941338e+00	 5.462216429461266e-01	-2.702343074923738e+01
1	 1.545884924733330e+00	 5.768360247698988e-01	-1.754809448868549e+01
1	 1.534150696751060e+00	 6.073562707735738e-01	-7.446089061288500e+00
1	 1.634745174989355e+00	 3.025135746474747e-01	-9.954020196606845e+01
1	 1.628721764752790e+00	 3.334241488192052e-01	-9.263224976718159e+01
1	 1.622074456250230e+00	 3.643908730667124e-01	-8.539825407040047e+01
1	 1.614796605405623e+00	 3.953962230005494e-01	-7.782001840908789e+01
1	 1.606882175876277e+00	 4.264222353992188e-01	-6.987982253343428e+01
1	 1.598325767981450e+00	 4.574505321864608e-01	-6.156051777540683e+01
1	 1.589122646648578e+00	 4.884623464500846e-01	-5.284562375194008e+01
1	 1.579268768221021e+00	 5.194385504683054e-01	-4.371942584241884e+01
1	 1.568760805971133e+00	 5.503596856966543e-01	-3.416707284099947e+01
1	 1.557596174163466e+00	 5.812059946553559e-01	-2.417467415279084e+01
1	 1.545773050515137e+00	 6.119574546437619e-01	-1.372939587596600e+01
1	 1.647036492094213e+00	 3.047881128028683e-01	-1.067937827498641e+02
1	 1.640967793058833e+00	 3.359310973069648e-01	-1.006292214202391e+02
1	 1.634270504793095e+00	 3.671306540678284e-01	-9.383449590672764e+01
1	 1.626937933265491e+00	 3.983691269336848e-01	-8.644353262183026e+01
1	 1.618963996747293e+00	 4.296284176212197e-01	-7.849321410953051e+01
1	 1.610343254958658e+00	 4.608900098731490e-01	-7.002334232219812e+01
1	 1.601070937224973e+00	 4.921349956726779e-01	-6.107658599663806e+01
1	 1.591142969486164e+00	 5.233441034805641e-01	-5.169841174916765e+01
1	 1.580556000001596e+00	 5.544977284474926e-01	-4.193699861995019e+01
1	 1.569307423594202e+00	 5.855759645412079e-01	-3.184313591570806e+01
1	 1.557395404279724e+00	 6.165586385144400e-01	-2.147010432646791e+01
1	 1.659327809199556e+00	 3.070626509582619e-01	-1.114885308877980e+02
1	 1.653213821365451e+00	 3.384380457947292e-01	-1.064500278595459e+02
1	 1.646466553336608e+00	 3.698704350689632e-01	-1.004823650743074e+02
1	 1.639079261126060e+00	 4.013420308668626e-01	-9.367102187852196e+01
1	 1.631045817619043e+00	 4.328345998432970e-01	-8.610688800579922e+01
1	 1.622360741936615e+00	 4.643294875599568e-01	-7.788609592700391e+01
1	 1.613019227802109e+00	 4.958076448954443e-01	-6.910982021543147e+01
1	 1.603017170752021e+00	 5.272496564930599e-01	-5.988404372956374e+01
1	 1.592351194032726e+00	 5.586357711986414e-01	-5.031929067084557e+01
1	 1.581018673025537e+00	 5.899459344274548e-01	-4.053032684197343e+01
1	 1.569017758044822e+00	 6.211598223856076e-01	-3.063582770989088e+01
1	 1.671619126305386e+00	 3.093371891136554e-01	-1.136808912173529e+02
1	 1.665459849672645e+00	 3.409449942824981e-01	-1.101426727293186e+02
1	 1.658662601880769e+00	 3.726102160701169e-01	-1.053813109701047e+02
1	 1.651220588987329e+00	 4.043149348000832e-01	-9.953328084721602e+01
1	 1.643127638491529e+00	 4.360407820654503e-01	-9.274289681805521e+01
1	 1.634378228915319e+00	 4.677689652468843e-01	-8.516201544879718e+01
1	 1.624967518379987e+00	 4.994802941183839e-01	-7.694968805592741e+01
1	 1.614891372018594e+00	 5.311552095057921e-01	-6.827176341433027e+01
1	 1.604146388064525e+00	 5.627738139501012e-01	-5.930044091417386e+01
1	 1.592729922457472e+00	 5.943159043140966e-01	-5.021377496479261e+01
1	 1.580640111810430e+00	 6.257610062572652e-01	-4.119513187338399e+01
1	 1.683910443411700e+00	 3.116117272690490e-01	-1.134256605515504e+02
1	 1.677705877980416e+00	 3.434519427702719e-01	-1.117537581075156e+02
1	 1.670858650425578e+00	 3.753499970712894e-01	-1.085696311838742e+02
1	 1.663361916849300e+00	 4.072878387333462e-01	-1.040602050815739e+02
1	 1.655209459364748e+00	 4.392469642876800e-01	-9.842264927070789e+01
1	 1.646395715894772e+00	 4.712084429339317e-01	-9.186395126892162e+01
1	 1.636915808958608e+00	 5.031529433414967e-01	-8.460042381835957e+01
1	 1.626765573285881e+00	 5.350607625187611e-01	-7.685714552526190e+01
1	 1.615941582096990e+00	 5.669118567018717e-01	-6.886733566689587e+01
1	 1.604441171890006e+00	 5.986858742011337e-01	-6.087166443317091e+01
1	 1.592262465576548e+00	 6.303621901294124e-01	-5.311750044954827e+01
1	 1.696201760518499e+00	 3.138862654244425e-01	-1.107760473899806e+02
1	 1.689951906288762e+00	 3.459588912580502e-01	-1.113285352872232e+02
1	 1.683054698971034e+00	 3.780897780724807e-01	-1.100845132303064e+02
1	 1.675503244711972e+00	 4.102607426666521e-01	-1.072808235974734e+02
1	 1.667291280238703e+00	 4.424531465099858e-01	-1.031669335454353e+02
1	 1.658413202874972e+00	 4.746479206210985e-01	-9.800438129390339e+01
1	 1.648864099537969e+00	 5.068255925647827e-01	-9.206613906962374e+01
1	 1.638639774553884e+00	 5.389663155319671e-01	-8.563589305308342e+01
1	 1.627736776130124e+00	 5.710498994539528e-01	-7.900724135271712e+01
1	 1.616152421323140e+00	 6.030558440885657e-01	-7.248281173960154e+01
1	 1.603884819343176e+00	 6.349633740020493e-01	-6.637330160334342e+01
1	 1.708493077625785e+00	 3.161608035798360e-01	-1.057837290523805e+02
1	 1.702197934597685e+00	 3.484658397458333e-01	-1.089109533660392e+02
1	 1.695250747517139e+00	 3.808295590736910e-01	-1.099620744797840e+02
1	 1.687644572575343e+00	 4.132336466000003e-01	-1.092233300434320e+02
1	 1.679373101113391e+00	 4.456593287323678e-01	-1.069959396028641e+02
1	 1.670430689855921e+00	 4.780873983083849e-01	-1.035954243538258e+02
1	 1.660812390118072e+00	 5.104982417882418e-01	-9.935082705814530e+01
1	 1.650513975822603e+00	 5.428718685454100e-01	-9.460383264346100e+01
1	 1.639531970163926e+00	 5.751879422063448e-01	-8.970779082918409e+01
1	 1.627863670756874e+00	 6.074258139763927e-01	-8.502664297389839e+01
1	 1.615507173110314e+00	 6.395645578751757e-01	-8.093375621437674e+01
1	 1.720784394733555e+00	 3.184353417352296e-01	-9.849890636362829e+01
1	 1.714443962907183e+00	 3.509727882336210e-01	-1.045437057530550e+02
1	 1.707446796063893e+00	 3.835693400749201e-01	-1.082374003778224e+02
1	 1.699785900439417e+00	 4.162065505333916e-01	-1.099151125351563e+02
1	 1.691454921988814e+00	 4.488655109548259e-01	-1.099292805476080e+02
1	 1.682448176837619e+00	 4.815268759957912e-01	-1.086488530264896e+02
1	 1.672760680698918e+00	 5.141708910118742e-01	-1.064583669395400e+02
1	 1.662388177092036e+00	 5.467774215590895e-01	-1.037569101807535e+02
1	 1.651327164198396e+00	 5.793259849590476e-01	-1.009569703007632e+02
1	 1.639574920191208e+00	 6.117957838646149e-01	-9.848317205186360e+01
1	 1.627129526877964e+00	 6.441657417487923e-01	-9.677090742281077e+01
1	 1.510905989224438e+00	 5.981539030346663e-01	 6.137902794860164e-01
1	 1.498704899226502e+00	 6.280992159053116e-01	-1.506535032695353e+00
1	 1.485858926034374e+00	 6.579120396427700e-01	-3.367212249359540e+00
1	 1.472368641057263e+00	 6.875722397034166e-01	-5.090357701009490e+00
1	 1.458235431238258e+00	 7.170595700900936e-01	-6.800897995870661e+00
1	 1.443461511093458e+00	 7.463537137077204e-01	-8.626106762590261e+00
1	 1.428049932401566e+00	 7.754343238075454e-01	-1.069511688734803e+01
1	 1.412004591443889e+00	 8.042810663631879e-01	-1.313841078979465e+01
1	 1.395330233706523e+00	 8.328736632118814e-01	-1.608729154443093e+01
1	 1.378032455969274e+00	 8.611919357855460e-01	-1.967333789646004e+01
1	 1.360117705719598e+00	 8.892158492486488e-01	-2.402784644008839e+01
1	 1.522528342987494e+00	 6.027550869038752e-01	-2.653559492261397e+00
1	 1.510233398451768e+00	 6.329307483347351e-01	-5.537372903177944e+00
1	 1.497288610081763e+00	 6.629729014853188e-01	-8.253866723647571e+00
1	 1.483694553682143e+00	 6.928612569308974e-01	-1.087905862757829e+01
1	 1.469452626864788e+00	 7.225754129358748e-01	-1.349067556865604e+01
1	 1.454565061180536e+00	 7.520948961198251e-01	-1.616786179273242e+01
1	 1.439034931883308e+00	 7.813992032205446e-01	-1.899087175149167e+01
1	 1.422866165225804e+00	 8.104678437960667e-01	-2.204074953544053e+01
1	 1.406063543197860e+00	 8.392803836977581e-01	-2.539899660703460e+01
1	 1.388632705631432e+00	 8.678164891377840e-01	-2.914722976481674e+01
1	 1.370580149610033e+00	 8.960559711664935e-01	-3.336683140449913e+01
1	 1.534150696751060e+00	 6.073562707735738e-01	-7.446089061288500e+00
1	 1.521761897677453e+00	 6.377622807647338e-01	-1.079658934473636e+01
1	 1.508718294129500e+00	 6.680337633284998e-01	-1.407046288872584e+01
1	 1.495020466307320e+00	 6.981502741590380e-01	-1.729815530736664e+01
1	 1.480669822491582e+00	 7.280912557823142e-01	-2.051073248991229e+01
1	 1.465668611267865e+00	 7.578360785325557e-01	-2.373975826118451e+01
1	 1.450019931365309e+00	 7.873640826341082e-01	-2.701716626111161e+01
1	 1.433727739008006e+00	 8.166546212294172e-01	-3.037512674319932e+01
1	 1.416796852689532e+00	 8.456871041839829e-01	-3.384590905597625e+01
1	 1.399232955293995e+00	 8.744410424902175e-01	-3.746174062998958e+01
1	 1.381042593500962e+00	 9.028960930843489e-01	-4.125466334484811e+01
1	 1.545773050515137e+00	 6.119574546437619e-01	-1.372939587596600e+01
1	 1.533290396903557e+00	 6.425938131953080e-01	-1.725647657020807e+01
1	 1.520147978177585e+00	 6.730946251723129e-01	-2.079602461635181e+01
1	 1.506346378932792e+00	 7.034392913878383e-01	-2.433342828738601e+01
1	 1.491887018118640e+00	 7.336070986294112e-01	-2.785361884959288e+01
1	 1.476772161355447e+00	 7.635772609459125e-01	-3.134111628593506e+01
1	 1.461004930847569e+00	 7.933289620482357e-01	-3.478007846936838e+01
1	 1.444589312790497e+00	 8.228413986632396e-01	-3.815435357563403e+01
1	 1.427530162181541e+00	 8.520938246705574e-01	-4.144753549162753e+01
1	 1.409833204956963e+00	 8.810655958428456e-01	-4.464302194325363e+01
1	 1.391505037392386e+00	 9.097362150022149e-01	-4.772407503619892e+01
1	 1.557395404279724e+00	 6.165586385144400e-01	-2.147010432646791e+01
1	 1.544818896130082e+00	 6.474253456264577e-01	-2.489015389053257e+01
1	 1.531577662226018e+00	 6.781554870167580e-01	-2.841020193135379e+01
1	 1.517672291558561e+00	 7.087283086172986e-01	-3.197108257592765e+01
1	 1.503104213745963e+00	 7.391229414771657e-01	-3.551210712302595e+01
1	 1.487875711443280e+00	 7.693184433598950e-01	-3.897127627995815e+01
1	 1.471989930330090e+00	 7.992938414629270e-01	-4.228550499499605e+01
1	 1.455450886573275e+00	 8.290281760975334e-01	-4.539085877253340e+01
1	 1.438263471673887e+00	 8.585005451574800e-01	-4.822280022775939e+01
1	 1.420433454620336e+00	 8.876901491956692e-01	-5.071644451550927e+01
1	 1.401967481284305e+00	 9.165763369200914e-01	-5.280682215579491e+01
1	 1.569017758044822e+00	 6.211598223856076e-01	-3.063582770989088e+01
1	 1.556347395357026e+00	 6.522568780581823e-01	-3.367153708148959e+01
1	 1.543007346274800e+00	 6.832163488618352e-01	-3.689324782077683e+01
1	 1.528998204184627e+00	 7.140173258474188e-01	-4.019773192177452e+01
1	 1.514321409373551e+00	 7.446387843255788e-01	-4.347918393441904e+01
1	 1.498979261531365e+00	 7.750596257745035e-01	-4.662959819954720e+01
1	 1.482974929812870e+00	 8.052587208781824e-01	-4.953916774209618e+01
1	 1.466312460356341e+00	 8.352149535322990e-01	-5.209670281471860e+01
1	 1.448996781166568e+00	 8.649072656447517e-01	-5.419006685771282e+01
1	 1.431033704284114e+00	 8.943147025486877e-01	-5.570662742989037e+01
1	 1.412429925176719e+00	 9.234164588379790e-01	-5.653371947187011e+01
1	 1.580640111810430e+00	 6.257610062572652e-01	-4.119513187338399e+01
1	 1.567875894584390e+00	 6.570884104904827e-01	-4.357530910190372e+01
1	 1.554437030323932e+00	 6.882772107075451e-01	-4.622599606615458e+01
1	 1.540324116810989e+00	 7.193063430781983e-01	-4.900038378697738e+01
1	 1.525538605001402e+00	 7.501546271746492e-01	-5.174804218373856e+01
1	 1.510082811619702e+00	 7.808008081897383e-01	-5.431546082581106e+01
1	 1.493959929295910e+00	 8.112236002940020e-01	-5.654662032347007e+01
1	 1.477174034139694e+00	 8.414017309675366e-01	-5.828359146297641e+01
1	 1.459730090659585e+00	 8.713139861323719e-01	-5.936715886912175e+01
1	 1.441633953948298e+00	 9.009392559019015e-01	-5.963746567881575e+01
1	 1.422892369069628e+00	 9.302565807558768e-01	-5.893467543589351e+01
1	 1.592262465576548e+00	 6.303621901294124e-01	-5.311750044954827e+01
1	 1.579404393812174e+00	 6.619199429233585e-01	-5.457689209426431e+01
1	 1.565866714373410e+00	 6.933380725538867e-01	-5.638984004663079e+01
1	 1.551650029437647e+00	 7.245953603096378e-01	-5.836642497775748e+01
1	 1.536755800629518e+00	 7.556704700243774e-01	-6.031207351839713e+01
1	 1.521186361708292e+00	 7.865419906055987e-01	-6.202826107763627e+01
1	 1.504944928779209e+00	 8.171884797103856e-01	-6.331325420263644e+01
1	 1.488035607923336e+00	 8.475885084032455e-01	-6.396288870404653e+01
1	 1.470463400152938e+00	 8.777207066203410e-01	-6.377137935580063e+01
1	 1.452234203612885e+00	 9.075638092553103e-01	-6.253215659065883e+01
1	 1.433354812963030e+00	 9.370967026737852e-01	-6.003872525982558e+01
1	 1.603884819343176e+00	 6.349633740020493e-01	-6.637330160334342e+01
1	 1.590932893040378e+00	 6.667514753568098e-01	-6.665242060270953e+01
1	 1.577296398423238e+00	 6.983989344008606e-01	-6.736671246368310e+01
1	 1.562975942064603e+00	 7.298843775417372e-01	-6.828360790015316e+01
1	 1.547972996257898e+00	 7.611863128747637e-01	-6.916486113225947e+01
1	 1.532289911797133e+00	 7.922831730220851e-01	-6.976741335452186e+01
1	 1.515929928262769e+00	 8.231533591273329e-01	-6.984430456880686e+01
1	 1.498897181707264e+00	 8.537752858394262e-01	-6.914562913373868e+01
1	 1.481196709646628e+00	 8.841274271086590e-01	-6.741952987259364e+01
1	 1.462834453277879e+00	 9.141883626089145e-01	-6.441322510743156e+01
1	 1.443817256856928e+00	 9.439368245917042e-01	-5.987406255523263e+01
1	 1.615507173110314e+00	 6.395645578751757e-01	-8.093375621437674e+01
1	 1.602461392269001e+00	 6.715830077908362e-01	-7.977871594706785e+01
1	 1.588726082473415e+00	 7.034597962484670e-01	-7.913906594104097e+01
1	 1.574301854691855e+00	 7.351733947744963e-01	-7.874003740894634e+01
1	 1.559190191886543e+00	 7.667021557258078e-01	-7.830017287548239e+01
1	 1.543393461886226e+00	 7.980243554391976e-01	-7.753234890777942e+01
1	 1.526914927746587e+00	 8.291182385448446e-01	-7.614485595826264e+01
1	 1.509758755491481e+00	 8.599620632760784e-01	-7.384252980552861e+01
1	 1.491930019140653e+00	 8.905341475973255e-01	-7.032792847634612e+01
1	 1.473434702943277e+00	 9.208129159627136e-01	-6.530254797134552e+01
1	 1.454279700751320e+00	 9.507769465096340e-01	-5.846806960668377e+01
1	 1.627129526877964e+00	 6.441657417487923e-01	-9.677090742281077e+01
1	 1.613989891498045e+00	 6.764145402254381e-01	-9.393326169515616e+01
1	 1.600155766523939e+00	 7.085206580967053e-01	-9.168985445603239e+01
1	 1.585627767319404e+00	 7.404624120079153e-01	-8.972415822020936e+01
1	 1.570407387515452e+00	 7.722179985775097e-01	-8.771195465964698e+01
1	 1.554497011975571e+00	 8.037655378569363e-01	-8.532251523868428e+01
1	 1.537899927230667e+00	 8.350831179629202e-01	-8.221984763481740e+01
1	 1.520620329275986e+00	 8.661488407132029e-01	-7.806400157135550e+01
1	 1.502663328635016e+00	 8.969408680863412e-01	-7.251242699369010e+01
1	 1.484034952609081e+00	 9.274374693167079e-01	-6.522137687480566e+01
1	 1.464742144646208e+00	 9.576170684275745e-01	-5.584734634771690e+01
1	 1.360117705719598e+00	 8.892158492486488e-01	-2.402784644008839e+01
1	 1.341593277844827e+00	 9.169255568526578e-01	-2.258907790069984e+01
1	 1.322467308569620e+00	 9.443014443144191e-01	-2.089691225819342e+01
1	 1.302748766623323e+00	 9.713241740187775e-01	-1.883175992670323e+01
1	 1.282447441638377e+00	 9.979747288431313e-01	-1.627451533508862e+01
1	 1.261573929795459e+00	 1.024234455404330e+00	-1.310707623297984e+01
1	 1.240139616749326e+00	 1.050085106526311e+00	-9.212863302374572e+00
1	 1.218156657885667e+00	 1.075508882729801e+00	-4.477336558940117e+00
1	 1.195637955975838e+00	 1.100488472549222e+00	 1.211494987936777e+00
1	 1.172597136312511e+00	 1.125007091487334e+00	 7.962573926190183e+00
1	 1.149048519425000e+00	 1.149048519425000e+00	 1.588130873552120e+01
1	 1.370580149610033e+00	 8.960559711664935e-01	-3.336683140449913e+01
1	 1.351913226135645e+00	 9.239788303679526e-01	-3.043230035548976e+01
1	 1.332640134019405e+00	 9.515653015797990e-01	-2.732893171746955e+01
1	 1.312769910980884e+00	 9.787958984359916e-01	-2.398214731777682e+01
1	 1.292312421957389e+00	 1.005651457528369e+00	-2.031767994221002e+01
1	 1.271278344638683e+00	 1.032113181986217e+00	-1.626189989398353e+01
1	 1.249679152261479e+00	 1.058162684270582e+00	-1.174214176025857e+01
1	 1.227527093714434e+00	 1.083782027983117e+00	-6.687029169785355e+00
1	 1.204835171020993e+00	 1.108953768493124e+00	-1.026795315329694e+00
1	 1.181617114283771e+00	 1.133660992191846e+00	 5.306402972439928e+00
1	 1.157887354190000e+00	 1.157887354190000e+00	 1.237817977693973e+01
1	 1.381042593500962e+00	 9.028960930843489e-01	-4.125466334484811e+01
1	 1.362233174427042e+00	 9.310321038830772e-01	-3.709103295435037e+01
1	 1.342812959469824e+00	 9.588291588448681e-01	-3.284128806790578e+01
1	 1.322791055339106e+00	 9.862676228527927e-01	-2.847534611068413e+01
1	 1.302177402277060e+00	 1.013328186213132e+00	-2.396326432155138e+01
1	 1.280982759482529e+00	 1.039991908567609e+00	-1.927537541496040e+01
1	 1.259218687774190e+00	 1.066240262014375e+00	-1.438242335345421e+01
1	 1.236897529543666e+00	 1.092055173236013e+00	-9.255698302049845e+00
1	 1.214032386066488e+00	 1.117419064436706e+00	-3.867169831101531e+00
1	 1.190637092255217e+00	 1.142314892896179e+00	 1.810382560798198e+00
1	 1.166726188955000e+00	 1.166726188955000e+00	 7.803242517689236e+00
1	 1.391505037392386e+00	 9.097362150022149e-01	-4.772407503619892e+01
1	 1.372553122719020e+00	 9.380853773980324e-01	-4.259199351361774e+01
1	 1.352985784920880e+00	 9.660930161096258e-01	-3.745472559015624e+01
1	 1.332812199697990e+00	 9.937393472691818e-01	-3.232618010837814e+01
1	 1.312042382597387e+00	 1.021004914897422e+00	-2.722023644816206e+01
1	 1.290687174326999e+00	 1.047870635148505e+00	-2.215069109982121e+01
1	 1.268758223287460e+00	 1.074317839757692e+00	-1.713120425186706e+01
1	 1.246267965373361e+00	 1.100328318488492e+00	-1.217524674102144e+01
1	 1.223229601112323e+00	 1.125884360379969e+00	-7.296047712568456e+00
1	 1.199657070226847e+00	 1.150968793600331e+00	-2.506543336112045e+00
1	 1.175565023720000e+00	 1.175565023720000e+00	 2.180673084734777e+00
1	 1.401967481284305e+00	 9.165763369200914e-01	-5.280682215579491e+01
1	 1.382873071011578e+00	 9.451386509128173e-01	-4.696110230283524e+01
1	 1.363158610372572e+00	 9.733568733740730e-01	-4.118936933259686e+01
1	 1.342833344057535e+00	 1.001211071685158e+00	-3.554903061222306e+01
1	 1.321907362918373e+00	 1.028681643581236e+00	-3.009729659634183e+01
1	 1.300391589172092e+00	 1.055749361728905e+00	-2.489094007922648e+01
1	 1.278297758801289e+00	 1.082395417500530e+00	-1.998605536659835e+01
1	 1.255638401203523e+00	 1.108601463740551e+00	-1.543781897988206e+01
1	 1.232426816158497e+00	 1.134349656322913e+00	-1.130025351131318e+01
1	 1.208677048198662e+00	 1.159622694304304e+00	-7.625996237354427e+00
1	 1.184403858485000e+00	 1.184403858485000e+00	-4.466074070338133e+00
1	 1.412429925176719e+00	 9.234164588379790e-01	-5.653371947187011e+01
1	 1.393193019304716e+00	 9.521919244274326e-01	-5.022351158352541e+01
1	 1.373331435824899e+00	 9.806207306382088e-01	-4.406474804585491e+01
1	 1.352854488417742e+00	 1.008682796100722e+00	-3.815785281094180e+01
1	 1.331772343240015e+00	 1.036358372264577e+00	-3.260288725448396e+01
1	 1.310096004017809e+00	 1.063628088308809e+00	-2.749912383552142e+01
1	 1.287837294315678e+00	 1.090472995242892e+00	-2.294461958175199e+01
1	 1.265008837034148e+00	 1.116874608992193e+00	-1.903579226756321e+01
1	 1.241624031205012e+00	 1.142814952265537e+00	-1.586700216255711e+01
1	 1.217697026170662e+00	 1.168276595008097e+00	-1.353014220954305e+01
1	 1.193242693250000e+00	 1.193242693250000e+00	-1.211423944260720e+01
1	 1.422892369069628e+00	 9.302565807558768e-01	-5.893467543589351e+01
1	 1.403512967598433e+00	 9.592451979418776e-01	-5.240363384478028e+01
1	 1.383504261277862e+00	 9.878845879020337e-01	-4.609981610552104e+01
1	 1.362875632778610e+00	 1.016154520515873e+00	-4.016619144652252e+01
1	 1.341637323562315e+00	 1.044035100947443e+00	-3.474520260249807e+01
1	 1.319800418864149e+00	 1.071506814888217e+00	-2.997815557215942e+01
1	 1.297376829830625e+00	 1.098550572984775e+00	-2.600460910836859e+01
1	 1.274379272865238e+00	 1.125147754243415e+00	-2.296176805154973e+01
1	 1.250821246251867e+00	 1.151280248207841e+00	-2.098388463282149e+01
1	 1.226717004142848e+00	 1.176930495711709e+00	-2.020167184671398e+01
1	 1.202081528015000e+00	 1.202081528015000e+00	-2.074173292430588e+01
1	 1.433354812963030e+00	 9.370967026737852e-01	-6.003872525982558e+01
1	 1.413832915892732e+00	 9.662984714561537e-01	-5.352516880225592e+01
1	 1.393677086731460e+00	 9.951484451655477e-01	-4.731297447474245e+01
1	 1.372896777140140e+00	 1.023626244930612e+00	-4.158719579402677e+01
1	 1.351502303885272e+00	 1.051711829629835e+00	-3.653219757416383e+01
1	 1.329504833711112e+00	 1.079385541467129e+00	-3.233086343555938e+01
1	 1.306916365346132e+00	 1.106628150726181e+00	-2.916380295424550e+01
1	 1.283749708696792e+00	 1.133420899494219e+00	-2.720856379545132e+01
1	 1.260018461299061e+00	 1.159745544149826e+00	-2.663885419615767e+01
1	 1.235736982115218e+00	 1.185584396415142e+00	-2.762378112698922e+01
1	 1.210920362780000e+00	 1.210920362780000e+00	-3.032710937427182e+01
1	 1.443817256856928e+00	 9.439368245917042e-01	-5.987406255523263e+01
1	 1.424152864187609e+00	 9.733517449702592e-01	-5.361112922329849e+01
1	 1.403849912185693e+00	 1.002412302428751e+00	-4.772209075539916e+01
1	 1.382917921502332e+00	 1.031097969344938e+00	-4.243363399010125e+01
1	 1.361367284208887e+00	 1.059388558311753e+00	-3.797159652546861e+01
1	 1.339209248558698e+00	 1.087264268045545e+00	-3.455999359688231e+01
1	 1.316455900862197e+00	 1.114705728467110e+00	-3.242004450376430e+01
1	 1.293120144528811e+00	 1.141694044744604e+00	-3.176920515233125e+01
1	 1.269215676346595e+00	 1.168210840091492e+00	-3.282021330706337e+01
1	 1.244756960087773e+00	 1.194238297118396e+00	-3.578015310156051e+01
1	 1.219759197545000e+00	 1.219759197545000e+00	-4.084954524959325e+01
1	 1.454279700751320e+00	 9.507769465096340e-01	-5.846806960668377e+01
1	 1.434472812483067e+00	 9.804050184841950e-01	-5.268386563731634e+01
1	 1.414022737640563e+00	 1.009676159691643e+00	-4.734451837376152e+01
1	 1.392939065865185e+00	 1.038569693758851e+00	-4.271790674299351e+01
1	 1.371232264533160e+00	 1.067065286993196e+00	-3.907090152877323e+01
1	 1.348913663406908e+00	 1.095142994623464e+00	-3.666821320078144e+01
1	 1.325995436378822e+00	 1.122783306207561e+00	-3.577123920218641e+01
1	 1.302490580361295e+00	 1.149967189994570e+00	-3.663691847587774e+01
1	 1.278412891394469e+00	 1.176676136032838e+00	-3.951660104003562e+01
1	 1.253776938060513e+00	 1.202892197821469e+00	-4.465494037407604e+01
1	 1.228598032310000e+00	 1.228598032310000e+00	-5.228881624596136e+01
1	 1.464742144646208e+00	 9.576170684275745e-01	-5.584734634771690e+01
1	 1.444792760779105e+00	 9.874582919979614e-01	-5.076508998713514e+01
1	 1.424195563096069e+00	 1.016940016954224e+00	-4.619711494390538e+01
1	 1.402960210228699e+00	 1.046041418172352e+00	-4.245206045499454e+01
1	 1.381097244858090e+00	 1.074742015674165e+00	-3.983740031151276e+01
1	 1.358618078255741e+00	 1.103021721200889e+00	-3.865811318777771e+01
1	 1.335534971896006e+00	 1.130860883947535e+00	-3.921535233919327e+01
1	 1.311861016194242e+00	 1.158240335244118e+00	-4.180512365252447e+01
1	 1.287610106442683e+00	 1.185141431973866e+00	-4.671698106742861e+01
1	 1.262796916033438e+00	 1.211546098524362e+00	-5.423274833091138e+01
1	 1.237436867075000e+00	 1.237436867075000e+00	-6.462527589629346e+01
1	 1.149048519425000e+00	 1.149048519425000e+00	 1.588130873552120e+01
1	 1.125007091487334e+00	 1.172597136312511e+00	 2.097487656594312e+01
1	 1.100488472549222e+00	 1.195637955975838e+00	 2.563366988160646e+01
1	 1.075508882729801e+00	 1.218156657885667e+00	 2.974976149697291e+01
1	 1.050085106526311e+00	 1.240139616749326e+00	 3.321788742110229e+01
1	 1.024234455404330e+00	 1.261573929795459e+00	 3.593588127952390e+01
1	 9.979747288431317e-01	 1.282447441638376e+00	 3.780508991920759e+01
1	 9.713241740187781e-01	 1.302748766623323e+00	 3.873076753596057e+01
1	 9.443014443144199e-01	 1.322467308569620e+00	 3.862244586418304e+01
1	 9.169255568526588e-01	 1.341593277844826e+00	 3.739427819258573e+01
1	 8.892158492486486e-01	 1.360117705719598e+00	 3.496535521318539e+01
1	 1.157887354190000e+00	 1.157887354190000e+00	 1.237817977693973e+01
1	 1.133660992191846e+00	 1.181617114283772e+00	 1.557164676684160e+01
1	 1.108953768493124e+00	 1.204835171020993e+00	 1.873189103499882e+01
1	 1.083782027983116e+00	 1.227527093714434e+00	 2.179721817860113e+01
1	 1.058162684270582e+00	 1.249679152261479e+00	 2.470670486996399e+01
1	 1.032113181986218e+00	 1.271278344638683e+00	 2.740045195744002e+01
1	 1.005651457528369e+00	 1.292312421957389e+00	 2.981983069382157e+01
1	 9.787958984359921e-01	 1.312769910980883e+00	 3.190772049242278e+01
1	 9.515653015798000e-01	 1.332640134019404e+00	 3.360873669483020e+01
1	 9.239788303679534e-01	 1.351913226135644e+00	 3.486944693267555e+01
1	 8.960559711664935e-01	 1.370580149610033e+00	 3.563857477736804e+01
1	 1.166726188955000e+00	 1.166726188955000e+00	 7.803242517689236e+00
1	 1.142314892896179e+00	 1.190637092255217e+00	 9.376227629294752e+00
1	 1.117419064436706e+00	 1.214032386066488e+00	 1.131081939742997e+01
1	 1.092055173236014e+00	 1.236897529543666e+00	 1.359103659684756e+01
1	 1.066240262014376e+00	 1.259218687774190e+00	 1.619979659504111e+01
1	 1.039991908567610e+00	 1.280982759482529e+00	 1.911898885246800e+01
1	 1.013328186213133e+00	 1.302177402277059e+00	 2.232955338444414e+01
1	 9.862676228527935e-01	 1.322791055339106e+00	 2.581156363632508e+01
1	 9.588291588448689e-01	 1.342812959469824e+00	 2.954431319159227e+01
1	 9.310321038830781e-01	 1.362233174427042e+00	 3.350640570663925e+01
1	 9.028960930843491e-01	 1.381042593500963e+00	 3.767584744663923e+01
1	 1.175565023720000e+00	 1.175565023720000e+00	 2.180673084734777e+00
1	 1.150968793600331e+00	 1.199657070226847e+00	 2.406488085705316e+00
1	 1.125884360379969e+00	 1.223229601112323e+00	 3.382168340125951e+00
1	 1.100328318488492e+00	 1.246267965373361e+00	 5.136937915566781e+00
1	 1.074317839757692e+00	 1.268758223287460e+00	 7.697066184100192e+00
1	 1.047870635148505e+00	 1.290687174326999e+00	 1.108576340330551e+01
1	 1.021004914897422e+00	 1.312042382597387e+00	 1.532309298539891e+01
1	 9.937393472691824e-01	 1.332812199697989e+00	 2.042590094830641e+01
1	 9.660930161096266e-01	 1.352985784920880e+00	 2.640776289570219e+01
1	 9.380853773980332e-01	 1.372553122719020e+00	 3.327894872408452e+01
1	 9.097362150022150e-01	 1.391505037392387e+00	 4.104640510569770e+01
1	 1.184403858485000e+00	 1.184403858485000e+00	-4.466074070338133e+00
1	 1.159622694304304e+00	 1.208677048198662e+00	-5.320236332459621e+00
1	 1.134349656322913e+00	 1.232426816158497e+00	-5.042698418543005e+00
1	 1.108601463740551e+00	 1.255638401203522e+00	-3.559527482391740e+00
1	 1.082395417500531e+00	 1.278297758801290e+00	-8.015798971151855e-01
1	 1.055749361728906e+00	 1.300391589172092e+00	 3.295218050478509e+00
1	 1.028681643581237e+00	 1.321907362918372e+00	 8.789617774762052e+00
1	 1.001211071685159e+00	 1.342833344057535e+00	 1.573482584242880e+01
1	 9.733568733740733e-01	 1.363158610372571e+00	 2.417831252628649e+01
1	 9.451386509128182e-01	 1.382873071011578e+00	 3.416165245705339e+01
1	 9.165763369200917e-01	 1.401967481284305e+00	 4.572039809049886e+01
1	 1.193242693250000e+00	 1.193242693250000e+00	-1.211423944260720e+01
1	 1.168276595008097e+00	 1.217697026170663e+00	-1.378712373907880e+01
1	 1.142814952265537e+00	 1.241624031205012e+00	-1.395275386295768e+01
1	 1.116874608992193e+00	 1.265008837034148e+00	-1.249297366996078e+01
1	 1.090472995242892e+00	 1.287837294315678e+00	-9.296232411476616e+00
1	 1.063628088308809e+00	 1.310096004017808e+00	-4.258040097058961e+00
1	 1.036358372264577e+00	 1.331772343240015e+00	 2.718616970520597e+00
1	 1.008682796100723e+00	 1.352854488417742e+00	 1.172290303901271e+01
1	 9.806207306382095e-01	 1.373331435824898e+00	 2.283580430710988e+01
1	 9.521919244274334e-01	 1.393193019304715e+00	 3.612984666733931e+01
1	 9.234164588379790e-01	 1.412429925176719e+00	 5.166886117153875e+01
1	 1.202081528015000e+00	 1.202081528015000e+00	-2.074173292430588e+01
1	 1.176930495711710e+00	 1.226717004142848e+00	-2.297784700935865e+01
1	 1.151280248207841e+00	 1.250821246251867e+00	-2.333729530147266e+01
1	 1.125147754243415e+00	 1.274379272865238e+00	-2.165817312968787e+01
1	 1.098550572984775e+00	 1.297376829830625e+00	-1.778697945235886e+01
1	 1.071506814888217e+00	 1.319800418864148e+00	-1.157924531591173e+01
1	 1.044035100947444e+00	 1.341637323562315e+00	-2.900111068688986e+00
1	 1.016154520515874e+00	 1.362875632778610e+00	 8.375151237201745e+00
1	 9.878845879020346e-01	 1.383504261277861e+00	 2.236067333772768e+01
1	 9.592451979418788e-01	 1.403512967598433e+00	 3.915958671200912e+01
1	 9.302565807558767e-01	 1.422892369069627e+00	 5.886368103787778e+01
1	 1.210920362780000e+00	 1.210920362780000e+00	-3.032710937427182e+01
1	 1.185584396415142e+00	 1.235736982115218e+00	-3.287655572285101e+01
1	 1.159745544149826e+00	 1.260018461299061e+00	-3.318593252977551e+01
1	 1.133420899494219e+00	 1.283749708696792e+00	-3.105005097236199e+01
1	 1.106628150726181e+00	 1.306916365346132e+00	-2.627390654106776e+01
1	 1.079385541467129e+00	 1.329504833711111e+00	-1.867347905709146e+01
1	 1.051711829629836e+00	 1.351502303885272e+00	-8.076470126086624e+00
1	 1.023626244930612e+00	 1.372896777140139e+00	 5.677026546391127e+00
1	 9.951484451655483e-01	 1.393677086731459e+00	 2.273392595568204e+01
1	 9.662984714561544e-01	 1.413832915892731e+00	 4.322762706182391e+01
1	 9.370967026737852e-01	 1.433354812963030e+00	 6.727756520521926e+01
1	 1.219759197545000e+00	 1.219759197545000e+00	-4.084954524959325e+01
1	 1.194238297118396e+00	 1.244756960087773e+00	-4.346785889155790e+01
1	 1.168210840091492e+00	 1.269215676346595e+00	-4.348857650888250e+01
1	 1.141694044744604e+00	 1.293120144528811e+00	-4.066367940700543e+01
1	 1.114705728467110e+00	 1.316455900862197e+00	-3.475709672003078e+01
1	 1.087264268045545e+00	 1.339209248558698e+00	-2.554567548317559e+01
1	 1.059388558311753e+00	 1.361367284208887e+00	-1.282007691871038e+01
1	 1.031097969344938e+00	 1.382917921502331e+00	 3.614406638030649e+00
1	 1.002412302428751e+00	 1.403849912185693e+00	 2.393711903947357e+01
1	 9.733517449702599e-01	 1.424152864187609e+00	 4.831139597102873e+01
1	 9.439368245917042e-01	 1.443817256856928e+00	 7.688401227581292e+01
1	 1.228598032310000e+00	 1.228598032310000e+00	-5.228881624596136e+01
1	 1.202892197821469e+00	 1.253776938060513e+00	-5.473680843358514e+01
1	 1.176676136032838e+00	 1.278412891394469e+00	-5.423542853185377e+01
1	 1.149967189994570e+00	 1.302490580361294e+00	-5.049427244957052e+01
1	 1.122783306207561e+00	 1.325995436378822e+00	-4.323663064196516e+01
1	 1.095142994623465e+00	 1.348913663406907e+00	-3.220062676645274e+01
1	 1.067065286993196e+00	 1.371232264533159e+00	-1.714027142353808e+01
1	 1.038569693758852e+00	 1.392939065865184e+00	 2.173575581521412e+00
1	 1.009676159691643e+00	 1.414022737640563e+00	 2.595234020492796e+01
1	 9.804050184841961e-01	 1.434472812483067e+00	 5.438897124053876e+01
1	 9.507769465096340e-01	 1.454279700751320e+00	 8.765728348210229e+01
1	 1.237436867075000e+00	 1.237436867075000e+00	-6.462527589629346e+01
1	 1.211546098524362e+00	 1.262796916033438e+00	-6.666888335506863e+01
1	 1.185141431973866e+00	 1.287610106442683e+00	-6.541696985479312e+01
1	 1.158240335244119e+00	 1.311861016194243e+00	-6.053718085840663e+01
1	 1.130860883947535e+00	 1.335534971896005e+00	-5.171258665522524e+01
1	 1.103021721200889e+00	 1.358618078255741e+00	-3.864298816000435e+01
1	 1.074742015674166e+00	 1.381097244858090e+00	-2.104612676106113e+01
1	 1.046041418172353e+00	 1.402960210228699e+00	 1.341209330003096e+00
1	 1.016940016954224e+00	 1.424195563096068e+00	 2.876218885029237e+01
1	 9.874582919979624e-01	 1.444792760779105e+00	 6.143905701984150e+01
1	 9.576170684275745e-01	 1.464742144646208e+00	 9.957237544993085e+01
1	 8.892158492486486e-01	 1.360117705719598e+00	 3.496535521318539e+01
1	 8.611919357855461e-01	 1.378032455969275e+00	 3.271749953266867e+01
1	 8.328736632118816e-01	 1.395330233706523e+00	 3.049146021619732e+01
1	 8.042810663631879e-01	 1.412004591443889e+00	 2.830990609045041e+01
1	 7.754343238075456e-01	 1.428049932401566e+00	 2.619483302595919e+01
1	 7.463537137077207e-01	 1.443461511093458e+00	 2.416748796595440e+01
1	 7.170595700900940e-01	 1.458235431238257e+00	 2.224829849447977e+01
1	 6.875722397034173e-01	 1.472368641057263e+00	 2.045680826369392e+01
1	 6.579120396427711e-01	 1.485858926034374e+00	 1.881161854406880e+01
1	 6.280992159053126e-01	 1.498704899226502e+00	 1.733033610414938e+01
1	 5.981539030346663e-01	 1.510905989224438e+00	 1.602952756936965e+01
1	 8.960559711664935e-01	 1.370580149610033e+00	 3.563857477736804e+01
1	 8.678164891377838e-01	 1.388632705631433e+00	 3.691539437391900e+01
1	 8.392803836977581e-01	 1.406063543197860e+00	 3.725371793118870e+01
1	 8.104678437960666e-01	 1.422866165225804e+00	 3.665021820460810e+01
1	 7.813992032205448e-01	 1.439034931883307e+00	 3.510511587989386e+01
1	 7.520948961198254e-01	 1.454565061180535e+00	 3.262211812686206e+01
1	 7.225754129358753e-01	 1.469452626864787e+00	 2.920834027730927e+01
1	 6.928612569308982e-01	 1.483694553682143e+00	 2.487421153061988e+01
1	 6.629729014853196e-01	 1.497288610081763e+00	 1.963336569594833e+01
1	 6.329307483347361e-01	 1.510233398451768e+00	 1.350251807182748e+01
1	 6.027550869038751e-01	 1.522528342987494e+00	 6.501329642243881e+00
1	 9.028960930843491e-01	 1.381042593500963e+00	 3.767584744663923e+01
1	 8.744410424902173e-01	 1.399232955293995e+00	 4.227062594990021e+01
1	 8.456871041839830e-01	 1.416796852689532e+00	 4.498242568544214e+01
1	 8.166546212294176e-01	 1.433727739008007e+00	 4.578216679468975e+01
1	 7.873640826341083e-01	 1.450019931365309e+00	 4.464849500661060e+01
1	 7.578360785325561e-01	 1.465668611267865e+00	 4.156773467834778e+01
1	 7.280912557823146e-01	 1.480669822491582e+00	 3.653380274821873e+01
1	 6.981502741590386e-01	 1.495020466307319e+00	 2.954808508295793e+01
1	 6.680337633285006e-01	 1.508718294129499e+00	 2.061927696625315e+01
1	 6.377622807647348e-01	 1.521761897677452e+00	 9.763189715421518e+00
1	 6.073562707735738e-01	 1.534150696751061e+00	-2.997474374543920e+00
1	 9.097362150022150e-01	 1.391505037392387e+00	 4.104640510569770e+01
1	 8.810655958428457e-01	 1.409833204956963e+00	 4.875708892066723e+01
1	 8.520938246705574e-01	 1.427530162181541e+00	 5.365578385398910e+01
1	 8.228413986632397e-01	 1.444589312790497e+00	 5.568789539881505e+01
1	 7.933289620482358e-01	 1.461004930847569e+00	 5.481069003901634e+01
1	 7.635772609459127e-01	 1.476772161355446e+00	 5.099326273934268e+01
1	 7.336070986294119e-01	 1.491887018118641e+00	 4.421644333517131e+01
1	 7.034392913878393e-01	 1.506346378932792e+00	 3.447264387650711e+01
1	 6.730946251723136e-01	 1.520147978177585e+00	 2.176564940474450e+01
1	 6.425938131953089e-01	 1.533290396903557e+00	 6.110355026998832e+00
1	 6.119574546437619e-01	 1.545773050515137e+00	-1.246754750170589e+01
1	 9.165763369200917e-01	 1.401967481284305e+00	 4.572039809049886e+01
1	 8.876901491956691e-01	 1.420433454620336e+00	 5.634945721019272e+01
1	 8.585005451574801e-01	 1.438263471673887e+00	 6.325264354696038e+01
1	 8.290281760975334e-01	 1.455450886573275e+00	 6.635008058383295e+01
1	 7.992938414629273e-01	 1.471989930330090e+00	 6.557784688963945e+01
1	 7.693184433598954e-01	 1.487875711443280e+00	 6.088795802224617e+01
1	 7.391229414771665e-01	 1.503104213745964e+00	 5.224826551305696e+01
1	 7.087283086172992e-01	 1.517672291558560e+00	 3.964227555495236e+01
1	 6.781554870167587e-01	 1.531577662226018e+00	 2.306889059700947e+01
1	 6.474253456264587e-01	 1.544818896130081e+00	 2.542077580950849e+00
1	 6.165586385144400e-01	 1.557395404279724e+00	-2.190953296829100e+01
1	 9.234164588379790e-01	 1.412429925176719e+00	 5.166886117153875e+01
1	 8.943147025486875e-01	 1.431033704284114e+00	 6.502315514473753e+01
1	 8.649072656447517e-01	 1.448996781166568e+00	 7.375248250828589e+01
1	 8.352149535322991e-01	 1.466312460356341e+00	 7.775191220351421e+01
1	 8.052587208781826e-01	 1.482974929812870e+00	 7.693652196249725e+01
1	 7.750596257745040e-01	 1.498979261531365e+00	 7.124139458872308e+01
1	 7.446387843255793e-01	 1.514321409373550e+00	 6.062150969084323e+01
1	 7.140173258474193e-01	 1.528998204184626e+00	 4.505153405401505e+01
1	 6.832163488618361e-01	 1.543007346274800e+00	 2.452551457054165e+01
1	 6.522568780581836e-01	 1.556347395357025e+00	-9.435216727586102e-01
1	 6.211598223856076e-01	 1.569017758044822e+00	-3.132405494471063e+01
1	 9.302565807558767e-01	 1.422892369069627e+00	 5.886368103787778e+01
1	 9.009392559019015e-01	 1.441633953948297e+00	 7.475432986453153e+01
1	 8.713139861323717e-01	 1.459730090659585e+00	 8.513538207768453e+01
1	 8.414017309675366e-01	 1.477174034139694e+00	 8.987707452771127e+01
1	 8.112236002940023e-01	 1.493959929295910e+00	 8.887366706149776e+01
1	 7.808008081897385e-01	 1.510082811619702e+00	 8.204345314568621e+01
1	 7.501546271746498e-01	 1.525538605001402e+00	 6.932864450076400e+01
1	 7.193063430781990e-01	 1.540324116810988e+00	 5.069513348777755e+01
1	 6.882772107075457e-01	 1.554437030323931e+00	 2.613213788143633e+01
1	 6.570884104904839e-01	 1.567875894584390e+00	-4.348266517989803e+00
1	 6.257610062572652e-01	 1.580640111810430e+00	-4.071171924342384e+01
1	 9.370967026737852e-01	 1.433354812963030e+00	 6.727756520521926e+01
1	 9.075638092553103e-01	 1.452234203612885e+00	 8.551982494369791e+01
1	 8.777207066203410e-01	 1.470463400152938e+00	 9.738200516162139e+01
1	 8.475885084032457e-01	 1.488035607923335e+00	 1.027097281979720e+02
1	 8.171884797103856e-01	 1.504944928779209e+00	 1.013766149597842e+02
1	 7.865419906055990e-01	 1.521186361708291e+00	 9.328430985386512e+01
1	 7.556704700243780e-01	 1.536755800629518e+00	 7.836235846900138e+01
1	 7.245953603096386e-01	 1.551650029437648e+00	 5.656794230275514e+01
1	 6.933380725538877e-01	 1.565866714373410e+00	 2.788547587247082e+01
1	 6.619199429233596e-01	 1.579404393812174e+00	-7.673927489440064e+00
1	 6.303621901294124e-01	 1.592262465576548e+00	-5.007311398893482e+01
1	 9.439368245917042e-01	 1.443817256856928e+00	 7.688401227581292e+01
1	 9.141883626089141e-01	 1.462834453277879e+00	 9.729715515714332e+01
1	 8.841274271086591e-01	 1.481196709646628e+00	 1.104735751620472e+02
1	 8.537752858394263e-01	 1.498897181707264e+00	 1.162344929676974e+02
1	 8.231533591273332e-01	 1.515929928262769e+00	 1.144330655965029e+02
1	 7.922831730220854e-01	 1.532289911797133e+00	 1.049544256229552e+02
1	 7.611863128747642e-01	 1.547972996257898e+00	 8.771555204851697e+01
1	 7.298843775417380e-01	 1.562975942064603e+00	 6.266497768614451e+01
1	 6.983989344008616e-01	 1.577296398423238e+00	 2.978233909387539e+01
1	 6.667514753568107e-01	 1.590932893040377e+00	-1.092222380196235e+01
1	 6.349633740020493e-01	 1.603884819343176e+00	-5.940881025866152e+01
1	 9.507769465096340e-01	 1.454279700751320e+00	 8.765728348210229e+01
1	 9.208129159627132e-01	 1.473434702943277e+00	 1.100644823366414e+02
1	 8.905341475973253e-01	 1.491930019140653e+00	 1.243918558146897e+02
1	 8.599620632760784e-01	 1.509758755491480e+00	 1.304364311873250e+02
1	 8.291182385448447e-01	 1.526914927746587e+00	 1.280310728693931e+02
1	 7.980243554391980e-01	 1.543393461886226e+00	 1.170445358688516e+02
1	 7.667021557258082e-01	 1.559190191886543e+00	 9.738132999578302e+01
1	 7.351733947744968e-01	 1.574301854691855e+00	 6.898140021543607e+01
1	 7.034597962484678e-01	 1.588726082473414e+00	 3.181962987860714e+01
1	 6.715830077908371e-01	 1.602461392269001e+00	-1.409482519660220e+01
1	 6.395645578751757e-01	 1.615507173110314e+00	-6.871936269614022e+01
1	 9.576170684275745e-01	 1.464742144646208e+00	 9.957237544993085e+01
1	 9.274374693167079e-01	 1.484034952609081e+00	 1.238005922616581e+02
1	 8.969408680863412e-01	 1.502663328635016e+00	 1.391191318914196e+02
1	 8.661488407132029e-01	 1.520620329275986e+00	 1.453010319972927e+02
1	 8.350831179629206e-01	 1.537899927230666e+00	 1.421590319934089e+02
1	 8.037655378569366e-01	 1.554497011975572e+00	 1.295456407098553e+02
1	 7.722179985775102e-01	 1.570407387515452e+00	 1.073529940742306e+02
1	 7.404624120079161e-01	 1.585627767319404e+00	 7.551250873733356e+01
1	 7.085206580967063e-01	 1.600155766523939e+00	 3.399433906439358e+01
1	 6.764145402254393e-01	 1.613989891498045e+00	-1.719335370751887e+01
1	 6.441657417487923e-01	 1.627129526877964e+00	-7.800531009794889e+01
1	 5.981539030346663e-01	 1.510905989224438e+00	 1.602952756936965e+01
1	 5.680960850001699e-01	 1.522462425874857e+00	 3.243918311515931e+01
1	 5.379455574460040e-01	 1.533375223883753e+00	 4.541709519071617e+01
1	 5.077218914329504e-01	 1.543646164429884e+00	 5.500468030198017e+01
1	 4.774443987833440e-01	 1.553277774923845e+00	 6.125288890091980e+01
1	 4.471320991271144e-01	 1.562273307054313e+00	 6.422172769274495e+01
1	 4.168036887336734e-01	 1.570636713267633e+00	 6.397975452579169e+01
1	 3.864775112014002e-01	 1.578372621830225e+00	 6.060355002453149e+01
1	 3.561715300634782e-01	 1.585486310625523e+00	 5.417717012065305e+01
1	 3.259033033559552e-01	 1.591983679838119e+00	 4.479158359321244e+01
1	 2.956899601812942e-01	 1.597871223677692e+00	 3.254409864902581e+01
1	 6.027550869038751e-01	 1.522528342987494e+00	 6.501329642243881e+00
1	 5.724660548848367e-01	 1.534173675303793e+00	 1.744298877563908e+01
1	 5.420836001959101e-01	 1.545170417912212e+00	 2.674308300326112e+01
1	 5.116274444444988e-01	 1.555520365692882e+00	 3.440536206950330e+01
1	 4.811170480054178e-01	 1.565226065498014e+00	 4.043783966561463e+01
1	 4.505715768134437e-01	 1.574290794029277e+00	 4.485264747533645e+01
1	 4.200098709554459e-01	 1.582718534136446e+00	 4.766587494815342e+01
1	 3.894504151344075e-01	 1.590513949687990e+00	 4.889739629300242e+01
1	 3.589113110645378e-01	 1.597682359166444e+00	 4.857068621653553e+01
1	 3.284102518437008e-01	 1.604229708142433e+00	 4.671262594577112e+01
1	 2.979644983366877e-01	 1.610162540781094e+00	 4.335330107586659e+01
1	 6.073562707735738e-01	 1.534150696751061e+00	-2.997474374543920e+00
1	 5.768360247698988e-01	 1.545884924733330e+00	 2.395134372245478e+00
1	 5.462216429461266e-01	 1.556965611941338e+00	 7.909972897198131e+00
1	 5.155329974562838e-01	 1.567394566956594e+00	 1.351365953840975e+01
1	 4.847896972276649e-01	 1.577174356072925e+00	 1.917185754545088e+01
1	 4.540110544998927e-01	 1.586308281004989e+00	 2.484945757034999e+01
1	 4.232160531772945e-01	 1.594800355005994e+00	 3.051075892173225e+01
1	 3.924233190674576e-01	 1.602655277546456e+00	 3.611964843122774e+01
1	 3.616510920656160e-01	 1.609878407708013e+00	 4.163977584887652e+01
1	 3.309172003314512e-01	 1.616475736447324e+00	 4.703472475912500e+01
1	 3.002390364920813e-01	 1.622453857884982e+00	 5.226817808986059e+01
1	 6.119574546437619e-01	 1.545773050515137e+00	-1.246754750170589e+01
1	 5.812059946553556e-01	 1.557596174163466e+00	-1.270321483048862e+01
1	 5.503596856966543e-01	 1.568760805971133e+00	-1.107864645261163e+01
1	 5.194385504683057e-01	 1.579268768221021e+00	-7.663832156702231e+00
1	 4.884623464500848e-01	 1.589122646648578e+00	-2.534886041060572e+00
1	 4.574505321864613e-01	 1.598325767981450e+00	 4.226461203869937e+00
1	 4.264222353992193e-01	 1.606882175876276e+00	 1.253338170480062e+01
1	 3.953962230005502e-01	 1.614796605405623e+00	 2.229447773537803e+01
1	 3.643908730667133e-01	 1.622074456250230e+00	 3.341431329877343e+01
1	 3.334241488192061e-01	 1.628721764752790e+00	 4.579394642882376e+01
1	 3.025135746474747e-01	 1.634745174989355e+00	 5.933145883554764e+01
1	 6.165586385144400e-01	 1.557395404279724e+00	-2.190953296829100e+01
1	 5.855759645412076e-01	 1.569307423594202e+00	-2.785092835204469e+01
1	 5.544977284474925e-01	 1.580556000001596e+00	-3.021929349592689e+01
1	 5.233441034805644e-01	 1.591142969486163e+00	-2.912071475091962e+01
1	 4.921349956726781e-01	 1.601070937224973e+00	-2.467252329983691e+01
1	 4.608900098731494e-01	 1.610343254958658e+00	-1.700246535998649e+01
1	 4.296284176212204e-01	 1.618963996747293e+00	-6.247847869985121e+00
1	 3.983691269336854e-01	 1.626937933265491e+00	 7.445333970398146e+00
1	 3.671306540678292e-01	 1.634270504793095e+00	 2.392328107773994e+01
1	 3.359310973069657e-01	 1.640967793058833e+00	 4.302528074159089e+01
1	 3.047881128028683e-01	 1.647036492094213e+00	 6.458459696060763e+01
1	 6.211598223856076e-01	 1.569017758044822e+00	-3.132405494471063e+01
1	 5.899459344274547e-01	 1.581018673025537e+00	-4.304690920762236e+01
1	 5.586357711986415e-01	 1.592351194032726e+00	-4.950858983954811e+01
1	 5.272496564930597e-01	 1.603017170752021e+00	-5.085077955754474e+01
1	 4.958076448954447e-01	 1.613019227802109e+00	-4.723147881587424e+01
1	 4.643294875599572e-01	 1.622360741936614e+00	-3.882385700566383e+01
1	 4.328345998432976e-01	 1.631045817619043e+00	-2.581506641685761e+01
1	 4.013420308668634e-01	 1.639079261126060e+00	-8.405027906614148e+00
1	 3.698704350689641e-01	 1.646466553336608e+00	 1.319480295620813e+01
1	 3.384380457947301e-01	 1.653213821365451e+00	 3.876268074972553e+01
1	 3.070626509582619e-01	 1.659327809199556e+00	 6.806781785648533e+01
1	 6.257610062572652e-01	 1.580640111810430e+00	-4.071171924342384e+01
1	 5.943159043140965e-01	 1.592729922457472e+00	-5.829009267667928e+01
1	 5.627738139501012e-01	 1.604146388064524e+00	-6.894325645477902e+01
1	 5.311552095057922e-01	 1.614891372018594e+00	-7.284800049830895e+01
1	 4.994802941183842e-01	 1.624967518379987e+00	-7.020245880401758e+01
1	 4.677689652468848e-01	 1.634378228915318e+00	-6.122464465041212e+01
1	 4.360407820654509e-01	 1.643127638491529e+00	-4.615093594374393e+01
1	 4.043149348000838e-01	 1.651220588987329e+00	-2.523452220200240e+01
1	 3.726102160701177e-01	 1.658662601880768e+00	 1.256175534891616e+00
1	 3.409449942824992e-01	 1.665459849672645e+00	 3.303910088633863e+01
1	 3.093371891136554e-01	 1.671619126305386e+00	 6.982016381486991e+01
1	 6.303621901294124e-01	 1.592262465576548e+00	-5.007311398893482e+01
1	 5.986858742011336e-01	 1.604441171890006e+00	-7.357944512540323e+01
1	 5.669118567018716e-01	 1.615941582096991e+00	-8.852011005098485e+01
1	 5.350607625187613e-01	 1.626765573285882e+00	-9.510652743883061e+01
1	 5.031529433414970e-01	 1.636915808958607e+00	-9.357644083049819e+01
1	 4.712084429339320e-01	 1.646395715894772e+00	-8.419214079053535e+01
1	 4.392469642876805e-01	 1.655209459364748e+00	-6.723862467731414e+01
1	 4.072878387333470e-01	 1.663361916849300e+00	-4.302170805987906e+01
1	 3.753499970712901e-01	 1.670858650425577e+00	-1.186610156653800e+01
1	 3.434519427702728e-01	 1.677705877980415e+00	 2.588653341130896e+01
1	 3.116117272690490e-01	 1.683910443411700e+00	 6.987953720651808e+01
1	 6.349633740020493e-01	 1.603884819343176e+00	-5.940881025866152e+01
1	 6.030558440885656e-01	 1.616152421323141e+00	-8.891396288038126e+01
1	 5.710498994539527e-01	 1.627736776130124e+00	-1.082360596068225e+02
1	 5.389663155319673e-01	 1.638639774553884e+00	-1.176206798138377e+02
1	 5.068255925647830e-01	 1.648864099537968e+00	-1.173446639813640e+02
1	 4.746479206210989e-01	 1.658413202874972e+00	-1.077140256760629e+02
1	 4.424531465099864e-01	 1.667291280238702e+00	-8.906178872172183e+01
1	 4.102607426666527e-01	 1.675503244711971e+00	-6.174576609843672e+01
1	 3.780897780724816e-01	 1.683054698971034e+00	-2.614629683332669e+01
1	 3.459588912580512e-01	 1.689951906288762e+00	 1.733604327263202e+01
1	 3.138862654244425e-01	 1.696201760518499e+00	 6.828274178273782e+01
1	 6.395645578751757e-01	 1.615507173110314e+00	-6.871936269614022e+01
1	 6.074258139763925e-01	 1.627863670756874e+00	-1.042926711508883e+02
1	 5.751879422063448e-01	 1.639531970163926e+00	-1.280881030512012e+02
1	 5.428718685454100e-01	 1.650513975822602e+00	-1.403849405275579e+02
1	 5.104982417882420e-01	 1.660812390118072e+00	-1.414986194552886e+02
1	 4.780873983083853e-01	 1.670430689855921e+00	-1.317783340821998e+02
1	 4.456593287323683e-01	 1.679373101113391e+00	-1.116045545090560e+02
1	 4.132336466000011e-01	 1.687644572575344e+00	-8.138647605476714e+01
1	 3.808295590736919e-01	 1.695250747517139e+00	-4.155941922596504e+01
1	 3.484658397458342e-01	 1.702197934597684e+00	 7.417801462962210e+00
1	 3.161608035798359e-01	 1.708493077625785e+00	 6.506552219407394e+01
1	 6.441657417487923e-01	 1.627129526877964e+00	-7.800531009794889e+01
1	 6.117957838646149e-01	 1.639574920191208e+00	-1.197146229973616e+02
1	 5.793259849590476e-01	 1.651327164198396e+00	-1.480733240864889e+02
1	 5.467774215590897e-01	 1.662388177092036e+00	-1.633939501155257e+02
1	 5.141708910118744e-01	 1.672760680698918e+00	-1.660300415595531e+02
1	 4.815268759957917e-01	 1.682448176837619e+00	-1.563734426477129e+02
1	 4.488655109548267e-01	 1.691454921988814e+00	-1.348515020019126e+02
1	 4.162065505333923e-01	 1.699785900439417e+00	-1.019241953877578e+02
1	 3.835693400749210e-01	 1.707446796063892e+00	-5.808119173464372e+01
1	 3.509727882336220e-01	 1.714443962907183e+00	-3.838883053409290e+00
1	 3.184353417352296e-01	 1.720784394733555e+00	 6.026260181533456e+01
1	 2.956899601812942e-01	 1.597871223677692e+00	 3.254409864902581e+01
1	 2.655481792878332e-01	 1.603156001294210e+00	 6.185654297338427e+00
1	 2.354941696761790e-01	 1.607845607033304e+00	-1.413872269238373e+01
1	 2.055436532290555e-01	 1.611948140178152e+00	-2.857708321742971e+01
1	 1.757118493506961e-01	 1.615472174320239e+00	-3.729188626637726e+01
1	 1.460134615946999e-01	 1.618426726496131e+00	-4.045878646926270e+01
1	 1.164626662474424e-01	 1.620821226222415e+00	-3.826541647807191e+01
1	 8.707310282611763e-02	 1.622665484554889e+00	-3.091017159271333e+01
1	 5.785786644259734e-02	 1.623969663291593e+00	-1.860100359545836e+01
1	 2.882950197718375e-02	 1.624744244432313e+00	-1.554230272738911e+00
1	 0.000000000000000e+00	 1.625000000000000e+00	 2.000663340538360e+01
1	 2.979644983366877e-01	 1.610162540781094e+00	 4.335330107586659e+01
1	 2.675908575899578e-01	 1.615487970533476e+00	 2.474776584490422e+01
1	 2.373056632887938e-01	 1.620213650163185e+00	 9.192156632871303e+00
1	 2.071247582534782e-01	 1.624347741255574e+00	-3.355961614587034e+00
1	 1.770634789605836e-01	 1.627898883352835e+00	-1.294771229612684e+01
1	 1.471366420679667e-01	 1.630876162853355e+00	-1.964234593689543e+01
1	 1.173585329103589e-01	 1.633289081808462e+00	-2.350666726666497e+01
1	 8.774289592431626e-02	 1.635147526743617e+00	-2.461445457819837e+01
1	 5.830292695333918e-02	 1.636461737624537e+00	-2.304587517108299e+01
1	 2.905126737680813e-02	 1.637242277081775e+00	-1.888690048534413e+01
1	 0.000000000000000e+00	 1.637500000000000e+00	-1.222872431005556e+01
1	 3.002390364920813e-01	 1.622453857884982e+00	 5.226817808986059e+01
1	 2.696335358920826e-01	 1.627819939773135e+00	 4.177015027366258e+01
1	 2.391171569014086e-01	 1.632581693293372e+00	 3.137910912483301e+01
1	 2.087058632779007e-01	 1.636747342333230e+00	 2.115684766963770e+01
1	 1.784151085704711e-01	 1.640325592385602e+00	 1.116214023230656e+01
1	 1.482598225412336e-01	 1.643325599210697e+00	 1.450658708923161e+00
1	 1.182543995732755e-01	 1.645756937394584e+00	-7.925093004281603e+00
1	 8.841268902251494e-02	 1.647629568932387e+00	-1.691582701142594e+01
1	 5.874798746408103e-02	 1.648953811957498e+00	-2.547550252105348e+01
1	 2.927303277643252e-02	 1.649740309731242e+00	-3.356134080827962e+01
1	 0.000000000000000e+00	 1.650000000000000e+00	-4.113382485732608e+01
1	 3.025135746474747e-01	 1.634745174989355e+00	 5.933145883554764e+01
1	 2.716762141942071e-01	 1.640151909013182e+00	 5.728753827037507e+01
1	 2.409286505140234e-01	 1.644949736423866e+00	 5.244793764426557e+01
1	 2.102869683023234e-01	 1.649146943411119e+00	 4.497732160470319e+01
1	 1.797667381803585e-01	 1.652752301418539e+00	 3.504295676485684e+01
1	 1.493830030145004e-01	 1.655775035568155e+00	 2.281398917981978e+01
1	 1.191502662361921e-01	 1.658224792980780e+00	 8.460746345452371e+00
1	 8.908248212071354e-02	 1.660111611121198e+00	-7.845933491354694e+00
1	 5.919304797482287e-02	 1.661445886290479e+00	-2.593534228203621e+01
1	 2.949479817605690e-02	 1.662238342380713e+00	-4.563751131420397e+01
1	 0.000000000000000e+00	 1.662500000000000e+00	-6.678378681909459e+01
1	 3.047881128028683e-01	 1.647036492094213e+00	 6.458459696060763e+01
1	 2.737188924963317e-01	 1.652483878253622e+00	 7.133362378487965e+01
1	 2.427401441266382e-01	 1.657317779554668e+00	 7.242367481728081e+01
1	 2.118680733267460e-01	 1.661546544489241e+00	 6.812096023560491e+01
1	 1.811183677902460e-01	 1.665179010451648e+00	 5.869986497295258e+01
1	 1.505061834877673e-01	 1.668224471925732e+00	 4.444159340498477e+01
1	 1.200461328991086e-01	 1.670692648567053e+00	 2.563284484767603e+01
1	 8.975227521891216e-02	 1.672593653310051e+00	 2.564525997951151e+00
1	 5.963810848556471e-02	 1.673937960623477e+00	-2.446949417617067e+01
1	 2.971656357568129e-02	 1.674736375030189e+00	-5.517358222286289e+01
1	 0.000000000000000e+00	 1.675000000000000e+00	-8.925148643227874e+01
1	 3.070626509582619e-01	 1.659327809199556e+00	 6.806781785648533e+01
1	 2.757615707984564e-01	 1.664815847494451e+00	 8.394110242775497e+01
1	 2.445516377392530e-01	 1.669685822685776e+00	 9.133061156254698e+01
1	 2.134491783511686e-01	 1.673946145567598e+00	 9.060280434674431e+01
1	 1.824699974001335e-01	 1.677605719484926e+00	 8.213784059701658e+01
1	 1.516293639610341e-01	 1.680673908283426e+00	 6.632759863422535e+01
1	 1.209419995620252e-01	 1.683160504153399e+00	 4.357373007670964e+01
1	 9.042206831711082e-02	 1.685075695498947e+00	 1.428576110158576e+01
1	 6.008316899630655e-02	 1.686430034956494e+00	-2.112075126716261e+01
1	 2.993832897530567e-02	 1.687234407679669e+00	-6.222600019193597e+01
1	 0.000000000000000e+00	 1.687500000000000e+00	-1.086076406378899e+02
1	 3.093371891136554e-01	 1.671619126305386e+00	 6.982016381486991e+01
1	 2.778042491005809e-01	 1.677147816735672e+00	 9.514170817396956e+01
1	 2.463631313518678e-01	 1.682053865817191e+00	 1.091923243599452e+02
1	 2.150302833755913e-01	 1.686345746646188e+00	 1.124374523465103e+02
1	 1.838216270100210e-01	 1.690032428518376e+00	 1.053617130321645e+02
1	 1.527525444343010e-01	 1.693123344641238e+00	 8.846630484529572e+01
1	 1.218378662249418e-01	 1.695628359739820e+00	 6.226644350174740e+01
1	 9.109186141530945e-02	 1.697557737687884e+00	 2.728885765155144e+01
1	 6.052822950704838e-02	 1.698922109289530e+00	-1.593064799919756e+01
1	 3.016009437493006e-02	 1.699732440329154e+00	-6.684955168329037e+01
1	 0.000000000000000e+00	 1.700000000000000e+00	-1.249208864669113e+02
1	 3.116117272690490e-01	 1.683910443411700e+00	 6.987953720651808e+01
1	 2.798469274027056e-01	 1.689479785977283e+00	 1.049662484590719e+02
1	 2.481746249644826e-01	 1.694421908948912e+00	 1.260317013249783e+02
1	 2.166113884000138e-01	 1.698745347725011e+00	 1.336390764123878e+02
1	 1.851732566199084e-01	 1.702459137551994e+00	 1.283761706692753e+02
1	 1.538757249075678e-01	 1.705572780999167e+00	 1.108521784399573e+02
1	 1.227337328878583e-01	 1.708096215326316e+00	 8.169452173156867e+01
1	 9.176165451350807e-02	 1.710039779876861e+00	 4.154574568913566e+01
1	 6.097329001779021e-02	 1.711414183622584e+00	-8.939506131960677e+00
1	 3.038185977455445e-02	 1.712230472978645e+00	-6.909742355406789e+01
1	 0.000000000000000e+00	 1.712500000000000e+00	-1.382578569494236e+02
1	 3.138862654244425e-01	 1.696201760518499e+00	 6.828274178273782e+01
1	 2.818896057048302e-01	 1.701811755219286e+00	 1.134446377494606e+02
1	 2.499861185770973e-01	 1.706789952080941e+00	 1.418709671495087e+02
1	 2.181924934244365e-01	 1.711144948804068e+00	 1.542214379341091e+02
1	 1.865248862297958e-01	 1.714885846585784e+00	 1.511857660038390e+02
1	 1.549989053808347e-01	 1.718022217357214e+00	 1.334798462141247e+02
1	 1.236295995507749e-01	 1.720564070912886e+00	 1.018419785746988e+02
1	 9.243144761170670e-02	 1.722521822065882e+00	 5.702916887761747e+01
1	 6.141835052853206e-02	 1.723906257955657e+00	-1.864786784789914e-01
1	 3.060362517417883e-02	 1.724728505628139e+00	-6.902126101337902e+01
1	 0.000000000000000e+00	 1.725000000000000e+00	-1.486832537233333e+02
1	 3.161608035798359e-01	 1.708493077625785e+00	 6.506552219407394e+01
1	 2.839322840069549e-01	 1.714143724461679e+00	 1.206059296635749e+02
1	 2.517976121897121e-01	 1.719157995213276e+00	 1.567317069659179e+02
1	 2.197735984488592e-01	 1.723544549883358e+00	 1.741979022901867e+02
1	 1.878765158396833e-01	 1.727312555619745e+00	 1.737949205242818e+02
1	 1.561220858541015e-01	 1.730471653715379e+00	 1.563440895882888e+02
1	 1.245254662136915e-01	 1.733031926499532e+00	 1.226932878739511e+02
1	 9.310124070990533e-02	 1.735003864254944e+00	 7.371265523528936e+01
1	 6.186341103927389e-02	 1.736398332288747e+00	 1.029040805363105e+01
1	 3.082539057380321e-02	 1.737226538277638e+00	-6.667122307726628e+01
1	 0.000000000000000e+00	 1.737499999999999e+00	-1.562599165089105e+02
1	 3.184353417352296e-01	 1.720784394733555e+00	 6.026260181533456e+01
1	 2.859749623090795e-01	 1.726475693704463e+00	 1.264783477164680e+02
1	 2.536091058023270e-01	 1.731526038345919e+00	 1.706348891885164e+02
1	 2.213547034732818e-01	 1.735944150962882e+00	 1.935814529911800e+02
1	 1.892281454495708e-01	 1.739739264653876e+00	 1.962079293907895e+02
1	 1.572452663273684e-01	 1.742921090073661e+00	 1.794398390852143e+02
1	 1.254213328766080e-01	 1.745499782086253e+00	 1.442333670766308e+02
1	 9.377103380810400e-02	 1.747485906444048e+00	 9.157048912277942e+01
1	 6.230847155001576e-02	 1.748890406621857e+00	 2.245421422268390e+01
1	 3.104715597342760e-02	 1.749724570927141e+00	-6.209603564702954e+01
1	 0.000000000000000e+00	 1.750000000000000e+00	-1.610488896058485e+02
1	 1.750000000000000e+00	 0.000000000000000e+00	-2.032786736819586e+02
1	 1.749724570927141e+00	 3.104715597342660e-02	-1.627151643483493e+02
1	 1.748890406621857e+00	 6.230847155001488e-02	-1.304531802599292e+02
1	 1.747485906444049e+00	 9.377103380810323e-02	-1.059693259722425e+02
1	 1.745499782086252e+00	 1.254213328766073e-01	-8.869282245118313e+01
1	 1.742921090073661e+00	 1.572452663273678e-01	-7.800548997870017e+01
1	 1.739739264653876e+00	 1.892281454495704e-01	-7.324195776164076e+01
1	 1.735944150962882e+00	 2.213547034732815e-01	-7.369011229025722e+01
1	 1.731526038345919e+00	 2.536091058023268e-01	-7.859179545810338e+01
1	 1.726475693704463e+00	 2.859749623090794e-01	-8.714376224340081e+01
1	 1.720784394733555e+00	 3.184353417352296e-01	-9.849890636362829e+01
1	 1.762500000000000e+00	 0.000000000000000e+00	-1.576846999474548e+02
1	 1.762222603576645e+00	 3.126892137305098e-02	-1.279671386996581e+02
1	 1.761382480954966e+00	 6.275353206075669e-02	-1.040076327949903e+02
1	 1.759967948633153e+00	 9.444082690630186e-02	-8.538952029018047e+01
1	 1.757967637672972e+00	 1.263171995395239e-01	-7.166114735942688e+01
1	 1.755370526431943e+00	 1.583684468006347e-01	-6.233596924026567e+01
1	 1.752165973688007e+00	 1.905797750594578e-01	-5.689282414152464e+01
1	 1.748343752042406e+00	 2.229358084977041e-01	-5.477638861877861e+01
1	 1.743894081478562e+00	 2.554205994149417e-01	-5.539782209385459e+01
1	 1.738807662947248e+00	 2.880176406112040e-01	-5.813560723511283e+01
1	 1.733075711841326e+00	 3.207098798906232e-01	-6.233659182526623e+01
1	 1.775000000000000e+00	 0.000000000000000e+00	-1.020654097442867e+02
1	 1.774720636226143e+00	 3.149068677267536e-02	-8.439610076107296e+01
1	 1.773874555288057e+00	 6.319859257149853e-02	-6.998194175845957e+01
1	 1.772449990822214e+00	 9.511062000450050e-02	-5.851197988980186e+01
1	 1.770435493259618e+00	 1.272130662024405e-01	-4.965254075743491e+01
1	 1.767819962790108e+00	 1.594916272739015e-01	-4.304744596366613e+01
1	 1.764592682721967e+00	 1.919314046693453e-01	-3.831835033907881e+01
1	 1.760743353121696e+00	 2.245169135221267e-01	-3.506520384338103e+01
1	 1.756262124610897e+00	 2.572320930275563e-01	-3.286684250954122e+01
1	 1.751139632189640e+00	 2.900603189133286e-01	-3.128171209198103e+01
1	 1.745367028948611e+00	 3.229844180460166e-01	-2.984872728564825e+01
1	 1.787500000000000e+00	 0.000000000000000e+00	-3.663112439677972e+01
1	 1.787218668875638e+00	 3.171245217229974e-02	-3.218714869236763e+01
1	 1.786366629621130e+00	 6.364365308224038e-02	-2.853513114118742e+01
1	 1.784932033011234e+00	 9.578041310269911e-02	-2.546882507967788e+01
1	 1.782903348846188e+00	 1.281089328653570e-01	-2.277141379549400e+01
1	 1.780269399148155e+00	 1.606148077471684e-01	-2.021584327870418e+01
1	 1.777019391755757e+00	 1.932830342792328e-01	-1.756522181220458e+01
1	 1.773142954200753e+00	 2.260980185465493e-01	-1.457328791672469e+01
1	 1.768630167742926e+00	 2.590435866401711e-01	-1.098494774408975e+01
1	 1.763471601431642e+00	 2.921029972154534e-01	-6.536882550382380e+00
1	 1.757658346055410e+00	 3.252589562014102e-01	-9.582263804213280e-01
1	 1.800000000000000e+00	 0.000000000000000e+00	 3.841367702974489e+01
1	 1.799716701525128e+00	 3.193421757192412e-02	 2.847976096223054e+01
1	 1.798858703954184e+00	 6.408871359298220e-02	 2.017819239905126e+01
1	 1.797414075200213e+00	 9.645020620089774e-02	 1.361149384019004e+01
1	 1.795371204432684e+00	 1.290047995282736e-01	 8.880722685836023e+00
1	 1.792718835506084e+00	 1.617379882204352e-01	 6.085024660642876e+00
1	 1.789446100789376e+00	 1.946346638891202e-01	 5.321172799469794e+00
1	 1.785542555279577e+00	 2.276791235709719e-01	 6.683093929436145e+00
1	 1.780998210874648e+00	 2.608550802527859e-01	 1.026138480354450e+01
1	 1.775803570673254e+00	 2.941456755175779e-01	 1.614282025709858e+01
1	 1.769949663161724e+00	 3.275334943568037e-01	 2.440985596687894e+01
1	 1.812500000000000e+00	 0.000000000000000e+00	 1.228701562717627e+02
1	 1.812214734174612e+00	 3.215598297154849e-02	 9.742963597695137e+01
1	 1.811350778287220e+00	 6.453377410372405e-02	 7.600768721572766e+01
1	 1.809896117389150e+00	 9.711999929909636e-02	 5.860407002634859e+01
1	 1.807839060019105e+00	 1.299006661911902e-01	 4.520515814504270e+01
1	 1.805168271863896e+00	 1.628611686937021e-01	 3.578337995291866e+01
1	 1.801872809822825e+00	 1.959862934990077e-01	 3.029669695671760e+01
1	 1.797942156358166e+00	 2.292602285953945e-01	 2.868812515939470e+01
1	 1.793366254006062e+00	 2.626665738654007e-01	 3.088530469713725e+01
1	 1.788135539914474e+00	 2.961883538197025e-01	 3.680012309119459e+01
1	 1.782240980267553e+00	 3.298080325121973e-01	 4.632839738234142e+01
1	 1.825000000000000e+00	 0.000000000000000e+00	 2.165449226894025e+02
1	 1.824712766824093e+00	 3.237774837117288e-02	 1.744922784335760e+02
1	 1.823842852620237e+00	 6.497883461446587e-02	 1.388071306115296e+02
1	 1.822378159578045e+00	 9.778979239729499e-02	 1.093874187406416e+02
1	 1.820306915605452e+00	 1.307965328541067e-01	 8.610588643900853e+01
1	 1.817617708221590e+00	 1.639843491669689e-01	 6.880941121451229e+01
1	 1.814299518856104e+00	 1.973379231088951e-01	 5.731842334056250e+01
1	 1.810341757436523e+00	 2.308413336198172e-01	 5.142642256718821e+01
1	 1.805734297137171e+00	 2.644780674780155e-01	 5.089960123844345e+01
1	 1.800467509155304e+00	 2.982310321218272e-01	 5.547658211645877e+01
1	 1.794532297372897e+00	 3.320825706675907e-01	 6.486827884477384e+01
1	 1.837500000000000e+00	 0.000000000000000e+00	 3.192498479731251e+02
1	 1.837210799473569e+00	 3.259951377079726e-02	 2.595021216497524e+02
1	 1.836334926953235e+00	 6.542389512520771e-02	 2.084342787380480e+02
1	 1.834860201766898e+00	 9.845958549549363e-02	 1.658433609520713e+02
1	 1.832774771191723e+00	 1.316923995170233e-01	 1.314895138366708e+02
1	 1.830067144579166e+00	 1.651075296402358e-01	 1.050952066912959e+02
1	 1.826726227889211e+00	 1.986895527187826e-01	 8.634459272233846e+01
1	 1.822741358514645e+00	 2.324224386442398e-01	 7.488302153749200e+01
1	 1.818102340267972e+00	 2.662895610906304e-01	 7.031671572100927e+01
1	 1.812799478395743e+00	 3.002737104239518e-01	 7.221262271745967e+01
1	 1.806823614477755e+00	 3.343571088229843e-01	 8.009845259887567e+01
1	 1.850000000000000e+00	 0.000000000000000e+00	 4.308018883622935e+02
1	 1.849708832123041e+00	 3.282127917042164e-02	 3.522980737183251e+02
1	 1.848827001286216e+00	 6.586895563594955e-02	 2.847507321752072e+02
1	 1.847342243955709e+00	 9.912937859369225e-02	 2.278569116575023e+02
1	 1.845242626777920e+00	 1.325882661799398e-01	 1.812651707618584e+02
1	 1.842516580936625e+00	 1.662307101135026e-01	 1.445746900819546e+02
1	 1.839152936922149e+00	 2.000411823286701e-01	 1.173345745011794e+02
1	 1.835140959592534e+00	 2.340035436686624e-01	 9.904336190404278e+01
1	 1.830470383398466e+00	 2.681010547032451e-01	 8.914875318720355e+01
1	 1.825131447635792e+00	 3.023163887260764e-01	 8.704757770080950e+01
1	 1.819114931582128e+00	 3.366316469783779e-01	 9.208600731517453e+01
1	 1.862500000000000e+00	 0.000000000000000e+00	 5.510229140227261e+02
1	 1.862206864772507e+00	 3.304304457004600e-02	 4.527233673470900e+02
1	 1.861319075619178e+00	 6.631401614669137e-02	 3.676218069236020e+02
1	 1.859824286144479e+00	 9.979917169189090e-02	 2.953161726995165e+02
1	 1.857710482364042e+00	 1.334841328428564e-01	 2.353444270901060e+02
1	 1.854966017293967e+00	 1.673538905867695e-01	 1.871835589456085e+02
1	 1.851579645954916e+00	 2.013928119385575e-01	 1.502488288306036e+02
1	 1.847540560670190e+00	 2.355846486930850e-01	 1.238932743775230e+02
1	 1.842838426528654e+00	 2.699125483158599e-01	 1.074074937118166e+02
1	 1.837463416875449e+00	 3.043590670282010e-01	 1.000197239588519e+02
1	 1.831406248686016e+00	 3.389061851337714e-01	 1.008962306260692e+02
1	 1.875000000000000e+00	 0.000000000000000e+00	 6.797395452491534e+02
1	 1.874704897421970e+00	 3.326480996967039e-02	 5.606254157049707e+02
1	 1.873811149952121e+00	 6.675907665743323e-02	 4.569164105571445e+02
1	 1.872306328333207e+00	 1.004689647900895e-01	 3.681122298715646e+02
1	 1.870178337950090e+00	 1.343799995057729e-01	 2.936412108336012e+02
1	 1.867415453651191e+00	 1.684770710600364e-01	 2.328592255731335e+02
1	 1.864006354987513e+00	 2.027444415484450e-01	 1.850488702600334e+02
1	 1.859940161747613e+00	 2.371657537175077e-01	 1.494189675163314e+02
1	 1.855206469658534e+00	 2.717240419284748e-01	 1.251044032343119e+02
1	 1.849795386114716e+00	 3.064017453303257e-01	 1.111663176668060e+02
1	 1.843697565789419e+00	 3.411807232891650e-01	 1.065926691604376e+02
1	 1.720784394733555e+00	 3.184353417352296e-01	-9.849890636362829e+01
1	 1.714443962907183e+00	 3.509727882336210e-01	-1.045437057530550e+02
1	 1.707446796063893e+00	 3.835693400749201e-01	-1.082374003778224e+02
1	 1.699785900439417e+00	 4.162065505333916e-01	-1.099151125351563e+02
1	 1.691454921988814e+00	 4.488655109548259e-01	-1.099292805476080e+02
1	 1.682448176837619e+00	 4.815268759957912e-01	-1.086488530264896e+02
1	 1.672760680698918e+00	 5.141708910118742e-01	-1.064583669395400e+02
1	 1.662388177092036e+00	 5.467774215590895e-01	-1.037569101807535e+02
1	 1.651327164198396e+00	 5.793259849590476e-01	-1.009569703007632e+02
1	 1.639574920191208e+00	 6.117957838646149e-01	-9.848317205186360e+01
1	 1.627129526877964e+00	 6.441657417487923e-01	-9.677090742281077e+01
1	 1.733075711841326e+00	 3.207098798906232e-01	-6.233659182526623e+01
1	 1.726689991216679e+00	 3.534797367214088e-01	-6.855722249817696e+01
1	 1.719642844610636e+00	 3.863091210761491e-01	-7.307558132080686e+01
1	 1.711927228303469e+00	 4.191794544667827e-01	-7.614875016466445e+01
1	 1.703536742864199e+00	 4.520716931772842e-01	-7.804675848142563e+01
1	 1.694465663819255e+00	 4.849663536831973e-01	-7.905195252172813e+01
1	 1.684708971279676e+00	 5.178435402355064e-01	-7.945827659360582e+01
1	 1.674262378361351e+00	 5.506829745727694e-01	-7.957046702472357e+01
1	 1.663122358232710e+00	 5.834640277117502e-01	-7.970316022561528e+01
1	 1.651286169625344e+00	 6.161657537528370e-01	-8.017991700974122e+01
1	 1.638751880645368e+00	 6.487669256224087e-01	-8.133216610280623e+01
1	 1.745367028948611e+00	 3.229844180460166e-01	-2.984872728564825e+01
1	 1.738936019525595e+00	 3.559866852091919e-01	-3.567188014568622e+01
1	 1.731838893156713e+00	 3.890489020773594e-01	-4.043142221031181e+01
1	 1.724068556166777e+00	 4.221523584001311e-01	-4.430721063806237e+01
1	 1.715618563738773e+00	 4.552778753996662e-01	-4.748772517145538e+01
1	 1.706483150800026e+00	 4.884058313704840e-01	-5.016961084362886e+01
1	 1.696657261859521e+00	 5.215161894589655e-01	-5.255716071401022e+01
1	 1.686136579629713e+00	 5.545885275862120e-01	-5.486173926313180e+01
1	 1.674917552266045e+00	 5.876020704641420e-01	-5.730114758417938e+01
1	 1.662997419058485e+00	 6.205357236406640e-01	-6.009893203234937e+01
1	 1.650374234411771e+00	 6.533681094955353e-01	-6.348363852730377e+01
1	 1.757658346055410e+00	 3.252589562014102e-01	-9.582263804213280e-01
1	 1.751182047833929e+00	 3.584936336969702e-01	-5.822619794896093e+00
1	 1.744034941702122e+00	 3.917886830785507e-01	-1.025210500494973e+01
1	 1.736209884029342e+00	 4.251252623334367e-01	-1.435011305604493e+01
1	 1.727700384612536e+00	 4.584840576219720e-01	-1.822441511889139e+01
1	 1.718500637779927e+00	 4.918453090576508e-01	-2.198683724720337e+01
1	 1.708605552438449e+00	 5.251888386822515e-01	-2.575294291302184e+01
1	 1.698010780897124e+00	 5.584940805994180e-01	-2.964168391539787e+01
1	 1.686712746298402e+00	 5.917401132162234e-01	-3.377502054195449e+01
1	 1.674708668490632e+00	 6.249056935280959e-01	-3.827751215312295e+01
1	 1.661996588177176e+00	 6.579692933681721e-01	-4.327587965260020e+01
1	 1.769949663161724e+00	 3.275334943568037e-01	 2.440985596687894e+01
1	 1.763428076141683e+00	 3.610005821847440e-01	 2.105381026319741e+01
1	 1.756230990246865e+00	 3.945284640797232e-01	 1.751372116884887e+01
1	 1.748351211891164e+00	 4.280981662666999e-01	 1.376180178904083e+01
1	 1.739782205485490e+00	 4.616902398442015e-01	 9.770165911211452e+00
1	 1.730518124758961e+00	 4.952847867446978e-01	 5.510942602949696e+00
1	 1.720553843016463e+00	 5.288614879053642e-01	 9.563955196525828e-01
1	 1.709884982163583e+00	 5.623996336123871e-01	-3.920953639285320e+00
1	 1.698507940329780e+00	 5.958781559679937e-01	-9.148198148717709e+00
1	 1.686419917921784e+00	 6.292756634151330e-01	-1.475191643232048e+01
1	 1.673618941941580e+00	 6.625704772403191e-01	-2.075804013061140e+01
1	 1.782240980267553e+00	 3.298080325121973e-01	 4.632839738234142e+01
1	 1.775674104448857e+00	 3.635075306725129e-01	 4.501891686287076e+01
1	 1.768427038790941e+00	 3.972682450808769e-01	 4.291599060882933e+01
1	 1.760492539752241e+00	 4.310710701999204e-01	 4.006671009221868e+01
1	 1.751864026357632e+00	 4.648964220663550e-01	 3.652226748524266e+01
1	 1.742535611737127e+00	 4.987242644316255e-01	 3.233790099159560e+01
1	 1.732502133593562e+00	 5.325341371283038e-01	 2.757281760574593e+01
1	 1.721759183429090e+00	 5.663051866251195e-01	 2.229009277386810e+01
1	 1.710303134360180e+00	 6.000161987194534e-01	 1.655654658851972e+01
1	 1.698131167351941e+00	 6.336456333017750e-01	 1.044259631976180e+01
1	 1.685241295704983e+00	 6.671716611119766e-01	 4.022085266837117e+00
1	 1.794532297372897e+00	 3.320825706675907e-01	 6.486827884477384e+01
1	 1.787920132755449e+00	 3.660144791602774e-01	 6.613252171965618e+01
1	 1.780623087334351e+00	 4.000080260820117e-01	 6.600326954978354e+01
1	 1.772633867612575e+00	 4.340439741330983e-01	 6.460174212535671e+01
1	 1.763945847228964e+00	 4.681026042884321e-01	 6.205742000338426e+01
1	 1.754553098714425e+00	 5.021637421184332e-01	 5.850782192172109e+01
1	 1.744450424169746e+00	 5.362067863510702e-01	 5.409823258557296e+01
1	 1.733633384693645e+00	 5.702107396376150e-01	 4.898138033523207e+01
1	 1.722098328389602e+00	 6.041542414706025e-01	 4.331706458075935e+01
1	 1.709842416781103e+00	 6.380156031880218e-01	 3.727173328765332e+01
1	 1.696863649467388e+00	 6.717728449831445e-01	 3.101801121375961e+01
1	 1.806823614477755e+00	 3.343571088229843e-01	 8.009845259887567e+01
1	 1.800166161061462e+00	 3.685214276480370e-01	 8.445281874730489e+01
1	 1.792819135877093e+00	 4.027478070831276e-01	 8.682280269630435e+01
1	 1.784775195472166e+00	 4.370168780662335e-01	 8.740301781278558e+01
1	 1.776027668099485e+00	 4.713087865104332e-01	 8.640045916104606e+01
1	 1.766570585690856e+00	 5.056032198051217e-01	 8.403411432139850e+01
1	 1.756398714745015e+00	 5.398794355736636e-01	 8.053449774733065e+01
1	 1.745507585957248e+00	 5.741162926498736e-01	 7.614310820533703e+01
1	 1.733893522418045e+00	 6.082922842214408e-01	 7.111180943531488e+01
1	 1.721553666209272e+00	 6.423855730738739e-01	 6.570213479374138e+01
1	 1.708486003228792e+00	 6.763740288538224e-01	 6.018451729103366e+01
1	 1.819114931582128e+00	 3.366316469783779e-01	 9.208600731517453e+01
1	 1.812412189366892e+00	 3.710283761357918e-01	 1.000364290510931e+02
1	 1.805015184419169e+00	 4.054875880842249e-01	 1.054205578690741e+02
1	 1.796916523331014e+00	 4.399897819993261e-01	 1.085056808646603e+02
1	 1.788109488969196e+00	 4.745149687323580e-01	 1.095755494186232e+02
1	 1.778588072666419e+00	 5.090426974916901e-01	 1.089298247152345e+02
1	 1.768347005319369e+00	 5.435520847960839e-01	 1.068834201822363e+02
1	 1.757381787219899e+00	 5.780218456618955e-01	 1.037657404322701e+02
1	 1.745688716445509e+00	 6.124303269719682e-01	 9.991981709444829e+01
1	 1.733264915636445e+00	 6.467555429593308e-01	 9.570134277334348e+01
1	 1.720108356989195e+00	 6.809752127240108e-01	 9.147760525306110e+01
1	 1.831406248686016e+00	 3.389061851337714e-01	 1.008962306260692e+02
1	 1.824658217671743e+00	 3.735353246235422e-01	 1.129384537066256e+02
1	 1.817211232960577e+00	 4.082273690853030e-01	 1.218412688533203e+02
1	 1.809057851189117e+00	 4.429626859323761e-01	 1.279439315358266e+02
1	 1.800191309838096e+00	 4.777211509542068e-01	 1.316062065261587e+02
1	 1.790605559641113e+00	 5.124821751781390e-01	 1.332076493855609e+02
1	 1.780295295892808e+00	 5.472247340183306e-01	 1.331467584689912e+02
1	 1.769255988481599e+00	 5.819273986736807e-01	 1.318399970628326e+02
1	 1.757483910471995e+00	 6.165683697221850e-01	 1.297206862939295e+02
1	 1.744976165062624e+00	 6.511255128443929e-01	 1.272377705192386e+02
1	 1.731730710748600e+00	 6.855763965937093e-01	 1.248544580152300e+02
1	 1.843697565789419e+00	 3.411807232891650e-01	 1.065926691604376e+02
1	 1.836904245976013e+00	 3.760422731112877e-01	 1.232125244274957e+02
1	 1.829407281501320e+00	 4.109671500863628e-01	 1.361284765333303e+02
1	 1.821199179046478e+00	 4.459355898653836e-01	 1.457510580743313e+02
1	 1.812273130706186e+00	 4.809273331759791e-01	 1.525153191470251e+02
1	 1.802623046614941e+00	 5.159216528644683e-01	 1.568799460471780e+02
1	 1.792243586465333e+00	 5.508973832404047e-01	 1.593262242908654e+02
1	 1.781130189742346e+00	 5.858329516852289e-01	 1.603568456092500e+02
1	 1.769279104497502e+00	 6.207064124720912e-01	 1.604945598032536e+02
1	 1.756687414487809e+00	 6.554954827290598e-01	 1.602806736364183e+02
1	 1.743353064507004e+00	 6.901775804629183e-01	 1.602734002818844e+02
1	 1.627129526877964e+00	 6.441657417487923e-01	-9.677090742281077e+01
1	 1.613989891498045e+00	 6.764145402254381e-01	-9.393326169515616e+01
1	 1.600155766523939e+00	 7.085206580967053e-01	-9.168985445603239e+01
1	 1.585627767319404e+00	 7.404624120079153e-01	-8.972415822020936e+01
1	 1.570407387515452e+00	 7.722179985775097e-01	-8.771195465964698e+01
1	 1.554497011975571e+00	 8.037655378569363e-01	-8.532251523868428e+01
1	 1.537899927230667e+00	 8.350831179629202e-01	-8.221984763481740e+01
1	 1.520620329275986e+00	 8.661488407132029e-01	-7.806400157135550e+01
1	 1.502663328635016e+00	 8.969408680863412e-01	-7.251242699369010e+01
1	 1.484034952609081e+00	 9.274374693167079e-01	-6.522137687480566e+01
1	 1.464742144646208e+00	 9.576170684275745e-01	-5.584734634771690e+01
1	 1.638751880645368e+00	 6.487669256224087e-01	-8.133216610280623e+01
1	 1.625518390726798e+00	 6.812460726600401e-01	-7.718540352097811e+01
1	 1.611585450574138e+00	 7.135815199449438e-01	-7.342412090234862e+01
1	 1.596953679946601e+00	 7.457514292413342e-01	-6.980965580964410e+01
1	 1.581624583143993e+00	 7.777338414292114e-01	-6.609771588901526e+01
1	 1.565600562064543e+00	 8.095067202746747e-01	-6.203927448985419e+01
1	 1.548884926714374e+00	 8.410479973809957e-01	-5.738151521535389e+01
1	 1.531481903060134e+00	 8.723356181503270e-01	-5.186882054400892e+01
1	 1.513396638129045e+00	 9.033475885753565e-01	-4.524379914246897e+01
1	 1.494635202274586e+00	 9.340620226707022e-01	-3.724834600752482e+01
1	 1.475204588540842e+00	 9.644571903455147e-01	-2.762472913686646e+01
1	 1.650374234411771e+00	 6.533681094955353e-01	-6.348363852730377e+01
1	 1.637046889954552e+00	 6.860776050940667e-01	-5.850035116711539e+01
1	 1.623015134623337e+00	 7.186423817925500e-01	-5.369715969783587e+01
1	 1.608279592572798e+00	 7.510404464740931e-01	-4.891243571886705e+01
1	 1.592841778771534e+00	 7.832496842802550e-01	-4.398096093514039e+01
1	 1.576704112152514e+00	 8.152479026917873e-01	-3.873454028525282e+01
1	 1.559869926197083e+00	 8.470128767985073e-01	-3.300264729463663e+01
1	 1.542343476843282e+00	 8.785223955869790e-01	-2.661309829543105e+01
1	 1.524129947622075e+00	 9.097543090640229e-01	-1.939275180823084e+01
1	 1.505235451939092e+00	 9.406865760245012e-01	-1.116822906037936e+01
1	 1.485667032434476e+00	 9.712973122634445e-01	-1.766651325861897e+00
1	 1.661996588177176e+00	 6.579692933681721e-01	-4.327587965260020e+01
1	 1.648575389181304e+00	 6.909091375275175e-01	-3.791874507076755e+01
1	 1.634444818671535e+00	 7.237032436395238e-01	-3.253962596790578e+01
1	 1.619605505197995e+00	 7.563294637061926e-01	-2.705311440261262e+01
1	 1.604058974398076e+00	 7.887655271306413e-01	-2.137223209554002e+01
1	 1.587807662239485e+00	 8.209890851082737e-01	-1.540876353659272e+01
1	 1.570854925678792e+00	 8.529777562154547e-01	-9.073604757464695e+00
1	 1.553205050625430e+00	 8.847091730231600e-01	-2.277125900465337e+00
1	 1.534863257114104e+00	 9.161610295523409e-01	 5.070454460040152e+00
1	 1.515835701602599e+00	 9.473111293781052e-01	 1.305868544697411e+01
1	 1.496129476327111e+00	 9.781374341813636e-01	 2.177649280638324e+01
1	 1.673618941941580e+00	 6.625704772403191e-01	-2.075804013061140e+01
1	 1.660103888407058e+00	 6.957406699603933e-01	-1.548009676807843e+01
1	 1.645874502718734e+00	 7.287641054858656e-01	-9.981323306697995e+00
1	 1.630931417822192e+00	 7.616184809376318e-01	-4.251735636314634e+00
1	 1.615276170023616e+00	 7.942813699803695e-01	 1.718221173864423e+00
1	 1.598911212325456e+00	 8.267302675241344e-01	 7.937617369738611e+00
1	 1.581839925159500e+00	 8.589426356318381e-01	 1.441498375816847e+01
1	 1.564066624406578e+00	 8.908959504588688e-01	 2.115825809591676e+01
1	 1.545596566605134e+00	 9.225677500403102e-01	 2.817473301752722e+01
1	 1.526435951265105e+00	 9.539356827315140e-01	 3.547100589824908e+01
1	 1.506591920218745e+00	 9.849775560992717e-01	 4.305293104432663e+01
1	 1.685241295704983e+00	 6.671716611119766e-01	 4.022085266837117e+00
1	 1.671632387631811e+00	 7.005722023926938e-01	 8.777172178240223e+00
1	 1.657304186764933e+00	 7.338249673315752e-01	 1.394876685977140e+01
1	 1.642257330445389e+00	 7.669074981684119e-01	 1.947220973633093e+01
1	 1.626493365648157e+00	 7.997972128294403e-01	 2.528043216076194e+01
1	 1.610014762410427e+00	 8.324714499393688e-01	 3.130417614077093e+01
1	 1.592824924639209e+00	 8.649075150476579e-01	 3.747223109394315e+01
1	 1.574928198186726e+00	 8.970827278941063e-01	 4.371168655689527e+01
1	 1.556329876095164e+00	 9.289744705279305e-01	 4.994819960964332e+01
1	 1.537036200926610e+00	 9.605602360847276e-01	 5.610627561834325e+01
1	 1.517054364109380e+00	 9.918176780171698e-01	 6.210956075085076e+01
1	 1.696863649467388e+00	 6.717728449831445e-01	 3.101801121375961e+01
1	 1.683160886855564e+00	 7.054037348244186e-01	 3.481569285105072e+01
1	 1.668733870810132e+00	 7.388858291766527e-01	 3.922245711716613e+01
1	 1.653583243067586e+00	 7.721965153985318e-01	 4.409976486734728e+01
1	 1.637710561271698e+00	 8.053130556778525e-01	 4.930470721345181e+01
1	 1.621118312494399e+00	 8.382126323539776e-01	 5.469049816279348e+01
1	 1.603809924117917e+00	 8.708723944629133e-01	 6.010700042464995e+01
1	 1.585789771965874e+00	 9.032695053288717e-01	 6.540128185626222e+01
1	 1.567063185584193e+00	 9.353811910152019e-01	 7.041819968743343e+01
1	 1.547636450587117e+00	 9.671847894377464e-01	 7.500100934795341e+01
1	 1.527516807999014e+00	 9.986577999350574e-01	 7.899199442964380e+01
1	 1.708486003228792e+00	 6.763740288538224e-01	 6.018451729103366e+01
1	 1.694689386078318e+00	 7.102352672555683e-01	 6.259911317451758e+01
1	 1.680163554854331e+00	 7.439466910210980e-01	 6.581232705563174e+01
1	 1.664909155688782e+00	 7.774855326279917e-01	 6.961248874135767e+01
1	 1.648927756894240e+00	 8.108288985256076e-01	 7.378161645306685e+01
1	 1.632221862577370e+00	 8.439538147679603e-01	 7.809618010410142e+01
1	 1.614794923595626e+00	 8.768372738776048e-01	 8.232791375025832e+01
1	 1.596651345744023e+00	 9.094562827631659e-01	 8.624467324200579e+01
1	 1.577796495072223e+00	 9.417879115021248e-01	 8.961133460806175e+01
1	 1.558236700246622e+00	 9.738093427905699e-01	 9.219072822943028e+01
1	 1.537979251887649e+00	 1.005497921852934e+00	 9.374460342789075e+01
1	 1.720108356989195e+00	 6.809752127240108e-01	 9.147760525306110e+01
1	 1.706217885300071e+00	 7.150667996861424e-01	 9.209206356136107e+01
1	 1.691593238897530e+00	 7.490075528649108e-01	 9.369169735747855e+01
1	 1.676235068308979e+00	 7.827745498567924e-01	 9.599243874880796e+01
1	 1.660144952515781e+00	 8.163447413727047e-01	 9.870198486233022e+01
1	 1.643325412659340e+00	 8.496949971813165e-01	 1.015208295338457e+02
1	 1.625779923072334e+00	 8.828021532917318e-01	 1.041433600437185e+02
1	 1.607512919521170e+00	 9.156430601969879e-01	 1.062590134959644e+02
1	 1.588529804559253e+00	 9.481946319886988e-01	 1.075534867731180e+02
1	 1.568836949905128e+00	 9.804338961431981e-01	 1.077099933742913e+02
1	 1.548441695775283e+00	 1.012338043770800e+00	 1.064105598672348e+02
1	 1.731730710748600e+00	 6.855763965937093e-01	 1.248544580152300e+02
1	 1.717746384520824e+00	 7.198983321161414e-01	 1.232601239434392e+02
1	 1.703022922939729e+00	 7.540684147080918e-01	 1.228346049283201e+02
1	 1.687560980928176e+00	 7.880635670849330e-01	 1.232221539609383e+02
1	 1.671362148136322e+00	 8.218605842191440e-01	 1.240568837331530e+02
1	 1.654428962740312e+00	 8.554361795940472e-01	 1.249640645562341e+02
1	 1.636764922548042e+00	 8.887670327052954e-01	 1.255615030706556e+02
1	 1.618374493297319e+00	 9.218298376303385e-01	 1.254609949226250e+02
1	 1.599263114045282e+00	 9.546013524749239e-01	 1.242698437546435e+02
1	 1.579437199562634e+00	 9.870584494956315e-01	 1.215924380790172e+02
1	 1.558904139661917e+00	 1.019178165688655e+00	 1.170318768862427e+02
1	 1.743353064507004e+00	 6.901775804629183e-01	 1.602734002818844e+02
1	 1.729274883740578e+00	 7.247298645455649e-01	 1.560697921211143e+02
1	 1.714452606980928e+00	 7.591292765506406e-01	 1.532157790229616e+02
1	 1.698886893546374e+00	 7.933525843124138e-01	 1.512846390737599e+02
1	 1.682579343755863e+00	 8.273764270649256e-01	 1.498376224563273e+02
1	 1.665532512820283e+00	 8.611773620061519e-01	 1.484255134593641e+02
1	 1.647749922022751e+00	 8.947319121182951e-01	 1.465902888962839e+02
1	 1.629236067072467e+00	 9.280166150632179e-01	 1.438668646983666e+02
1	 1.609996423530313e+00	 9.610080729608007e-01	 1.397849214561139e+02
1	 1.590037449219140e+00	 9.936830028478698e-01	 1.338707987522180e+02
1	 1.569366583547552e+00	 1.026018287606500e+00	 1.256494472731736e+02
1	 1.464742144646208e+00	 9.576170684275745e-01	-5.584734634771690e+01
1	 1.444792760779105e+00	 9.874582919979614e-01	-5.076508998713514e+01
1	 1.424195563096069e+00	 1.016940016954224e+00	-4.619711494390538e+01
1	 1.402960210228699e+00	 1.046041418172352e+00	-4.245206045499454e+01
1	 1.381097244858090e+00	 1.074742015674165e+00	-3.983740031151276e+01
1	 1.358618078255741e+00	 1.103021721200889e+00	-3.865811318777771e+01
1	 1.335534971896006e+00	 1.130860883947535e+00	-3.921535233919327e+01
1	 1.311861016194242e+00	 1.158240335244118e+00	-4.180512365252447e+01
1	 1.287610106442683e+00	 1.185141431973866e+00	-4.671698106742861e+01
1	 1.262796916033438e+00	 1.211546098524362e+00	-5.423274833091138e+01
1	 1.237436867075000e+00	 1.237436867075000e+00	-6.462527589629346e+01
1	 1.475204588540842e+00	 9.644571903455147e-01	-2.762472913686646e+01
1	 1.455112709074938e+00	 9.945115655117275e-01	-2.560745898588180e+01
1	 1.434368388551411e+00	 1.024203874216805e+00	-2.384893967153203e+01
1	 1.412981354592089e+00	 1.053513142585853e+00	-2.258589903032683e+01
1	 1.390962225182928e+00	 1.082418744355134e+00	-2.205466505132397e+01
1	 1.368322493104510e+00	 1.110900447778312e+00	-2.249014682462252e+01
1	 1.345074507413148e+00	 1.138938461687509e+00	-2.412481238147140e+01
1	 1.321231452027168e+00	 1.166513480493667e+00	-2.718767030296887e+01
1	 1.296807321490887e+00	 1.193606727914892e+00	-3.190326202336996e+01
1	 1.271816894006361e+00	 1.220199999227256e+00	-3.849067173227604e+01
1	 1.246275701840000e+00	 1.246275701840000e+00	-4.716256068688688e+01
1	 1.485667032434476e+00	 9.712973122634445e-01	-1.766651325861897e+00
1	 1.465432657369780e+00	 1.001564839025664e+00	-2.418093228665063e+00
1	 1.444541214005794e+00	 1.031467731479696e+00	-3.077349406450517e+00
1	 1.423002498954569e+00	 1.060984866999766e+00	-3.910009402925974e+00
1	 1.400827205506926e+00	 1.090095473036578e+00	-5.082020930280764e+00
1	 1.378026907952530e+00	 1.118779174356233e+00	-6.758978636932009e+00
1	 1.354614042929651e+00	 1.147016039427960e+00	-9.105407310743765e+00
1	 1.330601887859582e+00	 1.174786625743633e+00	-1.228404430583885e+01
1	 1.306004536538730e+00	 1.202072023856238e+00	-1.645512604380778e+01
1	 1.280836871979093e+00	 1.228853899930329e+00	-2.177568345355722e+01
1	 1.255114536605000e+00	 1.255114536605000e+00	-2.839885117746525e+01
1	 1.496129476327111e+00	 9.781374341813636e-01	 2.177649280638324e+01
1	 1.475752605663633e+00	 1.008618112539770e+00	 1.884429956195190e+01
1	 1.454714039459216e+00	 1.038731588742899e+00	 1.615073106100324e+01
1	 1.433023643316138e+00	 1.068456591414092e+00	 1.360057916402019e+01
1	 1.410692185830083e+00	 1.097772201718495e+00	 1.109752697047108e+01
1	 1.387731322799798e+00	 1.126657900934648e+00	 8.544554973242823e+00
1	 1.364153578445512e+00	 1.155093617168889e+00	 5.844355213123789e+00
1	 1.339972323691486e+00	 1.183059770994018e+00	 2.899750716706942e+00
1	 1.315201751586213e+00	 1.210537319797904e+00	-3.858825751543886e-01
1	 1.289856849951636e+00	 1.237507800633582e+00	-4.108194229534112e+00
1	 1.263953371370000e+00	 1.263953371370000e+00	-8.361440954965923e+00
1	 1.506591920218745e+00	 9.849775560992717e-01	 4.305293104432663e+01
1	 1.486072553956495e+00	 1.015671386054045e+00	 3.821986465574066e+01
1	 1.464886864911678e+00	 1.045995446006413e+00	 3.386745818468997e+01
1	 1.443044787676797e+00	 1.075928315828831e+00	 2.997014377575191e+01
1	 1.420557166152399e+00	 1.105448930400887e+00	 2.650050148870494e+01
1	 1.397435737646315e+00	 1.134536627513560e+00	 2.342936305945870e+01
1	 1.373693113960733e+00	 1.163171194910295e+00	 2.072592607637150e+01
1	 1.349342759522880e+00	 1.191332916244822e+00	 1.835787790979914e+01
1	 1.324398966633336e+00	 1.219002615739889e+00	 1.629152864304325e+01
1	 1.298876827923988e+00	 1.246161701337016e+00	 1.449195216990694e+01
1	 1.272792206135000e+00	 1.272792206135000e+00	 1.292313454892749e+01
1	 1.517054364109380e+00	 9.918176780171698e-01	 6.210956075085076e+01
1	 1.496392502248367e+00	 1.022724659568490e+00	 5.574763986679457e+01
1	 1.475059690363180e+00	 1.053259303270238e+00	 5.010410134390116e+01
1	 1.453065932036545e+00	 1.083400040243982e+00	 4.522229182426786e+01
1	 1.430422146473876e+00	 1.113125659083753e+00	 4.114296965977063e+01
1	 1.407140152492082e+00	 1.142415354092968e+00	 3.790410890827386e+01
1	 1.383232649475314e+00	 1.171248772652179e+00	 3.554071614079040e+01
1	 1.358713195353763e+00	 1.199606061496045e+00	 3.408466143526152e+01
1	 1.333596181680099e+00	 1.227467911682194e+00	 3.356452482959051e+01
1	 1.307896805896150e+00	 1.254815602040628e+00	 3.400545938926017e+01
1	 1.281631040900000e+00	 1.281631040900000e+00	 3.542907191449902e+01
1	 1.527516807999014e+00	 9.986577999350574e-01	 7.899199442964380e+01
1	 1.506712450539249e+00	 1.029777933083105e+00	 7.146559348009150e+01
1	 1.485232515813721e+00	 1.060523160534374e+00	 6.489107322262410e+01
1	 1.463087076395382e+00	 1.090871764659546e+00	 5.937998392370901e+01
1	 1.440287126794510e+00	 1.120802387767094e+00	 5.504055832626771e+01
1	 1.416844567337098e+00	 1.150294080672872e+00	 5.197721845592582e+01
1	 1.392772184989253e+00	 1.179326350394540e+00	 5.029009761442343e+01
1	 1.368083631184136e+00	 1.207879206747686e+00	 5.007458095734012e+01
1	 1.342793396726501e+00	 1.235933207624818e+00	 5.142086793704320e+01
1	 1.316916783868122e+00	 1.263469502744421e+00	 5.441355974032835e+01
1	 1.290469875665000e+00	 1.290469875665000e+00	 5.913127466509559e+01
1	 1.537979251887649e+00	 1.005497921852934e+00	 9.374460342789075e+01
1	 1.517032398829141e+00	 1.036831206597890e+00	 8.541066063003404e+01
1	 1.495405341263303e+00	 1.067787017798821e+00	 7.825795894883750e+01
1	 1.473108220753309e+00	 1.098343489075522e+00	 7.246555590960673e+01
1	 1.450152107114305e+00	 1.128479116450908e+00	 6.820846911058565e+01
1	 1.426548982181364e+00	 1.158172807253272e+00	 6.565688836147115e+01
1	 1.402311720502552e+00	 1.187403928137378e+00	 6.497540536631641e+01
1	 1.377454067013998e+00	 1.216152351999745e+00	 6.632226635350511e+01
1	 1.351990611772543e+00	 1.244398503567761e+00	 6.984865292606897e+01
1	 1.325936761839904e+00	 1.272123403448393e+00	 7.569799622034211e+01
1	 1.299308710430000e+00	 1.299308710430000e+00	 8.400532922144093e+01
1	 1.548441695775283e+00	 1.012338043770800e+00	 1.064105598672348e+02
1	 1.527352347118043e+00	 1.043884480112846e+00	 9.761877820418397e+01
1	 1.505578166711924e+00	 1.075050875063579e+00	 9.023354405248466e+01
1	 1.483129365110326e+00	 1.105815213491911e+00	 8.450073994626662e+01
1	 1.460017087433259e+00	 1.136155845135198e+00	 8.066149278045478e+01
1	 1.436253397024878e+00	 1.166051533834168e+00	 7.895109375263775e+01
1	 1.411851256015211e+00	 1.195481505880694e+00	 7.959793818797380e+01
1	 1.386824502843350e+00	 1.224425497252223e+00	 8.282249263967996e+01
1	 1.361187826818225e+00	 1.252863799511024e+00	 8.883629651517305e+01
1	 1.334956739811496e+00	 1.280777304152546e+00	 9.784100525907219e+01
1	 1.308147545195000e+00	 1.308147545195000e+00	 1.100274818307788e+02
1	 1.558904139661917e+00	 1.019178165688655e+00	 1.170318768862427e+02
1	 1.537672295405955e+00	 1.050937753627970e+00	 1.081249183414775e+02
1	 1.515750992159585e+00	 1.082314732328648e+00	 1.008458412976208e+02
1	 1.493150509466432e+00	 1.113286937908712e+00	 9.550668478419293e+01
1	 1.469882067751373e+00	 1.143832573819961e+00	 9.241402303601294e+01
1	 1.445957811867642e+00	 1.173930260415559e+00	 9.186759565976023e+01
1	 1.421390791527228e+00	 1.203559083624488e+00	 9.415896000401276e+01
1	 1.396194938672191e+00	 1.232698642505121e+00	 9.957017509982235e+01
1	 1.370385041863546e+00	 1.261329095454607e+00	 1.083725263834545e+02
1	 1.343976717782898e+00	 1.289431204856878e+00	 1.208253001606897e+02
1	 1.316986379960000e+00	 1.316986379960000e+00	 1.371746164250402e+02
1	 1.569366583547552e+00	 1.026018287606500e+00	 1.256494472731736e+02
1	 1.547992243692877e+00	 1.057991027143265e+00	 1.169631205905114e+02
1	 1.525923817606285e+00	 1.089578589594028e+00	 1.101221164412754e+02
1	 1.503171653821628e+00	 1.120758662325927e+00	 1.055039752072150e+02
1	 1.479747048068645e+00	 1.151509302505199e+00	 1.034800697453936e+02
1	 1.455662226709656e+00	 1.181808986997448e+00	 1.044139481523622e+02
1	 1.430930327038606e+00	 1.211636661368759e+00	 1.086597010343924e+02
1	 1.405565374500522e+00	 1.240971787758436e+00	 1.165603646103238e+02
1	 1.379582256908508e+00	 1.269794391398509e+00	 1.284463708052522e+02
1	 1.352996695754110e+00	 1.298085105561391e+00	 1.446340552079534e+02
1	 1.325825214725000e+00	 1.325825214725000e+00	 1.654242333646873e+02
1	 1.237436867075000e+00	 1.237436867075000e+00	-6.462527589629346e+01
1	 1.211546098524362e+00	 1.262796916033438e+00	-6.666888335506863e+01
1	 1.185141431973866e+00	 1.287610106442683e+00	-6.541696985479312e+01
1	 1.158240335244119e+00	 1.311861016194243e+00	-6.053718085840663e+01
1	 1.130860883947535e+00	 1.335534971896005e+00	-5.171258665522524e+01
1	 1.103021721200889e+00	 1.358618078255741e+00	-3.864298816000435e+01
1	 1.074742015674166e+00	 1.381097244858090e+00	-2.104612676106113e+01
1	 1.046041418172353e+00	 1.402960210228699e+00	 1.341209330003096e+00
1	 1.016940016954224e+00	 1.424195563096068e+00	 2.876218885029237e+01
1	 9.874582919979624e-01	 1.444792760779105e+00	 6.143905701984150e+01
1	 9.576170684275745e-01	 1.464742144646208e+00	 9.957237544993085e+01
1	 1.246275701840000e+00	 1.246275701840000e+00	-4.716256068688688e+01
1	 1.220199999227256e+00	 1.271816894006361e+00	-4.465796549832618e+01
1	 1.193606727914892e+00	 1.296807321490887e+00	-4.014140201218085e+01
1	 1.166513480493667e+00	 1.321231452027167e+00	-3.335571427203519e+01
1	 1.138938461687509e+00	 1.345074507413148e+00	-2.405377109881140e+01
1	 1.110900447778313e+00	 1.368322493104510e+00	-1.199949525489074e+01
1	 1.082418744355135e+00	 1.390962225182927e+00	 3.031171814149054e+00
1	 1.053513142585854e+00	 1.412981354592089e+00	 2.124937575969057e+01
1	 1.024203874216806e+00	 1.434368388551411e+00	 4.285253109358968e+01
1	 9.945115655117286e-01	 1.455112709074937e+00	 6.802358370887166e+01
1	 9.644571903455147e-01	 1.475204588540842e+00	 9.693035820325956e+01
1	 1.255114536605000e+00	 1.255114536605000e+00	-2.839885117746525e+01
1	 1.228853899930329e+00	 1.280836871979093e+00	-2.178382234209048e+01
1	 1.202072023856238e+00	 1.306004536538730e+00	-1.442167040372814e+01
1	 1.174786625743633e+00	 1.330601887859582e+00	-6.129648160225815e+00
1	 1.147016039427960e+00	 1.354614042929651e+00	 3.270315211056775e+00
1	 1.118779174356233e+00	 1.378026907952529e+00	 1.395085915484059e+01
1	 1.090095473036578e+00	 1.400827205506926e+00	 2.607846990426844e+01
1	 1.060984866999767e+00	 1.423002498954568e+00	 3.981279647573928e+01
1	 1.031467731479697e+00	 1.444541214005793e+00	 5.530600880167389e+01
1	 1.001564839025664e+00	 1.465432657369779e+00	 7.270220191576260e+01
1	 9.712973122634446e-01	 1.485667032434477e+00	 9.213684967509491e+01
1	 1.263953371370000e+00	 1.263953371370000e+00	-8.361440954965923e+00
1	 1.237507800633582e+00	 1.289856849951636e+00	 1.935436491939587e+00
1	 1.210537319797904e+00	 1.315201751586213e+00	 1.173290684968315e+01
1	 1.183059770994018e+00	 1.339972323691486e+00	 2.114008182275704e+01
1	 1.155093617168889e+00	 1.364153578445512e+00	 3.026669456634958e+01
1	 1.126657900934648e+00	 1.387731322799797e+00	 3.922261643622493e+01
1	 1.097772201718496e+00	 1.410692185830083e+00	 4.811737591095582e+01
1	 1.068456591414093e+00	 1.433023643316137e+00	 5.705968292641023e+01
1	 1.038731588742900e+00	 1.454714039459216e+00	 6.615696178953607e+01
1	 1.008618112539770e+00	 1.475752605663632e+00	 7.551489573397076e+01
1	 9.781374341813637e-01	 1.496129476327111e+00	 8.523698604548562e+01
1	 1.272792206135000e+00	 1.272792206135000e+00	 1.292313454892749e+01
1	 1.246161701337015e+00	 1.298876827923988e+00	 2.648220442714651e+01
1	 1.219002615739890e+00	 1.324398966633336e+00	 3.831327046387654e+01
1	 1.191332916244822e+00	 1.349342759522880e+00	 4.845256601304586e+01
1	 1.163171194910296e+00	 1.373693113960733e+00	 5.694219419536584e+01
1	 1.134536627513560e+00	 1.397435737646315e+00	 6.382991402942849e+01
1	 1.105448930400887e+00	 1.420557166152399e+00	 6.916889800248751e+01
1	 1.075928315828831e+00	 1.443044787676796e+00	 7.301746290863140e+01
1	 1.045995446006414e+00	 1.464886864911678e+00	 7.543877598843868e+01
1	 1.015671386054046e+00	 1.486072553956495e+00	 7.650053858772841e+01
1	 9.849775560992720e-01	 1.506591920218745e+00	 7.627464971176317e+01
1	 1.281631040900000e+00	 1.281631040900000e+00	 3.542907191449902e+01
1	 1.254815602040628e+00	 1.307896805896150e+00	 5.183936058561187e+01
1	 1.227467911682194e+00	 1.333596181680099e+00	 6.531061106597727e+01
1	 1.199606061496045e+00	 1.358713195353763e+00	 7.580691984095083e+01
1	 1.171248772652179e+00	 1.383232649475313e+00	 8.330345298906514e+01
1	 1.142415354092968e+00	 1.407140152492081e+00	 8.778649937626170e+01
1	 1.113125659083754e+00	 1.430422146473875e+00	 8.925346481146158e+01
1	 1.083400040243983e+00	 1.453065932036545e+00	 8.771280759045624e+01
1	 1.053259303270239e+00	 1.475059690363180e+00	 8.318391633845789e+01
1	 1.022724659568491e+00	 1.496392502248366e+00	 7.569693153098295e+01
1	 9.918176780171699e-01	 1.517054364109380e+00	 6.529251252242612e+01
1	 1.290469875665000e+00	 1.290469875665000e+00	 5.913127466509559e+01
1	 1.263469502744421e+00	 1.316916783868122e+00	 7.799025315459690e+01
1	 1.235933207624818e+00	 1.342793396726501e+00	 9.271636063580581e+01
1	 1.207879206747686e+00	 1.368083631184136e+00	 1.032022829715684e+02
1	 1.179326350394540e+00	 1.392772184989253e+00	 1.093569279509802e+02
1	 1.150294080672872e+00	 1.416844567337098e+00	 1.111057432762868e+02
1	 1.120802387767094e+00	 1.440287126794510e+00	 1.083909452819091e+02
1	 1.090871764659547e+00	 1.463087076395382e+00	 1.011716574230121e+02
1	 1.060523160534375e+00	 1.485232515813721e+00	 8.942395832927659e+01
1	 1.029777933083107e+00	 1.506712450539249e+00	 7.314083997240465e+01
1	 9.986577999350573e-01	 1.527516807999014e+00	 5.233207723429079e+01
1	 1.299308710430000e+00	 1.299308710430000e+00	 8.400532922144093e+01
1	 1.272123403448393e+00	 1.325936761839904e+00	 1.049186834319437e+02
1	 1.244398503567761e+00	 1.351990611772543e+00	 1.205221842966005e+02
1	 1.216152351999746e+00	 1.377454067013998e+00	 1.306378184804695e+02
1	 1.187403928137379e+00	 1.402311720502552e+00	 1.351089003838594e+02
1	 1.158172807253272e+00	 1.426548982181363e+00	 1.338006526977792e+02
1	 1.128479116450909e+00	 1.450152107114305e+00	 1.266006677063204e+02
1	 1.098343489075523e+00	 1.473108220753309e+00	 1.134192469948175e+02
1	 1.067787017798822e+00	 1.495405341263302e+00	 9.418961825359804e+01
1	 1.036831206597892e+00	 1.517032398829141e+00	 6.886802890141631e+01
1	 1.005497921852934e+00	 1.537979251887649e+00	 3.743371727751123e+01
1	 1.308147545195000e+00	 1.308147545195000e+00	 1.100274818307788e+02
1	 1.280777304152546e+00	 1.334956739811497e+00	 1.326088905182857e+02
1	 1.252863799511024e+00	 1.361187826818225e+00	 1.487199724385530e+02
1	 1.224425497252224e+00	 1.386824502843349e+00	 1.581127120628060e+02
1	 1.195481505880695e+00	 1.411851256015210e+00	 1.605654818255102e+02
1	 1.166051533834168e+00	 1.436253397024877e+00	 1.558838830693258e+02
1	 1.136155845135198e+00	 1.460017087433259e+00	 1.439014379909011e+02
1	 1.105815213491912e+00	 1.483129365110326e+00	 1.244801288784908e+02
1	 1.075050875063580e+00	 1.505578166711923e+00	 9.751078223407175e+01
1	 1.043884480112846e+00	 1.527352347118043e+00	 6.291329668613746e+01
1	 1.012338043770800e+00	 1.548441695775283e+00	 2.063671490850648e+01
1	 1.316986379960000e+00	 1.316986379960000e+00	 1.371746164250402e+02
1	 1.289431204856878e+00	 1.343976717782898e+00	 1.610455366256754e+02
1	 1.261329095454607e+00	 1.370385041863546e+00	 1.773018331595106e+02
1	 1.232698642505121e+00	 1.396194938672191e+00	 1.856261712742621e+02
1	 1.203559083624488e+00	 1.421390791527228e+00	 1.857326197456025e+02
1	 1.173930260415560e+00	 1.445957811867642e+00	 1.773677500764585e+02
1	 1.143832573819962e+00	 1.469882067751372e+00	 1.603115571853126e+02
1	 1.113286937908713e+00	 1.493150509466432e+00	 1.343781965171898e+02
1	 1.082314732328649e+00	 1.515750992159584e+00	 9.941653408134613e+01
1	 1.050937753627971e+00	 1.537672295405955e+00	 5.531050751034198e+01
1	 1.019178165688655e+00	 1.558904139661917e+00	 1.979297826526548e+00
1	 1.325825214725000e+00	 1.325825214725000e+00	 1.654242333646873e+02
1	 1.298085105561391e+00	 1.352996695754110e+00	 1.902136929738737e+02
1	 1.269794391398509e+00	 1.379582256908508e+00	 2.062600850080610e+02
1	 1.240971787758436e+00	 1.405565374500522e+00	 2.131774248023741e+02
1	 1.211636661368759e+00	 1.430930327038606e+00	 2.106161030146134e+02
1	 1.181808986997448e+00	 1.455662226709656e+00	 1.982642409864229e+02
1	 1.151509302505200e+00	 1.479747048068645e+00	 1.758488383112220e+02
1	 1.120758662325928e+00	 1.503171653821628e+00	 1.431367061955943e+02
1	 1.089578589594029e+00	 1.525923817606285e+00	 9.993518203780312e+01
1	 1.057991027143266e+00	 1.547992243692877e+00	 4.609262251293381e+01
1	 1.026018287606500e+00	 1.569366583547552e+00	-1.850132567444477e+01
1	 9.576170684275745e-01	 1.464742144646208e+00	 9.957237544993085e+01
1	 9.274374693167079e-01	 1.484034952609081e+00	 1.238005922616581e+02
1	 8.969408680863412e-01	 1.502663328635016e+00	 1.391191318914196e+02
1	 8.661488407132029e-01	 1.520620329275986e+00	 1.453010319972927e+02
1	 8.350831179629206e-01	 1.537899927230666e+00	 1.421590319934089e+02
1	 8.037655378569366e-01	 1.554497011975572e+00	 1.295456407098553e+02
1	 7.722179985775102e-01	 1.570407387515452e+00	 1.073529940742306e+02
1	 7.404624120079161e-01	 1.585627767319404e+00	 7.551250873733356e+01
1	 7.085206580967063e-01	 1.600155766523939e+00	 3.399433906439358e+01
1	 6.764145402254393e-01	 1.613989891498045e+00	-1.719335370751887e+01
1	 6.441657417487923e-01	 1.627129526877964e+00	-7.800531009794889e+01
1	 9.644571903455147e-01	 1.475204588540842e+00	 9.693035820325956e+01
1	 9.340620226707020e-01	 1.494635202274587e+00	 1.099474639393482e+02
1	 9.033475885753567e-01	 1.513396638129045e+00	 1.174742904015956e+02
1	 8.723356181503269e-01	 1.531481903060134e+00	 1.193188055448237e+02
1	 8.410479973809958e-01	 1.548884926714374e+00	 1.153151569060379e+02
1	 8.095067202746751e-01	 1.565600562064542e+00	 1.053238906619731e+02
1	 7.777338414292119e-01	 1.581624583143993e+00	 8.923202716719973e+01
1	 7.457514292413349e-01	 1.596953679946601e+00	 6.695299590572296e+01
1	 7.135815199449446e-01	 1.611585450574138e+00	 3.842643385421301e+01
1	 6.812460726600413e-01	 1.625518390726798e+00	 3.617852247657887e+00
1	 6.487669256224087e-01	 1.638751880645368e+00	-3.748182235094867e+01
1	 9.712973122634446e-01	 1.485667032434477e+00	 9.213684967509491e+01
1	 9.406865760245010e-01	 1.505235451939093e+00	 9.431299185670862e+01
1	 9.097543090640229e-01	 1.524129947622075e+00	 9.436833072328771e+01
1	 8.785223955869794e-01	 1.542343476843282e+00	 9.214552588878050e+01
1	 8.470128767985073e-01	 1.559869926197083e+00	 8.750002316419867e+01
1	 8.152479026917877e-01	 1.576704112152514e+00	 8.030042343194459e+01
1	 7.832496842802557e-01	 1.592841778771534e+00	 7.042877389294357e+01
1	 7.510404464740938e-01	 1.608279592572798e+00	 5.778078165568476e+01
1	 7.186423817925509e-01	 1.623015134623336e+00	 4.226595027124904e+01
1	 6.860776050940676e-01	 1.637046889954551e+00	 2.380764042762376e+01
1	 6.533681094955354e-01	 1.650374234411771e+00	 2.343056593652548e+00
1	 9.781374341813637e-01	 1.496129476327111e+00	 8.523698604548562e+01
1	 9.473111293781052e-01	 1.515835701602599e+00	 7.693454686142474e+01
1	 9.161610295523410e-01	 1.534863257114104e+00	 6.983190568534754e+01
1	 8.847091730231601e-01	 1.553205050625430e+00	 6.380618015911401e+01
1	 8.529777562154551e-01	 1.570854925678792e+00	 5.873400682341390e+01
1	 8.209890851082741e-01	 1.587807662239485e+00	 5.449205826117823e+01
1	 7.887655271306419e-01	 1.604058974398075e+00	 5.095754795127553e+01
1	 7.563294637061935e-01	 1.619605505197995e+00	 4.800871986291718e+01
1	 7.237032436395248e-01	 1.634444818671535e+00	 4.552532002942174e+01
1	 6.909091375275186e-01	 1.648575389181304e+00	 4.338904756880255e+01
1	 6.579692933681720e-01	 1.661996588177175e+00	 4.148398286461168e+01
1	 9.849775560992720e-01	 1.506591920218745e+00	 7.627464971176317e+01
1	 9.539356827315137e-01	 1.526435951265105e+00	 5.784846172212335e+01
1	 9.225677500403102e-01	 1.545596566605134e+00	 4.389481664918974e+01
1	 8.908959504588690e-01	 1.564066624406578e+00	 3.432506139885260e+01
1	 8.589426356318386e-01	 1.581839925159500e+00	 2.903691793767348e+01
1	 8.267302675241348e-01	 1.598911212325456e+00	 2.791514718993752e+01
1	 7.942813699803704e-01	 1.615276170023616e+00	 3.083226543923889e+01
1	 7.616184809376328e-01	 1.630931417822191e+00	 3.764930735101643e+01
1	 7.287641054858667e-01	 1.645874502718734e+00	 4.821662951726153e+01
1	 6.957406699603945e-01	 1.660103888407058e+00	 6.237474827604342e+01
1	 6.625704772403191e-01	 1.673618941941579e+00	 7.995520547598801e+01
1	 9.918176780171699e-01	 1.517054364109380e+00	 6.529251252242612e+01
1	 9.605602360847276e-01	 1.537036200926611e+00	 3.709006692420076e+01
1	 9.289744705279306e-01	 1.556329876095164e+00	 1.658604286973625e+01
1	 8.970827278941061e-01	 1.574928198186726e+00	 3.725792498130794e+00
1	 8.649075150476579e-01	 1.592824924639208e+00	-1.571979923268387e+00
1	 8.324714499393694e-01	 1.610014762410427e+00	 5.855911677262995e-01
1	 7.997972128294406e-01	 1.626493365648157e+00	 1.006645856154574e+01
1	 7.669074981684126e-01	 1.642257330445388e+00	 2.671469620361450e+01
1	 7.338249673315762e-01	 1.657304186764933e+00	 5.035163170567941e+01
1	 7.005722023926947e-01	 1.671632387631810e+00	 8.077706750991705e+01
1	 6.671716611119766e-01	 1.685241295704983e+00	 1.177705803655792e+02
1	 9.986577999350573e-01	 1.527516807999014e+00	 5.233207723429079e+01
1	 9.671847894377462e-01	 1.547636450587116e+00	 1.469372499459006e+01
1	 9.353811910152018e-01	 1.567063185584193e+00	-1.206623035025373e+01
1	 9.032695053288720e-01	 1.585789771965874e+00	-2.796865085536756e+01
1	 8.708723944629133e-01	 1.603809924117917e+00	-3.307395095868177e+01
1	 8.382126323539778e-01	 1.621118312494398e+00	-2.748114449839868e+01
1	 8.053130556778535e-01	 1.637710561271698e+00	-1.132671122242390e+01
1	 7.721965153985323e-01	 1.653583243067585e+00	 1.521670557054492e+01
1	 7.388858291766537e-01	 1.668733870810132e+00	 5.194175756637991e+01
1	 7.054037348244198e-01	 1.683160886855564e+00	 9.860799256083500e+01
1	 6.717728449831446e-01	 1.696863649467388e+00	 1.549435838564386e+02
1	 1.005497921852934e+00	 1.537979251887649e+00	 3.743371727751123e+01
1	 9.738093427905699e-01	 1.558236700246622e+00	-9.307136574483906e+00
1	 9.417879115021248e-01	 1.577796495072223e+00	-4.203458465500825e+01
1	 9.094562827631661e-01	 1.596651345744022e+00	-6.073591816272283e+01
1	 8.768372738776050e-01	 1.614794923595625e+00	-6.545076918553346e+01
1	 8.439538147679604e-01	 1.632221862577369e+00	-5.627001532605733e+01
1	 8.108288985256082e-01	 1.648927756894240e+00	-3.333444058823836e+01
1	 7.774855326279926e-01	 1.664909155688782e+00	 3.166832992120437e+00
1	 7.439466910210989e-01	 1.680163554854331e+00	 5.299812702421607e+01
1	 7.102352672555692e-01	 1.694689386078317e+00	 1.158791845344299e+02
1	 6.763740288538225e-01	 1.708486003228792e+00	 1.914873255689418e+02
1	 1.012338043770800e+00	 1.548441695775283e+00	 2.063671490850648e+01
1	 9.804338961431978e-01	 1.568836949905128e+00	-3.487999373649443e+01
1	 9.481946319886988e-01	 1.588529804559253e+00	-7.329234272537241e+01
1	 9.156430601969882e-01	 1.607512919521170e+00	-9.455426299253745e+01
1	 8.828021532917325e-01	 1.625779923072334e+00	-9.868470121491691e+01
1	 8.496949971813170e-01	 1.643325412659341e+00	-8.576638344049621e+01
1	 8.163447413727055e-01	 1.660144952515780e+00	-5.594427224725935e+01
1	 7.827745498567932e-01	 1.676235068308980e+00	-9.423734735679417e+00
1	 7.490075528649117e-01	 1.691593238897529e+00	 5.353155946552593e+01
1	 7.150667996861435e-01	 1.706217885300070e+00	 1.326019893713109e+02
1	 6.809752127240106e-01	 1.720108356989195e+00	 2.274145608093894e+02
1	 1.019178165688655e+00	 1.558904139661917e+00	 1.979297826526548e+00
1	 9.870584494956313e-01	 1.579437199562634e+00	-6.199319557364516e+01
1	 9.546013524749237e-01	 1.599263114045282e+00	-1.058135434118091e+02
1	 9.218298376303387e-01	 1.618374493297318e+00	-1.294025227102132e+02
1	 8.887670327052957e-01	 1.636764922548042e+00	-1.327584897220469e+02
1	 8.554361795940475e-01	 1.654428962740311e+00	-1.159560039300387e+02
1	 8.218605842191447e-01	 1.671362148136321e+00	-7.914408333470291e+01
1	 7.880635670849336e-01	 1.687560980928176e+00	-2.254411113354701e+01
1	 7.540684147080928e-01	 1.703022922939728e+00	 5.355258382332206e+01
1	 7.198983321161423e-01	 1.717746384520824e+00	 1.487874484230711e+02
1	 6.855763965937093e-01	 1.731730710748600e+00	 2.627377024597442e+02
1	 1.026018287606500e+00	 1.569366583547552e+00	-1.850132567444477e+01
1	 9.936830028478698e-01	 1.590037449219140e+00	-9.061593519258066e+01
1	 9.610080729608007e-01	 1.609996423530313e+00	-1.395729178620801e+02
1	 9.280166150632180e-01	 1.629236067072467e+00	-1.652600990180627e+02
1	 8.947319121182953e-01	 1.647749922022751e+00	-1.676553375774604e+02
1	 8.611773620061525e-01	 1.665532512820283e+00	-1.468250117473155e+02
1	 8.273764270649263e-01	 1.682579343755863e+00	-1.029220742621797e+02
1	 7.933525843124147e-01	 1.698886893546373e+00	-3.618370002829122e+01
1	 7.591292765506416e-01	 1.714452606980927e+00	 5.307144825906534e+01
1	 7.247298645455660e-01	 1.729274883740578e+00	 1.644463086052559e+02
1	 6.901775804629183e-01	 1.743353064507004e+00	 2.974688323917744e+02
1	 6.441657417487923e-01	 1.627129526877964e+00	-7.800531009794889e+01
1	 6.117957838646149e-01	 1.639574920191208e+00	-1.197146229973616e+02
1	 5.793259849590476e-01	 1.651327164198396e+00	-1.480733240864889e+02
1	 5.467774215590897e-01	 1.662388177092036e+00	-1.633939501155257e+02
1	 5.141708910118744e-01	 1.672760680698918e+00	-1.660300415595531e+02
1	 4.815268759957917e-01	 1.682448176837619e+00	-1.563734426477129e+02
1	 4.488655109548267e-01	 1.691454921988814e+00	-1.348515020019126e+02
1	 4.162065505333923e-01	 1.699785900439417e+00	-1.019241953877578e+02
1	 3.835693400749210e-01	 1.707446796063892e+00	-5.808119173464372e+01
1	 3.509727882336220e-01	 1.714443962907183e+00	-3.838883053409290e+00
1	 3.184353417352296e-01	 1.720784394733555e+00	 6.026260181533456e+01
1	 6.487669256224087e-01	 1.638751880645368e+00	-3.748182235094867e+01
1	 6.161657537528369e-01	 1.651286169625344e+00	-6.090795796605642e+01
1	 5.834640277117503e-01	 1.663122358232710e+00	-7.671599097065794e+01
1	 5.506829745727695e-01	 1.674262378361350e+00	-8.511053204781031e+01
1	 5.178435402355067e-01	 1.684708971279677e+00	-8.632014452685917e+01
1	 4.849663536831978e-01	 1.694465663819255e+00	-8.059565959160514e+01
1	 4.520716931772849e-01	 1.703536742864199e+00	-6.820843675337532e+01
1	 4.191794544667834e-01	 1.711927228303469e+00	-4.944858273710816e+01
1	 3.863091210761500e-01	 1.719642844610636e+00	-2.462314167113239e+01
1	 3.534797367214098e-01	 1.726689991216679e+00	 5.945730895441372e+00
1	 3.207098798906232e-01	 1.733075711841326e+00	 4.192259808980844e+01
1	 6.533681094955354e-01	 1.650374234411771e+00	 2.343056593652548e+00
1	 6.205357236406640e-01	 1.662997419058485e+00	-2.626022611228373e+00
1	 5.876020704641420e-01	 1.674917552266045e+00	-5.631365392988108e+00
1	 5.545885275862121e-01	 1.686136579629713e+00	-6.771124895742346e+00
1	 5.215161894589658e-01	 1.696657261859521e+00	-6.150509473214090e+00
1	 4.884058313704844e-01	 1.706483150800025e+00	-3.881103632544711e+00
1	 4.552778753996668e-01	 1.715618563738773e+00	-8.017855109846295e-02
1	 4.221523584001318e-01	 1.724068556166777e+00	 5.130002970345963e+00
1	 3.890489020773603e-01	 1.731838893156712e+00	 1.162288242459545e+01
1	 3.559866852091929e-01	 1.738936019525595e+00	 1.926829789834459e+01
1	 3.229844180460166e-01	 1.745367028948611e+00	 2.793316850761310e+01
1	 6.579692933681720e-01	 1.661996588177175e+00	 4.148398286461168e+01
1	 6.249056935280957e-01	 1.674708668490631e+00	 5.514219138224525e+01
1	 5.917401132162232e-01	 1.686712746298402e+00	 6.518627378401744e+01
1	 5.584940805994181e-01	 1.698010780897124e+00	 7.162309674485878e+01
1	 5.251888386822519e-01	 1.708605552438449e+00	 7.446921874811564e+01
1	 4.918453090576513e-01	 1.718500637779927e+00	 7.375057265132564e+01
1	 4.584840576219726e-01	 1.727700384612536e+00	 6.950211471091623e+01
1	 4.251252623334376e-01	 1.736209884029342e+00	 6.176744341873329e+01
1	 3.917886830785516e-01	 1.744034941702122e+00	 5.059839158670437e+01
1	 3.584936336969712e-01	 1.751182047833929e+00	 3.605459516370270e+01
1	 3.252589562014102e-01	 1.757658346055410e+00	 1.820304228215238e+01
1	 6.625704772403191e-01	 1.673618941941579e+00	 7.995520547598801e+01
1	 6.292756634151327e-01	 1.686419917921784e+00	 1.124073865429489e+02
1	 5.958781559679939e-01	 1.698507940329780e+00	 1.357424887773662e+02
1	 5.623996336123873e-01	 1.709884982163583e+00	 1.500709909058352e+02
1	 5.288614879053646e-01	 1.720553843016463e+00	 1.555296631964583e+02
1	 4.952847867446983e-01	 1.730518124758960e+00	 1.522802625868168e+02
1	 4.616902398442022e-01	 1.739782205485489e+00	 1.405081506357278e+02
1	 4.280981662667007e-01	 1.748351211891163e+00	 1.204208458009635e+02
1	 3.945284640797241e-01	 1.756230990246865e+00	 9.224652154285616e+01
1	 3.610005821847450e-01	 1.763428076141683e+00	 5.623246164412533e+01
1	 3.275334943568037e-01	 1.769949663161724e+00	 1.264348392644595e+01
1	 6.671716611119766e-01	 1.685241295704983e+00	 1.177705803655792e+02
1	 6.336456333017748e-01	 1.698131167351941e+00	 1.691799701572926e+02
1	 6.000161987194534e-01	 1.710303134360181e+00	 2.060426883635925e+02
1	 5.663051866251195e-01	 1.721759183429090e+00	 2.285714471216003e+02
1	 5.325341371283041e-01	 1.732502133593562e+00	 2.370217056053710e+02
1	 4.987242644316259e-01	 1.742535611737127e+00	 2.316893865813852e+02
1	 4.648964220663556e-01	 1.751864026357632e+00	 2.129084724787306e+02
1	 4.310710701999212e-01	 1.760492539752242e+00	 1.810485005598007e+02
1	 3.972682450808779e-01	 1.768427038790942e+00	 1.365119766902945e+02
1	 3.635075306725140e-01	 1.775674104448856e+00	 7.973172694180258e+01
1	 3.298080325121973e-01	 1.782240980267553e+00	 1.116820582900510e+01
1	 6.717728449831446e-01	 1.696863649467388e+00	 1.549435838564386e+02
1	 6.380156031880218e-01	 1.709842416781104e+00	 2.254700643805431e+02
1	 6.041542414706024e-01	 1.722098328389602e+00	 2.760921331335704e+02
1	 5.702107396376153e-01	 1.733633384693645e+00	 3.071233853502828e+02
1	 5.362067863510706e-01	 1.744450424169746e+00	 3.189364775239331e+02
1	 5.021637421184337e-01	 1.754553098714425e+00	 3.119598740724255e+02
1	 4.681026042884328e-01	 1.763945847228964e+00	 2.866744305294254e+02
1	 4.340439741330990e-01	 1.772633867612575e+00	 2.436098408656093e+02
1	 4.000080260820126e-01	 1.780623087334350e+00	 1.833409763742880e+02
1	 3.660144791602783e-01	 1.787920132755449e+00	 1.064841431355722e+02
1	 3.320825706675907e-01	 1.794532297372897e+00	 1.369328442248034e+01
1	 6.763740288538225e-01	 1.708486003228792e+00	 1.914873255689418e+02
1	 6.423855730738738e-01	 1.721553666209272e+00	 2.812875159351667e+02
1	 6.082922842214408e-01	 1.733893522418045e+00	 3.458959405328385e+02
1	 5.741162926498737e-01	 1.745507585957248e+00	 3.857257549389070e+02
1	 5.398794355736638e-01	 1.756398714745015e+00	 4.012653518196183e+02
1	 5.056032198051220e-01	 1.766570585690856e+00	 3.930741462133262e+02
1	 4.713087865104338e-01	 1.776027668099485e+00	 3.617781546612760e+02
1	 4.370168780662343e-01	 1.784775195472166e+00	 3.080654037480689e+02
1	 4.027478070831286e-01	 1.792819135877093e+00	 2.326812033592809e+02
1	 3.685214276480380e-01	 1.800166161061461e+00	 1.364233193905589e+02
1	 3.343571088229843e-01	 1.806823614477755e+00	 2.013707977399788e+01
1	 6.809752127240106e-01	 1.720108356989195e+00	 2.274145608093894e+02
1	 6.467555429593308e-01	 1.733264915636446e+00	 3.366419054159874e+02
1	 6.124303269719683e-01	 1.745688716445509e+00	 4.154590896975980e+02
1	 5.780218456618959e-01	 1.757381787219899e+00	 4.643775336305201e+02
1	 5.435520847960841e-01	 1.768347005319369e+00	 4.839999345256520e+02
1	 5.090426974916905e-01	 1.778588072666419e+00	 4.750150992614421e+02
1	 4.745149687323587e-01	 1.788109488969196e+00	 4.381925279944156e+02
1	 4.399897819993270e-01	 1.796916523331014e+00	 3.743767928036261e+02
1	 4.054875880842257e-01	 1.805015184419168e+00	 2.844817543890589e+02
1	 3.710283761357929e-01	 1.812412189366892e+00	 1.694846592187725e+02
1	 3.366316469783779e-01	 1.819114931582128e+00	 3.042015843534605e+01
1	 6.855763965937093e-01	 1.731730710748600e+00	 2.627377024597442e+02
1	 6.511255128443928e-01	 1.744976165062624e+00	 3.915425562206478e+02
1	 6.165683697221850e-01	 1.757483910471994e+00	 4.847864260959568e+02
1	 5.819273986736807e-01	 1.769255988481598e+00	 5.430777266113137e+02
1	 5.472247340183309e-01	 1.780295295892808e+00	 5.671320570166453e+02
1	 5.124821751781393e-01	 1.790605559641113e+00	 5.577660886350114e+02
1	 4.777211509542074e-01	 1.800191309838096e+00	 5.158911616189105e+02
1	 4.429626859323769e-01	 1.809057851189117e+00	 4.425066424046694e+02
1	 4.082273690853040e-01	 1.817211232960577e+00	 3.386930927377783e+02
1	 3.735353246235432e-01	 1.824658217671742e+00	 2.056053002661274e+02
1	 3.389061851337714e-01	 1.831406248686016e+00	 4.446521939986616e+01
1	 6.901775804629183e-01	 1.743353064507004e+00	 2.974688323917744e+02
1	 6.554954827290597e-01	 1.756687414487810e+00	 4.459985431228492e+02
1	 6.207064124720911e-01	 1.769279104497503e+00	 5.538826659835437e+02
1	 5.858329516852290e-01	 1.781130189742346e+00	 6.218253655958498e+02
1	 5.508973832404049e-01	 1.792243586465333e+00	 6.506537684972322e+02
1	 5.159216528644688e-01	 1.802623046614941e+00	 6.413109136077921e+02
1	 4.809273331759799e-01	 1.812273130706186e+00	 5.948483703290992e+02
1	 4.459355898653843e-01	 1.821199179046478e+00	 5.124185833403275e+02
1	 4.109671500863636e-01	 1.829407281501319e+00	 3.952670026589515e+02
1	 3.760422731112888e-01	 1.836904245976013e+00	 2.447240565079750e+02
1	 3.411807232891650e-01	 1.843697565789419e+00	 6.219702302106863e+01
1	 3.184353417352296e-01	 1.720784394733555e+00	 6.026260181533456e+01
1	 2.859749623090795e-01	 1.726475693704463e+00	 1.264783477164680e+02
1	 2.536091058023270e-01	 1.731526038345919e+00	 1.706348891885164e+02
1	 2.213547034732818e-01	 1.735944150962882e+00	 1.935814529911800e+02
1	 1.892281454495708e-01	 1.739739264653876e+00	 1.962079293907895e+02
1	 1.572452663273684e-01	 1.742921090073661e+00	 1.794398390852143e+02
1	 1.254213328766080e-01	 1.745499782086253e+00	 1.442333670766308e+02
1	 9.377103380810400e-02	 1.747485906444048e+00	 9.157048912277942e+01
1	 6.230847155001576e-02	 1.748890406621857e+00	 2.245421422268390e+01
1	 3.104715597342760e-02	 1.749724570927141e+00	-6.209603564702954e+01
1	 0.000000000000000e+00	 1.750000000000000e+00	-1.610488896058485e+02
1	 3.207098798906232e-01	 1.733075711841326e+00	 4.192259808980844e+01
1	 2.880176406112042e-01	 1.738807662947247e+00	 8.558400764363812e+01
1	 2.554205994149419e-01	 1.743894081478562e+00	 1.136073514591619e+02
1	 2.229358084977045e-01	 1.748343752042406e+00	 1.266034237296544e+02
1	 1.905797750594583e-01	 1.752165973688006e+00	 1.252120684659763e+02
1	 1.583684468006353e-01	 1.755370526431943e+00	 1.100985601857416e+02
1	 1.263171995395246e-01	 1.757967637672972e+00	 8.195003333565992e+01
1	 9.444082690630262e-02	 1.759967948633152e+00	 4.147197887103077e+01
1	 6.275353206075759e-02	 1.761382480954967e+00	-1.061517515151114e+01
1	 3.126892137305198e-02	 1.762222603576644e+00	-7.357938372641432e+01
1	 0.000000000000000e+00	 1.762500000000000e+00	-1.466801921960062e+02
1	 3.229844180460166e-01	 1.745367028948611e+00	 2.793316850761310e+01
1	 2.900603189133288e-01	 1.751139632189640e+00	 4.821408022369570e+01
1	 2.572320930275566e-01	 1.756262124610897e+00	 5.919700348067801e+01
1	 2.245169135221270e-01	 1.760743353121696e+00	 6.125723807616168e+01
1	 1.919314046693457e-01	 1.764592682721967e+00	 5.478761216576196e+01
1	 1.594916272739021e-01	 1.767819962790108e+00	 4.019626394187689e+01
1	 1.272130662024412e-01	 1.770435493259618e+00	 1.790445404188684e+01
1	 9.511062000450128e-02	 1.772449990822214e+00	-1.165558003860519e+01
1	 6.319859257149944e-02	 1.773874555288057e+00	-4.804271721814825e+01
1	 3.149068677267637e-02	 1.774720636226143e+00	-9.080898447255782e+01
1	 0.000000000000000e+00	 1.775000000000000e+00	-1.395015185440078e+02
1	 3.252589562014102e-01	 1.757658346055410e+00	 1.820304228215238e+01
1	 2.921029972154534e-01	 1.763471601431642e+00	 1.429462672929259e+01
1	 2.590435866401714e-01	 1.768630167742926e+00	 7.348939174035767e+00
1	 2.260980185465497e-01	 1.773142954200753e+00	-2.491338450889845e+00
1	 1.932830342792332e-01	 1.777019391755757e+00	-1.507742701971895e+01
1	 1.606148077471690e-01	 1.780269399148155e+00	-3.025528005195057e+01
1	 1.281089328653577e-01	 1.782903348846188e+00	-4.786640061842702e+01
1	 9.578041310269989e-02	 1.784932033011234e+00	-6.774864113090952e+01
1	 6.364365308224128e-02	 1.786366629621130e+00	-8.973698220056308e+01
1	 3.171245217230076e-02	 1.787218668875638e+00	-1.136642871303143e+02
1	 0.000000000000000e+00	 1.787500000000000e+00	-1.393620289907363e+02
1	 3.275334943568037e-01	 1.769949663161724e+00	 1.264348392644595e+01
1	 2.941456755175780e-01	 1.775803570673254e+00	-1.624623771338906e+01
1	 2.608550802527862e-01	 1.780998210874648e+00	-4.199022237093723e+01
1	 2.276791235709723e-01	 1.785542555279576e+00	-6.467558937527136e+01
1	 1.946346638891207e-01	 1.789446100789376e+00	-8.439470361394730e+01
1	 1.617379882204359e-01	 1.792718835506084e+00	-1.012446291344901e+02
1	 1.290047995282743e-01	 1.795371204432684e+00	-1.153265874086370e+02
1	 9.645020620089854e-02	 1.797414075200213e+00	-1.267454231105297e+02
1	 6.408871359298313e-02	 1.798858703954184e+00	-1.356090800381060e+02
1	 3.193421757192514e-02	 1.799716701525127e+00	-1.420280895766238e+02
1	 0.000000000000000e+00	 1.800000000000000e+00	-1.461150738676019e+02
1	 3.298080325121973e-01	 1.782240980267553e+00	 1.116820582900510e+01
1	 2.961883538197027e-01	 1.788135539914474e+00	-4.347841494717210e+01
1	 2.626665738654010e-01	 1.793366254006063e+00	-8.887238948758571e+01
1	 2.292602285953949e-01	 1.797942156358166e+00	-1.253278800545833e+02
1	 1.959862934990082e-01	 1.801872809822824e+00	-1.531755506363074e+02
1	 1.628611686937026e-01	 1.805168271863896e+00	-1.727606563041116e+02
1	 1.299006661911908e-01	 1.807839060019105e+00	-1.844411546296606e+02
1	 9.711999929909716e-02	 1.809896117389149e+00	-1.885858489937071e+02
1	 6.453377410372496e-02	 1.811350778287220e+00	-1.855725728097308e+02
1	 3.215598297154953e-02	 1.812214734174612e+00	-1.757864228504393e+02
1	 0.000000000000000e+00	 1.812500000000000e+00	-1.596180490141089e+02
1	 3.320825706675907e-01	 1.794532297372897e+00	 1.369328442248034e+01
1	 2.982310321218273e-01	 1.800467509155304e+00	-6.746989169590583e+01
1	 2.644780674780159e-01	 1.805734297137171e+00	-1.333480483631385e+02
1	 2.308413336198176e-01	 1.810341757436522e+00	-1.844796891243019e+02
1	 1.973379231088956e-01	 1.814299518856103e+00	-2.214309906125045e+02
1	 1.639843491669695e-01	 1.817617708221590e+00	-2.447925394085437e+02
1	 1.307965328541074e-01	 1.820306915605452e+00	-2.551761081632112e+02
1	 9.778979239729581e-02	 1.822378159578045e+00	-2.532114877414419e+02
1	 6.497883461446680e-02	 1.823842852620236e+00	-2.395433907566087e+02
1	 3.237774837117391e-02	 1.824712766824093e+00	-2.148284404279986e+02
1	 0.000000000000000e+00	 1.825000000000000e+00	-1.797322572330607e+02
1	 3.343571088229843e-01	 1.806823614477755e+00	 2.013707977399788e+01
1	 3.002737104239519e-01	 1.812799478395743e+00	-8.828680470456506e+01
1	 2.662895610906306e-01	 1.818102340267972e+00	-1.754663114110278e+02
1	 2.324224386442401e-01	 1.822741358514645e+00	-2.421616386583967e+02
1	 1.986895527187831e-01	 1.826726227889211e+00	-2.891717461355713e+02
1	 1.651075296402364e-01	 1.830067144579166e+00	-3.173297507758485e+02
1	 1.316923995170240e-01	 1.832774771191723e+00	-3.274983789010234e+02
1	 9.845958549549444e-02	 1.834860201766898e+00	-3.205654982749799e+02
1	 6.542389512520864e-02	 1.836334926953235e+00	-2.974397517323962e+02
1	 3.259951377079830e-02	 1.837210799473569e+00	-2.590463120174784e+02
1	 0.000000000000000e+00	 1.837500000000000e+00	-2.063227754006495e+02
1	 3.366316469783779e-01	 1.819114931582128e+00	 3.042015843534605e+01
1	 3.023163887260765e-01	 1.825131447635791e+00	-1.059935032385385e+02
1	 2.681010547032454e-01	 1.830470383398466e+00	-2.152749636821627e+02
1	 2.340035436686628e-01	 1.835140959592535e+00	-2.984035231072177e+02
1	 2.000411823286705e-01	 1.839152936922148e+00	-3.564082499987274e+02
1	 1.662307101135032e-01	 1.842516580936626e+00	-3.903620472657647e+02
1	 1.325882661799405e-01	 1.845242626777920e+00	-4.013757914945112e+02
1	 9.912937859369306e-02	 1.847342243955709e+00	-3.905925757609356e+02
1	 6.586895563595048e-02	 1.848827001286216e+00	-3.591820839190286e+02
1	 3.282127917042268e-02	 1.849708832123040e+00	-3.083351216592658e+02
1	 0.000000000000000e+00	 1.850000000000000e+00	-2.392583269639787e+02
1	 3.389061851337714e-01	 1.831406248686016e+00	 4.446521939986616e+01
1	 3.043590670282013e-01	 1.837463416875449e+00	-1.206526090661623e+02
1	 2.699125483158602e-01	 1.842838426528653e+00	-2.528205074072992e+02
1	 2.355846486930855e-01	 1.847540560670190e+00	-3.532343370701001e+02
1	 2.013928119385580e-01	 1.851579645954916e+00	-4.231506549202098e+02
1	 1.673538905867701e-01	 1.854966017293967e+00	-4.638794607216551e+02
1	 1.334841328428570e-01	 1.857710482364042e+00	-4.767770343628358e+02
1	 9.979917169189172e-02	 1.859824286144479e+00	-4.632389000594363e+02
1	 6.631401614669230e-02	 1.861319075619177e+00	-4.246929516546238e+02
1	 3.304304457004707e-02	 1.862206864772507e+00	-3.625927699295701e+02
1	 0.000000000000000e+00	 1.862500000000000e+00	-2.784111595729105e+02
1	 3.411807232891650e-01	 1.843697565789419e+00	 6.219702302106863e+01
1	 3.064017453303258e-01	 1.849795386114716e+00	-1.323250740419585e+02
1	 2.717240419284751e-01	 1.855206469658534e+00	-2.881482047577098e+02
1	 2.371657537175081e-01	 1.859940161747613e+00	-4.066823019570687e+02
1	 2.027444415484455e-01	 1.864006354987513e+00	-4.894088428791055e+02
1	 1.684770710600370e-01	 1.867415453651191e+00	-5.378722888044009e+02
1	 1.343799995057737e-01	 1.870178337950090e+00	-5.536716309006546e+02
1	 1.004689647900904e-01	 1.872306328333207e+00	-5.384520862343405e+02
1	 6.675907665743416e-02	 1.873811149952121e+00	-4.938969842282908e+02
1	 3.326480996967145e-02	 1.874704897421970e+00	-4.217198800559040e+02
1	 0.000000000000000e+00	 1.875000000000000e+00	-3.236569276066430e+02
1	 1.875000000000000e+00	 0.000000000000000e+00	 6.797395452491534e+02
1	 1.874704897421970e+00	 3.326480996967039e-02	 5.606254157049707e+02
1	 1.873811149952121e+00	 6.675907665743323e-02	 4.569164105571445e+02
1	 1.872306328333207e+00	 1.004689647900895e-01	 3.681122298715646e+02
1	 1.870178337950090e+00	 1.343799995057729e-01	 2.936412108336012e+02
1	 1.867415453651191e+00	 1.684770710600364e-01	 2.328592255731335e+02
1	 1.864006354987513e+00	 2.027444415484450e-01	 1.850488702600334e+02
1	 1.859940161747613e+00	 2.371657537175077e-01	 1.494189675163314e+02
1	 1.855206469658534e+00	 2.717240419284748e-01	 1.251044032343119e+02
1	 1.849795386114716e+00	 3.064017453303257e-01	 1.111663176668060e+02
1	 1.843697565789419e+00	 3.411807232891650e-01	 1.065926691604376e+02
1	 1.887500000000000e+00	 0.000000000000000e+00	 5.930005225645375e+02
1	 1.887202930071432e+00	 3.348657536938452e-02	 4.939655904768225e+02
1	 1.886303224285065e+00	 6.720413716834120e-02	 4.063782960012824e+02
1	 1.884788370521935e+00	 1.011387578885170e-01	 3.298658068142078e+02
1	 1.882646193536138e+00	 1.352758661689670e-01	 2.640018012438749e+02
1	 1.879864890008415e+00	 1.696002515336150e-01	 2.083056345919307e+02
1	 1.876433064020110e+00	 2.040960711586639e-01	 1.622417238351972e+02
1	 1.872339762825035e+00	 2.387468587422663e-01	 1.252191672961089e+02
1	 1.867574512788415e+00	 2.735355355414151e-01	 9.659161515511198e+01
1	 1.862127355353983e+00	 3.084444236327496e-01	 7.565740576356762e+01
1	 1.855988882892821e+00	 3.434552614448158e-01	 6.165998159599989e+01
1	 1.900000000000000e+00	 0.000000000000000e+00	 4.932755120442757e+02
1	 1.899700962720899e+00	 3.370834076927819e-02	 4.158053215391753e+02
1	 1.898795298618027e+00	 6.764919767958150e-02	 3.458834502298091e+02
1	 1.897270412710705e+00	 1.018085509874021e-01	 2.832634291619758e+02
1	 1.895114049122259e+00	 1.361717328327159e-01	 2.276630108305044e+02
1	 1.892314326365756e+00	 1.707234320078171e-01	 1.787636012283469e+02
1	 1.888859773052877e+00	 2.054477007695455e-01	 1.362098379602580e+02
1	 1.884739363902691e+00	 2.403279637676972e-01	 9.960932559561300e+01
1	 1.879942555918602e+00	 2.753470291550062e-01	 6.853253896045626e+01
1	 1.874459324593640e+00	 3.104871019357721e-01	 4.251290446008007e+01
1	 1.868280199996709e+00	 3.457297996009814e-01	 2.104706877686935e+01
1	 1.912500000000000e+00	 0.000000000000000e+00	 3.808191409003906e+02
1	 1.912198995370370e+00	 3.393010616935138e-02	 3.263701077876302e+02
1	 1.911287372951007e+00	 6.809425819115406e-02	 2.756271032658622e+02
1	 1.909752454899517e+00	 1.024783440867449e-01	 2.284689391612517e+02
1	 1.907581904708456e+00	 1.370675994970198e-01	 1.847562000014402e+02
1	 1.904763762723215e+00	 1.718466124826427e-01	 1.443309380780290e+02
1	 1.901286482085814e+00	 2.067993303810899e-01	 1.070164428207084e+02
1	 1.897138964980580e+00	 2.419090687937999e-01	 7.261709028745753e+01
1	 1.892310599049096e+00	 2.771585227692481e-01	 4.091827833952232e+01
1	 1.886791293833689e+00	 3.125297802393932e-01	 1.168645276493023e+01
1	 1.880571517101082e+00	 3.480043377576615e-01	-1.533077076183416e+01
1	 1.925000000000000e+00	 0.000000000000000e+00	 2.558794226515125e+02
1	 1.924697028019846e+00	 3.415187156960411e-02	 2.258795910039379e+02
1	 1.923779447284006e+00	 6.853931870305893e-02	 1.957994142231266e+02
1	 1.922234497088370e+00	 1.031481371865453e-01	 1.656419234158090e+02
1	 1.920049760294728e+00	 1.379634661618787e-01	 1.354093172060722e+02
1	 1.917213199080792e+00	 1.729697929580919e-01	 1.051029171497646e+02
1	 1.913713191118923e+00	 2.081509599932970e-01	 7.472312625957008e+01
1	 1.909538566058704e+00	 2.434901738205749e-01	 4.426939111768907e+01
1	 1.904678642179897e+00	 2.789700163841410e-01	 1.374016805450169e+01
1	 1.899123263074128e+00	 3.145724585436129e-01	-1.686710613167067e+01
1	 1.892862834205940e+00	 3.502788759148565e-01	-4.755603844685940e+01
1	 1.937500000000000e+00	 0.000000000000000e+00	 1.186979704678144e+02
1	 1.937195060669326e+00	 3.437363697003634e-02	 1.145477447951467e+02
1	 1.936271521617023e+00	 6.898437921529610e-02	 1.065856348835391e+02
1	 1.934716539277264e+00	 1.038179302868033e-01	 9.493785016559951e+01
1	 1.932517615881075e+00	 1.388593328272925e-01	 7.974700899840720e+01
1	 1.929662635438486e+00	 1.740929734341646e-01	 6.117235181989452e+01
1	 1.926139900152201e+00	 2.095025896061670e-01	 3.938988675618121e+01
1	 1.921938167137059e+00	 2.450712788480219e-01	 1.459246287116349e+01
1	 1.917046685311006e+00	 2.807815099996848e-01	-1.301023351337093e+01
1	 1.911455232314958e+00	 3.166151368484312e-01	-4.319176370245266e+01
1	 1.905154151311284e+00	 3.525534140725660e-01	-7.570910663579896e+01
1	 1.950000000000000e+00	 0.000000000000000e+00	-3.048979768962752e+01
1	 1.949693093318812e+00	 3.459540237064810e-02	-7.416943734139409e+00
1	 1.948763595950059e+00	 6.942943972786557e-02	 8.166266983561385e+00
1	 1.947198581466201e+00	 1.044877233875190e-01	 1.650820128558827e+01
1	 1.944985471467495e+00	 1.397551994932612e-01	 1.789072586704581e+01
1	 1.942112071796298e+00	 1.752161539108608e-01	 1.262967563463386e+01
1	 1.938566609185650e+00	 2.108542192196997e-01	 1.075184367342157e+00
1	 1.934337768215650e+00	 2.466523838761410e-01	-1.638813235405787e+01
1	 1.929414728442420e+00	 2.825930036158795e-01	-3.934115153109408e+01
1	 1.923787201556179e+00	 3.186578151538481e-01	-6.733038343363661e+01
1	 1.917445468417113e+00	 3.548279522307903e-01	-9.986828685648723e+01
1	 1.962499999999999e+00	 0.000000000000000e+00	-1.914544617691938e+02
1	 1.962191125968301e+00	 3.481716777143939e-02	-1.398112992523970e+02
1	 1.961255670283113e+00	 6.987450024076731e-02	-9.928278651049679e+01
1	 1.959680623655179e+00	 1.051575164886924e-01	-6.949940075995136e+01
1	 1.957453327053991e+00	 1.406510661597848e-01	-5.004117597929581e+01
1	 1.954561508154227e+00	 1.763393343881805e-01	-4.043698189916147e+01
1	 1.950993318219269e+00	 2.122058488338951e-01	-4.016401027833943e+01
1	 1.946737369294472e+00	 2.482334889049322e-01	-4.864748372356232e+01
1	 1.941782771574142e+00	 2.844044972327250e-01	-6.526060160726851e+01
1	 1.936119170797790e+00	 3.207004934598635e-01	-8.932473674807152e+01
1	 1.929736785523427e+00	 3.571024903895291e-01	-1.201098954385260e+02
1	 1.975000000000000e+00	 0.000000000000000e+00	-3.639724098214719e+02
1	 1.974689158617796e+00	 3.503893317241022e-02	-2.824372901070991e+02
1	 1.973747744616185e+00	 7.031956075400138e-02	-2.155900758717780e+02
1	 1.972162665844200e+00	 1.058273095903234e-01	-1.629410707841905e+02
1	 1.969921182640562e+00	 1.415469328268634e-01	-1.239333366915432e+02
1	 1.967010944512274e+00	 1.774625148661237e-01	-9.794172240135558e+01
1	 1.963420027253059e+00	 2.135574784487534e-01	-8.427216884664141e+01
1	 1.959136970373529e+00	 2.498145939343955e-01	-8.216131105697556e+01
1	 1.954150814706171e+00	 2.862159908502214e-01	-9.077639642369122e+01
1	 1.948451140039792e+00	 3.227431717664775e-01	-1.092155375642035e+02
1	 1.942028102630227e+00	 3.593770285487826e-01	-1.365083166524661e+02
1	 1.987500000000000e+00	 0.000000000000000e+00	-5.478256553545448e+02
1	 1.987187191267294e+00	 3.526069857356055e-02	-4.351018665738275e+02
1	 1.986239818949276e+00	 7.076462126756775e-02	-3.405884645739126e+02
1	 1.984644708033262e+00	 1.064971026924121e-01	-2.636765433533067e+02
1	 1.982389038227208e+00	 1.424427994944970e-01	-2.036732985551164e+02
1	 1.979460380870438e+00	 1.785856953446905e-01	-1.598008084573201e+02
1	 1.975846736287019e+00	 2.149091080642744e-01	-1.311951599425608e+02
1	 1.971536571452820e+00	 2.513956989645308e-01	-1.169059449960743e+02
1	 1.966518857838506e+00	 2.880274844683688e-01	-1.158961521167017e+02
1	 1.960783109282185e+00	 3.247858500736903e-01	-1.270424755509314e+02
1	 1.954319419737511e+00	 3.616515667085508e-01	-1.491360634663920e+02
1	 2.000000000000000e+00	 0.000000000000000e+00	-7.428016615384615e+02
1	 1.999685223916798e+00	 3.548246397489042e-02	-5.976168051710175e+02
1	 1.998731893282386e+00	 7.120968178146642e-02	-4.741149945035113e+02
1	 1.997126750222366e+00	 1.071668957949584e-01	-3.715690596691985e+02
1	 1.994856893813928e+00	 1.433386661626855e-01	-2.891514152982292e+02
1	 1.991909817228721e+00	 1.797088758238808e-01	-2.259325960877620e+02
1	 1.988273445321150e+00	 2.162607376804582e-01	-1.808802054559642e+02
1	 1.983936172532344e+00	 2.529768039953384e-01	-1.528583079165958e+02
1	 1.978886900971149e+00	 2.898389780871670e-01	-1.406272944192337e+02
1	 1.973115078524969e+00	 3.268285283815016e-01	-1.428442481354083e+02
1	 1.966610736845282e+00	 3.639261048688338e-01	-1.580638360241171e+02
1	 1.843697565789419e+00	 3.411807232891650e-01	 1.065926691604376e+02
1	 1.836904245976013e+00	 3.760422731112877e-01	 1.232125244274957e+02
1	 1.829407281501320e+00	 4.109671500863628e-01	 1.361284765333303e+02
1	 1.821199179046478e+00	 4.459355898653836e-01	 1.457510580743313e+02
1	 1.812273130706186e+00	 4.809273331759791e-01	 1.525153191470251e+02
1	 1.802623046614941e+00	 5.159216528644683e-01	 1.568799460471780e+02
1	 1.792243586465333e+00	 5.508973832404047e-01	 1.593262242908654e+02
1	 1.781130189742346e+00	 5.858329516852289e-01	 1.603568456092500e+02
1	 1.769279104497502e+00	 6.207064124720912e-01	 1.604945598032536e+02
1	 1.756687414487809e+00	 6.554954827290598e-01	 1.602806736364183e+02
1	 1.743353064507004e+00	 6.901775804629183e-01	 1.602734002818844e+02
1	 1.855988882892821e+00	 3.434552614448158e-01	 6.165998159599989e+01
1	 1.849150274280280e+00	 3.785492215992383e-01	 7.761160113152958e+01
1	 1.841603330042052e+00	 4.137069310875700e-01	 9.078299829700489e+01
1	 1.833340506903817e+00	 4.489084937984764e-01	 1.014895850519992e+02
1	 1.824354951574237e+00	 4.841335153977702e-01	 1.100655065984130e+02
1	 1.814640533588709e+00	 5.193611305507440e-01	 1.168629593062740e+02
1	 1.804191877037770e+00	 5.545700324623478e-01	 1.222513892055545e+02
1	 1.793004391002975e+00	 5.897385046965644e-01	 1.266165708136143e+02
1	 1.781074298522854e+00	 6.248444552216972e-01	 1.303595670170515e+02
1	 1.768398663912796e+00	 6.598654526133346e-01	 1.338955717198302e+02
1	 1.754975418265163e+00	 6.947787643316375e-01	 1.376526379973517e+02
1	 1.868280199996709e+00	 3.457297996009814e-01	 2.104706877686935e+01
1	 1.861396302585124e+00	 3.810561700876036e-01	 3.566353238159872e+01
1	 1.853799378583433e+00	 4.164467120890913e-01	 4.841011659195097e+01
1	 1.845481834761856e+00	 4.518813977317833e-01	 5.950803859235312e+01
1	 1.836436772443023e+00	 4.873396976196745e-01	 6.919151811742381e+01
1	 1.826658020563224e+00	 5.228006082370322e-01	 7.770729306164667e+01
1	 1.816140167610950e+00	 5.582426816842028e-01	 8.531405160462982e+01
1	 1.804878592264319e+00	 5.936440577077110e-01	 9.228178073784140e+01
1	 1.792869492548874e+00	 6.289824979710139e-01	 9.889103174472910e+01
1	 1.780109913338382e+00	 6.642354224972196e-01	 1.054321038825471e+02
1	 1.766597772023832e+00	 6.993799481998669e-01	 1.122041482345199e+02
1	 1.880571517101082e+00	 3.480043377576615e-01	-1.533077076183416e+01
1	 1.873642330890543e+00	 3.835631185763834e-01	-2.703306420753002e+00
1	 1.865995427125461e+00	 4.191864930909272e-01	 8.951545211980530e+00
1	 1.857623162620597e+00	 4.548543016653039e-01	 1.976171425315770e+01
1	 1.848518593312543e+00	 4.905458798416917e-01	 2.986245519298933e+01
1	 1.838675507538488e+00	 5.262400859233329e-01	 3.939605867607953e+01
1	 1.828088458184871e+00	 5.619153309059697e-01	 4.851151545885824e+01
1	 1.816752793526378e+00	 5.975496107186689e-01	 5.736413254405477e+01
1	 1.804664686575561e+00	 6.331205407200413e-01	 6.611510187780829e+01
1	 1.791821162764569e+00	 6.686053923807149e-01	 7.493102239699428e+01
1	 1.778220125783012e+00	 7.039811320676065e-01	 8.398337662947009e+01
1	 1.892862834205940e+00	 3.502788759148565e-01	-4.755603844685940e+01
1	 1.885888359196539e+00	 3.860700670655777e-01	-3.755867949473550e+01
1	 1.878191475668137e+00	 4.219262740930773e-01	-2.764948812160817e+01
1	 1.869764490480039e+00	 4.578272055990384e-01	-1.779293125343974e+01
1	 1.860600414182798e+00	 4.937520620638225e-01	-7.951778127205664e+00
1	 1.850692994514499e+00	 5.296795636096463e-01	 1.912806178270733e+00
1	 1.840036748759534e+00	 5.655879801276484e-01	 1.184115476574141e+01
1	 1.828626994789152e+00	 6.014551637294382e-01	 2.187498061093688e+01
1	 1.816459880602917e+00	 6.372585834687796e-01	 3.205724614178237e+01
1	 1.803532412191354e+00	 6.729753622638208e-01	 4.243202103499242e+01
1	 1.789842479542702e+00	 7.085823159348567e-01	 5.304432867186931e+01
1	 1.905154151311284e+00	 3.525534140725660e-01	-7.570910663579896e+01
1	 1.898134387503110e+00	 3.885770155551868e-01	-6.897055069254500e+01
1	 1.890387524211462e+00	 4.246660550955419e-01	-6.144829059640294e+01
1	 1.881905818340181e+00	 4.608001095329867e-01	-5.319831751750414e+01
1	 1.872682235053787e+00	 4.969582442860664e-01	-4.428050112571458e+01
1	 1.862710481491260e+00	 5.331190412959723e-01	-3.475848988768038e+01
1	 1.851985039334939e+00	 5.692606293492392e-01	-2.469958870941102e+01
1	 1.840501196052641e+00	 6.053607167400185e-01	-1.417461369906006e+01
1	 1.828255074630939e+00	 6.413966262172286e-01	-3.257723995301988e+00
1	 1.815243661618739e+00	 6.773453321465369e-01	 7.973769212943538e+00
1	 1.801464833302902e+00	 7.131834998016169e-01	 1.943961616130830e+01
1	 1.917445468417113e+00	 3.548279522307903e-01	-9.986828685648723e+01
1	 1.910380415810258e+00	 3.910839640452103e-01	-9.700514120343968e+01
1	 1.902583572755435e+00	 4.274058360983207e-01	-9.249875126692729e+01
1	 1.894047146201024e+00	 4.637730134671488e-01	-8.649577644726759e+01
1	 1.884764055925510e+00	 5.001644265084235e-01	-7.915228130859177e+01
1	 1.874727968468767e+00	 5.365585189823108e-01	-7.063344406853724e+01
1	 1.863933329911085e+00	 5.729332785707417e-01	-6.111320760552623e+01
1	 1.852375397316846e+00	 6.092662697504101e-01	-5.077387264816927e+01
1	 1.840050268659630e+00	 6.455346689653881e-01	-3.980563325689950e+01
1	 1.826954911046724e+00	 6.817153020288634e-01	-2.840605517626755e+01
1	 1.813087187063613e+00	 7.177846836678874e-01	-1.677949812314587e+01
1	 1.929736785523427e+00	 3.571024903895291e-01	-1.201098954385260e+02
1	 1.922626444117981e+00	 3.935909125356485e-01	-1.217269850525594e+02
1	 1.914779621300055e+00	 4.301456171014137e-01	-1.208533862181162e+02
1	 1.906188474062569e+00	 4.667459174015250e-01	-1.177255869086803e+02
1	 1.896845876797968e+00	 5.033706087308940e-01	-1.125949583473196e+02
1	 1.886745455447024e+00	 5.399979966686618e-01	-1.057272730882036e+02
1	 1.875881620487973e+00	 5.766059277921560e-01	-9.740213105480473e+01
1	 1.864249598581766e+00	 6.131718227606131e-01	-8.791229309067552e+01
1	 1.851845462688989e+00	 6.496727117132586e-01	-7.756292229709199e+01
1	 1.838666160475309e+00	 6.860852719108005e-01	-6.667073418608800e+01
1	 1.824709540824834e+00	 7.223858675336682e-01	-5.556305746051011e+01
1	 1.942028102630227e+00	 3.593770285487826e-01	-1.365083166524661e+02
1	 1.934872472426280e+00	 3.960978610265014e-01	-1.431989824921975e+02
1	 1.926975669845323e+00	 4.328853981048212e-01	-1.465633820137203e+02
1	 1.918329801924813e+00	 4.697188213361148e-01	-1.469270080495317e+02
1	 1.908927697671160e+00	 5.065767909534776e-01	-1.446356671115496e+02
1	 1.898762942426027e+00	 5.434374743550253e-01	-1.400548084370567e+02
1	 1.887829911065603e+00	 5.802785770134823e-01	-1.335687266924298e+02
1	 1.876123799847400e+00	 6.170773757706272e-01	-1.255796377832930e+02
1	 1.863640656719016e+00	 6.538107544608398e-01	-1.165066282091090e+02
1	 1.850377409904492e+00	 6.904552417923476e-01	-1.067844794382504e+02
1	 1.836331894586565e+00	 7.269870513989594e-01	-9.686236985693454e+01
1	 1.954319419737511e+00	 3.616515667085508e-01	-1.491360634663920e+02
1	 1.947118500735156e+00	 3.986048095177688e-01	-1.614824513783100e+02
1	 1.939171718391239e+00	 4.356251791085429e-01	-1.696786375051546e+02
1	 1.930471129787760e+00	 4.726917252709185e-01	-1.741383113660667e+02
1	 1.921009518545086e+00	 5.097829731761744e-01	-1.753008598326818e+02
1	 1.910780429405780e+00	 5.468769520414016e-01	-1.736305084862069e+02
1	 1.899778201643975e+00	 5.839512262347204e-01	-1.696153025904296e+02
1	 1.887998001113750e+00	 6.209829287804526e-01	-1.637659270234543e+02
1	 1.875435850749710e+00	 6.579487972081314e-01	-1.566143657693830e+02
1	 1.862088659334276e+00	 6.948252116735054e-01	-1.487124028910625e+02
1	 1.847954248348806e+00	 7.315882352637606e-01	-1.406299682744065e+02
1	 1.966610736845282e+00	 3.639261048688338e-01	-1.580638360241171e+02
1	 1.959364529044608e+00	 4.011117580094511e-01	-1.766371766203986e+02
1	 1.951367766937805e+00	 4.383649601125791e-01	-1.902478040725024e+02
1	 1.942612457651407e+00	 4.756646292059362e-01	-1.993968115670904e+02
1	 1.933091339419748e+00	 5.129891553989847e-01	-2.046163274363115e+02
1	 1.922797916386281e+00	 5.503164297277904e-01	-2.064684701474791e+02
1	 1.911726492223089e+00	 5.876238754558706e-01	-2.055441091190376e+02
1	 1.899872202380815e+00	 6.248884817900893e-01	-2.024614306011633e+02
1	 1.887231044781072e+00	 6.620868399551341e-01	-1.978643093849484e+02
1	 1.873799908764660e+00	 6.991951815542736e-01	-1.924204887038912e+02
1	 1.859576602111558e+00	 7.361894191280726e-01	-1.868195723508849e+02
1	 1.743353064507004e+00	 6.901775804629183e-01	 1.602734002818844e+02
1	 1.729274883740578e+00	 7.247298645455649e-01	 1.560697921211143e+02
1	 1.714452606980928e+00	 7.591292765506406e-01	 1.532157790229616e+02
1	 1.698886893546374e+00	 7.933525843124138e-01	 1.512846390737599e+02
1	 1.682579343755863e+00	 8.273764270649256e-01	 1.498376224563273e+02
1	 1.665532512820283e+00	 8.611773620061519e-01	 1.484255134593641e+02
1	 1.647749922022751e+00	 8.947319121182951e-01	 1.465902888962839e+02
1	 1.629236067072467e+00	 9.280166150632179e-01	 1.438668646983666e+02
1	 1.609996423530313e+00	 9.610080729608007e-01	 1.397849214561139e+02
1	 1.590037449219140e+00	 9.936830028478698e-01	 1.338707987522180e+02
1	 1.569366583547552e+00	 1.026018287606500e+00	 1.256494472731736e+02
1	 1.754975418265163e+00	 6.947787643316375e-01	 1.376526379973517e+02
1	 1.740803382960041e+00	 7.295613969744104e-01	 1.320359648660123e+02
1	 1.725882291021801e+00	 7.641901383925472e-01	 1.275337164079757e+02
1	 1.710212806164218e+00	 7.986416015392133e-01	 1.238147935685858e+02
1	 1.693796539375036e+00	 8.328922699100104e-01	 1.205385187797585e+02
1	 1.676636062899880e+00	 8.669185444175695e-01	 1.173558459667084e+02
1	 1.658734921497089e+00	 9.006967915306421e-01	 1.139106466482174e+02
1	 1.640097640847259e+00	 9.342033924955047e-01	 1.098410657771022e+02
1	 1.620729733015010e+00	 9.674147934461709e-01	 1.047809401885358e+02
1	 1.600637698875349e+00	 1.000307556199713e+00	 9.836127179126183e+01
1	 1.579829027432933e+00	 1.032858409524087e+00	 9.021174696110947e+01
1	 1.766597772023832e+00	 6.993799481998669e-01	 1.122041482345199e+02
1	 1.752331882179924e+00	 7.343929294026761e-01	 1.057169925922333e+02
1	 1.737311975063022e+00	 7.692510002338026e-01	 1.001127070923087e+02
1	 1.721538718782361e+00	 8.039306187653088e-01	 9.515485894604437e+01
1	 1.705013734994474e+00	 8.384081127543593e-01	 9.059986284776724e+01
1	 1.687739612979730e+00	 8.726597268282392e-01	 8.619784189594327e+01
1	 1.669719920971688e+00	 9.066616709422494e-01	 8.169354446068559e+01
1	 1.650959214622339e+00	 9.403901699270792e-01	 7.682731251162865e+01
1	 1.631463042500044e+00	 9.738215139308771e-01	 7.133609635147759e+01
1	 1.611237948531963e+00	 1.006932109550961e+00	 6.495451016420748e+01
1	 1.590291471318810e+00	 1.039698531441169e+00	 5.741592229062453e+01
1	 1.778220125783012e+00	 7.039811320676065e-01	 8.398337662947009e+01
1	 1.763860381400227e+00	 7.392244618303614e-01	 7.715768206421652e+01
1	 1.748741659104592e+00	 7.743118620744064e-01	 7.098684806961214e+01
1	 1.732864631400799e+00	 8.092196359907015e-01	 6.532817028657027e+01
1	 1.716230930614176e+00	 8.439239555979724e-01	 6.003419490056066e+01
1	 1.698843163059831e+00	 8.784009092381607e-01	 5.495323333695501e+01
1	 1.680704920446545e+00	 9.126265503531157e-01	 4.992991292107212e+01
1	 1.661820788397706e+00	 9.465769473579415e-01	 4.480576087002353e+01
1	 1.642196351985415e+00	 9.802282344149192e-01	 3.941981862350376e+01
1	 1.621838198188981e+00	 1.013556662901614e+00	 3.360928317912200e+01
1	 1.600753915205181e+00	 1.046538653357745e+00	 2.721017177955455e+01
1	 1.789842479542702e+00	 7.085823159348567e-01	 5.304432867186931e+01
1	 1.775388880620949e+00	 7.440559942574663e-01	 4.640167623432454e+01
1	 1.760171343146511e+00	 7.793727239143585e-01	 4.018935069733061e+01
1	 1.744190544019534e+00	 8.145086532153905e-01	 3.435745656460948e+01
1	 1.727448126234142e+00	 8.494397984408504e-01	 2.885372945782050e+01
1	 1.709946713140184e+00	 8.841420916473343e-01	 2.362370739028156e+01
1	 1.691689919921663e+00	 9.185914297632422e-01	 1.861091818591924e+01
1	 1.672682362173361e+00	 9.527637247880916e-01	 1.375708224976208e+01
1	 1.652929661471120e+00	 9.866349548982979e-01	 9.002329743471725e+00
1	 1.632438447846405e+00	 1.020181216251673e+00	 4.285431071129992e+00
1	 1.611216359092047e+00	 1.053378775273816e+00	-4.559605612302212e-01
1	 1.801464833302902e+00	 7.131834998016169e-01	 1.943961616130830e+01
1	 1.786917379842092e+00	 7.488875266839913e-01	 1.349149178516874e+01
1	 1.771601027188778e+00	 7.844335857536594e-01	 7.752569265612863e+00
1	 1.755516456638565e+00	 8.197976704393758e-01	 2.264860200425407e+00
1	 1.738665321854372e+00	 8.549556412829922e-01	-2.929634174184796e+00
1	 1.721050263220789e+00	 8.898832740557597e-01	-7.789092381617500e+00
1	 1.702674919397040e+00	 9.245563091726281e-01	-1.227204561807785e+01
1	 1.683543935949303e+00	 9.589505022175293e-01	-1.633755314903634e+01
1	 1.663662970957163e+00	 9.930416753810126e-01	-1.994537910431581e+01
1	 1.643038697504234e+00	 1.026805769601136e+00	-2.305616954362123e+01
1	 1.621678802979408e+00	 1.060218897189382e+00	-2.563162863082636e+01
1	 1.813087187063613e+00	 7.177846836678874e-01	-1.677949812314587e+01
1	 1.798445879063653e+00	 7.537190591099358e-01	-2.153144477200163e+01
1	 1.783030711231393e+00	 7.894944475923085e-01	-2.629197153258283e+01
1	 1.766842369257893e+00	 8.250866876626581e-01	-3.092804414008744e+01
1	 1.749882517474867e+00	 8.604714841243986e-01	-3.530430179960396e+01
1	 1.732153813301645e+00	 8.956244564634370e-01	-3.928356455890957e+01
1	 1.713659918872676e+00	 9.305211885812739e-01	-4.272736370080565e+01
1	 1.694405509725534e+00	 9.651372796462546e-01	-4.549649231087196e+01
1	 1.674396280443541e+00	 9.994483958630631e-01	-4.745157291977220e+01
1	 1.653638947162468e+00	 1.033430322950004e+00	-4.845363888530183e+01
1	 1.632141246867263e+00	 1.067059019104442e+00	-4.836472597195149e+01
1	 1.824709540824834e+00	 7.223858675336682e-01	-5.556305746051011e+01
1	 1.809974378285636e+00	 7.585505915353004e-01	-5.862676237846566e+01
1	 1.794460395274358e+00	 7.945553094303062e-01	-6.191355018119553e+01
1	 1.778168281877518e+00	 8.303757048852366e-01	-6.520023146405444e+01
1	 1.761099713095627e+00	 8.659873269650693e-01	-6.825897461611147e+01
1	 1.743257363382755e+00	 9.013656388703668e-01	-7.085814852226740e+01
1	 1.724644918348573e+00	 9.364860679891791e-01	-7.276320763623048e+01
1	 1.705267083502052e+00	 9.713240570742675e-01	-7.373761478115097e+01
1	 1.685129589930255e+00	 1.005855116344450e+00	-7.354379657542833e+01
1	 1.664239196821106e+00	 1.040054876298278e+00	-7.194412595828686e+01
1	 1.642603690755613e+00	 1.073899141018997e+00	-6.870192590968239e+01
1	 1.836331894586565e+00	 7.269870513989594e-01	-9.686236985693454e+01
1	 1.821502877508037e+00	 7.633821239600846e-01	-9.775511202763259e+01
1	 1.805890079317670e+00	 7.996161712676525e-01	-9.908222292407105e+01
1	 1.789494194497439e+00	 8.356647221071117e-01	-1.005312090569030e+02
1	 1.772316908716650e+00	 8.715031698050042e-01	-1.017826398670124e+02
1	 1.754360913464116e+00	 9.071068212765480e-01	-1.025113231617147e+02
1	 1.735629917824729e+00	 9.424509473963442e-01	-1.023875421230289e+02
1	 1.716128657278858e+00	 9.775108345015684e-01	-1.010783474585617e+02
1	 1.695862899417306e+00	 1.012261836825173e+00	-9.824889760527164e+01
1	 1.674839446480150e+00	 1.046679429645957e+00	-9.356383928583320e+01
1	 1.653066134644457e+00	 1.080739262933047e+00	-8.668872016593740e+01
1	 1.847954248348806e+00	 7.315882352637606e-01	-1.406299682744065e+02
1	 1.833031376730859e+00	 7.682136563842887e-01	-1.388781346250406e+02
1	 1.817319763361331e+00	 8.046770331043469e-01	-1.377687993071019e+02
1	 1.800820107117657e+00	 8.409537393282837e-01	-1.369009997440556e+02
1	 1.783534104337938e+00	 8.770190126442036e-01	-1.358645618460924e+02
1	 1.765464463545728e+00	 9.128480036819814e-01	-1.342416056341909e+02
1	 1.746614917301145e+00	 9.484158268027688e-01	-1.316081314900999e+02
1	 1.726990231055951e+00	 9.836976119281569e-01	-1.275356788292496e+02
1	 1.706596208904692e+00	 1.018668557305231e+00	-1.215930481336349e+02
1	 1.685439696139599e+00	 1.053303982993040e+00	-1.133480764849575e+02
1	 1.663528578533797e+00	 1.087579384846591e+00	-1.023694560168067e+02
1	 1.859576602111558e+00	 7.361894191280726e-01	-1.868195723508849e+02
1	 1.844559875954101e+00	 7.730451888079128e-01	-1.819584300535999e+02
1	 1.828749447405340e+00	 8.097378949403902e-01	-1.779448186375473e+02
1	 1.812146019738172e+00	 8.462427565487523e-01	-1.742901257803014e+02
1	 1.794751299959490e+00	 8.825348554826673e-01	-1.704942732397986e+02
1	 1.776568013627593e+00	 9.185891860866668e-01	-1.660475501677139e+02
1	 1.757599916777820e+00	 9.543807062084535e-01	-1.604325459581197e+02
1	 1.737851804833333e+00	 9.898843893540332e-01	-1.531261726672054e+02
1	 1.717329518392415e+00	 1.025075277784627e+00	-1.436017659817439e+02
1	 1.696039945799453e+00	 1.059928536339529e+00	-1.313312527322563e+02
1	 1.673991022423631e+00	 1.094419506759630e+00	-1.157873720564876e+02
1	 1.569366583547552e+00	 1.026018287606500e+00	 1.256494472731736e+02
1	 1.547992243692877e+00	 1.057991027143265e+00	 1.169631205905114e+02
1	 1.525923817606285e+00	 1.089578589594028e+00	 1.101221164412754e+02
1	 1.503171653821628e+00	 1.120758662325927e+00	 1.055039752072150e+02
1	 1.479747048068645e+00	 1.151509302505199e+00	 1.034800697453936e+02
1	 1.455662226709656e+00	 1.181808986997448e+00	 1.044139481523622e+02
1	 1.430930327038606e+00	 1.211636661368759e+00	 1.086597010343924e+02
1	 1.405565374500522e+00	 1.240971787758436e+00	 1.165603646103238e+02
1	 1.379582256908508e+00	 1.269794391398509e+00	 1.284463708052522e+02
1	 1.352996695754110e+00	 1.298085105561391e+00	 1.446340552079534e+02
1	 1.325825214725000e+00	 1.325825214725000e+00	 1.654242333646873e+02
1	 1.579829027432933e+00	 1.032858409524087e+00	 9.021174696110947e+01
1	 1.558312191979597e+00	 1.065044300658442e+00	 8.562249876447851e+01
1	 1.536096643052833e+00	 1.096842446859411e+00	 8.237309470785375e+01
1	 1.513192798176722e+00	 1.128230386743245e+00	 8.076637873247076e+01
1	 1.489612028385866e+00	 1.159186031190622e+00	 8.110079352778541e+01
1	 1.465366641551668e+00	 1.189687713579582e+00	 8.366905183814602e+01
1	 1.440469862550032e+00	 1.219714239113318e+00	 8.875682448430248e+01
1	 1.414935810328952e+00	 1.249244933012061e+00	 9.664145417216423e+01
1	 1.388779471953618e+00	 1.278259687342719e+00	 1.075907040510209e+02
1	 1.362016673725522e+00	 1.306739006266193e+00	 1.218615497794966e+02
1	 1.334664049490250e+00	 1.334664049490250e+00	 1.396990235612608e+02
1	 1.590291471318810e+00	 1.039698531441169e+00	 5.741592229062453e+01
1	 1.568632140266901e+00	 1.072097574173214e+00	 5.654367534376210e+01
1	 1.546269468500037e+00	 1.104106304124489e+00	 5.651376782956727e+01
1	 1.523213942532522e+00	 1.135702111160359e+00	 5.755510134746189e+01
1	 1.499477008703824e+00	 1.166862759875942e+00	 5.989392617422497e+01
1	 1.475071056394428e+00	 1.197566440161714e+00	 6.375283832998244e+01
1	 1.450009398062197e+00	 1.227791816857975e+00	 6.934978563116906e+01
1	 1.424306246158092e+00	 1.257518078265884e+00	 7.689708956659429e+01
1	 1.397976686999389e+00	 1.286724983287230e+00	 8.660048978018500e+01
1	 1.371036651697523e+00	 1.315392906971395e+00	 9.865821782084208e+01
1	 1.343502884256000e+00	 1.343502884256000e+00	 1.132601066267712e+02
1	 1.600753915205181e+00	 1.046538653357745e+00	 2.721017177955455e+01
1	 1.578952088554790e+00	 1.079150847687581e+00	 2.968230134086276e+01
1	 1.556442293947896e+00	 1.111370161389263e+00	 3.250708296681366e+01
1	 1.533235086889028e+00	 1.143173835577269e+00	 3.584021522746173e+01
1	 1.509341989022520e+00	 1.174539488561158e+00	 3.983647927605630e+01
1	 1.484775471237937e+00	 1.205445166743843e+00	 4.464905894573300e+01
1	 1.459548933575101e+00	 1.235869394602729e+00	 5.042886216744388e+01
1	 1.433676681987940e+00	 1.265791223519906e+00	 5.732384832645590e+01
1	 1.407173902045819e+00	 1.295190279232040e+00	 6.547836617941815e+01
1	 1.380056629670115e+00	 1.324046807676997e+00	 7.503250691102774e+01
1	 1.352341719022250e+00	 1.352341719022250e+00	 8.612147681865869e+01
1	 1.611216359092047e+00	 1.053378775273816e+00	-4.559605612302212e-01
1	 1.589272036843264e+00	 1.086204121201542e+00	 4.995179690024884e+00
1	 1.566615119396410e+00	 1.118634018653731e+00	 1.031694969139696e+01
1	 1.543256231246241e+00	 1.150645559993975e+00	 1.559256989382774e+01
1	 1.519206969341953e+00	 1.182216217246272e+00	 2.090606152613344e+01
1	 1.494479886082193e+00	 1.213323893325969e+00	 2.634188704694100e+01
1	 1.469088469088744e+00	 1.243946972347583e+00	 3.198458431304020e+01
1	 1.443047117818499e+00	 1.274064368774127e+00	 3.791839687984017e+01
1	 1.416371117092909e+00	 1.303655575177150e+00	 4.422690291106870e+01
1	 1.389076607643296e+00	 1.332700708382998e+00	 5.099264521145943e+01
1	 1.361180553789000e+00	 1.361180553789000e+00	 5.829676490717224e+01
1	 1.621678802979408e+00	 1.060218897189382e+00	-2.563162863082636e+01
1	 1.599591985132323e+00	 1.093257394715098e+00	-1.755977191153109e+01
1	 1.576787944845580e+00	 1.125897875917895e+00	-1.009179105900152e+01
1	 1.553277375604159e+00	 1.158117284410476e+00	-3.216232861677819e+00
1	 1.529071949662122e+00	 1.189892945931280e+00	 3.080859457485085e+00
1	 1.504184300927196e+00	 1.221202619908093e+00	 8.815904424520291e+00
1	 1.478628004603125e+00	 1.252024550092534e+00	 1.400772666928654e+01
1	 1.452417553649766e+00	 1.282337514028546e+00	 1.867748768249741e+01
1	 1.425568332140659e+00	 1.312120871122559e+00	 2.284860332361772e+01
1	 1.398096585617068e+00	 1.341354609089400e+00	 2.654664854390519e+01
1	 1.370019388556250e+00	 1.370019388556250e+00	 2.979924990076407e+01
1	 1.632141246867263e+00	 1.067059019104442e+00	-4.836472597195149e+01
1	 1.609911933421967e+00	 1.100310668228250e+00	-3.802355673319051e+01
1	 1.586960770295406e+00	 1.133161733181755e+00	-2.875339683229377e+01
1	 1.563298519962784e+00	 1.165589008826773e+00	-2.061386308811901e+01
1	 1.538936929983029e+00	 1.197569674616187e+00	-1.366038107720597e+01
1	 1.513888715772949e+00	 1.229081346490214e+00	-7.943911791930105e+00
1	 1.488167540118244e+00	 1.260102127837583e+00	-3.510699613810537e+00
1	 1.461787989481743e+00	 1.290610659283165e+00	-4.020435394593811e-01
1	 1.434765547189069e+00	 1.320586167068268e+00	 1.345906577127339e+00
1	 1.407116563591429e+00	 1.350008509796201e+00	 1.702327196247897e+00
1	 1.378858223324000e+00	 1.378858223324000e+00	 6.418703205048359e-01
1	 1.642603690755613e+00	 1.073899141018997e+00	-6.870192590968239e+01
1	 1.620231881712195e+00	 1.107363941740996e+00	-5.643613337506469e+01
1	 1.597133595745887e+00	 1.140425590445309e+00	-4.570125237263419e+01
1	 1.573319664322116e+00	 1.173060733242866e+00	-3.662728586516788e+01
1	 1.548801910304673e+00	 1.205246403300989e+00	-2.933837271832924e+01
1	 1.523593130619449e+00	 1.236960073072333e+00	-2.395220172452946e+01
1	 1.497707075634103e+00	 1.268179705582731e+00	-2.057945437096493e+01
1	 1.471158425314429e+00	 1.298883804537982e+00	-1.932328044147689e+01
1	 1.443962762238138e+00	 1.329051463014275e+00	-2.027881031254371e+01
1	 1.416136541566381e+00	 1.358662410503402e+00	-2.353270753184793e+01
1	 1.387697058092250e+00	 1.387697058092250e+00	-2.916276495636948e+01
1	 1.653066134644457e+00	 1.080739262933047e+00	-8.668872016593740e+01
1	 1.630551830003009e+00	 1.114417215253336e+00	-7.283644882714472e+01
1	 1.607306421197023e+00	 1.147689447708559e+00	-6.096789724079153e+01
1	 1.583340808682154e+00	 1.180532457658756e+00	-5.128278361226277e+01
1	 1.558666890627054e+00	 1.212923131985688e+00	-4.397330373564114e+01
1	 1.533297545466696e+00	 1.244838799654449e+00	-3.922323485940262e+01
1	 1.507246611150701e+00	 1.276257283327976e+00	-3.720707566892856e+01
1	 1.480528861147824e+00	 1.307156949792999e+00	-3.808922861177719e+01
1	 1.453159977287867e+00	 1.337516758960583e+00	-4.202323050715129e+01
1	 1.425156519541922e+00	 1.367316311211003e+00	-4.915103703184049e+01
1	 1.396535892861000e+00	 1.396535892861000e+00	-5.960236626469148e+01
1	 1.663528578533797e+00	 1.087579384846591e+00	-1.023694560168067e+02
1	 1.640871778294408e+00	 1.121470488765272e+00	-8.726247028094174e+01
1	 1.617479246648815e+00	 1.154953304971504e+00	-7.458505239224198e+01
1	 1.593361953042898e+00	 1.188004182074440e+00	-6.460597755591007e+01
1	 1.568531870950172e+00	 1.220599860670283e+00	-5.758485451790777e+01
1	 1.543001960314693e+00	 1.252717526236562e+00	-5.377092170189891e+01
1	 1.516786146668037e+00	 1.284334861073320e+00	-5.340188678032657e+01
1	 1.489899296981929e+00	 1.315430095048214e+00	-5.670281802630297e+01
1	 1.462357192338255e+00	 1.345982054907189e+00	-6.388509545368842e+01
1	 1.434176497518053e+00	 1.375970211919004e+00	-7.514542932684279e+01
1	 1.405374727630250e+00	 1.405374727630250e+00	-9.066495311324690e+01
1	 1.673991022423631e+00	 1.094419506759630e+00	-1.157873720564876e+02
1	 1.651191726586392e+00	 1.128523762276803e+00	-9.975121574818714e+01
1	 1.627652072101263e+00	 1.162217162234144e+00	-8.658364575858594e+01
1	 1.603383097404348e+00	 1.195475906489921e+00	-7.662184839196377e+01
1	 1.578396851274028e+00	 1.228276589354776e+00	-7.019221344418618e+01
1	 1.552706375163437e+00	 1.260596252818672e+00	-6.760882499474334e+01
1	 1.526325682186112e+00	 1.292412438818762e+00	-6.917200289597524e+01
1	 1.499269732816743e+00	 1.323703240303628e+00	-7.516690541160034e+01
1	 1.471554407389304e+00	 1.354447350854096e+00	-8.586220306297224e+01
1	 1.443196475494775e+00	 1.384624112627405e+00	-1.015088332393842e+02
1	 1.414213562400000e+00	 1.414213562400000e+00	-1.223388445230891e+02
1	 1.325825214725000e+00	 1.325825214725000e+00	 1.654242333646873e+02
1	 1.298085105561391e+00	 1.352996695754110e+00	 1.902136929738737e+02
1	 1.269794391398509e+00	 1.379582256908508e+00	 2.062600850080610e+02
1	 1.240971787758436e+00	 1.405565374500522e+00	 2.131774248023741e+02
1	 1.211636661368759e+00	 1.430930327038606e+00	 2.106161030146134e+02
1	 1.181808986997448e+00	 1.455662226709656e+00	 1.982642409864229e+02
1	 1.151509302505200e+00	 1.479747048068645e+00	 1.758488383112220e+02
1	 1.120758662325928e+00	 1.503171653821628e+00	 1.431367061955943e+02
1	 1.089578589594029e+00	 1.525923817606285e+00	 9.993518203780312e+01
1	 1.057991027143266e+00	 1.547992243692877e+00	 4.609262251293381e+01
1	 1.026018287606500e+00	 1.569366583547552e+00	-1.850132567444477e+01
1	 1.334664049490250e+00	 1.334664049490250e+00	 1.396990235612608e+02
1	 1.306739006266193e+00	 1.362016673725522e+00	 1.586777508476113e+02
1	 1.278259687342720e+00	 1.388779471953618e+00	 1.710079689987085e+02
1	 1.249244933012061e+00	 1.414935810328952e+00	 1.763659960622495e+02
1	 1.219714239113318e+00	 1.440469862550032e+00	 1.744562432575459e+02
1	 1.189687713579582e+00	 1.465366641551668e+00	 1.650123706754503e+02
1	 1.159186031190623e+00	 1.489612028385866e+00	 1.477982811652653e+02
1	 1.128230386743246e+00	 1.513192798176721e+00	 1.226089467435881e+02
1	 1.096842446859412e+00	 1.536096643052833e+00	 8.927106330216552e+01
1	 1.065044300658443e+00	 1.558312191979596e+00	 4.764353086302283e+01
1	 1.032858409524087e+00	 1.579829027432933e+00	-2.382241889061795e+00
1	 1.343502884256000e+00	 1.343502884256000e+00	 1.132601066267712e+02
1	 1.315392906971395e+00	 1.371036651697524e+00	 1.267848795918316e+02
1	 1.286724983287230e+00	 1.397976686999389e+00	 1.357280188060802e+02
1	 1.257518078265884e+00	 1.424306246158092e+00	 1.398275372915075e+02
1	 1.227791816857975e+00	 1.450009398062197e+00	 1.388413329617686e+02
1	 1.197566440161714e+00	 1.475071056394428e+00	 1.325481463328165e+02
1	 1.166862759875943e+00	 1.499477008703824e+00	 1.207484020304321e+02
1	 1.135702111160360e+00	 1.523213942532522e+00	 1.032649291718789e+02
1	 1.104106304124490e+00	 1.546269468500036e+00	 7.994355674923152e+01
1	 1.072097574173215e+00	 1.568632140266900e+00	 5.065358122151060e+01
1	 1.039698531441169e+00	 1.590291471318810e+00	 1.528810461798319e+01
1	 1.352341719022250e+00	 1.352341719022250e+00	 8.612147681865869e+01
1	 1.324046807676997e+00	 1.380056629670115e+00	 9.454207781691476e+01
1	 1.295190279232041e+00	 1.407173902045819e+00	 1.004207801984435e+02
1	 1.265791223519906e+00	 1.433676681987940e+00	 1.035566961377034e+02
1	 1.235869394602730e+00	 1.459548933575101e+00	 1.037606868435108e+02
1	 1.205445166743843e+00	 1.484775471237936e+00	 1.008561239195686e+02
1	 1.174539488561159e+00	 1.509341989022520e+00	 9.467957976872903e+01
1	 1.143173835577269e+00	 1.533235086889027e+00	 8.508144285466875e+01
1	 1.111370161389264e+00	 1.556442293947895e+00	 7.192645429611453e+01
1	 1.079150847687582e+00	 1.578952088554790e+00	 5.509416295973425e+01
1	 1.046538653357745e+00	 1.600753915205181e+00	 3.447929692936743e+01
1	 1.361180553789000e+00	 1.361180553789000e+00	 5.829676490717224e+01
1	 1.332700708382998e+00	 1.389076607643297e+00	 6.195616235115775e+01
1	 1.303655575177150e+00	 1.416371117092909e+00	 6.508678476826883e+01
1	 1.274064368774127e+00	 1.443047117818499e+00	 6.754825927052700e+01
1	 1.243946972347583e+00	 1.469088469088743e+00	 6.920389715883105e+01
1	 1.213323893325970e+00	 1.494479886082192e+00	 6.992126054061245e+01
1	 1.182216217246271e+00	 1.519206969341952e+00	 6.957270288210056e+01
1	 1.150645559993975e+00	 1.543256231246240e+00	 6.803588003954651e+01
1	 1.118634018653732e+00	 1.566615119396410e+00	 6.519422858934524e+01
1	 1.086204121201543e+00	 1.589272036843264e+00	 6.093740858223529e+01
1	 1.053378775273816e+00	 1.611216359092047e+00	 5.516170817756348e+01
1	 1.370019388556250e+00	 1.370019388556250e+00	 2.979924990076407e+01
1	 1.341354609089400e+00	 1.398096585617068e+00	 2.903377410471619e+01
1	 1.312120871122559e+00	 1.425568332140659e+00	 2.972655038951013e+01
1	 1.282337514028547e+00	 1.452417553649766e+00	 3.179714789722230e+01
1	 1.252024550092534e+00	 1.478628004603124e+00	 3.516082475072061e+01
1	 1.221202619908093e+00	 1.504184300927196e+00	 3.972890150458994e+01
1	 1.189892945931281e+00	 1.529071949662122e+00	 4.540915307243186e+01
1	 1.158117284410477e+00	 1.553277375604159e+00	 5.210621639996091e+01
1	 1.125897875917896e+00	 1.576787944845579e+00	 5.972201104585661e+01
1	 1.093257394715099e+00	 1.599591985132322e+00	 6.815616975472111e+01
1	 1.060218897189382e+00	 1.621678802979408e+00	 7.730647605936186e+01
1	 1.378858223324000e+00	 1.378858223324000e+00	 6.418703205048359e-01
1	 1.350008509796201e+00	 1.407116563591429e+00	-4.218616291995663e+00
1	 1.320586167068267e+00	 1.434765547189069e+00	-5.659418342696672e+00
1	 1.290610659283165e+00	 1.461787989481743e+00	-3.701586549516487e+00
1	 1.260102127837583e+00	 1.488167540118244e+00	 1.621590440549964e+00
1	 1.229081346490215e+00	 1.513888715772948e+00	 1.026476788145126e+01
1	 1.197569674616187e+00	 1.538936929983029e+00	 2.217078943385741e+01
1	 1.165589008826774e+00	 1.563298519962784e+00	 3.727099233567370e+01
1	 1.133161733181756e+00	 1.586960770295405e+00	 5.548557073855223e+01
1	 1.100310668228251e+00	 1.609911933421966e+00	 7.672399425402870e+01
1	 1.067059019104442e+00	 1.632141246867263e+00	 1.008854783306051e+02
1	 1.387697058092250e+00	 1.387697058092250e+00	-2.916276495636948e+01
1	 1.358662410503402e+00	 1.416136541566380e+00	-3.779470306538279e+01
1	 1.329051463014275e+00	 1.443962762238138e+00	-4.107062968914251e+01
1	 1.298883804537982e+00	 1.471158425314429e+00	-3.895276655885067e+01
1	 1.268179705582731e+00	 1.497707075634103e+00	-3.142343325149933e+01
1	 1.236960073072333e+00	 1.523593130619448e+00	-1.848505546446618e+01
1	 1.205246403300989e+00	 1.548801910304673e+00	-1.600667508119393e-01
1	 1.173060733242868e+00	 1.573319664322116e+00	 2.350929498784492e+01
1	 1.140425590445310e+00	 1.597133595745886e+00	 5.246129408878605e+01
1	 1.107363941740996e+00	 1.620231881712195e+00	 8.661510379898078e+01
1	 1.073899141018997e+00	 1.642603690755613e+00	 1.258713092374283e+02
1	 1.396535892861000e+00	 1.396535892861000e+00	-5.960236626469148e+01
1	 1.367316311211003e+00	 1.425156519541922e+00	-7.168834008168203e+01
1	 1.337516758960583e+00	 1.453159977287867e+00	-7.650660435971173e+01
1	 1.307156949792999e+00	 1.480528861147824e+00	-7.396109253161228e+01
1	 1.276257283327977e+00	 1.507246611150701e+00	-6.398363007158546e+01
1	 1.244838799654449e+00	 1.533297545466696e+00	-4.653413138691708e+01
1	 1.212923131985688e+00	 1.558666890627054e+00	-2.160064663631411e+01
1	 1.180532457658757e+00	 1.583340808682153e+00	 1.080074093709061e+01
1	 1.147689447708560e+00	 1.607306421197023e+00	 5.062616533002494e+01
1	 1.114417215253337e+00	 1.630551830003009e+00	 9.780437272310542e+01
1	 1.080739262933047e+00	 1.653066134644457e+00	 1.522372568425159e+02
1	 1.405374727630250e+00	 1.405374727630250e+00	-9.066495311324690e+01
1	 1.375970211919004e+00	 1.434176497518053e+00	-1.058935358268417e+02
1	 1.345982054907189e+00	 1.462357192338255e+00	-1.119668751219017e+02
1	 1.315430095048214e+00	 1.489899296981929e+00	-1.087311466195595e+02
1	 1.284334861073321e+00	 1.516786146668037e+00	-9.606814769678809e+01
1	 1.252717526236562e+00	 1.543001960314692e+00	-7.389568153579576e+01
1	 1.220599860670284e+00	 1.568531870950172e+00	-4.216774788922563e+01
1	 1.188004182074441e+00	 1.593361953042897e+00	-8.745404455563559e-01
1	 1.154953304971505e+00	 1.617479246648815e+00	 4.995774770872072e+01
1	 1.121470488765273e+00	 1.640871778294407e+00	 1.102673074521642e+02
1	 1.087579384846591e+00	 1.663528578533797e+00	 1.799572812069684e+02
1	 1.414213562400000e+00	 1.414213562400000e+00	-1.223388445230891e+02
1	 1.384624112627405e+00	 1.443196475494774e+00	-1.404044485746575e+02
1	 1.354447350854096e+00	 1.471554407389304e+00	-1.474509864240216e+02
1	 1.323703240303628e+00	 1.499269732816743e+00	-1.432673964206610e+02
1	 1.292412438818763e+00	 1.526325682186112e+00	-1.276859051122656e+02
1	 1.260596252818672e+00	 1.552706375163436e+00	-1.005825970197582e+02
1	 1.228276589354776e+00	 1.578396851274027e+00	-6.187774823446642e+01
1	 1.195475906489922e+00	 1.603383097404348e+00	-1.153592302334703e+01
1	 1.162217162234145e+00	 1.627652072101262e+00	 5.043416539015863e+01
1	 1.128523762276804e+00	 1.651191726586391e+00	 1.239800267512690e+02
1	 1.094419506759630e+00	 1.673991022423631e+00	 2.090059933903601e+02
1	 1.026018287606500e+00	 1.569366583547552e+00	-1.850132567444477e+01
1	 9.936830028478698e-01	 1.590037449219140e+00	-9.061593519258066e+01
1	 9.610080729608007e-01	 1.609996423530313e+00	-1.395729178620801e+02
1	 9.280166150632180e-01	 1.629236067072467e+00	-1.652600990180627e+02
1	 8.947319121182953e-01	 1.647749922022751e+00	-1.676553375774604e+02
1	 8.611773620061525e-01	 1.665532512820283e+00	-1.468250117473155e+02
1	 8.273764270649263e-01	 1.682579343755863e+00	-1.029220742621797e+02
1	 7.933525843124147e-01	 1.698886893546373e+00	-3.618370002829122e+01
1	 7.591292765506416e-01	 1.714452606980927e+00	 5.307144825906534e+01
1	 7.247298645455660e-01	 1.729274883740578e+00	 1.644463086052559e+02
1	 6.901775804629183e-01	 1.743353064507004e+00	 2.974688323917744e+02
1	 1.032858409524087e+00	 1.579829027432933e+00	-2.382241889061795e+00
1	 1.000307556199713e+00	 1.600637698875349e+00	-5.880911033367394e+01
1	 9.674147934461709e-01	 1.620729733015011e+00	-9.724528983547023e+01
1	 9.342033924955050e-01	 1.640097640847259e+00	-1.175635918080669e+02
1	 9.006967915306425e-01	 1.658734921497089e+00	-1.197079388770925e+02
1	 8.669185444175702e-01	 1.676636062899880e+00	-1.036923266692255e+02
1	 8.328922699100108e-01	 1.693796539375036e+00	-6.959944123455594e+01
1	 7.986416015392142e-01	 1.710212806164218e+00	-1.757894928429577e+01
1	 7.641901383925483e-01	 1.725882291021801e+00	 5.215451938308395e+01
1	 7.295613969744115e-01	 1.740803382960041e+00	 1.393236759621696e+02
1	 6.947787643316375e-01	 1.754975418265163e+00	 2.435911402631631e+02
1	 1.039698531441169e+00	 1.590291471318810e+00	 1.528810461798319e+01
1	 1.006932109550961e+00	 1.611237948531963e+00	-2.561206634128794e+01
1	 9.738215139308771e-01	 1.631463042500044e+00	-5.361972293414685e+01
1	 9.403901699270795e-01	 1.650959214622338e+00	-6.859298898161785e+01
1	 9.066616709422495e-01	 1.669719920971687e+00	-7.044234520560263e+01
1	 8.726597268282396e-01	 1.687739612979729e+00	-5.913006281526289e+01
1	 8.384081127543602e-01	 1.705013734994474e+00	-3.466937814340520e+01
1	 8.039306187653098e-01	 1.721538718782360e+00	 2.876580135089640e+00
1	 7.692510002338034e-01	 1.737311975063022e+00	 5.339609797367578e+01
1	 7.343929294026771e-01	 1.752331882179924e+00	 1.167304023702861e+02
1	 6.993799481998668e-01	 1.766597772023833e+00	 1.926753911668928e+02
1	 1.046538653357745e+00	 1.600753915205181e+00	 3.447929692936743e+01
1	 1.013556662901614e+00	 1.621838198188981e+00	 8.947937585006761e+00
1	 9.802282344149195e-01	 1.642196351985414e+00	-8.721666940501638e+00
1	 9.465769473579416e-01	 1.661820788397706e+00	-1.837327280589981e+01
1	 9.126265503531162e-01	 1.680704920446545e+00	-1.988440352307124e+01
1	 8.784009092381612e-01	 1.698843163059831e+00	-1.316625114135667e+01
1	 8.439239555979734e-01	 1.716230930614175e+00	 1.836596775491230e+00
1	 8.092196359907021e-01	 1.732864631400798e+00	 2.514659845293694e+01
1	 7.743118620744075e-01	 1.748741659104592e+00	 5.675386035626062e+01
1	 7.392244618303623e-01	 1.763860381400226e+00	 9.661689255547978e+01
1	 7.039811320676067e-01	 1.778220125783012e+00	 1.446635077900571e+02
1	 1.053378775273816e+00	 1.611216359092047e+00	 5.516170817756348e+01
1	 1.020181216251672e+00	 1.632438447846405e+00	 4.484435027679248e+01
1	 9.866349548982980e-01	 1.652929661471120e+00	 3.742408939637810e+01
1	 9.527637247880920e-01	 1.672682362173361e+00	 3.307122334195655e+01
1	 9.185914297632424e-01	 1.691689919921662e+00	 3.194071056003462e+01
1	 8.841420916473348e-01	 1.709946713140184e+00	 3.417180547334114e+01
1	 8.494397984408509e-01	 1.727448126234142e+00	 3.988778394182897e+01
1	 8.145086532153912e-01	 1.744190544019534e+00	 4.919575848393330e+01
1	 7.793727239143596e-01	 1.760171343146511e+00	 6.218658217249200e+01
1	 7.440559942574673e-01	 1.775388880620949e+00	 7.893483943257623e+01
1	 7.085823159348565e-01	 1.789842479542702e+00	 9.949892132140897e+01
1	 1.060218897189382e+00	 1.621678802979408e+00	 7.730647605936186e+01
1	 1.026805769601136e+00	 1.643038697504233e+00	 8.205130575709111e+01
1	 9.930416753810124e-01	 1.663662970957163e+00	 8.479339703705656e+01
1	 9.589505022175296e-01	 1.683543935949304e+00	 8.571679404293815e+01
1	 9.245563091726284e-01	 1.702674919397039e+00	 8.500847112641857e+01
1	 8.898832740557604e-01	 1.721050263220789e+00	 8.285750874010898e+01
1	 8.549556412829928e-01	 1.738665321854372e+00	 7.945427602253955e+01
1	 8.197976704393767e-01	 1.755516456638565e+00	 7.498962522819622e+01
1	 7.844335857536603e-01	 1.771601027188778e+00	 6.965410291844029e+01
1	 7.488875266839924e-01	 1.786917379842091e+00	 6.363718255086960e+01
1	 7.131834998016169e-01	 1.801464833302902e+00	 5.712652279001433e+01
1	 1.067059019104442e+00	 1.632141246867263e+00	 1.008854783306051e+02
1	 1.033430322950004e+00	 1.653638947162467e+00	 1.205436012790994e+02
1	 9.994483958630631e-01	 1.674396280443540e+00	 1.333627261482342e+02
1	 9.651372796462548e-01	 1.694405509725534e+00	 1.395403417092878e+02
1	 9.305211885812740e-01	 1.713659918872676e+00	 1.392949811284594e+02
1	 8.956244564634376e-01	 1.732153813301645e+00	 1.328649423776286e+02
1	 8.604714841243993e-01	 1.749882517474867e+00	 1.205069325392516e+02
1	 8.250866876626589e-01	 1.766842369257893e+00	 1.024946466345660e+02
1	 7.894944475923095e-01	 1.783030711231393e+00	 7.911729184669601e+01
1	 7.537190591099371e-01	 1.798445879063653e+00	 5.067806813789514e+01
1	 7.177846836678873e-01	 1.813087187063613e+00	 1.749261627549481e+01
1	 1.073899141018997e+00	 1.642603690755613e+00	 1.258713092374283e+02
1	 1.040054876298278e+00	 1.664239196821106e+00	 1.602966762042099e+02
1	 1.005855116344450e+00	 1.685129589930255e+00	 1.831091463828081e+02
1	 9.713240570742678e-01	 1.705267083502052e+00	 1.945193572268170e+02
1	 9.364860679891795e-01	 1.724644918348573e+00	 1.947769523605102e+02
1	 9.013656388703671e-01	 1.743257363382755e+00	 1.841688503920055e+02
1	 8.659873269650699e-01	 1.761099713095627e+00	 1.630173554461647e+02
1	 8.303757048852374e-01	 1.778168281877517e+00	 1.316781254812132e+02
1	 7.945553094303071e-01	 1.794460395274357e+00	 9.053801517157486e+01
1	 7.585505915353016e-01	 1.809974378285635e+00	 4.001281067017966e+01
1	 7.223858675336681e-01	 1.824709540824833e+00	-1.945512609357944e+01
1	 1.080739262933047e+00	 1.653066134644457e+00	 1.522372568425159e+02
1	 1.046679429645956e+00	 1.674839446480151e+00	 2.012865916821284e+02
1	 1.012261836825172e+00	 1.695862899417306e+00	 2.340103079087855e+02
1	 9.775108345015685e-01	 1.716128657278857e+00	 2.506319013323330e+02
1	 9.424509473963443e-01	 1.735629917824729e+00	 2.514316861917539e+02
1	 9.071068212765485e-01	 1.754360913464115e+00	 2.367446161815929e+02
1	 8.715031698050051e-01	 1.772316908716650e+00	 2.069578656353507e+02
1	 8.356647221071125e-01	 1.789494194497438e+00	 1.625081923240847e+02
1	 7.996161712676533e-01	 1.805890079317670e+00	 1.038791045196988e+02
1	 7.633821239600858e-01	 1.821502877508038e+00	 3.159785590333760e+01
1	 7.269870513989594e-01	 1.836331894586565e+00	-5.376770743237923e+01
1	 1.087579384846591e+00	 1.663528578533797e+00	 1.799572812069684e+02
1	 1.053303982993040e+00	 1.685439696139599e+00	 2.434900110977894e+02
1	 1.018668557305232e+00	 1.706596208904692e+00	 2.860444231541031e+02
1	 9.836976119281569e-01	 1.726990231055951e+00	 3.078565866937839e+02
1	 9.484158268027693e-01	 1.746614917301144e+00	 3.092370550261058e+02
1	 9.128480036819818e-01	 1.765464463545728e+00	 2.905682424303225e+02
1	 8.770190126442042e-01	 1.783534104337938e+00	 2.523014803286413e+02
1	 8.409537393282845e-01	 1.800820107117657e+00	 1.949537794661497e+02
1	 8.046770331043480e-01	 1.817319763361330e+00	 1.191043265711127e+02
1	 7.682136563842901e-01	 1.833031376730859e+00	 2.539074529725845e+01
1	 7.315882352637607e-01	 1.847954248348806e+00	-8.549484775881996e+01
1	 1.094419506759630e+00	 1.673991022423631e+00	 2.090059933903601e+02
1	 1.059928536339529e+00	 1.696039945799453e+00	 2.868841812514975e+02
1	 1.025075277784627e+00	 1.717329518392415e+00	 3.391902492359930e+02
1	 9.898843893540332e-01	 1.737851804833332e+00	 3.661725606624231e+02
1	 9.543807062084537e-01	 1.757599916777820e+00	 3.681714844573867e+02
1	 9.185891860866674e-01	 1.776568013627593e+00	 3.456163317550338e+02
1	 8.825348554826680e-01	 1.794751299959490e+00	 2.990218913173245e+02
1	 8.462427565487531e-01	 1.812146019738171e+00	 2.289845959028051e+02
1	 8.097378949403913e-01	 1.828749447405340e+00	 1.361783538388707e+02
1	 7.730451888079141e-01	 1.844559875954101e+00	 2.135008177534641e+01
1	 7.361894191280726e-01	 1.859576602111558e+00	-1.146850240903527e+02
1	 6.901775804629183e-01	 1.743353064507004e+00	 2.974688323917744e+02
1	 6.554954827290597e-01	 1.756687414487810e+00	 4.459985431228492e+02
1	 6.207064124720911e-01	 1.769279104497503e+00	 5.538826659835437e+02
1	 5.858329516852290e-01	 1.781130189742346e+00	 6.218253655958498e+02
1	 5.508973832404049e-01	 1.792243586465333e+00	 6.506537684972322e+02
1	 5.159216528644688e-01	 1.802623046614941e+00	 6.413109136077921e+02
1	 4.809273331759799e-01	 1.812273130706186e+00	 5.948483703290992e+02
1	 4.459355898653843e-01	 1.821199179046478e+00	 5.124185833403275e+02
1	 4.109671500863636e-01	 1.829407281501319e+00	 3.952670026589515e+02
1	 3.760422731112888e-01	 1.836904245976013e+00	 2.447240565079750e+02
1	 3.411807232891650e-01	 1.843697565789419e+00	 6.219702302106863e+01
1	 6.947787643316375e-01	 1.754975418265163e+00	 2.435911402631631e+02
1	 6.598654526133345e-01	 1.768398663912796e+00	 3.666801259101157e+02
1	 6.248444552216971e-01	 1.781074298522854e+00	 4.572682624472815e+02
1	 5.897385046965644e-01	 1.793004391002975e+00	 5.158568890380348e+02
1	 5.545700324623483e-01	 1.804191877037771e+00	 5.430480169829809e+02
1	 5.193611305507445e-01	 1.814640533588709e+00	 5.395388477652706e+02
1	 4.841335153977708e-01	 1.824354951574237e+00	 5.061160073393921e+02
1	 4.489084937984773e-01	 1.833340506903816e+00	 4.436495437704432e+02
1	 4.137069310875708e-01	 1.841603330042052e+00	 3.530867350772172e+02
1	 3.785492215992395e-01	 1.849150274280280e+00	 2.354457534502627e+02
1	 3.434552614448158e-01	 1.855988882892821e+00	 9.180923093699049e+01
1	 6.993799481998668e-01	 1.766597772023833e+00	 1.926753911668928e+02
1	 6.642354224972193e-01	 1.780109913338382e+00	 2.898124232925994e+02
1	 6.289824979710141e-01	 1.792869492548873e+00	 3.624920480017884e+02
1	 5.936440577077111e-01	 1.804878592264319e+00	 4.110151882517868e+02
1	 5.582426816842031e-01	 1.816140167610950e+00	 4.357613368699359e+02
1	 5.228006082370326e-01	 1.826658020563224e+00	 4.371846285967029e+02
1	 4.873396976196750e-01	 1.836436772443023e+00	 4.158096766345491e+02
1	 4.518813977317842e-01	 1.845481834761856e+00	 3.722272089448979e+02
1	 4.164467120890923e-01	 1.853799378583433e+00	 3.070895395246595e+02
1	 3.810561700876046e-01	 1.861396302585124e+00	 2.211059095517843e+02
1	 3.457297996009814e-01	 1.868280199996709e+00	 1.150377326382924e+02
1	 7.039811320676067e-01	 1.778220125783012e+00	 1.446635077900571e+02
1	 6.686053923807149e-01	 1.791821162764569e+00	 2.153473820438747e+02
1	 6.331205407200413e-01	 1.804664686575561e+00	 2.695179797242344e+02
1	 5.975496107186692e-01	 1.816752793526378e+00	 3.072781695947713e+02
1	 5.619153309059700e-01	 1.828088458184871e+00	 3.287874718562020e+02
1	 5.262400859233336e-01	 1.838675507538488e+00	 3.342596708732423e+02
1	 4.905458798416924e-01	 1.848518593312543e+00	 3.239602403267768e+02
1	 4.548543016653047e-01	 1.857623162620597e+00	 2.982036042612143e+02
1	 4.191864930909281e-01	 1.865995427125461e+00	 2.573502577268625e+02
1	 3.835631185763844e-01	 1.873642330890543e+00	 2.018037707124449e+02
1	 3.480043377576615e-01	 1.880571517101082e+00	 1.320076988366058e+02
1	 7.085823159348565e-01	 1.789842479542702e+00	 9.949892132140897e+01
1	 6.729753622638208e-01	 1.803532412191355e+00	 1.432381970732935e+02
1	 6.372585834687796e-01	 1.816459880602917e+00	 1.783109508716334e+02
1	 6.014551637294383e-01	 1.828626994789152e+00	 2.046243132855037e+02
1	 5.655879801276489e-01	 1.840036748759533e+00	 2.221203281412284e+02
1	 5.296795636096469e-01	 1.850692994514499e+00	 2.307750928784697e+02
1	 4.937520620638231e-01	 1.860600414182798e+00	 2.305977589149529e+02
1	 4.578272055990393e-01	 1.869764490480038e+00	 2.216294038078445e+02
1	 4.219262740930783e-01	 1.878191475668138e+00	 2.039417874684154e+02
1	 3.860700670655788e-01	 1.885888359196539e+00	 1.776360050164731e+02
1	 3.502788759148565e-01	 1.892862834205940e+00	 1.428410490561262e+02
1	 7.131834998016169e-01	 1.801464833302902e+00	 5.712652279001433e+01
1	 6.773453321465368e-01	 1.815243661618740e+00	 7.343927116353656e+01
1	 6.413966262172285e-01	 1.828255074630939e+00	 8.883676068148343e+01
1	 6.053607167400187e-01	 1.840501196052642e+00	 1.030326548917148e+02
1	 5.692606293492394e-01	 1.851985039334938e+00	 1.157539691838425e+02
1	 5.331190412959727e-01	 1.862710481491259e+00	 1.267417259725132e+02
1	 4.969582442860671e-01	 1.872682235053787e+00	 1.357515171431226e+02
1	 4.608001095329875e-01	 1.881905818340180e+00	 1.425539739547838e+02
1	 4.246660550955427e-01	 1.890387524211462e+00	 1.469351453006915e+02
1	 3.885770155551879e-01	 1.898134387503110e+00	 1.486967858877690e+02
1	 3.525534140725660e-01	 1.905154151311284e+00	 1.476565565106305e+02
1	 7.177846836678873e-01	 1.813087187063613e+00	 1.749261627549481e+01
1	 6.817153020288633e-01	 1.826954911046724e+00	 5.906176256721835e+00
1	 6.455346689653881e-01	 1.840050268659631e+00	 1.062085333926007e+00
1	 6.092662697504103e-01	 1.852375397316846e+00	 2.482767530691305e+00
1	 5.729332785707419e-01	 1.863933329911085e+00	 9.682610661879892e+00
1	 5.365585189823112e-01	 1.874727968468767e+00	 2.217012378830831e+01
1	 5.001644265084243e-01	 1.884764055925510e+00	 3.945004886443230e+01
1	 4.637730134671497e-01	 1.894047146201024e+00	 6.102541526762761e+01
1	 4.274058360983216e-01	 1.902583572755435e+00	 8.639952683778816e+01
1	 3.910839640452114e-01	 1.910380415810258e+00	 1.150778720469714e+02
1	 3.548279522307902e-01	 1.917445468417113e+00	 1.465699489467635e+02
1	 7.223858675336681e-01	 1.824709540824833e+00	-1.945512609357944e+01
1	 6.860852719108003e-01	 1.838666160475309e+00	-5.940438377996780e+01
1	 6.496727117132584e-01	 1.851845462688989e+00	-8.504554997635944e+01
1	 6.131718227606133e-01	 1.864249598581766e+00	-9.704525525013169e+01
1	 5.766059277921564e-01	 1.875881620487973e+00	-9.609938437555607e+01
1	 5.399979966686622e-01	 1.886745455447023e+00	-8.292942892358545e+01
1	 5.033706087308947e-01	 1.896845876797968e+00	-5.827883904514191e+01
1	 4.667459174015257e-01	 1.906188474062568e+00	-2.290939718018543e+01
1	 4.301456171014146e-01	 1.914779621300055e+00	 2.240236474815901e+01
1	 3.935909125356498e-01	 1.922626444117981e+00	 7.686868441283406e+01
1	 3.571024903895291e-01	 1.929736785523427e+00	 1.396940056334409e+02
1	 7.269870513989594e-01	 1.836331894586565e+00	-5.376770743237923e+01
1	 6.904552417923476e-01	 1.850377409904493e+00	-1.225346089747012e+02
1	 6.538107544608396e-01	 1.863640656719015e+00	-1.695177979077053e+02
1	 6.170773757706274e-01	 1.876123799847400e+00	-1.955708159424844e+02
1	 5.802785770134827e-01	 1.887829911065603e+00	-2.015975101717388e+02
1	 5.434374743550259e-01	 1.898762942426027e+00	-1.885469077860480e+02
1	 5.065767909534783e-01	 1.908927697671160e+00	-1.574080436811918e+02
1	 4.697188213361155e-01	 1.918329801924813e+00	-1.092047750259772e+02
1	 4.328853981048221e-01	 1.926975669845323e+00	-4.499061545596368e+01
1	 3.960978610265026e-01	 1.934872472426280e+00	 3.415638008330420e+01
1	 3.593770285487826e-01	 1.942028102630226e+00	 1.271386506681086e+02
1	 7.315882352637607e-01	 1.847954248348806e+00	-8.549484775881996e+01
1	 6.948252116735053e-01	 1.862088659334276e+00	-1.835256377197016e+02
1	 6.579487972081315e-01	 1.875435850749710e+00	-2.523855148251375e+02
1	 6.209829287804527e-01	 1.887998001113750e+00	-2.931128289250867e+02
1	 5.839512262347207e-01	 1.899778201643975e+00	-3.068171227499823e+02
1	 5.468769520414020e-01	 1.910780429405780e+00	-2.946725406075524e+02
1	 5.097829731761752e-01	 1.921009518545087e+00	-2.579111439734004e+02
1	 4.726917252709194e-01	 1.930471129787759e+00	-1.978161792998722e+02
1	 4.356251791085438e-01	 1.939171718391240e+00	-1.157153417344093e+02
1	 3.986048095177700e-01	 1.947118500735156e+00	-1.297407647514329e+01
1	 3.616515667085508e-01	 1.954319419737511e+00	 1.090110427620151e+02
1	 7.361894191280726e-01	 1.859576602111558e+00	-1.146850240903527e+02
1	 6.991951815542736e-01	 1.873799908764660e+00	-2.424175799473674e+02
1	 6.620868399551343e-01	 1.887231044781072e+00	-3.336787856845397e+02
1	 6.248884817900895e-01	 1.899872202380815e+00	-3.896897357171822e+02
1	 5.876238754558710e-01	 1.911726492223089e+00	-4.117634442330221e+02
1	 5.503164297277909e-01	 1.922797916386281e+00	-4.012967995013724e+02
1	 5.129891553989854e-01	 1.933091339419748e+00	-3.597623793782350e+02
1	 4.756646292059370e-01	 1.942612457651407e+00	-2.887001845062927e+02
1	 4.383649601125800e-01	 1.951367766937804e+00	-1.897093438480664e+02
1	 4.011117580094523e-01	 1.959364529044608e+00	-6.443984490777137e+01
1	 3.639261048688338e-01	 1.966610736845282e+00	 8.541566165852998e+01
1	 3.411807232891650e-01	 1.843697565789419e+00	 6.219702302106863e+01
1	 3.064017453303258e-01	 1.849795386114716e+00	-1.323250740419585e+02
1	 2.717240419284751e-01	 1.855206469658534e+00	-2.881482047577098e+02
1	 2.371657537175081e-01	 1.859940161747613e+00	-4.066823019570687e+02
1	 2.027444415484455e-01	 1.864006354987513e+00	-4.894088428791055e+02
1	 1.684770710600370e-01	 1.867415453651191e+00	-5.378722888044009e+02
1	 1.343799995057737e-01	 1.870178337950090e+00	-5.536716309006546e+02
1	 1.004689647900904e-01	 1.872306328333207e+00	-5.384520862343405e+02
1	 6.675907665743416e-02	 1.873811149952121e+00	-4.938969842282908e+02
1	 3.326480996967145e-02	 1.874704897421970e+00	-4.217198800559040e+02
1	 0.000000000000000e+00	 1.875000000000000e+00	-3.236569276066430e+02
1	 3.434552614448158e-01	 1.855988882892821e+00	 9.180923093699049e+01
1	 3.084444236327498e-01	 1.862127355353983e+00	-7.376829289045352e+01
1	 2.735355355414154e-01	 1.867574512788415e+00	-2.090314450685374e+02
1	 2.387468587422667e-01	 1.872339762825035e+00	-3.150701124990950e+02
1	 2.040960711586644e-01	 1.876433064020110e+00	-3.930310945851344e+02
1	 1.696002515336156e-01	 1.879864890008415e+00	-4.441113936614184e+02
1	 1.352758661689677e-01	 1.882646193536137e+00	-4.695515850669643e+02
1	 1.011387578885178e-01	 1.884788370521935e+00	-4.706293015473328e+02
1	 6.720413716834214e-02	 1.886303224285065e+00	-4.486528638032751e+02
1	 3.348657536938560e-02	 1.887202930071432e+00	-4.049550860381751e+02
1	 0.000000000000000e+00	 1.887500000000000e+00	-3.408872823372184e+02
1	 3.457297996009814e-01	 1.868280199996709e+00	 1.150377326382924e+02
1	 3.104871019357723e-01	 1.874459324593641e+00	-2.052751273200029e+01
1	 2.753470291550064e-01	 1.879942555918602e+00	-1.340651313179500e+02
1	 2.403279637676975e-01	 1.884739363902691e+00	-2.263486247097699e+02
1	 2.054477007695459e-01	 1.888859773052877e+00	-2.981938829436393e+02
1	 1.707234320078177e-01	 1.892314326365756e+00	-3.504543100880726e+02
1	 1.361717328327167e-01	 1.895114049122259e+00	-3.840160031814804e+02
1	 1.018085509874029e-01	 1.897270412710705e+00	-3.997930100130532e+02
1	 6.764919767958245e-02	 1.898795298618027e+00	-3.987226891641487e+02
1	 3.370834076927928e-02	 1.899700962720899e+00	-3.817611935814195e+02
1	 0.000000000000000e+00	 1.900000000000000e+00	-3.498790967638485e+02
1	 3.480043377576615e-01	 1.880571517101082e+00	 1.320076988366058e+02
1	 3.125297802393933e-01	 1.886791293833689e+00	 2.750150174829967e+01
1	 2.771585227692485e-01	 1.892310599049096e+00	-6.316788221208515e+01
1	 2.419090687938004e-01	 1.897138964980581e+00	-1.404611581636784e+02
1	 2.067993303810904e-01	 1.901286482085814e+00	-2.048670013534570e+02
1	 1.718466124826434e-01	 1.904763762723215e+00	-2.568990025635993e+02
1	 1.370675994970205e-01	 1.907581904708456e+00	-2.970926408534930e+02
1	 1.024783440867457e-01	 1.909752454899516e+00	-3.260023000015779e+02
1	 6.809425819115501e-02	 1.911287372951007e+00	-3.441983437272916e+02
1	 3.393010616935248e-02	 1.912198995370370e+00	-3.522642634394518e+02
1	 0.000000000000000e+00	 1.912500000000000e+00	-3.507939108920718e+02
1	 3.502788759148565e-01	 1.892862834205940e+00	 1.428410490561262e+02
1	 3.145724585436130e-01	 1.899123263074128e+00	 7.042027845449508e+01
1	 2.789700163841413e-01	 1.904678642179897e+00	 3.739569743049870e+00
1	 2.434901738205753e-01	 1.909538566058704e+00	-5.735250465425579e+01
1	 2.081509599932976e-01	 1.913713191118922e+00	-1.130210278004653e+02
1	 1.729697929580925e-01	 1.917213199080792e+00	-1.634434884379039e+02
1	 1.379634661618794e-01	 1.920049760294728e+00	-2.088085327674077e+02
1	 1.031481371865461e-01	 1.922234497088370e+00	-2.493147251201764e+02
1	 6.853931870305990e-02	 1.923779447284006e+00	-2.851693243269502e+02
1	 3.415187156960520e-02	 1.924697028019846e+00	-3.165870820609779e+02
1	 0.000000000000000e+00	 1.925000000000000e+00	-3.437890688833978e+02
1	 3.525534140725660e-01	 1.905154151311284e+00	 1.476565565106305e+02
1	 3.166151368484313e-01	 1.911455232314958e+00	 1.083277252156241e+02
1	 2.807815099996850e-01	 1.917046685311005e+00	 6.673444642866419e+01
1	 2.450712788480224e-01	 1.921938167137059e+00	 2.303111929714485e+01
1	 2.095025896061675e-01	 1.926139900152201e+00	-2.262729954831847e+01
1	 1.740929734341652e-01	 1.929662635438486e+00	-7.008583622605107e+01
1	 1.388593328272932e-01	 1.932517615881074e+00	-1.191900159383640e+02
1	 1.038179302868042e-01	 1.934716539277265e+00	-1.697863537217906e+02
1	 6.898437921529707e-02	 1.936271521617023e+00	-2.217228182017539e+02
1	 3.437363697003744e-02	 1.937195060669326e+00	-2.748492672123274e+02
1	 0.000000000000000e+00	 1.937500000000000e+00	-3.290178544051057e+02
1	 3.548279522307902e-01	 1.917445468417113e+00	 1.465699489467635e+02
1	 3.186578151538482e-01	 1.923787201556179e+00	 1.413202137624777e+02
1	 2.825930036158798e-01	 1.929414728442421e+00	 1.258919896777019e+02
1	 2.466523838761414e-01	 1.934337768215650e+00	 1.007421181056057e+02
1	 2.108542192197002e-01	 1.938566609185649e+00	 6.634211119737262e+01
1	 1.752161539108614e-01	 1.942112071796298e+00	 2.317583603164029e+01
1	 1.397551994932619e-01	 1.944985471467495e+00	-2.826275207344398e+01
1	 1.044877233875199e-01	 1.947198581466201e+00	-8.747181650933963e+01
1	 6.942943972786655e-02	 1.948763595950059e+00	-1.539437770202121e+02
1	 3.459540237064921e-02	 1.949693093318812e+00	-2.271673695377843e+02
1	 0.000000000000000e+00	 1.950000000000000e+00	-3.066296207742824e+02
1	 3.571024903895291e-01	 1.929736785523427e+00	 1.396940056334409e+02
1	 3.207004934598637e-01	 1.936119170797790e+00	 1.694916604950612e+02
1	 2.844044972327253e-01	 1.941782771574142e+00	 1.812855243337033e+02
1	 2.482334889049326e-01	 1.946737369294472e+00	 1.758315610418719e+02
1	 2.122058488338956e-01	 1.950993318219269e+00	 1.539144206948404e+02
1	 1.763393343881811e-01	 1.954561508154227e+00	 1.163433623468332e+02
1	 1.406510661597856e-01	 1.957453327053991e+00	 6.394825092171240e+01
1	 1.051575164886933e-01	 1.959680623655180e+00	-2.424352320746447e+00
1	 6.987450024076833e-02	 1.961255670283113e+00	-8.191498807721081e+01
1	 3.481716777144051e-02	 1.962191125968301e+00	-1.736549702386266e+02
1	 0.000000000000000e+00	 1.962499999999999e+00	-2.767699161282023e+02
1	 3.593770285487826e-01	 1.942028102630226e+00	 1.271386506681086e+02
1	 3.227431717664778e-01	 1.948451140039792e+00	 1.929336041829416e+02
1	 2.862159908502217e-01	 1.954150814706171e+00	 2.329865189150263e+02
1	 2.498145939343959e-01	 1.959136970373530e+00	 2.483492244837505e+02
1	 2.135574784487539e-01	 1.963420027253059e+00	 2.401161561831240e+02
1	 1.774625148661244e-01	 1.967010944512274e+00	 2.094185303005170e+02
1	 1.415469328268642e-01	 1.969921182640562e+00	 1.574186182529818e+02
1	 1.058273095903243e-01	 1.972162665844200e+00	 8.530414782469971e+01
1	 7.031956075400238e-02	 1.973747744616185e+00	-5.717142786843844e+00
1	 3.503893317241133e-02	 1.974689158617795e+00	-1.144227750428371e+02
1	 0.000000000000000e+00	 1.975000000000000e+00	-2.395806038414027e+02
1	 3.616515667085508e-01	 1.954319419737511e+00	 1.090110427620151e+02
1	 3.247858500736904e-01	 1.960783109282185e+00	 2.117352807334972e+02
1	 2.880274844683691e-01	 1.966518857838506e+00	 2.810646439898557e+02
1	 2.513956989645312e-01	 1.971536571452820e+00	 3.183436325731233e+02
1	 2.149091080642749e-01	 1.975846736287019e+00	 3.249731775493408e+02
1	 1.785856953446911e-01	 1.979460380870439e+00	 3.024030825030905e+02
1	 1.424427994944977e-01	 1.982389038227207e+00	 2.521245883285954e+02
1	 1.064971026924130e-01	 1.984644708033262e+00	 1.756630983421119e+02
1	 7.076462126756874e-02	 1.986239818949276e+00	 7.457109740938471e+01
1	 3.526069857356168e-02	 1.987187191267294e+00	-4.957870462878714e+01
1	 0.000000000000000e+00	 1.987500000000000e+00	-1.951999783987186e+02
1	 3.639261048688338e-01	 1.966610736845282e+00	 8.541566165852998e+01
1	 3.268285283815017e-01	 1.973115078524969e+00	 2.259836951563636e+02
1	 2.898389780871672e-01	 1.978886900971149e+00	 3.255878283621404e+02
1	 2.529768039953388e-01	 1.983936172532344e+00	 3.858620963483236e+02
1	 2.162607376804587e-01	 1.988273445321150e+00	 4.085106981834362e+02
1	 1.797088758238815e-01	 1.991909817228721e+00	 3.952987179996953e+02
1	 1.433386661626862e-01	 1.994856893813928e+00	 3.480429935965647e+02
1	 1.071668957949593e-01	 1.997126750222366e+00	 2.686031782861833e+02
1	 7.120968178146743e-02	 1.998731893282386e+00	 1.588730376059252e+02
1	 3.548246397489156e-02	 1.999685223916798e+00	 2.077201834197102e+01
1	 0.000000000000000e+00	 2.000000000000000e+00	-1.437628769230769e+02
