patch_n	x	y	stress_yy
0	 1.000000000000000e+00	 0.000000000000000e+00	 3.286419272319029e+01
0	 9.992624332803766e-01	 3.840038325376621e-02	 3.277225125425016e+01
0	 9.970303790034712e-01	 7.700924192874908e-02	 3.250179307497722e+01
0	 9.932794519058684e-01	 1.157407897782335e-01	 3.204950249927587e+01
0	 9.879917681380863e-01	 1.545065244163999e-01	 3.141706961411408e+01
0	 9.811562764345738e-01	 1.932158409872451e-01	 3.061125545996322e+01
0	 9.727690196296023e-01	 2.317766908998131e-01	 2.964362100726507e+01
0	 9.628333196896524e-01	 2.700962763387253e-01	 2.852994513809067e+01
0	 9.513598808658695e-01	 3.080817701152353e-01	 2.728939386953054e+01
0	 9.383668072129164e-01	 3.456410495326201e-01	 2.594352922212766e+01
0	 9.238795325228850e-01	 3.826834323423998e-01	 2.451525728151395e+01
0	 1.225000000000000e+00	 0.000000000000000e+00	 2.211570963627693e+01
0	 1.224299311616290e+00	 4.932895435219491e-02	 2.207019913511295e+01
0	 1.222178860053039e+00	 9.913065671888785e-02	 2.193547759799108e+01
0	 1.218615479310022e+00	 1.492984860204054e-01	 2.171222415793101e+01
0	 1.213592179730250e+00	 1.997214452662819e-01	 2.140313049185966e+01
0	 1.207098462611474e+00	 2.502849027149371e-01	 2.101288389625137e+01
0	 1.199130568646271e+00	 3.008714003837442e-01	 2.054804793240419e+01
0	 1.189691653702822e+00	 3.513615189378835e-01	 2.001684935838323e+01
0	 1.178791886819736e+00	 4.016347863230795e-01	 1.942888881399944e+01
0	 1.166448466848968e+00	 4.515706161387014e-01	 1.879479913855581e+01
0	 1.152685555893026e+00	 5.010492607341374e-01	 1.812587845145054e+01
0	 1.450000000000000e+00	 0.000000000000000e+00	 1.649006208912190e+01
0	 1.449336189952205e+00	 6.025752544994470e-02	 1.650270762456227e+01
0	 1.447327341102614e+00	 1.212520715077979e-01	 1.646320541805900e+01
0	 1.443951506714191e+00	 1.828561822609206e-01	 1.637401662095616e+01
0	 1.439192591322443e+00	 2.449363661141935e-01	 1.623861717259999e+01
0	 1.433040648788416e+00	 3.073539644404506e-01	 1.606146054276406e+01
0	 1.425492117662996e+00	 3.699661098653850e-01	 1.584789957878524e+01
0	 1.416549987716062e+00	 4.326267615347259e-01	 1.560407227453890e+01
0	 1.406223892773688e+00	 4.951878025286588e-01	 1.533675907870050e+01
0	 1.394530126485118e+00	 5.575001827426344e-01	 1.505322134849759e+01
0	 1.381491579263279e+00	 6.194150891238973e-01	 1.476103151921888e+01
0	 1.675000000000000e+00	 0.000000000000000e+00	 1.348569881569783e+01
0	 1.674373068288125e+00	 7.118609654713305e-02	 1.354319032892350e+01
0	 1.672475822152206e+00	 1.433734862956871e-01	 1.356443448365171e+01
0	 1.669287534118395e+00	 2.164138785000531e-01	 1.355291761415713e+01
0	 1.664793002914691e+00	 2.901512869604523e-01	 1.351275442803371e+01
0	 1.658982834965439e+00	 3.644230261641266e-01	 1.344864503333947e+01
0	 1.651853666679832e+00	 4.390608193450835e-01	 1.336581117089719e+01
0	 1.643408321729443e+00	 5.138920041295932e-01	 1.326991515524824e+01
0	 1.633655898727812e+00	 5.887408187322952e-01	 1.316696619661342e+01
0	 1.622611786121468e+00	 6.634297493447130e-01	 1.306321953254025e+01
0	 1.610297602633755e+00	 7.377809175119404e-01	 1.296507407321764e+01
0	 1.900000000000000e+00	 0.000000000000000e+00	 1.192697796091594e+01
0	 1.899409946624050e+00	 8.211466764387738e-02	 1.201454198651113e+01
0	 1.897624303201820e+00	 1.654949010827637e-01	 1.207223527726010e+01
0	 1.894623561522648e+00	 2.499715747380767e-01	 1.210419705265184e+01
0	 1.890393414507024e+00	 3.353662078053756e-01	 1.211502730433008e+01
0	 1.884925021142588e+00	 4.214920878863069e-01	 1.210974330823928e+01
0	 1.878215215696836e+00	 5.081555288231878e-01	 1.209372298862944e+01
0	 1.870266655743037e+00	 5.951572467228260e-01	 1.207263800241255e+01
0	 1.861087904682191e+00	 6.822938349343103e-01	 1.205238004118165e+01
0	 1.850693445758116e+00	 7.693593159452324e-01	 1.203898421147434e+01
0	 1.839103626004569e+00	 8.561467458985299e-01	 1.203855342285674e+01
0	 2.125000000000000e+00	 0.000000000000000e+00	 1.118847964386489e+01
0	 2.124446824959985e+00	 9.304323874029520e-02	 1.129430306541549e+01
0	 2.122772784251465e+00	 1.876163158692356e-01	 1.137217940293019e+01
0	 2.119959588926967e+00	 2.835292709752656e-01	 1.142666994588575e+01
0	 2.115993826099469e+00	 3.805811286492809e-01	 1.146271425734312e+01
0	 2.110867207319901e+00	 4.785611496073326e-01	 1.148558840622304e+01
0	 2.104576764714063e+00	 5.772502383000458e-01	 1.150085336329018e+01
0	 2.097124989756913e+00	 6.764224893147650e-01	 1.151429602537938e+01
0	 2.088519910636915e+00	 7.758468511350259e-01	 1.153186575025900e+01
0	 2.078775105395163e+00	 8.752888825444872e-01	 1.155960950925316e+01
0	 2.067909649375830e+00	 9.745125742839272e-01	 1.160360877986336e+01
0	 2.350000000000000e+00	 0.000000000000000e+00	 1.090683123944847e+01
0	 2.349483703295928e+00	 1.039718098365038e-01	 1.102240441255556e+01
0	 2.347921265301149e+00	 2.097377306553107e-01	 1.110995963235553e+01
0	 2.345295616331370e+00	 3.170869672118933e-01	 1.117431839549026e+01
0	 2.341594237692055e+00	 4.257960494924862e-01	 1.122063150853463e+01
0	 2.336809393497421e+00	 5.356302113275448e-01	 1.125434002765818e+01
0	 2.330938313731568e+00	 6.463449477760062e-01	 1.128112801226947e+01
0	 2.323983323771145e+00	 7.576877319057509e-01	 1.130686925807334e+01
0	 2.315951916592065e+00	 8.693998673347635e-01	 1.133757049369576e+01
0	 2.306856765032708e+00	 9.812184491427712e-01	 1.137931369449549e+01
0	 2.296715672747650e+00	 1.092878402668394e+00	 1.143820017523842e+01
0	 2.575000000000000e+00	 0.000000000000000e+00	 1.085647519162653e+01
0	 2.574520581631884e+00	 1.149003809326208e-01	 1.097608913835804e+01
0	 2.573069746350882e+00	 2.318591454411972e-01	 1.106691025830626e+01
0	 2.570631643735874e+00	 3.506446634482339e-01	 1.113389964021796e+01
0	 2.567194649284808e+00	 4.710109703353083e-01	 1.118231056508633e+01
0	 2.562751579675189e+00	 5.926992730472855e-01	 1.121765254305729e+01
0	 2.557299862749409e+00	 7.154396572514164e-01	 1.124564814357535e+01
0	 2.550841657785800e+00	 8.389529744961238e-01	 1.127218454617108e+01
0	 2.543383922547729e+00	 9.629528835338454e-01	 1.130326199992671e+01
0	 2.534938424670851e+00	 1.087148015740380e+00	 1.134494152120633e+01
0	 2.525521696120145e+00	 1.211244231052194e+00	 1.140329417153429e+01
0	 2.800000000000000e+00	 0.000000000000000e+00	 1.088999162138937e+01
0	 2.799557459967855e+00	 1.258289520287636e-01	 1.101015478631335e+01
0	 2.798218227400667e+00	 2.539805602271027e-01	 1.110076640772382e+01
0	 2.795967671140495e+00	 3.842023596845611e-01	 1.116683459127599e+01
0	 2.792795060877761e+00	 5.162258911780651e-01	 1.121362467786123e+01
0	 2.788693765853248e+00	 6.497683347668959e-01	 1.124662647581672e+01
0	 2.783661411767641e+00	 7.845343667266254e-01	 1.127151499617122e+01
0	 2.777699991800951e+00	 9.202182170862253e-01	 1.129410642205115e+01
0	 2.770815928503994e+00	 1.056505899732593e+00	 1.132031126151364e+01
0	 2.763020084309689e+00	 1.193077582337607e+00	 1.135608675449820e+01
0	 2.754327719493421e+00	 1.329610059435587e+00	 1.140739062044015e+01
0	 3.024999999999999e+00	 0.000000000000000e+00	 1.090695952384191e+01
0	 3.024594338303842e+00	 1.367575231250495e-01	 1.102590438646531e+01
0	 3.023366708450515e+00	 2.761019750132359e-01	 1.111497688749149e+01
0	 3.021303698545247e+00	 4.177600559211491e-01	 1.117916009974500e+01
0	 3.018395472470933e+00	 5.614408120210737e-01	 1.122365704270664e+01
0	 3.014635952031635e+00	 7.068373964867167e-01	 1.125386107584215e+01
0	 3.010022960786318e+00	 8.536290762019805e-01	 1.127532040995615e+01
0	 3.004558325816670e+00	 1.001483459676396e+00	 1.129369830249457e+01
0	 2.998247934460943e+00	 1.150058915931329e+00	 1.131473068412084e+01
0	 2.991101743949326e+00	 1.299007148934747e+00	 1.134418306593308e+01
0	 2.983133742867594e+00	 1.447975887818836e+00	 1.138780859169336e+01
0	 3.250000000000000e+00	 0.000000000000000e+00	 1.083660975123043e+01
0	 3.249631216639848e+00	 1.476860942215961e-01	 1.095390823217472e+01
0	 3.248515189500435e+00	 2.982233897998041e-01	 1.104170815542367e+01
0	 3.246639725950152e+00	 4.513177521582716e-01	 1.110491120105578e+01
0	 3.243995884064363e+00	 6.066557328646524e-01	 1.114859725739892e+01
0	 3.240578138210396e+00	 7.639064582070900e-01	 1.117799789601168e+01
0	 3.236384509805498e+00	 9.227237856778304e-01	 1.119846456522285e+01
0	 3.231416659833025e+00	 1.082748702266975e+00	 1.121543292717046e+01
0	 3.225679940418663e+00	 1.243611932130374e+00	 1.123438490966219e+01
0	 3.219183403589859e+00	 1.404936715532096e+00	 1.126081012510015e+01
0	 3.211939766242775e+00	 1.566341716202203e+00	 1.130016831768910e+01
0	 9.238795325228850e-01	 3.826834323423998e-01	 2.451525728151395e+01
0	 9.079306626257402e-01	 4.191204025952176e-01	 2.303601349627520e+01
0	 8.905597319458151e-01	 4.548663142595269e-01	 2.153684478412393e+01
0	 8.718128781088506e-01	 4.898390608956170e-01	 2.003856514476962e+01
0	 8.517424401983539e-01	 5.239607004200921e-01	 1.855919312865103e+01
0	 8.304064879001740e-01	 5.571580250497136e-01	 1.711379268509470e+01
0	 8.078682901936070e-01	 5.893630678348932e-01	 1.571449170226489e+01
0	 7.841957334000369e-01	 6.205135387314565e-01	 1.437063738549410e+01
0	 7.594606992521737e-01	 6.505531848560924e-01	 1.308904641807856e+01
0	 7.337384141782468e-01	 6.794320713628409e-01	 1.187431141478935e+01
0	 7.071067812000000e-01	 7.071067812000000e-01	 1.072913153436568e+01
0	 1.152685555893026e+00	 5.010492607341374e-01	 1.812587845145054e+01
0	 1.137534129490410e+00	 5.499527634002002e-01	 1.742621188758969e+01
0	 1.121031745344305e+00	 5.981658938496961e-01	 1.670046517741291e+01
0	 1.103222234199242e+00	 6.455770514504567e-01	 1.596036389924070e+01
0	 1.084155318184626e+00	 6.920791213846248e-01	 1.521651892466622e+01
0	 1.063886163502086e+00	 7.375702700332708e-01	 1.447829885594174e+01
0	 1.042474875682025e+00	 7.819546673841884e-01	 1.375377332824612e+01
0	 1.019985946729824e+00	 8.251431260743035e-01	 1.304971739206750e+01
0	 9.964876642916207e-01	 8.670536487362006e-01	 1.237166491721162e+01
0	 9.720514934742921e-01	 9.076118775423867e-01	 1.172399830922965e+01
0	 9.467514421485499e-01	 9.467514421485499e-01	 1.111006242993455e+01
0	 1.381491579263279e+00	 6.194150891238973e-01	 1.476103151921888e+01
0	 1.367137596355200e+00	 6.807851242034147e-01	 1.445097245190980e+01
0	 1.351503758742903e+00	 7.414654734383209e-01	 1.411427231442379e+01
0	 1.334631590289691e+00	 8.013150420039594e-01	 1.375892635465995e+01
0	 1.316568196170851e+00	 8.601975423479823e-01	 1.339233595715324e+01
0	 1.297365839103778e+00	 9.179825150157415e-01	 1.302122419530577e+01
0	 1.277081461169961e+00	 9.745462669323827e-01	 1.265158600208960e+01
0	 1.255776160058764e+00	 1.029772713415906e+00	 1.228867008792012e+01
0	 1.233514629329739e+00	 1.083554112614767e+00	 1.193698829191848e+01
0	 1.210364572768395e+00	 1.135791683719913e+00	 1.160034724790318e+01
0	 1.186396103094400e+00	 1.186396103094400e+00	 1.128189700434514e+01
0	 1.610297602633755e+00	 7.377809175119404e-01	 1.296507407321764e+01
0	 1.596741063220232e+00	 8.116174850050889e-01	 1.285624305012062e+01
0	 1.581975772141740e+00	 8.847650530255948e-01	 1.272053746910539e+01
0	 1.566040946380338e+00	 9.570530325562879e-01	 1.256429150587393e+01
0	 1.548981074157182e+00	 1.028315963310305e+00	 1.239343184220727e+01
0	 1.530845514705412e+00	 1.098394759997251e+00	 1.221341763553919e+01
0	 1.511688046657593e+00	 1.167137866479601e+00	 1.202920101980965e+01
0	 1.491566373387057e+00	 1.234402300756405e+00	 1.184520719763896e+01
0	 1.470541594366754e+00	 1.300054576491964e+00	 1.166533224845427e+01
0	 1.448677652060815e+00	 1.363971489895644e+00	 1.149295614589617e+01
0	 1.426040764037850e+00	 1.426040764037850e+00	 1.133096814038180e+01
0	 1.839103626004569e+00	 8.561467458985299e-01	 1.203855342285674e+01
0	 1.826344530085627e+00	 9.424498458054493e-01	 1.203097733138677e+01
0	 1.812447785540947e+00	 1.028064632611711e+00	 1.199588730051153e+01
0	 1.797450302471325e+00	 1.112791023107605e+00	 1.193879262292159e+01
0	 1.781393952143770e+00	 1.196434384271731e+00	 1.186487036370497e+01
0	 1.764325190307155e+00	 1.278807004977925e+00	 1.177891778347198e+01
0	 1.746294632145104e+00	 1.359729466025968e+00	 1.168531884628621e+01
0	 1.727356586714905e+00	 1.439031888095938e+00	 1.158802457152797e+01
0	 1.707568559402894e+00	 1.516555040367962e+00	 1.149054631714741e+01
0	 1.686990731351812e+00	 1.592151296069805e+00	 1.139596058009567e+01
0	 1.665685424979200e+00	 1.665685424979200e+00	 1.130692357473224e+01
0	 2.067909649375830e+00	 9.745125742839272e-01	 1.160360877986336e+01
0	 2.055947996951510e+00	 1.073282206604723e+00	 1.164183981890216e+01
0	 2.042919798940656e+00	 1.171364212196861e+00	 1.165170313736139e+01
0	 2.028859658562793e+00	 1.268529013658075e+00	 1.163821301006878e+01
0	 2.013806830130766e+00	 1.364552805232402e+00	 1.160608574817796e+01
0	 1.997804865909169e+00	 1.459219249957891e+00	 1.155969852119235e+01
0	 1.980901217632674e+00	 1.552321065571610e+00	 1.150305873957250e+01
0	 1.963146800042509e+00	 1.643661475434645e+00	 1.143978407786079e+01
0	 1.944595524438387e+00	 1.733055504242933e+00	 1.137309269451328e+01
0	 1.925303810641647e+00	 1.820331102242620e+00	 1.130580278606198e+01
0	 1.905330085918750e+00	 1.905330085918750e+00	 1.124034031148515e+01
0	 2.296715672747650e+00	 1.092878402668394e+00	 1.143820017523842e+01
0	 2.285551463818003e+00	 1.204114567403139e+00	 1.149153385171122e+01
0	 2.273391812341000e+00	 1.314663791781240e+00	 1.151577071179420e+01
0	 2.260269014654884e+00	 1.424267004207860e+00	 1.151553944084827e+01
0	 2.246219708118322e+00	 1.532671226192456e+00	 1.149518861159690e+01
0	 2.231284541511620e+00	 1.639631494937273e+00	 1.145874910435570e+01
0	 2.215507803120484e+00	 1.744912665116650e+00	 1.140990481098164e+01
0	 2.198937013370073e+00	 1.848291062772666e+00	 1.135197186854901e+01
0	 2.181622489473461e+00	 1.949555968117049e+00	 1.128788623932592e+01
0	 2.163616889930580e+00	 2.048510908414312e+00	 1.122019909286736e+01
0	 2.144974746856800e+00	 2.144974746856800e+00	 1.115107916672734e+01
0	 2.525521696120145e+00	 1.211244231052194e+00	 1.140329417153429e+01
0	 2.515154930685226e+00	 1.334946928200922e+00	 1.145582757420604e+01
0	 2.503863825742109e+00	 1.457963371365041e+00	 1.147897066180410e+01
0	 2.491678370747736e+00	 1.580004994757122e+00	 1.147697753778952e+01
0	 2.478632586106591e+00	 1.700789647152033e+00	 1.145383315869441e+01
0	 2.464764217114674e+00	 1.820043739916199e+00	 1.141321823072228e+01
0	 2.450114388608714e+00	 1.937504264661215e+00	 1.135848071707929e+01
0	 2.434727226697794e+00	 2.052920650110139e+00	 1.129261428245742e+01
0	 2.418649454508345e+00	 2.166056431990482e+00	 1.121824363960327e+01
0	 2.401929969218869e+00	 2.276690714585108e+00	 1.113761644729543e+01
0	 2.384619407793650e+00	 2.384619407793650e+00	 1.105260115162823e+01
0	 2.754327719493421e+00	 1.329610059435587e+00	 1.140739062044015e+01
0	 2.744758397553303e+00	 1.465779288998300e+00	 1.145259738751493e+01
0	 2.734335839144117e+00	 1.601262950948456e+00	 1.146880764436913e+01
0	 2.723087726841494e+00	 1.735742985306025e+00	 1.145986873299752e+01
0	 2.711045464095724e+00	 1.868908068111272e+00	 1.142936705957563e+01
0	 2.698243892718494e+00	 2.000455984894794e+00	 1.138059522445254e+01
0	 2.684720974097546e+00	 2.130095864205428e+00	 1.131652442935441e+01
0	 2.670517440025877e+00	 2.257550237447206e+00	 1.123978250999754e+01
0	 2.655676419543262e+00	 2.382556895863402e+00	 1.115263763457974e+01
0	 2.640243048506777e+00	 2.504870520755230e+00	 1.105698743165753e+01
0	 2.624264068729600e+00	 2.624264068729600e+00	 1.095435307579956e+01
0	 2.983133742867594e+00	 1.447975887818836e+00	 1.138780859169336e+01
0	 2.974361864422357e+00	 1.596611649795502e+00	 1.142538093723765e+01
0	 2.964807852547154e+00	 1.744562530531680e+00	 1.143523453110455e+01
0	 2.954497082936297e+00	 1.891480975854732e+00	 1.142076057508742e+01
0	 2.943458342085873e+00	 2.037026489070314e+00	 1.138509686360354e+01
0	 2.931723568323242e+00	 2.180868229873184e+00	 1.133109738802677e+01
0	 2.919327559587160e+00	 2.322687463749416e+00	 1.126130610971456e+01
0	 2.906307653354521e+00	 2.462179824784002e+00	 1.117793522719889e+01
0	 2.892703384578442e+00	 2.599057359735982e+00	 1.108284800070153e+01
0	 2.878556127794563e+00	 2.733050326924905e+00	 1.097754595534249e+01
0	 2.863908729664950e+00	 2.863908729664950e+00	 1.086316007257468e+01
0	 3.211939766242775e+00	 1.566341716202203e+00	 1.130016831768910e+01
0	 3.203965331292510e+00	 1.727444010592752e+00	 1.133408036092337e+01
0	 3.195279865951353e+00	 1.887862110114904e+00	 1.134258783368686e+01
0	 3.185906439032289e+00	 2.047218966403407e+00	 1.132857167172704e+01
0	 3.175871220077190e+00	 2.205144910029299e+00	 1.129466748803686e+01
0	 3.165203243929088e+00	 2.361280474851495e+00	 1.124323818006665e+01
0	 3.153934145077738e+00	 2.515279063293303e+00	 1.117634977109454e+01
0	 3.142097866683931e+00	 2.666809412120670e+00	 1.109575075343938e+01
0	 3.129730349614114e+00	 2.815557823608393e+00	 1.100285497912270e+01
0	 3.116869207082487e+00	 2.961230133094355e+00	 1.089872793513533e+01
0	 3.103553390600000e+00	 3.103553390600000e+00	 1.078407605323796e+01
0	 3.250000000000000e+00	 0.000000000000000e+00	 1.083660975123043e+01
0	 3.249631216639848e+00	 1.476860942215961e-01	 1.095390823217472e+01
0	 3.248515189500435e+00	 2.982233897998041e-01	 1.104170815542367e+01
0	 3.246639725950152e+00	 4.513177521582716e-01	 1.110491120105578e+01
0	 3.243995884064363e+00	 6.066557328646524e-01	 1.114859725739892e+01
0	 3.240578138210396e+00	 7.639064582070900e-01	 1.117799789601168e+01
0	 3.236384509805498e+00	 9.227237856778304e-01	 1.119846456522285e+01
0	 3.231416659833025e+00	 1.082748702266975e+00	 1.121543292717046e+01
0	 3.225679940418663e+00	 1.243611932130374e+00	 1.123438490966219e+01
0	 3.219183403589859e+00	 1.404936715532096e+00	 1.126081012510015e+01
0	 3.211939766242775e+00	 1.566341716202203e+00	 1.130016831768910e+01
0	 3.475000000000000e+00	 0.000000000000000e+00	 1.069596979857649e+01
0	 3.474668094975873e+00	 1.586146653184942e-01	 1.081180969185345e+01
0	 3.473663670550429e+00	 3.203448045869677e-01	 1.089877086241884e+01
0	 3.471975753355212e+00	 4.848754483961375e-01	 1.096163486253878e+01
0	 3.469596295658052e+00	 6.518706537090400e-01	 1.100532141899664e+01
0	 3.466520324389542e+00	 8.209755199282696e-01	 1.103486475450434e+01
0	 3.462746058825200e+00	 9.918184951544299e-01	 1.105538512723427e+01
0	 3.458274993850042e+00	 1.164013944858207e+00	 1.107205689513901e+01
0	 3.453111946377182e+00	 1.337164948329950e+00	 1.109007452825978e+01
0	 3.447265063231321e+00	 1.510866282129846e+00	 1.111461805430131e+01
0	 3.440745789619002e+00	 1.684707544585849e+00	 1.115081942484980e+01
0	 3.700000000000001e+00	 0.000000000000000e+00	 1.055021461014607e+01
0	 3.699704973311910e+00	 1.695432364157284e-01	 1.066438902881096e+01
0	 3.698812151600473e+00	 3.424662193746939e-01	 1.075010759708177e+01
0	 3.697311780760389e+00	 5.184331446346958e-01	 1.081200292203234e+01
0	 3.695196707251940e+00	 6.970855745541651e-01	 1.085481310131427e+01
0	 3.692462510568979e+00	 8.780445816501615e-01	 1.088336055483975e+01
0	 3.689107607845293e+00	 1.060913204631659e+00	 1.090252641450055e+01
0	 3.685133327867554e+00	 1.245279187449947e+00	 1.091722167871327e+01
0	 3.680543952336301e+00	 1.430717964529886e+00	 1.093235643277546e+01
0	 3.675346722873481e+00	 1.616795848727796e+00	 1.095280848441198e+01
0	 3.669551812996013e+00	 1.803073372969539e+00	 1.098339276156618e+01
0	 3.925000000000001e+00	 0.000000000000000e+00	 1.041336377544934e+01
0	 3.924741851647958e+00	 1.804718075132568e-01	 1.052532174927613e+01
0	 3.923960632650552e+00	 3.645876341629025e-01	 1.060920598467947e+01
0	 3.922647808165632e+00	 5.519908408738298e-01	 1.066947212084932e+01
0	 3.920797118845939e+00	 7.423004953998779e-01	 1.071065457228949e+01
0	 3.918404696748580e+00	 9.351136433725836e-01	 1.073734759531714e+01
0	 3.915469156865608e+00	 1.130007914109308e+00	 1.075418215742305e+01
0	 3.911991661885350e+00	 1.326544430041952e+00	 1.076579972779748e+01
0	 3.907975958295762e+00	 1.524270980729905e+00	 1.077682418416678e+01
0	 3.903428382516038e+00	 1.722725415325637e+00	 1.079183306916155e+01
0	 3.898357836373472e+00	 1.921439201352932e+00	 1.081532942422044e+01
0	 4.150000000000001e+00	 0.000000000000000e+00	 1.029624093013773e+01
0	 4.149778729984008e+00	 1.914003786110374e-01	 1.040515557422441e+01
0	 4.149109113700636e+00	 3.867090489515126e-01	 1.048646163731918e+01
0	 4.147983835570894e+00	 5.855485371134236e-01	 1.054440998904249e+01
0	 4.146397530439966e+00	 7.875154162460287e-01	 1.058330865898011e+01
0	 4.144346882928223e+00	 9.921827050953554e-01	 1.060750590645969e+01
0	 4.141830705885980e+00	 1.199102623587162e+00	 1.062136928732290e+01
0	 4.138849995903215e+00	 1.407809672633978e+00	 1.062926175406147e+01
0	 4.135407964255309e+00	 1.617823996929737e+00	 1.063551588867142e+01
0	 4.131510042158697e+00	 1.828654981923066e+00	 1.064440739766733e+01
0	 4.127163859751041e+00	 2.039805029735690e+00	 1.066012899162838e+01
0	 4.375000000000001e+00	 0.000000000000000e+00	 1.020733535361158e+01
0	 4.374815608320052e+00	 2.023289497090281e-01	 1.031215628692273e+01
0	 4.374257594750707e+00	 4.088304637404440e-01	 1.039001617323173e+01
0	 4.373319862976121e+00	 6.191062333533608e-01	 1.044493320338941e+01
0	 4.371997942033938e+00	 8.327303370924679e-01	 1.048096567213688e+01
0	 4.370289069107784e+00	 1.049251766818295e+00	 1.050219685120716e+01
0	 4.368192254906238e+00	 1.268197333065009e+00	 1.051271603458711e+01
0	 4.365708329920939e+00	 1.489074915225785e+00	 1.051659671345451e+01
0	 4.362839970214686e+00	 1.711377013129106e+00	 1.051787289006161e+01
0	 4.359591701801156e+00	 1.934584548519779e+00	 1.052051456367310e+01
0	 4.355969883128389e+00	 2.158170858117477e+00	 1.052840341353935e+01
0	 4.600000000000001e+00	 0.000000000000000e+00	 1.015339909268979e+01
0	 4.599852486656088e+00	 2.132575208071871e-01	 1.025289317360042e+01
0	 4.599406075800736e+00	 4.309518785296160e-01	 1.032633669906161e+01
0	 4.598655890381264e+00	 6.526639295935256e-01	 1.037748698213858e+01
0	 4.597598353627768e+00	 8.779452579390461e-01	 1.041012861503565e+01
0	 4.596231255287137e+00	 1.106320828541220e+00	 1.042805996814842e+01
0	 4.594553803926219e+00	 1.337292042542639e+00	 1.043507604092573e+01
0	 4.592566663938309e+00	 1.570340157817128e+00	 1.043494854373141e+01
0	 4.590271976173632e+00	 1.804930029327742e+00	 1.043140413252824e+01
0	 4.587673361443114e+00	 2.040514115115470e+00	 1.042810173720763e+01
0	 4.584775906505176e+00	 2.276536686497955e+00	 1.042860991590175e+01
0	 4.825000000000001e+00	 0.000000000000000e+00	 1.013986971437416e+01
0	 4.824889364992107e+00	 2.241860919054723e-01	 1.023265302414346e+01
0	 4.824554556850704e+00	 4.530732933189482e-01	 1.030062525911219e+01
0	 4.823991917786274e+00	 6.862216258338011e-01	 1.034725427126211e+01
0	 4.823198765221375e+00	 9.231601787856131e-01	 1.037602640935717e+01
0	 4.822173441466160e+00	 1.163389890263950e+00	 1.039043448257142e+01
0	 4.820915352945754e+00	 1.406386752019838e+00	 1.039396227795078e+01
0	 4.819424997955113e+00	 1.651605400407766e+00	 1.039006643116094e+01
0	 4.817703982131895e+00	 1.898483045525368e+00	 1.038215648529913e+01
0	 4.815755021084279e+00	 2.146443681709836e+00	 1.037357398795918e+01
0	 4.813581929881066e+00	 2.394902514876783e+00	 1.036757146858208e+01
0	 5.050000000000002e+00	 0.000000000000000e+00	 1.017117533665443e+01
0	 5.049926243328103e+00	 2.351146630038418e-01	 1.025573853889422e+01
0	 5.049703037900588e+00	 4.751947081083600e-01	 1.031711374447659e+01
0	 5.049327945191100e+00	 7.197793220740717e-01	 1.035845033505977e+01
0	 5.048799176814671e+00	 9.683750996320197e-01	 1.038291135144254e+01
0	 5.048115627644727e+00	 1.220458951986304e+00	 1.039366277158954e+01
0	 5.047276901964673e+00	 1.475481461496395e+00	 1.039385958090987e+01
0	 5.046283331971138e+00	 1.732870642997457e+00	 1.038662935158223e+01
0	 5.045135988089215e+00	 1.992036061721713e+00	 1.037505407740019e+01
0	 5.043836680724348e+00	 2.252373248302569e+00	 1.036215102361586e+01
0	 5.042387953255724e+00	 2.513268343253626e+00	 1.035085334415887e+01
0	 5.275000000000001e+00	 0.000000000000000e+00	 1.025095848614835e+01
0	 5.274963121664070e+00	 2.460432341022536e-01	 1.032568712159580e+01
0	 5.274851518950362e+00	 4.973161228977709e-01	 1.037927997875987e+01
0	 5.274663972595692e+00	 7.533370183142205e-01	 1.041453852364335e+01
0	 5.274399588407576e+00	 1.013590020478116e+00	 1.043427695064941e+01
0	 5.274057813822716e+00	 1.277528013708100e+00	 1.044131263251120e+01
0	 5.273638450982812e+00	 1.544576170972096e+00	 1.043845364854316e+01
0	 5.273141665986172e+00	 1.814135885585956e+00	 1.042848402122577e+01
0	 5.272567994045336e+00	 2.085589077916504e+00	 1.041414731676829e+01
0	 5.271918340363021e+00	 2.358302814893366e+00	 1.039812927706705e+01
0	 5.271193976628816e+00	 2.631634171628145e+00	 1.038304014522913e+01
0	 5.500000000000000e+00	 0.000000000000000e+00	 1.038224291389003e+01
0	 5.500000000000001e+00	 2.569718052006656e-01	 1.044543378429109e+01
0	 5.500000000000000e+00	 5.194375376871000e-01	 1.049000851143257e+01
0	 5.500000000000000e+00	 7.868947145541317e-01	 1.051839077252924e+01
0	 5.500000000000000e+00	 1.058804941323752e+00	 1.053301995056501e+01
0	 5.499999999999999e+00	 1.334597075429155e+00	 1.053634261875154e+01
0	 5.500000000000000e+00	 1.613670880446729e+00	 1.053080144624399e+01
0	 5.499999999999999e+00	 1.895401128173021e+00	 1.051882206324781e+01
0	 5.500000000000000e+00	 2.179142094109466e+00	 1.050279844682381e+01
0	 5.500000000000000e+00	 2.464232381481922e+00	 1.048507740044693e+01
0	 5.500000000000000e+00	 2.750000000000000e+00	 1.046794269786253e+01
0	 3.211939766242775e+00	 1.566341716202203e+00	 1.130016831768910e+01
0	 3.203965331292510e+00	 1.727444010592752e+00	 1.133408036092337e+01
0	 3.195279865951353e+00	 1.887862110114904e+00	 1.134258783368686e+01
0	 3.185906439032289e+00	 2.047218966403407e+00	 1.132857167172704e+01
0	 3.175871220077190e+00	 2.205144910029299e+00	 1.129466748803686e+01
0	 3.165203243929088e+00	 2.361280474851495e+00	 1.124323818006665e+01
0	 3.153934145077738e+00	 2.515279063293303e+00	 1.117634977109454e+01
0	 3.142097866683931e+00	 2.666809412120670e+00	 1.109575075343938e+01
0	 3.129730349614114e+00	 2.815557823608393e+00	 1.100285497912270e+01
0	 3.116869207082487e+00	 2.961230133094355e+00	 1.089872793513533e+01
0	 3.103553390600000e+00	 3.103553390600000e+00	 1.078407605323796e+01
0	 3.440745789619002e+00	 1.684707544585849e+00	 1.115081942484980e+01
0	 3.433568798163803e+00	 1.858276371390180e+00	 1.118255619016647e+01
0	 3.425751879356758e+00	 2.031161689698224e+00	 1.119196698681057e+01
0	 3.417315795129520e+00	 2.202956956952113e+00	 1.118136072532639e+01
0	 3.408284098069736e+00	 2.373263330988270e+00	 1.115281334761191e+01
0	 3.398682919536109e+00	 2.541692719829766e+00	 1.110814420805496e+01
0	 3.388540730569382e+00	 2.707870662837136e+00	 1.104889484250592e+01
0	 3.377888080014241e+00	 2.871438999457284e+00	 1.097631031308217e+01
0	 3.366757314650458e+00	 3.032058287480761e+00	 1.089132313320072e+01
0	 3.355182286370784e+00	 3.189409939263779e+00	 1.079453960243223e+01
0	 3.343198051535051e+00	 3.343198051535051e+00	 1.068622822042838e+01
0	 3.669551812996013e+00	 1.803073372969539e+00	 1.098339276156618e+01
0	 3.663172265035953e+00	 1.989108732187513e+00	 1.101054444707439e+01
0	 3.656223892763072e+00	 2.174461269281336e+00	 1.101874928190547e+01
0	 3.648725151227688e+00	 2.358694947500529e+00	 1.100968551710555e+01
0	 3.640696976063229e+00	 2.541381751946905e+00	 1.098481808648548e+01
0	 3.632162595144051e+00	 2.722104964807686e+00	 1.094537965835918e+01
0	 3.623147316061895e+00	 2.900462262380651e+00	 1.089235325167940e+01
0	 3.613678293345332e+00	 3.076068586793656e+00	 1.082645651456247e+01
0	 3.603784279687457e+00	 3.248558751353012e+00	 1.074812761856792e+01
0	 3.593495365659578e+00	 3.417589745433269e+00	 1.065751258268343e+01
0	 3.582842712470401e+00	 3.582842712470401e+00	 1.055445371047512e+01
0	 3.898357836373472e+00	 1.921439201352932e+00	 1.081532942422044e+01
0	 3.892775731908592e+00	 2.119941092984378e+00	 1.083647133082808e+01
0	 3.886695906169907e+00	 2.317760848863838e+00	 1.084221865224947e+01
0	 3.880134507326405e+00	 2.514432938048236e+00	 1.083357357683412e+01
0	 3.873109854057287e+00	 2.709500172904777e+00	 1.081135177818314e+01
0	 3.865642270752574e+00	 2.902517209784861e+00	 1.077616909044843e+01
0	 3.857753901554998e+00	 3.093053861923504e+00	 1.072842894947546e+01
0	 3.849468506677019e+00	 3.280698174129537e+00	 1.066831060168239e+01
0	 3.840811244725058e+00	 3.465059215225035e+00	 1.059575797787783e+01
0	 3.831808444948972e+00	 3.645769551602888e+00	 1.051046902723914e+01
0	 3.822487373406350e+00	 3.822487373406350e+00	 1.041188520919044e+01
0	 4.127163859751041e+00	 2.039805029735690e+00	 1.066012899162838e+01
0	 4.122379198781354e+00	 2.250773453780402e+00	 1.067462259785624e+01
0	 4.117167919576881e+00	 2.461060428445330e+00	 1.067735405134275e+01
0	 4.111543863425279e+00	 2.670170928594810e+00	 1.066861412949741e+01
0	 4.105522732051537e+00	 2.877618593861471e+00	 1.064854087382311e+01
0	 4.099121946361340e+00	 3.082929454760893e+00	 1.061711291567599e+01
0	 4.092360487048416e+00	 3.285645461465357e+00	 1.057414279500365e+01
0	 4.085258720009117e+00	 3.485327761464676e+00	 1.051927017502170e+01
0	 4.077838209763197e+00	 3.681559679096708e+00	 1.045195479250826e+01
0	 4.070121524239068e+00	 3.873949357772704e+00	 1.037146892132510e+01
0	 4.062132034343201e+00	 4.062132034343201e+00	 1.027688906582737e+01
0	 4.355969883128389e+00	 2.158170858117477e+00	 1.052840341353935e+01
0	 4.351982665653872e+00	 2.381605814575217e+00	 1.053624467388158e+01
0	 4.347639932983603e+00	 2.604360008025409e+00	 1.053596726532564e+01
0	 4.342953219523922e+00	 2.825908919139835e+00	 1.052712302235593e+01
0	 4.337935610045602e+00	 3.045737014816560e+00	 1.050915162206610e+01
0	 4.332601621970007e+00	 3.263341699735383e+00	 1.048138166536975e+01
0	 4.326967072541869e+00	 3.478237061005864e+00	 1.044303100442868e+01
0	 4.321048933341441e+00	 3.689957348798821e+00	 1.039320612016474e+01
0	 4.314865174801815e+00	 3.898060142967917e+00	 1.033090033382107e+01
0	 4.308434603529965e+00	 4.102129163942779e+00	 1.025499061730701e+01
0	 4.301776695281252e+00	 4.301776695281252e+00	 1.016423274662518e+01
0	 4.584775906505176e+00	 2.276536686497955e+00	 1.042860991590175e+01
0	 4.581586132525781e+00	 2.512438175368445e+00	 1.043031211565649e+01
0	 4.578111946389694e+00	 2.747659587603671e+00	 1.042749797282443e+01
0	 4.574362575621943e+00	 2.981646909682887e+00	 1.041895904038024e+01
0	 4.570348488039107e+00	 3.213855435769630e+00	 1.040342192596564e+01
0	 4.566081297578238e+00	 3.443753944707938e+00	 1.037955830932028e+01
0	 4.561573658035083e+00	 3.670828660544684e+00	 1.034599348562957e+01
0	 4.556839146673807e+00	 3.894586936131723e+00	 1.030131314168652e+01
0	 4.551892139840852e+00	 4.114560606838545e+00	 1.024406809766105e+01
0	 4.546747682821764e+00	 4.330308970113180e+00	 1.017277677426156e+01
0	 4.541421356220801e+00	 4.541421356220801e+00	 1.008592516958621e+01
0	 4.813581929881066e+00	 2.394902514876783e+00	 1.036757146858208e+01
0	 4.811189599396715e+00	 2.643270536159719e+00	 1.036407370214131e+01
0	 4.808583959794765e+00	 2.890959167179717e+00	 1.035958075209316e+01
0	 4.805771931718952e+00	 3.137384900223549e+00	 1.035210753950829e+01
0	 4.802761366031675e+00	 3.381973856720257e+00	 1.033965773530707e+01
0	 4.799560973185692e+00	 3.624166189678157e+00	 1.032024396526532e+01
0	 4.796180243527779e+00	 3.863420260081475e+00	 1.029190584751634e+01
0	 4.792629360006031e+00	 4.099216523463129e+00	 1.025272547660278e+01
0	 4.788919104880250e+00	 4.331061070708476e+00	 1.020084004265035e+01
0	 4.785060762114567e+00	 4.558488776283971e+00	 1.013445135125487e+01
0	 4.781066017162151e+00	 4.781066017162151e+00	 1.005183208403600e+01
0	 5.042387953255724e+00	 2.513268343253626e+00	 1.035085334415887e+01
0	 5.040793066266307e+00	 2.774102896948664e+00	 1.034344823354332e+01
0	 5.039055973198430e+00	 3.034258746753144e+00	 1.033845686983700e+01
0	 5.037181287814557e+00	 3.293122890761398e+00	 1.033310526605139e+01
0	 5.035174244022931e+00	 3.550092277668020e+00	 1.032466823003819e+01
0	 5.033040648792031e+00	 3.804578434645647e+00	 1.031050107276036e+01
0	 5.030786829019682e+00	 4.056011859615896e+00	 1.028806848302946e+01
0	 5.028419573337929e+00	 4.303846110792790e+00	 1.025497009583062e+01
0	 5.025946069919947e+00	 4.547561534577589e+00	 1.020896240768135e+01
0	 5.023373841408475e+00	 4.786668582455219e+00	 1.014797682372091e+01
0	 5.020710678105601e+00	 5.020710678105601e+00	 1.007013375078138e+01
0	 5.271193976628816e+00	 2.631634171628145e+00	 1.038304014522913e+01
0	 5.270396533134192e+00	 2.904935257734908e+00	 1.037331617813748e+01
0	 5.269527986600303e+00	 3.177558326323551e+00	 1.036927826152951e+01
0	 5.268590643908371e+00	 3.448860881296015e+00	 1.036735459265594e+01
0	 5.267587122012499e+00	 3.718210698612499e+00	 1.036408844170260e+01
0	 5.266520324396913e+00	 3.984990679610009e+00	 1.035618273696226e+01
0	 5.265393414510515e+00	 4.248603459147601e+00	 1.034054117843122e+01
0	 5.264209786669314e+00	 4.508475698120455e+00	 1.031430532753678e+01
0	 5.262973034959884e+00	 4.764061998445771e+00	 1.027488730234109e+01
0	 5.261686920703585e+00	 5.014848388626985e+00	 1.021999789761472e+01
0	 5.260355339051451e+00	 5.260355339051451e+00	 1.014767013968756e+01
0	 5.500000000000000e+00	 2.750000000000000e+00	 1.046794269786253e+01
0	 5.499999999999999e+00	 3.035767618518078e+00	 1.045773779834594e+01
0	 5.500000000000001e+00	 3.320857905890535e+00	 1.045633525544807e+01
0	 5.500000000000001e+00	 3.604598871826979e+00	 1.045935935765742e+01
0	 5.500000000000000e+00	 3.886329119553271e+00	 1.046262187616860e+01
0	 5.500000000000000e+00	 4.165402924570846e+00	 1.046218095244660e+01
0	 5.499999999999999e+00	 4.441195058676249e+00	 1.045439590482792e+01
0	 5.499999999999999e+00	 4.713105285445870e+00	 1.043597733142024e+01
0	 5.499999999999999e+00	 4.980562462312902e+00	 1.040403212731521e+01
0	 5.500000000000000e+00	 5.243028194799336e+00	 1.035610328787317e+01
0	 5.500000000000000e+00	 5.500000000000000e+00	 1.029020462747943e+01
1	 5.500000000000000e+00	 0.000000000000000e+00	 1.020739645235157e+01
1	 5.500000000000001e+00	 2.569718052006656e-01	 1.024583690682917e+01
1	 5.500000000000000e+00	 5.194375376871000e-01	 1.027814000309695e+01
1	 5.500000000000000e+00	 7.868947145541317e-01	 1.030500312349995e+01
1	 5.500000000000000e+00	 1.058804941323752e+00	 1.032677136702136e+01
1	 5.499999999999999e+00	 1.334597075429155e+00	 1.034348734734924e+01
1	 5.500000000000000e+00	 1.613670880446729e+00	 1.035493571200661e+01
1	 5.499999999999999e+00	 1.895401128173021e+00	 1.036068331574591e+01
1	 5.500000000000000e+00	 2.179142094109466e+00	 1.036011584946518e+01
1	 5.500000000000000e+00	 2.464232381481922e+00	 1.035247162196489e+01
1	 5.500000000000000e+00	 2.750000000000000e+00	 1.033687311112234e+01
1	 5.725000000000001e+00	 0.000000000000000e+00	 1.021079827384233e+01
1	 5.726192423799033e+00	 2.618833382351803e-01	 1.023301404334515e+01
1	 5.727270093638112e+00	 5.278035289133571e-01	 1.025184987975911e+01
1	 5.728229542586900e+00	 7.973694690305050e-01	 1.026790515055582e+01
1	 5.729067641772008e+00	 1.070170627061152e+00	 1.028152548586119e+01
1	 5.729781625292947e+00	 1.345778956597826e+00	 1.029283703485503e+01
1	 5.730369112639240e+00	 1.623751004923998e+00	 1.030177889912674e+01
1	 5.730828128275944e+00	 1.903630196361554e+00	 1.030813403701029e+01
1	 5.731157118101038e+00	 2.184949266892318e+00	 1.031155891103654e+01
1	 5.731354962521108e+00	 2.467232823599859e+00	 1.031161213293607e+01
1	 5.731420985941480e+00	 2.750000000000000e+00	 1.030778234671532e+01
1	 5.950000000000002e+00	 0.000000000000000e+00	 1.020342652751747e+01
1	 5.951672316545753e+00	 2.658022590181399e-01	 1.021533131688916e+01
1	 5.953179170747773e+00	 5.344573874887578e-01	 1.022538961756620e+01
1	 5.954517122172129e+00	 8.056767551941232e-01	 1.023420216851195e+01
1	 5.955683086889183e+00	 1.079162014784486e+00	 1.024218736555747e+01
1	 5.956674354958710e+00	 1.354606137670033e+00	 1.024960479325244e+01
1	 5.957488605983235e+00	 1.631694518747019e+00	 1.025657841644408e+01
1	 5.958123922565145e+00	 1.910106141995938e+00	 1.026311948229715e+01
1	 5.958578801523243e+00	 2.189514798160808e+00	 1.026914918240428e+01
1	 5.958852162747166e+00	 2.469590344999480e+00	 1.027452112375771e+01
1	 5.958943355592635e+00	 2.750000000000000e+00	 1.027904365665653e+01
1	 6.175000000000000e+00	 0.000000000000000e+00	 1.018761654659611e+01
1	 6.176678423306206e+00	 2.688457812266511e-01	 1.019375880299536e+01
1	 6.178187261527615e+00	 5.396118883815582e-01	 1.019874807247838e+01
1	 6.179524188256638e+00	 8.120976853758719e-01	 1.020321976799007e+01
1	 6.180687129063377e+00	 1.086098128992487e+00	 1.020768208842345e+01
1	 6.181674269456913e+00	 1.361404265956596e+00	 1.021253162254779e+01
1	 6.182484061905510e+00	 1.637803751000639e+00	 1.021806913194898e+01
1	 6.183115231865509e+00	 1.915081383301380e+00	 1.022451548813140e+01
1	 6.183566782775378e+00	 2.193019658497543e+00	 1.023202773850768e+01
1	 6.183837999978480e+00	 2.471399333351498e+00	 1.024071527564658e+01
1	 6.183928453545910e+00	 2.750000000000000e+00	 1.025065608386476e+01
1	 6.400000000000000e+00	 0.000000000000000e+00	 1.016533107989227e+01
1	 6.401407992067703e+00	 2.711280218270948e-01	 1.016914507067592e+01
1	 6.402671513917073e+00	 5.434696326695506e-01	 1.017193248444551e+01
1	 6.403789331405731e+00	 8.168950411877609e-01	 1.017436448710641e+01
1	 6.404760348364308e+00	 1.091272694695359e+00	 1.017702797313869e+01
1	 6.405583609265956e+00	 1.366469485872934e+00	 1.018043532811244e+01
1	 6.406258301565085e+00	 1.642350964780017e+00	 1.018503444838588e+01
1	 6.406783757694829e+00	 1.918781555467731e+00	 1.019121898451307e+01
1	 6.407159456713987e+00	 2.195624776467569e+00	 1.019933877356194e+01
1	 6.407385025595930e+00	 2.472743464408981e+00	 1.020971042441683e+01
1	 6.407460240153560e+00	 2.749999999999999e+00	 1.022262801922423e+01
1	 6.625000000000000e+00	 0.000000000000000e+00	 1.013829569799396e+01
1	 6.626017841930063e+00	 2.727607477651414e-01	 1.014225906404558e+01
1	 6.626930105046613e+00	 5.462255723723126e-01	 1.014496268825848e+01
1	 6.627736271516088e+00	 8.203179354293952e-01	 1.014709961709566e+01
1	 6.628435882679365e+00	 1.094960705428995e+00	 1.014931106574427e+01
1	 6.629028539701589e+00	 1.370076229278427e+00	 1.015219205444582e+01
1	 6.629513904138974e+00	 1.645586404864135e+00	 1.015629722489227e+01
1	 6.629891698420917e+00	 1.921412754509406e+00	 1.016214681460189e+01
1	 6.630161706246257e+00	 2.197476499181214e+00	 1.017023276612471e+01
1	 6.630323772892551e+00	 2.473698633299490e+00	 1.018102494701603e+01
1	 6.630377805437597e+00	 2.750000000000000e+00	 1.019497745576510e+01
1	 6.850000000000001e+00	 0.000000000000000e+00	 1.010809614705006e+01
1	 6.850625086095563e+00	 2.738540088347511e-01	 1.011382242143296e+01
1	 6.851184864528596e+00	 5.480691096738654e-01	 1.011786793577854e+01
1	 6.851679172153338e+00	 8.226056249132491e-01	 1.012092680935321e+01
1	 6.852107864736460e+00	 1.097423720900026e+00	 1.012366440476479e+01
1	 6.852470817062080e+00	 1.372483427088250e+00	 1.012672024298007e+01
1	 6.852767923023052e+00	 1.647744655334131e+00	 1.013071100637097e+01
1	 6.852999095698447e+00	 1.923167219311306e+00	 1.013623361959063e+01
1	 6.853164267417061e+00	 2.198710854026464e+00	 1.014386839761926e+01
1	 6.853263389806924e+00	 2.474335235415472e+00	 1.015418224992130e+01
1	 6.853296433830698e+00	 2.750000000000000e+00	 1.016773192932223e+01
1	 7.075000000000000e+00	 0.000000000000000e+00	 1.007624957557791e+01
1	 7.075307577228130e+00	 2.745166643649327e-01	 1.008453504163102e+01
1	 7.075582879752750e+00	 5.491858187734625e-01	 1.009068601677781e+01
1	 7.075825873666784e+00	 8.239905988707934e-01	 1.009537276964241e+01
1	 7.076036529027631e+00	 1.098914112467776e+00	 1.009925182285771e+01
1	 7.076214819866339e+00	 1.373939442993886e+00	 1.010296724155641e+01
1	 7.076360724195620e+00	 1.649049652960713e+00	 1.010715195179504e+01
1	 7.076474224016629e+00	 1.924227787434463e+00	 1.011242908563954e+01
1	 7.076555305324512e+00	 2.199456877515996e+00	 1.011941334952874e+01
1	 7.076603958112718e+00	 2.474719943826885e+00	 1.012871241243434e+01
1	 7.076620176376093e+00	 2.750000000000000e+00	 1.014092831025284e+01
1	 7.300000000000001e+00	 0.000000000000000e+00	 1.004425649555726e+01
1	 7.300104138824248e+00	 2.748568091253816e-01	 1.005509565332750e+01
1	 7.300197325881518e+00	 5.497588239372824e-01	 1.006346450164853e+01
1	 7.300279557768210e+00	 8.247010285161031e-01	 1.006998051448067e+01
1	 7.300350831480414e+00	 1.099678404495881e+00	 1.007525601487995e+01
1	 7.300411144414197e+00	 1.374685931369405e+00	 1.007989861977920e+01
1	 7.300460494365814e+00	 1.649718586793594e+00	 1.008451169076972e+01
1	 7.300498879531943e+00	 1.924771346895124e+00	 1.008969479026540e+01
1	 7.300526298509827e+00	 2.199839186576241e+00	 1.009604414241916e+01
1	 7.300542750297401e+00	 2.474917079820727e+00	 1.010415309815071e+01
1	 7.300548234293403e+00	 2.750000000000000e+00	 1.011461260363563e+01
1	 7.525000000000000e+00	 0.000000000000000e+00	 1.001363715138292e+01
1	 7.525014643780846e+00	 2.749821020542028e-01	 1.002621842816323e+01
1	 7.525027746290601e+00	 5.499698558962538e-01	 1.003626402336352e+01
1	 7.525039307469421e+00	 8.249626336580755e-01	 1.004430482598600e+01
1	 7.525049327264507e+00	 1.099959807433352e+00	 1.005087061134951e+01
1	 7.525057805630106e+00	 1.374960749282307e+00	 1.005649013146460e+01
1	 7.525064742527484e+00	 1.649964831236481e+00	 1.006169120578764e+01
1	 7.525070137924969e+00	 1.924971425303512e+00	 1.006700081231697e+01
1	 7.525073991797916e+00	 2.199979903471919e+00	 1.007294517899311e+01
1	 7.525076304128723e+00	 2.474989637715876e+00	 1.008004987536541e+01
1	 7.525077074906833e+00	 2.750000000000000e+00	 1.008883990448709e+01
1	 7.750000000000000e+00	 0.000000000000000e+00	 9.985953899906162e+00
1	 7.750000000000000e+00	 2.750000000085500e-01	 9.998646169929119e+00
1	 7.750000000000000e+00	 5.500000000144002e-01	 1.000916357909281e+01
1	 7.749999999999999e+00	 8.250000000178501e-01	 1.001791168395492e+01
1	 7.750000000000001e+00	 1.100000000019200e+00	 1.002529604107310e+01
1	 7.750000000000000e+00	 1.375000000018750e+00	 1.003172220700502e+01
1	 7.750000000000001e+00	 1.650000000016800e+00	 1.003759573830833e+01
1	 7.749999999999999e+00	 1.925000000013650e+00	 1.004332219154069e+01
1	 7.750000000000001e+00	 2.200000000009600e+00	 1.004930712325974e+01
1	 7.750000000000001e+00	 2.475000000004950e+00	 1.005595609002315e+01
1	 7.750000000000000e+00	 2.750000000000000e+00	 1.006367464838855e+01
1	 5.500000000000000e+00	 2.750000000000000e+00	 1.033687311112234e+01
1	 5.499999999999999e+00	 3.035767618518078e+00	 1.031711958190957e+01
1	 5.500000000000001e+00	 3.320857905890535e+00	 1.029916032311302e+01
1	 5.500000000000001e+00	 3.604598871826979e+00	 1.028531689202440e+01
1	 5.500000000000000e+00	 3.886329119553271e+00	 1.027800936159306e+01
1	 5.500000000000000e+00	 4.165402924570846e+00	 1.027980953100027e+01
1	 5.499999999999999e+00	 4.441195058676249e+00	 1.029349673209544e+01
1	 5.499999999999999e+00	 4.713105285445870e+00	 1.032211722873037e+01
1	 5.499999999999999e+00	 4.980562462312902e+00	 1.036904831360635e+01
1	 5.500000000000000e+00	 5.243028194799336e+00	 1.043806835090049e+01
1	 5.500000000000000e+00	 5.500000000000000e+00	 1.053343419947201e+01
1	 5.731420985941480e+00	 2.750000000000000e+00	 1.030778234671532e+01
1	 5.731354962521109e+00	 3.032767176400141e+00	 1.030028618632068e+01
1	 5.731157118101037e+00	 3.315050733107681e+00	 1.029097551469744e+01
1	 5.730828128275944e+00	 3.596369803638444e+00	 1.028176200026143e+01
1	 5.730369112639242e+00	 3.876248995076005e+00	 1.027458933759212e+01
1	 5.729781625292946e+00	 4.154221043402175e+00	 1.027146322992664e+01
1	 5.729067641772008e+00	 4.429829372938850e+00	 1.027448194022540e+01
1	 5.728229542586901e+00	 4.702630530969498e+00	 1.028586766501775e+01
1	 5.727270093638115e+00	 4.972196471086646e+00	 1.030799899736047e+01
1	 5.726192423799036e+00	 5.238116661764821e+00	 1.034344476129897e+01
1	 5.725000000000001e+00	 5.500000000000000e+00	 1.039499952057190e+01
1	 5.958943355592635e+00	 2.750000000000000e+00	 1.027904365665653e+01
1	 5.958852162747167e+00	 3.030409655000522e+00	 1.028048110547694e+01
1	 5.958578801523244e+00	 3.310485201839191e+00	 1.027775286855300e+01
1	 5.958123922565144e+00	 3.589893858004064e+00	 1.027237199909508e+01
1	 5.957488605983234e+00	 3.868305481252980e+00	 1.026585499094479e+01
1	 5.956674354958708e+00	 4.145393862329971e+00	 1.025973828971939e+01
1	 5.955683086889182e+00	 4.420837985215517e+00	 1.025559486423480e+01
1	 5.954517122172128e+00	 4.694323244805879e+00	 1.025505087354778e+01
1	 5.953179170747774e+00	 4.965542612511246e+00	 1.025980246534326e+01
1	 5.951672316545753e+00	 5.234197740981863e+00	 1.027163274190985e+01
1	 5.950000000000002e+00	 5.500000000000001e+00	 1.029242893059900e+01
1	 6.183928453545910e+00	 2.750000000000000e+00	 1.025065608386476e+01
1	 6.183837999978482e+00	 3.028600666648501e+00	 1.025813319444581e+01
1	 6.183566782775378e+00	 3.306980341502457e+00	 1.026015637290682e+01
1	 6.183115231865510e+00	 3.584918616698620e+00	 1.025787036645344e+01
1	 6.182484061905509e+00	 3.862196248999363e+00	 1.025241442139582e+01
1	 6.181674269456912e+00	 4.138595734043406e+00	 1.024493133313401e+01
1	 6.180687129063377e+00	 4.413901871007515e+00	 1.023657647954698e+01
1	 6.179524188256636e+00	 4.687902314624131e+00	 1.022852682325757e+01
1	 6.178187261527615e+00	 4.960388111618444e+00	 1.022198986834766e+01
1	 6.176678423306206e+00	 5.231154218773351e+00	 1.021821255724032e+01
1	 6.175000000000000e+00	 5.500000000000001e+00	 1.021849009364611e+01
1	 6.407460240153560e+00	 2.749999999999999e+00	 1.022262801922423e+01
1	 6.407385025595930e+00	 3.027256535591017e+00	 1.023369939347528e+01
1	 6.407159456713987e+00	 3.304375223532432e+00	 1.023889490205134e+01
1	 6.406783757694831e+00	 3.581218444532269e+00	 1.023903444696504e+01
1	 6.406258301565084e+00	 3.857649035219984e+00	 1.023493197675359e+01
1	 6.405583609265957e+00	 4.133530514127068e+00	 1.022740059149685e+01
1	 6.404760348364309e+00	 4.408727305304641e+00	 1.021725763453048e+01
1	 6.403789331405730e+00	 4.683104958812240e+00	 1.020532975295791e+01
1	 6.402671513917074e+00	 4.956530367330452e+00	 1.019245790930696e+01
1	 6.401407992067703e+00	 5.228871978172908e+00	 1.017950232702442e+01
1	 6.400000000000000e+00	 5.500000000000000e+00	 1.016734735295068e+01
1	 6.630377805437597e+00	 2.750000000000000e+00	 1.019497745576510e+01
1	 6.630323772892551e+00	 3.026301366700511e+00	 1.020766064708700e+01
1	 6.630161706246255e+00	 3.302523500818785e+00	 1.021471520771436e+01
1	 6.629891698420916e+00	 3.578587245490594e+00	 1.021668795666177e+01
1	 6.629513904138974e+00	 3.854413595135866e+00	 1.021412179598459e+01
1	 6.629028539701588e+00	 4.129923770721573e+00	 1.020755876064335e+01
1	 6.628435882679366e+00	 4.405039294571008e+00	 1.019754306027003e+01
1	 6.627736271516089e+00	 4.679682064570607e+00	 1.018462410054122e+01
1	 6.626930105046613e+00	 4.953774427627690e+00	 1.016935947204931e+01
1	 6.626017841930065e+00	 5.227239252234860e+00	 1.015231789483141e+01
1	 6.625000000000000e+00	 5.500000000000000e+00	 1.013408210706313e+01
1	 6.853296433830698e+00	 2.750000000000000e+00	 1.016773192932223e+01
1	 6.853263389806924e+00	 3.025664764584528e+00	 1.018051788938064e+01
1	 6.853164267417060e+00	 3.301289145973536e+00	 1.018839497682901e+01
1	 6.852999095698447e+00	 3.576832780688695e+00	 1.019169324946102e+01
1	 6.852767923023051e+00	 3.852255344665870e+00	 1.019074076771908e+01
1	 6.852470817062080e+00	 4.127516572911751e+00	 1.018586548825528e+01
1	 6.852107864736462e+00	 4.402576279099975e+00	 1.017739715188835e+01
1	 6.851679172153339e+00	 4.677394375086753e+00	 1.016566915915702e+01
1	 6.851184864528597e+00	 4.951930890326136e+00	 1.015102042676738e+01
1	 6.850625086095563e+00	 5.226145991165251e+00	 1.013379721836966e+01
1	 6.850000000000001e+00	 5.499999999999999e+00	 1.011435494327696e+01
1	 7.076620176376093e+00	 2.750000000000000e+00	 1.014092831025284e+01
1	 7.076603958112718e+00	 3.025280056173115e+00	 1.015278849608533e+01
1	 7.076555305324511e+00	 3.300543122484003e+00	 1.016073654285202e+01
1	 7.076474224016631e+00	 3.575772212565538e+00	 1.016494397330087e+01
1	 7.076360724195621e+00	 3.850950347039287e+00	 1.016558144749684e+01
1	 7.076214819866339e+00	 4.126060557006114e+00	 1.016281987952116e+01
1	 7.076036529027633e+00	 4.401085887532225e+00	 1.015683155120430e+01
1	 7.075825873666787e+00	 4.676009401129207e+00	 1.014779122000214e+01
1	 7.075582879752747e+00	 4.950814181226539e+00	 1.013587721815736e+01
1	 7.075307577228132e+00	 5.225483335635071e+00	 1.012127254033152e+01
1	 7.075000000000000e+00	 5.499999999999999e+00	 1.010416591695057e+01
1	 7.300548234293403e+00	 2.750000000000000e+00	 1.011461260363563e+01
1	 7.300542750297402e+00	 3.025082920179273e+00	 1.012500348928994e+01
1	 7.300526298509826e+00	 3.300160813423760e+00	 1.013256165440037e+01
1	 7.300498879531944e+00	 3.575228653104876e+00	 1.013735855942567e+01
1	 7.300460494365814e+00	 3.850281413206407e+00	 1.013946533156668e+01
1	 7.300411144414197e+00	 4.125314068630597e+00	 1.013895329470805e+01
1	 7.300350831480416e+00	 4.400321595504121e+00	 1.013589449852114e+01
1	 7.300279557768210e+00	 4.675298971483899e+00	 1.013036224598327e+01
1	 7.300197325881519e+00	 4.950241176062719e+00	 1.012243161857347e+01
1	 7.300104138824249e+00	 5.225143190874619e+00	 1.011217999841075e+01
1	 7.300000000000001e+00	 5.500000000000001e+00	 1.009968758660961e+01
1	 7.525077074906833e+00	 2.750000000000000e+00	 1.008883990448709e+01
1	 7.525076304128723e+00	 3.025010362284124e+00	 1.009770569134543e+01
1	 7.525073991797917e+00	 3.300020096528081e+00	 1.010470755717135e+01
1	 7.525070137924970e+00	 3.575028574696488e+00	 1.010987483096378e+01
1	 7.525064742527486e+00	 3.850035168763520e+00	 1.011323675296646e+01
1	 7.525057805630103e+00	 4.125039250717693e+00	 1.011482261168241e+01
1	 7.525049327264508e+00	 4.400040192566649e+00	 1.011466188082550e+01
1	 7.525039307469420e+00	 4.675037366341925e+00	 1.011278435615163e+01
1	 7.525027746290601e+00	 4.950030144103749e+00	 1.010922029211319e+01
1	 7.525014643780845e+00	 5.225017897945799e+00	 1.010400053827983e+01
1	 7.525000000000000e+00	 5.500000000000001e+00	 1.009715667546910e+01
1	 7.750000000000000e+00	 2.750000000000000e+00	 1.006367464838855e+01
1	 7.749999999999999e+00	 3.024999999995049e+00	 1.007144897205691e+01
1	 7.750000000000000e+00	 3.299999999990400e+00	 1.007802454749845e+01
1	 7.750000000000000e+00	 3.574999999986351e+00	 1.008344590042467e+01
1	 7.749999999999999e+00	 3.849999999983201e+00	 1.008775755654710e+01
1	 7.749999999999999e+00	 4.124999999981251e+00	 1.009100404157727e+01
1	 7.750000000000001e+00	 4.399999999980801e+00	 1.009322988122674e+01
1	 7.749999999999999e+00	 4.674999999982151e+00	 1.009447960120704e+01
1	 7.750000000000001e+00	 4.949999999985602e+00	 1.009479772722981e+01
1	 7.749999999999999e+00	 5.224999999991451e+00	 1.009422878500659e+01
1	 7.750000000000000e+00	 5.500000000000000e+00	 1.009281730024901e+01
1	 7.750000000000000e+00	 0.000000000000000e+00	 9.985953899906162e+00
1	 7.750000000000000e+00	 2.750000000085500e-01	 9.998646169929119e+00
1	 7.750000000000000e+00	 5.500000000144002e-01	 1.000916357909281e+01
1	 7.749999999999999e+00	 8.250000000178501e-01	 1.001791168395492e+01
1	 7.750000000000001e+00	 1.100000000019200e+00	 1.002529604107310e+01
1	 7.750000000000000e+00	 1.375000000018750e+00	 1.003172220700502e+01
1	 7.750000000000001e+00	 1.650000000016800e+00	 1.003759573830833e+01
1	 7.749999999999999e+00	 1.925000000013650e+00	 1.004332219154069e+01
1	 7.750000000000001e+00	 2.200000000009600e+00	 1.004930712325974e+01
1	 7.750000000000001e+00	 2.475000000004950e+00	 1.005595609002315e+01
1	 7.750000000000000e+00	 2.750000000000000e+00	 1.006367464838855e+01
1	 7.975000000000000e+00	 0.000000000000000e+00	 9.961606768370363e+00
1	 7.975000000000001e+00	 2.750000000085500e-01	 9.972810817518052e+00
1	 7.975000000000001e+00	 5.500000000144002e-01	 9.982514016245839e+00
1	 7.975000000000001e+00	 8.250000000178501e-01	 9.990990230362351e+00
1	 7.975000000000001e+00	 1.100000000019200e+00	 9.998513325676210e+00
1	 7.975000000000001e+00	 1.375000000018750e+00	 1.000535716799604e+01
1	 7.975000000000000e+00	 1.650000000016800e+00	 1.001179562313047e+01
1	 7.975000000000001e+00	 1.925000000013650e+00	 1.001810255688809e+01
1	 7.975000000000001e+00	 2.200000000009600e+00	 1.002455183507753e+01
1	 7.974999999999999e+00	 2.475000000004949e+00	 1.003141732350741e+01
1	 7.975000000000000e+00	 2.750000000000000e+00	 1.003897288798631e+01
1	 8.200000000000001e+00	 0.000000000000000e+00	 9.938938089180660e+00
1	 8.199999999999999e+00	 2.750000000085500e-01	 9.947928692572299e+00
1	 8.199999999999999e+00	 5.500000000144002e-01	 9.956144948692684e+00
1	 8.200000000000001e+00	 8.250000000178500e-01	 9.963757577664875e+00
1	 8.199999999999999e+00	 1.100000000019200e+00	 9.970937299611917e+00
1	 8.199999999999998e+00	 1.375000000018750e+00	 9.977854834656867e+00
1	 8.199999999999999e+00	 1.650000000016800e+00	 9.984680902922765e+00
1	 8.199999999999996e+00	 1.925000000013650e+00	 9.991586224532657e+00
1	 8.200000000000001e+00	 2.200000000009600e+00	 9.998741519609567e+00
1	 8.200000000000001e+00	 2.475000000004949e+00	 1.000631750827656e+01
1	 8.199999999999999e+00	 2.750000000000000e+00	 1.001448491065664e+01
1	 8.425000000000002e+00	 0.000000000000000e+00	 9.916461858648312e+00
1	 8.425000000000001e+00	 2.750000000085500e-01	 9.922946932663578e+00
1	 8.425000000000002e+00	 5.500000000144001e-01	 9.929371494020817e+00
1	 8.424999999999999e+00	 8.250000000178499e-01	 9.935831662220959e+00
1	 8.425000000000001e+00	 1.100000000019200e+00	 9.942423556764970e+00
1	 8.425000000000001e+00	 1.375000000018750e+00	 9.949243297153775e+00
1	 8.425000000000001e+00	 1.650000000016800e+00	 9.956387002888331e+00
1	 8.425000000000001e+00	 1.925000000013650e+00	 9.963950793469547e+00
1	 8.425000000000002e+00	 2.200000000009600e+00	 9.972030788398367e+00
1	 8.425000000000002e+00	 2.475000000004949e+00	 9.980723107175711e+00
1	 8.425000000000001e+00	 2.750000000000000e+00	 9.990123869302501e+00
1	 8.650000000000000e+00	 0.000000000000000e+00	 9.892692073084557e+00
1	 8.650000000000000e+00	 2.750000000085501e-01	 9.896812675363615e+00
1	 8.650000000000000e+00	 5.500000000144001e-01	 9.901508769817685e+00
1	 8.650000000000004e+00	 8.250000000178503e-01	 9.906830420389085e+00
1	 8.649999999999999e+00	 1.100000000019200e+00	 9.912827691020123e+00
1	 8.649999999999999e+00	 1.375000000018750e+00	 9.919550645653086e+00
1	 8.650000000000002e+00	 1.650000000016800e+00	 9.927049348230273e+00
1	 8.650000000000004e+00	 1.925000000013650e+00	 9.935373862693972e+00
1	 8.650000000000002e+00	 2.200000000009600e+00	 9.944574252986454e+00
1	 8.650000000000000e+00	 2.475000000004949e+00	 9.954700583049997e+00
1	 8.650000000000000e+00	 2.750000000000000e+00	 9.965802916826863e+00
1	 8.875000000000002e+00	 0.000000000000000e+00	 9.866142728800632e+00
1	 8.875000000000000e+00	 2.750000000085500e-01	 9.868473058244108e+00
1	 8.875000000000000e+00	 5.500000000144000e-01	 9.871871893670759e+00
1	 8.874999999999998e+00	 8.250000000178499e-01	 9.876371788527726e+00
1	 8.875000000000004e+00	 1.100000000019200e+00	 9.882005296262133e+00
1	 8.875000000000000e+00	 1.375000000018750e+00	 9.888804970321088e+00
1	 8.875000000000002e+00	 1.650000000016800e+00	 9.896803364151715e+00
1	 8.875000000000002e+00	 1.925000000013650e+00	 9.906033031201105e+00
1	 8.875000000000002e+00	 2.200000000009600e+00	 9.916526524916344e+00
1	 8.875000000000000e+00	 2.475000000004950e+00	 9.928316398744521e+00
1	 8.875000000000000e+00	 2.750000000000000e+00	 9.941435206132695e+00
1	 9.100000000000001e+00	 0.000000000000000e+00	 9.835327822107791e+00
1	 9.100000000000003e+00	 2.750000000085500e-01	 9.836875218876777e+00
1	 9.100000000000000e+00	 5.500000000144002e-01	 9.839775983167490e+00
1	 9.100000000000003e+00	 8.250000000178503e-01	 9.844073702995347e+00
1	 9.100000000000001e+00	 1.100000000019200e+00	 9.849811966375750e+00
1	 9.100000000000003e+00	 1.375000000018750e+00	 9.857034361324093e+00
1	 9.100000000000001e+00	 1.650000000016800e+00	 9.865784475855758e+00
1	 9.100000000000001e+00	 1.925000000013650e+00	 9.876105897986132e+00
1	 9.100000000000003e+00	 2.200000000009600e+00	 9.888042215730559e+00
1	 9.100000000000001e+00	 2.475000000004950e+00	 9.901637017104392e+00
1	 9.100000000000001e+00	 2.750000000000000e+00	 9.916933890122969e+00
1	 9.325000000000001e+00	 0.000000000000000e+00	 9.798761349317264e+00
1	 9.325000000000001e+00	 2.750000000085500e-01	 9.800966294833348e+00
1	 9.324999999999999e+00	 5.500000000144001e-01	 9.804536155895343e+00
1	 9.325000000000001e+00	 8.250000000178501e-01	 9.809554100150432e+00
1	 9.325000000000005e+00	 1.100000000019200e+00	 9.816103295245730e+00
1	 9.325000000000001e+00	 1.375000000018750e+00	 9.824266908828404e+00
1	 9.325000000000003e+00	 1.650000000016800e+00	 9.834128108545535e+00
1	 9.325000000000001e+00	 1.925000000013650e+00	 9.845770062044243e+00
1	 9.324999999999999e+00	 2.200000000009600e+00	 9.859275936971628e+00
1	 9.325000000000001e+00	 2.475000000004949e+00	 9.874728900974738e+00
1	 9.325000000000003e+00	 2.750000000000000e+00	 9.892212121700656e+00
1	 9.550000000000001e+00	 0.000000000000000e+00	 9.754957306740305e+00
1	 9.550000000000001e+00	 2.750000000085499e-01	 9.759693423685521e+00
1	 9.550000000000002e+00	 5.500000000144001e-01	 9.765467529441777e+00
1	 9.550000000000004e+00	 8.250000000178502e-01	 9.772430916351443e+00
1	 9.549999999999999e+00	 1.100000000019200e+00	 9.780734876756846e+00
1	 9.550000000000001e+00	 1.375000000018750e+00	 9.790530703000311e+00
1	 9.550000000000002e+00	 1.650000000016800e+00	 9.801969687424142e+00
1	 9.550000000000002e+00	 1.925000000013650e+00	 9.815203122370622e+00
1	 9.550000000000004e+00	 2.200000000009600e+00	 9.830382300182050e+00
1	 9.550000000000004e+00	 2.475000000004950e+00	 9.847658513200672e+00
1	 9.550000000000002e+00	 2.750000000000000e+00	 9.867183053768731e+00
1	 9.775000000000002e+00	 0.000000000000000e+00	 9.702429690688152e+00
1	 9.775000000000000e+00	 2.750000000085500e-01	 9.712003743005010e+00
1	 9.775000000000004e+00	 5.500000000144002e-01	 9.721885221394251e+00
1	 9.775000000000002e+00	 8.250000000178501e-01	 9.732322087956863e+00
1	 9.775000000000000e+00	 1.100000000019200e+00	 9.743562304793830e+00
1	 9.775000000000002e+00	 1.375000000018750e+00	 9.755853834006130e+00
1	 9.775000000000002e+00	 1.650000000016800e+00	 9.769444637694685e+00
1	 9.775000000000002e+00	 1.925000000013650e+00	 9.784582677960469e+00
1	 9.775000000000004e+00	 2.200000000009600e+00	 9.801515916904361e+00
1	 9.775000000000002e+00	 2.475000000004950e+00	 9.820492316627286e+00
1	 9.775000000000002e+00	 2.750000000000000e+00	 9.841759839230157e+00
1	 1.000000000000000e+01	 0.000000000000000e+00	 9.639692497472051e+00
1	 1.000000000000000e+01	 2.750000000085500e-01	 9.656844390363537e+00
1	 1.000000000000000e+01	 5.500000000144001e-01	 9.673104349340210e+00
1	 1.000000000000000e+01	 8.250000000178502e-01	 9.688845551325169e+00
1	 1.000000000000000e+01	 1.100000000019200e+00	 9.704441173241459e+00
1	 1.000000000000000e+01	 1.375000000018750e+00	 9.720264392012151e+00
1	 9.999999999999996e+00	 1.650000000016800e+00	 9.736688384560301e+00
1	 1.000000000000000e+01	 1.925000000013650e+00	 9.754086327808936e+00
1	 1.000000000000000e+01	 2.200000000009600e+00	 9.772831398681076e+00
1	 1.000000000000000e+01	 2.475000000004950e+00	 9.793296774099739e+00
1	 1.000000000000000e+01	 2.750000000000000e+00	 9.815855630987908e+00
1	 7.750000000000000e+00	 2.750000000000000e+00	 1.006367464838855e+01
1	 7.749999999999999e+00	 3.024999999995049e+00	 1.007144897205691e+01
1	 7.750000000000000e+00	 3.299999999990400e+00	 1.007802454749845e+01
1	 7.750000000000000e+00	 3.574999999986351e+00	 1.008344590042467e+01
1	 7.749999999999999e+00	 3.849999999983201e+00	 1.008775755654710e+01
1	 7.749999999999999e+00	 4.124999999981251e+00	 1.009100404157727e+01
1	 7.750000000000001e+00	 4.399999999980801e+00	 1.009322988122674e+01
1	 7.749999999999999e+00	 4.674999999982151e+00	 1.009447960120704e+01
1	 7.750000000000001e+00	 4.949999999985602e+00	 1.009479772722981e+01
1	 7.749999999999999e+00	 5.224999999991451e+00	 1.009422878500659e+01
1	 7.750000000000000e+00	 5.500000000000000e+00	 1.009281730024901e+01
1	 7.975000000000000e+00	 2.750000000000000e+00	 1.003897288798631e+01
1	 7.974999999999999e+00	 3.024999999995049e+00	 1.004648489410023e+01
1	 7.974999999999999e+00	 3.299999999990400e+00	 1.005309223954743e+01
1	 7.975000000000001e+00	 3.574999999986351e+00	 1.005887758830500e+01
1	 7.975000000000001e+00	 3.849999999983201e+00	 1.006392360435003e+01
1	 7.975000000000000e+00	 4.124999999981251e+00	 1.006831295165962e+01
1	 7.975000000000001e+00	 4.399999999980801e+00	 1.007212829421090e+01
1	 7.974999999999999e+00	 4.674999999982150e+00	 1.007545229598099e+01
1	 7.975000000000000e+00	 4.949999999985601e+00	 1.007836762094702e+01
1	 7.974999999999999e+00	 5.224999999991453e+00	 1.008095693308613e+01
1	 7.975000000000000e+00	 5.500000000000000e+00	 1.008330289637548e+01
1	 8.199999999999999e+00	 2.750000000000000e+00	 1.001448491065664e+01
1	 8.200000000000003e+00	 3.024999999995051e+00	 1.002253374829718e+01
1	 8.200000000000001e+00	 3.299999999990400e+00	 1.002971325854861e+01
1	 8.199999999999999e+00	 3.574999999986351e+00	 1.003613298523858e+01
1	 8.199999999999999e+00	 3.849999999983202e+00	 1.004190247219476e+01
1	 8.199999999999998e+00	 4.124999999981250e+00	 1.004713126324483e+01
1	 8.199999999999998e+00	 4.399999999980801e+00	 1.005192890221647e+01
1	 8.200000000000003e+00	 4.674999999982153e+00	 1.005640493293738e+01
1	 8.200000000000001e+00	 4.949999999985603e+00	 1.006066889923524e+01
1	 8.199999999999999e+00	 5.224999999991452e+00	 1.006483034493779e+01
1	 8.200000000000001e+00	 5.500000000000000e+00	 1.006899881387273e+01
1	 8.425000000000001e+00	 2.750000000000000e+00	 9.990123869302501e+00
1	 8.425000000000001e+00	 3.024999999995050e+00	 9.999360933758124e+00
1	 8.425000000000002e+00	 3.299999999990400e+00	 1.000758152336353e+01
1	 8.425000000000001e+00	 3.574999999986351e+00	 1.001491080338193e+01
1	 8.425000000000001e+00	 3.849999999983202e+00	 1.002147393907658e+01
1	 8.425000000000001e+00	 4.124999999981251e+00	 1.002739609571072e+01
1	 8.425000000000002e+00	 4.399999999980801e+00	 1.003280243854762e+01
1	 8.424999999999999e+00	 4.674999999982153e+00	 1.003781813285055e+01
1	 8.425000000000002e+00	 4.949999999985602e+00	 1.004256834388278e+01
1	 8.425000000000001e+00	 5.224999999991453e+00	 1.004717823690758e+01
1	 8.425000000000002e+00	 5.500000000000001e+00	 1.005177297718826e+01
1	 8.650000000000000e+00	 2.750000000000000e+00	 9.965802916826863e+00
1	 8.650000000000002e+00	 3.024999999995051e+00	 9.976731849593415e+00
1	 8.650000000000002e+00	 3.299999999990401e+00	 9.986390952853704e+00
1	 8.650000000000002e+00	 3.574999999986351e+00	 9.994909754891546e+00
1	 8.650000000000004e+00	 3.849999999983201e+00	 1.000241778399075e+01
1	 8.650000000000000e+00	 4.124999999981252e+00	 1.000904456843515e+01
1	 8.649999999999999e+00	 4.399999999980801e+00	 1.001491963650857e+01
1	 8.650000000000000e+00	 4.674999999982153e+00	 1.002017251649487e+01
1	 8.650000000000000e+00	 4.949999999985603e+00	 1.002493273667788e+01
1	 8.650000000000002e+00	 5.224999999991452e+00	 1.002932982534149e+01
1	 8.650000000000000e+00	 5.500000000000000e+00	 1.003349331076953e+01
1	 8.875000000000000e+00	 2.750000000000000e+00	 9.941435206132695e+00
1	 8.875000000000000e+00	 3.024999999995050e+00	 9.954411894913397e+00
1	 8.875000000000002e+00	 3.299999999990401e+00	 9.965835465880687e+00
1	 8.874999999999998e+00	 3.574999999986351e+00	 9.975828551923946e+00
1	 8.874999999999998e+00	 3.849999999983200e+00	 9.984513785932567e+00
1	 8.875000000000000e+00	 4.124999999981251e+00	 9.992013800795947e+00
1	 8.875000000000002e+00	 4.399999999980802e+00	 9.998451229403496e+00
1	 8.875000000000002e+00	 4.674999999982151e+00	 1.000394870464465e+01
1	 8.875000000000002e+00	 4.949999999985602e+00	 1.000862885940882e+01
1	 8.875000000000002e+00	 5.224999999991453e+00	 1.001261432658548e+01
1	 8.875000000000002e+00	 5.500000000000001e+00	 1.001602773906405e+01
1	 9.100000000000001e+00	 2.750000000000000e+00	 9.916933890122969e+00
1	 9.100000000000000e+00	 3.024999999995051e+00	 9.932166468828434e+00
1	 9.100000000000001e+00	 3.299999999990400e+00	 9.945608981306000e+00
1	 9.100000000000001e+00	 3.574999999986351e+00	 9.957365906635637e+00
1	 9.100000000000001e+00	 3.849999999983201e+00	 9.967541723897295e+00
1	 9.100000000000001e+00	 4.124999999981251e+00	 9.976240912170962e+00
1	 9.100000000000001e+00	 4.399999999980801e+00	 9.983567950536607e+00
1	 9.100000000000003e+00	 4.674999999982152e+00	 9.989627318074250e+00
1	 9.100000000000001e+00	 4.949999999985603e+00	 9.994523493863888e+00
1	 9.100000000000003e+00	 5.224999999991453e+00	 9.998360956985554e+00
1	 9.100000000000001e+00	 5.500000000000000e+00	 1.000124418651929e+01
1	 9.325000000000003e+00	 2.750000000000000e+00	 9.892212121700656e+00
1	 9.325000000000001e+00	 3.024999999995050e+00	 9.909760970448874e+00
1	 9.325000000000003e+00	 3.299999999990400e+00	 9.925405417991188e+00
1	 9.325000000000001e+00	 3.574999999986351e+00	 9.939220531183128e+00
1	 9.325000000000003e+00	 3.849999999983201e+00	 9.951281376880221e+00
1	 9.325000000000001e+00	 4.124999999981251e+00	 9.961663021938023e+00
1	 9.325000000000003e+00	 4.399999999980802e+00	 9.970440533212090e+00
1	 9.325000000000003e+00	 4.674999999982152e+00	 9.977688977558000e+00
1	 9.324999999999999e+00	 4.949999999985601e+00	 9.983483421831341e+00
1	 9.325000000000003e+00	 5.224999999991452e+00	 9.987898932887699e+00
1	 9.325000000000001e+00	 5.500000000000000e+00	 9.991010577582724e+00
1	 9.550000000000002e+00	 2.750000000000000e+00	 9.867183053768731e+00
1	 9.550000000000004e+00	 3.024999999995051e+00	 9.886960798885085e+00
1	 9.550000000000002e+00	 3.299999999990400e+00	 9.904918694797775e+00
1	 9.549999999999999e+00	 3.574999999986351e+00	 9.921091137722927e+00
1	 9.550000000000002e+00	 3.849999999983200e+00	 9.935512523876614e+00
1	 9.550000000000001e+00	 4.124999999981251e+00	 9.948217249474979e+00
1	 9.550000000000002e+00	 4.399999999980801e+00	 9.959239710734137e+00
1	 9.550000000000001e+00	 4.674999999982151e+00	 9.968614303870247e+00
1	 9.550000000000001e+00	 4.949999999985601e+00	 9.976375425099445e+00
1	 9.550000000000002e+00	 5.224999999991453e+00	 9.982557470637929e+00
1	 9.550000000000001e+00	 5.500000000000000e+00	 9.987194836701860e+00
1	 9.775000000000002e+00	 2.750000000000000e+00	 9.841759839230157e+00
1	 9.775000000000002e+00	 3.024999999995051e+00	 9.863531353247396e+00
1	 9.775000000000000e+00	 3.299999999990400e+00	 9.883842730587300e+00
1	 9.775000000000002e+00	 3.574999999986350e+00	 9.902676438411534e+00
1	 9.775000000000004e+00	 3.849999999983201e+00	 9.920014943881760e+00
1	 9.775000000000002e+00	 4.124999999981251e+00	 9.935840714159671e+00
1	 9.775000000000002e+00	 4.399999999980801e+00	 9.950136216406957e+00
1	 9.775000000000002e+00	 4.674999999982152e+00	 9.962883917785314e+00
1	 9.775000000000004e+00	 4.949999999985603e+00	 9.974066285456493e+00
1	 9.775000000000002e+00	 5.224999999991452e+00	 9.983665786582193e+00
1	 9.775000000000002e+00	 5.500000000000000e+00	 9.991664888324173e+00
1	 1.000000000000000e+01	 2.750000000000000e+00	 9.815855630987908e+00
1	 1.000000000000000e+01	 3.024999999995051e+00	 9.839238032646186e+00
1	 1.000000000000000e+01	 3.299999999990400e+00	 9.861871444221293e+00
1	 1.000000000000000e+01	 3.574999999986351e+00	 9.883675145405466e+00
1	 1.000000000000000e+01	 3.849999999983201e+00	 9.904568415890930e+00
1	 1.000000000000000e+01	 4.124999999981251e+00	 9.924470535369936e+00
1	 1.000000000000000e+01	 4.399999999980801e+00	 9.943300783534722e+00
1	 9.999999999999998e+00	 4.674999999982151e+00	 9.960978440077568e+00
1	 1.000000000000000e+01	 4.949999999985602e+00	 9.977422784690736e+00
1	 1.000000000000000e+01	 5.224999999991452e+00	 9.992553097066496e+00
1	 1.000000000000000e+01	 5.500000000000000e+00	 1.000628865689714e+01
2	 5.500000000000000e+00	 5.500000000000000e+00	 1.012517994871795e+01
2	 5.500000000000000e+00	 5.725000000000001e+00	 1.011545687931667e+01
2	 5.500000000000001e+00	 5.950000000000002e+00	 1.010798310991796e+01
2	 5.500000000000001e+00	 6.175000000000000e+00	 1.010220710642180e+01
2	 5.500000000000000e+00	 6.400000000000000e+00	 1.009757733472821e+01
2	 5.500000000000000e+00	 6.625000000000000e+00	 1.009354226073718e+01
2	 5.499999999999999e+00	 6.850000000000001e+00	 1.008955035034872e+01
2	 5.499999999999999e+00	 7.075000000000000e+00	 1.008505006946282e+01
2	 5.500000000000001e+00	 7.300000000000001e+00	 1.007948988397949e+01
2	 5.500000000000001e+00	 7.525000000000000e+00	 1.007231825979872e+01
2	 5.500000000000000e+00	 7.750000000000000e+00	 1.006298366282051e+01
2	 5.725000000000001e+00	 5.500000000000000e+00	 1.016109622566667e+01
2	 5.724999999999998e+00	 5.724999999999998e+00	 1.014538535315154e+01
2	 5.724999999999999e+00	 5.950000000000000e+00	 1.013225242393932e+01
2	 5.725000000000001e+00	 6.175000000000002e+00	 1.012120955396054e+01
2	 5.725000000000001e+00	 6.399999999999999e+00	 1.011176885914575e+01
2	 5.724999999999999e+00	 6.624999999999999e+00	 1.010344245542548e+01
2	 5.725000000000000e+00	 6.849999999999997e+00	 1.009574245873028e+01
2	 5.724999999999998e+00	 7.074999999999998e+00	 1.008818098499069e+01
2	 5.725000000000000e+00	 7.299999999999999e+00	 1.008027015013723e+01
2	 5.724999999999998e+00	 7.524999999999997e+00	 1.007152207010046e+01
2	 5.725000000000001e+00	 7.750000000000001e+00	 1.006144886081089e+01
2	 5.950000000000002e+00	 5.500000000000001e+00	 1.018155722584615e+01
2	 5.950000000000000e+00	 5.725000000000001e+00	 1.016243778470958e+01
2	 5.949999999999999e+00	 5.949999999999999e+00	 1.014599134260082e+01
2	 5.950000000000000e+00	 6.174999999999999e+00	 1.013179040876354e+01
2	 5.950000000000000e+00	 6.400000000000000e+00	 1.011940749244144e+01
2	 5.950000000000000e+00	 6.625000000000000e+00	 1.010841510287821e+01
2	 5.949999999999998e+00	 6.849999999999998e+00	 1.009838574931754e+01
2	 5.950000000000002e+00	 7.075000000000002e+00	 1.008889194100313e+01
2	 5.950000000000000e+00	 7.300000000000000e+00	 1.007950618717867e+01
2	 5.950000000000003e+00	 7.524999999999999e+00	 1.006980099708785e+01
2	 5.950000000000000e+00	 7.750000000000001e+00	 1.005934887997436e+01
2	 6.175000000000000e+00	 5.500000000000001e+00	 1.018889577248719e+01
2	 6.175000000000002e+00	 5.725000000000001e+00	 1.016854181588102e+01
2	 6.175000000000000e+00	 5.950000000000002e+00	 1.015076227789403e+01
2	 6.175000000000002e+00	 6.175000000000002e+00	 1.013518680436562e+01
2	 6.175000000000002e+00	 6.400000000000002e+00	 1.012144504113528e+01
2	 6.175000000000000e+00	 6.624999999999998e+00	 1.010916663404247e+01
2	 6.175000000000001e+00	 6.849999999999999e+00	 1.009798122892664e+01
2	 6.174999999999999e+00	 7.074999999999998e+00	 1.008751847162727e+01
2	 6.174999999999998e+00	 7.299999999999998e+00	 1.007740800798381e+01
2	 6.174999999999998e+00	 7.525000000000001e+00	 1.006727948383570e+01
2	 6.175000000000002e+00	 7.750000000000000e+00	 1.005676254502244e+01
2	 6.400000000000000e+00	 5.500000000000000e+00	 1.018544468882051e+01
2	 6.399999999999999e+00	 5.725000000000001e+00	 1.016562508855605e+01
2	 6.400000000000000e+00	 5.949999999999999e+00	 1.014812764181045e+01
2	 6.399999999999999e+00	 6.174999999999999e+00	 1.013263587430159e+01
2	 6.399999999999998e+00	 6.399999999999999e+00	 1.011883331174728e+01
2	 6.400000000000000e+00	 6.625000000000002e+00	 1.010640347986538e+01
2	 6.399999999999999e+00	 6.850000000000000e+00	 1.009502990437374e+01
2	 6.399999999999999e+00	 7.074999999999998e+00	 1.008439611099021e+01
2	 6.400000000000000e+00	 7.299999999999999e+00	 1.007418562543262e+01
2	 6.399999999999999e+00	 7.524999999999999e+00	 1.006408197341882e+01
2	 6.399999999999999e+00	 7.750000000000000e+00	 1.005376868066667e+01
2	 6.625000000000000e+00	 5.500000000000000e+00	 1.017353679807692e+01
2	 6.624999999999997e+00	 5.725000000000000e+00	 1.015561524462483e+01
2	 6.624999999999999e+00	 5.950000000000000e+00	 1.013964984634167e+01
2	 6.624999999999999e+00	 6.174999999999999e+00	 1.012537475210626e+01
2	 6.625000000000001e+00	 6.399999999999999e+00	 1.011252411079744e+01
2	 6.625000000000000e+00	 6.625000000000000e+00	 1.010083207129407e+01
2	 6.625000000000001e+00	 6.850000000000001e+00	 1.009003278247499e+01
2	 6.625000000000000e+00	 7.075000000000000e+00	 1.007986039321907e+01
2	 6.625000000000003e+00	 7.300000000000002e+00	 1.007004905240513e+01
2	 6.625000000000001e+00	 7.525000000000000e+00	 1.006033290891202e+01
2	 6.625000000000000e+00	 7.750000000000000e+00	 1.005044611161859e+01
2	 6.850000000000001e+00	 5.499999999999999e+00	 1.015550492348716e+01
2	 6.850000000000001e+00	 5.725000000000001e+00	 1.014043992597759e+01
2	 6.849999999999999e+00	 5.949999999999998e+00	 1.012689130347918e+01
2	 6.849999999999999e+00	 6.175000000000001e+00	 1.011464057131442e+01
2	 6.850000000000000e+00	 6.400000000000000e+00	 1.010346924480574e+01
2	 6.850000000000001e+00	 6.625000000000000e+00	 1.009315883927563e+01
2	 6.850000000000001e+00	 6.850000000000001e+00	 1.008349087004656e+01
2	 6.850000000000002e+00	 7.075000000000001e+00	 1.007424685244097e+01
2	 6.850000000000001e+00	 7.300000000000000e+00	 1.006520830178134e+01
2	 6.850000000000000e+00	 7.525000000000000e+00	 1.005615673339010e+01
2	 6.850000000000001e+00	 7.750000000000000e+00	 1.004687366258975e+01
2	 7.075000000000000e+00	 5.499999999999999e+00	 1.013368188828204e+01
2	 7.074999999999997e+00	 5.724999999999999e+00	 1.012202677450449e+01
2	 7.074999999999999e+00	 5.950000000000000e+00	 1.011141442521454e+01
2	 7.074999999999998e+00	 6.175000000000000e+00	 1.010167046546088e+01
2	 7.074999999999998e+00	 6.400000000000000e+00	 1.009262052029220e+01
2	 7.074999999999999e+00	 6.625000000000001e+00	 1.008409021475721e+01
2	 7.075000000000000e+00	 6.850000000000001e+00	 1.007590517390458e+01
2	 7.074999999999999e+00	 7.075000000000000e+00	 1.006789102278303e+01
2	 7.074999999999999e+00	 7.299999999999999e+00	 1.005987338644123e+01
2	 7.075000000000000e+00	 7.525000000000000e+00	 1.005167788992788e+01
2	 7.075000000000000e+00	 7.750000000000002e+00	 1.004313015829167e+01
2	 7.300000000000001e+00	 5.500000000000001e+00	 1.011040051569231e+01
2	 7.299999999999998e+00	 5.725000000000000e+00	 1.010230343209574e+01
2	 7.299999999999999e+00	 5.950000000000000e+00	 1.009478162353928e+01
2	 7.300000000000002e+00	 6.175000000000000e+00	 1.008770156808045e+01
2	 7.299999999999999e+00	 6.400000000000000e+00	 1.008092974377682e+01
2	 7.299999999999999e+00	 6.624999999999999e+00	 1.007433262868590e+01
2	 7.300000000000001e+00	 6.850000000000000e+00	 1.006777670086523e+01
2	 7.299999999999998e+00	 7.075000000000001e+00	 1.006112843837236e+01
2	 7.300000000000001e+00	 7.300000000000000e+00	 1.005425431926483e+01
2	 7.300000000000001e+00	 7.524999999999999e+00	 1.004702082160016e+01
2	 7.300000000000002e+00	 7.750000000000001e+00	 1.003929442343590e+01
2	 7.525000000000000e+00	 5.500000000000001e+00	 1.008799362894873e+01
2	 7.524999999999999e+00	 5.724999999999999e+00	 1.008319754064153e+01
2	 7.525000000000000e+00	 5.950000000000002e+00	 1.007855531044495e+01
2	 7.525000000000000e+00	 6.175000000000000e+00	 1.007397101270796e+01
2	 7.524999999999999e+00	 6.399999999999999e+00	 1.006934872177960e+01
2	 7.525000000000001e+00	 6.625000000000001e+00	 1.006459251200881e+01
2	 7.524999999999999e+00	 6.850000000000000e+00	 1.005960645774464e+01
2	 7.525000000000000e+00	 7.074999999999999e+00	 1.005429463333607e+01
2	 7.525000000000002e+00	 7.300000000000002e+00	 1.004856111313210e+01
2	 7.525000000000000e+00	 7.525000000000000e+00	 1.004230997148174e+01
2	 7.525000000000002e+00	 7.750000000000002e+00	 1.003544528273398e+01
2	 7.750000000000000e+00	 5.500000000000000e+00	 1.006879405128205e+01
2	 7.750000000000000e+00	 5.725000000000001e+00	 1.006663674203206e+01
2	 7.750000000000000e+00	 5.950000000000000e+00	 1.006429789792308e+01
2	 7.749999999999999e+00	 6.175000000000000e+00	 1.006171593287821e+01
2	 7.750000000000001e+00	 6.400000000000000e+00	 1.005882926082051e+01
2	 7.750000000000000e+00	 6.625000000000000e+00	 1.005557629567308e+01
2	 7.750000000000001e+00	 6.850000000000001e+00	 1.005189545135897e+01
2	 7.749999999999999e+00	 7.074999999999999e+00	 1.004772514180128e+01
2	 7.750000000000001e+00	 7.300000000000002e+00	 1.004300378092307e+01
2	 7.750000000000001e+00	 7.525000000000000e+00	 1.003766978264743e+01
2	 7.750000000000000e+00	 7.750000000000000e+00	 1.003166156089744e+01
2	 5.500000000000000e+00	 7.750000000000000e+00	 1.006298366282051e+01
2	 5.500000000000000e+00	 7.975000000000000e+00	 1.005262671636538e+01
2	 5.500000000000000e+00	 8.200000000000001e+00	 1.004282370523077e+01
2	 5.500000000000001e+00	 8.425000000000002e+00	 1.003367658753205e+01
2	 5.500000000000000e+00	 8.650000000000000e+00	 1.002528732138462e+01
2	 5.500000000000001e+00	 8.875000000000002e+00	 1.001775786490384e+01
2	 5.500000000000000e+00	 9.100000000000001e+00	 1.001119017620512e+01
2	 5.500000000000000e+00	 9.325000000000001e+00	 1.000568621340385e+01
2	 5.500000000000000e+00	 9.550000000000001e+00	 1.000134793461538e+01
2	 5.500000000000000e+00	 9.775000000000002e+00	 9.998277297955140e+00
2	 5.500000000000000e+00	 1.000000000000000e+01	 9.996576261538445e+00
2	 5.725000000000001e+00	 7.750000000000001e+00	 1.006144886081089e+01
2	 5.725000000000001e+00	 7.975000000000003e+00	 1.005092890103932e+01
2	 5.724999999999999e+00	 8.199999999999999e+00	 1.004120569286206e+01
2	 5.724999999999996e+00	 8.424999999999997e+00	 1.003233903716792e+01
2	 5.725000000000001e+00	 8.650000000000002e+00	 1.002438873484577e+01
2	 5.724999999999998e+00	 8.875000000000000e+00	 1.001741458678445e+01
2	 5.725000000000000e+00	 9.100000000000003e+00	 1.001147639387282e+01
2	 5.725000000000001e+00	 9.324999999999999e+00	 1.000663395699970e+01
2	 5.725000000000001e+00	 9.550000000000001e+00	 1.000294707705397e+01
2	 5.725000000000001e+00	 9.775000000000002e+00	 1.000047555492445e+01
2	 5.725000000000001e+00	 1.000000000000000e+01	 9.999279191499994e+00
2	 5.950000000000000e+00	 7.750000000000001e+00	 1.005934887997436e+01
2	 5.950000000000002e+00	 7.975000000000001e+00	 1.004885925097923e+01
2	 5.950000000000002e+00	 8.200000000000001e+00	 1.003934151081026e+01
2	 5.950000000000000e+00	 8.425000000000001e+00	 1.003081814706129e+01
2	 5.949999999999998e+00	 8.649999999999999e+00	 1.002331164732615e+01
2	 5.949999999999999e+00	 8.875000000000002e+00	 1.001684449919871e+01
2	 5.949999999999999e+00	 9.100000000000001e+00	 1.001143919027282e+01
2	 5.949999999999999e+00	 9.325000000000001e+00	 1.000711820814231e+01
2	 5.950000000000001e+00	 9.550000000000006e+00	 1.000390404040103e+01
2	 5.950000000000001e+00	 9.775000000000006e+00	 1.000181917464284e+01
2	 5.950000000000002e+00	 1.000000000000000e+01	 1.000088609846153e+01
2	 6.175000000000002e+00	 7.750000000000000e+00	 1.005676254502244e+01
2	 6.174999999999999e+00	 7.975000000000001e+00	 1.004647465599684e+01
2	 6.174999999999998e+00	 8.199999999999999e+00	 1.003727352947231e+01
2	 6.175000000000000e+00	 8.425000000000001e+00	 1.002914918367927e+01
2	 6.175000000000000e+00	 8.650000000000000e+00	 1.002209163684808e+01
2	 6.175000000000000e+00	 8.874999999999998e+00	 1.001609090720913e+01
2	 6.175000000000002e+00	 9.100000000000003e+00	 1.001113701299282e+01
2	 6.175000000000002e+00	 9.325000000000001e+00	 1.000721997242952e+01
2	 6.175000000000001e+00	 9.550000000000004e+00	 1.000432980374961e+01
2	 6.175000000000002e+00	 9.775000000000004e+00	 1.000245652518350e+01
2	 6.175000000000000e+00	 1.000000000000000e+01	 1.000159015496153e+01
2	 6.399999999999999e+00	 7.750000000000000e+00	 1.005376868066667e+01
2	 6.399999999999999e+00	 7.974999999999998e+00	 1.004383200590385e+01
2	 6.400000000000002e+00	 8.200000000000001e+00	 1.003504411924513e+01
2	 6.400000000000001e+00	 8.425000000000002e+00	 1.002736741348897e+01
2	 6.399999999999999e+00	 8.650000000000002e+00	 1.002076428143385e+01
2	 6.400000000000002e+00	 8.875000000000004e+00	 1.001519711587821e+01
2	 6.399999999999999e+00	 9.100000000000003e+00	 1.001062830962051e+01
2	 6.399999999999999e+00	 9.325000000000003e+00	 1.000702025545922e+01
2	 6.400000000000001e+00	 9.550000000000002e+00	 1.000433534619282e+01
2	 6.399999999999999e+00	 9.775000000000002e+00	 1.000253597461975e+01
2	 6.400000000000000e+00	 1.000000000000000e+01	 1.000158453353846e+01
2	 6.625000000000000e+00	 7.750000000000000e+00	 1.005044611161859e+01
2	 6.625000000000002e+00	 7.975000000000002e+00	 1.004098819051202e+01
2	 6.625000000000001e+00	 8.200000000000001e+00	 1.003269565052564e+01
2	 6.625000000000000e+00	 8.425000000000001e+00	 1.002550810295754e+01
2	 6.625000000000000e+00	 8.649999999999999e+00	 1.001936515910577e+01
2	 6.624999999999999e+00	 8.875000000000000e+00	 1.001420643026843e+01
2	 6.625000000000001e+00	 9.100000000000003e+00	 1.000997152774358e+01
2	 6.624999999999998e+00	 9.324999999999999e+00	 1.000660006282932e+01
2	 6.625000000000002e+00	 9.550000000000004e+00	 1.000403164682371e+01
2	 6.625000000000002e+00	 9.775000000000000e+00	 1.000220589102485e+01
2	 6.625000000000000e+00	 1.000000000000000e+01	 1.000106240673078e+01
2	 6.850000000000001e+00	 7.750000000000000e+00	 1.004687366258975e+01
2	 6.850000000000000e+00	 7.974999999999999e+00	 1.003800009963308e+01
2	 6.850000000000000e+00	 8.199999999999999e+00	 1.003027049371077e+01
2	 6.850000000000002e+00	 8.425000000000002e+00	 1.002360651855205e+01
2	 6.850000000000000e+00	 8.650000000000002e+00	 1.001792984788615e+01
2	 6.850000000000001e+00	 8.875000000000002e+00	 1.001316215544231e+01
2	 6.850000000000002e+00	 9.100000000000005e+00	 1.000922511494975e+01
2	 6.850000000000001e+00	 9.325000000000003e+00	 1.000604040013770e+01
2	 6.850000000000001e+00	 9.550000000000004e+00	 1.000352968473538e+01
2	 6.850000000000000e+00	 9.775000000000000e+00	 1.000161464247204e+01
2	 6.850000000000001e+00	 9.999999999999996e+00	 1.000021694707693e+01
2	 7.075000000000000e+00	 7.750000000000002e+00	 1.004313015829167e+01
2	 7.074999999999999e+00	 7.975000000000001e+00	 1.003492462307875e+01
2	 7.074999999999998e+00	 8.199999999999999e+00	 1.002781101919744e+01
2	 7.075000000000000e+00	 8.425000000000001e+00	 1.002169792673964e+01
2	 7.075000000000000e+00	 8.650000000000002e+00	 1.001649392579731e+01
2	 7.075000000000000e+00	 8.875000000000002e+00	 1.001210759646234e+01
2	 7.074999999999998e+00	 9.100000000000001e+00	 1.000844751882667e+01
2	 7.074999999999998e+00	 9.324999999999999e+00	 1.000542227298221e+01
2	 7.074999999999998e+00	 9.550000000000001e+00	 1.000294043902090e+01
2	 7.074999999999999e+00	 9.775000000000000e+00	 1.000091059703464e+01
2	 7.075000000000000e+00	 1.000000000000000e+01	 9.999241327115378e+00
2	 7.300000000000002e+00	 7.750000000000001e+00	 1.003929442343590e+01
2	 7.299999999999998e+00	 7.975000000000000e+00	 1.003181865066076e+01
2	 7.300000000000000e+00	 8.200000000000001e+00	 1.002535959738256e+01
2	 7.300000000000001e+00	 8.425000000000001e+00	 1.001981759398743e+01
2	 7.299999999999999e+00	 8.650000000000000e+00	 1.001509297086155e+01
2	 7.300000000000000e+00	 8.875000000000002e+00	 1.001108605839103e+01
2	 7.300000000000000e+00	 9.100000000000000e+00	 1.000769718696205e+01
2	 7.300000000000000e+00	 9.324999999999999e+00	 1.000482668696078e+01
2	 7.299999999999999e+00	 9.550000000000002e+00	 1.000237488877334e+01
2	 7.299999999999997e+00	 9.774999999999999e+00	 1.000024212278589e+01
2	 7.300000000000001e+00	 1.000000000000000e+01	 9.998328719384608e+00
2	 7.525000000000002e+00	 7.750000000000002e+00	 1.003544528273398e+01
2	 7.524999999999999e+00	 7.975000000000001e+00	 1.002873907219086e+01
2	 7.525000000000001e+00	 8.200000000000001e+00	 1.002295859866308e+01
2	 7.524999999999999e+00	 8.425000000000001e+00	 1.001800078676253e+01
2	 7.525000000000000e+00	 8.650000000000004e+00	 1.001376256110115e+01
2	 7.524999999999999e+00	 8.875000000000002e+00	 1.001014084629086e+01
2	 7.524999999999999e+00	 9.100000000000001e+00	 1.000703256694359e+01
2	 7.525000000000000e+00	 9.325000000000001e+00	 1.000433464767124e+01
2	 7.525000000000000e+00	 9.550000000000004e+00	 1.000194401308577e+01
2	 7.525000000000000e+00	 9.775000000000002e+00	 9.999757587799067e+00
2	 7.525000000000000e+00	 1.000000000000000e+01	 9.997672296423087e+00
2	 7.750000000000000e+00	 7.750000000000000e+00	 1.003166156089744e+01
2	 7.749999999999999e+00	 7.974999999999999e+00	 1.002574277748077e+01
2	 7.750000000000000e+00	 8.199999999999999e+00	 1.002065039343590e+01
2	 7.750000000000000e+00	 8.425000000000001e+00	 1.001628277153205e+01
2	 7.749999999999999e+00	 8.650000000000000e+00	 1.001253827453846e+01
2	 7.749999999999999e+00	 8.875000000000000e+00	 1.000931526522436e+01
2	 7.750000000000001e+00	 9.100000000000000e+00	 1.000651210635897e+01
2	 7.749999999999999e+00	 9.324999999999999e+00	 1.000402716071153e+01
2	 7.750000000000001e+00	 9.550000000000004e+00	 1.000175879105129e+01
2	 7.749999999999999e+00	 9.775000000000000e+00	 9.999605360147450e+00
2	 7.750000000000000e+00	 1.000000000000000e+01	 9.997465230769233e+00
2	 7.750000000000000e+00	 5.500000000000000e+00	 1.006879405128205e+01
2	 7.750000000000000e+00	 5.725000000000001e+00	 1.006663674203206e+01
2	 7.750000000000000e+00	 5.950000000000000e+00	 1.006429789792308e+01
2	 7.749999999999999e+00	 6.175000000000000e+00	 1.006171593287821e+01
2	 7.750000000000001e+00	 6.400000000000000e+00	 1.005882926082051e+01
2	 7.750000000000000e+00	 6.625000000000000e+00	 1.005557629567308e+01
2	 7.750000000000001e+00	 6.850000000000001e+00	 1.005189545135897e+01
2	 7.749999999999999e+00	 7.074999999999999e+00	 1.004772514180128e+01
2	 7.750000000000001e+00	 7.300000000000002e+00	 1.004300378092307e+01
2	 7.750000000000001e+00	 7.525000000000000e+00	 1.003766978264743e+01
2	 7.750000000000000e+00	 7.750000000000000e+00	 1.003166156089744e+01
2	 7.975000000000000e+00	 5.500000000000000e+00	 1.005405556207694e+01
2	 7.975000000000001e+00	 5.725000000000001e+00	 1.005357309527727e+01
2	 7.975000000000001e+00	 5.950000000000003e+00	 1.005270316664961e+01
2	 7.975000000000001e+00	 6.175000000000000e+00	 1.005141280969701e+01
2	 7.975000000000001e+00	 6.400000000000000e+00	 1.004966905792256e+01
2	 7.975000000000001e+00	 6.625000000000001e+00	 1.004743894482933e+01
2	 7.975000000000000e+00	 6.850000000000003e+00	 1.004468950392038e+01
2	 7.975000000000001e+00	 7.075000000000000e+00	 1.004138776869882e+01
2	 7.975000000000001e+00	 7.300000000000001e+00	 1.003750077266769e+01
2	 7.974999999999999e+00	 7.524999999999999e+00	 1.003299554933009e+01
2	 7.975000000000000e+00	 7.749999999999999e+00	 1.002783913218910e+01
2	 8.200000000000001e+00	 5.500000000000000e+00	 1.004289556225642e+01
2	 8.199999999999999e+00	 5.725000000000001e+00	 1.004324628586616e+01
2	 8.199999999999999e+00	 5.950000000000001e+00	 1.004313029154461e+01
2	 8.200000000000001e+00	 6.174999999999998e+00	 1.004253504910410e+01
2	 8.199999999999999e+00	 6.400000000000002e+00	 1.004144802835692e+01
2	 8.199999999999998e+00	 6.624999999999998e+00	 1.003985669911538e+01
2	 8.199999999999999e+00	 6.850000000000000e+00	 1.003774853119179e+01
2	 8.199999999999996e+00	 7.074999999999999e+00	 1.003511099439846e+01
2	 8.200000000000001e+00	 7.300000000000001e+00	 1.003193155854769e+01
2	 8.200000000000001e+00	 7.524999999999999e+00	 1.002819769345180e+01
2	 8.199999999999999e+00	 7.750000000000000e+00	 1.002389686892307e+01
2	 8.425000000000002e+00	 5.500000000000001e+00	 1.003444230735898e+01
2	 8.425000000000001e+00	 5.724999999999999e+00	 1.003501539540734e+01
2	 8.425000000000002e+00	 5.950000000000000e+00	 1.003513977596577e+01
2	 8.424999999999999e+00	 6.175000000000000e+00	 1.003481517188502e+01
2	 8.425000000000001e+00	 6.399999999999999e+00	 1.003404130601590e+01
2	 8.425000000000001e+00	 6.625000000000000e+00	 1.003281790120914e+01
2	 8.425000000000001e+00	 6.850000000000000e+00	 1.003114468031552e+01
2	 8.425000000000001e+00	 7.075000000000002e+00	 1.002902136618580e+01
2	 8.425000000000002e+00	 7.299999999999999e+00	 1.002644768167077e+01
2	 8.425000000000002e+00	 7.524999999999999e+00	 1.002342334962118e+01
2	 8.425000000000001e+00	 7.750000000000000e+00	 1.001994809288782e+01
2	 8.650000000000000e+00	 5.500000000000000e+00	 1.002782405292308e+01
2	 8.650000000000000e+00	 5.725000000000001e+00	 1.002823950550948e+01
2	 8.650000000000000e+00	 5.950000000000000e+00	 1.002829212327077e+01
2	 8.650000000000004e+00	 6.175000000000001e+00	 1.002798569882538e+01
2	 8.649999999999999e+00	 6.399999999999999e+00	 1.002732402479180e+01
2	 8.649999999999999e+00	 6.625000000000000e+00	 1.002631089378846e+01
2	 8.650000000000002e+00	 6.849999999999999e+00	 1.002495009843385e+01
2	 8.650000000000004e+00	 7.074999999999999e+00	 1.002324543134642e+01
2	 8.650000000000002e+00	 7.300000000000000e+00	 1.002120068514461e+01
2	 8.650000000000000e+00	 7.524999999999999e+00	 1.001881965244692e+01
2	 8.650000000000000e+00	 7.750000000000001e+00	 1.001610612587179e+01
2	 8.875000000000002e+00	 5.500000000000001e+00	 1.002216905448718e+01
2	 8.875000000000000e+00	 5.725000000000000e+00	 1.002227769778124e+01
2	 8.875000000000000e+00	 5.950000000000000e+00	 1.002214783681731e+01
2	 8.874999999999998e+00	 6.175000000000000e+00	 1.002177915071074e+01
2	 8.875000000000004e+00	 6.400000000000001e+00	 1.002117131857692e+01
2	 8.875000000000000e+00	 6.625000000000000e+00	 1.002032401953125e+01
2	 8.875000000000002e+00	 6.850000000000002e+00	 1.001923693268910e+01
2	 8.875000000000002e+00	 7.075000000000000e+00	 1.001790973716587e+01
2	 8.875000000000002e+00	 7.300000000000000e+00	 1.001634211207692e+01
2	 8.875000000000000e+00	 7.524999999999999e+00	 1.001453373653765e+01
2	 8.875000000000000e+00	 7.750000000000000e+00	 1.001248428966346e+01
2	 9.100000000000001e+00	 5.500000000000000e+00	 1.001660556758974e+01
2	 9.100000000000003e+00	 5.725000000000001e+00	 1.001648905383128e+01
2	 9.100000000000000e+00	 5.949999999999998e+00	 1.001626741996307e+01
2	 9.100000000000003e+00	 6.175000000000002e+00	 1.001592804832667e+01
2	 9.100000000000001e+00	 6.399999999999999e+00	 1.001545832126359e+01
2	 9.100000000000003e+00	 6.625000000000001e+00	 1.001484562111539e+01
2	 9.100000000000001e+00	 6.850000000000001e+00	 1.001407733022359e+01
2	 9.100000000000001e+00	 7.075000000000000e+00	 1.001314083092974e+01
2	 9.100000000000003e+00	 7.300000000000000e+00	 1.001202350557538e+01
2	 9.100000000000001e+00	 7.524999999999999e+00	 1.001071273650205e+01
2	 9.100000000000001e+00	 7.750000000000001e+00	 1.000919590605128e+01
2	 9.325000000000001e+00	 5.500000000000000e+00	 1.001026184776923e+01
2	 9.325000000000001e+00	 5.725000000000001e+00	 1.001023265526825e+01
2	 9.324999999999999e+00	 5.949999999999999e+00	 1.001021137606577e+01
2	 9.325000000000001e+00	 6.175000000000001e+00	 1.001016491245875e+01
2	 9.325000000000005e+00	 6.400000000000000e+00	 1.001006016674410e+01
2	 9.325000000000001e+00	 6.624999999999999e+00	 1.000986404121875e+01
2	 9.325000000000003e+00	 6.850000000000000e+00	 1.000954343817962e+01
2	 9.325000000000001e+00	 7.074999999999999e+00	 1.000906525992362e+01
2	 9.324999999999999e+00	 7.299999999999998e+00	 1.000839640874770e+01
2	 9.325000000000001e+00	 7.525000000000000e+00	 1.000750378694875e+01
2	 9.325000000000003e+00	 7.750000000000000e+00	 1.000635429682371e+01
2	 9.550000000000001e+00	 5.500000000000000e+00	 1.000226615056410e+01
2	 9.550000000000001e+00	 5.725000000000001e+00	 1.000286758370077e+01
2	 9.550000000000002e+00	 5.950000000000000e+00	 1.000354020848308e+01
2	 9.550000000000004e+00	 6.175000000000002e+00	 1.000422226389256e+01
2	 9.549999999999999e+00	 6.399999999999999e+00	 1.000485198891077e+01
2	 9.550000000000001e+00	 6.625000000000000e+00	 1.000536762251923e+01
2	 9.550000000000002e+00	 6.850000000000000e+00	 1.000570740369949e+01
2	 9.550000000000002e+00	 7.075000000000000e+00	 1.000580957143308e+01
2	 9.550000000000004e+00	 7.300000000000001e+00	 1.000561236470154e+01
2	 9.550000000000004e+00	 7.525000000000000e+00	 1.000505402248641e+01
2	 9.550000000000002e+00	 7.750000000000000e+00	 1.000407278376923e+01
2	 9.775000000000002e+00	 5.500000000000000e+00	 9.991746731512816e+00
2	 9.775000000000000e+00	 5.725000000000000e+00	 9.993752920737531e+00
2	 9.775000000000004e+00	 5.950000000000001e+00	 9.995814420572687e+00
2	 9.775000000000002e+00	 6.175000000000000e+00	 9.997832623413693e+00
2	 9.775000000000000e+00	 6.399999999999999e+00	 9.999708921655900e+00
2	 9.775000000000002e+00	 6.625000000000001e+00	 1.000134470769471e+01
2	 9.775000000000002e+00	 6.850000000000001e+00	 1.000264137392551e+01
2	 9.775000000000002e+00	 7.075000000000001e+00	 1.000350031274369e+01
2	 9.775000000000004e+00	 7.300000000000000e+00	 1.000382291654461e+01
2	 9.775000000000002e+00	 7.525000000000000e+00	 1.000351057772368e+01
2	 9.775000000000002e+00	 7.750000000000001e+00	 1.000246468867628e+01
2	 1.000000000000000e+01	 5.500000000000000e+00	 9.977831846153849e+00
2	 1.000000000000000e+01	 5.725000000000001e+00	 9.982247747987188e+00
2	 1.000000000000000e+01	 5.950000000000002e+00	 9.986594515692317e+00
2	 1.000000000000000e+01	 6.175000000000000e+00	 9.990728511807699e+00
2	 1.000000000000000e+01	 6.400000000000000e+00	 9.994506098871797e+00
2	 1.000000000000000e+01	 6.625000000000000e+00	 9.997783639423075e+00
2	 9.999999999999996e+00	 6.850000000000001e+00	 1.000041749599999e+01
2	 1.000000000000000e+01	 7.075000000000000e+00	 1.000226403114102e+01
2	 1.000000000000000e+01	 7.300000000000001e+00	 1.000317960738462e+01
2	 1.000000000000000e+01	 7.525000000000000e+00	 1.000302058726922e+01
2	 1.000000000000000e+01	 7.750000000000000e+00	 1.000164333333333e+01
2	 7.750000000000000e+00	 7.750000000000000e+00	 1.003166156089744e+01
2	 7.749999999999999e+00	 7.974999999999999e+00	 1.002574277748077e+01
2	 7.750000000000000e+00	 8.199999999999999e+00	 1.002065039343590e+01
2	 7.750000000000000e+00	 8.425000000000001e+00	 1.001628277153205e+01
2	 7.749999999999999e+00	 8.650000000000000e+00	 1.001253827453846e+01
2	 7.749999999999999e+00	 8.875000000000000e+00	 1.000931526522436e+01
2	 7.750000000000001e+00	 9.100000000000000e+00	 1.000651210635897e+01
2	 7.749999999999999e+00	 9.324999999999999e+00	 1.000402716071153e+01
2	 7.750000000000001e+00	 9.550000000000004e+00	 1.000175879105129e+01
2	 7.749999999999999e+00	 9.775000000000000e+00	 9.999605360147450e+00
2	 7.750000000000000e+00	 1.000000000000000e+01	 9.997465230769233e+00
2	 7.975000000000000e+00	 7.749999999999999e+00	 1.002783913218910e+01
2	 7.974999999999999e+00	 7.975000000000000e+00	 1.002273727894817e+01
2	 7.974999999999999e+00	 8.199999999999999e+00	 1.001835342714616e+01
2	 7.975000000000001e+00	 8.425000000000002e+00	 1.001459113003920e+01
2	 7.975000000000001e+00	 8.650000000000004e+00	 1.001135394088346e+01
2	 7.975000000000000e+00	 8.875000000000002e+00	 1.000854541293510e+01
2	 7.975000000000001e+00	 9.100000000000001e+00	 1.000606909945026e+01
2	 7.974999999999999e+00	 9.325000000000001e+00	 1.000382855368509e+01
2	 7.975000000000000e+00	 9.550000000000001e+00	 1.000172732889577e+01
2	 7.974999999999999e+00	 9.775000000000002e+00	 9.999668978338413e+00
2	 7.975000000000000e+00	 1.000000000000000e+01	 9.997557055269246e+00
2	 8.199999999999999e+00	 7.750000000000000e+00	 1.002389686892307e+01
2	 8.200000000000003e+00	 7.975000000000000e+00	 1.001963802001077e+01
2	 8.200000000000001e+00	 8.199999999999999e+00	 1.001597937153641e+01
2	 8.199999999999999e+00	 8.425000000000004e+00	 1.001283232797076e+01
2	 8.199999999999999e+00	 8.650000000000002e+00	 1.001010829378462e+01
2	 8.199999999999998e+00	 8.875000000000000e+00	 1.000771867344872e+01
2	 8.199999999999998e+00	 9.100000000000000e+00	 1.000557487143385e+01
2	 8.200000000000003e+00	 9.325000000000003e+00	 1.000358829221077e+01
2	 8.200000000000001e+00	 9.550000000000002e+00	 1.000167034025026e+01
2	 8.199999999999999e+00	 9.775000000000002e+00	 9.999732420023083e+00
2	 8.200000000000001e+00	 1.000000000000000e+01	 9.997685936000025e+00
2	 8.425000000000001e+00	 7.750000000000000e+00	 1.001994809288782e+01
2	 8.425000000000001e+00	 7.975000000000001e+00	 1.001651378698029e+01
2	 8.425000000000002e+00	 8.200000000000003e+00	 1.001356043644974e+01
2	 8.425000000000001e+00	 8.425000000000002e+00	 1.001100995770926e+01
2	 8.425000000000001e+00	 8.650000000000004e+00	 1.000878426717192e+01
2	 8.425000000000001e+00	 8.875000000000000e+00	 1.000680528125080e+01
2	 8.425000000000002e+00	 9.100000000000003e+00	 1.000499491635897e+01
2	 8.424999999999999e+00	 9.324999999999999e+00	 1.000327508890951e+01
2	 8.425000000000002e+00	 9.550000000000002e+00	 1.000156771531552e+01
2	 8.425000000000001e+00	 9.775000000000000e+00	 9.999794711990026e+00
2	 8.425000000000002e+00	 1.000000000000000e+01	 9.997877995346174e+00
2	 8.650000000000000e+00	 7.750000000000001e+00	 1.001610612587179e+01
2	 8.650000000000002e+00	 7.975000000000001e+00	 1.001343336616846e+01
2	 8.650000000000002e+00	 8.200000000000001e+00	 1.001112883172923e+01
2	 8.650000000000002e+00	 8.425000000000001e+00	 1.000912761163718e+01
2	 8.650000000000004e+00	 8.650000000000002e+00	 1.000736479497538e+01
2	 8.650000000000000e+00	 8.875000000000002e+00	 1.000577547082692e+01
2	 8.649999999999999e+00	 9.100000000000000e+00	 1.000429472827487e+01
2	 8.650000000000000e+00	 9.325000000000003e+00	 1.000285765640231e+01
2	 8.650000000000000e+00	 9.550000000000002e+00	 1.000139934429231e+01
2	 8.650000000000002e+00	 9.775000000000004e+00	 9.999854881027947e+00
2	 8.650000000000000e+00	 1.000000000000000e+01	 9.998159355692332e+00
2	 8.875000000000000e+00	 7.750000000000000e+00	 1.001248428966346e+01
2	 8.875000000000000e+00	 7.975000000000000e+00	 1.001046554388702e+01
2	 8.875000000000002e+00	 8.200000000000001e+00	 1.000871676721795e+01
2	 8.874999999999998e+00	 8.424999999999999e+00	 1.000718888213702e+01
2	 8.874999999999998e+00	 8.649999999999999e+00	 1.000583281112499e+01
2	 8.875000000000000e+00	 8.875000000000000e+00	 1.000459947666265e+01
2	 8.875000000000002e+00	 9.100000000000003e+00	 1.000343980123077e+01
2	 8.875000000000002e+00	 9.325000000000003e+00	 1.000230470731008e+01
2	 8.875000000000002e+00	 9.550000000000001e+00	 1.000114511738141e+01
2	 8.875000000000002e+00	 9.775000000000000e+00	 9.999911953925485e+00
2	 8.875000000000002e+00	 1.000000000000000e+01	 9.998556139423078e+00
2	 9.100000000000001e+00	 7.750000000000001e+00	 1.000919590605128e+01
2	 9.100000000000000e+00	 7.975000000000001e+00	 1.000767910644769e+01
2	 9.100000000000001e+00	 8.199999999999999e+00	 1.000635645275898e+01
2	 9.100000000000001e+00	 8.424999999999999e+00	 1.000519736159128e+01
2	 9.100000000000001e+00	 8.650000000000000e+00	 1.000417124955076e+01
2	 9.100000000000001e+00	 8.875000000000004e+00	 1.000324753324359e+01
2	 9.100000000000001e+00	 9.100000000000001e+00	 1.000239562927589e+01
2	 9.100000000000003e+00	 9.325000000000001e+00	 1.000158495425385e+01
2	 9.100000000000001e+00	 9.550000000000002e+00	 1.000078492478359e+01
2	 9.100000000000003e+00	 9.775000000000002e+00	 9.999964957471288e+00
2	 9.100000000000001e+00	 1.000000000000000e+01	 9.999094468923104e+00
2	 9.325000000000003e+00	 7.750000000000000e+00	 1.000635429682371e+01
2	 9.325000000000001e+00	 7.975000000000001e+00	 1.000514284016221e+01
2	 9.325000000000003e+00	 8.200000000000003e+00	 1.000408009819539e+01
2	 9.325000000000001e+00	 8.425000000000002e+00	 1.000315664238246e+01
2	 9.325000000000003e+00	 8.650000000000000e+00	 1.000236304418269e+01
2	 9.325000000000001e+00	 8.875000000000002e+00	 1.000168987505528e+01
2	 9.325000000000003e+00	 9.100000000000003e+00	 1.000112770645949e+01
2	 9.325000000000003e+00	 9.325000000000003e+00	 1.000066710985451e+01
2	 9.324999999999999e+00	 9.550000000000001e+00	 1.000029865669961e+01
2	 9.325000000000003e+00	 9.775000000000002e+00	 1.000001291845400e+01
2	 9.325000000000001e+00	 9.999999999999998e+00	 9.999800466576927e+00
2	 9.550000000000002e+00	 7.750000000000000e+00	 1.000407278376923e+01
2	 9.550000000000004e+00	 7.975000000000001e+00	 1.000292553134231e+01
2	 9.550000000000002e+00	 8.200000000000001e+00	 1.000191991337025e+01
2	 9.549999999999999e+00	 8.425000000000001e+00	 1.000107031689308e+01
2	 9.550000000000002e+00	 8.650000000000000e+00	 1.000039112895077e+01
2	 9.550000000000001e+00	 8.875000000000002e+00	 9.999896736583327e+00
2	 9.550000000000002e+00	 9.100000000000001e+00	 9.999601526830769e+00
2	 9.550000000000001e+00	 9.325000000000001e+00	 9.999519886733086e+00
2	 9.550000000000001e+00	 9.550000000000002e+00	 9.999666203330266e+00
2	 9.550000000000002e+00	 9.775000000000002e+00	 1.000005486366231e+01
2	 9.550000000000001e+00	 1.000000000000000e+01	 1.000070025476925e+01
2	 9.775000000000002e+00	 7.750000000000001e+00	 1.000246468867628e+01
2	 9.775000000000002e+00	 7.975000000000001e+00	 1.000109596629972e+01
2	 9.775000000000000e+00	 8.199999999999999e+00	 9.999908108126663e+00
2	 9.775000000000002e+00	 8.425000000000001e+00	 9.998941977505604e+00
2	 9.775000000000004e+00	 8.650000000000002e+00	 9.998238437784996e+00
2	 9.775000000000002e+00	 8.875000000000002e+00	 9.997838352313295e+00
2	 9.775000000000002e+00	 9.100000000000001e+00	 9.997782584438978e+00
2	 9.775000000000002e+00	 9.325000000000001e+00	 9.998111997510492e+00
2	 9.775000000000004e+00	 9.550000000000002e+00	 9.998867454876297e+00
2	 9.775000000000002e+00	 9.775000000000002e+00	 1.000008981988486e+01
2	 9.775000000000002e+00	 1.000000000000000e+01	 1.000181995588465e+01
2	 1.000000000000000e+01	 7.750000000000000e+00	 1.000164333333333e+01
2	 1.000000000000000e+01	 7.975000000000000e+00	 9.999722931346152e+00
2	 1.000000000000000e+01	 8.200000000000001e+00	 9.998076892307694e+00
2	 1.000000000000000e+01	 8.425000000000002e+00	 9.996775216602565e+00
2	 1.000000000000000e+01	 8.650000000000000e+00	 9.995887904615385e+00
2	 1.000000000000000e+01	 8.875000000000002e+00	 9.995484956730767e+00
2	 1.000000000000000e+01	 9.100000000000001e+00	 9.995636373333335e+00
2	 9.999999999999998e+00	 9.325000000000001e+00	 9.996412154807709e+00
2	 1.000000000000000e+01	 9.550000000000001e+00	 9.997882301538461e+00
2	 1.000000000000000e+01	 9.775000000000002e+00	 1.000011681391027e+01
2	 1.000000000000000e+01	 1.000000000000000e+01	 1.000318569230771e+01
3	 0.000000000000000e+00	 5.500000000000000e+00	 9.433898305900863e+00
3	 0.000000000000000e+00	 5.725000000000001e+00	 9.494533169193524e+00
3	 0.000000000000000e+00	 5.950000000000002e+00	 9.553384430296916e+00
3	 0.000000000000000e+00	 6.175000000000000e+00	 9.609807680947410e+00
3	 0.000000000000000e+00	 6.400000000000000e+00	 9.663158512881415e+00
3	 0.000000000000000e+00	 6.625000000000000e+00	 9.712792517835329e+00
3	 0.000000000000000e+00	 6.850000000000001e+00	 9.758065287545516e+00
3	 0.000000000000000e+00	 7.075000000000000e+00	 9.798332413748371e+00
3	 0.000000000000000e+00	 7.300000000000001e+00	 9.832949488180303e+00
3	 0.000000000000000e+00	 7.525000000000000e+00	 9.861272102577660e+00
3	 0.000000000000000e+00	 7.750000000000000e+00	 9.882655848676858e+00
3	 2.750000000085500e-01	 5.500000000000000e+00	 9.490317285524194e+00
3	 2.750000000085500e-01	 5.724999999999998e+00	 9.538429335955815e+00
3	 2.750000000085500e-01	 5.950000000000000e+00	 9.585188058880865e+00
3	 2.750000000085501e-01	 6.175000000000002e+00	 9.630280198229524e+00
3	 2.750000000085500e-01	 6.399999999999999e+00	 9.673392497931921e+00
3	 2.750000000085500e-01	 6.624999999999999e+00	 9.714211701918249e+00
3	 2.750000000085499e-01	 6.849999999999997e+00	 9.752424554118658e+00
3	 2.750000000085498e-01	 7.074999999999998e+00	 9.787717798463335e+00
3	 2.750000000085500e-01	 7.299999999999999e+00	 9.819778178882423e+00
3	 2.750000000085499e-01	 7.524999999999997e+00	 9.848292439306100e+00
3	 2.750000000085500e-01	 7.750000000000001e+00	 9.872947323664519e+00
3	 5.500000000144001e-01	 5.500000000000001e+00	 9.539974119232976e+00
3	 5.500000000144000e-01	 5.725000000000001e+00	 9.579758762181861e+00
3	 5.500000000144002e-01	 5.949999999999999e+00	 9.618165476251919e+00
3	 5.500000000144001e-01	 6.174999999999999e+00	 9.655152333881380e+00
3	 5.500000000144000e-01	 6.400000000000000e+00	 9.690677407508511e+00
3	 5.500000000144002e-01	 6.625000000000000e+00	 9.724698769571575e+00
3	 5.500000000143999e-01	 6.849999999999998e+00	 9.757174492508806e+00
3	 5.500000000144003e-01	 7.075000000000002e+00	 9.788062648758462e+00
3	 5.500000000144001e-01	 7.300000000000000e+00	 9.817321310758800e+00
3	 5.500000000144001e-01	 7.524999999999999e+00	 9.844908550948055e+00
3	 5.500000000144002e-01	 7.750000000000001e+00	 9.870782441764504e+00
3	 8.250000000178502e-01	 5.500000000000001e+00	 9.584921660412011e+00
3	 8.250000000178501e-01	 5.725000000000001e+00	 9.619598493616946e+00
3	 8.250000000178500e-01	 5.950000000000002e+00	 9.652563439113914e+00
3	 8.250000000178501e-01	 6.175000000000002e+00	 9.683986074163579e+00
3	 8.250000000178502e-01	 6.400000000000002e+00	 9.714035976026576e+00
3	 8.250000000178501e-01	 6.624999999999998e+00	 9.742882721963550e+00
3	 8.250000000178500e-01	 6.849999999999999e+00	 9.770695889235141e+00
3	 8.250000000178500e-01	 7.074999999999998e+00	 9.797645055102013e+00
3	 8.250000000178500e-01	 7.299999999999998e+00	 9.823899796824779e+00
3	 8.250000000178501e-01	 7.525000000000001e+00	 9.849629691664111e+00
3	 8.250000000178502e-01	 7.750000000000000e+00	 9.875004316880652e+00
3	 1.100000000019200e+00	 5.500000000000000e+00	 9.627212762445996e+00
3	 1.100000000019200e+00	 5.725000000000001e+00	 9.659025576006302e+00
3	 1.100000000019201e+00	 5.949999999999999e+00	 9.688628704170753e+00
3	 1.100000000019200e+00	 6.174999999999999e+00	 9.716343405336691e+00
3	 1.100000000019200e+00	 6.399999999999999e+00	 9.742490937901458e+00
3	 1.100000000019200e+00	 6.625000000000002e+00	 9.767392560262408e+00
3	 1.100000000019200e+00	 6.850000000000000e+00	 9.791369530816880e+00
3	 1.100000000019200e+00	 7.074999999999998e+00	 9.814743107962213e+00
3	 1.100000000019200e+00	 7.299999999999999e+00	 9.837834550095749e+00
3	 1.100000000019200e+00	 7.524999999999999e+00	 9.860965115614842e+00
3	 1.100000000019200e+00	 7.750000000000000e+00	 9.884456062916819e+00
3	 1.375000000018750e+00	 5.500000000000000e+00	 9.668900278719747e+00
3	 1.375000000018750e+00	 5.725000000000000e+00	 9.699117055095222e+00
3	 1.375000000018750e+00	 5.950000000000000e+00	 9.726608028126297e+00
3	 1.375000000018750e+00	 6.174999999999999e+00	 9.751786313661293e+00
3	 1.375000000018750e+00	 6.399999999999999e+00	 9.775065027548557e+00
3	 1.375000000018750e+00	 6.625000000000000e+00	 9.796857285636424e+00
3	 1.375000000018750e+00	 6.850000000000001e+00	 9.817576203773235e+00
3	 1.375000000018750e+00	 7.075000000000000e+00	 9.837634897807352e+00
3	 1.375000000018751e+00	 7.300000000000002e+00	 9.857446483587092e+00
3	 1.375000000018750e+00	 7.525000000000000e+00	 9.877424076960800e+00
3	 1.375000000018750e+00	 7.750000000000000e+00	 9.897980793776828e+00
3	 1.650000000016800e+00	 5.499999999999999e+00	 9.712037062617911e+00
3	 1.650000000016800e+00	 5.725000000000001e+00	 9.740949976628976e+00
3	 1.650000000016800e+00	 5.949999999999998e+00	 9.766748167684458e+00
3	 1.650000000016800e+00	 6.175000000000001e+00	 9.789876785398006e+00
3	 1.650000000016800e+00	 6.400000000000000e+00	 9.810780979383257e+00
3	 1.650000000016800e+00	 6.625000000000000e+00	 9.829905899253861e+00
3	 1.650000000016800e+00	 6.850000000000001e+00	 9.847696694623455e+00
3	 1.650000000016800e+00	 7.075000000000001e+00	 9.864598515105682e+00
3	 1.650000000016800e+00	 7.300000000000000e+00	 9.881056510314185e+00
3	 1.650000000016800e+00	 7.525000000000000e+00	 9.897515829862597e+00
3	 1.650000000016800e+00	 7.750000000000000e+00	 9.914421623364571e+00
3	 1.925000000013650e+00	 5.499999999999999e+00	 9.758675967525278e+00
3	 1.925000000013649e+00	 5.724999999999999e+00	 9.785601386352820e+00
3	 1.925000000013650e+00	 5.950000000000000e+00	 9.809295879549113e+00
3	 1.925000000013650e+00	 6.175000000000000e+00	 9.830176806807424e+00
3	 1.925000000013649e+00	 6.400000000000000e+00	 9.848661527820974e+00
3	 1.925000000013650e+00	 6.625000000000001e+00	 9.865167402283005e+00
3	 1.925000000013650e+00	 6.850000000000001e+00	 9.880111789886769e+00
3	 1.925000000013649e+00	 7.075000000000000e+00	 9.893912050325502e+00
3	 1.925000000013650e+00	 7.299999999999999e+00	 9.906985543292446e+00
3	 1.925000000013650e+00	 7.525000000000000e+00	 9.919749628480821e+00
3	 1.925000000013650e+00	 7.750000000000002e+00	 9.932621665583886e+00
3	 2.200000000009600e+00	 5.500000000000001e+00	 9.810869846826535e+00
3	 2.200000000009599e+00	 5.725000000000000e+00	 9.834148330012020e+00
3	 2.200000000009599e+00	 5.950000000000000e+00	 9.854497920424198e+00
3	 2.200000000009600e+00	 6.175000000000000e+00	 9.872248364150177e+00
3	 2.200000000009600e+00	 6.400000000000000e+00	 9.887729407277128e+00
3	 2.200000000009599e+00	 6.624999999999999e+00	 9.901270795892170e+00
3	 2.200000000009600e+00	 6.850000000000000e+00	 9.913202276082448e+00
3	 2.200000000009600e+00	 7.075000000000001e+00	 9.923853593935100e+00
3	 2.200000000009600e+00	 7.300000000000000e+00	 9.933554495537260e+00
3	 2.200000000009600e+00	 7.524999999999999e+00	 9.942634726976065e+00
3	 2.200000000009600e+00	 7.750000000000001e+00	 9.951424034338659e+00
3	 2.475000000004950e+00	 5.500000000000001e+00	 9.870671553906389e+00
3	 2.475000000004949e+00	 5.724999999999999e+00	 9.887667853351857e+00
3	 2.475000000004950e+00	 5.950000000000002e+00	 9.902601047013588e+00
3	 2.475000000004949e+00	 6.175000000000000e+00	 9.915653443686923e+00
3	 2.475000000004949e+00	 6.399999999999999e+00	 9.927007352167173e+00
3	 2.475000000004950e+00	 6.625000000000001e+00	 9.936845081249672e+00
3	 2.475000000004949e+00	 6.850000000000000e+00	 9.945348939729758e+00
3	 2.475000000004949e+00	 7.074999999999999e+00	 9.952701236402786e+00
3	 2.475000000004950e+00	 7.300000000000002e+00	 9.959084280064062e+00
3	 2.475000000004949e+00	 7.525000000000000e+00	 9.964680379508952e+00
3	 2.475000000004950e+00	 7.750000000000002e+00	 9.969671843532765e+00
3	 2.750000000000000e+00	 5.500000000000000e+00	 9.940133942149506e+00
3	 2.750000000000001e+00	 5.725000000000001e+00	 9.947237002117591e+00
3	 2.750000000000000e+00	 5.950000000000000e+00	 9.953852016021253e+00
3	 2.750000000000000e+00	 6.175000000000000e+00	 9.959954031678285e+00
3	 2.750000000000000e+00	 6.400000000000000e+00	 9.965518096906530e+00
3	 2.750000000000000e+00	 6.625000000000000e+00	 9.970519259523829e+00
3	 2.750000000000000e+00	 6.850000000000001e+00	 9.974932567347993e+00
3	 2.750000000000000e+00	 7.074999999999999e+00	 9.978733068196870e+00
3	 2.750000000000000e+00	 7.300000000000002e+00	 9.981895809888298e+00
3	 2.750000000000000e+00	 7.525000000000000e+00	 9.984395840240087e+00
3	 2.750000000000000e+00	 7.750000000000000e+00	 9.986208207070090e+00
3	 0.000000000000000e+00	 7.750000000000000e+00	 9.882655848676858e+00
3	 0.000000000000000e+00	 7.975000000000000e+00	 9.899291446899111e+00
3	 0.000000000000000e+00	 8.200000000000001e+00	 9.914162087276825e+00
3	 0.000000000000000e+00	 8.425000000000002e+00	 9.927812065963096e+00
3	 0.000000000000000e+00	 8.650000000000000e+00	 9.940785679111087e+00
3	 0.000000000000000e+00	 8.875000000000002e+00	 9.953627222873891e+00
3	 0.000000000000000e+00	 9.100000000000001e+00	 9.966880993404665e+00
3	 0.000000000000000e+00	 9.325000000000001e+00	 9.981091286856516e+00
3	 0.000000000000000e+00	 9.550000000000001e+00	 9.996802399382572e+00
3	 0.000000000000000e+00	 9.775000000000002e+00	 1.001455862713598e+01
3	 0.000000000000000e+00	 1.000000000000000e+01	 1.003490426626985e+01
3	 2.750000000085500e-01	 7.750000000000001e+00	 9.872947323664519e+00
3	 2.750000000085500e-01	 7.975000000000003e+00	 9.894142092322392e+00
3	 2.750000000085500e-01	 8.199999999999999e+00	 9.912751349177885e+00
3	 2.750000000085500e-01	 8.424999999999997e+00	 9.929174853461445e+00
3	 2.750000000085501e-01	 8.650000000000002e+00	 9.943812364403465e+00
3	 2.750000000085500e-01	 8.875000000000000e+00	 9.957063641234349e+00
3	 2.750000000085500e-01	 9.100000000000003e+00	 9.969328443184525e+00
3	 2.750000000085501e-01	 9.324999999999999e+00	 9.981006529484393e+00
3	 2.750000000085500e-01	 9.550000000000001e+00	 9.992497659364401e+00
3	 2.750000000085500e-01	 9.775000000000002e+00	 1.000420159205491e+01
3	 2.750000000085500e-01	 1.000000000000000e+01	 1.001651808678636e+01
3	 5.500000000144002e-01	 7.750000000000001e+00	 9.870782441764504e+00
3	 5.500000000144001e-01	 7.975000000000001e+00	 9.894204019605247e+00
3	 5.500000000144001e-01	 8.200000000000001e+00	 9.914647432748048e+00
3	 5.500000000144001e-01	 8.425000000000001e+00	 9.932390421452057e+00
3	 5.500000000144000e-01	 8.649999999999999e+00	 9.947710725976442e+00
3	 5.500000000144002e-01	 8.875000000000002e+00	 9.960886086580381e+00
3	 5.500000000144002e-01	 9.100000000000001e+00	 9.972194243523042e+00
3	 5.500000000144000e-01	 9.325000000000001e+00	 9.981912937063601e+00
3	 5.500000000144003e-01	 9.550000000000006e+00	 9.990319907461217e+00
3	 5.500000000144003e-01	 9.775000000000006e+00	 9.997692894975071e+00
3	 5.500000000144001e-01	 1.000000000000000e+01	 1.000430963986431e+01
3	 8.250000000178502e-01	 7.750000000000000e+00	 9.875004316880652e+00
3	 8.250000000178502e-01	 7.975000000000001e+00	 9.898687743592141e+00
3	 8.250000000178500e-01	 8.199999999999999e+00	 9.919349817568829e+00
3	 8.250000000178500e-01	 8.425000000000001e+00	 9.937168778050111e+00
3	 8.250000000178502e-01	 8.650000000000000e+00	 9.952322864275402e+00
3	 8.250000000178500e-01	 8.874999999999998e+00	 9.964990315484075e+00
3	 8.250000000178503e-01	 9.100000000000003e+00	 9.975349370915563e+00
3	 8.250000000178503e-01	 9.325000000000001e+00	 9.983578269809248e+00
3	 8.250000000178501e-01	 9.550000000000004e+00	 9.989855251404538e+00
3	 8.250000000178502e-01	 9.775000000000004e+00	 9.994358554940817e+00
3	 8.250000000178502e-01	 1.000000000000000e+01	 9.997266419657514e+00
3	 1.100000000019200e+00	 7.750000000000000e+00	 9.884456062916819e+00
3	 1.100000000019200e+00	 7.974999999999998e+00	 9.906803779127461e+00
3	 1.100000000019201e+00	 8.200000000000001e+00	 9.926357983221752e+00
3	 1.100000000019200e+00	 8.425000000000002e+00	 9.943219931370791e+00
3	 1.100000000019200e+00	 8.650000000000002e+00	 9.957490879745697e+00
3	 1.100000000019200e+00	 8.875000000000004e+00	 9.969272084517545e+00
3	 1.100000000019200e+00	 9.100000000000003e+00	 9.978664801857457e+00
3	 1.100000000019200e+00	 9.325000000000003e+00	 9.985770287936536e+00
3	 1.100000000019200e+00	 9.550000000000002e+00	 9.990689798925898e+00
3	 1.100000000019200e+00	 9.775000000000002e+00	 9.993524590996643e+00
3	 1.100000000019200e+00	 1.000000000000000e+01	 9.994375920319818e+00
3	 1.375000000018750e+00	 7.750000000000000e+00	 9.897980793776828e+00
3	 1.375000000018750e+00	 7.975000000000002e+00	 9.917762641055656e+00
3	 1.375000000018750e+00	 8.200000000000001e+00	 9.935171409288383e+00
3	 1.375000000018750e+00	 8.425000000000001e+00	 9.950253889529320e+00
3	 1.375000000018750e+00	 8.649999999999999e+00	 9.963056872832727e+00
3	 1.375000000018750e+00	 8.875000000000000e+00	 9.973627150252899e+00
3	 1.375000000018750e+00	 9.100000000000003e+00	 9.982011512844112e+00
3	 1.375000000018750e+00	 9.324999999999999e+00	 9.988256751660655e+00
3	 1.375000000018750e+00	 9.550000000000004e+00	 9.992409657756813e+00
3	 1.375000000018750e+00	 9.775000000000000e+00	 9.994517022186900e+00
3	 1.375000000018750e+00	 1.000000000000000e+01	 9.994625636005104e+00
3	 1.650000000016800e+00	 7.750000000000000e+00	 9.914421623364571e+00
3	 1.650000000016800e+00	 7.974999999999999e+00	 9.930774844221148e+00
3	 1.650000000016800e+00	 8.199999999999999e+00	 9.945289575350268e+00
3	 1.650000000016800e+00	 8.425000000000002e+00	 9.957980660640860e+00
3	 1.650000000016800e+00	 8.650000000000002e+00	 9.968862943981886e+00
3	 1.650000000016800e+00	 8.875000000000002e+00	 9.977951269262256e+00
3	 1.650000000016800e+00	 9.100000000000005e+00	 9.985260480370915e+00
3	 1.650000000016800e+00	 9.325000000000003e+00	 9.990805421196798e+00
3	 1.650000000016800e+00	 9.550000000000004e+00	 9.994600935628847e+00
3	 1.650000000016800e+00	 9.775000000000000e+00	 9.996661867555996e+00
3	 1.650000000016800e+00	 9.999999999999996e+00	 9.997003060867184e+00
3	 1.925000000013650e+00	 7.750000000000002e+00	 9.932621665583886e+00
3	 1.925000000013650e+00	 7.975000000000001e+00	 9.945050903468381e+00
3	 1.925000000013650e+00	 8.199999999999999e+00	 9.956211960988954e+00
3	 1.925000000013650e+00	 8.425000000000001e+00	 9.966110252820659e+00
3	 1.925000000013650e+00	 8.650000000000002e+00	 9.974751193638564e+00
3	 1.925000000013650e+00	 8.875000000000002e+00	 9.982140198117733e+00
3	 1.925000000013649e+00	 9.100000000000001e+00	 9.988282680933239e+00
3	 1.925000000013650e+00	 9.324999999999999e+00	 9.993184056760137e+00
3	 1.925000000013650e+00	 9.550000000000001e+00	 9.996849740273532e+00
3	 1.925000000013649e+00	 9.775000000000000e+00	 9.999285146148427e+00
3	 1.925000000013650e+00	 1.000000000000000e+01	 1.000049568905994e+01
3	 2.200000000009600e+00	 7.750000000000001e+00	 9.951424034338659e+00
3	 2.200000000009600e+00	 7.975000000000000e+00	 9.959801333641813e+00
3	 2.200000000009600e+00	 8.200000000000001e+00	 9.967438045786000e+00
3	 2.200000000009600e+00	 8.425000000000001e+00	 9.974352674183896e+00
3	 2.200000000009599e+00	 8.650000000000000e+00	 9.980563722248171e+00
3	 2.200000000009600e+00	 8.875000000000002e+00	 9.986089693391477e+00
3	 2.200000000009599e+00	 9.100000000000000e+00	 9.990949091026517e+00
3	 2.200000000009600e+00	 9.324999999999999e+00	 9.995160418565931e+00
3	 2.200000000009599e+00	 9.550000000000002e+00	 9.998742179422424e+00
3	 2.200000000009599e+00	 9.774999999999999e+00	 1.000171287700863e+01
3	 2.200000000009600e+00	 1.000000000000000e+01	 1.000409101473725e+01
3	 2.475000000004950e+00	 7.750000000000002e+00	 9.969671843532765e+00
3	 2.475000000004950e+00	 7.975000000000001e+00	 9.974236649585890e+00
3	 2.475000000004950e+00	 8.200000000000001e+00	 9.978467309322994e+00
3	 2.475000000004950e+00	 8.425000000000001e+00	 9.982417932845811e+00
3	 2.475000000004950e+00	 8.650000000000004e+00	 9.986142630256108e+00
3	 2.475000000004949e+00	 8.875000000000002e+00	 9.989695511655627e+00
3	 2.475000000004950e+00	 9.100000000000001e+00	 9.993130687146135e+00
3	 2.475000000004949e+00	 9.325000000000001e+00	 9.996502266829365e+00
3	 2.475000000004950e+00	 9.550000000000004e+00	 9.999864360807099e+00
3	 2.475000000004950e+00	 9.775000000000002e+00	 1.000327107918107e+01
3	 2.475000000004950e+00	 1.000000000000000e+01	 1.000677653205302e+01
3	 2.750000000000000e+00	 7.750000000000000e+00	 9.986208207070090e+00
3	 2.750000000000000e+00	 7.974999999999999e+00	 9.987567366145074e+00
3	 2.750000000000000e+00	 8.199999999999999e+00	 9.988799231181479e+00
3	 2.750000000000000e+00	 8.425000000000001e+00	 9.990016036921618e+00
3	 2.750000000000000e+00	 8.650000000000000e+00	 9.991330018107805e+00
3	 2.750000000000000e+00	 8.875000000000000e+00	 9.992853409482333e+00
3	 2.750000000000000e+00	 9.100000000000000e+00	 9.994698445787522e+00
3	 2.750000000000000e+00	 9.324999999999999e+00	 9.996977361765696e+00
3	 2.750000000000000e+00	 9.550000000000004e+00	 9.999802392159133e+00
3	 2.750000000000000e+00	 9.775000000000000e+00	 1.000328577171018e+01
3	 2.750000000000000e+00	 1.000000000000000e+01	 1.000753973516111e+01
3	 2.750000000000000e+00	 5.500000000000000e+00	 9.940133942149506e+00
3	 2.750000000000001e+00	 5.725000000000001e+00	 9.947237002117591e+00
3	 2.750000000000000e+00	 5.950000000000000e+00	 9.953852016021253e+00
3	 2.750000000000000e+00	 6.175000000000000e+00	 9.959954031678285e+00
3	 2.750000000000000e+00	 6.400000000000000e+00	 9.965518096906530e+00
3	 2.750000000000000e+00	 6.625000000000000e+00	 9.970519259523829e+00
3	 2.750000000000000e+00	 6.850000000000001e+00	 9.974932567347993e+00
3	 2.750000000000000e+00	 7.074999999999999e+00	 9.978733068196870e+00
3	 2.750000000000000e+00	 7.300000000000002e+00	 9.981895809888298e+00
3	 2.750000000000000e+00	 7.525000000000000e+00	 9.984395840240087e+00
3	 2.750000000000000e+00	 7.750000000000000e+00	 9.986208207070090e+00
3	 3.024999999995051e+00	 5.500000000000000e+00	 1.001936952885202e+01
3	 3.024999999995049e+00	 5.725000000000001e+00	 1.001384040649479e+01
3	 3.024999999995051e+00	 5.950000000000003e+00	 1.000972735751539e+01
3	 3.024999999995050e+00	 6.175000000000000e+00	 1.000680742267753e+01
3	 3.024999999995050e+00	 6.400000000000000e+00	 1.000485764274486e+01
3	 3.024999999995051e+00	 6.625000000000001e+00	 1.000365505848108e+01
3	 3.024999999995050e+00	 6.850000000000003e+00	 1.000297671064987e+01
3	 3.024999999995050e+00	 7.075000000000000e+00	 1.000259964001493e+01
3	 3.024999999995050e+00	 7.300000000000001e+00	 1.000230088733991e+01
3	 3.024999999995049e+00	 7.524999999999999e+00	 1.000185749338854e+01
3	 3.024999999995049e+00	 7.749999999999999e+00	 1.000104649892447e+01
3	 3.299999999990400e+00	 5.500000000000000e+00	 1.010210979643823e+01
3	 3.299999999990400e+00	 5.725000000000001e+00	 1.008370890740283e+01
3	 3.299999999990400e+00	 5.950000000000001e+00	 1.006837054205866e+01
3	 3.299999999990399e+00	 6.174999999999998e+00	 1.005575206564766e+01
3	 3.299999999990401e+00	 6.400000000000002e+00	 1.004551084341179e+01
3	 3.299999999990399e+00	 6.624999999999998e+00	 1.003730424059300e+01
3	 3.299999999990400e+00	 6.850000000000000e+00	 1.003078962243324e+01
3	 3.299999999990400e+00	 7.074999999999999e+00	 1.002562435417447e+01
3	 3.299999999990401e+00	 7.300000000000001e+00	 1.002146580105863e+01
3	 3.299999999990400e+00	 7.524999999999999e+00	 1.001797132832769e+01
3	 3.299999999990400e+00	 7.750000000000000e+00	 1.001479830122358e+01
3	 3.574999999986351e+00	 5.500000000000001e+00	 1.018083604598512e+01
3	 3.574999999986350e+00	 5.724999999999999e+00	 1.015078886668774e+01
3	 3.574999999986352e+00	 5.950000000000000e+00	 1.012502873709646e+01
3	 3.574999999986350e+00	 6.175000000000000e+00	 1.010317167846391e+01
3	 3.574999999986350e+00	 6.399999999999999e+00	 1.008483371204275e+01
3	 3.574999999986350e+00	 6.625000000000000e+00	 1.006963085908558e+01
3	 3.574999999986350e+00	 6.850000000000000e+00	 1.005717914084507e+01
3	 3.574999999986351e+00	 7.075000000000002e+00	 1.004709457857382e+01
3	 3.574999999986351e+00	 7.299999999999999e+00	 1.003899319352449e+01
3	 3.574999999986350e+00	 7.524999999999999e+00	 1.003249100694969e+01
3	 3.574999999986350e+00	 7.750000000000000e+00	 1.002720404010209e+01
3	 3.849999999983201e+00	 5.500000000000000e+00	 1.024802957856967e+01
3	 3.849999999983201e+00	 5.725000000000001e+00	 1.020902664619551e+01
3	 3.849999999983201e+00	 5.950000000000000e+00	 1.017494911007423e+01
3	 3.849999999983202e+00	 6.175000000000001e+00	 1.014544997900152e+01
3	 3.849999999983200e+00	 6.399999999999999e+00	 1.012018226177315e+01
3	 3.849999999983201e+00	 6.625000000000000e+00	 1.009879896718483e+01
3	 3.849999999983201e+00	 6.849999999999999e+00	 1.008095310403229e+01
3	 3.849999999983201e+00	 7.074999999999999e+00	 1.006629768111128e+01
3	 3.849999999983202e+00	 7.300000000000000e+00	 1.005448570721750e+01
3	 3.849999999983200e+00	 7.524999999999999e+00	 1.004517019114671e+01
3	 3.849999999983201e+00	 7.750000000000001e+00	 1.003800414169463e+01
3	 4.124999999981251e+00	 5.500000000000001e+00	 1.029617169526886e+01
3	 4.124999999981251e+00	 5.725000000000000e+00	 1.025236860777216e+01
3	 4.124999999981251e+00	 5.950000000000000e+00	 1.021337882843736e+01
3	 4.124999999981251e+00	 6.175000000000000e+00	 1.017897068513568e+01
3	 4.124999999981252e+00	 6.400000000000001e+00	 1.014891250573838e+01
3	 4.124999999981251e+00	 6.625000000000000e+00	 1.012297261811669e+01
3	 4.124999999981251e+00	 6.850000000000002e+00	 1.010091935014185e+01
3	 4.124999999981251e+00	 7.075000000000000e+00	 1.008252102968511e+01
3	 4.124999999981251e+00	 7.300000000000000e+00	 1.006754598461770e+01
3	 4.124999999981251e+00	 7.524999999999999e+00	 1.005576254281086e+01
3	 4.124999999981251e+00	 7.750000000000000e+00	 1.004693903213584e+01
3	 4.399999999980801e+00	 5.500000000000000e+00	 1.031774369715967e+01
3	 4.399999999980801e+00	 5.725000000000001e+00	 1.027476111326366e+01
3	 4.399999999980801e+00	 5.949999999999998e+00	 1.023556505963122e+01
3	 4.399999999980801e+00	 6.175000000000002e+00	 1.020011751474155e+01
3	 4.399999999980801e+00	 6.399999999999999e+00	 1.016838045707378e+01
3	 4.399999999980802e+00	 6.625000000000001e+00	 1.014031586510710e+01
3	 4.399999999980801e+00	 6.850000000000001e+00	 1.011588571732064e+01
3	 4.399999999980801e+00	 7.075000000000000e+00	 1.009505199219357e+01
3	 4.399999999980801e+00	 7.300000000000000e+00	 1.007777666820506e+01
3	 4.399999999980801e+00	 7.524999999999999e+00	 1.006402172383428e+01
3	 4.399999999980801e+00	 7.750000000000001e+00	 1.005374913756037e+01
3	 4.674999999982151e+00	 5.500000000000000e+00	 1.030522688531906e+01
3	 4.674999999982152e+00	 5.725000000000001e+00	 1.027015052451596e+01
3	 4.674999999982151e+00	 5.949999999999999e+00	 1.023675497110120e+01
3	 4.674999999982152e+00	 6.175000000000001e+00	 1.020527418569429e+01
3	 4.674999999982152e+00	 6.400000000000000e+00	 1.017594212891472e+01
3	 4.674999999982152e+00	 6.624999999999999e+00	 1.014899276138197e+01
3	 4.674999999982152e+00	 6.850000000000000e+00	 1.012466004371554e+01
3	 4.674999999982150e+00	 7.074999999999999e+00	 1.010317793653492e+01
3	 4.674999999982151e+00	 7.299999999999998e+00	 1.008478040045960e+01
3	 4.674999999982152e+00	 7.525000000000000e+00	 1.006970139610907e+01
3	 4.674999999982153e+00	 7.750000000000000e+00	 1.005817488410282e+01
3	 4.949999999985602e+00	 5.500000000000000e+00	 1.025110256082399e+01
3	 4.949999999985602e+00	 5.725000000000001e+00	 1.023248320337502e+01
3	 4.949999999985604e+00	 5.950000000000000e+00	 1.021219573029261e+01
3	 4.949999999985602e+00	 6.175000000000002e+00	 1.019082441586903e+01
3	 4.949999999985602e+00	 6.399999999999999e+00	 1.016895353439648e+01
3	 4.949999999985602e+00	 6.625000000000000e+00	 1.014716736016721e+01
3	 4.949999999985601e+00	 6.850000000000000e+00	 1.012605016747342e+01
3	 4.949999999985602e+00	 7.075000000000000e+00	 1.010618623060737e+01
3	 4.949999999985602e+00	 7.300000000000001e+00	 1.008815982386126e+01
3	 4.949999999985603e+00	 7.525000000000000e+00	 1.007255522152733e+01
3	 4.949999999985601e+00	 7.750000000000000e+00	 1.005995669789781e+01
3	 5.224999999991452e+00	 5.500000000000000e+00	 1.014785202475145e+01
3	 5.224999999991452e+00	 5.725000000000000e+00	 1.015570551168677e+01
3	 5.224999999991454e+00	 5.950000000000001e+00	 1.015713450465079e+01
3	 5.224999999991452e+00	 6.175000000000000e+00	 1.015315192314087e+01
3	 5.224999999991451e+00	 6.399999999999999e+00	 1.014477068665437e+01
3	 5.224999999991452e+00	 6.625000000000001e+00	 1.013300371468867e+01
3	 5.224999999991453e+00	 6.850000000000001e+00	 1.011886392674112e+01
3	 5.224999999991452e+00	 7.075000000000001e+00	 1.010336424230911e+01
3	 5.224999999991453e+00	 7.300000000000000e+00	 1.008751758089000e+01
3	 5.224999999991453e+00	 7.525000000000000e+00	 1.007233686198116e+01
3	 5.224999999991452e+00	 7.750000000000001e+00	 1.005883500507997e+01
3	 5.500000000000000e+00	 5.500000000000000e+00	 9.987956578178370e+00
3	 5.500000000000000e+00	 5.725000000000001e+00	 1.003376381129716e+01
3	 5.500000000000001e+00	 5.950000000000002e+00	 1.006681846162104e+01
3	 5.500000000000001e+00	 6.175000000000000e+00	 1.008864042538489e+01
3	 5.500000000000000e+00	 6.400000000000000e+00	 1.010074959882363e+01
3	 5.500000000000000e+00	 6.625000000000000e+00	 1.010466587817219e+01
3	 5.499999999999999e+00	 6.850000000000001e+00	 1.010190915966546e+01
3	 5.499999999999999e+00	 7.075000000000000e+00	 1.009399933953835e+01
3	 5.500000000000001e+00	 7.300000000000001e+00	 1.008245631402578e+01
3	 5.500000000000001e+00	 7.525000000000000e+00	 1.006879997936265e+01
3	 5.500000000000000e+00	 7.750000000000000e+00	 1.005455023178388e+01
3	 2.750000000000000e+00	 7.750000000000000e+00	 9.986208207070090e+00
3	 2.750000000000000e+00	 7.974999999999999e+00	 9.987567366145074e+00
3	 2.750000000000000e+00	 8.199999999999999e+00	 9.988799231181479e+00
3	 2.750000000000000e+00	 8.425000000000001e+00	 9.990016036921618e+00
3	 2.750000000000000e+00	 8.650000000000000e+00	 9.991330018107805e+00
3	 2.750000000000000e+00	 8.875000000000000e+00	 9.992853409482333e+00
3	 2.750000000000000e+00	 9.100000000000000e+00	 9.994698445787522e+00
3	 2.750000000000000e+00	 9.324999999999999e+00	 9.996977361765696e+00
3	 2.750000000000000e+00	 9.550000000000004e+00	 9.999802392159133e+00
3	 2.750000000000000e+00	 9.775000000000000e+00	 1.000328577171018e+01
3	 2.750000000000000e+00	 1.000000000000000e+01	 1.000753973516111e+01
3	 3.024999999995049e+00	 7.749999999999999e+00	 1.000104649892447e+01
3	 3.024999999995050e+00	 7.975000000000000e+00	 9.999891882255383e+00
3	 3.024999999995049e+00	 8.199999999999999e+00	 9.998676633501388e+00
3	 3.024999999995050e+00	 8.425000000000002e+00	 9.997566311144737e+00
3	 3.024999999995051e+00	 8.650000000000004e+00	 9.996726473667707e+00
3	 3.024999999995050e+00	 8.875000000000002e+00	 9.996322679552595e+00
3	 3.024999999995050e+00	 9.100000000000001e+00	 9.996520487281664e+00
3	 3.024999999995050e+00	 9.325000000000001e+00	 9.997485455337195e+00
3	 3.024999999995051e+00	 9.550000000000001e+00	 9.999383142201482e+00
3	 3.024999999995051e+00	 9.775000000000002e+00	 1.000237910635679e+01
3	 3.024999999995051e+00	 1.000000000000000e+01	 1.000663890628541e+01
3	 3.299999999990400e+00	 7.750000000000000e+00	 1.001479830122358e+01
3	 3.299999999990401e+00	 7.975000000000000e+00	 1.001160726500211e+01
3	 3.299999999990400e+00	 8.199999999999999e+00	 1.000841169640416e+01
3	 3.299999999990400e+00	 8.425000000000004e+00	 1.000539835789932e+01
3	 3.299999999990401e+00	 8.650000000000002e+00	 1.000275401195721e+01
3	 3.299999999990400e+00	 8.875000000000000e+00	 1.000066542104741e+01
3	 3.299999999990400e+00	 9.100000000000000e+00	 9.999319347639517e+00
3	 3.299999999990400e+00	 9.325000000000003e+00	 9.998902554203131e+00
3	 3.299999999990401e+00	 9.550000000000002e+00	 9.999601803207844e+00
3	 3.299999999990400e+00	 9.775000000000002e+00	 1.000160385712327e+01
3	 3.299999999990400e+00	 1.000000000000000e+01	 1.000509547841899e+01
3	 3.574999999986350e+00	 7.750000000000000e+00	 1.002720404010209e+01
3	 3.574999999986350e+00	 7.975000000000001e+00	 1.002237203145354e+01
3	 3.574999999986351e+00	 8.200000000000003e+00	 1.001760793644369e+01
3	 3.574999999986351e+00	 8.425000000000002e+00	 1.001308760177680e+01
3	 3.574999999986351e+00	 8.650000000000004e+00	 1.000898687415712e+01
3	 3.574999999986351e+00	 8.875000000000000e+00	 1.000548160028894e+01
3	 3.574999999986351e+00	 9.100000000000003e+00	 1.000274762687651e+01
3	 3.574999999986350e+00	 9.324999999999999e+00	 1.000096080062409e+01
3	 3.574999999986351e+00	 9.550000000000002e+00	 1.000029696823599e+01
3	 3.574999999986350e+00	 9.775000000000000e+00	 1.000093197641637e+01
3	 3.574999999986351e+00	 1.000000000000000e+01	 1.000304167186964e+01
3	 3.849999999983201e+00	 7.750000000000001e+00	 1.003800414169463e+01
3	 3.849999999983201e+00	 7.975000000000001e+00	 1.003184469867798e+01
3	 3.849999999983202e+00	 8.200000000000001e+00	 1.002586887017384e+01
3	 3.849999999983202e+00	 8.425000000000001e+00	 1.002020946736850e+01
3	 3.849999999983201e+00	 8.650000000000002e+00	 1.001499930144824e+01
3	 3.849999999983201e+00	 8.875000000000002e+00	 1.001037118359934e+01
3	 3.849999999983201e+00	 9.100000000000000e+00	 1.000645792500808e+01
3	 3.849999999983201e+00	 9.325000000000003e+00	 1.000339233686074e+01
3	 3.849999999983201e+00	 9.550000000000002e+00	 1.000130723034359e+01
3	 3.849999999983201e+00	 9.775000000000004e+00	 1.000033541664293e+01
3	 3.849999999983201e+00	 1.000000000000000e+01	 1.000060970694507e+01
3	 4.124999999981251e+00	 7.750000000000000e+00	 1.004693903213584e+01
3	 4.124999999981251e+00	 7.975000000000000e+00	 1.003968378374372e+01
3	 4.124999999981251e+00	 8.200000000000001e+00	 1.003279801414849e+01
3	 4.124999999981251e+00	 8.424999999999999e+00	 1.002633937926582e+01
3	 4.124999999981251e+00	 8.649999999999999e+00	 1.002036553501135e+01
3	 4.124999999981251e+00	 8.875000000000000e+00	 1.001493413730074e+01
3	 4.124999999981252e+00	 9.100000000000003e+00	 1.001010284204961e+01
3	 4.124999999981251e+00	 9.325000000000003e+00	 1.000592930517363e+01
3	 4.124999999981251e+00	 9.550000000000001e+00	 1.000247118258843e+01
3	 4.124999999981250e+00	 9.775000000000000e+00	 9.999786130209676e+00
3	 4.124999999981251e+00	 1.000000000000000e+01	 9.997931803953005e+00
3	 4.399999999980801e+00	 7.750000000000001e+00	 1.005374913756037e+01
3	 4.399999999980801e+00	 7.975000000000001e+00	 1.004554780371905e+01
3	 4.399999999980801e+00	 8.199999999999999e+00	 1.003799888492153e+01
3	 4.399999999980801e+00	 8.424999999999999e+00	 1.003105276206015e+01
3	 4.399999999980801e+00	 8.650000000000000e+00	 1.002465981602728e+01
3	 4.399999999980803e+00	 8.875000000000004e+00	 1.001877042771530e+01
3	 4.399999999980801e+00	 9.100000000000001e+00	 1.001333497801655e+01
3	 4.399999999980801e+00	 9.325000000000001e+00	 1.000830384782341e+01
3	 4.399999999980801e+00	 9.550000000000002e+00	 1.000362741802823e+01
3	 4.399999999980802e+00	 9.775000000000002e+00	 9.999256069523401e+00
3	 4.399999999980801e+00	 1.000000000000000e+01	 9.995140183201265e+00
3	 4.674999999982153e+00	 7.750000000000000e+00	 1.005817488410282e+01
3	 4.674999999982152e+00	 7.975000000000001e+00	 1.004909527567226e+01
3	 4.674999999982152e+00	 8.200000000000003e+00	 1.004107499904680e+01
3	 4.674999999982152e+00	 8.425000000000002e+00	 1.003392504034282e+01
3	 4.674999999982152e+00	 8.650000000000000e+00	 1.002745638567680e+01
3	 4.674999999982152e+00	 8.875000000000002e+00	 1.002148002116514e+01
3	 4.674999999982151e+00	 9.100000000000003e+00	 1.001580693292429e+01
3	 4.674999999982151e+00	 9.325000000000003e+00	 1.001024810707066e+01
3	 4.674999999982151e+00	 9.550000000000001e+00	 1.000461452972069e+01
3	 4.674999999982151e+00	 9.775000000000002e+00	 9.998717186990845e+00
3	 4.674999999982151e+00	 9.999999999999998e+00	 9.992367064997527e+00
3	 4.949999999985601e+00	 7.750000000000000e+00	 1.005995669789781e+01
3	 4.949999999985602e+00	 7.975000000000001e+00	 1.004998471667164e+01
3	 4.949999999985602e+00	 8.200000000000001e+00	 1.004162987307816e+01
3	 4.949999999985602e+00	 8.425000000000001e+00	 1.003453163870522e+01
3	 4.949999999985602e+00	 8.650000000000000e+00	 1.002832948514069e+01
3	 4.949999999985602e+00	 8.875000000000002e+00	 1.002266288397240e+01
3	 4.949999999985601e+00	 9.100000000000001e+00	 1.001717130678822e+01
3	 4.949999999985601e+00	 9.325000000000001e+00	 1.001149422517599e+01
3	 4.949999999985601e+00	 9.550000000000002e+00	 1.000527111072357e+01
3	 4.949999999985602e+00	 9.775000000000002e+00	 9.998141435018795e+00
3	 4.949999999985602e+00	 1.000000000000000e+01	 9.989744669649552e+00
3	 5.224999999991452e+00	 7.750000000000001e+00	 1.005883500507997e+01
3	 5.224999999991454e+00	 7.975000000000001e+00	 1.004787464378546e+01
3	 5.224999999991452e+00	 8.199999999999999e+00	 1.003926702356949e+01
3	 5.224999999991452e+00	 8.425000000000001e+00	 1.003244798173871e+01
3	 5.224999999991453e+00	 8.650000000000002e+00	 1.002685335559974e+01
3	 5.224999999991453e+00	 8.875000000000002e+00	 1.002191898245921e+01
3	 5.224999999991453e+00	 9.100000000000001e+00	 1.001708069962375e+01
3	 5.224999999991452e+00	 9.325000000000001e+00	 1.001177434439999e+01
3	 5.224999999991453e+00	 9.550000000000002e+00	 1.000543575409451e+01
3	 5.224999999991452e+00	 9.775000000000002e+00	 9.997500766014010e+00
3	 5.224999999991452e+00	 1.000000000000000e+01	 9.987405217465072e+00
3	 5.500000000000000e+00	 7.750000000000000e+00	 1.005455023178388e+01
3	 5.500000000000000e+00	 7.975000000000000e+00	 1.004242357408197e+01
3	 5.500000000000000e+00	 8.200000000000001e+00	 1.003358996707464e+01
3	 5.500000000000001e+00	 8.425000000000002e+00	 1.002724949403464e+01
3	 5.500000000000000e+00	 8.650000000000000e+00	 1.002260223823475e+01
3	 5.500000000000001e+00	 8.875000000000002e+00	 1.001884828294770e+01
3	 5.500000000000000e+00	 9.100000000000001e+00	 1.001518771144627e+01
3	 5.500000000000000e+00	 9.325000000000001e+00	 1.001082060700321e+01
3	 5.500000000000000e+00	 9.550000000000001e+00	 1.000494705289126e+01
3	 5.500000000000000e+00	 9.775000000000002e+00	 9.996767132383217e+00
3	 5.500000000000000e+00	 1.000000000000000e+01	 9.985480928751763e+00
4	 7.071067812000000e-01	 7.071067812000000e-01	 1.334275512775517e+01
4	 6.794320713628406e-01	 7.337384141782469e-01	 1.223567876145028e+01
4	 6.505531848560920e-01	 7.594606992521740e-01	 1.109608376413197e+01
4	 6.205135387314564e-01	 7.841957334000372e-01	 9.932103328894222e+00
4	 5.893630678348932e-01	 8.078682901936073e-01	 8.752922071691490e+00
4	 5.571580250497133e-01	 8.304064879001741e-01	 7.568827212509106e+00
4	 5.239607004200920e-01	 8.517424401983541e-01	 6.391208883270407e+00
4	 4.898390608956167e-01	 8.718128781088504e-01	 5.232492890236520e+00
4	 4.548663142595269e-01	 8.905597319458151e-01	 4.105990063356634e+00
4	 4.191204025952177e-01	 9.079306626257404e-01	 3.025649764840489e+00
4	 3.826834323423998e-01	 9.238795325228849e-01	 2.005711814042820e+00
4	 9.467514421485499e-01	 9.467514421485499e-01	 1.122463045770654e+01
4	 9.076118775423860e-01	 9.720514934742923e-01	 1.064426857982584e+01
4	 8.670536487362005e-01	 9.964876642916209e-01	 1.000992903385754e+01
4	 8.251431260743032e-01	 1.019985946729824e+00	 9.329875700604404e+00
4	 7.819546673841880e-01	 1.042474875682026e+00	 8.613250101508930e+00
4	 7.375702700332706e-01	 1.063886163502087e+00	 7.870126675489647e+00
4	 6.920791213846246e-01	 1.084155318184626e+00	 7.111531681176338e+00
4	 6.455770514504563e-01	 1.103222234199242e+00	 6.349415574905830e+00
4	 5.981658938496960e-01	 1.121031745344306e+00	 5.596569527857207e+00
4	 5.499527634002003e-01	 1.137534129490410e+00	 4.866478918261398e+00
4	 5.010492607341374e-01	 1.152685555893026e+00	 4.173110354468584e+00
4	 1.186396103094400e+00	 1.186396103094400e+00	 1.042549305151447e+01
4	 1.135791683719912e+00	 1.210364572768395e+00	 1.016119818376894e+01
4	 1.083554112614767e+00	 1.233514629329738e+00	 9.823290716256071e+00
4	 1.029772713415906e+00	 1.255776160058764e+00	 9.420500277159892e+00
4	 9.745462669323824e-01	 1.277081461169961e+00	 8.962429533870372e+00
4	 9.179825150157412e-01	 1.297365839103779e+00	 8.459617826369556e+00
4	 8.601975423479821e-01	 1.316568196170852e+00	 7.923572814723146e+00
4	 8.013150420039593e-01	 1.334631590289691e+00	 7.366762357413051e+00
4	 7.414654734383210e-01	 1.351503758742904e+00	 6.802559623062617e+00
4	 6.807851242034150e-01	 1.367137596355200e+00	 6.245136135736859e+00
4	 6.194150891238973e-01	 1.381491579263279e+00	 5.709300134849640e+00
4	 1.426040764037850e+00	 1.426040764037850e+00	 1.032367198333882e+01
4	 1.363971489895644e+00	 1.448677652060815e+00	 1.024039320779153e+01
4	 1.300054576491964e+00	 1.470541594366754e+00	 1.006958848221465e+01
4	 1.234402300756404e+00	 1.491566373387057e+00	 9.820524027240802e+00
4	 1.167137866479601e+00	 1.511688046657593e+00	 9.503363759831711e+00
4	 1.098394759997250e+00	 1.530845514705412e+00	 9.129231312281622e+00
4	 1.028315963310305e+00	 1.548981074157182e+00	 8.710241179396757e+00
4	 9.570530325562877e-01	 1.566040946380338e+00	 8.259492823946273e+00
4	 8.847650530255948e-01	 1.581975772141740e+00	 7.791022430366471e+00
4	 8.116174850050888e-01	 1.596741063220232e+00	 7.319708529515079e+00
4	 7.377809175119404e-01	 1.610297602633756e+00	 6.861129934837416e+00
4	 1.665685424979200e+00	 1.665685424979200e+00	 1.056166089573529e+01
4	 1.592151296069804e+00	 1.686990731351812e+00	 1.057399122416474e+01
4	 1.516555040367962e+00	 1.707568559402894e+00	 1.049093963941772e+01
4	 1.439031888095937e+00	 1.727356586714905e+00	 1.032214088127085e+01
4	 1.359729466025968e+00	 1.746294632145104e+00	 1.007814182985976e+01
4	 1.278807004977925e+00	 1.764325190307154e+00	 9.770455382985045e+00
4	 1.196434384271731e+00	 1.781393952143770e+00	 9.411584191335379e+00
4	 1.112791023107605e+00	 1.797450302471325e+00	 9.015009448903665e+00
4	 1.028064632611711e+00	 1.812447785540947e+00	 8.595140848859756e+00
4	 9.424498458054493e-01	 1.826344530085627e+00	 8.167225235810371e+00
4	 8.561467458985300e-01	 1.839103626004569e+00	 7.747213393131245e+00
4	 1.905330085918750e+00	 1.905330085918750e+00	 1.091927908980648e+01
4	 1.820331102242619e+00	 1.925303810641647e+00	 1.097522160440958e+01
4	 1.733055504242933e+00	 1.944595524438387e+00	 1.093320899795443e+01
4	 1.643661475434645e+00	 1.963146800042510e+00	 1.080295308399248e+01
4	 1.552321065571609e+00	 1.980901217632674e+00	 1.059507575803895e+01
4	 1.459219249957891e+00	 1.997804865909169e+00	 1.032115203272199e+01
4	 1.364552805232401e+00	 2.013806830130766e+00	 9.993724111925431e+00
4	 1.268529013658074e+00	 2.028859658562793e+00	 9.626282851553093e+00
4	 1.171364212196861e+00	 2.042919798940657e+00	 9.233213869898862e+00
4	 1.073282206604724e+00	 2.055947996951510e+00	 8.829706870259205e+00
4	 9.745125742839271e-01	 2.067909649375829e+00	 8.431628386073427e+00
4	 2.144974746856800e+00	 2.144974746856800e+00	 1.125351162665337e+01
4	 2.048510908414311e+00	 2.163616889930580e+00	 1.132419933141457e+01
4	 1.949555968117048e+00	 2.181622489473462e+00	 1.129860399821528e+01
4	 1.848291062772665e+00	 2.198937013370072e+00	 1.118618109637960e+01
4	 1.744912665116650e+00	 2.215507803120484e+00	 1.099727990462434e+01
4	 1.639631494937273e+00	 2.231284541511620e+00	 1.074317532542881e+01
4	 1.532671226192455e+00	 2.246219708118323e+00	 1.043607249967616e+01
4	 1.424267004207859e+00	 2.260269014654884e+00	 1.008908149506591e+01
4	 1.314663791781240e+00	 2.273391812341000e+00	 9.716160216738901e+00
4	 1.204114567403139e+00	 2.285551463818002e+00	 9.332024854393000e+00
4	 1.092878402668394e+00	 2.296715672747650e+00	 8.952028594904892e+00
4	 2.384619407793650e+00	 2.384619407793650e+00	 1.146742766093249e+01
4	 2.276690714585107e+00	 2.401929969218870e+00	 1.154044428570665e+01
4	 2.166056431990480e+00	 2.418649454508344e+00	 1.152208598782253e+01
4	 2.052920650110139e+00	 2.434727226697794e+00	 1.142122239856062e+01
4	 1.937504264661214e+00	 2.450114388608714e+00	 1.124758953712442e+01
4	 1.820043739916199e+00	 2.464764217114673e+00	 1.101181127944625e+01
4	 1.700789647152032e+00	 2.478632586106591e+00	 1.072539589841126e+01
4	 1.580004994757121e+00	 2.491678370747736e+00	 1.040070566070009e+01
4	 1.457963371365041e+00	 2.503863825742108e+00	 1.005089827152036e+01
4	 1.334946928200922e+00	 2.515154930685227e+00	 9.689839984663919e+00
4	 1.211244231052194e+00	 2.525521696120145e+00	 9.331991399673370e+00
4	 2.624264068729600e+00	 2.624264068729600e+00	 1.149300204717728e+01
4	 2.504870520755230e+00	 2.640243048506778e+00	 1.156792064212213e+01
4	 2.382556895863400e+00	 2.655676419543260e+00	 1.155871679707763e+01
4	 2.257550237447205e+00	 2.670517440025878e+00	 1.147337176808065e+01
4	 2.130095864205428e+00	 2.684720974097547e+00	 1.132069646220966e+01
4	 2.000455984894793e+00	 2.698243892718493e+00	 1.111034412238154e+01
4	 1.868908068111272e+00	 2.711045464095724e+00	 1.085280075745811e+01
4	 1.735742985306025e+00	 2.723087726841493e+00	 1.055935182339666e+01
4	 1.601262950948457e+00	 2.734335839144117e+00	 1.024202438155560e+01
4	 1.465779288998301e+00	 2.744758397553303e+00	 9.913504847044013e+00
4	 1.329610059435587e+00	 2.754327719493421e+00	 9.587033454577472e+00
4	 2.863908729664950e+00	 2.863908729664950e+00	 1.128108796145834e+01
4	 2.733050326924903e+00	 2.878556127794563e+00	 1.136641123042336e+01
4	 2.599057359735980e+00	 2.892703384578442e+00	 1.137645049520353e+01
4	 2.462179824784001e+00	 2.906307653354522e+00	 1.131803301775857e+01
4	 2.322687463749415e+00	 2.919327559587160e+00	 1.119877008573842e+01
4	 2.180868229873183e+00	 2.931723568323241e+00	 1.102706289497525e+01
4	 2.037026489070313e+00	 2.943458342085873e+00	 1.081208915427119e+01
4	 1.891480975854732e+00	 2.954497082936298e+00	 1.056376927495132e+01
4	 1.744562530531680e+00	 2.964807852547154e+00	 1.029271163320334e+01
4	 1.596611649795502e+00	 2.974361864422357e+00	 1.001013714443580e+01
4	 1.447975887818836e+00	 2.983133742867594e+00	 9.727784232220451e+00
4	 3.103553390600000e+00	 3.103553390600000e+00	 1.079529290030165e+01
4	 2.961230133094354e+00	 3.116869207082487e+00	 1.090630358705174e+01
4	 2.815557823608392e+00	 3.129730349614114e+00	 1.095181949963102e+01
4	 2.666809412120670e+00	 3.142097866683931e+00	 1.093728810045076e+01
4	 2.515279063293303e+00	 3.153934145077738e+00	 1.086888569451656e+01
4	 2.361280474851494e+00	 3.165203243929088e+00	 1.075351879871142e+01
4	 2.205144910029297e+00	 3.175871220077188e+00	 1.059880942898718e+01
4	 2.047218966403406e+00	 3.185906439032288e+00	 1.041306338799282e+01
4	 1.887862110114904e+00	 3.195279865951352e+00	 1.020522116175687e+01
4	 1.727444010592752e+00	 3.203965331292511e+00	 9.984791654929701e+00
4	 1.566341716202202e+00	 3.211939766242775e+00	 9.761769682231920e+00
4	 3.826834323423998e-01	 9.238795325228849e-01	 2.005711814042820e+00
4	 3.456410495326200e-01	 9.383668072129162e-01	 1.067461446242711e+00
4	 3.080817701152352e-01	 9.513598808658694e-01	 2.284911640862561e-01
4	 2.700962763387253e-01	 9.628333196896525e-01	-5.047052539355095e-01
4	 2.317766908998130e-01	 9.727690196296024e-01	-1.128905537059730e+00
4	 1.932158409872450e-01	 9.811562764345738e-01	-1.644501224720886e+00
4	 1.545065244163996e-01	 9.879917681380861e-01	-2.055632509261990e+00
4	 1.157407897782332e-01	 9.932794519058683e-01	-2.370082745709462e+00
4	 7.700924192874881e-02	 9.970303790034712e-01	-2.598926952908295e+00
4	 3.840038325376590e-02	 9.992624332803766e-01	-2.755958920366423e+00
4	 0.000000000000000e+00	 1.000000000000000e+00	-2.856949152222291e+00
4	 5.010492607341374e-01	 1.152685555893026e+00	 4.173110354468584e+00
4	 4.515706161387014e-01	 1.166448466848967e+00	 3.521311270341886e+00
4	 4.016347863230794e-01	 1.178791886819736e+00	 2.913362029957411e+00
4	 3.513615189378835e-01	 1.189691653702822e+00	 2.358662200100838e+00
4	 3.008714003837441e-01	 1.199130568646271e+00	 1.865161650893306e+00
4	 2.502849027149368e-01	 1.207098462611474e+00	 1.439114854163220e+00
4	 1.997214452662816e-01	 1.213592179730250e+00	 1.084900774777799e+00
4	 1.492984860204050e-01	 1.218615479310022e+00	 8.049270343596202e-01
4	 9.913065671888745e-02	 1.222178860053039e+00	 5.996300694138479e-01
4	 4.932895435219450e-02	 1.224299311616290e+00	 4.675741737536252e-01
4	 0.000000000000000e+00	 1.225000000000000e+00	 4.056428713508926e-01
4	 6.194150891238973e-01	 1.381491579263279e+00	 5.709300134849640e+00
4	 5.575001827426344e-01	 1.394530126485118e+00	 5.191375067381596e+00
4	 4.951878025286587e-01	 1.406223892773687e+00	 4.686232097420005e+00
4	 4.326267615347258e-01	 1.416549987716062e+00	 4.206487985624394e+00
4	 3.699661098653849e-01	 1.425492117662996e+00	 3.764080724442688e+00
4	 3.073539644404503e-01	 1.433040648788416e+00	 3.370037561958363e+00
4	 2.449363661141932e-01	 1.439192591322443e+00	 3.034263135568598e+00
4	 1.828561822609202e-01	 1.443951506714191e+00	 2.765362601380104e+00
4	 1.212520715077974e-01	 1.447327341102614e+00	 2.570512596791681e+00
4	 6.025752544994423e-02	 1.449336189952205e+00	 2.455389425483371e+00
4	 0.000000000000000e+00	 1.450000000000000e+00	 2.424159389708777e+00
4	 7.377809175119404e-01	 1.610297602633756e+00	 6.861129934837416e+00
4	 6.634297493447130e-01	 1.622611786121468e+00	 6.406720058061651e+00
4	 5.887408187322951e-01	 1.633655898727811e+00	 5.947412066435876e+00
4	 5.138920041295930e-01	 1.643408321729442e+00	 5.498327092731094e+00
4	 4.390608193450832e-01	 1.651853666679832e+00	 5.074245763359871e+00
4	 3.644230261641263e-01	 1.658982834965439e+00	 4.689383892028742e+00
4	 2.901512869604519e-01	 1.664793002914692e+00	 4.357172824295146e+00
4	 2.164138785000526e-01	 1.669287534118394e+00	 4.090057144339476e+00
4	 1.433734862956866e-01	 1.672475822152206e+00	 3.899321758321801e+00
4	 7.118609654713248e-02	 1.674373068288125e+00	 3.794958606935375e+00
4	 0.000000000000000e+00	 1.675000000000000e+00	 3.785580594543538e+00
4	 8.561467458985300e-01	 1.839103626004569e+00	 7.747213393131245e+00
4	 7.693593159452323e-01	 1.850693445758116e+00	 7.323536046669033e+00
4	 6.822938349343103e-01	 1.861087904682191e+00	 6.884937817139367e+00
4	 5.951572467228257e-01	 1.870266655743036e+00	 6.448247675486539e+00
4	 5.081555288231875e-01	 1.878215215696836e+00	 6.030103232496253e+00
4	 4.214920878863065e-01	 1.884925021142588e+00	 5.646737509286443e+00
4	 3.353662078053751e-01	 1.890393414507023e+00	 5.313765275931038e+00
4	 2.499715747380762e-01	 1.894623561522648e+00	 5.045979977175735e+00
4	 1.654949010827632e-01	 1.897624303201820e+00	 4.857171952836675e+00
4	 8.211466764387673e-02	 1.899409946624051e+00	 4.759977529890520e+00
4	 0.000000000000000e+00	 1.900000000000000e+00	 4.765766705408107e+00
4	 9.745125742839271e-01	 2.067909649375829e+00	 8.431628386073427e+00
4	 8.752888825444871e-01	 2.078775105395163e+00	 8.025483523613024e+00
4	 7.758468511350258e-01	 2.088519910636914e+00	 7.598805759532479e+00
4	 6.764224893147648e-01	 2.097124989756913e+00	 7.169438217307530e+00
4	 5.772502383000456e-01	 2.104576764714063e+00	 6.755098085902611e+00
4	 4.785611496073321e-01	 2.110867207319901e+00	 6.373177326218341e+00
4	 3.805811286492805e-01	 2.115993826099468e+00	 6.040541599111219e+00
4	 2.835292709752649e-01	 2.119959588926967e+00	 5.773337028428388e+00
4	 1.876163158692349e-01	 2.122772784251466e+00	 5.586814205737809e+00
4	 9.304323874029444e-02	 2.124446824959984e+00	 5.495177997386465e+00
4	 0.000000000000000e+00	 2.125000000000000e+00	 5.511470294029166e+00
4	 1.092878402668394e+00	 2.296715672747650e+00	 8.952028594904892e+00
4	 9.812184491427712e-01	 2.306856765032708e+00	 8.561414789014817e+00
4	 8.693998673347634e-01	 2.315951916592065e+00	 8.147099382028198e+00
4	 7.576877319057506e-01	 2.323983323771145e+00	 7.727368914417427e+00
4	 6.463449477760058e-01	 2.330938313731568e+00	 7.320414631516398e+00
4	 5.356302113275445e-01	 2.336809393497421e+00	 6.944148566511876e+00
4	 4.257960494924855e-01	 2.341594237692055e+00	 6.616017781147391e+00
4	 3.170869672118926e-01	 2.345295616331371e+00	 6.352825190891300e+00
4	 2.097377306553099e-01	 2.347921265301150e+00	 6.170565220617402e+00
4	 1.039718098365030e-01	 2.349483703295928e+00	 6.084281850077892e+00
4	 0.000000000000000e+00	 2.350000000000000e+00	 6.107955466740173e+00
4	 1.211244231052194e+00	 2.525521696120145e+00	 9.331991399673370e+00
4	 1.087148015740380e+00	 2.534938424670851e+00	 8.961771430212158e+00
4	 9.629528835338452e-01	 2.543383922547729e+00	 8.565865905831238e+00
4	 8.389529744961237e-01	 2.550841657785800e+00	 8.162540540195486e+00
4	 7.154396572514162e-01	 2.557299862749409e+00	 7.769985439114589e+00
4	 5.926992730472852e-01	 2.562751579675189e+00	 7.406147055583719e+00
4	 4.710109703353076e-01	 2.567194649284809e+00	 7.088558565801698e+00
4	 3.506446634482330e-01	 2.570631643735874e+00	 6.834176077653247e+00
4	 2.318591454411963e-01	 2.573069746350882e+00	 6.659227913052574e+00
4	 1.149003809326199e-01	 2.574520581631885e+00	 6.579083629803163e+00
4	 0.000000000000000e+00	 2.575000000000000e+00	 6.608148509438226e+00
4	 1.329610059435587e+00	 2.754327719493421e+00	 9.587033454577472e+00
4	 1.193077582337607e+00	 2.763020084309689e+00	 9.246510485884889e+00
4	 1.056505899732593e+00	 2.770815928503994e+00	 8.878661369869970e+00
4	 9.202182170862250e-01	 2.777699991800952e+00	 8.501352000094606e+00
4	 7.845343667266250e-01	 2.783661411767641e+00	 8.132393319299828e+00
4	 6.497683347668953e-01	 2.788693765853247e+00	 7.789389176703017e+00
4	 5.162258911780642e-01	 2.792795060877759e+00	 7.489582818805465e+00
4	 3.842023596845602e-01	 2.795967671140494e+00	 7.249708542520816e+00
4	 2.539805602271019e-01	 2.798218227400668e+00	 7.085854883870613e+00
4	 1.258289520287625e-01	 2.799557459967855e+00	 7.013345231529002e+00
4	 0.000000000000000e+00	 2.800000000000000e+00	 7.046640977381247e+00
4	 1.447975887818836e+00	 2.983133742867594e+00	 9.727784232220451e+00
4	 1.299007148934747e+00	 2.991101743949326e+00	 9.429260401221049e+00
4	 1.150058915931329e+00	 2.998247934460943e+00	 9.101529874089902e+00
4	 1.001483459676395e+00	 3.004558325816669e+00	 8.761746472368479e+00
4	 8.536290762019801e-01	 3.010022960786319e+00	 8.427036674649379e+00
4	 7.068373964867160e-01	 3.014635952031635e+00	 8.114363256373624e+00
4	 5.614408120210730e-01	 3.018395472470934e+00	 7.840387581060458e+00
4	 4.177600559211481e-01	 3.021303698545248e+00	 7.621336290509711e+00
4	 2.761019750132348e-01	 3.023366708450517e+00	 7.472878009450608e+00
4	 1.367575231250484e-01	 3.024594338303842e+00	 7.410015280322567e+00
4	 0.000000000000000e+00	 3.024999999999999e+00	 7.446996305591119e+00
4	 1.566341716202202e+00	 3.211939766242775e+00	 9.761769682231920e+00
4	 1.404936715532096e+00	 3.219183403589859e+00	 9.519645343563758e+00
4	 1.243611932130374e+00	 3.225679940418662e+00	 9.245776893460720e+00
4	 1.082748702266975e+00	 3.231416659833025e+00	 8.956345931384771e+00
4	 9.227237856778300e-01	 3.236384509805500e+00	 8.667544182408545e+00
4	 7.639064582070894e-01	 3.240578138210396e+00	 8.395452831316403e+00
4	 6.066557328646514e-01	 3.243995884064363e+00	 8.155920284549072e+00
4	 4.513177521582705e-01	 3.246639725950152e+00	 7.964443403481691e+00
4	 2.982233897998030e-01	 3.248515189500435e+00	 7.836057153379627e+00
4	 1.476860942215949e-01	 3.249631216639848e+00	 7.785237294135078e+00
4	 0.000000000000000e+00	 3.250000000000000e+00	 7.825820225273476e+00
4	 3.103553390600000e+00	 3.103553390600000e+00	 1.079529290030165e+01
4	 2.961230133094354e+00	 3.116869207082487e+00	 1.090630358705174e+01
4	 2.815557823608392e+00	 3.129730349614114e+00	 1.095181949963102e+01
4	 2.666809412120670e+00	 3.142097866683931e+00	 1.093728810045076e+01
4	 2.515279063293303e+00	 3.153934145077738e+00	 1.086888569451656e+01
4	 2.361280474851494e+00	 3.165203243929088e+00	 1.075351879871142e+01
4	 2.205144910029297e+00	 3.175871220077188e+00	 1.059880942898718e+01
4	 2.047218966403406e+00	 3.185906439032288e+00	 1.041306338799282e+01
4	 1.887862110114904e+00	 3.195279865951352e+00	 1.020522116175687e+01
4	 1.727444010592752e+00	 3.203965331292511e+00	 9.984791654929701e+00
4	 1.566341716202202e+00	 3.211939766242775e+00	 9.761769682231920e+00
4	 3.343198051535051e+00	 3.343198051535051e+00	 1.029802372533510e+01
4	 3.189406738572773e+00	 3.355197909364708e+00	 1.043022864888479e+01
4	 3.032054369173504e+00	 3.366786949306629e+00	 1.050773245546530e+01
4	 2.871436595625564e+00	 3.377930086289532e+00	 1.053454277455154e+01
4	 2.707871714641544e+00	 3.388593445428203e+00	 1.051531413992262e+01
4	 2.541698840539667e+00	 3.398744662707775e+00	 1.045534612437710e+01
4	 2.373275772860596e+00	 3.408353177785735e+00	 1.036056911254014e+01
4	 2.202976582741290e+00	 3.417390513785704e+00	 1.023751698232818e+01
4	 2.031188949504194e+00	 3.425830539050378e+00	 1.009328637053534e+01
4	 1.858311285440853e+00	 3.433649706060995e+00	 9.935482668724541e+00
4	 1.684749692417898e+00	 3.440827263115001e+00	 9.772153412265830e+00
4	 3.582842712470401e+00	 3.582842712470401e+00	 1.002611568080495e+01
4	 3.417550845274421e+00	 3.593606456840889e+00	 1.015559619402552e+01
4	 3.248503349572000e+00	 3.603994994529724e+00	 1.024233752971525e+01
4	 3.076016958869666e+00	 3.613976963252011e+00	 1.028895541756005e+01
4	 2.900432216010260e+00	 3.623522111779914e+00	 1.029860082904615e+01
4	 2.722111520596482e+00	 3.632601567409615e+00	 1.027495545648266e+01
4	 2.541436856786362e+00	 3.641188096063225e+00	 1.022221882713195e+01
4	 2.358807227401477e+00	 3.649256350492262e+00	 1.014508651163383e+01
4	 2.174635827707413e+00	 3.656783102139895e+00	 1.004871915910175e+01
4	 1.989346998990625e+00	 3.663747452438674e+00	 9.938702403414279e+00
4	 1.803373007901849e+00	 3.670131019666258e+00	 9.820998024499424e+00
4	 3.822487373406350e+00	 3.822487373406350e+00	 9.922865900039582e+00
4	 3.645593414157384e+00	 3.832136465698931e+00	 1.003076178645325e+01
4	 3.464791107971006e+00	 3.841433347808672e+00	 1.010875549355607e+01
4	 3.280414686711020e+00	 3.850350184694951e+00	 1.015808193593668e+01
4	 3.092822764769573e+00	 3.858860195474857e+00	 1.018038325899806e+01
4	 2.902396303661064e+00	 3.866937887557978e+00	 1.017770313841118e+01
4	 2.709536255024376e+00	 3.874559283526216e+00	 1.015247633411423e+01
4	 2.514660908756426e+00	 3.881702136853653e+00	 1.010751310403966e+01
4	 2.318202980325646e+00	 3.888346132657643e+00	 1.004597824205286e+01
4	 2.120606477975890e+00	 3.894473069877322e+00	 9.971364683360047e+00
4	 1.922323396273484e+00	 3.900067021587077e+00	 9.887461813331317e+00
4	 4.062132034343201e+00	 4.062132034343201e+00	 9.942708577809707e+00
4	 3.873425635140353e+00	 4.070787799561967e+00	 1.001428331883031e+01
4	 3.680732174602857e+00	 4.079101516132280e+00	 1.006942473608191e+01
4	 3.484397370312148e+00	 4.087048755477912e+00	 1.010798556051595e+01
4	 3.284790935640276e+00	 4.094606122281540e+00	 1.013008531748427e+01
4	 3.082304532002088e+00	 4.101751454114137e+00	 1.013610603721079e+01
4	 2.877349416137944e+00	 4.108464013639718e+00	 1.012668612828675e+01
4	 2.670353808590527e+00	 4.114724670174533e+00	 1.010271212461843e+01
4	 2.461760016224777e+00	 4.120516067485615e+00	 1.006530808807242e+01
4	 2.252021347696527e+00	 4.125822774906125e+00	 1.001582252882058e+01
4	 2.041598865978373e+00	 4.130631419121008e+00	 9.955812791476015e+00
4	 4.301776695281252e+00	 4.301776695281252e+00	 1.004861529150287e+01
4	 4.100899150153880e+00	 4.309518554612734e+00	 1.007257846702293e+01
4	 3.896069988376711e+00	 4.316919598111879e+00	 1.009396501585869e+01
4	 3.687637287988770e+00	 4.323958893221041e+00	 1.011126499614523e+01
4	 3.475971421968499e+00	 4.330616528662962e+00	 1.012307595548134e+01
4	 3.261463099281888e+00	 4.336873776619941e+00	 1.012810414314616e+01
4	 3.044521140533052e+00	 4.342713247416433e+00	 1.012516605237762e+01
4	 2.825570012007497e+00	 4.348119034239573e+00	 1.011319008916887e+01
4	 2.605047147338697e+00	 4.353076845542676e+00	 1.009121817118177e+01
4	 2.383400090929729e+00	 4.357574122949380e+00	 1.005840707006868e+01
4	 2.161083501452895e+00	 4.361600142707741e+00	 1.001402932322012e+01
4	 4.541421356220801e+00	 4.541421356220801e+00	 1.021088390189468e+01
4	 4.327826465716607e+00	 4.548245145101422e+00	 1.017875375484637e+01
4	 4.110478249526301e+00	 4.554728595066011e+00	 1.015803240235273e+01
4	 3.889713850282163e+00	 4.560854659757634e+00	 1.014592530525342e+01
4	 3.665889444913435e+00	 4.566607265551577e+00	 1.013954987890592e+01
4	 3.439378506106690e+00	 4.571971431943650e+00	 1.013594822322837e+01
4	 3.210569860261368e+00	 4.576933384996645e+00	 1.013210192424415e+01
4	 2.979865561278302e+00	 4.581480662189764e+00	 1.012494879639653e+01
4	 2.747678603257470e+00	 4.585602207114887e+00	 1.011140139177053e+01
4	 2.514430498522666e+00	 4.589288452600079e+00	 1.008836705981498e+01
4	 2.280548750230328e+00	 4.592531391012192e+00	 1.005276930079748e+01
4	 4.781066017162151e+00	 4.781066017162151e+00	 1.040675028211738e+01
4	 4.553981613271778e+00	 4.786842552378676e+00	 1.031213468207477e+01
4	 4.323563096503066e+00	 4.792291312518129e+00	 1.024277501395388e+01
4	 4.090117568693368e+00	 4.797399782957437e+00	 1.019476709636901e+01
4	 3.853966357120015e+00	 4.802156283241271e+00	 1.016385914260631e+01
4	 3.615443648677309e+00	 4.806550042556967e+00	 1.014548393959923e+01
4	 3.374894996210905e+00	 4.810571269858502e+00	 1.013479525090550e+01
4	 3.132675710085044e+00	 4.814211217761368e+00	 1.012670832831770e+01
4	 2.889149150026329e+00	 4.817462239397890e+00	 1.011594432410729e+01
4	 2.644684934028159e+00	 4.820317837506988e+00	 1.009707830265822e+01
4	 2.399657082566689e+00	 4.822772705132045e+00	 1.006459045909587e+01
4	 5.020710678105601e+00	 5.020710678105601e+00	 1.062044243172316e+01
4	 4.779101112786564e+00	 5.025144799155274e+00	 1.045818994918630e+01
4	 4.534866283139595e+00	 5.029294068712055e+00	 1.033464171733384e+01
4	 4.288255862730930e+00	 5.033151094556668e+00	 1.024509250212815e+01
4	 4.039527887122102e+00	 5.036709054732349e+00	 1.018412958371651e+01
4	 3.788947899938347e+00	 5.039961731300222e+00	 1.014569305274280e+01
4	 3.536788042905044e+00	 5.042903541210719e+00	 1.012314458964787e+01
4	 3.283326096109315e+00	 5.045529563996497e+00	 1.010934446593319e+01
4	 3.028844475384710e+00	 5.047835566020635e+00	 1.009673632529780e+01
4	 2.773629194275582e+00	 5.049818021046337e+00	 1.007743911947659e+01
4	 2.517968798503487e+00	 5.051474126930517e+00	 1.004334539393327e+01
4	 5.260355339051451e+00	 5.260355339051451e+00	 1.084341075581992e+01
4	 5.002885291001522e+00	 5.262945708113443e+00	 1.060864407770439e+01
4	 4.743869506420245e+00	 5.265349409228139e+00	 1.042538444893197e+01
4	 4.483460953274347e+00	 5.267563959853419e+00	 1.028860280843216e+01
4	 4.221815351318328e+00	 5.269587096621425e+00	 1.019206119302327e+01
4	 3.959090869814438e+00	 5.271416781752655e+00	 1.012840734904659e+01
4	 3.695447814965058e+00	 5.273051208822009e+00	 1.008928719764228e+01
4	 3.431048308326876e+00	 5.274488807845383e+00	 1.006547450221184e+01
4	 3.166055957541585e+00	 5.275728249659132e+00	 1.004701665097471e+01
4	 2.900635520773756e+00	 5.276768449568566e+00	 1.002339502979632e+01
4	 2.634952566292575e+00	 5.277608570245810e+00	 9.983698036478328e+00
4	 5.500000000000000e+00	 5.500000000000000e+00	 1.107454866340172e+01
4	 5.224999999991450e+00	 5.500000000000000e+00	 1.076164103904219e+01
4	 4.949999999985601e+00	 5.500000000000001e+00	 1.051215299770211e+01
4	 4.674999999982150e+00	 5.500000000000001e+00	 1.032141210454656e+01
4	 4.399999999980800e+00	 5.500000000000000e+00	 1.018285340799665e+01
4	 4.124999999981250e+00	 5.500000000000000e+00	 1.008814599879245e+01
4	 3.849999999983199e+00	 5.499999999999999e+00	 1.002735660362367e+01
4	 3.574999999986350e+00	 5.499999999999999e+00	 9.989149147340601e+00
4	 3.299999999990401e+00	 5.500000000000001e+00	 9.961018024384700e+00
4	 3.024999999995050e+00	 5.500000000000001e+00	 9.929551615749244e+00
4	 2.750000000000000e+00	 5.500000000000000e+00	 9.880721431723781e+00
4	 1.566341716202202e+00	 3.211939766242775e+00	 9.761769682231920e+00
4	 1.404936715532096e+00	 3.219183403589859e+00	 9.519645343563758e+00
4	 1.243611932130374e+00	 3.225679940418662e+00	 9.245776893460720e+00
4	 1.082748702266975e+00	 3.231416659833025e+00	 8.956345931384771e+00
4	 9.227237856778300e-01	 3.236384509805500e+00	 8.667544182408545e+00
4	 7.639064582070894e-01	 3.240578138210396e+00	 8.395452831316403e+00
4	 6.066557328646514e-01	 3.243995884064363e+00	 8.155920284549072e+00
4	 4.513177521582705e-01	 3.246639725950152e+00	 7.964443403481691e+00
4	 2.982233897998030e-01	 3.248515189500435e+00	 7.836057153379627e+00
4	 1.476860942215949e-01	 3.249631216639848e+00	 7.785237294135078e+00
4	 0.000000000000000e+00	 3.250000000000000e+00	 7.825820225273476e+00
4	 1.684749692417898e+00	 3.440827263115001e+00	 9.772153412265830e+00
4	 1.510914798481775e+00	 3.447345434872572e+00	 9.586829282338506e+00
4	 1.337218525899162e+00	 3.453189568521596e+00	 9.367478067445312e+00
4	 1.164070843905319e+00	 3.458348243048552e+00	 9.129189489298488e+00
4	 9.918765597696192e-01	 3.462813339914157e+00	 8.887110931512058e+00
4	 8.210322006123145e-01	 3.466580074289192e+00	 8.656347053732858e+00
4	 6.519230357718953e-01	 3.469646986877235e+00	 8.451857394208050e+00
4	 4.849202855437386e-01	 3.472015897206251e+00	 8.288356185734218e+00
4	 3.203785569568899e-01	 3.473691820081104e+00	 8.180218565490613e+00
4	 1.586335411404492e-01	 3.474682847627273e+00	 8.141397147217678e+00
4	 0.000000000000000e+00	 3.475000000000000e+00	 8.185352561046582e+00
4	 1.803373007901849e+00	 3.670131019666258e+00	 9.820998024499424e+00
4	 1.617150702228710e+00	 3.675918097945491e+00	 9.679373923487924e+00
4	 1.431118097106525e+00	 3.681095785543477e+00	 9.502712210624843e+00
4	 1.245710947536253e+00	 3.685654080278886e+00	 9.305017876169575e+00
4	 1.061359363378028e+00	 3.689585940564694e+00	 9.100403979247289e+00
4	 8.784845217156899e-01	 3.692887311370570e+00	 8.903017216121626e+00
4	 6.974955286981114e-01	 3.695557115158098e+00	 8.726961126383401e+00
4	 5.187864787777458e-01	 3.697597208596115e+00	 8.586220220644933e+00
4	 3.427337538618475e-01	 3.699012306577199e+00	 8.494588330461344e+00
4	 1.696935984891750e-01	 3.699809875706389e+00	 8.465604385875162e+00
4	 0.000000000000000e+00	 3.700000000000001e+00	 8.512498627070249e+00
4	 1.922323396273484e+00	 3.900067021587077e+00	 9.887461813331317e+00
4	 1.723810287045738e+00	 3.905114470562340e+00	 9.778502601327137e+00
4	 1.525524762023224e+00	 3.909604417711924e+00	 9.634594440745911e+00
4	 1.327921983296039e+00	 3.913528461558904e+00	 9.468681906561084e+00
4	 1.131451197955261e+00	 3.916880847571459e+00	 9.293865176816887e+00
4	 9.365523720054246e-01	 3.919658486795624e+00	 9.123352962632929e+00
4	 7.436529758561983e-01	 3.921860943900720e+00	 8.970413006612503e+00
4	 5.531649695497068e-01	 3.923490395392661e+00	 8.848322545825177e+00
4	 3.654820305250335e-01	 3.924551559359286e+00	 8.770321196155535e+00
4	 1.809770603789677e-01	 3.925051598665699e+00	 8.749568709702434e+00
4	 0.000000000000000e+00	 3.925000000000001e+00	 8.799109989632877e+00
4	 2.041598865978373e+00	 4.130631419121008e+00	 9.955812791476015e+00
4	 1.830958026202717e+00	 4.134930794329137e+00	 9.870217958939650e+00
4	 1.620565250020709e+00	 4.138711948907845e+00	 9.750682711664048e+00
4	 1.410884489285662e+00	 4.141968247179383e+00	 9.609128255582259e+00
4	 1.202373832088948e+00	 4.144695405390395e+00	 9.457673641515697e+00
4	 9.954822029985048e-01	 4.146891501549513e+00	 9.308614309729071e+00
4	 7.906462068217982e-01	 4.148556959306037e+00	 9.174398374294611e+00
4	 5.882871614397616e-01	 4.149694506576923e+00	 9.067602289560099e+00
4	 3.888083603853942e-01	 4.150309110123207e+00	 9.000907620454839e+00
4	 1.925926000590837e-01	 4.150407887725674e+00	 8.987080685260109e+00
4	 0.000000000000000e+00	 4.150000000000001e+00	 9.038956854497386e+00
4	 2.161083501452895e+00	 4.361600142707741e+00	 1.001402932322012e+01
4	 1.938556057082212e+00	 4.365146099028487e+00	 9.943969264195079e+00
4	 1.716277306465751e+00	 4.368205167972377e+00	 9.841718897503153e+00
4	 1.494704510729596e+00	 4.370772550918747e+00	 9.718223403002892e+00
4	 1.274289521976867e+00	 4.372845497038344e+00	 9.584662043387677e+00
4	 1.055475742799708e+00	 4.374423304598701e+00	 9.452448316846423e+00
4	 8.386952092933816e-01	 4.375507301335532e+00	 9.333228082715895e+00
4	 6.243658370274868e-01	 4.376100804516956e+00	 9.238876689510469e+00
4	 4.128888655022817e-01	 4.376209061697166e+00	 9.181496212193023e+00
4	 2.046465319402793e-01	 4.375839173491791e+00	 9.173413970210701e+00
4	 0.000000000000000e+00	 4.375000000000001e+00	 9.227183549017795e+00
4	 2.280548750230328e+00	 4.592531391012192e+00	 1.005276930079748e+01
4	 2.046464251066735e+00	 4.595324630692565e+00	 9.991660560167052e+00
4	 1.812608641119211e+00	 4.597663437708236e+00	 9.900685850064495e+00
4	 1.579411658870287e+00	 4.599544762349741e+00	 9.789870288408329e+00
4	 1.347298519380942e+00	 4.600967250067091e+00	 9.669503289237086e+00
4	 1.116687353099036e+00	 4.601931236803531e+00	 9.550154764745852e+00
4	 8.879867373705398e-01	 4.602438728952874e+00	 9.442689369142640e+00
4	 6.615933506915099e-01	 4.602493368423785e+00	 9.358279313527156e+00
4	 4.378897770856275e-01	 4.602100383536581e+00	 9.308416344924069e+00
4	 2.172424848118141e-01	 4.601266526698866e+00	 9.304923543414210e+00
4	 0.000000000000000e+00	 4.600000000000001e+00	 9.359967647790166e+00
4	 2.399657082566689e+00	 4.822772705132045e+00	 1.006459045909587e+01
4	 2.154442117532566e+00	 4.824822757413218e+00	 1.000689279471204e+01
4	 1.909417136091790e+00	 4.826465154084073e+00	 9.922081955047496e+00
4	 1.664957880130863e+00	 4.827698312414723e+00	 9.819325965289536e+00
4	 1.421436822003754e+00	 4.828521910479123e+00	 9.708081437217942e+00
4	 1.179221286982151e+00	 4.828936880763412e+00	 9.598119238223298e+00
4	 9.386716321220154e-01	 4.828945394269485e+00	 9.499547910574455e+00
4	 7.001395002194772e-01	 4.828550835400884e+00	 9.422834958789856e+00
4	 4.639661661665334e-01	 4.827757768043683e+00	 9.378826175084448e+00
4	 2.304809913690014e-01	 4.826571893370616e+00	 9.378763226503851e+00
4	 0.000000000000000e+00	 4.825000000000001e+00	 9.434299781069180e+00
4	 2.517968798503487e+00	 5.051474126930517e+00	 1.004334539393327e+01
4	 2.262153281221202e+00	 5.052801818282917e+00	 9.984369778493486e+00
4	 2.006472987593806e+00	 5.053799774974061e+00	 9.901348543555571e+00
4	 1.751217517384907e+00	 5.054467426419628e+00	 9.802660649986795e+00
4	 1.496674634246424e+00	 5.054804951612300e+00	 9.696991940611946e+00
4	 1.243129190314320e+00	 5.054813274917757e+00	 9.593363034916395e+00
4	 9.908620744996282e-01	 5.054494057695917e+00	 9.501154218419288e+00
4	 7.401491925397076e-01	 5.053849685851785e+00	 9.430127138957850e+00
4	 4.912604864455983e-01	 5.052883253461598e+00	 9.390443181171079e+00
4	 2.444590004562633e-01	 5.051598542658809e+00	 9.392678454663706e+00
4	 0.000000000000000e+00	 5.050000000000002e+00	 9.447835398735101e+00
4	 2.634952566292575e+00	 5.277608570245810e+00	 9.983698036478328e+00
4	 2.369173128669615e+00	 5.278248023861530e+00	 9.919418169251635e+00
4	 2.103463363089598e+00	 5.278686473439492e+00	 9.834403949280345e+00
4	 1.837989199284603e+00	 5.278923833427844e+00	 9.736315852321937e+00
4	 1.572915996603857e+00	 5.278960269484761e+00	 9.633133071169599e+00
4	 1.308408201722673e+00	 5.278796197481263e+00	 9.533175967171731e+00
4	 1.044629010473677e+00	 5.278432281728334e+00	 9.445124339954519e+00
4	 7.817400352520490e-01	 5.277869432440086e+00	 9.378031212761627e+00
4	 5.199009794046316e-01	 5.277108802448938e+00	 9.341331930955560e+00
4	 2.592693199606231e-01	 5.276151783193010e+00	 9.344848477854171e+00
4	 0.000000000000000e+00	 5.275000000000001e+00	 9.398789021308545e+00
4	 2.750000000000000e+00	 5.500000000000000e+00	 9.880721431723781e+00
4	 2.475000000004949e+00	 5.500000000000000e+00	 9.807582833633163e+00
4	 2.200000000009600e+00	 5.500000000000000e+00	 9.717247877454385e+00
4	 1.925000000013649e+00	 5.500000000000001e+00	 9.616728428872010e+00
4	 1.650000000016799e+00	 5.500000000000000e+00	 9.513359237467887e+00
4	 1.375000000018749e+00	 5.500000000000001e+00	 9.414807005286461e+00
4	 1.100000000019199e+00	 5.500000000000000e+00	 9.329073924062930e+00
4	 8.250000000178482e-01	 5.500000000000000e+00	 9.264495620562316e+00
4	 5.500000000143981e-01	 5.500000000000000e+00	 9.229733622401369e+00
4	 2.750000000085478e-01	 5.500000000000000e+00	 9.233762622659681e+00
4	 0.000000000000000e+00	 5.500000000000000e+00	 9.285852972567557e+00
