label=Stress xy
num_items=333

0:-2.5947977626780737e+01
1:-3.8500687320242335e+00
2:-3.0427205272209379e-01
3:-2.1439551097744719e+01
4:-2.7407382502572308e+00
5:-4.3587072650359454e-01
6:-1.3984194414976828e+01
7:-1.4946305867297416e+00
8:-5.0259310321959061e-01
9:-1.1290729564251617e+01
10:-1.6047583164530688e+00
11:-5.4282058990444815e-01
12:-1.1634529748684313e+01
13:-2.4646781111726916e+00
14:-1.0974670471973522e+00
15:-1.2474956725761293e+01
16:-3.3721638262741092e+00
17:-1.6579026371647323e+00
18:-2.1956610672151712e+01
19:-4.8419936436008291e+00
20:-2.2661628091688768e+00
21:-2.1459536566374720e+01
22:-4.7379049907980777e+00
23:-2.1763799393115288e+00
24:-1.9436950358799493e+01
25:-4.1759358216677143e+00
26:-1.8634144754817155e+00
27:-1.7298782187781168e+01
28:-3.7705494847596301e+00
29:-1.8575694329726742e+00
30:-1.0932394574247370e+01
31:-2.4338793279851045e+00
32:-1.2491425795152473e+00
33:-3.5805015126807285e+00
34:-8.3000964122049237e-01
35:-5.0279508338372247e-01
36:1.6874128515017076e-01
37:-3.4065318109551402e-03
38:-4.8180588428595204e-02
39:-4.9841473449521091e-02
40:-6.7982420545481065e-02
41:-5.4011952329866893e-02
42:-2.3459676039260288e-01
43:-1.1752375100173877e-01
44:-6.3601671331210710e-02
45:-2.6129216382390009e-02
46:-1.8450045705971693e-03
47:6.7336234866800760e-04
48:-4.6414600882666017e-02
49:-5.0856397015874147e-02
50:-4.8871726242634826e-02
51:-7.4484018543362118e-02
52:-1.0269311837619990e-01
53:-9.6283439503627749e-02
54:-5.5748168175358504e-03
55:-1.0680050757425086e-02
56:-8.2946929341896937e-03
57:-4.1860337433630233e-02
58:-2.7677037207380552e-02
59:-1.9347118787164247e-02
60:-7.5167792600242284e-02
61:-4.3751891892369353e-02
62:-3.1533346559684053e-02
63:-4.2955019667595389e-03
64:-7.2683758888706632e-04
65:-1.7345028281554686e-03
66:-1.7570385351085547e-02
67:-1.3185846668932801e-02
68:-4.4164932607845143e-03
69:-3.2186817626912882e-02
70:-2.5644391695214624e-02
71:-5.7560066943837789e-03
72:-3.8083489529909054e-01
73:-2.5110428851893335e-01
74:-1.6400419694672311e-01
75:-5.7958473710461100e-01
76:-4.8176933109141246e-01
77:-4.0946996824577442e-01
78:-7.0229669387715188e-01
79:-6.6627172414255653e-01
80:-6.3864832553513551e-01
81:-1.4598807534374597e-01
82:-1.4055599925893794e-01
83:-1.3031826882030981e-01
84:-3.8185328328393614e-01
85:-3.3830070583874616e-01
86:-2.8781254885854884e-01
87:-6.1182512874835726e-01
88:-5.3599588597727499e-01
89:-4.5110113848999822e-01
90:-1.1980327785626364e-01
91:-9.7125125644064586e-02
92:-7.4627856770796058e-02
93:-2.5397545092352375e-01
94:-1.9709816062655716e-01
95:-1.4709705896644132e-01
96:-3.9376856956148537e-01
97:-2.9625254112549904e-01
98:-2.1230800662428029e-01
99:-6.0388519264513760e-02
100:-3.5081242684268647e-02
101:-1.1703608809729493e-02
102:-1.1801235101650849e-01
103:-6.5907770494354534e-02
104:-1.7338813512454275e-02
105:-1.6877971001135922e-01
106:-9.7698145345201354e-02
107:-3.1758185053844736e-02
108:-7.4539435199284121e-01
109:-7.6018227764767421e-01
110:-7.6415237926849677e-01
111:-9.0061223246165367e-01
112:-9.9247705237517148e-01
113:-1.0245912288615613e+00
114:-1.1809163986848150e+00
115:-1.3243485070321548e+00
116:-1.3590971525592492e+00
117:-7.3438129719713963e-01
118:-6.3239325110334288e-01
119:-5.2623362359684123e-01
120:-9.6561115435220179e-01
121:-7.7891935898357789e-01
122:-6.0700383406468639e-01
123:-1.2529749494539770e+00
124:-9.4546193755610364e-01
125:-6.7167304797039762e-01
126:-4.5602159880372778e-01
127:-3.3458254924570952e-01
128:-2.3017163993477832e-01
129:-5.0966879387796060e-01
130:-3.5189272970241675e-01
131:-2.1632823674518861e-01
132:-5.3719132488945887e-01
133:-3.4474946345103413e-01
134:-1.7970260420215450e-01
135:-1.7950499809305390e-01
136:-1.0279180810013203e-01
137:-3.2249071835963102e-02
138:-1.5788213514001415e-01
139:-8.3488174415161640e-02
140:-1.7194318822236342e-02
141:-1.1745407703195564e-01
142:-5.7375173127067677e-02
143:-7.3260257572848077e-03
144:-1.4280666360431671e+00
145:-1.5059655104824934e+00
146:-1.4976839710914325e+00
147:-2.1514633611950900e+00
148:-1.8370371174040367e+00
149:-1.5626948196488011e+00
150:-3.2390971427939483e+00
151:-2.3278215908442550e+00
152:-1.5828943447965858e+00
153:-1.3610216772951298e+00
154:-9.8533911515346218e-01
155:-6.5620286501576164e-01
156:-1.3446643378474581e+00
157:-8.9013012281925619e-01
158:-5.0725771603941416e-01
159:-1.2290642420836653e+00
160:-7.1314939815877521e-01
161:-2.9401185872663504e-01
162:-5.0747732026229464e-01
163:-3.1149563776190214e-01
164:-1.4033463315648526e-01
165:-3.5932104686045629e-01
166:-1.9451812777775579e-01
167:-4.0505811616647368e-02
168:-1.5634624021207216e-01
169:-3.7836476296514682e-02
170:8.3912759670833670e-02
171:-8.0904850182400886e-02
172:-3.8157383779153488e-02
173:-5.2367016978517493e-03
174:6.2658821460783677e-03
175:1.5302071259925720e-02
176:1.7138639775401913e-02
177:1.1533659708062759e-01
178:9.6532538269928275e-02
179:7.3156022584427161e-02
180:-3.4490650193876613e+00
181:-2.3226262052868236e+00
182:-1.3910682382259190e+00
183:-2.5517569429151532e+00
184:-1.5124514199947046e+00
185:-6.3981422428090751e-01
186:-1.1957123540606560e+00
187:-3.9485129944123787e-01
188:2.6755394780483127e-01
189:-1.0138991828041135e+00
190:-5.6392942582608596e-01
191:-1.7655581735482384e-01
192:-3.9150944973119256e-01
193:-2.5163686275950486e-01
194:-3.1781670127295651e-02
195:3.2791837375594773e-01
196:1.0599055302007808e-01
197:1.0662409211202459e-01
198:-5.4134016720311415e-02
199:2.7723800884742040e-02
200:1.2216771052167158e-01
201:4.6942125934045224e-02
202:6.5793066866040306e-02
203:1.1531960658974816e-01
204:1.2971409296144498e-01
205:9.6244149779617372e-02
206:1.1153931214934533e-01
207:1.4281253007967895e-01
208:1.1123859670733011e-01
209:7.9739819712329033e-02
210:1.1908072965712707e-01
211:7.1340479248033051e-02
212:3.7019705733532790e-02
213:1.0317929216273986e-01
214:4.4953207385404446e-02
215:1.3490920019906415e-02
216:-1.1995455483558635e+00
217:-8.8857444677027853e-01
218:-5.7363014294256165e-01
219:-6.8266461968842285e-01
220:-6.5619550861220599e-01
221:-6.2617754095619493e-01
222:-5.5146985085669686e-01
223:-6.2931646906389649e-01
224:-7.0403857635363853e-01
225:-6.1722120991622875e-01
226:-6.8683444266124982e-01
227:-7.5368830697174616e-01
228:-6.7776938183715962e-01
229:-7.5346067406994466e-01
230:-8.2722306130795775e-01
231:-6.6451204791765905e-01
232:-7.8094927583975571e-01
233:-8.9628806220683133e-01
234:-7.6339565907344342e-01
235:-8.9457389615494232e-01
236:-1.0204514551471420e+00
237:-1.5538420590844588e+00
238:-1.6934373423238314e+00
239:-1.8124605331757484e+00
240:-2.9480634961868368e+00
241:-3.1284286284967484e+00
242:-3.2729502541210467e+00
243:-3.3903312259391165e+00
244:-3.5803593577458894e+00
245:-3.7510257979003883e+00
246:-3.9644045428680776e+00
247:-3.6174205160384858e+00
248:-3.3229858319745138e+00
249:-5.8369814976105303e+00
250:-4.1651190546384820e+00
251:-2.6177169888499292e+00
252:-1.4199483173057668e+00
253:-1.4770831621121194e+00
254:-1.5082005249628267e+00
255:-5.2448313666806701e-01
256:-6.0345811116486447e-01
257:-6.6175680461502262e-01
258:-2.6175547340734839e-01
259:-3.6506358701530983e-01
260:-4.5303662048563631e-01
261:-3.4303203752124800e-01
262:-4.6225323788070261e-01
263:-5.7178810848623951e-01
264:-4.1033488902041493e-01
265:-5.3711901737950174e-01
266:-6.6828749873275994e-01
267:-3.7492508144953973e-01
268:-4.7646038968118187e-01
269:-5.9645073365506796e-01
270:-4.4507278071467998e-01
271:-5.3557280229524451e-01
272:-6.3613032987996287e-01
273:-9.7136673086775771e-01
274:-1.1947940634549803e+00
275:-1.3853501782787392e+00
276:-1.7819708451934069e+00
277:-2.3310780902336035e+00
278:-2.8043853937427006e+00
279:-1.9781485653849811e+00
280:-2.6685097881445499e+00
281:-3.3036440837212151e+00
282:-3.4551707520824393e+00
283:-3.7368761968664836e+00
284:-4.0769824307334552e+00
285:-7.7160695429418871e+00
286:-6.9013196379405457e+00
287:-6.2585982382880037e+00
288:-1.5499973427557284e-01
289:-6.0373641223722507e-01
290:-1.0526890511712010e+00
291:-4.7646558462499183e-02
292:-2.4988801795730134e-01
293:-4.4724869084074470e-01
294:-3.6255288935289530e-02
295:-1.4862485662233588e-01
296:-2.5101689011433725e-01
297:-6.2907479546141315e-02
298:-1.7654039797926135e-01
299:-2.8195180667522196e-01
300:-6.8631045026801007e-02
301:-1.8399401820175332e-01
302:-3.0226679265052481e-01
303:-1.9645481381881137e-02
304:-1.5008727505539093e-01
305:-2.9457018101369747e-01
306:9.5822543029913682e-03
307:-1.8581033135770847e-01
308:-3.9059601075058009e-01
309:-5.6366279422092748e-02
310:-4.5371916815944752e-01
311:-8.3336096256548386e-01
312:-2.4948693145819997e-01
313:-8.5260007608665900e-01
314:-1.4108979383203168e+00
315:-3.5483202028075833e-01
316:-9.4140073611738817e-01
317:-1.4931601522344176e+00
318:-4.7039727950254479e-01
319:-1.6893272223640126e+00
320:-2.9349375297139328e+00
321:-6.3051368320314860e-01
322:-3.8720960887622864e+00
323:-7.2018485230178726e+00
324:-4.0343874577065351e-04
325:-1.2195585647839860e-01
326:-3.1449364568434834e-01
327:-6.9723262974702729e-02
328:-4.0679703213054297e-01
329:-8.2549246634453533e-01
330:-1.4406995207128723e-01
331:-6.0589251551355328e-01
332:-1.1599730375988024e+00
