label=Stress xy
num_items=4608

0:-2.4947383327616102e-003
1:-4.0168234832740943e-002
2:-5.4083655732457624e-002
3:-1.8972402271430641e-002
4:3.3175328511308264e-002
5:3.1052911701831224e-002
6:-1.6796470214028368e-003
7:-2.2868297538661663e-002
8:-1.2272915445836528e-002
9:1.3225700069368464e-002
10:4.8968502133290882e-002
11:2.7854646127423267e-002
12:2.4339918071575504e-003
13:-1.6452473198497249e-002
14:-2.5595113306312419e-002
15:2.9791703468085316e-002
16:2.5505799886307409e-002
17:3.4814820535659019e-003
18:-3.7258489760037733e-002
19:-7.5833135784149824e-002
20:-4.6172018817578174e-003
21:5.5816410251191802e-003
22:-9.7401086383508938e-003
23:-6.1020154033342863e-002
24:-1.1670010661307921e-001
25:6.6130336368614859e-002
26:1.0591591161463491e-001
27:9.8393109740046225e-002
28:1.2689921022343405e-002
29:-9.0757924869192041e-002
30:2.9625988474285655e-002
31:4.1074100531393154e-002
32:6.0003131457966440e-003
33:-9.0679983128087213e-002
34:-1.9210047391018159e-001
35:-2.6240426607769696e-002
36:-3.2465763856851286e-002
37:-7.2998064865640436e-002
38:-1.5086635826012482e-001
39:-2.2549455378234692e-001
40:-8.4971029154561312e-002
41:-8.0557097767357380e-002
42:-8.5087230117921422e-002
43:-1.0268283835158860e-001
44:-1.2220602067146365e-001
45:-1.2672282319131917e-001
46:-9.8774937923409301e-002
47:-5.4896398821634572e-002
48:-7.5094576481359327e-003
49:2.6866132211048284e-002
50:-1.5893133275527502e-001
51:-3.4348409599251767e-001
52:-7.3935067409989808e-001
53:-1.2844975779176850e+000
54:-1.7425451730868478e+000
55:-2.6023758068482100e-001
56:-4.4537141703062133e-001
57:-8.2439369057837908e-001
58:-1.3316666186020296e+000
59:-1.7517670590473406e+000
60:-2.9015758967237160e-001
61:-4.8655818462711259e-001
62:-8.5616672632029944e-001
63:-1.3232304149966556e+000
64:-1.6981775057352329e+000
65:-1.7932944349470711e-001
66:-3.9937538326538663e-001
67:-7.7769719281007843e-001
68:-1.2226786418452176e+000
69:-1.5648509690840571e+000
70:-2.2772554681679220e-002
71:-2.6607823829750876e-001
72:-6.6076601874554053e-001
73:-1.1010837674495064e+000
74:-1.4279876107010876e+000
75:-2.0034195226756890e+000
76:-2.5764620454164100e+000
77:-3.5660739922090898e+000
78:-4.7344957446467140e+000
79:-5.6351337325628750e+000
80:-1.9862514185475160e+000
81:-2.4816727190505738e+000
82:-3.3050236870132772e+000
83:-4.2446800733271433e+000
84:-4.9531832430808747e+000
85:-1.8933604389812249e+000
86:-2.2621261815989779e+000
87:-2.8229874205657932e+000
88:-3.4086236727828814e+000
89:-3.8227794428724322e+000
90:-1.7199524384836260e+000
91:-1.9466268256467436e+000
92:-2.2223944054657609e+000
93:-2.4314065934341618e+000
94:-2.5357791662901992e+000
95:-1.5552699917756676e+000
96:-1.6760434028764328e+000
97:-1.7441375937003891e+000
98:-1.6829720053799468e+000
99:-1.5669300062488689e+000
100:-6.0868491795018569e+000
101:-6.3417751588015925e+000
102:-5.0977225710751002e+000
103:-1.9315353826402113e+000
104:1.3350601585254609e+000
105:-5.2739870966489200e+000
106:-5.3389144946060805e+000
107:-4.1405456104476333e+000
108:-1.4049944779086654e+000
109:1.3463327020156419e+000
110:-3.9549755152410380e+000
111:-3.7667985888708997e+000
112:-2.6721230097504751e+000
113:-6.0398312715962110e-001
114:1.3676669715952900e+000
115:-2.4830480745421291e+000
116:-2.0716281112593493e+000
117:-1.1243742193311566e+000
118:2.3262603115736125e-001
119:1.3947377613282377e+000
120:-1.3900305389361294e+000
121:-8.4332052836491089e-001
122:-2.1864624797536463e-002
123:8.2438528500228425e-001
124:1.4165201198776458e+000
125:3.2846485496845008e+000
126:6.4480570366132497e+000
127:9.2158674509210616e+000
128:9.7676765980236393e+000
129:8.8711736984315142e+000
130:2.9740176819855302e+000
131:5.6350099194590424e+000
132:8.0445977205402688e+000
133:8.6868285913841419e+000
134:8.1098657647946570e+000
135:2.5032615912510336e+000
136:4.3725193872721970e+000
137:6.1755200806626567e+000
138:6.8681512920069157e+000
139:6.7031134537615795e+000
140:2.0136410482165656e+000
141:3.0246067826283385e+000
142:4.1235544751437230e+000
143:4.7691201338040701e+000
144:4.9494496637458454e+000
145:1.6684488263222752e+000
146:2.0550588323018553e+000
147:2.6172177278107140e+000
148:3.1746389264324013e+000
149:3.5525690503998542e+000
150:8.0381702879467518e+000
151:6.4379582265031141e+000
152:4.4384045616893939e+000
153:2.8474011685072194e+000
154:1.9956895363322815e+000
155:7.4546110312202023e+000
156:6.0639124543295306e+000
157:4.2667927784331345e+000
158:2.7541811734618546e+000
159:1.8847266832962406e+000
160:6.3082847814271261e+000
161:5.2809230132114680e+000
162:3.8630240447781388e+000
163:2.5479877720916635e+000
164:1.7090796098784760e+000
165:4.8152060638078478e+000
166:4.2183619388937297e+000
167:3.2780621962102243e+000
168:2.2589797740953106e+000
169:1.5177987744610850e+000
170:3.5963654499513438e+000
171:3.3321160728966253e+000
172:2.7744885132561907e+000
173:2.0140360734779152e+000
174:1.3781934791594408e+000
175:1.6419584487019852e+000
176:1.0655086597691954e+000
177:4.4501369511282218e-001
178:9.0311361051945913e-002
179:8.1730782997027043e-004
180:1.5338165178349228e+000
181:1.0135304461719954e+000
182:4.4958591151998240e-001
183:1.2089732753484406e-001
184:3.1621078381538402e-002
185:1.3766279762375484e+000
186:9.3821287912770435e-001
187:4.5653181609516214e-001
188:1.6538928779568718e-001
189:7.6057730565481874e-002
190:1.2208331608952081e+000
191:8.6384425730992243e-001
192:4.6377533581452052e-001
193:2.0952753311837574e-001
194:1.1969588678274949e-001
195:1.1152446604689410e+000
196:8.1360459575567312e-001
197:4.6889280963219354e-001
198:2.3946546237934385e-001
199:1.4903674171455147e-001
200:-7.1136410485574835e-004
201:4.0641976129678408e-003
202:8.3495273863655184e-003
203:9.4166561374520296e-003
204:8.2961873935879001e-003
205:2.7045446220927957e-002
206:2.8920816024423864e-002
207:2.9887598930047218e-002
208:2.8739582400520689e-002
209:2.6740451573504558e-002
210:6.6954753727317157e-002
211:6.4700962313025093e-002
212:6.0980671327168709e-002
213:5.6761384190275217e-002
214:5.3593387452459014e-002
215:1.0598781072175831e-001
216:9.9744894729424119e-002
217:9.1542597222860178e-002
218:8.4457106849381347e-002
219:8.0260280840507445e-002
220:1.3213925218626743e-001
221:1.2325270385681129e-001
222:1.1210756114202262e-001
223:1.0318262714746826e-001
224:9.8363698632657898e-002
225:7.2185644566560665e-003
226:5.3710516284764765e-003
227:3.5676500704759535e-003
228:2.8362981868550493e-003
229:2.9528756975897748e-003
230:2.5409637717811542e-002
231:2.3080359736306462e-002
232:2.0441573997847920e-002
233:1.8720465594472230e-002
234:1.8072454098229912e-002
235:5.1915377140542063e-002
236:4.8855164423995741e-002
237:4.4955793446167187e-002
238:4.1748039468072561e-002
239:3.9954930599291207e-002
240:7.8263088165914332e-002
241:7.4441700071545713e-002
242:6.9237459950376529e-002
243:6.4498776493595880e-002
244:6.1530329609491778e-002
245:9.6164639349927847e-002
246:9.1806082555404941e-002
247:8.5685326203632978e-002
248:7.9875754176939956e-002
249:7.6087314739036627e-002
250:3.1746751490468184e-003
251:3.5195726677405676e-003
252:3.7541168392680852e-003
253:3.6671669704096696e-003
254:3.4230588172389112e-003
255:1.7850920287195468e-002
256:1.7325448583842783e-002
257:1.6450549204960682e-002
258:1.5450379911028045e-002
259:1.4695402583277841e-002
260:3.9086252685797712e-002
261:3.7319769084515515e-002
262:3.4869337893986441e-002
263:3.2580984196475621e-002
264:3.1111440975656598e-002
265:6.0016962781716414e-002
266:5.7049330575830490e-002
267:5.3081742730097935e-002
268:4.9563579785454469e-002
269:4.7419333964903096e-002
270:7.4135112771820735e-002
271:7.0370144442235633e-002
272:6.5400061523914615e-002
273:6.1075627632005886e-002
274:5.8493545735220857e-002
275:3.2497055007525244e-003
276:2.9454926921305461e-003
277:2.6064437074530310e-003
278:2.3938864720529623e-003
279:2.3214177967863354e-003
280:1.4299565794895729e-002
281:1.3583456554379670e-002
282:1.2660331807359071e-002
283:1.1886396375950969e-002
284:1.1443615228766215e-002
285:3.0398346629894154e-002
286:2.9079005459897465e-002
287:2.7300485472127864e-002
288:2.5704392745826674e-002
289:2.4719274541759633e-002
290:4.6399135612387517e-002
291:4.4476494161067033e-002
292:4.1842478839236294e-002
293:3.9424128724731493e-002
294:3.7896605111946181e-002
295:5.7269466118499500e-002
296:5.4934803008641127e-002
297:5.1716528544620201e-002
298:4.8736616854253956e-002
299:4.6838655542904339e-002
300:2.3009527211242287e-003
301:2.2500796008083682e-003
302:2.1580016254070834e-003
303:2.0450306617666308e-003
304:1.9558797290134566e-003
305:1.1223949504936871e-002
306:1.0770142354154872e-002
307:1.0128628620018412e-002
308:9.5144894328416420e-003
309:9.1108348864582540e-003
310:2.4210435446686933e-002
311:2.3176562657048521e-002
312:2.1745085127321460e-002
313:2.0411664335693133e-002
314:1.9557440210258806e-002
315:3.7101602731432301e-002
316:3.5499530122749944e-002
317:3.3295464910394680e-002
318:3.1260138627275551e-002
319:2.9967210742612452e-002
320:4.5849967259087694e-002
321:4.3866699857046533e-002
322:4.1145033470133333e-002
323:3.8640373547658029e-002
324:3.7054681286456045e-002
325:1.9034681365930673e-003
326:1.7975162294711334e-003
327:1.6544383241047633e-003
328:1.5257123996995981e-003
329:1.4460545979438763e-003
330:8.8911850033468725e-003
331:8.4363119947166183e-003
332:7.7999914495919661e-003
333:7.1990721785751815e-003
334:6.8090574522765351e-003
335:1.9096512322141004e-002
336:1.8134900309869518e-002
337:1.6782456201742710e-002
338:1.5496237609244295e-002
339:1.4655956630918735e-002
340:2.9269310583944223e-002
341:2.7805969268664167e-002
342:2.5744737721413644e-002
343:2.3780555931312571e-002
344:2.2495018401591172e-002
345:3.6197431325542873e-002
346:3.4394347125822684e-002
347:3.1853313370141578e-002
348:2.9430378664773892e-002
349:2.7843662427554788e-002
350:1.4006684333245747e-003
351:1.2989450231033403e-003
352:1.1519999737478427e-003
353:1.0074520670905675e-003
354:9.1012043547576411e-004
355:6.5813572074501355e-003
356:6.0723239899435457e-003
357:5.3376598559406853e-003
358:4.6157783308092403e-003
359:4.1301639895085914e-003
360:1.4164585940208510e-002
361:1.3067841938178166e-002
362:1.1485340605515749e-002
363:9.9308301889637959e-003
364:8.8853680344488685e-003
365:2.1743907808842174e-002
366:2.0069848352629600e-002
367:1.7654732573476828e-002
368:1.5282816017677716e-002
369:1.3687901380289051e-002
370:2.6917438860432168e-002
371:2.4855114766579652e-002
372:2.1880169338498498e-002
373:1.8958808599944983e-002
374:1.6994656422494609e-002
375:8.4913675994400660e-004
376:7.0039091415574086e-004
377:4.6427833474214686e-004
378:2.0642733429940778e-004
379:1.7854768028132007e-005
380:3.8283308863445941e-003
381:3.1201352601524530e-003
382:2.0626778637637170e-003
383:9.8099145450526552e-004
384:2.2840612209132791e-004
385:8.2359385467979957e-003
386:6.7197336179163850e-003
387:4.4759716930127414e-003
388:2.2043335731882743e-003
389:6.3705697622458261e-004
390:1.2696936052994358e-002
391:1.0386079662345808e-002
392:6.9755742132713208e-003
393:3.5335453872189027e-003
394:1.1649353666324622e-003
395:1.5773945124659152e-002
396:1.2928111706060145e-002
397:8.7320989394824942e-003
398:4.5020722040968880e-003
399:1.5939221698363757e-003
400:-3.1156739039227138e-002
401:-1.5849917172277534e-002
402:-1.4493370907573772e-002
403:-3.8163564183649398e-002
404:-6.8707954738272584e-002
405:-9.4631201477089297e-002
406:-4.8181698370008998e-002
407:4.9339179098076801e-002
408:1.8192014747518276e-001
409:2.9260285495831656e-001
410:-2.0115848591221511e-001
411:-3.1093622128872286e-002
412:3.2148607531380080e-001
413:7.9711603796236763e-001
414:1.1926199302413334e+000
415:-3.2382038235677602e-001
416:6.2570520827782874e-002
417:8.0597304375379653e-001
418:1.7604160061825773e+000
419:2.5334517619823287e+000
420:-4.1685488881790544e-001
421:1.7053290362455245e-001
422:1.2588314890944330e+000
423:2.6182573445168802e+000
424:3.7023744063721566e+000
425:-5.8666025783554537e-002
426:1.7766469084587466e-002
427:1.2741138621257794e-001
428:2.3434478505373643e-001
429:3.0580953728996557e-001
430:3.7890507358974695e-001
431:5.8342905682398538e-001
432:8.4619064507514041e-001
433:1.0652890232687711e+000
434:1.1898181227870095e+000
435:1.3884082153487989e+000
436:1.6939202918283018e+000
437:2.0541068558084392e+000
438:2.3106612203588224e+000
439:2.4263098916582009e+000
440:2.8361255048601608e+000
441:3.1397223967300705e+000
442:3.4466440550394153e+000
443:3.5899645245467768e+000
444:3.5938294897724372e+000
445:4.0765438925104691e+000
446:4.3197043167132412e+000
447:4.5036653828416595e+000
448:4.4830735683974039e+000
449:4.3514749248718410e+000
450:2.6104775628046062e-001
451:2.1849306092562443e-003
452:-4.1356621078250760e-001
453:-8.7290526997978346e-001
454:-1.2116250372657003e+000
455:1.1482459130531846e+000
456:8.5699216934341749e-001
457:3.8284749198904638e-001
458:-1.4791133982527876e-001
459:-5.4288724910045238e-001
460:2.3685631651363392e+000
461:2.0347645360189164e+000
462:1.4822669999653495e+000
463:8.5407990099582654e-001
464:3.8161126167988557e-001
465:3.4951349306912203e+000
466:3.1246003190674476e+000
467:2.5022563869610517e+000
468:1.7851474834826966e+000
469:1.2409950170272963e+000
470:4.2105830195268998e+000
471:3.8182999165550338e+000
472:3.1531470445185694e+000
473:2.3802029644557061e+000
474:1.7904367827015168e+000
475:-1.3353213418761392e+000
476:-1.4281956763932933e+000
477:-1.4478851700407787e+000
478:-1.3293424807562286e+000
479:-1.1689631634028697e+000
480:-6.7960019465687316e-001
481:-7.7142328650264458e-001
482:-8.1257727389795686e-001
483:-7.4283780815345568e-001
484:-6.3149423229206247e-001
485:2.2864250630128805e-001
486:1.4446680628284495e-001
487:8.0824974867677271e-002
488:8.8042206669180445e-002
489:1.3368661183252645e-001
490:1.0751046704707090e+000
491:1.0058353053704836e+000
492:9.3033550778052321e-001
493:8.8566038348409315e-001
494:8.7286456104028165e-001
495:1.6176383802611531e+000
496:1.5627192870995530e+000
497:1.4852298772698156e+000
498:1.4112264109413810e+000
499:1.3626938762728469e+000
500:-9.6768457167864852e-001
501:-3.9960322292192096e-001
502:3.7489998741948249e-001
503:1.0812036699736749e+000
504:1.5243374189630785e+000
505:-4.5879214130520773e-001
506:6.0319522028966656e-002
507:7.8034637226381576e-001
508:1.4526552937615964e+000
509:1.8843434681800135e+000
510:2.6156679947307609e-001
511:6.9120035731471019e-001
512:1.3054341888369168e+000
513:1.9019430111488431e+000
514:2.2991027758641036e+000
515:9.5238731121489484e-001
516:1.2714269561501519e+000
517:1.7489461250511591e+000
518:2.2387332042686729e+000
519:2.5802487518669368e+000
520:1.4071627127942490e+000
521:1.6385466353340872e+000
522:2.0049382426819697e+000
523:2.4040793593965017e+000
524:2.6954632954509137e+000
525:1.6752195977963116e+000
526:1.8744249471919745e+000
527:2.2553433999748331e+000
528:2.7422769321971492e+000
529:3.1357113348559511e+000
530:2.0130384440045077e+000
531:2.1264729102019562e+000
532:2.3695304644706878e+000
533:2.7040335411503897e+000
534:2.9850043364903209e+000
535:2.3943629374448059e+000
536:2.3962628618079687e+000
537:2.4580385631779462e+000
538:2.5899243653237676e+000
539:2.7202722290732448e+000
540:2.6409519330779947e+000
541:2.5480350028986432e+000
542:2.4530099599194877e+000
543:2.4067595960810397e+000
544:2.4032022155318420e+000
545:2.7319233655184538e+000
546:2.5838638419332396e+000
547:2.3958294683637353e+000
548:2.2420002169064506e+000
549:2.1566075188307265e+000
550:3.2136165827730174e+000
551:3.0297064889114798e+000
552:2.5741215196826230e+000
553:1.8971661593628113e+000
554:1.3076858229525286e+000
555:3.0200472246522239e+000
556:2.7999032896525384e+000
557:2.3344715518580714e+000
558:1.6990259642054457e+000
559:1.1674015372402078e+000
560:2.6969786571005847e+000
561:2.4270719741693996e+000
562:1.9520495913081273e+000
563:1.3822190397759209e+000
564:9.3861536071992946e-001
565:2.3268375348056858e+000
566:2.0110869760030048e+000
567:1.5322126803899085e+000
568:1.0337358972931048e+000
569:6.8207183820636985e-001
570:2.0470270703177320e+000
571:1.7022223924890734e+000
572:1.2240151962465446e+000
573:7.7756205375310050e-001
574:4.9093362622357578e-001
575:1.0628708079851519e+000
576:7.8722314741873867e-001
577:4.6865704009085457e-001
578:2.5121254867615350e-001
579:1.6082868102583286e-001
580:9.5527250045142464e-001
581:7.2753767989835572e-001
582:4.5812202269530633e-001
583:2.6485612725954621e-001
584:1.7663444212529097e-001
585:7.7611619299539936e-001
586:6.2216446182825957e-001
587:4.3002544208508248e-001
588:2.7746780827101347e-001
589:1.9603269602735021e-001
590:5.7130019908288865e-001
591:4.9543406922880651e-001
592:3.8687221522347165e-001
593:2.8132337130906632e-001
594:2.1097734388312211e-001
595:4.1669106409118617e-001
596:3.9662035871558465e-001
597:3.4875208293495957e-001
598:2.7892496309936476e-001
599:2.1862370265462222e-001
600:1.4271973565318011e-001
601:1.3323607320906750e-001
602:1.2136317276612119e-001
603:1.1188476125495810e-001
604:1.0678801547145710e-001
605:1.5735211438973420e-001
606:1.4829251956733758e-001
607:1.3668692325095227e-001
608:1.2705547295259509e-001
609:1.2161268919247714e-001
610:1.7607441522207035e-001
611:1.6810072315859564e-001
612:1.5756736201798716e-001
613:1.4839260358968026e-001
614:1.4290799251323599e-001
615:1.9158185337103881e-001
616:1.8524657492518112e-001
617:1.7659453684855711e-001
618:1.6868555817850836e-001
619:1.6371163064442956e-001
620:2.0032431777971307e-001
621:1.9542535598249991e-001
622:1.8852294299436348e-001
623:1.8194324649904148e-001
624:1.7763553001527951e-001
625:1.0443426364742710e-001
626:9.9703683618450570e-002
627:9.3059567949870220e-002
628:8.6752099413357334e-002
629:8.2638286867749475e-002
630:1.1888291259531808e-001
631:1.1322201056949881e-001
632:1.0542941469219076e-001
633:9.8227634992962498e-002
634:9.3649160745605808e-002
635:1.3973279098396466e-001
636:1.3265702412672736e-001
637:1.2310570829671774e-001
638:1.1451740964943972e-001
639:1.0920597591034671e-001
640:1.6021605117421403e-001
641:1.5166300690674958e-001
642:1.4026157516178939e-001
643:1.3019536160421114e-001
644:1.2408855579457810e-001
645:1.7399302297994257e-001
646:1.6439531132102214e-001
647:1.5167795383681693e-001
648:1.4054998358600040e-001
649:1.3386417068000914e-001
650:8.0529445742717101e-002
651:7.6482567986133787e-002
652:7.1140164869577083e-002
653:6.6491546523355594e-002
654:6.3715744163072824e-002
655:9.1364899326647708e-002
656:8.7018558667759871e-002
657:8.1231261392524651e-002
658:7.6130183802240112e-002
659:7.3041058630466157e-002
660:1.0666592719092477e-001
661:1.0193786730616550e-001
662:9.5582264987149140e-002
663:8.9901804165450849e-002
664:8.6410663542899113e-002
665:1.2129402149025240e-001
666:1.1625175678896001e-001
667:1.0942671642581139e-001
668:1.0326573937235514e-001
669:9.9440097708356837e-002
670:1.3089660094042266e-001
671:1.2567856573866051e-001
672:1.1858976435226995e-001
673:1.1215746119016794e-001
674:1.0814218911652541e-001
675:6.2392504002961653e-002
676:5.9854686422068031e-002
677:5.6355745542473662e-002
678:5.3115168466082205e-002
679:5.1050696348482437e-002
680:7.1536766321500925e-002
681:6.8621184201480542e-002
682:6.4615913212357226e-002
683:6.0924698752319068e-002
684:5.8584496122069951e-002
685:8.4660445652879238e-002
686:8.1210129335310521e-002
687:7.6490426433133529e-002
688:7.2166335579291363e-002
689:6.9440815715340498e-002
690:9.7466777277752811e-002
691:9.3503662989187469e-002
692:8.8101651226264427e-002
693:8.3176807030928779e-002
694:8.0087906159829539e-002
695:1.0602963037681666e-001
696:1.0172894066691560e-001
697:9.5879451082944975e-002
698:9.0562821792437617e-002
699:8.7238379526476978e-002
700:4.9976427123624032e-002
701:4.7823631796700052e-002
702:4.4868757817926874e-002
703:4.2148771941721674e-002
704:4.0426312506882701e-002
705:5.7370499799712052e-002
706:5.4935886668439633e-002
707:5.1586680329257971e-002
708:4.8494178291640634e-002
709:4.6529870269086483e-002
710:6.8030504288130261e-002
711:6.5197270019032735e-002
712:6.1291211130901115e-002
713:5.7673803830252814e-002
714:5.5369404938689130e-002
715:7.8491142448280982e-002
716:7.5276006294031375e-002
717:7.0837578257822692e-002
718:6.6719749095010314e-002
719:6.4091978587110840e-002
720:8.5519958281691302e-002
721:8.2053635480808365e-002
722:7.7265730851852565e-002
723:7.2820241295286858e-002
724:6.9981253357383102e-002
725:3.9492799268073094e-002
726:3.7525236827984462e-002
727:3.4751645592237090e-002
728:3.2106019548573908e-002
729:3.0372900720090787e-002
730:4.5458410561000646e-002
731:4.3190813069896174e-002
732:3.9992680912298628e-002
733:3.6940133149891224e-002
734:3.4939259217341777e-002
735:5.4104171718309668e-002
736:5.1415407422323658e-002
737:4.7622235704637361e-002
738:4.4000449655749112e-002
739:4.1625679146025961e-002
740:6.2642756320809276e-002
741:5.9554454352086984e-002
742:5.5197916422583641e-002
743:5.1038565435484330e-002
744:4.8311527480732391e-002
745:6.8412010634306700e-002
746:6.5063300108105737e-002
747:6.0340249647434924e-002
748:5.5832005332281734e-002
749:5.2876838766984492e-002
750:2.9361111599571589e-002
751:2.7108234138398489e-002
752:2.3857953280939447e-002
753:2.0665663619301042e-002
754:1.8519031185924476e-002
755:3.3769429031714739e-002
756:3.1161752890164329e-002
757:2.7397703960317103e-002
758:2.3698531236876780e-002
759:2.1209714074789179e-002
760:4.0234060856931306e-002
761:3.7126424103261821e-002
762:3.2638724662920865e-002
763:2.8225983726173888e-002
764:2.5255677617016442e-002
765:4.6709583162191703e-002
766:4.3125280118323915e-002
767:3.7948041992494824e-002
768:3.2855844667452970e-002
769:2.9427343933144862e-002
770:5.1137852922257504e-002
771:4.7241428467285573e-002
772:4.1612918165988576e-002
773:3.6076333676064172e-002
774:3.2348325482318675e-002
775:1.7184130773752134e-002
776:1.4071121129420463e-002
777:9.4814905862075534e-003
778:4.8550303433177507e-003
779:1.6745454139749135e-003
780:1.9659956319218005e-002
781:1.6042522557908029e-002
782:1.0707031340537921e-002
783:5.3261652851495193e-003
784:1.6256007854781238e-003
785:2.3404837666854746e-002
786:1.9082244822890875e-002
787:1.2703600898572927e-002
788:6.2670687750385088e-003
789:1.8384196022102534e-003
790:2.7291526780889776e-002
791:2.2303601036455734e-002
792:1.4940125216692678e-002
793:7.5062478365203276e-003
794:2.3893401727295410e-003
795:3.0027156765097457e-002
796:2.4607772011133410e-002
797:1.6605284430250080e-002
798:8.5238501506148812e-003
799:2.9598280239356337e-003
800:-4.3342797645161979e-001
801:3.3047830283863033e-001
802:1.6635447177275373e+000
803:3.2514295108649671e+000
804:4.4821857196458676e+000
805:-1.2825396508978629e-001
806:1.0279252422533076e+000
807:2.8310856511119367e+000
808:4.7650579588693782e+000
809:6.1608961978616241e+000
810:1.1017651810993645e+000
811:2.6270089617630696e+000
812:4.8178217387575009e+000
813:6.9578533492445311e+000
814:8.3900615169890163e+000
815:3.2624826210263516e+000
816:4.9127172867484648e+000
817:7.1337649044320743e+000
818:9.1224382902020693e+000
819:1.0346942698436587e+001
820:5.2727786718386245e+000
821:6.8681215636837987e+000
822:8.9044424805580409e+000
823:1.0584382686168956e+001
824:1.1526804422685048e+001
825:4.8717933470461583e+000
826:5.0288485693992646e+000
827:5.0730733637792618e+000
828:4.8965287801737922e+000
829:4.6491148694344231e+000
830:6.5230757846797394e+000
831:6.4372252285736433e+000
832:6.1067212968965103e+000
833:5.5328421522380840e+000
834:5.0011065630309810e+000
835:8.6626216057547918e+000
836:8.2326103302020108e+000
837:7.3702683298662297e+000
838:6.2314475005567900e+000
839:5.2949024235600355e+000
840:1.0471109889511110e+001
841:9.7106602420605999e+000
842:8.3365749549602555e+000
843:6.6529072228938739e+000
844:5.3252750056564349e+000
845:1.1515865478426331e+001
846:1.0537650613529966e+001
847:8.8256520277951989e+000
848:6.7814651620985806e+000
849:5.1946518274067444e+000
850:4.4684774062848094e+000
851:4.0414883665621275e+000
852:3.3269739970428871e+000
853:2.5064050960731938e+000
854:1.8851147234948427e+000
855:4.7191193815923773e+000
856:4.1916506156617537e+000
857:3.3466835097936301e+000
858:2.4154946879578874e+000
859:1.7300600708326981e+000
860:4.8788136990336648e+000
861:4.2487559435499147e+000
862:3.2779970284127184e+000
863:2.2500592487625153e+000
864:1.5152447286775137e+000
865:4.7920952454337149e+000
866:4.1123956531303030e+000
867:3.0933798754447319e+000
868:2.0462280847007666e+000
869:1.3149808143894177e+000
870:4.5912871111498923e+000
871:3.9081116849411632e+000
872:2.9006940883421661e+000
873:1.8849732941676116e+000
874:1.1865856716120455e+000
875:1.7059551276415919e+000
876:1.6560619529361211e+000
877:1.5828889561727668e+000
878:1.5095849392869936e+000
879:1.4594517240658704e+000
880:1.5354841428369204e+000
881:1.4873617518745377e+000
882:1.4278575066717996e+000
883:1.3813849591138030e+000
884:1.3571377971219756e+000
885:1.3083949219998905e+000
886:1.2586887395892310e+000
887:1.2130842094955687e+000
888:1.1997866462176530e+000
889:1.2092697000138029e+000
890:1.1080998791297638e+000
891:1.0518459203791997e+000
892:1.0128719268982338e+000
893:1.0254801694040165e+000
894:1.0637294540965159e+000
895:9.8671821111843883e-001
896:9.2314057435126684e-001
897:8.8451755099060037e-001
898:9.1063948138384088e-001
899:9.6568035754593773e-001
900:1.4949842313410733e+000
901:1.6962970545407037e+000
902:2.0252486685709461e+000
903:2.3947882944556822e+000
904:2.6704619647915311e+000
905:1.3928599247869096e+000
906:1.5681745145385755e+000
907:1.8676710443658118e+000
908:2.2179955305588193e+000
909:2.4864314564111694e+000
910:1.2427545288793389e+000
911:1.3743176509601003e+000
912:1.6223628213635926e+000
913:1.9362311558279903e+000
914:2.1883881680037378e+000
915:1.0919880911904496e+000
916:1.1730493238449495e+000
917:1.3597579273277360e+000
918:1.6272849025665663e+000
919:1.8564125793103463e+000
920:9.8865269730766125e-001
921:1.0313483235555352e+000
922:1.1704912636271871e+000
923:1.4006925199661540e+000
924:1.6102150792677814e+000
925:2.7008469930852073e+000
926:2.5414152701279624e+000
927:2.3339142311839098e+000
928:2.1572747601736815e+000
929:2.0543841741348574e+000
930:2.5173094516469634e+000
931:2.3644795762881574e+000
932:2.1678789884916814e+000
933:2.0036050907860932e+000
934:1.9100005864281173e+000
935:2.2192158868106944e+000
936:2.0787073555224151e+000
937:1.9019552545526233e+000
938:1.7596753446595614e+000
939:1.6823229329737097e+000
940:1.8862723464480364e+000
941:1.7612389246194382e+000
942:1.6089536330639280e+000
943:1.4932860335709930e+000
944:1.4353394799464205e+000
945:1.6388865506998977e+000
946:1.5262329551213567e+000
947:1.3933092923930153e+000
948:1.2984684438843013e+000
949:1.2555859505921951e+000
950:1.9401130182379458e+000
951:1.5982619840574657e+000
952:1.1326077405707458e+000
953:7.0848564506699274e-001
954:4.4272519937040966e-001
955:1.8093329960496396e+000
956:1.5072695348658993e+000
957:1.0889129591992046e+000
958:6.9905540070699290e-001
959:4.4920467335316799e-001
960:1.6024763355447120e+000
961:1.3595514243205689e+000
962:1.0117370589948682e+000
963:6.7333620670093153e-001
964:4.4765768847773713e-001
965:1.3773836521757905e+000
966:1.1946363151287498e+000
967:9.1888569025825106e-001
968:6.3346307427679971e-001
969:4.3299578940174599e-001
970:1.2131936144039794e+000
971:1.0721374351187010e+000
972:8.4647205654439828e-001
973:5.9810155605065451e-001
974:4.1544757428337520e-001
975:3.7826776101628529e-001
976:3.7122691681373476e-001
977:3.3786341756945992e-001
978:2.7710285347213248e-001
979:2.1986815008716268e-001
980:3.8624309492110842e-001
981:3.7403993618309572e-001
982:3.3619462000417910e-001
983:2.7461000443802164e-001
984:2.1891433812944971e-001
985:3.8771429174764566e-001
986:3.7032113979126591e-001
987:3.2938275098110714e-001
988:2.7006143486165662e-001
989:2.1898912531404208e-001
990:3.7705420751951679e-001
991:3.5728720416017412e-001
992:3.1737965485272074e-001
993:2.6444555031392591e-001
994:2.2081273934267115e-001
995:3.6280395571921770e-001
996:3.4303406006465603e-001
997:3.0620006758403107e-001
998:2.5999728533787186e-001
999:2.2306293368326052e-001
1000:2.0211101105419704e-001
1001:1.9785990790239386e-001
1002:1.9189949921480487e-001
1003:1.8625383339561383e-001
1004:1.8257936716822809e-001
1005:2.0197883009459103e-001
1006:1.9845232773951468e-001
1007:1.9388041025123814e-001
1008:1.9001232741640417e-001
1009:1.8777531273718229e-001
1010:2.0370254027493850e-001
1011:2.0061450991004620e-001
1012:1.9716411937512168e-001
1013:1.9498734315629243e-001
1014:1.9423268747871281e-001
1015:2.0770481164037405e-001
1016:2.0431530606265452e-001
1017:2.0090287586796610e-001
1018:1.9933383965202955e-001
1019:1.9932159577308203e-001
1020:2.1174715740019223e-001
1021:2.0772660354111103e-001
1022:2.0371747415088765e-001
1023:2.0194083052444878e-001
1024:2.0201038911557673e-001
1025:1.7902195019013434e-001
1026:1.6913746637508731e-001
1027:1.5603078543617485e-001
1028:1.4454988290746054e-001
1029:1.3764396971744053e-001
1030:1.8462169272846135e-001
1031:1.7473585183973322e-001
1032:1.6153332880546806e-001
1033:1.4984504354240952e-001
1034:1.4273342090897281e-001
1035:1.9155528781958950e-001
1036:1.8183899442330342e-001
1037:1.6874731450552122e-001
1038:1.5700653406680584e-001
1039:1.4976520864922468e-001
1040:1.9698363515152209e-001
1041:1.8764074769615990e-001
1042:1.7495843788122040e-001
1043:1.6346368925320950e-001
1044:1.5629651949997017e-001
1045:1.9982562993603067e-001
1046:1.9085487221337519e-001
1047:1.7862364828956570e-001
1048:1.6746844491368457e-001
1049:1.6046905252341989e-001
1050:1.3461594752180389e-001
1051:1.2937004442778288e-001
1052:1.2223932375986518e-001
1053:1.1576378215626809e-001
1054:1.1171822537198101e-001
1055:1.3965706122680155e-001
1056:1.3446076155265918e-001
1057:1.2740469447680153e-001
1058:1.2100620135001781e-001
1059:1.1701463562744523e-001
1060:1.4666389543707828e-001
1061:1.4154832583949689e-001
1062:1.3461342952823882e-001
1063:1.2833961419621404e-001
1064:1.2443520374133499e-001
1065:1.5322472017767808e-001
1066:1.4819949706687652e-001
1067:1.4139985363445895e-001
1068:1.3526479821144119e-001
1069:1.3145715943446357e-001
1070:1.5744870487141219e-001
1071:1.5249070329916789e-001
1072:1.4579151314441077e-001
1073:1.3975930588379309e-001
1074:1.3602327628721456e-001
1075:1.0956692690990910e-001
1076:1.0515012272260571e-001
1077:9.9145110580578011e-002
1078:9.3690207232931144e-002
1079:9.0281251277126245e-002
1080:1.1484649804252281e-001
1081:1.1031248950823695e-001
1082:1.0414586640720160e-001
1083:9.8541261646031567e-002
1084:9.5036920689660132e-002
1085:1.2224940810727754e-001
1086:1.1756311447057166e-001
1087:1.1118816239462107e-001
1088:1.0539266880265871e-001
1089:1.0176799463881570e-001
1090:1.2926202587264105e-001
1091:1.2444643988192082e-001
1092:1.1789682903674181e-001
1093:1.1194411681967520e-001
1094:1.0822210219676821e-001
1095:1.3382654680477984e-001
1096:1.2893588122686914e-001
1097:1.2228634623373361e-001
1098:1.1624561941418513e-001
1099:1.1247034455050253e-001
1100:8.8516858809764024e-002
1101:8.4951792400850240e-002
1102:8.0024942331261922e-002
1103:7.5447225679174695e-002
1104:7.2521802738929109e-002
1105:9.3215051296835078e-002
1106:8.9517935819431932e-002
1107:8.4401514434170433e-002
1108:7.9638741563753349e-002
1109:7.6589541614859813e-002
1110:9.9873249455553717e-002
1111:9.6007675213273289e-002
1112:9.0650129026961485e-002
1113:8.5652843190374486e-002
1114:8.2447297946097689e-002
1115:1.0626790163799001e-001
1116:1.0226347468713325e-001
1117:9.6708158325630969e-002
1118:9.1519714148741077e-002
1119:8.8187429665373490e-002
1120:1.1048325445984528e-001
1121:1.0640101936844021e-001
1122:1.0073556122130901e-001
1123:9.5441490356121414e-002
1124:9.2039669792047960e-002
1125:7.0901620282325786e-002
1126:6.7439548785931752e-002
1127:6.2555724170059668e-002
1128:5.7892920993383917e-002
1129:5.4835780428634608e-002
1130:7.4890797316633659e-002
1131:7.1245245659916842e-002
1132:6.6098407401503981e-002
1133:6.1179331059593813e-002
1134:5.7951059488369330e-002
1135:8.0644808288677011e-002
1136:7.6749945111892634e-002
1137:7.1246324691735419e-002
1138:6.5980336833090791e-002
1139:6.2520837641236046e-002
1140:8.6294623190811950e-002
1141:8.2173473095146388e-002
1142:7.6346787363626392e-002
1143:7.0767604838629594e-002
1144:6.7099902627328914e-002
1145:9.0092903759080231e-002
1146:8.5830456620018383e-002
1147:7.9802529514222620e-002
1148:7.4028846092256184e-002
1149:7.0232195991396434e-002
1150:5.3033874658902448e-002
1151:4.8991584722954958e-002
1152:4.3151145686256352e-002
1153:3.7404622257287252e-002
1154:3.3534394066451020e-002
1155:5.6040707064662264e-002
1156:5.1742806517150824e-002
1157:4.5528824230909197e-002
1158:3.9409671176261638e-002
1159:3.5285506214020018e-002
1160:6.0464527324218864e-002
1161:5.5823302605056503e-002
1162:4.9107687762464339e-002
1163:4.2488240047341710e-002
1164:3.8023202057676009e-002
1165:6.4912905391701969e-002
1166:5.9965183627119424e-002
1167:5.2801865271061635e-002
1168:4.5736051938350918e-002
1169:4.0966968047496354e-002
1170:6.7964729885459083e-002
1171:6.2828868079547961e-002
1172:5.5390809276324116e-002
1173:4.8051169120312293e-002
1174:4.3095619028287242e-002
1175:3.1124584440742540e-002
1176:2.5498421210407525e-002
1177:1.7190241886763567e-002
1178:8.7996828052734725e-003
1179:3.0225925326740110e-003
1180:3.2715730141184472e-002
1181:2.6714840794184045e-002
1182:1.7853787105801214e-002
1183:8.9054435653018564e-003
1184:2.7446314466999483e-003
1185:3.5238744190769826e-002
1186:2.8734826954894325e-002
1187:1.9131097253972718e-002
1188:9.4328874389944580e-003
1189:2.7558742322171129e-003
1190:3.7991086667888967e-002
1191:3.1038470898058459e-002
1192:2.0771624205659277e-002
1193:1.0403107137263787e-002
1194:3.2642221972375199e-003
1195:4.0002382441341668e-002
1196:3.2774576764482491e-002
1197:2.2100614908964818e-002
1198:1.1320072583184914e-002
1199:3.8970020067819063e-003
1200:6.4362151906957319e+000
1201:7.9207295552695989e+000
1202:9.7437856619105894e+000
1203:1.1149887173973566e+001
1204:1.1870503642259509e+001
1205:8.6190840195121350e+000
1206:9.7608978261495896e+000
1207:1.0986688186597181e+001
1208:1.1682122432288287e+001
1209:1.1852276673077926e+001
1210:1.1544411819334885e+001
1211:1.2084755128892587e+001
1212:1.2290029477190416e+001
1213:1.1798884374534129e+001
1214:1.1063325318616622e+001
1215:1.4147399916095415e+001
1216:1.3967874122399005e+001
1217:1.2979251471135989e+001
1218:1.1128146032721224e+001
1219:9.3684750739222231e+000
1220:1.5739713743812677e+001
1221:1.5000570616693672e+001
1222:1.3097032831841279e+001
1223:1.0217610739658664e+001
1224:7.6905607778771774e+000
1225:1.1763680834688747e+001
1226:1.0652055491062612e+001
1227:8.7529041014051749e+000
1228:6.5313230826792434e+000
1229:4.8289779855135171e+000
1230:1.1527451245313275e+001
1231:1.0162863985533676e+001
1232:7.9444835098823336e+000
1233:5.4645264460482039e+000
1234:3.6207076151829427e+000
1235:1.0435044765597327e+001
1236:8.8615134201440124e+000
1237:6.4121412546200327e+000
1238:3.7903047012730737e+000
1239:1.9008032603807221e+000
1240:8.4554981244156124e+000
1241:6.8649426262566333e+000
1242:4.4656231898531482e+000
1243:1.9829515659864996e+000
1244:2.3968744803510147e-001
1245:6.5939488674583746e+000
1246:5.1020458374373066e+000
1247:2.8983956834092601e+000
1248:6.7224638280375570e-001
1249:-8.6087708455579381e-001
1250:4.2027243264885898e+000
1251:3.5456444256711093e+000
1252:2.5854360564957637e+000
1253:1.6276149247800882e+000
1254:9.7490865528142978e-001
1255:2.9838058064750190e+000
1256:2.4151151199273624e+000
1257:1.6029099912492035e+000
1258:8.1515844400269266e-001
1259:2.9126889325075933e-001
1260:1.2881416065295543e+000
1261:8.4351593024716165e-001
1262:2.4017954774807690e-001
1263:-3.0638965918142580e-001
1264:-6.4701282161768892e-001
1265:-3.0139484128881466e-001
1266:-6.2833826728590836e-001
1267:-1.0321527131967667e+000
1268:-1.3468863894001111e+000
1269:-1.5106259235006676e+000
1270:-1.3258778816557204e+000
1271:-1.5761258772736240e+000
1272:-1.8490612690526789e+000
1273:-2.0108495471522381e+000
1274:-2.0574661463967061e+000
1275:7.9097252089473680e-001
1276:7.4246468601595228e-001
1277:7.3004965385792953e-001
1278:7.8729973179670021e-001
1279:8.6642457380798199e-001
1280:1.5750092645858643e-001
1281:1.7213462009977235e-001
1282:2.5733339781962250e-001
1283:4.1831819987040647e-001
1284:5.7179862960047600e-001
1285:-7.1213221978380781e-001
1286:-6.1854323889486273e-001
1287:-4.1018148595660064e-001
1288:-1.1707034173517754e-001
1289:1.3178706059521594e-001
1290:-1.5128213137120177e+000
1291:-1.3563306298212690e+000
1292:-1.0483145085476127e+000
1293:-6.4658562903857364e-001
1294:-3.1840483835380939e-001
1295:-2.0199812732382094e+000
1296:-1.8297606547824032e+000
1297:-1.4672005820186285e+000
1298:-1.0048068367853313e+000
1299:-6.3168205233669494e-001
1300:8.9424711850595273e-001
1301:9.3054352111815286e-001
1302:1.0606466971407302e+000
1303:1.2822017462219262e+000
1304:1.4860461129278542e+000
1305:6.2382707814863836e-001
1306:6.7630174019495792e-001
1307:8.2277768934974904e-001
1308:1.0520080392430735e+000
1309:1.2560961226421590e+000
1310:2.1648888660383209e-001
1311:2.9529322583399958e-001
1312:4.6960897028256471e-001
1313:7.1394267888849172e-001
1314:9.2102615502637120e-001
1315:-2.0432559345899667e-001
1316:-9.6055885607355881e-002
1317:1.1069150952280518e-001
1318:3.7472043222916179e-001
1319:5.8793499254345316e-001
1320:-4.9943539280339422e-001
1321:-3.6924255995251004e-001
1322:-1.3770970427421100e-001
1323:1.4240720666019249e-001
1324:3.6161034923277069e-001
1325:1.5158815696999979e+000
1326:1.4124390426168183e+000
1327:1.2903760657491439e+000
1328:1.2032728630715515e+000
1329:1.1638797512143568e+000
1330:1.2924318924106173e+000
1331:1.2127568491714997e+000
1332:1.1139663982957964e+000
1333:1.0364304285198982e+000
1334:9.9569548477834724e-001
1335:9.6826509551807283e-001
1336:9.2618145492462611e-001
1337:8.6555169048719205e-001
1338:8.0610659952656305e-001
1339:7.6619338609350340e-001
1340:6.4772216160689533e-001
1341:6.4654172859359871e-001
1342:6.2892240371406805e-001
1343:5.9241794468834208e-001
1344:5.5663826649825765e-001
1345:4.3091172356297064e-001
1346:4.5956629554657225e-001
1347:4.7410467565399272e-001
1348:4.5605262852493372e-001
1349:4.2499863960332579e-001
1350:1.1265935334772379e+000
1351:1.0019800535098986e+000
1352:7.9753409116079543e-001
1353:5.6698525721745119e-001
1354:3.9454899520811093e-001
1355:9.6270091588655238e-001
1356:8.6017746393637984e-001
1357:6.8784105048438626e-001
1358:4.8911805226948113e-001
1359:3.3825203052220582e-001
1360:7.3993122029585146e-001
1361:6.6872435783207551e-001
1362:5.4189785809510194e-001
1363:3.8826930865930792e-001
1364:2.6795870768929186e-001
1365:5.3764066560414525e-001
1366:4.9652429631252853e-001
1367:4.1341223484967216e-001
1368:3.0308265875208718e-001
1369:2.1210138224509961e-001
1370:4.1126765531351650e-001
1371:3.8999499655685949e-001
1372:3.3570301331498681e-001
1373:2.5390980226971277e-001
1374:1.8225244854257602e-001
1375:3.4475802627605379e-001
1376:3.2728800410080755e-001
1377:2.9480753220439232e-001
1378:2.5412962288187807e-001
1379:2.2164116635867287e-001
1380:2.9577692871869904e-001
1381:2.8576595285547574e-001
1382:2.6499356082156583e-001
1383:2.3695686217694975e-001
1384:2.1363703060121114e-001
1385:2.3539543220400411e-001
1386:2.3419807212161414e-001
1387:2.2748199143760317e-001
1388:2.1486806568651515e-001
1389:2.0286532895649950e-001
1390:1.8849750674158894e-001
1391:1.9360700197077133e-001
1392:1.9727637349898802e-001
1393:1.9641436150375574e-001
1394:1.9322195915020413e-001
1395:1.6421951042168786e-001
1396:1.7219544386152341e-001
1397:1.8084755486913920e-001
1398:1.8590141316869999e-001
1399:1.8728502766124289e-001
1400:2.1150763293788127e-001
1401:2.0735883058568252e-001
1402:2.0323914765539683e-001
1403:2.0144375906566098e-001
1404:2.0155327064065226e-001
1405:2.0598029837788265e-001
1406:2.0208858060547913e-001
1407:1.9832074317131840e-001
1408:1.9684793482769802e-001
1409:1.9716091444197481e-001
1410:1.9823294679311021e-001
1411:1.9446506568307120e-001
1412:1.9084251223474341e-001
1413:1.8947213232226109e-001
1414:1.8983043341162822e-001
1415:1.9089773004998903e-001
1416:1.8695344597572805e-001
1417:1.8303651050194966e-001
1418:1.8132889300932534e-001
1419:1.8143227594719699e-001
1420:1.8612546317030895e-001
1421:1.8188819798016070e-001
1422:1.7751760077113829e-001
1423:1.7532705629325640e-001
1424:1.7508384157472817e-001
1425:1.9946956877261895e-001
1426:1.9080744547207559e-001
1427:1.7896889505920577e-001
1428:1.6813590780952256e-001
1429:1.6131606564685796e-001
1430:1.9535272592790076e-001
1431:1.8752735019596525e-001
1432:1.7677561487750332e-001
1433:1.6686483882746100e-001
1434:1.6058017526026755e-001
1435:1.8840445425963950e-001
1436:1.8197375465604687e-001
1437:1.7306153673165822e-001
1438:1.6474923481742668e-001
1439:1.5941763469388948e-001
1440:1.8036325434545744e-001
1441:1.7552850074607126e-001
1442:1.6875053653859476e-001
1443:1.6233144508301509e-001
1444:1.5815417827900130e-001
1445:1.7424406976207360e-001
1446:1.7061480804244153e-001
1447:1.6546364208319228e-001
1448:1.6050674498106807e-001
1449:1.5723340108367667e-001
1450:1.5835850568304824e-001
1451:1.5348853585490235e-001
1452:1.4692078160059524e-001
1453:1.4102300944271914e-001
1454:1.3738050639554258e-001
1455:1.5781116087629049e-001
1456:1.5319589280943016e-001
1457:1.4700899548190449e-001
1458:1.4150144017814825e-001
1459:1.3813078711149171e-001
1460:1.5695305212274560e-001
1461:1.5265243772190387e-001
1462:1.4693784731597950e-001
1463:1.4191630545871883e-001
1464:1.3888541763059387e-001
1465:1.5602769447536805e-001
1466:1.5197241519294455e-001
1467:1.4662862275831465e-001
1468:1.4199158539725037e-001
1469:1.3923114426004174e-001
1470:1.5535714371479264e-001
1471:1.5142956845005623e-001
1472:1.4628065951825353e-001
1473:1.4184786558734416e-001
1474:1.3923227668706645e-001
1475:1.3521316580964746e-001
1476:1.3034137694888659e-001
1477:1.2371401238141533e-001
1478:1.1768895246108046e-001
1479:1.1392063927575298e-001
1480:1.3607633560444252e-001
1481:1.3136146021406139e-001
1482:1.2493240822086901e-001
1483:1.1906826197452305e-001
1484:1.1538834414842052e-001
1485:1.3699209216708272e-001
1486:1.3254891604092606e-001
1487:1.2647165339806482e-001
1488:1.2090453016256272e-001
1489:1.1739597479646870e-001
1490:1.3749396899021604e-001
1491:1.3337230876358436e-001
1492:1.2771978613912049e-001
1493:1.2252263658252913e-001
1494:1.1923526031174424e-001
1495:1.3759887429665887e-001
1496:1.3372539604638445e-001
1497:1.2840483810746997e-001
1498:1.2350225433613400e-001
1499:1.2039454193055274e-001
1500:1.1193220646009322e-001
1501:1.0783962862411740e-001
1502:1.0215896207663411e-001
1503:9.6849608350788111e-002
1504:9.3437308624231080e-002
1505:1.1342810895691044e-001
1506:1.0936718924911916e-001
1507:1.0372883760167295e-001
1508:9.8456991845268224e-002
1509:9.5067543522569117e-002
1510:1.1548996496737490e-001
1511:1.1148417650975576e-001
1512:1.0592063510501661e-001
1513:1.0071656040056329e-001
1514:9.7369346904593826e-002
1515:1.1739884617789520e-001
1516:1.1345861347816905e-001
1517:1.0798514779517875e-001
1518:1.0286410962171975e-001
1519:9.9569555460198467e-002
1520:1.1861448523744297e-001
1521:1.1472500929106934e-001
1522:1.0932182622326286e-001
1523:1.0426626373438769e-001
1524:1.0101365960189067e-001
1525:9.1475123702348712e-002
1526:8.7162724191910596e-002
1527:8.1061584751955781e-002
1528:7.5214614247344200e-002
1529:7.1367874829238731e-002
1530:9.3098008349459471e-002
1531:8.8733297903752659e-002
1532:8.2549636961797984e-002
1533:7.6613111515185420e-002
1534:7.2701175274262259e-002
1535:9.5397821998905036e-002
1536:9.0982124153494576e-002
1537:8.4715131547784470e-002
1538:7.8684974782614381e-002
1539:7.4703181258465964e-002
1540:9.7606468005636840e-002
1541:9.3170225647954977e-002
1542:8.6864481446223232e-002
1543:8.0785273430232618e-002
1544:7.6764065510286680e-002
1545:9.9062325423929648e-002
1546:9.4629546207993825e-002
1547:8.8322955152763866e-002
1548:8.2235866843279964e-002
1549:7.8205236177518941e-002
1550:6.9067371313925568e-002
1551:6.3851906839882802e-002
1552:5.6296618128102376e-002
1553:4.8838962434743845e-002
1554:4.3802370332779561e-002
1555:7.0352224110801720e-002
1556:6.5012964840463303e-002
1557:5.7273033387597837e-002
1558:4.9626742204282884e-002
1559:4.4459040235019807e-002
1560:7.2297765229290267e-002
1561:6.6808362880732275e-002
1562:5.8843644520857032e-002
1563:5.0966719514214366e-002
1564:4.5638162396086555e-002
1565:7.4319394481908538e-002
1566:6.8716857018740113e-002
1567:6.0581545610045057e-002
1568:5.2528180638264373e-002
1569:4.7075776334884266e-002
1570:7.5743647506888293e-002
1571:7.0085117127812416e-002
1572:6.1864450945596026e-002
1573:5.3721738451430183e-002
1574:4.8206026161139545e-002
1575:4.0657074390223730e-002
1576:3.3305851683775964e-002
1577:2.2449285150943056e-002
1578:1.1483910073049407e-002
1579:3.9333404359048378e-003
1580:4.1227572263756368e-002
1581:3.3669774129938650e-002
1582:2.2507485565299492e-002
1583:1.1232566027709737e-002
1584:3.4684179353908031e-003
1585:4.2301541365973028e-002
1586:3.4492543638188017e-002
1587:2.2957692521563253e-002
1588:1.1304612930950583e-002
1589:3.2790101249709830e-003
1590:4.3659002055767969e-002
1591:3.5659778846501747e-002
1592:2.3841654673539048e-002
1593:1.1899704525545205e-002
1594:3.6736211184061661e-003
1595:4.4748881728143883e-002
1596:3.6654793087916138e-002
1597:2.4694533179518086e-002
1598:1.2606624868203870e-002
1599:4.2786730022806151e-003
1600:1.6366444148230983e+001
1601:1.5205081504833249e+001
1602:1.2698931788308263e+001
1603:9.2355318079552333e+000
1604:6.3204015546829222e+000
1605:1.5544737648850745e+001
1606:1.3689449894933952e+001
1607:1.0324000837928985e+001
1608:6.1877356835056734e+000
1609:2.9202442918314486e+000
1610:9.2233526469773555e+000
1611:7.4059941438989192e+000
1612:4.3258107222436024e+000
1613:7.4782235510592987e-001
1614:-1.9815590769933225e+000
1615:-3.1805669916319501e+000
1616:-3.7072614689473076e+000
1617:-4.6676948870771628e+000
1618:-5.8529220987533943e+000
1619:-6.7914587963528650e+000
1620:-1.5146017854360865e+001
1621:-1.4071515931086216e+001
1622:-1.2530310189807663e+001
1623:-1.1027464075665820e+001
1624:-1.0023240400558088e+001
1625:5.1524865529502950e+000
1626:3.7737640889909807e+000
1627:1.7646423469910235e+000
1628:-2.3276502909718866e-001
1629:-1.5900257329687326e+000
1630:1.7408170003971593e+000
1631:6.3620878481011389e-001
1632:-9.0987706419538161e-001
1633:-2.3710081288749585e+000
1634:-3.3199716247009809e+000
1635:-2.9196465734705512e+000
1636:-3.6649886772006846e+000
1637:-4.5947248466408253e+000
1638:-5.3322541578214144e+000
1639:-5.7254562046103787e+000
1640:-7.1813539243902822e+000
1641:-7.6175134554707276e+000
1642:-8.0042414631333259e+000
1643:-8.0915105386027459e+000
1644:-7.9790346755618762e+000
1645:-9.8624666158301064e+000
1646:-1.0116269396204848e+001
1647:-1.0174329693589332e+001
1648:-9.8596906403664573e+000
1649:-9.4306750669466108e+000
1650:-1.9889628487726925e+000
1651:-2.1651721681038385e+000
1652:-2.3268402724807569e+000
1653:-2.3739786622373864e+000
1654:-2.3403593594629535e+000
1655:-3.5546559479472162e+000
1656:-3.5194164631351232e+000
1657:-3.3788545309466640e+000
1658:-3.1325717567606661e+000
1659:-2.9036422878450425e+000
1660:-5.7332281904987790e+000
1661:-5.3995725963045640e+000
1662:-4.8328692026799844e+000
1663:-4.1733445364249295e+000
1664:-3.6696321163431218e+000
1665:-7.7760770148891218e+000
1666:-7.1573468001669838e+000
1667:-6.1840390037408115e+000
1668:-5.1308095040512365e+000
1669:-4.3656556216574449e+000
1670:-9.0931127423531901e+000
1671:-8.2873765175032847e+000
1672:-7.0476323133256304e+000
1673:-5.7367752785073165e+000
1674:-4.8007540239877917e+000
1675:-2.2740166657068075e+000
1676:-2.0531957353331389e+000
1677:-1.6494957833973873e+000
1678:-1.1503245804651479e+000
1679:-7.5459182817955350e-001
1680:-2.7645849056187499e+000
1681:-2.4582995978622497e+000
1682:-1.9489840852965905e+000
1683:-1.3674159305250675e+000
1684:-9.2875735695010675e-001
1685:-3.4309446944143227e+000
1686:-3.0151364506103926e+000
1687:-2.3740471175420166e+000
1688:-1.6947060942088923e+000
1689:-1.2088173521860306e+000
1690:-4.0354815323872995e+000
1691:-3.5287252876566289e+000
1692:-2.7830629660580133e+000
1693:-2.0331499061357592e+000
1694:-1.5186059307856929e+000
1695:-4.4127846285885903e+000
1696:-3.8545949394517356e+000
1697:-3.0531514003177658e+000
1698:-2.2706757316507726e+000
1699:-1.7472368679879740e+000
1700:-6.1360855760200894e-001
1701:-4.7261283636230439e-001
1702:-2.3131943046530673e-001
1703:5.1357256769022808e-002
1704:2.6817082955940430e-001
1705:-7.7156993288419751e-001
1706:-6.0890982264595150e-001
1707:-3.5232024078888352e-001
1708:-7.3871991057237130e-002
1709:1.2883514257918185e-001
1710:-1.0303002453484555e+000
1711:-8.2968951233849542e-001
1712:-5.4158372704747204e-001
1713:-2.6021079932608981e-001
1714:-7.1935260124604689e-002
1715:-1.3216106975912036e+000
1716:-1.0756505484007566e+000
1717:-7.4519388730664327e-001
1718:-4.5006160922638744e-001
1719:-2.6881887105108349e-001
1720:-1.5392617862407161e+000
1721:-1.2580820005655073e+000
1722:-8.9247908022316613e-001
1723:-5.8172515635743671e-001
1724:-4.0103360984986297e-001
1725:3.3913063669201648e-001
1726:3.7745558559092574e-001
1727:4.0234130318722738e-001
1728:3.9010412286719337e-001
1729:3.6041662151092718e-001
1730:1.9724863236871806e-001
1731:2.4422631860781477e-001
1732:2.7836765940817848e-001
1733:2.7132722478382343e-001
1734:2.4285623622371610e-001
1735:-4.5208255325015021e-003
1736:5.9600810544989030e-002
1737:1.1384615605549128e-001
1738:1.2096597213163100e-001
1739:9.8749447496929141e-002
1740:-1.9915937617181836e-001
1741:-1.1257788014414084e-001
1742:-3.0443997875778096e-002
1743:-1.3793990514199953e-003
1744:-1.2025549648931461e-002
1745:-3.2797692425257347e-001
1746:-2.2300347082559768e-001
1747:-1.1735201037732712e-001
1748:-6.8828710881442656e-002
1749:-6.8519128623687309e-002
1750:3.4902110991556912e-001
1751:3.3693251722653422e-001
1752:2.9629268936252179e-001
1753:2.2839307540604709e-001
1754:1.6636213043194772e-001
1755:2.3523203313812868e-001
1756:2.3825567739508766e-001
1757:2.2078093365005214e-001
1758:1.7727640258254937e-001
1759:1.3261116168264683e-001
1760:9.6763517278630265e-002
1761:1.1789744331771647e-001
1762:1.2845869522789935e-001
1763:1.1479134994906805e-001
1764:9.1536331332376777e-002
1765:-8.2357876595598560e-003
1766:2.6231099437089359e-002
1767:5.7832516467251287e-002
1768:6.7006526441846861e-002
1769:6.0384409383802712e-002
1770:-6.0706293672521588e-002
1771:-1.9879646035806983e-002
1772:2.2069871446155021e-002
1773:4.2821980642553999e-002
1774:4.4813091252771275e-002
1775:1.5107326830776349e-001
1776:1.6025996432276518e-001
1777:1.7112482407291010e-001
1778:1.7891402034460627e-001
1779:1.8246582735386799e-001
1780:1.2227246529375257e-001
1781:1.3346106808214653e-001
1782:1.4819574406553668e-001
1783:1.6096981644035205e-001
1784:1.6856641906488445e-001
1785:8.6972975012463816e-002
1786:9.9337462101460730e-002
1787:1.1716805154862960e-001
1788:1.3467091287037167e-001
1789:1.4643497288931703e-001
1790:5.9845108569641980e-002
1791:7.1298968583093883e-002
1792:8.9170018272674290e-002
1793:1.0834621531997526e-001
1794:1.2219122135718560e-001
1795:4.6015447115489307e-002
1796:5.5648539511536768e-002
1797:7.1791543416863168e-002
1798:9.0354754549787211e-002
1799:1.0442188181146927e-001
1800:1.8192455073766803e-001
1801:1.7774743935638676e-001
1802:1.7334423117032460e-001
1803:1.7097763215230896e-001
1804:1.7053176987886859e-001
1805:1.6939068401111190e-001
1806:1.6603846901871891e-001
1807:1.6239479255928224e-001
1808:1.6025479031713491e-001
1809:1.5965744020984593e-001
1810:1.4896375910287357e-001
1811:1.4741837742180766e-001
1812:1.4576392008872546e-001
1813:1.4483271572496098e-001
1814:1.4461239780126386e-001
1815:1.2607375478355529e-001
1816:1.2704692452903490e-001
1817:1.2842391471977227e-001
1818:1.2974373663185196e-001
1819:1.3061216900696823e-001
1820:1.0902730753868377e-001
1821:1.1212930455194295e-001
1822:1.1617528157695201e-001
1823:1.1963115537254584e-001
1824:1.2165203079270955e-001
1825:1.6979242797067623e-001
1826:1.6678918793521730e-001
1827:1.6251961876317439e-001
1828:1.5840255773943693e-001
1829:1.5567872619394807e-001
1830:1.5911999847084421e-001
1831:1.5721579419327553e-001
1832:1.5455641811077922e-001
1833:1.5205048078845715e-001
1834:1.5042738996455068e-001
1835:1.4445728465258395e-001
1836:1.4390330592216816e-001
1837:1.4322232479664834e-001
1838:1.4269614520412929e-001
1839:1.4242577664838904e-001
1840:1.3094238551530626e-001
1841:1.3143060762155012e-001
1842:1.3227695509186821e-001
1843:1.3327946686801442e-001
1844:1.3405379586995550e-001
1845:1.2237285458411719e-001
1846:1.2339578378656009e-001
1847:1.2502593066029538e-001
1848:1.2681317245172474e-001
1849:1.2812391351355448e-001
1850:1.5397197582611505e-001
1851:1.5016681093399681e-001
1852:1.4518378894610445e-001
1853:1.4090099395783279e-001
1854:1.3837870719895443e-001
1855:1.4910802389992545e-001
1856:1.4569916340546801e-001
1857:1.4123621074555071e-001
1858:1.3740185511031072e-001
1859:1.3514464026505363e-001
1860:1.4162513495689136e-001
1861:1.3886549887594229e-001
1862:1.3526499798531441e-001
1863:1.3218820035256346e-001
1864:1.3038803521203174e-001
1865:1.3371417408290087e-001
1866:1.3168562526009983e-001
1867:1.2906745475299372e-001
1868:1.2686809373696345e-001
1869:1.2560684114579371e-001
1870:1.2806595631154299e-001
1871:1.2658369189768354e-001
1872:1.2470521900041917e-001
1873:1.2317392561928514e-001
1874:1.2232772495302750e-001
1875:1.3680937196885856e-001
1876:1.3309299210918177e-001
1877:1.2798710873937619e-001
1878:1.2328092403219852e-001
1879:1.2029682766693994e-001
1880:1.3372873622529036e-001
1881:1.3035957498087350e-001
1882:1.2573335162060767e-001
1883:1.2147259840178644e-001
1884:1.1877301095709576e-001
1885:1.2921017904046589e-001
1886:1.2633298085436737e-001
1887:1.2238500406656064e-001
1888:1.1875237373216185e-001
1889:1.1645291829189654e-001
1890:1.2468291719185248e-001
1891:1.2227807495434775e-001
1892:1.1897963240737421e-001
1893:1.1594641262576735e-001
1894:1.1402748208019894e-001
1895:1.2158633373014577e-001
1896:1.1949278813924641e-001
1897:1.1662140205693020e-001
1898:1.1398101021880402e-001
1899:1.1231066662515761e-001
1900:1.1856039982813701e-001
1901:1.1472177299640962e-001
1902:1.0938765182314286e-001
1903:1.0439473280827095e-001
1904:1.0118121867321689e-001
1905:1.1714677481128739e-001
1906:1.1345957671669081e-001
1907:1.0833008295309662e-001
1908:1.0352144248037574e-001
1909:1.0042207614755999e-001
1910:1.1498819513962205e-001
1911:1.1153983322931654e-001
1912:1.0673501356921150e-001
1913:1.0222124865033688e-001
1914:9.9306124908936644e-002
1915:1.1272445027735865e-001
1916:1.0953523069364005e-001
1917:1.0508482112055308e-001
1918:1.0089566773904700e-001
1919:9.8185092731363319e-002
1920:1.1111815327918369e-001
1921:1.0811756509107984e-001
1922:1.0392626189384475e-001
1923:9.9975866020673460e-002
1924:9.7416641473708793e-002
1925:9.9245064484969975e-002
1926:9.4832923516198278e-002
1927:8.8551824309498567e-002
1928:8.2484605985130979e-002
1929:7.8464313812832809e-002
1930:9.8533677771181272e-002
1931:9.4196124218518154e-002
1932:8.8011627660813857e-002
1933:8.2026011583939490e-002
1934:7.8052824758237035e-002
1935:9.7496473356652430e-002
1936:9.3285602780531093e-002
1937:8.7268135334681904e-002
1938:8.1427582026400908e-002
1939:7.7540833882960014e-002
1940:9.6464662887030692e-002
1941:9.2401223492134393e-002
1942:8.6581168490602642e-002
1943:8.0916061283374294e-002
1944:7.7136500026882840e-002
1945:9.5763158359996381e-002
1946:9.1812318937283949e-002
1947:8.6144531551751585e-002
1948:8.0616691559017045e-002
1949:7.6922248205189017e-002
1950:7.6001803665091100e-002
1951:7.0330099521207778e-002
1952:6.2087643408854996e-002
1953:5.3920171691220209e-002
1954:4.8385845626705934e-002
1955:7.5602745642226118e-002
1956:6.9934809889977023e-002
1957:6.1691439469815514e-002
1958:5.3515408603778451e-002
1959:4.7970844903058356e-002
1960:7.5120923689658947e-002
1961:6.9487942986382001e-002
1962:6.1286340259470988e-002
1963:5.3140882106802408e-002
1964:4.7610763256375005e-002
1965:7.4760978563431557e-002
1966:6.9197936577380548e-002
1967:6.1089331056812697e-002
1968:5.3025675130607498e-002
1969:4.7544984798735535e-002
1970:7.4585209724701076e-002
1971:6.9090029321573251e-002
1972:6.1074366516932994e-002
1973:5.3096008466059157e-002
1974:4.7669173689263947e-002
1975:4.4916024108728532e-002
1976:3.6791323390126168e-002
1977:2.4785058640906469e-002
1978:1.2649746682150836e-002
1979:4.2886199997451257e-003
1980:4.4491073422407733e-002
1981:3.6339364831743014e-002
1982:2.4292153460413728e-002
1983:1.2114234946700433e-002
1984:3.7230592476315489e-003
1985:4.4135632305849402e-002
1986:3.5990231434506817e-002
1987:2.3950211628735098e-002
1988:1.1777053901991470e-002
1989:3.3877325197091590e-003
1990:4.4097325572648879e-002
1991:3.6012731345737098e-002
1992:2.4059710442402470e-002
1993:1.1971120839510021e-002
1994:3.6381526991288863e-003
1995:4.4253393278820642e-002
1996:3.6241638057147869e-002
1997:2.4393884669992361e-002
1998:1.2408902650422935e-002
1999:4.1457323706795132e-003
2000:-2.2127578638294668e+001
2001:-2.0015747647150405e+001
2002:-1.6867410147997010e+001
2003:-1.3652749905858249e+001
2004:-1.1419409751602696e+001
2005:-3.3497890753022212e+001
2006:-2.9709538288185620e+001
2007:-2.3917774637120516e+001
2008:-1.7835839450610528e+001
2009:-1.3515866928406973e+001
2010:-4.3687580239989842e+001
2011:-3.8655426532896733e+001
2012:-3.0766435976946344e+001
2013:-2.2259473365583350e+001
2014:-1.6095139897832670e+001
2015:-4.6198997106622805e+001
2016:-4.1362560880404573e+001
2017:-3.3484351154437960e+001
2018:-2.4660368853091018e+001
2019:-1.8091193162924572e+001
2020:-4.3502030965944442e+001
2021:-3.9626399580617573e+001
2022:-3.2966821334349916e+001
2023:-2.5137621720242429e+001
2024:-1.9119139976711640e+001
2025:-1.0904319953342430e+001
2026:-1.1027668053197191e+001
2027:-1.0890289016791220e+001
2028:-1.0374977190909650e+001
2029:-9.8059188115629450e+000
2030:-1.2359546222711542e+001
2031:-1.2137283783737704e+001
2032:-1.1538166576726205e+001
2033:-1.0613845514423229e+001
2034:-9.7957806927623707e+000
2035:-1.4307382614527050e+001
2036:-1.3573213230353261e+001
2037:-1.2289440006287252e+001
2038:-1.0757678317966681e+001
2039:-9.5691720141111158e+000
2040:-1.6037528982643288e+001
2041:-1.4784559106186235e+001
2042:-1.2806035067173337e+001
2043:-1.0656737954942786e+001
2044:-9.0908966218091916e+000
2045:-1.7093927769813675e+001
2046:-1.5482717763240672e+001
2047:-1.3023960986171209e+001
2048:-1.0447160070068202e+001
2049:-8.6196827033331100e+000
2050:-9.4146749512980445e+000
2051:-8.5415908400160472e+000
2052:-7.2074570915943772e+000
2053:-5.8072418862676560e+000
2054:-4.8130906694306956e+000
2055:-9.3285521463960528e+000
2056:-8.3944284257144854e+000
2057:-6.9800899369159897e+000
2058:-5.5105806463479388e+000
2059:-4.4753791105845275e+000
2060:-9.0037299413157079e+000
2061:-8.0371966070531631e+000
2062:-6.5888420290976963e+000
2063:-5.1012940347644182e+000
2064:-4.0629548762978223e+000
2065:-8.4427587059607330e+000
2066:-7.5115279611298140e+000
2067:-6.1283139395002957e+000
2068:-4.7218838868847213e+000
2069:-3.7481193087275235e+000
2070:-7.9239898772877551e+000
2071:-7.0557743005005751e+000
2072:-5.7740193308408205e+000
2073:-4.4799589853304935e+000
2074:-3.5891988656901650e+000
2075:-4.4103681598804396e+000
2076:-3.8532515856696374e+000
2077:-3.0598132715970325e+000
2078:-2.2929889687916591e+000
2079:-1.7846316299585250e+000
2080:-4.0738979616649482e+000
2081:-3.5614790639044291e+000
2082:-2.8391741881505568e+000
2083:-2.1502323327998001e+000
2084:-1.6989374553310921e+000
2085:-3.6737898362417267e+000
2086:-3.2109957381744754e+000
2087:-2.5696766835557048e+000
2088:-1.9716037882200961e+000
2089:-1.5880404997626436e+000
2090:-3.3837469337965880e+000
2091:-2.9517649597475222e+000
2092:-2.3638827509018729e+000
2093:-1.8291298402194258e+000
2094:-1.4944854650981347e+000
2095:-3.2489260119789716e+000
2096:-2.8271752195660738e+000
2097:-2.2599542762952454e+000
2098:-1.7526116403234948e+000
2099:-1.4405632317525168e+000
2100:-1.5792686778900740e+000
2101:-1.2929121322078425e+000
2102:-9.2520481178992153e-001
2103:-6.1885480587731378e-001
2104:-4.4491031676425818e-001
2105:-1.5118596491117284e+000
2106:-1.2398818259409456e+000
2107:-8.9826524956369791e-001
2108:-6.2398950874062853e-001
2109:-4.7538608480431238e-001
2110:-1.4217071678655382e+000
2111:-1.1629737844926367e+000
2112:-8.4812499552599474e-001
2113:-6.0937921272659668e-001
2114:-4.9007330435533342e-001
2115:-1.3417279551113315e+000
2116:-1.0869554956630374e+000
2117:-7.8527986490686563e-001
2118:-5.6846941093099690e-001
2119:-4.6917750225152866e-001
2120:-1.2929572589007410e+000
2121:-1.0355552953177212e+000
2122:-7.3506383896167760e-001
2123:-5.2542108043480840e-001
2124:-4.3446201028589837e-001
2125:-3.7295449125995528e-001
2126:-2.6363064783246859e-001
2127:-1.5157041870349963e-001
2128:-9.6593037126898110e-002
2129:-9.1850046690165721e-002
2130:-4.1163197957619418e-001
2131:-3.0612125400957879e-001
2132:-1.9608015061929054e-001
2133:-1.3888541988181041e-001
2134:-1.3019394854786828e-001
2135:-4.3700853819646346e-001
2136:-3.3971529979006126e-001
2137:-2.3648760072712458e-001
2138:-1.7990244958491880e-001
2139:-1.6806250680705820e-001
2140:-4.2523199837450398e-001
2141:-3.3928614086605335e-001
2142:-2.4745521146115859e-001
2143:-1.9606300524491335e-001
2144:-1.8420448476087856e-001
2145:-3.9584170638646887e-001
2146:-3.1944321040223478e-001
2147:-2.3802853961225753e-001
2148:-1.9281611711137273e-001
2149:-1.8274335939347786e-001
2150:-8.2641371850459985e-002
2151:-4.0360034675030979e-002
2152:4.9578431369892767e-003
2153:3.0549761444464297e-002
2154:3.6691386613520262e-002
2155:-1.2012082392931415e-001
2156:-7.8311948293603537e-002
2157:-2.9868261233113511e-002
2158:3.3865356751693310e-003
2159:1.7368013831400932e-002
2160:-1.5828471504773978e-001
2161:-1.2065299056200368e-001
2162:-7.2735715653773625e-002
2163:-3.3363320552703989e-002
2164:-1.1386575754452954e-002
2165:-1.7657743795985606e-001
2166:-1.4726491137680509e-001
2167:-1.0593959431509729e-001
2168:-6.6515146715505707e-002
2169:-4.0685182027944973e-002
2170:-1.7765114277755814e-001
2171:-1.5639967572994265e-001
2172:-1.2306116852971197e-001
2173:-8.7086461439253582e-002
2174:-6.1005241760243571e-002
2175:3.8920511689554689e-002
2176:4.8022549623905161e-002
2177:6.3462227252060854e-002
2178:8.1410462035307496e-002
2179:9.5108399759243734e-002
2180:2.2129174856495043e-002
2181:3.1762419190750957e-002
2182:4.7333096666175939e-002
2183:6.4643542433321141e-002
2184:7.7464196992471937e-002
2185:-3.6738878362004195e-003
2186:7.2581790225268138e-003
2187:2.3783535648013370e-002
2188:4.0922858695179219e-002
2189:5.2979766637354736e-002
2190:-3.0919836693696998e-002
2191:-1.8069851254255920e-002
2192:3.1677868656619814e-004
2193:1.8191573179030040e-002
2194:3.0103830560473385e-002
2195:-5.0354669293946754e-002
2196:-3.5839238424455327e-002
2197:-1.5660647503795658e-002
2198:3.2373191051350237e-003
2199:1.5406532351932204e-002
2200:9.9873487521844495e-002
2201:1.0390547468906589e-001
2202:1.0920086812306350e-001
2203:1.1377252321979005e-001
2204:1.1647855739237473e-001
2205:8.2260330979658125e-002
2206:8.7518956196244960e-002
2207:9.4618340409497292e-002
2208:1.0100316344015997e-001
2209:1.0495264902559799e-001
2210:5.7894732404646591e-002
2211:6.4716246743016598e-002
2212:7.4115608305492256e-002
2213:8.2813847560986739e-002
2214:8.8350843483417596e-002
2215:3.5224821663727743e-002
2216:4.3331867891936583e-002
2217:5.4625049397789477e-002
2218:6.5230547472266753e-002
2219:7.2077696499746283e-002
2220:2.0718316028060763e-002
2221:2.9543857191841411e-002
2222:4.1896912990589306e-002
2223:5.3571462512637454e-002
2224:6.1153919839176160e-002
2225:1.1742914521978359e-001
2226:1.1870429657133699e-001
2227:1.2069733828729412e-001
2228:1.2283980336505797e-001
2229:1.2438871160338945e-001
2230:1.0636232851176995e-001
2231:1.0818159490955739e-001
2232:1.1094534698322105e-001
2233:1.1382752457922214e-001
2234:1.1586375706529689e-001
2235:9.0373365884634738e-002
2236:9.2989827744022618e-002
2237:9.6882784561810764e-002
2238:1.0084877417148838e-001
2239:1.0359903860029228e-001
2240:7.4642416992255739e-002
2241:7.8056552379311903e-002
2242:8.3079414013386158e-002
2243:8.8129915708905091e-002
2244:9.1594690146509783e-002
2245:6.4048304390998304e-002
2246:6.8007430683858255e-002
2247:7.3802285270095774e-002
2248:7.9593782078301478e-002
2249:8.3546756623210205e-002
2250:1.2447120070857837e-001
2251:1.2329216425345364e-001
2252:1.2182523501364122e-001
2253:1.2066686293223357e-001
2254:1.2005313063074356e-001
2255:1.1622942053901372e-001
2256:1.1565864326566501e-001
2257:1.1501533974575831e-001
2258:1.1460085025610595e-001
2259:1.1444928063419729e-001
2260:1.0437218562367004e-001
2261:1.0466354173709036e-001
2262:1.0518447345246745e-001
2263:1.0581744466210036e-001
2264:1.0631406709247022e-001
2265:9.2766773026024665e-002
2266:9.3886283375053017e-002
2267:9.5521691811056769e-002
2268:9.7152365205319446e-002
2269:9.8263200536799336e-002
2270:8.4986353736594036e-002
2271:8.6651870440756049e-002
2272:8.9019742572887278e-002
2273:9.1303136535121135e-002
2274:9.2813881719544217e-002
2275:1.1941099906694060e-001
2276:1.1748107476413522e-001
2277:1.1483709353591097e-001
2278:1.1240960821242971e-001
2279:1.1087632365970226e-001
2280:1.1400626429207381e-001
2281:1.1241129679487369e-001
2282:1.1023880849298585e-001
2283:1.0826022108886035e-001
2284:1.0702049727962147e-001
2285:1.0615477365942182e-001
2286:1.0504810424067197e-001
2287:1.0356283029581957e-001
2288:1.0223836948911857e-001
2289:1.0142632404028100e-001
2290:9.8378291060546075e-002
2291:9.7757296595686619e-002
2292:9.6955395747061218e-002
2293:9.6281220276970531e-002
2294:9.5894230063969563e-002
2295:9.3110977673894216e-002
2296:9.2820134217171613e-002
2297:9.2482688763475984e-002
2298:9.2250373681336026e-002
2299:9.2152138414361109e-002
2300:1.0974756174394863e-001
2301:1.0686013261246106e-001
2302:1.0282336262911913e-001
2303:9.9014219100067344e-002
2304:9.6543821875249083e-002
2305:1.0603114334015119e-001
2306:1.0339387144159862e-001
2307:9.9696751425348493e-002
2308:9.6195554847281761e-002
2309:9.3917232110599866e-002
2310:1.0064145277666361e-001
2311:9.8374030787314132e-002
2312:9.5179448746776529e-002
2313:9.2134364764816595e-002
2314:9.0140836513376829e-002
2315:9.5314240683946574e-002
2316:9.3420856348375034e-002
2317:9.0734944748393526e-002
2318:8.8152105827382213e-002
2319:8.6447559805759397e-002
2320:9.1712288394694169e-002
2321:9.0076733612535181e-002
2322:8.7741707200586966e-002
2323:8.5478050451499199e-002
2324:8.3973251238481747e-002
2325:9.4930000611574805e-002
2326:9.1047384724422142e-002
2327:8.5472938555970976e-002
2328:8.0030638616837235e-002
2329:7.6390126373321959e-002
2330:9.2390304394325329e-002
2331:8.8660897006756723e-002
2332:8.3297701598188778e-002
2333:7.8051077620138423e-002
2334:7.4535239459767699e-002
2335:8.8745348057570422e-002
2336:8.5253209644892761e-002
2337:8.0218275912468717e-002
2338:7.5277106129272298e-002
2339:7.1956751609837319e-002
2340:8.5188494642955984e-002
2341:8.1948971443393540e-002
2342:7.7264772168024715e-002
2343:7.2651529360592035e-002
2344:6.9542004720317990e-002
2345:8.2810210813909491e-002
2346:7.9752011787075958e-002
2347:7.5320235404679498e-002
2348:7.0943840691405524e-002
2349:6.7987105807414891e-002
2350:7.4078684602767800e-002
2351:6.8630833193303459e-002
2352:6.0680612616686523e-002
2353:5.2763102793528194e-002
2354:4.7375180393326992e-002
2355:7.2284540249705528e-002
2356:6.6951609846411728e-002
2357:5.9160959985087955e-002
2358:5.1392660393419061e-002
2359:4.6100677671704067e-002
2360:6.9803816797281204e-002
2361:6.4660806649462568e-002
2362:5.7135506808387158e-002
2363:4.9617385513482277e-002
2364:4.4487527100627221e-002
2365:6.7497309177942416e-002
2366:6.2569927350501139e-002
2367:5.5347624000538838e-002
2368:4.8117327473262125e-002
2369:4.3175301434177991e-002
2370:6.6022343723779339e-002
2371:6.1256982363605383e-002
2372:5.4263221411394315e-002
2373:4.7251106798061451e-002
2374:4.2452119898544804e-002
2375:4.3982276262425256e-002
2376:3.6022563914052327e-002
2377:2.4250881814076544e-002
2378:1.2341805356987690e-002
2379:4.1303743281428879e-003
2380:4.2763876578120079e-002
2381:3.4931437645132894e-002
2382:2.3346982854898331e-002
2383:1.1626144113428941e-002
2384:3.5438376533941883e-003
2385:4.1247270480157944e-002
2386:3.3635968318881632e-002
2387:2.2376587623553396e-002
2388:1.0982302598875927e-002
2389:3.1238437094281311e-003
2390:4.0048688653104590e-002
2391:3.2699832964687377e-002
2392:2.1826019616736782e-002
2393:1.0818781561323248e-002
2394:3.2254799436109744e-003
2395:3.9412937714415557e-002
2396:3.2267038487502411e-002
2397:2.1691281467377022e-002
2398:1.0983110145665793e-002
2399:3.5946161428808887e-003
2400:-4.0805921843949243e+001
2401:-3.7453584288386359e+001
2402:-3.1564964627418554e+001
2403:-2.4512256535582733e+001
2404:-1.9027205454382454e+001
2405:-3.5248347456287419e+001
2406:-3.2495716599848066e+001
2407:-2.7691900001739786e+001
2408:-2.1969529076220390e+001
2409:-1.7534025006582155e+001
2410:-2.7297607815879140e+001
2411:-2.5224329972320820e+001
2412:-2.1717891963338886e+001
2413:-1.7652455762579379e+001
2414:-1.4555043520982274e+001
2415:-1.9569916168834300e+001
2416:-1.7939673169854089e+001
2417:-1.5384553279462242e+001
2418:-1.2629991332926378e+001
2419:-1.0634352751067501e+001
2420:-1.4420985540270577e+001
2421:-1.2957493340733942e+001
2422:-1.0853162956644937e+001
2423:-8.7949246198687892e+000
2424:-7.4158771498920144e+000
2425:-1.7105927043808038e+001
2426:-1.5371487983674699e+001
2427:-1.2745133877338473e+001
2428:-1.0016015720618416e+001
2429:-8.0933037815600066e+000
2430:-1.5884039590606257e+001
2431:-1.4093574024053980e+001
2432:-1.1391199079522334e+001
2433:-8.5932185982868798e+000
2434:-6.6275951864650580e+000
2435:-1.3300522893273326e+001
2436:-1.1619757954520674e+001
2437:-9.0868474819278777e+000
2438:-6.4688142832853996e+000
2439:-4.6320969405990384e+000
2440:-9.7731431679057224e+000
2441:-8.4299558298091899e+000
2442:-6.4002091507834287e+000
2443:-4.2958225563621122e+000
2444:-2.8158882556677063e+000
2445:-6.8220147113055951e+000
2446:-5.8402917457519132e+000
2447:-4.3458910610331314e+000
2448:-2.7840089745988217e+000
2449:-1.6786540801027969e+000
2450:-7.3929780137594099e+000
2451:-6.5975739485905578e+000
2452:-5.4230371857364466e+000
2453:-4.2369012371163484e+000
2454:-3.4202464321295052e+000
2455:-5.9660411849522488e+000
2456:-5.3610292589162949e+000
2457:-4.4584478930907068e+000
2458:-3.5361244662398867e+000
2459:-2.8949433287797737e+000
2460:-4.0673313661967070e+000
2461:-3.7061999645269910e+000
2462:-3.1507196756140203e+000
2463:-2.5635730319832528e+000
2464:-2.1444260524386500e+000
2465:-2.3954625178307576e+000
2466:-2.2367035180016859e+000
2467:-1.9675404885088303e+000
2468:-1.6547868106056172e+000
2469:-1.4161658664509236e+000
2470:-1.3841185193362160e+000
2471:-1.3397050869305704e+000
2472:-1.2311360954245882e+000
2473:-1.0708335802490008e+000
2474:-9.3163973191157567e-001
2475:-3.1041154375216524e+000
2476:-2.7027998486745477e+000
2477:-2.1658710160655597e+000
2478:-1.6892568043097489e+000
2479:-1.3984429645362528e+000
2480:-2.6418022753327572e+000
2481:-2.3127986789317627e+000
2482:-1.8775223631981353e+000
2483:-1.4975217085030046e+000
2484:-1.2697880386894969e+000
2485:-1.9723743296671590e+000
2486:-1.7404812393157896e+000
2487:-1.4412029992668618e+000
2488:-1.1898214497058202e+000
2489:-1.0456793556946531e+000
2490:-1.3119498804694714e+000
2491:-1.1667304378083170e+000
2492:-9.8816670832205533e-001
2493:-8.5012069877306096e-001
2494:-7.7913332220482567e-001
2495:-8.6613192447452347e-001
2496:-7.7410322161401957e-001
2497:-6.6919115855963396e-001
2498:-5.9975785562783224e-001
2499:-5.7272939637413023e-001
2500:-1.2583043582958877e+000
2501:-1.0082259852658260e+000
2502:-7.1678830115217551e-001
2503:-5.1421370310616510e-001
2504:-4.2694040618617479e-001
2505:-1.1554221705321295e+000
2506:-9.4072111807626868e-001
2507:-6.8950634057408888e-001
2508:-5.1338889438940716e-001
2509:-4.3627283117760701e-001
2510:-9.6778782987158796e-001
2511:-8.0870962237077049e-001
2512:-6.2198598090847268e-001
2513:-4.9020132407230488e-001
2514:-4.3177622203150112e-001
2515:-7.3621058393038386e-001
2516:-6.3729133951920214e-001
2517:-5.2170145149407721e-001
2518:-4.4089220140371732e-001
2519:-4.0569417866850721e-001
2520:-5.5282108592904788e-001
2521:-4.9758973390345523e-001
2522:-4.3439261827763076e-001
2523:-3.9221038583643836e-001
2524:-3.7548016862079503e-001
2525:-3.9042512361577031e-001
2526:-3.1828777683376974e-001
2527:-2.4057019736189536e-001
2528:-1.9603282736571134e-001
2529:-1.8468457499943883e-001
2530:-4.0377392896906589e-001
2531:-3.3902293903851805e-001
2532:-2.6572027425882838e-001
2533:-2.1798997828593827e-001
2534:-2.0008984211414854e-001
2535:-4.0697554992201168e-001
2536:-3.5634439451221678e-001
2537:-2.9434426584602408e-001
2538:-2.4677570822000930e-001
2539:-2.2258447432944464e-001
2540:-3.9075078185183743e-001
2541:-3.5816531640984905e-001
2542:-3.1321668253019819e-001
2543:-2.7155882192410857e-001
2544:-2.4500234576181892e-001
2545:-3.6850871496100751e-001
2546:-3.5050212266871794e-001
2547:-3.2050100701480289e-001
2548:-2.8618282396556349e-001
2549:-2.6026698029600015e-001
2550:-1.7967615233436582e-001
2551:-1.6065207842361207e-001
2552:-1.2982510652644982e-001
2553:-9.5470341324615279e-002
2554:-6.9983036359399273e-002
2555:-1.9260203378145549e-001
2556:-1.7294395377749663e-001
2557:-1.4206586978006924e-001
2558:-1.0870262829999884e-001
2559:-8.4491518787259023e-002
2560:-2.1224226804185173e-001
2561:-1.9139523829434027e-001
2562:-1.6006080304363482e-001
2563:-1.2776802919924193e-001
2564:-1.0516523792478007e-001
2565:-2.3272841389563137e-001
2566:-2.1038282066259620e-001
2567:-1.7813864084567163e-001
2568:-1.4646294132402640e-001
2569:-1.2515885454586037e-001
2570:-2.4720408060720281e-001
2571:-2.2365724137226300e-001
2572:-1.9053129258632565e-001
2573:-1.5901645991769126e-001
2574:-1.3842132868331100e-001
2575:-5.9281167469708962e-002
2576:-4.4284877777004315e-002
2577:-2.3555011352038049e-002
2578:-4.2874651511934109e-003
2579:8.0297238494082893e-003
2580:-7.4179348813434923e-002
2581:-5.9112500427227696e-002
2582:-3.8231628151452243e-002
2583:-1.8756410361526841e-002
2584:-6.2648459957206915e-003
2585:-9.5333387526128840e-002
2586:-8.0069629079552437e-002
2587:-5.8830581863129769e-002
2588:-3.8914208749831994e-002
2589:-2.6073706883213643e-002
2590:-1.1569994934178519e-001
2591:-1.0012806078671846e-001
2592:-7.8367969805526891e-002
2593:-5.7847572544740648e-002
2594:-4.4546913129178745e-002
2595:-1.2915540298124711e-001
2596:-1.1330919071390300e-001
2597:-9.1099703712485477e-002
2598:-7.0073244693200171e-002
2599:-5.6394444893660946e-002
2600:1.3443468202277249e-002
2601:2.2576367450725252e-002
2602:3.5386827867383897e-002
2603:4.7527474781397218e-002
2604:5.5433216127686952e-002
2605:-6.7200978144530256e-004
2606:8.9791325785031836e-003
2607:2.2569445351786021e-002
2608:3.5514837168798490e-002
2609:4.3984426985193684e-002
2610:-2.0230726995502386e-002
2611:-9.9617474779850734e-003
2612:4.5639883424890776e-003
2613:1.8481255445525566e-002
2614:2.7635466162656736e-002
2615:-3.8468188121252703e-002
2616:-2.7749023929026086e-002
2617:-1.2533372622291199e-002
2618:2.1102622058305227e-003
2619:1.1781441340845260e-002
2620:-5.0163007454270506e-002
2621:-3.9232754408178118e-002
2622:-2.3687042428990935e-002
2623:-8.6884543820493262e-003
2624:1.2394189654452441e-003
2625:5.8482086721732891e-002
2626:6.2712514995774196e-002
2627:6.8880654256247467e-002
2628:7.5016906663621014e-002
2629:7.9188915387147216e-002
2630:4.7317003041406437e-002
2631:5.2064577105292061e-002
2632:5.8922013916042106e-002
2633:6.5666747342518428e-002
2634:7.0207838783899926e-002
2635:3.1346738932223533e-002
2636:3.6848620518338079e-002
2637:4.4711071488871615e-002
2638:5.2342472665255914e-002
2639:5.7421050481636621e-002
2640:1.5827727480460522e-002
2641:2.2080360382708681e-002
2642:3.0942617862849447e-002
2643:3.9455479138960969e-002
2644:4.5067987124255957e-002
2645:5.4893787976081536e-003
2646:1.2252642203901959e-002
2647:2.1794656356083606e-002
2648:3.0906457773054060e-002
2649:3.6881533190408065e-002
2650:8.0746260411582768e-002
2651:8.2655567336183358e-002
2652:8.5360270447041212e-002
2653:8.7956522877274484e-002
2654:8.9667138510666447e-002
2655:7.1958745297587431e-002
2656:7.4277089444993158e-002
2657:7.7568820899188123e-002
2658:8.0737889031479160e-002
2659:8.2831503064923123e-002
2660:5.9447019184131387e-002
2661:6.2334475360544699e-002
2662:6.6442092485264018e-002
2663:7.0406233528032588e-002
2664:7.3030828763234343e-002
2665:4.7359051656980247e-002
2666:5.0780114791221138e-002
2667:5.5651624539434071e-002
2668:6.0358845445645931e-002
2669:6.3478916811427866e-002
2670:3.9347899957187987e-002
2671:4.3112951866420009e-002
2672:4.8476234072168944e-002
2673:5.3661014794623665e-002
2674:5.7099036112662802e-002
2675:9.0059061002131013e-002
2676:8.9942380642245912e-002
2677:8.9846644533895931e-002
2678:8.9840194240771276e-002
2679:8.9887093434416157e-002
2680:8.3412291388995266e-002
2681:8.3645435068145882e-002
2682:8.4028734662691174e-002
2683:8.4461815306142538e-002
2684:8.4786162293822256e-002
2685:7.3878077940559117e-002
2686:7.4613744722144840e-002
2687:7.5684253499255533e-002
2688:7.6746693189925969e-002
2689:7.7467576687575354e-002
2690:6.4580610317765907e-002
2691:6.5807208755060340e-002
2692:6.7547952389248850e-002
2693:6.9222776801646582e-002
2694:7.0328605362535573e-002
2695:5.8367580110598734e-002
2696:5.9922766025706821e-002
2697:6.2111446888996689e-002
2698:6.4194703764169914e-002
2699:6.5556743557893149e-002
2700:8.9517285977009198e-002
2701:8.8011843382351310e-002
2702:8.5856111840209970e-002
2703:8.3758392754934866e-002
2704:8.2359234140207405e-002
2705:8.4549694477690368e-002
2706:8.3294922355287862e-002
2707:8.1488894453921670e-002
2708:7.9720230956366669e-002
2709:7.8533913744491785e-002
2710:7.7423715789350436e-002
2711:7.6535375122041366e-002
2712:7.5240501103248578e-002
2713:7.3952754816207611e-002
2714:7.3077472787312345e-002
2715:7.0474197888477377e-002
2716:6.9951520594425776e-002
2717:6.9166675691711962e-002
2718:6.8358721848678639e-002
2719:6.7793706920938529e-002
2720:6.5829898244139470e-002
2721:6.5556484228122547e-002
2722:6.5119282293934336e-002
2723:6.4638323366366629e-002
2724:6.4284742647263221e-002
2725:8.1248036913261171e-002
2726:7.8288774350331200e-002
2727:7.3994628535015983e-002
2728:6.9747247765213474e-002
2729:6.6873662924403790e-002
2730:7.7528816436752968e-002
2731:7.4773268721597577e-002
2732:7.0762128379152134e-002
2733:6.6779556637343321e-002
2734:6.4076349139102720e-002
2735:7.2228877991456539e-002
2736:6.9776728056263115e-002
2737:6.6187456962417845e-002
2738:6.2600107892162540e-002
2739:6.0151479275102192e-002
2740:6.7102959379621754e-002
2741:6.4960245773433567e-002
2742:6.1801686680897167e-002
2743:5.8618403034901151e-002
2744:5.6430391848069736e-002
2745:6.3702558713296262e-002
2746:6.1774623113722144e-002
2747:5.8915270203388499e-002
2748:5.6012996294704083e-002
2749:5.4006425609283835e-002
2750:6.4952702658550882e-002
2751:6.0276963662252762e-002
2752:5.3410354801929336e-002
2753:4.6520532239365815e-002
2754:4.1802263676229176e-002
2755:6.2245665606814299e-002
2756:5.7756154851829805e-002
2757:5.1154945543330117e-002
2758:4.4521834994812853e-002
2759:3.9973878331184015e-002
2760:5.8457603551825305e-002
2761:5.4253781638568407e-002
2762:4.8060225696171840e-002
2763:4.1822046625132864e-002
2764:3.7536471171942920e-002
2765:5.4878800295705833e-002
2766:5.0976092250751955e-002
2767:4.5212777831745085e-002
2768:3.9392118395471451e-002
2769:3.5384349179307314e-002
2770:5.2555143972495673e-002
2771:4.8866924189274283e-002
2772:4.3410392834973645e-002
2773:3.7887828925617394e-002
2774:3.4078631629380289e-002
2775:3.8812400165762116e-002
2776:3.1780759349519822e-002
2777:2.1373065516409325e-002
2778:1.0833842808897225e-002
2779:3.5612293981202338e-003
2780:3.7087756191749227e-002
2781:3.0295660697795618e-002
2782:2.0240822953092031e-002
2783:1.0056916194238067e-002
2784:3.0283547884939603e-003
2785:3.4810549257671033e-002
2786:2.8388724661972623e-002
2787:1.8879136600072940e-002
2788:9.2440817032652563e-003
2789:2.5923907084546027e-003
2790:3.2828471386596593e-002
2791:2.6800073972267750e-002
2792:1.7869645276432866e-002
2793:8.8173519249130031e-003
2794:2.5656876241686023e-003
2795:3.1644530101297676e-002
2796:2.5898102379191330e-002
2797:1.7382655327005229e-002
2798:8.7478034793946960e-003
2799:2.7826155536215379e-003
2800:-1.1896576347953895e+001
2801:-1.0598880855560894e+001
2802:-8.7856245549787300e+000
2803:-7.0758429523726889e+000
2804:-5.9677223084904671e+000
2805:-7.6627893413245873e+000
2806:-6.8509927166674478e+000
2807:-5.7319168911473239e+000
2808:-4.6956822205219506e+000
2809:-4.0356579585466639e+000
2810:-3.1204780633550011e+000
2811:-2.8295431421006549e+000
2812:-2.4477842145918514e+000
2813:-2.1186510180903730e+000
2814:-1.9241311159529046e+000
2815:-5.4809479643423786e-001
2816:-5.5140941034874624e-001
2817:-5.7512021847916728e-001
2818:-6.2124133372950208e-001
2819:-6.6561362319589967e-001
2820:7.6608911804095806e-002
2821:2.5690745702793534e-003
2822:-1.0734869658615907e-001
2823:-2.1904323178111826e-001
2824:-2.9633825873792291e-001
2825:-5.4966300833373314e+000
2826:-4.7097550964357984e+000
2827:-3.5046923545104445e+000
2828:-2.2369087864961834e+000
2829:-1.3351236685496932e+000
2830:-3.7514132844814196e+000
2831:-3.2581598445162929e+000
2832:-2.4927479961856815e+000
2833:-1.6761149933348407e+000
2834:-1.0890198432836420e+000
2835:-1.8341171730580339e+000
2836:-1.6503813217492449e+000
2837:-1.3523917825053902e+000
2838:-1.0200210201890123e+000
2839:-7.7329571075112002e-001
2840:-6.7548533539653888e-001
2841:-6.5811137154983401e-001
2842:-6.1790926790414558e-001
2843:-5.6016587263363227e-001
2844:-5.1065470261479484e-001
2845:-3.2020895271965821e-001
2846:-3.3418256064284230e-001
2847:-3.4956161990912904e-001
2848:-3.5889905911926995e-001
2849:-3.6180388182920720e-001
2850:-1.1006337415358132e+000
2851:-1.0867646907991328e+000
2852:-1.0234124203683110e+000
2853:-9.0890661593812483e-001
2854:-8.0131974192297750e-001
2855:-9.3867614885360851e-001
2856:-9.3959541082736064e-001
2857:-9.0666337974073097e-001
2858:-8.3299385088407285e-001
2859:-7.5927839423084054e-001
2860:-7.1343991294958609e-001
2861:-7.2817531012902570e-001
2862:-7.2830995693289202e-001
2863:-7.0296017950116274e-001
2864:-6.7100584519705986e-001
2865:-5.0238390698800584e-001
2866:-5.2161852625372374e-001
2867:-5.4117631536551525e-001
2868:-5.5050275377614288e-001
2869:-5.5099262870174837e-001
2870:-3.6640575658266339e-001
2871:-3.8335927518775431e-001
2872:-4.0834113316141973e-001
2873:-4.3350767666326012e-001
2874:-4.5079955557971857e-001
2875:-7.4793965999095091e-001
2876:-6.7084929393092674e-001
2877:-5.8546277474669250e-001
2878:-5.3276228981447038e-001
2879:-5.1555564521427921e-001
2880:-7.1831245091939522e-001
2881:-6.5122867070386670e-001
2882:-5.7552557417755767e-001
2883:-5.2660190531403139e-001
2884:-5.0858041802298037e-001
2885:-6.4738873974496136e-001
2886:-5.9954416081884199e-001
2887:-5.4473656434494289e-001
2888:-5.0805885720073951e-001
2889:-4.9342984778502225e-001
2890:-5.4373769104426084e-001
2891:-5.2058215785898676e-001
2892:-4.9465072474729910e-001
2893:-4.7819964263221115e-001
2894:-4.7241295554325607e-001
2895:-4.5415108924142311e-001
2896:-4.5098674158052665e-001
2897:-4.4936001601631725e-001
2898:-4.5130703485948137e-001
2899:-4.5469010475954474e-001
2900:-5.0156833968988401e-001
2901:-4.5916675895284859e-001
2902:-4.1081260631303679e-001
2903:-3.7878525199953789e-001
2904:-3.6629581770905889e-001
2905:-4.9573494063365914e-001
2906:-4.5900333431429030e-001
2907:-4.1507457525668845e-001
2908:-3.8286429802685773e-001
2909:-3.6760199251945053e-001
2910:-4.8372101165347103e-001
2911:-4.5644679849992170e-001
2912:-4.2068896171205306e-001
2913:-3.8990126324830038e-001
2914:-3.7173278548997424e-001
2915:-4.6758130755632060e-001
2916:-4.5113639090472918e-001
2917:-4.2555846925180330e-001
2918:-3.9820234241933344e-001
2919:-3.7849959574624431e-001
2920:-4.5418912158805591e-001
2921:-4.4592762826685578e-001
2922:-4.2845575378130418e-001
2923:-4.0459735761767629e-001
2924:-3.8463518864037521e-001
2925:-3.6113484597914303e-001
2926:-3.4691187717804939e-001
2927:-3.2117649665402093e-001
2928:-2.8960885986280682e-001
2929:-2.6470067892818711e-001
2930:-3.6099730969207100e-001
2931:-3.4572603956751013e-001
2932:-3.1986019530393039e-001
2933:-2.8983143621943541e-001
2934:-2.6693333594244240e-001
2935:-3.6319866049334892e-001
2936:-3.4596181582434182e-001
2937:-3.1927456517672487e-001
2938:-2.9086895608966429e-001
2939:-2.7048392594907311e-001
2940:-3.6825553880709638e-001
2941:-3.4854154551081418e-001
2942:-3.2028374773773910e-001
2943:-2.9275214790669052e-001
2944:-2.7436861381967920e-001
2945:-3.7334958285978065e-001
2946:-3.5165003902694170e-001
2947:-3.2188928505627951e-001
2948:-2.9452407047392021e-001
2949:-2.7721336783144834e-001
2950:-2.5178983144419065e-001
2951:-2.2833509313503383e-001
2952:-1.9551766950403901e-001
2953:-1.6451773908694406e-001
2954:-1.4439280997204684e-001
2955:-2.5507224630048397e-001
2956:-2.3316480043780899e-001
2957:-2.0241649514036930e-001
2958:-1.7325190364237550e-001
2959:-1.5424596229709181e-001
2960:-2.5997283343746325e-001
2961:-2.4002778082447931e-001
2962:-2.1186511110116663e-001
2963:-1.8494381241648350e-001
2964:-1.6727306193915822e-001
2965:-2.6498498207005367e-001
2966:-2.4664170714043626e-001
2967:-2.2053659343876011e-001
2968:-1.9533050801489987e-001
2969:-1.7863433283920882e-001
2970:-2.6847178750726086e-001
2971:-2.5101512523773722e-001
2972:-2.2601164116828676e-001
2973:-2.0167340596219588e-001
2974:-1.8543553876974475e-001
2975:-1.3523770270729688e-001
2976:-1.1928551222726136e-001
2977:-9.6892911074937110e-002
2978:-7.5650155067933961e-002
2979:-6.1804583147781741e-002
2980:-1.4535468052263331e-001
2981:-1.2936445607561631e-001
2982:-1.0685440681002635e-001
2983:-8.5420814509166762e-002
2984:-7.1402754948908395e-002
2985:-1.5874238682906577e-001
2986:-1.4289903879987162e-001
2987:-1.2051364464698495e-001
2988:-9.9097239004375060e-002
2989:-8.5029164096408871e-002
2990:-1.7043367984517199e-001
2991:-1.5497795338675976e-001
2992:-1.3306975762122772e-001
2993:-1.1202308191151951e-001
2994:-9.8145736808802175e-002
2995:-1.7744267765364569e-001
2996:-1.6238998375751071e-001
2997:-1.4101023050890824e-001
2998:-1.2041860913554230e-001
2999:-1.0680984292198191e-001
3000:-5.5518578950319648e-002
3001:-4.4549810732509049e-002
3002:-2.8944436729628674e-002
3003:-1.3882311121406386e-002
3004:-3.9088222727098939e-003
3005:-6.5065329321841017e-002
3006:-5.4091829086397140e-002
3007:-3.8487690177865672e-002
3008:-2.3436502766108282e-002
3009:-1.3476058845740395e-002
3010:-7.8656529994466845e-002
3011:-6.7630661514726464e-002
3012:-5.1961791486822485e-002
3013:-3.6860082020145478e-002
3014:-2.6873302125144452e-002
3015:-9.1785541361495623e-002
3016:-8.0653303491657280e-002
3017:-6.4840623947413759e-002
3018:-4.9609314028852013e-002
3019:-3.9542197013412633e-002
3020:-1.0048551982349976e-001
3021:-8.9249615034702953e-002
3022:-7.3293291929256113e-002
3023:-5.7928041551618993e-002
3024:-4.7775034563180441e-002
3025:4.0680973869762217e-004
3026:7.3744792742590657e-003
3027:1.7197898423145001e-002
3028:2.6569803267696920e-002
3029:3.2710258445378095e-002
3030:-9.0942307474051343e-003
3031:-1.8520151298176090e-003
3032:8.3711973498043837e-003
3033:1.8140224542605849e-002
3034:2.4550332324854270e-002
3035:-2.2395412051641250e-002
3036:-1.4800021803275202e-002
3037:-4.0629173186238956e-003
3038:6.2160905360105767e-003
3039:1.2972207020477118e-002
3040:-3.4969284247470193e-002
3041:-2.7078793788271938e-002
3042:-1.5912840531775309e-002
3043:-5.2088952484880676e-003
3044:1.8351555182531173e-003
3045:-4.3137829768688761e-002
3046:-3.5079190729254028e-002
3047:-2.3669250907946356e-002
3048:-1.2723990042350823e-002
3049:-5.5166841728322711e-003
3050:3.5258124405985844e-002
3051:3.9180589142604999e-002
3052:4.4766154589337893e-002
3053:5.0163438259523040e-002
3054:5.3740954037971501e-002
3055:2.7239702484751497e-002
3056:3.1440836878314407e-002
3057:3.7414186593263885e-002
3058:4.3175135143905904e-002
3059:4.6987131716006270e-002
3060:1.5852890575668424e-002
3061:2.0448641430184190e-002
3062:2.6970141340193786e-002
3063:3.3243920047913059e-002
3064:3.7385823630434099e-002
3065:4.8882526838542294e-003
3066:9.8626202494564684e-003
3067:1.6908840581815656e-002
3068:2.3672019673901520e-002
3069:2.8127830516977387e-002
3070:-2.3567088945620554e-003
3071:2.8670153633859620e-003
3072:1.0258094536801342e-002
3073:1.7342013082174212e-002
3074:2.2002991754302943e-002
3075:5.5083709148587748e-002
3076:5.6788802698439764e-002
3077:5.9184594414933893e-002
3078:6.1460211913659558e-002
3079:6.2945135609702094e-002
3080:4.8455197822229762e-002
3081:5.0418644887147965e-002
3082:5.3177361866829205e-002
3083:5.5797598630405405e-002
3084:5.7507337624629888e-002
3085:3.9031033832946864e-002
3086:4.1361348395824817e-002
3087:4.4634743652867653e-002
3088:4.7742851688472393e-002
3089:4.9770345362982790e-002
3090:2.9942627203647217e-002
3091:3.2626188368005966e-002
3092:3.6394315683802476e-002
3093:3.9970348772825876e-002
3094:4.2301976231140653e-002
3095:2.3929253219083763e-002
3096:2.6846213204862437e-002
3097:3.0940722537577212e-002
3098:3.4824831645174310e-002
3099:3.7356319708034394e-002
3100:6.3280748933652806e-002
3101:6.3130566397765236e-002
3102:6.2865207728133476e-002
3103:6.2545853784555183e-002
3104:6.2296747105107970e-002
3105:5.7959577734448972e-002
3106:5.8041333485901493e-002
3107:5.8099231063635598e-002
3108:5.8083654395852190e-002
3109:5.8030798795593079e-002
3110:5.0388975997226908e-002
3111:5.0804610902546093e-002
3112:5.1327433836643489e-002
3113:5.1748257837020160e-002
3114:5.1977021625178414e-002
3115:4.3081773208324278e-002
3116:4.3824432962348378e-002
3117:4.4802143920152512e-002
3118:4.5649331256024571e-002
3119:4.6152860127449125e-002
3120:3.8243172306031463e-002
3121:3.9205212650807966e-002
3122:4.0487790569947640e-002
3123:4.1620365895580505e-002
3124:4.2307588149595302e-002
3125:6.1768599583508228e-002
3126:5.9948624242319615e-002
3127:5.7240616791745524e-002
3128:5.4481666645660815e-002
3129:5.2568359756066572e-002
3130:5.7604997192275305e-002
3131:5.5991721400196780e-002
3132:5.3575258119239161e-002
3133:5.1094609046878563e-002
3134:4.9363739177026009e-002
3135:5.1699706327198607e-002
3136:5.0389447866481661e-002
3137:4.8400400187617154e-002
3138:4.6327773743750675e-002
3139:4.4864391553045557e-002
3140:4.6022382310326196e-002
3141:4.5015533227193809e-002
3142:4.3454475256506253e-002
3143:4.1790445547219453e-002
3144:4.0594943081884986e-002
3145:4.2276435457690865e-002
3146:4.1477004187211425e-002
3147:4.0208542199544367e-002
3148:3.8823865377368989e-002
3149:3.7811518195309278e-002
3150:5.1169230161029068e-002
3151:4.7593304237464391e-002
3152:4.2297792412050256e-002
3153:3.6932181473036285e-002
3154:3.3227827739595643e-002
3155:4.8067389841217577e-002
3156:4.4713608624807347e-002
3157:3.9737300954707552e-002
3158:3.4683643593681361e-002
3159:3.1188150864928967e-002
3160:4.3719393488518589e-002
3161:4.0693885717958352e-002
3162:3.6189362224492164e-002
3163:3.1596871412922153e-002
3164:2.8410199692823837e-002
3165:3.9602296402450270e-002
3166:3.6908589790465712e-002
3167:3.2881016398596537e-002
3168:2.8754858061444632e-002
3169:2.5880535062739147e-002
3170:3.6923484072551437e-002
3171:3.4458385251163008e-002
3172:3.0759480448545807e-002
3173:2.6954740123309288e-002
3174:2.4295741212720448e-002
3175:3.0858060128039998e-002
3176:2.5260598636933508e-002
3177:1.6964660888312812e-002
3178:8.5509412574794053e-003
3179:2.7376928840416631e-003
3180:2.8946568948435822e-002
3181:2.3645909805400989e-002
3182:1.5787886902184016e-002
3183:7.8159829611276870e-003
3184:2.3066836295417663e-003
3185:2.6358337914380432e-002
3186:2.1497209369780987e-002
3187:1.4287634493347646e-002
3188:6.9698909119415139e-003
3189:1.9105876805925975e-003
3190:2.4020778733193953e-002
3191:1.9605001853813874e-002
3192:1.3052399279390997e-002
3193:6.3973403328647311e-003
3194:1.7938542685247741e-003
3195:2.2568540679848342e-002
3196:1.8460230860534863e-002
3197:1.2361160361788895e-002
3198:6.1635343353066054e-003
3199:1.8746620248291988e-003
3200:7.3061560157489255e-002
3201:3.4031488374765433e-003
3202:-9.5868799688558048e-002
3203:-1.9189073537679993e-001
3204:-2.5559483416018580e-001
3205:2.0525548568708134e-002
3206:-3.0505192166747418e-002
3207:-1.0328333318040624e-001
3208:-1.7374349320911711e-001
3209:-2.2052748664627245e-001
3210:-2.8911221544359898e-002
3211:-6.1147857639445927e-002
3212:-1.0755266045823210e-001
3213:-1.5300433453287893e-001
3214:-1.8349475400867676e-001
3215:-4.5670570080500891e-002
3216:-6.9195753349652125e-002
3217:-1.0399208880939267e-001
3218:-1.3920014776580486e-001
3219:-1.6347964509466203e-001
3220:-3.8338639396137179e-002
3221:-6.1708466836812449e-002
3222:-9.7061551168784302e-002
3223:-1.3375839085026825e-001
3224:-1.5959009758898463e-001
3225:-2.7540474068320098e-001
3226:-2.8938465413964060e-001
3227:-3.0724495142997005e-001
3228:-3.2200145266922142e-001
3229:-3.3029493574510260e-001
3230:-2.3838400416801730e-001
3231:-2.6135958416303157e-001
3232:-2.9240525683467961e-001
3233:-3.2036171327419133e-001
3234:-3.3767757441348184e-001
3235:-1.9949882763394866e-001
3236:-2.3111449298123732e-001
3237:-2.7483053082853831e-001
3238:-3.1547870289270491e-001
3239:-3.4147376530551254e-001
3240:-1.7882930012350323e-001
3241:-2.1369783496727532e-001
3242:-2.6219528697418387e-001
3243:-3.0764622364696415e-001
3244:-3.3693327147748631e-001
3245:-1.7518125250447794e-001
3246:-2.0917559536357144e-001
3247:-2.5640516294021759e-001
3248:-3.0060279500167186e-001
3249:-3.2904236237237033e-001
3250:-3.3569153718804307e-001
3251:-3.5024147675117101e-001
3252:-3.7380265963616560e-001
3253:-4.0004316275809243e-001
3254:-4.1950185526240175e-001
3255:-3.4451455417941290e-001
3256:-3.5549619977800423e-001
3257:-3.7329453380941002e-001
3258:-3.9313340572995803e-001
3259:-4.0785349820281308e-001
3260:-3.4988283999482367e-001
3261:-3.5806681256087047e-001
3262:-3.7098117744405129e-001
3263:-3.8500065776690828e-001
3264:-3.9520930009438365e-001
3265:-3.4627604592008376e-001
3266:-3.5454749091298232e-001
3267:-3.6680284659245016e-001
3268:-3.7922789526213219e-001
3269:-3.8781023290360656e-001
3270:-3.3865591841502612e-001
3271:-3.4864491249577267e-001
3272:-3.6287792165807686e-001
3273:-3.7664184146281271e-001
3274:-3.8577142212522336e-001
3275:-4.2515845043893058e-001
3276:-4.2761147289214424e-001
3277:-4.3271560267433629e-001
3278:-4.3961660768851041e-001
3279:-4.4536166535958949e-001
3280:-4.1241797139770914e-001
3281:-4.1520668679809186e-001
3282:-4.1991257678103844e-001
3283:-4.2535784238512947e-001
3284:-4.2950115967478508e-001
3285:-3.9872462631643352e-001
3286:-4.0173341200117035e-001
3287:-4.0545852692364182e-001
3288:-4.0837443228844472e-001
3289:-4.0990067410199210e-001
3290:-3.9093021785326504e-001
3291:-3.9383639744919757e-001
3292:-3.9610821529423990e-001
3293:-3.9602223840279660e-001
3294:-3.9460872836706262e-001
3295:-3.8899711527824515e-001
3296:-3.9164781601067361e-001
3297:-3.9265569170087417e-001
3298:-3.9024827304375942e-001
3299:-3.8664185081593361e-001
3300:-4.4594369979050391e-001
3301:-4.3987576858709931e-001
3302:-4.2501478145311611e-001
3303:-4.0305263009672138e-001
3304:-3.8397473454412107e-001
3305:-4.2940846056873649e-001
3306:-4.2313620537847657e-001
3307:-4.0949683661137437e-001
3308:-3.9056371240994914e-001
3309:-3.7459282649988118e-001
3310:-4.0859168633892828e-001
3311:-4.0139727034643052e-001
3312:-3.8863457871028756e-001
3313:-3.7322487158431294e-001
3314:-3.6118088782012914e-001
3315:-3.9181222676383592e-001
3316:-3.8295530999541105e-001
3317:-3.6998515371014357e-001
3318:-3.5701472187953948e-001
3319:-3.4815730028755881e-001
3320:-3.8267370702060904e-001
3321:-3.7225609759645245e-001
3322:-3.5852131552617433e-001
3323:-3.4659366669865238e-001
3324:-3.3948688608031452e-001
3325:-3.7285977003194004e-001
3326:-3.5123150178670431e-001
3327:-3.2179826537708206e-001
3328:-2.9502575969710726e-001
3329:-2.7827218676257953e-001
3330:-3.6505200663104609e-001
3331:-3.4577298389828109e-001
3332:-3.1924985893732849e-001
3333:-2.9475749109282229e-001
3334:-2.7919899598896331e-001
3335:-3.5373831962843361e-001
3336:-3.3771153972810775e-001
3337:-3.1517469776848295e-001
3338:-2.9374608984307160e-001
3339:-2.7974969324668791e-001
3340:-3.4256709586768053e-001
3341:-3.2956918714537425e-001
3342:-3.1069152638026992e-001
3343:-2.9199957656715292e-001
3344:-2.7934190682382176e-001
3345:-3.3502033779486812e-001
3346:-3.2396243785010120e-001
3347:-3.0739560893501705e-001
3348:-2.9038451735872373e-001
3349:-2.7851268871113383e-001
3350:-2.6977538424435743e-001
3351:-2.5262460755247074e-001
3352:-2.2801518705309945e-001
3353:-2.0400699392614316e-001
3354:-1.8795771924659138e-001
3355:-2.7108114271693579e-001
3356:-2.5439985692771988e-001
3357:-2.3046352825080779e-001
3358:-2.0711128610832311e-001
3359:-1.9150009879193614e-001
3360:-2.7217674315469775e-001
3361:-2.5633163930083930e-001
3362:-2.3359868100843176e-001
3363:-2.1142470848691830e-001
3364:-1.9660371627494586e-001
3365:-2.7230194711072597e-001
3366:-2.5746970685199655e-001
3367:-2.3619884868439237e-001
3368:-2.1546187552416132e-001
3369:-2.0160776007636297e-001
3370:-2.7182985293315082e-001
3371:-2.5779080008977551e-001
3372:-2.3766704963723534e-001
3373:-2.1806004335408394e-001
3374:-2.0496771178213988e-001
3375:-1.8008102513149621e-001
3376:-1.6530415251781266e-001
3377:-1.4430065609136705e-001
3378:-1.2405242960632937e-001
3379:-1.1065927869010204e-001
3380:-1.8388371512625895e-001
3381:-1.6967779418894607e-001
3382:-1.4946376752814344e-001
3383:-1.2994960278965806e-001
3384:-1.1702589113148726e-001
3385:-1.8937961610336165e-001
3386:-1.7590458209507243e-001
3387:-1.5669258102078962e-001
3388:-1.3809930326955336e-001
3389:-1.2575782541104297e-001
3390:-1.9478912212937502e-001
3391:-1.8191994495819788e-001
3392:-1.6352687744347399e-001
3393:-1.4567139465253370e-001
3394:-1.3378712050175989e-001
3395:-1.9843352889079061e-001
3396:-1.8590623714889554e-001
3397:-1.6796719852438494e-001
3398:-1.5051033660457011e-001
3399:-1.3886643546476871e-001
3400:-1.0438234486972695e-001
3401:-9.3126387310163872e-002
3402:-7.7141308616407889e-002
3403:-6.1748026839526841e-002
3404:-5.1576293859115968e-002
3405:-1.1087924276516588e-001
3406:-9.9678681785279125e-002
3407:-8.3768948635912208e-002
3408:-6.8444147624848323e-002
3409:-5.8315234339296800e-002
3410:-1.1978577330702748e-001
3411:-1.0870807949806953e-001
3412:-9.2969812305280244e-002
3413:-7.7806424581038605e-002
3414:-6.7781961081468181e-002
3415:-1.2797042190921754e-001
3416:-1.1706520700238342e-001
3417:-1.0157105637599741e-001
3418:-8.6641732548414868e-002
3419:-7.6771330566012735e-002
3420:-1.3314476789551163e-001
3421:-1.2238584267178616e-001
3422:-1.0710013996768337e-001
3423:-9.2372399283816492e-002
3424:-8.2635710099699694e-002
3425:-4.6922866837678753e-002
3426:-3.8818749188713780e-002
3427:-2.7341024688703218e-002
3428:-1.6326569009365667e-002
3429:-9.0712010375538065e-003
3430:-5.3665935029789051e-002
3431:-4.5534785382827528e-002
3432:-3.4010577752524952e-002
3433:-2.2941441200060676e-002
3434:-1.5644022236354391e-002
3435:-6.3149401557878793e-002
3436:-5.4978839330532714e-002
3437:-4.3386815368610339e-002
3438:-3.2237857843645967e-002
3439:-2.4879032729916314e-002
3440:-7.2168221449015607e-002
3441:-6.3958451809090919e-002
3442:-5.2298911959918024e-002
3443:-4.1070433906826916e-002
3444:-3.3650407810870760e-002
3445:-7.8060015682045916e-002
3446:-6.9823589929773985e-002
3447:-5.8118117391119092e-002
3448:-4.6835508905714605e-002
3449:-3.9373807703511891e-002
3450:-5.8724624445448343e-003
3451:-5.4774461290192167e-004
3452:6.9841629510679583e-003
3453:1.4200513630033565e-002
3454:1.8947103186445147e-002
3455:-1.2396121518246869e-002
3456:-6.9257439282733998e-003
3457:8.1207068677084302e-004
3458:8.2255402467445952e-003
3459:1.3101688852408734e-002
3460:-2.1563212298198037e-002
3461:-1.5895321700948824e-002
3462:-7.8791009716074455e-003
3463:-2.0009455021559422e-004
3464:4.8499894470026561e-003
3465:-3.0271507580023813e-002
3466:-2.4424867946715275e-002
3467:-1.6157718756421777e-002
3468:-8.2406531269649790e-003
3469:-3.0353977094043447e-003
3470:-3.5954612501292435e-002
3471:-2.9996690373575184e-002
3472:-2.1573975636675600e-002
3473:-1.3510132630681376e-002
3474:-8.2096954277828867e-003
3475:2.0921308988626916e-002
3476:2.3940829031911817e-002
3477:2.8179214233283494e-002
3478:3.2199698493872879e-002
3479:3.4820004636099258e-002
3480:1.5152368260757776e-002
3481:1.8341379118545643e-002
3482:2.2818630936894648e-002
3483:2.7066890161449930e-002
3484:2.9836366223512645e-002
3485:7.0063811696658186e-003
3486:1.0434789092158744e-002
3487:1.5248943022345737e-002
3488:1.9817861923025912e-002
3489:2.2796977463145546e-002
3490:-7.8075039279303256e-004
3491:2.8765933456730477e-003
3492:8.0123301057193723e-003
3493:1.2886589400535109e-002
3494:1.6064883169980115e-002
3495:-5.8922358798132535e-003
3496:-2.0845672648279437e-003
3497:3.2619698252799624e-003
3498:8.3359377971466090e-003
3499:1.1644235548452727e-002
3500:3.5755395400053729e-002
3501:3.6818744641394799e-002
3502:3.8243052041918767e-002
3503:3.9509482716999791e-002
3504:4.0283587757635644e-002
3505:3.0855105834120926e-002
3506:3.2095870327547980e-002
3507:3.3770404271581900e-002
3508:3.5275679275227755e-002
3509:3.6206346337977417e-002
3510:2.3933859564073613e-002
3511:2.5427897437773142e-002
3512:2.7459295715735001e-002
3513:2.9304767123430039e-002
3514:3.0458170436649428e-002
3515:1.7315258352622022e-002
3516:1.9054808368417032e-002
3517:2.1431705549751552e-002
3518:2.3606007930925398e-002
3519:2.4974386256450841e-002
3520:1.2969441447715394e-002
3521:1.4872187437080792e-002
3522:1.7478488682425790e-002
3523:1.9870812912661566e-002
3524:2.1381533981778982e-002
3525:4.0300288523374937e-002
3526:3.9602128352999109e-002
3527:3.8477069114298559e-002
3528:3.7229975262314530e-002
3529:3.6308236828098445e-002
3530:3.6310755082005201e-002
3531:3.5800319291040598e-002
3532:3.4942110982223003e-002
3533:3.3952301622265875e-002
3534:3.3200761002577690e-002
3535:3.0688136060936035e-002
3536:3.0447838880103759e-002
3537:2.9973429458411190e-002
3538:2.9353410050039493e-002
3539:2.8846342424773037e-002
3540:2.5326484571033599e-002
3541:2.5350666766816399e-002
3542:2.5251768943010108e-002
3543:2.4993252196976869e-002
3544:2.4724998332620384e-002
3545:2.1815066854153378e-002
3546:2.2016605210270199e-002
3547:2.2169375265478783e-002
3548:2.2152959960598927e-002
3549:2.2044535691696284e-002
3550:3.5472427842508897e-002
3551:3.3122250979531510e-002
3552:2.9589165850221016e-002
3553:2.5947309556807720e-002
3554:2.3397854248367340e-002
3555:3.2463906647431415e-002
3556:3.0332920504464175e-002
3557:2.7117234259165970e-002
3558:2.3788521729696081e-002
3559:2.1450461382903602e-002
3560:2.8252018464141829e-002
3561:2.6437456742006978e-002
3562:2.3679894132410752e-002
3563:2.0803074110224622e-002
3564:1.8770022202875537e-002
3565:2.4270379668543958e-002
3566:2.2766829158027937e-002
3567:2.0459463168877399e-002
3568:1.8026608638712558e-002
3569:1.6293151961608621e-002
3570:2.1683695827376444e-002
3571:2.0389418556218775e-002
3572:1.8384928454196543e-002
3573:1.6250694691091676e-002
3574:1.4718715494974589e-002
3575:2.1738329785517509e-002
3576:1.7787169391189780e-002
3577:1.1919922915652874e-002
3578:5.9561376548006254e-003
3579:1.8281096207575179e-003
3580:1.9921775012506106e-002
3581:1.6274431964648461e-002
3582:1.0855459278303736e-002
3583:5.3439512067525834e-003
3584:1.5270751042027715e-003
3585:1.7429621539160615e-002
3586:1.4218759897521714e-002
3587:9.4438964189454671e-003
3588:4.5823600689860718e-003
3589:1.2127060192922610e-003
3590:1.5137101537711594e-002
3591:1.2352710185612221e-002
3592:8.2072957988790756e-003
3593:3.9810710545728637e-003
3594:1.0486279410822912e-003
3595:1.3686293038240554e-002
3596:1.1187377776621894e-002
3597:7.4633785429913824e-003
3598:3.6625723518977568e-003
3599:1.0229399138965613e-003
3600:-2.9433201538062177e-002
3601:-5.4501017501794445e-002
3602:-9.2424232053289382e-002
3603:-1.3179058333563620e-001
3604:-1.5950235412585262e-001
3605:-1.4192575023376430e-002
3606:-4.2350995073281598e-002
3607:-8.4343537178442410e-002
3608:-1.2723669088703565e-001
3609:-1.5704511148420885e-001
3610:1.6855033840691287e-004
3611:-3.0304755129880501e-002
3612:-7.5018682641525308e-002
3613:-1.1983875681039312e-001
3614:-1.5050653239414394e-001
3615:5.0732746545476539e-003
3616:-2.5087345293048260e-002
3617:-6.8674886192307438e-002
3618:-1.1157410880255943e-001
3619:-1.4047366843380701e-001
3620:2.9889335128778088e-003
3621:-2.5448346895332631e-002
3622:-6.6055754834234898e-002
3623:-1.0543231935671693e-001
3624:-1.3161458516935856e-001
3625:-1.7507993118884924e-001
3626:-2.0715695460319436e-001
3627:-2.5170834396660047e-001
3628:-2.9338171611700492e-001
3629:-3.2018595606025402e-001
3630:-1.7191346428447954e-001
3631:-1.9944521633763124e-001
3632:-2.3783591878967086e-001
3633:-2.7393727819013597e-001
3634:-2.9727475018563682e-001
3635:-1.6415257918978213e-001
3636:-1.8651916115507636e-001
3637:-2.1807143229147222e-001
3638:-2.4819640521506064e-001
3639:-2.6794804992742449e-001
3640:-1.5267905801767229e-001
3641:-1.7165225414126251e-001
3642:-1.9896066590844211e-001
3643:-2.2570382430157862e-001
3644:-2.4364142597696950e-001
3645:-1.4271071166144669e-001
3646:-1.6038470272436484e-001
3647:-1.8628591411665057e-001
3648:-2.1221054629631744e-001
3649:-2.2992744632448217e-001
3650:-3.2968637695115466e-001
3651:-3.4075554737523589e-001
3652:-3.5637858972904857e-001
3653:-3.7130464852647266e-001
3654:-3.8109688309375939e-001
3655:-3.0631323308339120e-001
3656:-3.1879196090382755e-001
3657:-3.3626506831965713e-001
3658:-3.5278678586397505e-001
3659:-3.6352248283441330e-001
3660:-2.7649819330878184e-001
3661:-2.9028748416298017e-001
3662:-3.0936628131946231e-001
3663:-3.2712114014676336e-001
3664:-3.3848485824645791e-001
3665:-2.5192679280268759e-001
3666:-2.6613107563044902e-001
3667:-2.8550410287674005e-001
3668:-3.0318064333618472e-001
3669:-3.1427681150493242e-001
3670:-2.3816046238222910e-001
3671:-2.5213353678254818e-001
3672:-2.7095391838476346e-001
3673:-2.8782340688500690e-001
3674:-2.9822227163310722e-001
3675:-3.8446420084150607e-001
3676:-3.8705413475311329e-001
3677:-3.8791587060782212e-001
3678:-3.8529438825171042e-001
3679:-3.8150275664477168e-001
3680:-3.6707951908838427e-001
3681:-3.6977558264915455e-001
3682:-3.7145855211261747e-001
3683:-3.7044958810473283e-001
3684:-3.6821379015719824e-001
3685:-3.4212332319749866e-001
3686:-3.4495864946300331e-001
3687:-3.4782056756119345e-001
3688:-3.4914929665206329e-001
3689:-3.4917568431241708e-001
3690:-3.1776330543875769e-001
3691:-3.2071869896874144e-001
3692:-3.2473145621209837e-001
3693:-3.2836976891215719e-001
3694:-3.3063914674014538e-001
3695:-3.0147087504076797e-001
3696:-3.0449723046636318e-001
3697:-3.0927972223386141e-001
3698:-3.1447905419753264e-001
3699:-3.1826909793136987e-001
3700:-3.7746353191227006e-001
3701:-3.6705635771941175e-001
3702:-3.5357819020101910e-001
3703:-3.4219396568728322e-001
3704:-3.3562308128953172e-001
3705:-3.6514126242114775e-001
3706:-3.5653549573084392e-001
3707:-3.4512031386925196e-001
3708:-3.3511576341089405e-001
3709:-3.2909439889622127e-001
3710:-3.4750229135534894e-001
3711:-3.4148603588380311e-001
3712:-3.3302092102576220e-001
3713:-3.2496580720888363e-001
3714:-3.1970071010539841e-001
3715:-3.3034530246982607e-001
3716:-3.2686098963421062e-001
3717:-3.2126163928617218e-001
3718:-3.1507165961722422e-001
3719:-3.1050526134210632e-001
3720:-3.1890606719476039e-001
3721:-3.1711769109850907e-001
3722:-3.1342687674221620e-001
3723:-3.0846212146359220e-001
3724:-3.0433977230835130e-001
3725:-3.3146821145435973e-001
3726:-3.2097599352107808e-001
3727:-3.0513388599880609e-001
3728:-2.8872432931774550e-001
3729:-2.7719249406332719e-001
3730:-3.2511095782624522e-001
3731:-3.1498414607370323e-001
3732:-2.9980096584548366e-001
3733:-2.8419750364821927e-001
3734:-2.7330069795346323e-001
3735:-3.1597279016305352e-001
3736:-3.0644708659137077e-001
3737:-2.9232549758795900e-001
3738:-2.7799913584737590e-001
3739:-2.6809827041112377e-001
3740:-3.0703819105635227e-001
3741:-2.9819204842042035e-001
3742:-2.8524693557625880e-001
3743:-2.7231255922680181e-001
3744:-2.6348608680394198e-001
3745:-3.0105389312671293e-001
3746:-2.9271688909514293e-001
3747:-2.8064118296143831e-001
3748:-2.6872338051218370e-001
3749:-2.6067567007261383e-001
3750:-2.7070889367834539e-001
3751:-2.5713987031581370e-001
3752:-2.3768460168658309e-001
3753:-2.1872252038691584e-001
3754:-2.0605706007040087e-001
3755:-2.6723568258837244e-001
3756:-2.5460712278428316e-001
3757:-2.3646578927644316e-001
3758:-2.1874245731104588e-001
3759:-2.0687971350481860e-001
3760:-2.6262137311797257e-001
3761:-2.5120660062174943e-001
3762:-2.3475007413306095e-001
3763:-2.1860144834666909e-001
3764:-2.0775077731811115e-001
3765:-2.5856777370524148e-001
3766:-2.4817258325631344e-001
3767:-2.3311647277131495e-001
3768:-2.1825816214847646e-001
3769:-2.0822535863700387e-001
3770:-2.5612183330384897e-001
3771:-2.4631130510566904e-001
3772:-2.3204810011136276e-001
3773:-2.1790750919209459e-001
3774:-2.0832162088322262e-001
3775:-1.9967345122624658e-001
3776:-1.8731154175573358e-001
3777:-1.6960092182427666e-001
3778:-1.5235612045204019e-001
3779:-1.4084763200641923e-001
3780:-2.0078585287978534e-001
3781:-1.8877629679625760e-001
3782:-1.7157433295354729e-001
3783:-1.5482948299931662e-001
3784:-1.4365740020978274e-001
3785:-2.0204646748963784e-001
3786:-1.9058010108895979e-001
3787:-1.7416284953232508e-001
3788:-1.5818996488632994e-001
3789:-1.4753771818269207e-001
3790:-2.0286929928035338e-001
3791:-1.9197845892945475e-001
3792:-1.7639327250709971e-001
3793:-1.6123970601754858e-001
3794:-1.5113963176672349e-001
3795:-2.0317964387799645e-001
3796:-1.9270040001390018e-001
3797:-1.7771062430921283e-001
3798:-1.6314376386658586e-001
3799:-1.5343933837167312e-001
3800:-1.3518989892003777e-001
3801:-1.2454779170556413e-001
3802:-1.0942413927427785e-001
3803:-9.4847733769864218e-002
3804:-8.5208231591103425e-002
3805:-1.3816088980515473e-001
3806:-1.2780652528038619e-001
3807:-1.1307467788055485e-001
3808:-9.8854946383034908e-002
3809:-8.9438823732841011e-002
3810:-1.4227742325608636e-001
3811:-1.3231769977885383e-001
3812:-1.1812047012922043e-001
3813:-1.0438391108262483e-001
3814:-9.5268177116769936e-002
3815:-1.4611569922446802e-001
3816:-1.3651885619965107e-001
3817:-1.2280973460285154e-001
3818:-1.0950983830982366e-001
3819:-1.0066273243318778e-001
3820:-1.4857689765659665e-001
3821:-1.3920960908682789e-001
3822:-1.2580708261989154e-001
3823:-1.1277865043216685e-001
3824:-1.0409673584943199e-001
3825:-8.0658235769568307e-002
3826:-7.2427713971068300e-002
3827:-6.0728685553680134e-002
3828:-4.9449904804702211e-002
3829:-4.1989314106608909e-002
3830:-8.4956959073088811e-002
3831:-7.6779764427553049e-002
3832:-6.5157096842423406e-002
3833:-5.3952620237861584e-002
3834:-4.6541588657692527e-002
3835:-9.0881898735150610e-002
3836:-8.2793122206376774e-002
3837:-7.1297398435051743e-002
3838:-6.0216853864157163e-002
3839:-5.2888722551709982e-002
3840:-9.6367068043023835e-002
3841:-8.8378982278986482e-002
3842:-7.7028174186954276e-002
3843:-6.6089533515217194e-002
3844:-5.8856575118469985e-002
3845:-9.9860092949666704e-002
3846:-9.1947818921072802e-002
3847:-8.0706297717088676e-002
3848:-6.9874887245552061e-002
3849:-6.2713972549207478e-002
3850:-3.8561929609832325e-002
3851:-3.2571965586639953e-002
3852:-2.4103477347424872e-002
3853:-1.5995225316597837e-002
3854:-1.0665246062317633e-002
3855:-4.3122137702092958e-002
3856:-3.7113303654630746e-002
3857:-2.8614287604668012e-002
3858:-2.0472067407167029e-002
3859:-1.5116915090622275e-002
3860:-4.9484199850171287e-002
3861:-4.3450381050991915e-002
3862:-3.4910538559681008e-002
3863:-2.6722453919736173e-002
3864:-2.1333086785449328e-002
3865:-5.5470915002087569e-002
3866:-4.9415258677586740e-002
3867:-4.0839198491938379e-002
3868:-3.2609858156564420e-002
3869:-2.7189423430939524e-002
3870:-5.9343454018419159e-002
3871:-5.3274693668310544e-002
3872:-4.4676549306282336e-002
3873:-3.6421684438600617e-002
3874:-3.0981842649364176e-002
3875:-8.3245800062106429e-003
3876:-4.4562669592371372e-003
3877:9.7572320290858713e-004
3878:6.1311586476231906e-003
3879:9.4927988587535077e-003
3880:-1.2746843523719173e-002
3881:-8.7907864539756974e-003
3882:-3.2341163928666472e-003
3883:2.0414697936431444e-003
3884:5.4825562088455237e-003
3885:-1.8922593889611181e-002
3886:-1.4845743202332926e-002
3887:-9.1177657287572385e-003
3888:-3.6775045536372062e-003
3889:-1.2777571122013579e-004
3890:-2.4741646232686806e-002
3891:-2.0553149689791942e-002
3892:-1.4667260637080395e-002
3893:-9.0757203066865119e-003
3894:-5.4264967989828307e-003
3895:-2.8510407251858039e-002
3896:-2.4250926199539370e-002
3897:-1.8264899605804484e-002
3898:-1.2577750891551566e-002
3899:-8.8658406931113824e-003
3900:1.0849976366181922e-002
3901:1.2824599154462031e-002
3902:1.5532550455010098e-002
3903:1.8022240235171409e-002
3904:1.9596988508503371e-002
3905:6.8903334661902559e-003
3906:8.9835684885461575e-003
3907:1.1860661330674651e-002
3908:1.4514082550717268e-002
3909:1.6197531270712544e-002
3910:1.3505425472673215e-003
3911:3.6112298591025570e-003
3912:6.7268708190661962e-003
3913:9.6109176922861972e-003
3914:1.1447304041961036e-002
3915:-3.8818641565561817e-003
3916:-1.4611422284227223e-003
3917:1.8821845297774743e-003
3918:4.9859947365645625e-003
3919:6.9679010427392170e-003
3920:-7.2783518393468938e-003
3921:-4.7526075140450720e-003
3922:-1.2600399497496100e-003
3923:1.9876009614381287e-003
3924:4.0646178773610982e-003
3925:2.0068036160112407e-002
3926:2.0352768186848304e-002
3927:2.0624303143312834e-002
3928:2.0723013085334065e-002
3929:2.0691114316606155e-002
3930:1.6733970342107291e-002
3931:1.7166499605718023e-002
3932:1.7650512911057181e-002
3933:1.7957002695735330e-002
3934:1.8064293082661918e-002
3935:1.2076027182889085e-002
3936:1.2717613916733350e-002
3937:1.3501978110032906e-002
3938:1.4101938366817637e-002
3939:1.4405680690261697e-002
3940:7.6847795494089221e-003
3941:8.5266597449023627e-003
3942:9.5985409549493948e-003
3943:1.0479137812623341e-002
3944:1.0970568063996745e-002
3945:4.8393236513444111e-003
3946:5.8129446405986033e-003
3947:7.0737914061501450e-003
3948:8.1386553131165169e-003
3949:8.7532182770259873e-003
3950:2.0375769732357298e-002
3951:1.9183877519911921e-002
3952:1.7327981925707208e-002
3953:1.5340754320688200e-002
3954:1.3908250185317468e-002
3955:1.7832730434458523e-002
3956:1.6830815159114693e-002
3957:1.5251460954018975e-002
3958:1.3538804618646372e-002
3959:1.2292667986326538e-002
3960:1.4292274824356655e-002
3961:1.3558170280232429e-002
3962:1.2368566175935245e-002
3963:1.1042774930560752e-002
3964:1.0059163433110073e-002
3965:1.0969932838726621e-002
3966:1.0491293060224664e-002
3967:9.6733598260976793e-003
3968:8.7163544400894483e-003
3969:7.9829221119181466e-003
3970:8.8264970973269633e-003
3971:8.5152153490411324e-003
3972:7.9407007457604501e-003
3973:7.2251438711438140e-003
3974:6.6554601391272906e-003
3975:1.2937078712598971e-002
3976:1.0579788674294075e-002
3977:7.0648325482238787e-003
3978:3.4750297230308198e-003
3979:9.8061387596587251e-004
3980:1.1436581364962074e-002
3981:9.3456307356088782e-003
3982:6.2237937467765365e-003
3983:3.0307895244505493e-003
3984:8.0945419455922141e-004
3985:9.3644152209542541e-003
3986:7.6456963329113621e-003
3987:5.0734832412586209e-003
3988:2.4354910655440712e-003
3989:5.9625904588113930e-004
3990:7.4409674753281637e-003
3991:6.0733364178646582e-003
3992:4.0197844254485160e-003
3993:1.9058414984051625e-003
3994:4.2756887824779477e-004
3995:6.2129354587715730e-003
3996:5.0729062855187799e-003
3997:3.3557468310530915e-003
3998:1.5818759075699347e-003
3999:3.3794627985832759e-004
4000:4.5703379943385860e-004
4001:-2.6570225642644319e-002
4002:-6.5061241946408818e-002
4003:-1.0226011527645612e-001
4004:-1.2692005388273350e-001
4005:-3.7947855267870642e-003
4006:-2.8073764154846654e-002
4007:-6.2794587620319309e-002
4008:-9.6525541096603176e-002
4009:-1.1899098987711573e-001
4010:-7.6643007811039634e-003
4011:-2.8740254627480550e-002
4012:-5.9143079160546487e-002
4013:-8.8998677331902309e-002
4014:-1.0907206381977928e-001
4015:-8.7329294473340435e-003
4016:-2.7582175602787265e-002
4017:-5.5096704024185920e-002
4018:-8.2506649711352381e-002
4019:-1.0116429099733684e-001
4020:-7.8532754664023471e-003
4021:-2.5742940540212120e-002
4022:-5.2106618831812099e-002
4023:-7.8667987373705742e-002
4024:-9.6919838566282501e-002
4025:-1.3759243179283653e-001
4026:-1.5517261853161185e-001
4027:-1.8101332482526411e-001
4028:-2.0696879575891014e-001
4029:-2.2475924152398299e-001
4030:-1.2921733676219632e-001
4031:-1.4708791048273906e-001
4032:-1.7315976045898851e-001
4033:-1.9911570604957740e-001
4034:-2.1677393262842429e-001
4035:-1.1876488092990913e-001
4036:-1.3670805026157087e-001
4037:-1.6260197957455447e-001
4038:-1.8804221654367603e-001
4039:-2.0515418115534334e-001
4040:-1.1046575210706927e-001
4041:-1.2806242346136676e-001
4042:-1.5316471829687514e-001
4043:-1.7747553283031825e-001
4044:-1.9362214188632182e-001
4045:-1.0603574364926484e-001
4046:-1.2315498526195012e-001
4047:-1.4736404549597099e-001
4048:-1.7055095640227064e-001
4049:-1.8579752954866338e-001
4050:-2.3291919757103846e-001
4051:-2.4651369064803696e-001
4052:-2.6480280521924604e-001
4053:-2.8116850490118794e-001
4054:-2.9123913085523911e-001
4055:-2.2462249075675383e-001
4056:-2.3730221408862859e-001
4057:-2.5455644210415107e-001
4058:-2.7024935725781551e-001
4059:-2.8006861658203636e-001
4060:-2.1251229690279735e-001
4061:-2.2407012186676120e-001
4062:-2.4012763937881143e-001
4063:-2.5515410033086733e-001
4064:-2.6482293798693513e-001
4065:-2.0044888978544381e-001
4066:-2.1114351025940925e-001
4067:-2.2638314436262780e-001
4068:-2.4112197820772033e-001
4069:-2.5089908807353206e-001
4070:-1.9223790043329977e-001
4071:-2.0249170135163108e-001
4072:-2.1739049382496456e-001
4073:-2.3215058806757990e-001
4074:-2.4215028149304349e-001
4075:-2.9443742762693026e-001
4076:-2.9762096870937910e-001
4077:-3.0273184583944224e-001
4078:-3.0837627402373324e-001
4079:-3.1253732808527057e-001
4080:-2.8338950543328223e-001
4081:-2.8710121412916861e-001
4082:-2.9270460931648945e-001
4083:-2.9850769718481557e-001
4084:-3.0258526063062274e-001
4085:-2.6836234678024579e-001
4086:-2.7278266574626425e-001
4087:-2.7901236068908969e-001
4088:-2.8495285155750788e-001
4089:-2.8884332294081949e-001
4090:-2.5470336363604879e-001
4091:-2.5975524670974859e-001
4092:-2.6649841626463971e-001
4093:-2.7246348498970568e-001
4094:-2.7608981814806016e-001
4095:-2.4616206064400911e-001
4096:-2.5160095590993314e-001
4097:-2.5862993782596649e-001
4098:-2.6454696053895022e-001
4099:-2.6794864766035287e-001
4100:-3.1339771265123428e-001
4101:-3.1204881702344450e-001
4102:-3.0891247458901461e-001
4103:-3.0439630602775547e-001
4104:-3.0051944623016941e-001
4105:-3.0338928640545154e-001
4106:-3.0207922203381232e-001
4107:-2.9922551404395126e-001
4108:-2.9526029428561368e-001
4109:-2.9191384150940336e-001
4110:-2.8954494533917630e-001
4111:-2.8827868811786117e-001
4112:-2.8581974536809734e-001
4113:-2.8264220601913687e-001
4114:-2.8005941592459249e-001
4115:-2.7666541995582389e-001
4116:-2.7542745279637032e-001
4117:-2.7334055231550480e-001
4118:-2.7092797040472366e-001
4119:-2.6909332590340340e-001
4120:-2.6842462184046434e-001
4121:-2.6719705725121667e-001
4122:-2.6535116071096576e-001
4123:-2.6344789709915079e-001
4124:-2.6211523093324546e-001
4125:-2.9737986225011664e-001
4126:-2.8940676057008147e-001
4127:-2.7787840160578531e-001
4128:-2.6652512460660810e-001
4129:-2.5887278865639668e-001
4130:-2.8915132183515940e-001
4131:-2.8202375724248580e-001
4132:-2.7166640826806110e-001
4133:-2.6140430112527413e-001
4134:-2.5445122803786008e-001
4135:-2.7781007001506580e-001
4136:-2.7178092687142608e-001
4137:-2.6293370998684451e-001
4138:-2.5406481834488698e-001
4139:-2.4799596511823899e-001
4140:-2.6731081292958675e-001
4141:-2.6221398411667518e-001
4142:-2.5463365476764582e-001
4143:-2.4691473407222964e-001
4144:-2.4156399358805311e-001
4145:-2.6062488174552256e-001
4146:-2.5606926700763538e-001
4147:-2.4921430199370975e-001
4148:-2.4214090549991668e-001
4149:-2.3718510486620126e-001
4150:-2.5448398031986974e-001
4151:-2.4491512143519806e-001
4152:-2.3099222207402872e-001
4153:-2.1717578476525282e-001
4154:-2.0780197382804488e-001
4155:-2.5034222155229807e-001
4156:-2.4119757335782344e-001
4157:-2.2790587833049253e-001
4158:-2.1473252631272588e-001
4159:-2.0580469303580601e-001
4160:-2.4426459974086925e-001
4161:-2.3575513314497792e-001
4162:-2.2340822730722834e-001
4163:-2.1119706275890049e-001
4164:-2.0293628627646679e-001
4165:-2.3817212502319923e-001
4166:-2.3031444771587112e-001
4167:-2.1893665109797478e-001
4168:-2.0771199404937002e-001
4169:-2.0013488205139923e-001
4170:-2.3400315441055244e-001
4171:-2.2660011455835982e-001
4172:-2.1589807873250125e-001
4173:-2.0536106343310326e-001
4174:-1.9826035586036192e-001
4175:-2.0277382477951494e-001
4176:-1.9252960325780130e-001
4177:-1.7787319514658900e-001
4178:-1.6362687276305291e-001
4179:-1.5413396476262137e-001
4180:-2.0101739256969409e-001
4181:-1.9125550926036267e-001
4182:-1.7727044370027159e-001
4183:-1.6365388557955737e-001
4184:-1.5456714066987531e-001
4185:-1.9849224080920311e-001
4186:-1.8938571404603330e-001
4187:-1.7630910949342449e-001
4188:-1.6354012581309021e-001
4189:-1.5499718784410180e-001
4190:-1.9602287304118185e-001
4191:-1.8751112615913088e-001
4192:-1.7525427513390573e-001
4193:-1.6324415841385795e-001
4194:-1.5518445072051931e-001
4195:-1.9436864206633969e-001
4196:-1.8622825155933403e-001
4197:-1.7448022309309821e-001
4198:-1.6293735064373951e-001
4199:-1.5517282420381409e-001
4200:-1.4935511685217007e-001
4201:-1.4010477371964511e-001
4202:-1.2686511028507283e-001
4203:-1.1398957018407001e-001
4204:-1.0540633337948425e-001
4205:-1.4994967585355407e-001
4206:-1.4093669305971149e-001
4207:-1.2804129403138484e-001
4208:-1.1550607010579421e-001
4209:-1.0715296012989543e-001
4210:-1.5060251207255301e-001
4211:-1.4193502896821941e-001
4212:-1.2954070907113863e-001
4213:-1.1750078255196715e-001
4214:-1.0948257963153753e-001
4215:-1.5099647524539028e-001
4216:-1.4267201165737009e-001
4217:-1.3077513896637216e-001
4218:-1.1922687792846563e-001
4219:-1.1154110189031245e-001
4220:-1.5111675580507677e-001
4221:-1.4302510865790705e-001
4222:-1.3146584636327988e-001
4223:-1.2025124749090862e-001
4224:-1.1279105438359982e-001
4225:-1.0121021851160462e-001
4226:-9.3359721729178086e-002
4227:-8.2204913828245893e-002
4228:-7.1455757297343894e-002
4229:-6.4348449898674318e-002
4230:-1.0305708168384040e-001
4231:-9.5365958430298797e-002
4232:-8.4431558713426114e-002
4233:-7.3887389418026042e-002
4234:-6.6911202999119193e-002
4235:-1.0553049761066757e-001
4236:-9.8063133754071108e-002
4237:-8.7437402080802071e-002
4238:-7.7179318643500305e-002
4239:-7.0385519049498191e-002
4240:-1.0772926505661441e-001
4241:-1.0047422235735266e-001
4242:-9.0140408756188228e-002
4243:-8.0151661205490207e-002
4244:-7.3528810196781744e-002
4245:-1.0907294778787718e-001
4246:-1.0195632274535561e-001
4247:-9.1812229890926800e-002
4248:-8.1997782138404376e-002
4249:-7.5485096237308508e-002
4250:-6.0993371846140926e-002
4251:-5.4932380649001585e-002
4252:-4.6344334803976581e-002
4253:-3.8098049030666215e-002
4254:-3.2663192677004446e-002
4255:-6.3599776624194679e-002
4256:-5.7582526085420777e-002
4257:-4.9056417345460797e-002
4258:-4.0869553940472772e-002
4259:-3.5473831023850086e-002
4260:-6.7136372578122827e-002
4261:-6.1186360701709332e-002
4262:-5.2755616523922688e-002
4263:-4.4660435141653076e-002
4264:-3.9325204147621501e-002
4265:-7.0339991142863656e-002
4266:-6.4461003764544708e-002
4267:-5.6131168065031552e-002
4268:-4.8133212621581760e-002
4269:-4.2862259385886108e-002
4270:-7.2336351732825391e-002
4271:-6.6508041000635731e-002
4272:-5.8250299353490548e-002
4273:-5.0321923225668225e-002
4274:-4.5097039414754833e-002
4275:-3.0187545280382366e-002
4276:-2.5907194139302207e-002
4277:-1.9891119882523740e-002
4278:-1.4174534545993538e-002
4279:-1.0442873739822611e-002
4280:-3.3004943858202684e-002
4281:-2.8712066077415003e-002
4282:-2.2675852129559991e-002
4283:-1.6936992804753252e-002
4284:-1.3188895136604054e-002
4285:-3.6867735345810004e-002
4286:-3.2559280823032263e-002
4287:-2.6497626684704730e-002
4288:-2.0730201739413246e-002
4289:-1.6960801263550172e-002
4290:-4.0418013938017180e-002
4291:-3.6097271158401230e-002
4292:-3.0014992433618430e-002
4293:-2.4223817471862176e-002
4294:-2.0436402673451103e-002
4295:-4.2662861100234935e-002
4296:-3.8335616478175870e-002
4297:-3.2242020677126663e-002
4298:-2.6437394341899241e-002
4299:-2.2639567478758990e-002
4300:-8.8394053213891443e-003
4301:-6.2710539104794474e-003
4302:-2.7173871920318808e-003
4303:5.8981507373773883e-004
4304:2.7066216896949212e-003
4305:-1.1565208974963360e-002
4306:-8.9348599484891100e-003
4307:-5.2909241154509229e-003
4308:-1.8940697510503349e-003
4309:2.8360405237315357e-004
4310:-1.5309785430956839e-002
4311:-1.2594804778873078e-002
4312:-8.8276960559441689e-003
4313:-5.3085723497484968e-003
4314:-3.0479223011874389e-003
4315:-1.8760763079844082e-002
4316:-1.5968467624587153e-002
4317:-1.2088900647169911e-002
4318:-8.4582222345941684e-003
4319:-6.1219127633269409e-003
4320:-2.0948667609579277e-002
4321:-1.8107779608127629e-002
4322:-1.4157573681030306e-002
4323:-1.0456873334723808e-002
4324:-8.0731017453663789e-003
4325:3.5065250066813641e-003
4326:4.5391702488391562e-003
4327:5.8853207960234445e-003
4328:7.0341451081492061e-003
4329:7.7052711398254078e-003
4330:1.1243658424006482e-003
4331:2.2562957883087952e-003
4332:3.7473604703661310e-003
4333:5.0405323109584989e-003
4334:5.8099049730470512e-003
4335:-2.1510071304711464e-003
4336:-8.8194915957087435e-004
4337:8.0922539748058068e-004
4338:2.3016773838771798e-003
4339:3.2066579333050525e-003
4340:-5.1732165952655873e-003
4341:-3.7768505151144021e-003
4342:-1.8999462074947087e-003
4343:-2.2259419971929853e-004
4344:8.0817432129332565e-004
4345:-7.0915576993409663e-003
4346:-5.6138978743770192e-003
4347:-3.6184250986385346e-003
4348:-1.8230712291499151e-003
4349:-7.1204703665435733e-004
4350:7.8130761414015922e-003
4351:7.5808200351761739e-003
4352:7.1216746624367883e-003
4353:6.5210655619602062e-003
4354:6.0296353263964561e-003
4355:5.9787677121712242e-003
4356:5.8878283227961287e-003
4357:5.6358926753692891e-003
4358:5.2428116001640148e-003
4359:4.8932812352857043e-003
4360:3.4594024598642225e-003
4361:3.5619933846203259e-003
4362:3.5938525787121431e-003
4363:3.4850324582901553e-003
4364:3.3298863684988423e-003
4365:1.1382283738523773e-003
4366:1.4184107797855651e-003
4367:1.7107242484300342e-003
4368:1.8628245158234678e-003
4369:1.8861238681711324e-003
4370:-3.3297621393780244e-004
4371:5.9321549456084577e-005
4372:5.1608274909845054e-004
4373:8.3294904745602016e-004
4374:9.6894691109317263e-004
4375:5.6348184131743279e-003
4376:4.6041050520752112e-003
4377:3.0483608544093644e-003
4378:1.4374917106919417e-003
4379:3.0578454627467298e-004
4380:4.5852642820619115e-003
4381:3.7534970335461239e-003
4382:2.4912223706488414e-003
4383:1.1763613758877551e-003
4384:2.4825129100370627e-004
4385:3.1396264597316230e-003
4386:2.5759531676508773e-003
4387:1.7093989807574434e-003
4388:7.9397596722048745e-004
4389:1.4077063889646310e-004
4390:1.8025074430029209e-003
4391:1.4793094183879279e-003
4392:9.6803134994615403e-004
4393:4.1160196005814647e-004
4394:5.6826993308822226e-006
4395:9.5176941412582151e-004
4396:7.7691760784494247e-004
4397:4.8501141447818060e-004
4398:1.5049251385521937e-004
4399:-1.0242956158913809e-004
4400:-6.9836740145775827e-003
4401:-2.4621815276699505e-002
4402:-5.0657969951486831e-002
4403:-7.6940307605964403e-002
4404:-9.5029477979474766e-002
4405:-5.5027992841264299e-003
4406:-2.2785547633479890e-002
4407:-4.8206848633439291e-002
4408:-7.3762117806221786e-002
4409:-9.1290307761732054e-002
4410:-3.9898352181647239e-003
4411:-2.0627223798913536e-002
4412:-4.4965200311978086e-002
4413:-6.9272819465294025e-002
4414:-8.5854590663372754e-002
4415:-3.2560167687317836e-003
4416:-1.9099576171096182e-002
4417:-4.2136812015566162e-002
4418:-6.4979364967713671e-002
4419:-8.0466247998542947e-002
4420:-3.2026060958412201e-003
4421:-1.8418763423547473e-002
4422:-4.0442819813875104e-002
4423:-6.2159978505020058e-002
4424:-7.6813871955969878e-002
4425:-1.0400028956470329e-001
4426:-1.2069605121711274e-001
4427:-1.4427547932368340e-001
4428:-1.6682147390454033e-001
4429:-1.8162389343647095e-001
4430:-9.9839283223930542e-002
4431:-1.1553012093343998e-001
4432:-1.3779483528303224e-001
4433:-1.5921255883035343e-001
4434:-1.7335163406873932e-001
4435:-9.3794123712819491e-002
4436:-1.0817077677916147e-001
4437:-1.2874075377905658e-001
4438:-1.4873676365939142e-001
4439:-1.6206185792083513e-001
4440:-8.7806187844539599e-002
4441:-1.0105572781015841e-001
4442:-1.2020491197533580e-001
4443:-1.3905315270365876e-001
4444:-1.5175133753060291e-001
4445:-8.3750020306242609e-002
4446:-9.6337368030632364e-002
4447:-1.1467372915167560e-001
4448:-1.3289558955930875e-001
4449:-1.4527316179437741e-001
4450:-1.8791796610643119e-001
4451:-1.9806405675198235e-001
4452:-2.1285751265770589e-001
4453:-2.2757453569123001e-001
4454:-2.3758059451787675e-001
4455:-1.7948023615155678e-001
4456:-1.8955202474409941e-001
4457:-2.0413732958506486e-001
4458:-2.1852813694647216e-001
4459:-2.2824358886016929e-001
4460:-1.6797564563171891e-001
4461:-1.7788899141114226e-001
4462:-1.9209679693513029e-001
4463:-2.0593721309456361e-001
4464:-2.1517746888687836e-001
4465:-1.5748299060655443e-001
4466:-1.6717890414377048e-001
4467:-1.8092282719311870e-001
4468:-1.9412646899292599e-001
4469:-2.0283253923474459e-001
4470:-1.5089921646752213e-001
4471:-1.6041275407180974e-001
4472:-1.7379026442967144e-001
4473:-1.8650942893063380e-001
4474:-1.9481681837957865e-001
4475:-2.4161163856531337e-001
4476:-2.4709138590154534e-001
4477:-2.5415125065086908e-001
4478:-2.6006476247631710e-001
4479:-2.6344428931290520e-001
4480:-2.3212555303860974e-001
4481:-2.3740442408346768e-001
4482:-2.4433762486815519e-001
4483:-2.5032353135003804e-001
4484:-2.5386687499099420e-001
4485:-2.1883100841830710e-001
4486:-2.2382571363420126e-001
4487:-2.3058806502387300e-001
4488:-2.3669462030814017e-001
4489:-2.4048784874018347e-001
4490:-2.0624563364001075e-001
4491:-2.1096805043757449e-001
4492:-2.1757694551859252e-001
4493:-2.2382154269160542e-001
4494:-2.2787653332534963e-001
4495:-1.9805881032906592e-001
4496:-2.0260211130776867e-001
4497:-2.0911620810509873e-001
4498:-2.1546506561549472e-001
4499:-2.1970563352611489e-001
4500:-2.6393987946811315e-001
4501:-2.6283598468474756e-001
4502:-2.6121305953398344e-001
4503:-2.5958252880965110e-001
4504:-2.5846469993916327e-001
4505:-2.5454064376528551e-001
4506:-2.5389156787193223e-001
4507:-2.5287300839133503e-001
4508:-2.5177355985760347e-001
4509:-2.5097628802560112e-001
4510:-2.4140746804957872e-001
4511:-2.4135535813449335e-001
4512:-2.4112068658820357e-001
4513:-2.4069781085679942e-001
4514:-2.4030089413790920e-001
4515:-2.2902409183003145e-001
4516:-2.2948687033812115e-001
4517:-2.2991589369344637e-001
4518:-2.3004939773166541e-001
4519:-2.2997075857082905e-001
4520:-2.2099855548247188e-001
4521:-2.2176577950067519e-001
4522:-2.2257896420170162e-001
4523:-2.2302334610605928e-001
4524:-2.2311489060379083e-001
4525:-2.5708250954876694e-001
4526:-2.5271848362038818e-001
4527:-2.4613568498482594e-001
4528:-2.3932448013185531e-001
4529:-2.3454199370143369e-001
4530:-2.4973384758645673e-001
4531:-2.4563035961013036e-001
4532:-2.3946337385259389e-001
4533:-2.3310872789407941e-001
4534:-2.2866142974128437e-001
4535:-2.3924712585007621e-001
4536:-2.3553161620432067e-001
4537:-2.2998298649395552e-001
4538:-2.2430636438437276e-001
4539:-2.2035636128110381e-001
4540:-2.2908667666380947e-001
4541:-2.2576681172939636e-001
4542:-2.2084776458916092e-001
4543:-2.1586039285146028e-001
4544:-2.1241535117851254e-001
4545:-2.2233577502813742e-001
4546:-2.1929049353712685e-001
4547:-2.1480782726331038e-001
4548:-2.1029758240846183e-001
4549:-2.0720177450449051e-001
4550:-2.3146505332877881e-001
4551:-2.2430222704246869e-001
4552:-2.1394919944818133e-001
4553:-2.0375791633718601e-001
4554:-1.9689142032791035e-001
4555:-2.2579269208692443e-001
4556:-2.1909152997620340e-001
4557:-2.0939375478935052e-001
4558:-1.9983300329053721e-001
4559:-1.9338288076156759e-001
4560:-2.1777925866692810e-001
4561:-2.1169575414084751e-001
4562:-2.0287200588264562e-001
4563:-1.9414908058318919e-001
4564:-1.8825029268352550e-001
4565:-2.1011413249324817e-001
4566:-2.0457888563819598e-001
4567:-1.9652753620729882e-001
4568:-1.8854080900585274e-001
4569:-1.8312395582189295e-001
4570:-2.0507990110097984e-001
4571:-1.9987917160818167e-001
4572:-1.9229688286544158e-001
4573:-1.8475449555690013e-001
4574:-1.7962686903991468e-001
4575:-1.9310320390878916e-001
4576:-1.8513250327803585e-001
4577:-1.7362521463553426e-001
4578:-1.6231387011411175e-001
4579:-1.5470215653812641e-001
4580:-1.8977707339491476e-001
4581:-1.8211375405752575e-001
4582:-1.7106119560108357e-001
4583:-1.6021005525238344e-001
4584:-1.5291575180012748e-001
4585:-1.8489372564292653e-001
4586:-1.7766886270614540e-001
4587:-1.6726511765181099e-001
4588:-1.5707080672199569e-001
4589:-1.5022964572592035e-001
4590:-1.7999538397686068e-001
4591:-1.7319511104130675e-001
4592:-1.6341987366003610e-001
4593:-1.5386208642005428e-001
4594:-1.4746020148079095e-001
4595:-1.7664178327901223e-001
4596:-1.7012348716005327e-001
4597:-1.6076577806347250e-001
4598:-1.5163099309484651e-001
4599:-1.4552111380254132e-001
4600:-1.5071883112605267e-001
4601:-1.4276058757375554e-001
4602:-1.3139213085814985e-001
4603:-1.2036293199103409e-001
4604:-1.1302623898676262e-001
4605:-1.4908739181337677e-001
4606:-1.4141244939081829e-001
4607:-1.3044434955635612e-001
4608:-1.1979826966648459e-001
4609:-1.1271329641907664e-001
4610:-1.4661976590553491e-001
4611:-1.3933823978828222e-001
4612:-1.2892501196880787e-001
4613:-1.1880856118866211e-001
4614:-1.1207075699930547e-001
4615:-1.4405876110043536e-001
4616:-1.3714516494007412e-001
4617:-1.2724948734275204e-001
4618:-1.1762534387949351e-001
4619:-1.1120922239978143e-001
4620:-1.4225624334395401e-001
4621:-1.3557925505660567e-001
4622:-1.2601555749698262e-001
4623:-1.1670615616752603e-001
4624:-1.1049506118794572e-001
4625:-1.0935942931942234e-001
4626:-1.0232043955966473e-001
4627:-9.2285735285961498e-002
4628:-8.2575566708884551e-002
4629:-7.6131155205738904e-002
4630:-1.0915256844494119e-001
4631:-1.0228132351733216e-001
4632:-9.2488387702664487e-002
4633:-8.3015383175440799e-002
4634:-7.6730280817350310e-002
4635:-1.0865882917628392e-001
4636:-1.0202902372120440e-001
4637:-9.2583974415995807e-002
4638:-8.3452113776535053e-002
4639:-7.7396097808404035e-002
4640:-1.0793831741107952e-001
4641:-1.0154495603925449e-001
4642:-9.2440478076941404e-002
4643:-8.3642446158669975e-002
4644:-7.7810521191229082e-002
4645:-1.0731598915645749e-001
4646:-1.0108122061939917e-001
4647:-9.2205109080447628e-002
4648:-8.3630839176353500e-002
4649:-7.7949071356588295e-002
4650:-7.3010087717510996e-002
4651:-6.7222685100593080e-002
4652:-5.9022583943068849e-002
4653:-5.1149156864607567e-002
4654:-4.5960250211057638e-002
4655:-7.3677486714844351e-002
4656:-6.7997356068057041e-002
4657:-5.9947582218184220e-002
4658:-5.2216448587691172e-002
4659:-4.7120095158911163e-002
4660:-7.4441274228644036e-002
4661:-6.8914564602545955e-002
4662:-6.1079558736191350e-002
4663:-5.3551428436161154e-002
4664:-4.8586942137451690e-002
4665:-7.4951281858111007e-002
4666:-6.9573636079337281e-002
4667:-6.1947017622925295e-002
4668:-5.4615510079775144e-002
4669:-4.9778533737785263e-002
4670:-7.5153733539145007e-002
4671:-6.9875377001452507e-002
4672:-6.2387396074472495e-002
4673:-5.5186492201074869e-002
4674:-5.0434086354794169e-002
4675:-4.3537339595072860e-002
4676:-3.9218596737413354e-002
4677:-3.3136098356451954e-002
4678:-2.7340962167962661e-002
4679:-2.3548692401521153e-002
4680:-4.4730648906321974e-002
4681:-4.0451642339339365e-002
4682:-3.4423828441795881e-002
4683:-2.8679211626854020e-002
4684:-2.4919047299406322e-002
4685:-4.6246207566206378e-002
4686:-4.2027908171804226e-002
4687:-3.6083860653029945e-002
4688:-3.0416910897897224e-002
4689:-2.6706279248281398e-002
4690:-4.7486162651595804e-002
4691:-4.3331562912912673e-002
4692:-3.7475663916413084e-002
4693:-3.1890763364588806e-002
4694:-2.8232656875964310e-002
4695:-4.8174541705418426e-002
4696:-4.4065160752667844e-002
4697:-3.8271974716185007e-002
4698:-3.2745622014500750e-002
4699:-2.9125103460118082e-002
4700:-2.1855626495646620e-002
4701:-1.9000901165965721e-002
4702:-1.5029680987527485e-002
4703:-1.1307073761633169e-002
4704:-8.9078294697210840e-003
4705:-2.3232573412295471e-002
4706:-2.0371593344481728e-002
4707:-1.6387750876420137e-002
4708:-1.2648405855601935e-002
4709:-1.0235366853852491e-002
4710:-2.5031221147765247e-002
4711:-2.2165471699690621e-002
4712:-1.8169573936911657e-002
4713:-1.4412146942543620e-002
4714:-1.1983297148968293e-002
4715:-2.6571109233870373e-002
4716:-2.3705807596606825e-002
4717:-1.9705494508609117e-002
4718:-1.5937625510189405e-002
4719:-1.3498182115863932e-002
4720:-2.7473985461848462e-002
4721:-2.4611987444455689e-002
4722:-2.0613049170366774e-002
4723:-1.6842439480551134e-002
4724:-1.4398759734400248e-002
4725:-7.9138966332530213e-003
4726:-6.4032239574878681e-003
4727:-4.3588578500293211e-003
4728:-2.5139571843188907e-003
4729:-1.3687229359270520e-003
4730:-9.2255665475630914e-003
4731:-7.6667880773415974e-003
4732:-5.5493448233740949e-003
4733:-3.6282392728757733e-003
4734:-2.4291689353680259e-003
4735:-1.0953480415575438e-002
4736:-9.3324854126360483e-003
4737:-7.1200793095194410e-003
4738:-5.0994307009678240e-003
4739:-3.8297524807074800e-003
4740:-1.2452175294371126e-002
4741:-1.0778743187233175e-002
4742:-8.4856950705724209e-003
4743:-6.3798242395637387e-003
4744:-5.0493175650848637e-003
4745:-1.3343895636379197e-002
4746:-1.1640274517527652e-002
4747:-9.3003862987099343e-003
4748:-7.1445476272649928e-003
4749:-5.7781216464115517e-003
4750:-9.6819800586772761e-004
4751:-5.2600398342250742e-004
4752:4.4345891544282549e-006
4753:3.9570333265726612e-004
4754:5.8292585210523672e-004
4755:-1.9935797023449622e-003
4756:-1.4679706329528395e-003
4757:-8.1325706385112551e-004
4758:-2.9518983896518341e-004
4759:-1.9929023888619661e-005
4760:-3.3483581435805650e-003
4761:-2.7140913812640148e-003
4762:-1.8971518417370034e-003
4763:-1.2131632963642783e-003
4764:-8.2247457842028716e-004
4765:-4.5287050289201363e-003
4766:-3.8018172868361385e-003
4767:-2.8461356780326514e-003
4768:-2.0197097133128465e-003
4769:-1.5296298056567115e-003
4770:-5.2345126031139886e-003
4771:-4.4535904987094291e-003
4772:-3.4166584886518364e-003
4773:-2.5064586378124192e-003
4774:-1.9577211191700431e-003
4775:5.9599332026529081e-004
4776:4.8851965703121836e-004
4777:2.9607307517102771e-004
4778:6.1955216750822408e-005
4779:-1.2186393087067896e-004
4780:4.5165648514495156e-005
4781:5.3162959635254334e-005
4782:3.0778810899795448e-005
4783:-3.2125467143199504e-005
4784:-9.8364636285141026e-005
4785:-6.9075440889690583e-004
4786:-5.3764695962700353e-004
4787:-3.4611575503314536e-004
4788:-1.9341895848997979e-004
4789:-1.1145959824121189e-004
4790:-1.3426483308117819e-003
4791:-1.0729338532516565e-003
4792:-7.0922678441889537e-004
4793:-3.8266840237861514e-004
4794:-1.8101362259910906e-004
4795:-1.7395326500715602e-003
4796:-1.4065674301300473e-003
4797:-9.4926838399117910e-004
4798:-5.2796687739821197e-004
4799:-2.6095235111353137e-004
4800:-3.2878387353902443e-003
4801:-1.8121674051637403e-002
4802:-3.9576092847527680e-002
4803:-6.0712001148080917e-002
4804:-7.4962296912327864e-002
4805:-3.4035959746160989e-003
4806:-1.7439550189594612e-002
4807:-3.7781689529257804e-002
4808:-5.7872018999240361e-002
4809:-7.1446635139954834e-002
4810:-3.4475011441312169e-003
4811:-1.6400462689787180e-002
4812:-3.5238873198555128e-002
4813:-5.3923149145726441e-002
4814:-6.6593722467636368e-002
4815:-3.3421291718046062e-003
4816:-1.5313604206087544e-002
4817:-3.2796929845724805e-002
4818:-5.0223796231846474e-002
4819:-6.2091832892869625e-002
4820:-3.1843974122625490e-003
4821:-1.4543959653339494e-002
4822:-3.1187334793362741e-002
4823:-4.7840951305511276e-002
4824:-5.9219276651087609e-002
4825:-8.1723704008233325e-002
4826:-9.4044341905158133e-002
4827:-1.1202222362556127e-001
4828:-1.2992373699857146e-001
4829:-1.4210446129177648e-001
4830:-7.7932004463521859e-002
4831:-8.9816098083123061e-002
4832:-1.0712358655559996e-001
4833:-1.2431771662957139e-001
4834:-1.3599412758234286e-001
4835:-7.2697634715426021e-002
4836:-8.3946284061443638e-002
4837:-1.0027765946661717e-001
4838:-1.1644150884586081e-001
4839:-1.2738323561457685e-001
4840:-6.7841346583079512e-002
4841:-7.8459096295754469e-002
4842:-9.3821013730654240e-002
4843:-1.0896123751219039e-001
4844:-1.1917282473710994e-001
4845:-6.4742326180540641e-002
4846:-7.4931857800962828e-002
4847:-8.9635574717506675e-002
4848:-1.0408060792958786e-001
4849:-1.1379620799913824e-001
4850:-1.4764096829633683e-001
4851:-1.5698870125298386e-001
4852:-1.7012189284752030e-001
4853:-1.8259493555571518e-001
4854:-1.9073321704672450e-001
4855:-1.4127873274057917e-001
4856:-1.5018680620842853e-001
4857:-1.6276956581568885e-001
4858:-1.7480317450745675e-001
4859:-1.8270515466313297e-001
4860:-1.3230766864377813e-001
4861:-1.4060222049511212e-001
4862:-1.5242331985002511e-001
4863:-1.6385781190722598e-001
4864:-1.7144406480887228e-001
4865:-1.2374743553682094e-001
4866:-1.3146448562577576e-001
4867:-1.4257667161513987e-001
4868:-1.5346479392457121e-001
4869:-1.6077133942632327e-001
4870:-1.1813787888890505e-001
4871:-1.2548126106503513e-001
4872:-1.3613965205441184e-001
4873:-1.4668497733472080e-001
4874:-1.5382121307710095e-001
4875:-1.9391688508335628e-001
4876:-1.9841393817470579e-001
4877:-2.0489684310180611e-001
4878:-2.1125792569012283e-001
4879:-2.1553178942336571e-001
4880:-1.8583560274288566e-001
4881:-1.9031943153122610e-001
4882:-1.9675865840567883e-001
4883:-2.0304716892321648e-001
4884:-2.0725487194276085e-001
4885:-1.7449873314458741e-001
4886:-1.7894133282727073e-001
4887:-1.8528458149853178e-001
4888:-1.9143480188409973e-001
4889:-1.9552375658173410e-001
4890:-1.6375278873672988e-001
4891:-1.6812817571745711e-001
4892:-1.7433739623099198e-001
4893:-1.8031127653004420e-001
4894:-1.8425549930947363e-001
4895:-1.5675413389505621e-001
4896:-1.6106869231369392e-001
4897:-1.6716452387413933e-001
4898:-1.7299612120198674e-001
4899:-1.7682657900862581e-001
4900:-2.1685468418330700e-001
4901:-2.1769278856514024e-001
4902:-2.1860807163223722e-001
4903:-2.1915253431258996e-001
4904:-2.1931126276952190e-001
4905:-2.0855323992681635e-001
4906:-2.0938896540490837e-001
4907:-2.1035577478953224e-001
4908:-2.1101713970027144e-001
4909:-2.1129326373958773e-001
4910:-1.9678080847326038e-001
4911:-1.9761375171630702e-001
4912:-1.9865704250789520e-001
4913:-1.9949062424589203e-001
4914:-1.9993936185371661e-001
4915:-1.8546481815852287e-001
4916:-1.8629581272839318e-001
4917:-1.8741680558135754e-001
4918:-1.8842382480102021e-001
4919:-1.8904600953922848e-001
4920:-1.7799961465882255e-001
4921:-1.7882975748444085e-001
4922:-1.8000451300235290e-001
4923:-1.8113067079983453e-001
4924:-1.8187177827990372e-001
4925:-2.1858490139978712e-001
4926:-2.1568289081814010e-001
4927:-2.1141895326363364e-001
4928:-2.0713804410044417e-001
4929:-2.0420494002243733e-001
4930:-2.1067032487927950e-001
4931:-2.0803737309099438e-001
4932:-2.0416813589658561e-001
4933:-2.0028275312013882e-001
4934:-1.9762022118976919e-001
4935:-1.9945658039874703e-001
4936:-1.9717267239048078e-001
4937:-1.9381558703677934e-001
4938:-1.9044356572098470e-001
4939:-1.8813229370194007e-001
4940:-1.8868996466022739e-001
4941:-1.8670166644106667e-001
4942:-1.8377848506346794e-001
4943:-1.8084157734371731e-001
4944:-1.7882813124508140e-001
4945:-1.8159456775744434e-001
4946:-1.7977743250850409e-001
4947:-1.7710559444458893e-001
4948:-1.7442085606517790e-001
4949:-1.7258008629104640e-001
4950:-2.0216208290373541e-001
4951:-1.9710493601989351e-001
4952:-1.8973204781989769e-001
4953:-1.8239803960643283e-001
4954:-1.7741212431544373e-001
4955:-1.9570714949711701e-001
4956:-1.9089392145463632e-001
4957:-1.8389565650641371e-001
4958:-1.7695698896700651e-001
4959:-1.7225294867735788e-001
4960:-1.8639441728695455e-001
4961:-1.8192509905418897e-001
4962:-1.7545597785978168e-001
4963:-1.6907679232940592e-001
4964:-1.6477224423097708e-001
4965:-1.7724778946295797e-001
4966:-1.7310659743863663e-001
4967:-1.6714350674981615e-001
4968:-1.6130068998024988e-001
4969:-1.5737985047175160e-001
4970:-1.7109717406316063e-001
4971:-1.6717098391905807e-001
4972:-1.6154017095583412e-001
4973:-1.5605034933415948e-001
4974:-1.5238246786586884e-001
4975:-1.7450138916300689e-001
4976:-1.6813295362761907e-001
4977:-1.5899432294972204e-001
4978:-1.5007817076500238e-001
4979:-1.4411733561371814e-001
4980:-1.6949286283957657e-001
4981:-1.6342481792803945e-001
4982:-1.5471999869982681e-001
4983:-1.4623043739598429e-001
4984:-1.4055676414439208e-001
4985:-1.6222274563212316e-001
4986:-1.5656859275156670e-001
4987:-1.4846097313561488e-001
4988:-1.4055803776086959e-001
4989:-1.3527888461241208e-001
4990:-1.5502902958401965e-001
4991:-1.4975787517029548e-001
4992:-1.4220221513522868e-001
4993:-1.3484066565820213e-001
4994:-1.2992513904871475e-001
4995:-1.5016047697873849e-001
4996:-1.4513311343202848e-001
4997:-1.3792838108604336e-001
4998:-1.3091053872930472e-001
4999:-1.2622557426267744e-001
5000:-1.4092129699231398e-001
5001:-1.3436395514259855e-001
5002:-1.2497197726693771e-001
5003:-1.1583014962751664e-001
5004:-1.0973110525600943e-001
5005:-1.3749366131613217e-001
5006:-1.3117257693533310e-001
5007:-1.2212740237051045e-001
5008:-1.1333336649854159e-001
5009:-1.0747239053636107e-001
5010:-1.3240123216742550e-001
5011:-1.2641598379826630e-001
5012:-1.1786381997848588e-001
5013:-1.0956424233129583e-001
5014:-1.0404175429237267e-001
5015:-1.2722198122385986e-001
5016:-1.2156052336715358e-001
5017:-1.1348373105990009e-001
5018:-1.0566097240497736e-001
5019:-1.0046492679010417e-001
5020:-1.2363528029858631e-001
5021:-1.1818801148509611e-001
5022:-1.1042570584608732e-001
5023:-1.0291842231603250e-001
5024:-9.7938376684792619e-002
5025:-1.0660429817505077e-001
5026:-1.0046257733108027e-001
5027:-9.1719969635689944e-002
5028:-8.3275930996677502e-002
5029:-7.7681215215219188e-002
5030:-1.0445911048457308e-001
5031:-9.8521573741256543e-002
5032:-9.0071051714055134e-002
5033:-8.1910876893547563e-002
5034:-7.6505282052948528e-002
5035:-1.0118966454584516e-001
5036:-9.5541447964043361e-002
5037:-8.7504470765492184e-002
5038:-7.9745800831075214e-002
5039:-7.4607467906544295e-002
5040:-9.7768017626444909e-002
5041:-9.2397612723087649e-002
5042:-8.4757327518304171e-002
5043:-7.7383309635092531e-002
5044:-7.2500730143542996e-002
5045:-9.5343984204418530e-002
5046:-9.0156678837284968e-002
5047:-8.2777603408495423e-002
5048:-7.5656573451601469e-002
5049:-7.0942030336488673e-002
5050:-7.4923725895848933e-002
5051:-6.9706563525567339e-002
5052:-6.2305170679033836e-002
5053:-5.5187261453433431e-002
5054:-5.0489466286373914e-002
5055:-7.3831906906103958e-002
5056:-6.8755928974794031e-002
5057:-6.1556193663397804e-002
5058:-5.4633892045807472e-002
5059:-5.0066197313226930e-002
5060:-7.2054327507544161e-002
5061:-6.7183256047850110e-002
5062:-6.0276127759942198e-002
5063:-5.3637573751258168e-002
5064:-4.9258554254934028e-002
5065:-7.0064329683251297e-002
5066:-6.5395975927829697e-002
5067:-5.8778249468224818e-002
5068:-5.2420237873256226e-002
5069:-4.8227704845838326e-002
5070:-6.8583341247567195e-002
5071:-6.4052161914714967e-002
5072:-5.7630220787618161e-002
5073:-5.1461944598048794e-002
5074:-4.7395501988700427e-002
5075:-4.8252904546341055e-002
5076:-4.4179122563631996e-002
5077:-3.8435424202180185e-002
5078:-3.2955418281143525e-002
5079:-2.9364744298979430e-002
5080:-4.7886855187539587e-002
5081:-4.3906621197412184e-002
5082:-3.8293059424938138e-002
5083:-3.2935045055033939e-002
5084:-2.9422996631786987e-002
5085:-4.7162621018643221e-002
5086:-4.3319719448164505e-002
5087:-3.7897228781488566e-002
5088:-3.2718358056824964e-002
5089:-2.9321789884806167e-002
5090:-4.6214725825853835e-002
5091:-4.2509563436234493e-002
5092:-3.7278739529834355e-002
5093:-3.2279608104886462e-002
5094:-2.8998926945303625e-002
5095:-4.5438909581498210e-002
5096:-4.1828040407174936e-002
5097:-3.6728444381727308e-002
5098:-3.1852395799894746e-002
5099:-2.8651085421943317e-002
5100:-2.7724320815263413e-002
5101:-2.4874448111488225e-002
5102:-2.0890780454316252e-002
5103:-1.7132487525092052e-002
5104:-1.4695521365083751e-002
5105:-2.7813841052260375e-002
5106:-2.5008091504658252e-002
5107:-2.1082758599969834e-002
5108:-1.7375338841459167e-002
5109:-1.4968825556267990e-002
5110:-2.7759559410471153e-002
5111:-2.5022536680224361e-002
5112:-2.1188652105527412e-002
5113:-1.7561754058384581e-002
5114:-1.5203949053565083e-002
5115:-2.7484972707112157e-002
5116:-2.4821565537899503e-002
5117:-2.1086288289675081e-002
5118:-1.7547070950385435e-002
5119:-1.5242862969596009e-002
5120:-2.7170874479982208e-002
5121:-2.4560547080093267e-002
5122:-2.0896720502545037e-002
5123:-1.7421492252169921e-002
5124:-1.5156693759367047e-002
5125:-1.3640712691298221e-002
5126:-1.1930678430811633e-002
5127:-9.5791526908077154e-003
5128:-7.4090070034323347e-003
5129:-6.0312771291505382e-003
5130:-1.3922922146971413e-002
5131:-1.2217374618713759e-002
5132:-9.8662473384835084e-003
5133:-7.6891652640230486e-003
5134:-6.3024840302549545e-003
5135:-1.4173819414359308e-002
5136:-1.2481440258927298e-002
5137:-1.0140558590588811e-002
5138:-7.9629810979443688e-003
5139:-6.5697897147331090e-003
5140:-1.4231755156479913e-002
5141:-1.2560385777747917e-002
5142:-1.0241232545213622e-002
5143:-8.0746424582931083e-003
5144:-6.6827823295031816e-003
5145:-1.4160441938119238e-002
5146:-1.2507925440843472e-002
5147:-1.0210208222639718e-002
5148:-8.0577193032029988e-003
5149:-6.6712739641633578e-003
5150:-5.4796146323818316e-003
5151:-4.6786461445539581e-003
5152:-3.6107268248171246e-003
5153:-2.6676004746558099e-003
5154:-2.0952638047158335e-003
5155:-5.7418883840016114e-003
5156:-4.9155202731212284e-003
5157:-3.8061343291620085e-003
5158:-2.8164645487431281e-003
5159:-2.2094270956081394e-003
5160:-6.0006036723828067e-003
5161:-5.1480449626446845e-003
5162:-3.9940503339904020e-003
5163:-2.9523374769397444e-003
5164:-2.3054889578010772e-003
5165:-6.1103433592944257e-003
5166:-5.2446718546541767e-003
5167:-4.0652194640730631e-003
5168:-2.9906144531554198e-003
5169:-2.3170326719437820e-003
5170:-6.0996805608970845e-003
5171:-5.2325691330208715e-003
5172:-4.0467363117742709e-003
5173:-2.9606740641585864e-003
5174:-2.2763511995949428e-003
5175:-1.8648414297312683e-003
5176:-1.5079783414827972e-003
5177:-1.0153500457084222e-003
5178:-5.5832282520346631e-004
5179:-2.6668407277811166e-004
5180:-1.9616595670434132e-003
5181:-1.5728840694077392e-003
5182:-1.0331848967180526e-003
5183:-5.2868407897480778e-004
5184:-2.0439509773741276e-004
5185:-2.0401481638951105e-003
5186:-1.6243117244793799e-003
5187:-1.0444887214207197e-003
5188:-4.9927433624858168e-004
5189:-1.4684396250547017e-004
5190:-2.0434201544582836e-003
5191:-1.6239006215154868e-003
5192:-1.0381879276790463e-003
5193:-4.8649411467208820e-004
5194:-1.2930019666574071e-004
5195:-2.0024347802148315e-003
5196:-1.5938331347972012e-003
5197:-1.0237695521446912e-003
5198:-4.8732213001897307e-004
5199:-1.4030828011090519e-004
5200:-3.0810852949288915e-003
5201:-1.4144829182307942e-002
5202:-3.0366527532714991e-002
5203:-4.6612151860215188e-002
5204:-5.7719730265320325e-002
5205:-2.8849522912398119e-003
5206:-1.3378919411344918e-002
5207:-2.8755251378581884e-002
5208:-4.4142442945418081e-002
5209:-5.4656305817731052e-002
5210:-2.6189031718836914e-003
5211:-1.2299836295555826e-002
5212:-2.6469474257925483e-002
5213:-4.0630837629883947e-002
5214:-5.0296610968069547e-002
5215:-2.3780071677969891e-003
5216:-1.1271264956639484e-002
5217:-2.4271343724486701e-002
5218:-3.7244013711885397e-002
5219:-4.6087056177519771e-002
5220:-2.2279569081497226e-003
5221:-1.0597897252833968e-002
5222:-2.2820643912361400e-002
5223:-3.5002915413974371e-002
5224:-4.3298701669929648e-002
5225:-6.3109528603751103e-002
5226:-7.3044890382828798e-002
5227:-8.7380261299663031e-002
5228:-1.0146153133072582e-001
5229:-1.1093135769036269e-001
5230:-5.9746456945365914e-002
5231:-6.9121028824248962e-002
5232:-8.2681426624240398e-002
5233:-9.6042675089856103e-002
5234:-1.0505238767816544e-001
5235:-5.4959638441724551e-002
5236:-6.3537418256561021e-002
5237:-7.5998717609681507e-002
5238:-8.8341337783833587e-002
5239:-9.6701686788876626e-002
5240:-5.0336834813437550e-002
5241:-5.8146843648294026e-002
5242:-6.9551542556598067e-002
5243:-8.0918032441327226e-002
5244:-8.8658038947172293e-002
5245:-4.7274252992258507e-002
5246:-5.4576641133695168e-002
5247:-6.5284227044198923e-002
5248:-7.6008555482525858e-002
5249:-8.3341617423824010e-002
5250:-1.1516257958698214e-001
5251:-1.2232641931479861e-001
5252:-1.3274750698799645e-001
5253:-1.4308597164424697e-001
5254:-1.5009843865750686e-001
5255:-1.0908299899607399e-001
5256:-1.1590704892131230e-001
5257:-1.2583755176067829e-001
5258:-1.3569374804681256e-001
5259:-1.4238166175859432e-001
5260:-1.0044532023838507e-001
5261:-1.0677399185714728e-001
5262:-1.1598931826451478e-001
5263:-1.2514251661245107e-001
5264:-1.3135736410141288e-001
5265:-9.2122767576694020e-002
5266:-9.7958680607352230e-002
5267:-1.0646266685558309e-001
5268:-1.1491670353817002e-001
5269:-1.2066110452267455e-001
5270:-8.6620526017243626e-002
5271:-9.2121448802366390e-002
5272:-1.0014187860977877e-001
5273:-1.0812067531527389e-001
5274:-1.1354532255533617e-001
5275:-1.5298124853824666e-001
5276:-1.5721705684871520e-001
5277:-1.6320559211108548e-001
5278:-1.6893942925777444e-001
5279:-1.7270860797047125e-001
5280:-1.4511637584883269e-001
5281:-1.4911326379089576e-001
5282:-1.5480768942526835e-001
5283:-1.6031368598770102e-001
5284:-1.6396535511332319e-001
5285:-1.3387672023149627e-001
5286:-1.3752745521816837e-001
5287:-1.4279663628672495e-001
5288:-1.4797443158994428e-001
5289:-1.5145773972774695e-001
5290:-1.2296689854081863e-001
5291:-1.2627589934467964e-001
5292:-1.3112630662592112e-001
5293:-1.3598237144840286e-001
5294:-1.3930173737096277e-001
5295:-1.1570631093658292e-001
5296:-1.1878448695637746e-001
5297:-1.2335263965123698e-001
5298:-1.2799271893109043e-001
5299:-1.3120267085090537e-001
5300:-1.7386631615604570e-001
5301:-1.7470139685091024e-001
5302:-1.7590213736692661e-001
5303:-1.7707656820471865e-001
5304:-1.7786344722941563e-001
5305:-1.6509952439731157e-001
5306:-1.6594689636993873e-001
5307:-1.6718412912720698e-001
5308:-1.6841703010375769e-001
5309:-1.6925646586889970e-001
5310:-1.5255276130486153e-001
5311:-1.5339608082837369e-001
5312:-1.5465446023128590e-001
5313:-1.5594069192805543e-001
5314:-1.5683503933075599e-001
5315:-1.4035205205674486e-001
5316:-1.4116511217537128e-001
5317:-1.4240626118542452e-001
5318:-1.4370744656390080e-001
5319:-1.4463049864840460e-001
5320:-1.3221926171475518e-001
5321:-1.3299659963764340e-001
5322:-1.3420393074161330e-001
5323:-1.3549327611150910e-001
5324:-1.3642087146295592e-001
5325:-1.7761495870787880e-001
5326:-1.7586094235868588e-001
5327:-1.7328970771183033e-001
5328:-1.7071528600818911e-001
5329:-1.6895543068755697e-001
5330:-1.6904293133235676e-001
5331:-1.6737782132151743e-001
5332:-1.6496811766713337e-001
5333:-1.6259247022907228e-001
5334:-1.6098975423510131e-001
5335:-1.5666489953082413e-001
5336:-1.5512149753072066e-001
5337:-1.5293591195912742e-001
5338:-1.5083892104543709e-001
5339:-1.4945783233716434e-001
5340:-1.4449449409718285e-001
5341:-1.4306271623366121e-001
5342:-1.4108648208404603e-001
5343:-1.3925338103390639e-001
5344:-1.3808383573718275e-001
5345:-1.3630285669147216e-001
5346:-1.3494151061210213e-001
5347:-1.3309975361918017e-001
5348:-1.3143837299883954e-001
5349:-1.3040749247459230e-001
5350:-1.6752157500449591e-001
5351:-1.6370632935770388e-001
5352:-1.5824497888947242e-001
5353:-1.5293293548139095e-001
5354:-1.4939123364641238e-001
5355:-1.5965321830027207e-001
5356:-1.5605483558348165e-001
5357:-1.5092104732189113e-001
5358:-1.4594844060101850e-001
5359:-1.4264535680039964e-001
5360:-1.4825608387531808e-001
5361:-1.4495347614867193e-001
5362:-1.4026744759567764e-001
5363:-1.3575998937902531e-001
5364:-1.3278453838849369e-001
5365:-1.3700769290116141e-001
5366:-1.3397495750724484e-001
5367:-1.2969875723386970e-001
5368:-1.2561851609246402e-001
5369:-1.2294479525459330e-001
5370:-1.2941184742628081e-001
5371:-1.2654851899048666e-001
5372:-1.2253038717270945e-001
5373:-1.1872008896746386e-001
5374:-1.1623753019209557e-001
5375:-1.4723262693084485e-001
5376:-1.4232555225082233e-001
5377:-1.3529834828495990e-001
5378:-1.2845967355191659e-001
5379:-1.2389800119198681e-001
5380:-1.4060690804858528e-001
5381:-1.3593267021709340e-001
5382:-1.2925791042372131e-001
5383:-1.2278532514038555e-001
5384:-1.1848148899029266e-001
5385:-1.3091365195629034e-001
5386:-1.2656926935706947e-001
5387:-1.2039435778410029e-001
5388:-1.1444160264252654e-001
5389:-1.1050423038158909e-001
5390:-1.2123149415420016e-001
5391:-1.1720376650813419e-001
5392:-1.1150937288214589e-001
5393:-1.0605711760890905e-001
5394:-1.0247300895799917e-001
5395:-1.1462610832654192e-001
5396:-1.1080703344376586e-001
5397:-1.0542966921036970e-001
5398:-1.0030808860693954e-001
5399:-9.6957632080641606e-002
5400:-1.2136983368073159e-001
5401:-1.1604227987538772e-001
5402:-1.0845526523336124e-001
5403:-1.0112325165540414e-001
5404:-9.6262882476232839e-002
5405:-1.1608512356288037e-001
5406:-1.1101200038703007e-001
5407:-1.0379666867748301e-001
5408:-9.6835267093945118e-002
5409:-9.2227366490488016e-002
5410:-1.0829502759231377e-001
5411:-1.0358268270867367e-001
5412:-9.6894349243616437e-002
5413:-9.0458377640335957e-002
5414:-8.6208382129561417e-002
5415:-1.0044402098009578e-001
5416:-9.6078423961063114e-002
5417:-8.9896542811169489e-002
5418:-8.3965455258821681e-002
5419:-8.0059334413098551e-002
5420:-9.5047717150079841e-002
5421:-9.0910845769429566e-002
5422:-8.5063005582398765e-002
5423:-7.9464888054844002e-002
5424:-7.5785530793742756e-002
5425:-9.3725616864600098e-002
5426:-8.8641695887887811e-002
5427:-8.1411589962932907e-002
5428:-7.4436647653361540e-002
5429:-6.9820209111295717e-002
5430:-8.9811789656085300e-002
5431:-8.4951750566805401e-002
5432:-7.8046907838679958e-002
5433:-7.1394155678420113e-002
5434:-6.6995968927430941e-002
5435:-8.3966831338767603e-002
5436:-7.9430091646477227e-002
5437:-7.2994896697143874e-002
5438:-6.6807292195014703e-002
5439:-6.2724160219777364e-002
5440:-7.7986850294125928e-002
5441:-7.3768003096844864e-002
5442:-6.7794538147210329e-002
5443:-6.2064163524113425e-002
5444:-5.8290679422623143e-002
5445:-7.3825649441846206e-002
5446:-6.9820778206690581e-002
5447:-6.4158070378496274e-002
5448:-5.8735379829313941e-002
5449:-5.5170241593612057e-002
5450:-6.7508086381347185e-002
5451:-6.3061023705363498e-002
5452:-5.6759011833022462e-002
5453:-5.0706802705840506e-002
5454:-4.6717400873493110e-002
5455:-6.4789044001202334e-002
5456:-6.0534272567770803e-002
5457:-5.4506202504392601e-002
5458:-4.8718847973118852e-002
5459:-4.4905088800897226e-002
5460:-6.0669497655487389e-002
5461:-5.6693857859831831e-002
5462:-5.1063346423453067e-002
5463:-4.5660243352625161e-002
5464:-4.2101235905669589e-002
5465:-5.6386154785394695e-002
5466:-5.2686727204569156e-002
5467:-4.7449499239838308e-002
5468:-4.2426372474099847e-002
5469:-3.9119197329449767e-002
5470:-5.3367022606466065e-002
5471:-4.9854537625715331e-002
5472:-4.4883419005169310e-002
5473:-4.0117314370554866e-002
5474:-3.6980433243562427e-002
5475:-4.4796052136900681e-002
5476:-4.1246013651587324e-002
5477:-3.6231501158778594e-002
5478:-3.1435787187149143e-002
5479:-2.8286607050001772e-002
5480:-4.3065527674485397e-002
5481:-3.9659993821561948e-002
5482:-3.4848283797064179e-002
5483:-3.0244904818886035e-002
5484:-2.7221051969325460e-002
5485:-4.0381184998414081e-002
5486:-3.7188705836154960e-002
5487:-3.2676091687894378e-002
5488:-2.8356480186517177e-002
5489:-2.5517599036722495e-002
5490:-3.7518349759358707e-002
5491:-3.4540641944169240e-002
5492:-3.0329637515761197e-002
5493:-2.6296307334796806e-002
5494:-2.3644114541163861e-002
5495:-3.5460811048537842e-002
5496:-3.2630752932907375e-002
5497:-2.8627156557886509e-002
5498:-2.4790766955439209e-002
5499:-2.2267046516569633e-002
5500:-2.6829628880134127e-002
5501:-2.4258153070042240e-002
5502:-2.0647009494386078e-002
5503:-1.7219460170073586e-002
5504:-1.4984345355147763e-002
5505:-2.5821396104954805e-002
5506:-2.3348764378006832e-002
5507:-1.9872142157099620e-002
5508:-1.6566963230606715e-002
5509:-1.4408430865158712e-002
5510:-2.4203048080497246e-002
5511:-2.1878275944496265e-002
5512:-1.8603204586488026e-002
5513:-1.5481782859781206e-002
5514:-1.3438510512112594e-002
5515:-2.2416050716765844e-002
5516:-2.0242838882385605e-002
5517:-1.7174737647572262e-002
5518:-1.4242492380953911e-002
5519:-1.2318180761708758e-002
5520:-2.1098837354375115e-002
5521:-1.9031249634132920e-002
5522:-1.6107598320887755e-002
5523:-1.3307652018896086e-002
5524:-1.1466702880148125e-002
5525:-1.4000481181226859e-002
5526:-1.2366905242498860e-002
5527:-1.0092924018552432e-002
5528:-7.9594170431916186e-003
5529:-6.5832024199930133e-003
5530:-1.3458052839791516e-002
5531:-1.1879386834815353e-002
5532:-9.6763084258269221e-003
5533:-7.6024065022737147e-003
5534:-6.2604033060364109e-003
5535:-1.2539301400597055e-002
5536:-1.1046288002724612e-002
5537:-8.9547168627036686e-003
5538:-6.9757779480636847e-003
5539:-5.6891168032592622e-003
5540:-1.1472674723045015e-002
5541:-1.0071545383530155e-002
5542:-8.1006067480147992e-003
5543:-6.2257560778191719e-003
5544:-5.0006684356878259e-003
5545:-1.0659325794653698e-002
5546:-9.3245229617131796e-003
5547:-7.4412053841795382e-003
5548:-5.6426780088058189e-003
5549:-4.4632183664761235e-003
5550:-6.0158902817597911e-003
5551:-5.1556048335063484e-003
5552:-3.9765642716852508e-003
5553:-2.8934870106944689e-003
5554:-2.2090148634108481e-003
5555:-5.7084733899371602e-003
5556:-4.8746893873742800e-003
5557:-3.7261730545190205e-003
5558:-2.6637749353129723e-003
5559:-1.9877671584905368e-003
5560:-5.1626169063772025e-003
5561:-4.3737816095459729e-003
5562:-3.2789563919821589e-003
5563:-2.2558324030101619e-003
5564:-1.5983601332151516e-003
5565:-4.5030504287490577e-003
5566:-3.7664613477020508e-003
5567:-2.7360136000820871e-003
5568:-1.7628500959927696e-003
5569:-1.1312108432470253e-003
5570:-3.9873067157904264e-003
5571:-3.2905887677622519e-003
5572:-2.3102436011582603e-003
5573:-1.3773375908882183e-003
5574:-7.6753239596495681e-004
5575:-1.9379077947384916e-003
5576:-1.5415308683417407e-003
5577:-9.8922663530943392e-004
5578:-4.7036941302139730e-004
5579:-1.3527038469798633e-004
5580:-1.7265521614908813e-003
5581:-1.3632860368075421e-003
5582:-8.5924975311994518e-004
5583:-3.8840024963993915e-004
5584:-8.5935257531376795e-005
5585:-1.3553674843462444e-003
5586:-1.0490926031457108e-003
5587:-6.2819271275614628e-004
5588:-2.4009852520475924e-004
5589:6.0733910369991646e-006
5590:-9.1088121232534643e-004
5591:-6.7170443886864788e-004
5592:-3.4874126890289107e-004
5593:-5.8202724402923846e-005
5594:1.2156925171337292e-004
5595:-5.6523053871715444e-004
5596:-3.7768124104735416e-004
5597:-1.3010153588309946e-004
5598:8.5313774365927596e-005
5599:2.1393504019895715e-004
5600:-2.1452095362751453e-003
5601:-1.0213777238705920e-002
5602:-2.1997119049652257e-002
5603:-3.3742267898688456e-002
5604:-4.1740862698474185e-002
5605:-1.9677754867296559e-003
5606:-9.3742350945819324e-003
5607:-2.0206517576267378e-002
5608:-3.1022618113768892e-002
5609:-3.8399430960841648e-002
5610:-1.7199901842062050e-003
5611:-8.1659823174643383e-003
5612:-1.7618893694262248e-002
5613:-2.7087855702157018e-002
5614:-3.3563254018957024e-002
5615:-1.4865210740774475e-003
5616:-6.9828757524861571e-003
5617:-1.5072275328593517e-002
5618:-2.3209958111102238e-002
5619:-2.8794771917339406e-002
5620:-1.3353155621183743e-003
5621:-6.1894037051869535e-003
5622:-1.3356799607703591e-002
5623:-2.0594489734325126e-002
5624:-2.5577363147085221e-002
5625:-4.5568819062186697e-002
5626:-5.2594989862796593e-002
5627:-6.2914562283550704e-002
5628:-7.3270456366695519e-002
5629:-8.0363171682839588e-002
5630:-4.1920573367892143e-002
5631:-4.8365960151104857e-002
5632:-5.7853372884402593e-002
5633:-6.7398892482507397e-002
5634:-7.3950736209396878e-002
5635:-3.6639387332858986e-002
5636:-4.2241962012195274e-002
5637:-5.0522017998352549e-002
5638:-5.8892082744351766e-002
5639:-6.4659561476039767e-002
5640:-3.1430987715563782e-002
5641:-3.6199875756329838e-002
5642:-4.3285938177853978e-002
5643:-5.0493911254247549e-002
5644:-5.5486150456038996e-002
5645:-2.7916093211349812e-002
5646:-3.2120915898649981e-002
5647:-3.8399301171439262e-002
5648:-4.4821382301522279e-002
5649:-4.9289468577991047e-002
5650:-8.3528261162342313e-002
5651:-8.8822807998402073e-002
5652:-9.6555687940576826e-002
5653:-1.0426436168944535e-001
5654:-1.0951456062676203e-001
5655:-7.6854228334608934e-002
5656:-8.1675544230075448e-002
5657:-8.8765906351729484e-002
5658:-9.5892047323291110e-002
5659:-1.0077891325353978e-001
5660:-6.7182958984951802e-002
5661:-7.1315301008372162e-002
5662:-7.7470654112201262e-002
5663:-8.3749627184664943e-002
5664:-8.8108451983934702e-002
5665:-5.7632999982755187e-002
5666:-6.1081143037486164e-002
5667:-6.6308479414070934e-002
5668:-7.1747276878020821e-002
5669:-7.5582835449644850e-002
5670:-5.1181218499482935e-002
5671:-5.4164878661197825e-002
5672:-5.8762507715413033e-002
5673:-6.3631582900198172e-002
5674:-6.7112556512344837e-002
5675:-1.1159800725408769e-001
5676:-1.1454982227049650e-001
5677:-1.1895651393899549e-001
5678:-1.2346315552116637e-001
5679:-1.2659808766778849e-001
5680:-1.0270250398865390e-001
5681:-1.0538632082252682e-001
5682:-1.0943721612498937e-001
5683:-1.1363162448967998e-001
5684:-1.1657837001591206e-001
5685:-8.9797303787808980e-002
5686:-9.2082108707226301e-002
5687:-9.5602375627678315e-002
5688:-9.9329948774452254e-002
5689:-1.0199455713585548e-001
5690:-7.7036177536483216e-002
5691:-7.8914174687381294e-002
5692:-8.1892397104312162e-002
5693:-8.5141718911649955e-002
5694:-8.7516394254142496e-002
5695:-6.8404630558817195e-002
5696:-7.0000346829266882e-002
5697:-7.2601857530324970e-002
5698:-7.5518030770338473e-002
5699:-7.7690236794540499e-002
5700:-1.2758559236648009e-001
5701:-1.2832168444885630e-001
5702:-1.2948567530022440e-001
5703:-1.3075195455690897e-001
5704:-1.3167544809415729e-001
5705:-1.1748634878358936e-001
5706:-1.1810301412624144e-001
5707:-1.1914048676622167e-001
5708:-1.2033773060916310e-001
5709:-1.2124711100384432e-001
5710:-1.0278355243738085e-001
5711:-1.0322198689390955e-001
5712:-1.0406929096615727e-001
5713:-1.0516054311251716e-001
5714:-1.0604591213468187e-001
5715:-8.8183402918372150e-002
5716:-8.8439631975437943e-002
5717:-8.9090947267488854e-002
5718:-9.0070387504791655e-002
5719:-9.0927770641142242e-002
5720:-7.8272217451071074e-002
5721:-7.8401738106585434e-002
5722:-7.8915872040417792e-002
5723:-7.9815613717156314e-002
5724:-8.0651602049079313e-002
5725:-1.3156546250630144e-001
5726:-1.3023932687004736e-001
5727:-1.2846515515594772e-001
5728:-1.2689040296602358e-001
5729:-1.2592962163208718e-001
5730:-1.2115190284217865e-001
5731:-1.1989191828157053e-001
5732:-1.1824608093887561e-001
5733:-1.1683705591609930e-001
5734:-1.1601093258491185e-001
5735:-1.0596828543058907e-001
5736:-1.0479260974357853e-001
5737:-1.0331630803792966e-001
5738:-1.0213157605229947e-001
5739:-1.0149008202113648e-001
5740:-9.0862902280054017e-002
5741:-8.9756606685062440e-002
5742:-8.8427979152274350e-002
5743:-8.7445678739597632e-002
5744:-8.6973885226909339e-002
5745:-8.0592674739395229e-002
5746:-7.9525179364639403e-002
5747:-7.8284834056755473e-002
5748:-7.7428208664734627e-002
5749:-7.7063722299374970e-002
5750:-1.2497416882264308e-001
5751:-1.2219605322742988e-001
5752:-1.1831236388968225e-001
5753:-1.1464798632078535e-001
5754:-1.1227166938911415e-001
5755:-1.1513349193952420e-001
5756:-1.1252521962759893e-001
5757:-1.0891810780761561e-001
5758:-1.0556341976154644e-001
5759:-1.0341761025104598e-001
5760:-1.0072198431909458e-001
5761:-9.8355797343317355e-002
5762:-9.5143991682938703e-002
5763:-9.2233098476532271e-002
5764:-9.0418209876043529e-002
5765:-8.6309310928191954e-002
5766:-8.4177329472139004e-002
5767:-8.1349290896745585e-002
5768:-7.8870653455382328e-002
5769:-7.7378805948494334e-002
5770:-7.6466498249879902e-002
5771:-7.4489923552710044e-002
5772:-7.1917321884228391e-002
5773:-6.9727233354849108e-002
5774:-6.8451456744720904e-002
5775:-1.1071809023555637e-001
5776:-1.0701817497388653e-001
5777:-1.0182122018406024e-001
5778:-9.6887077492424312e-002
5779:-9.3668657366046626e-002
5780:-1.0199045802568858e-001
5781:-9.8549919989470880e-002
5782:-9.3744490253836271e-002
5783:-8.9215774105025611e-002
5784:-8.6282199967537082e-002
5785:-8.9172407592090788e-002
5786:-8.6103482981374477e-002
5787:-8.1859367184720117e-002
5788:-7.7912322088083116e-002
5789:-7.5387657417765333e-002
5790:-7.6309852290068342e-002
5791:-7.3602778856076911e-002
5792:-6.9905681320550292e-002
5793:-6.6526011598225659e-002
5794:-6.4400494146317752e-002
5795:-6.7500683203490008e-002
5796:-6.5035101687072799e-002
5797:-6.1703338252622288e-002
5798:-5.8702904120016608e-002
5799:-5.6844347349108169e-002
5800:-9.1826064645274305e-002
5801:-8.7819309173133575e-002
5802:-8.2163021870489655e-002
5803:-7.6757661436647584e-002
5804:-7.3210626302637347e-002
5805:-8.4585411699145407e-002
5806:-8.0862889820271885e-002
5807:-7.5627702009994816e-002
5808:-7.0649231679683677e-002
5809:-6.7397039053554861e-002
5810:-7.3901471341347891e-002
5811:-7.0591979891862180e-002
5812:-6.5968762248337628e-002
5813:-6.1610741761316583e-002
5814:-5.8787115086063838e-002
5815:-6.3121450160660980e-002
5816:-6.0221190170150679e-002
5817:-5.6204379543090474e-002
5818:-5.2461245749069338e-002
5819:-5.0062386054281302e-002
5820:-5.5704768602685237e-002
5821:-5.3081782153834849e-002
5822:-4.9475878833090799e-002
5823:-4.6149442956557624e-002
5824:-4.4038465718026013e-002
5825:-7.1317323650915379e-002
5826:-6.7440049544351746e-002
5827:-6.1962263369495264e-002
5828:-5.6722201382100650e-002
5829:-5.3280459127377992e-002
5830:-6.5653061255000700e-002
5831:-6.2062769966992171e-002
5832:-5.7000260221724566e-002
5833:-5.2169560368300484e-002
5834:-4.9003965416610534e-002
5835:-5.7260464837265268e-002
5836:-5.4088366026072518e-002
5837:-4.9630962974940337e-002
5838:-4.5396709017639973e-002
5839:-4.2633439190599691e-002
5840:-4.8751469268548023e-002
5841:-4.5995114180067777e-002
5842:-4.2139231907505688e-002
5843:-3.8497837930752329e-002
5844:-3.6134444474268036e-002
5845:-4.2873953276855142e-002
5846:-4.0400094671655951e-002
5847:-3.6952919112484738e-002
5848:-3.3714317553508857e-002
5849:-3.1622585064769046e-002
5850:-5.1537641747417852e-002
5851:-4.8137643905827809e-002
5852:-4.3326877126413817e-002
5853:-3.8715927898901790e-002
5854:-3.5682013581812187e-002
5855:-4.7397107198883008e-002
5856:-4.4252258473652904e-002
5857:-3.9805637089792498e-002
5858:-3.5547554020187638e-002
5859:-3.2748124253065503e-002
5860:-4.1225419423378241e-002
5861:-3.8455256479633632e-002
5862:-3.4543420657193645e-002
5863:-3.0803606017418217e-002
5864:-2.8348601177852133e-002
5865:-3.4924956625283846e-002
5866:-3.2530726821208993e-002
5867:-2.9155503171183494e-002
5868:-2.5935783572223894e-002
5869:-2.3826451018410261e-002
5870:-3.0548494783613999e-002
5871:-2.8411699367051756e-002
5872:-2.5403967626346509e-002
5873:-2.2540460699067601e-002
5874:-2.0667897966353873e-002
5875:-3.4212125946660565e-002
5876:-3.1473583121298991e-002
5877:-2.7598353464426687e-002
5878:-2.3883619731844680e-002
5879:-2.1439119712410783e-002
5880:-3.1392311874970859e-002
5881:-2.8865048022154071e-002
5882:-2.5285888106622263e-002
5883:-2.1851389676326039e-002
5884:-1.9589158528972313e-002
5885:-2.7160659679175178e-002
5886:-2.4944957226329608e-002
5887:-2.1802531675668625e-002
5888:-1.8781579916008737e-002
5889:-1.6788428250726167e-002
5890:-2.2807356028319192e-002
5891:-2.0905791413138024e-002
5892:-1.8203873120688992e-002
5893:-1.5600240924996529e-002
5894:-1.3878745179501108e-002
5895:-1.9764665672690054e-002
5896:-1.8079100293058318e-002
5897:-1.5680164018067950e-002
5898:-1.3363679400784955e-002
5899:-1.1829172790347614e-002
5900:-2.0308270215211099e-002
5901:-1.8307663319972991e-002
5902:-1.5475809767558600e-002
5903:-1.2760188486350525e-002
5904:-1.0972529448309122e-002
5905:-1.8544974487581484e-002
5906:-1.6701386540928138e-002
5907:-1.4085049166907166e-002
5908:-1.1567807014917981e-002
5909:-9.9057703274031874e-003
5910:-1.5872594488082856e-002
5911:-1.4262413712732219e-002
5912:-1.1966757860514069e-002
5913:-9.7451020150840176e-003
5914:-8.2704958328642785e-003
5915:-1.3092971619190314e-002
5916:-1.1720323302909145e-002
5917:-9.7513899766009608e-003
5918:-7.8313614418350427e-003
5919:-6.5483110526785822e-003
5920:-1.1133197417909023e-002
5921:-9.9251259442556892e-003
5922:-8.1827764530901931e-003
5923:-6.4721947042895188e-003
5924:-5.3223245597067339e-003
5925:-1.0189966738421695e-002
5926:-8.8991985757567067e-003
5927:-7.0742765239865191e-003
5928:-5.3269093124869733e-003
5929:-4.1782285140151759e-003
5930:-9.1821458087191794e-003
5931:-7.9967750886747700e-003
5932:-6.3118404542271385e-003
5933:-4.6874007763058178e-003
5934:-3.6128621963500336e-003
5935:-7.6347707945290484e-003
5936:-6.6065082023607676e-003
5937:-5.1306190978261165e-003
5938:-3.6902427343892177e-003
5939:-2.7270426419941586e-003
5940:-6.0023767211558115e-003
5941:-5.1345092771863986e-003
5942:-3.8724791615225226e-003
5943:-2.6209795715151159e-003
5944:-1.7724049870209767e-003
5945:-4.8387933144009429e-003
5946:-4.0823454266311673e-003
5947:-2.9691214131527064e-003
5948:-1.8493680415950194e-003
5949:-1.0809577891810437e-003
5950:-3.7170045665010807e-003
5951:-3.0474494897247397e-003
5952:-2.1018741707862741e-003
5953:-1.1977874775364200e-003
5954:-6.0424325254589541e-004
5955:-3.1869308803335280e-003
5956:-2.5826050233200499e-003
5957:-1.7212102958601167e-003
5958:-8.8782729001396488e-004
5959:-3.3482139804741947e-004
5960:-2.3540683992824669e-003
5961:-1.8474949075704585e-003
5962:-1.1126410179137917e-003
5963:-3.8606349141190083e-004
5964:1.0534696699841384e-004
5965:-1.4539032181719968e-003
5966:-1.0477344002688693e-003
5967:-4.4330534573438119e-004
5968:1.7258270411339493e-004
5969:5.9974542046474359e-004
5970:-8.0052500038770556e-004
5971:-4.6444466730115693e-004
5972:4.8687967276947290e-005
5973:5.8675650124963416e-004
5974:9.6852161951687917e-004
5975:-4.1364164340004474e-004
5976:-2.5692204334294282e-004
5977:-5.3029066021239199e-005
5978:1.2043437257974343e-004
5979:2.2140435167596924e-004
5980:-1.7013021809040419e-004
5981:-7.6453707394250634e-005
5982:4.0622358023893652e-005
5983:1.3380809840991739e-004
5984:1.8371540916039452e-004
5985:2.3387551763628744e-004
5986:2.4444160102931196e-004
5987:2.4786967827644457e-004
5988:2.3698334838888739e-004
5989:2.2132416493899295e-004
5990:6.9422697604284446e-004
5991:6.3262677320921926e-004
5992:5.3843328397222860e-004
5993:4.3950130546144901e-004
5994:3.6921976888505020e-004
5995:1.0409687760150994e-003
5996:9.3637612353550674e-004
5997:7.8472755208515996e-004
5998:6.3487970506373112e-004
5999:5.3358613986778474e-004
6000:-1.2466298915195168e-003
6001:-5.7221801919215883e-003
6002:-1.2342619266044613e-002
6003:-1.9042108753904611e-002
6004:-2.3662486442090184e-002
6005:-1.0335441088720279e-003
6006:-4.6648222795352030e-003
6007:-1.0059278821433537e-002
6008:-1.5545093005946429e-002
6009:-1.9343746502176195e-002
6010:-6.8552241190549359e-004
6011:-3.0811494751451078e-003
6012:-6.6813035598641789e-003
6013:-1.0390837792408833e-002
6014:-1.2986859013441423e-002
6015:-2.9473791714624951e-004
6016:-1.4555305990177842e-003
6017:-3.2625782269228593e-003
6018:-5.1970285078578203e-003
6019:-6.5912341797595350e-003
6020:-3.3068860956427956e-006
6021:-3.2132375302963370e-004
6022:-9.0458002773005414e-004
6023:-1.6275461843203662e-003
6024:-2.2015239790866906e-003
6025:-2.5820780620629698e-002
6026:-2.9684132674049409e-002
6027:-3.5479095084248333e-002
6028:-4.1437506574661109e-002
6029:-4.5600311878268983e-002
6030:-2.1090032803450169e-002
6031:-2.4173000998997107e-002
6032:-2.8871994603603096e-002
6033:-3.3790071146539216e-002
6034:-3.7274418767744129e-002
6035:-1.4127453329806533e-002
6036:-1.6057725392902029e-002
6037:-1.9137281171588510e-002
6038:-2.2517389202854902e-002
6039:-2.4998299720242093e-002
6040:-7.1233384875321725e-003
6041:-7.8891313618762796e-003
6042:-9.3319943992281485e-003
6043:-1.1156879003409573e-002
6044:-1.2622569360665376e-002
6045:-2.3164941813599150e-003
6046:-2.2803155908457219e-003
6047:-2.5955972831120284e-003
6048:-3.3485344003062736e-003
6049:-4.1141794681868920e-003
6050:-4.7343866795553503e-002
6051:-5.0055515429213868e-002
6052:-5.4281586114820875e-002
6053:-5.8810918458618237e-002
6054:-6.2078169418596056e-002
6055:-3.8689798311026834e-002
6056:-4.0796338825371356e-002
6057:-4.4190748640608159e-002
6058:-4.7953130077186525e-002
6059:-5.0733827324886946e-002
6060:-2.5929037746975803e-002
6061:-2.7143443277117426e-002
6062:-2.9311160263937274e-002
6063:-3.1941609086511807e-002
6064:-3.4003780489673313e-002
6065:-1.3063832668579033e-002
6066:-1.3378943439022416e-002
6067:-1.4309482938982654e-002
6068:-1.5797514489107736e-002
6069:-1.7134000272237944e-002
6070:-4.2184125457054638e-003
6071:-3.9152978514249313e-003
6072:-3.9949676543642419e-003
6073:-4.6968394706169200e-003
6074:-5.5336541960494404e-003
6075:-6.3271068478684286e-002
6076:-6.4692116605046868e-002
6077:-6.7065499696539452e-002
6078:-6.9786409883598161e-002
6079:-7.1844158553991760e-002
6080:-5.1698732816216647e-002
6081:-5.2718765706114432e-002
6082:-5.4576635823863878e-002
6083:-5.6867276367783409e-002
6084:-5.8680183163926009e-002
6085:-3.4632546278509015e-002
6086:-3.5062468095432772e-002
6087:-3.6161225321259802e-002
6088:-3.7817581916002312e-002
6089:-3.9269075363102132e-002
6090:-1.7423929032335139e-002
6091:-1.7260327886405847e-002
6092:-1.7594975904424267e-002
6093:-1.8612052234106141e-002
6094:-1.9698720442272159e-002
6095:-5.5906476458424973e-003
6096:-5.0197803777869742e-003
6097:-4.8297617270445818e-003
6098:-5.4074147185669864e-003
6099:-6.2429901668182011e-003
6100:-7.2379024071591830e-002
6101:-7.2438327309665040e-002
6102:-7.2877244141349537e-002
6103:-7.3734579278508003e-002
6104:-7.4560462061423333e-002
6105:-5.9115695920925776e-002
6106:-5.9026310906476628e-002
6107:-5.9307327660727847e-002
6108:-6.0077874782506237e-002
6109:-6.0885352934411829e-002
6110:-3.9557370453920618e-002
6111:-3.9246350628469567e-002
6112:-3.9290432683901262e-002
6113:-3.9928180450435141e-002
6114:-4.0704809001347708e-002
6115:-1.9837745310408779e-002
6116:-1.9300457952722689e-002
6117:-1.9100821227936080e-002
6118:-1.9598985557827048e-002
6119:-2.0340131786527757e-002
6120:-6.2789018082808562e-003
6121:-5.5844386407950747e-003
6122:-5.2144727981719187e-003
6123:-5.6134200722654888e-003
6124:-6.3276741126786721e-003
6125:-7.4505225260009994e-002
6126:-7.3460309505625807e-002
6127:-7.2274915375236878e-002
6128:-7.1499251256428586e-002
6129:-7.1204997319839425e-002
6130:-6.0839878989884001e-002
6131:-5.9849710822089792e-002
6132:-5.8798802233261692e-002
6133:-5.8222172562811793e-002
6134:-5.8100925550257365e-002
6135:-4.0673137512925422e-002
6136:-3.9765102396884980e-002
6137:-3.8914004745633286e-002
6138:-3.8631710378857861e-002
6139:-3.8765773462629299e-002
6140:-2.0321675532390018e-002
6141:-1.9498104683346139e-002
6142:-1.8850231763247419e-002
6143:-1.8865686493715030e-002
6144:-1.9257390889072957e-002
6145:-6.3179048728611827e-003
6146:-5.5533526040312513e-003
6147:-5.0462195989043343e-003
6148:-5.2669631511401954e-003
6149:-5.8359454641565426e-003
6150:-7.0651493992897010e-002
6151:-6.8773827028871012e-002
6152:-6.6361581523282337e-002
6153:-6.4350290497188128e-002
6154:-6.3207207795786924e-002
6155:-5.7653413833103448e-002
6156:-5.6010725627467610e-002
6157:-5.3975534519877584e-002
6158:-5.2380463269238890e-002
6159:-5.1544113780608559e-002
6160:-3.8474289412102625e-002
6161:-3.7176934034386731e-002
6162:-3.5695701945116981e-002
6163:-3.4711942852619179e-002
6164:-3.4326002244359104e-002
6165:-1.9122903417716858e-002
6166:-1.8172347124064549e-002
6167:-1.7247221214708709e-002
6168:-1.6876921441937882e-002
6169:-1.6942855970213031e-002
6170:-5.8092247365528491e-003
6171:-5.0963335129478931e-003
6172:-4.5521957925843074e-003
6173:-4.6020495862484408e-003
6174:-4.9774036389561927e-003
6175:-6.2328416731788530e-002
6176:-6.0009649361412128e-002
6177:-5.6900880269187423e-002
6178:-5.4132950481129746e-002
6179:-5.2438631026233848e-002
6180:-5.0831110773900005e-002
6181:-4.8850763218376586e-002
6182:-4.6257236046111323e-002
6183:-4.4027919363754400e-002
6184:-4.2714837814334751e-002
6185:-3.3857297539191367e-002
6186:-3.2377253849260448e-002
6187:-3.0545161280608517e-002
6188:-2.9111503584993755e-002
6189:-2.8361428014574502e-002
6190:-1.6720257151175397e-002
6191:-1.5746135560183765e-002
6192:-1.4683704844409461e-002
6193:-1.4053933384797603e-002
6194:-1.3872482026737932e-002
6195:-4.9239045329222504e-003
6196:-4.2984958599005885e-003
6197:-3.7663801163749884e-003
6198:-3.6902948147477248e-003
6199:-3.9003744652773781e-003
6200:-5.1385144900017617e-002
6201:-4.8933167009519225e-002
6202:-4.5579425627835179e-002
6203:-4.2507219330029697e-002
6204:-4.0571038749623187e-002
6205:-4.1861108849203008e-002
6206:-3.9804641129954646e-002
6207:-3.7032024740281000e-002
6208:-3.4543256550086457e-002
6209:-3.3006823974404749e-002
6210:-2.7802479726229266e-002
6211:-2.6329319118808640e-002
6212:-2.4413738350199440e-002
6213:-2.2785393069815075e-002
6214:-2.1838473420155175e-002
6215:-1.3610999748946129e-002
6216:-1.2726052683187637e-002
6217:-1.1674692431457828e-002
6218:-1.0913954956689760e-002
6219:-1.0561454662898822e-002
6220:-3.8435691188565932e-003
6221:-3.3631212401316812e-003
6222:-2.9060493484817569e-003
6223:-2.7419133493909458e-003
6224:-2.7981500760957592e-003
6225:-3.9495369843097726e-002
6226:-3.7193147687873532e-002
6227:-3.3993957244598548e-002
6228:-3.0999351807382954e-002
6229:-2.9071947576631962e-002
6230:-3.2134256186888151e-002
6231:-3.0224781364321537e-002
6232:-2.7592545056796716e-002
6233:-2.5155173934935680e-002
6234:-2.3602709461535840e-002
6235:-2.1265719620872269e-002
6236:-1.9936639879041106e-002
6237:-1.8142347976191745e-002
6238:-1.6528687712605700e-002
6239:-1.5530541197154491e-002
6240:-1.0291362376517373e-002
6241:-9.5489316256674537e-003
6242:-8.6017422516214137e-003
6243:-7.8209509704305381e-003
6244:-7.3833763231620888e-003
6245:-2.7363758271768549e-003
6246:-2.3981501286774176e-003
6247:-2.0346933881933644e-003
6248:-1.8279149201828107e-003
6249:-1.7767377499611505e-003
6250:-2.8080022872722835e-002
6251:-2.6099773651704152e-002
6252:-2.3314599187913575e-002
6253:-2.0665703143815967e-002
6254:-1.8935128106682717e-002
6255:-2.2798359564908596e-002
6256:-2.1175365862123294e-002
6257:-1.8896635195075211e-002
6258:-1.6734317782265463e-002
6259:-1.5324603513665108e-002
6260:-1.5003316895990600e-002
6261:-1.3907799274840878e-002
6262:-1.2377018282031560e-002
6263:-1.0933560319225110e-002
6264:-9.9980262545238795e-003
6265:-7.1361822880369897e-003
6266:-6.5732711509697943e-003
6267:-5.7979527100353928e-003
6268:-5.0808670748606136e-003
6269:-4.6246436165112027e-003
6270:-1.7224401368827864e-003
6271:-1.5261838715636036e-003
6272:-1.2710734873298622e-003
6273:-1.0543307433903263e-003
6274:-9.2836740708109858e-004
6275:-1.8101484224278423e-002
6276:-1.6546040190148936e-002
6277:-1.4329154517181629e-002
6278:-1.2184622375034541e-002
6279:-1.0761736443658375e-002
6280:-1.4648297254427697e-002
6281:-1.3387512874442148e-002
6282:-1.1582143433545340e-002
6283:-9.8253842440578047e-003
6284:-8.6536581674595044e-003
6285:-9.5542706709081538e-003
6286:-8.7290829424569259e-003
6287:-7.5323378568166160e-003
6288:-6.3494337515161443e-003
6289:-5.5496039298998674e-003
6290:-4.4159915055038464e-003
6291:-4.0312752361935447e-003
6292:-3.4502930945417933e-003
6293:-2.8483826621614229e-003
6294:-2.4253239031302976e-003
6295:-8.8172987034921472e-004
6296:-8.0060433619946422e-004
6297:-6.4421695602360205e-004
6298:-4.4315800568183963e-004
6299:-2.8019018245815491e-004
6300:-1.0119551002774785e-002
6301:-9.0105163120293950e-003
6302:-7.4042316022247161e-003
6303:-5.8190625836964816e-003
6304:-4.7487137171830932e-003
6305:-8.1326248872455945e-003
6306:-7.2470094238002627e-003
6307:-5.9471869268178795e-003
6308:-4.6438684495790994e-003
6309:-3.7518480394132608e-003
6310:-5.2077987108337187e-003
6311:-4.6523656799968829e-003
6312:-3.8057306500288591e-003
6313:-2.9195587094844704e-003
6314:-2.2916905425289036e-003
6315:-2.2649035386117476e-003
6316:-2.0432312808642849e-003
6317:-1.6550237813322004e-003
6318:-1.1912384409035065e-003
6319:-8.3110085762653889e-004
6320:-2.4487341592525593e-004
6321:-2.5317622344474825e-004
6322:-1.8103119891603887e-004
6323:-8.6966619505787263e-006
6324:1.6655662700413407e-004
6325:-4.3025465904281421e-003
6326:-3.6130621741781287e-003
6327:-2.5890591703751436e-003
6328:-1.5480219600634757e-003
6329:-8.2732936269130604e-004
6330:-3.3896494547120287e-003
6331:-2.8510818275024655e-003
6332:-2.0277901735956975e-003
6333:-1.1633524094566436e-003
6334:-5.4940144925142809e-004
6335:-2.0538440910118894e-003
6336:-1.7387133142309696e-003
6337:-1.2129084479947250e-003
6338:-6.1064839303877274e-004
6339:-1.5544491149116152e-004
6340:-7.1925843259100486e-004
6341:-6.3046045230927749e-004
6342:-4.0638314991288827e-004
6343:-7.0541580308799198e-005
6344:2.2301847649128671e-004
6345:1.9140409460412317e-004
6346:1.2397965512641557e-004
6347:1.3957612851204081e-004
6348:2.9104877286937394e-004
6349:4.7256156177262677e-004
6350:-5.6940798205996489e-004
6351:-2.7400543476358523e-004
6352:1.8792069093403986e-004
6353:6.8471969479425444e-004
6354:1.0440124560181663e-003
6355:-3.4122250859773827e-004
6356:-1.3363728295972245e-004
6357:2.2112142828586523e-004
6358:6.3622224219311667e-004
6359:9.5435956601837334e-004
6360:-2.0181757484100539e-005
6361:6.0952857644189352e-005
6362:2.6192232838856720e-004
6363:5.6053061868767450e-004
6364:8.2054823407108624e-004
6365:2.8527817396999426e-004
6366:2.4251451894874575e-004
6367:2.9343235478467770e-004
6368:4.7928572706466984e-004
6369:6.8373597437357150e-004
6370:4.8491820024150776e-004
6371:3.5901333809033154e-004
6372:3.0961138528279466e-004
6373:4.2061419343454413e-004
6374:5.8858511787234966e-004
6375:1.1067116157372134e-003
6376:9.8495873374525008e-004
6377:8.1243906763996219e-004
6378:6.4678057307623741e-004
6379:5.3759796750607602e-004
6380:1.0014540137565900e-003
6381:8.5613376700157209e-004
6382:6.6028876755550676e-004
6383:4.8459920137090449e-004
6384:3.7620550070844070e-004
6385:8.4819991420950747e-004
6386:6.7957940890873406e-004
6387:4.6599497176600773e-004
6388:2.9203386786239580e-004
6389:1.9600683268925130e-004
6390:6.9599569952065888e-004
6391:5.1739899719295871e-004
6392:3.0558666071375790e-004
6393:1.5286555745722911e-004
6394:8.2529249248283588e-005
6395:5.9266157994807347e-004
6396:4.1490837847366768e-004
6397:2.1551758205628626e-004
6398:8.8512280553137168e-005
6399:4.3375742918285115e-005
6400:0.0000000000000000e+000
6401:0.0000000000000000e+000
6402:0.0000000000000000e+000
6403:0.0000000000000000e+000
6404:0.0000000000000000e+000
6405:0.0000000000000000e+000
6406:0.0000000000000000e+000
6407:0.0000000000000000e+000
6408:0.0000000000000000e+000
6409:0.0000000000000000e+000
6410:0.0000000000000000e+000
6411:0.0000000000000000e+000
6412:0.0000000000000000e+000
6413:0.0000000000000000e+000
6414:0.0000000000000000e+000
6415:0.0000000000000000e+000
6416:0.0000000000000000e+000
6417:0.0000000000000000e+000
6418:0.0000000000000000e+000
6419:0.0000000000000000e+000
6420:0.0000000000000000e+000
6421:0.0000000000000000e+000
6422:0.0000000000000000e+000
6423:0.0000000000000000e+000
6424:0.0000000000000000e+000
6425:0.0000000000000000e+000
6426:0.0000000000000000e+000
6427:0.0000000000000000e+000
6428:0.0000000000000000e+000
6429:0.0000000000000000e+000
6430:0.0000000000000000e+000
6431:0.0000000000000000e+000
6432:0.0000000000000000e+000
6433:0.0000000000000000e+000
6434:0.0000000000000000e+000
6435:0.0000000000000000e+000
6436:0.0000000000000000e+000
6437:0.0000000000000000e+000
6438:0.0000000000000000e+000
6439:0.0000000000000000e+000
6440:0.0000000000000000e+000
6441:0.0000000000000000e+000
6442:0.0000000000000000e+000
6443:0.0000000000000000e+000
6444:0.0000000000000000e+000
6445:0.0000000000000000e+000
6446:0.0000000000000000e+000
6447:0.0000000000000000e+000
6448:0.0000000000000000e+000
6449:0.0000000000000000e+000
6450:0.0000000000000000e+000
6451:0.0000000000000000e+000
6452:0.0000000000000000e+000
6453:0.0000000000000000e+000
6454:0.0000000000000000e+000
6455:0.0000000000000000e+000
6456:0.0000000000000000e+000
6457:0.0000000000000000e+000
6458:0.0000000000000000e+000
6459:0.0000000000000000e+000
6460:0.0000000000000000e+000
6461:0.0000000000000000e+000
6462:0.0000000000000000e+000
6463:0.0000000000000000e+000
6464:0.0000000000000000e+000
6465:0.0000000000000000e+000
6466:0.0000000000000000e+000
6467:0.0000000000000000e+000
6468:0.0000000000000000e+000
6469:0.0000000000000000e+000
6470:0.0000000000000000e+000
6471:0.0000000000000000e+000
6472:0.0000000000000000e+000
6473:0.0000000000000000e+000
6474:0.0000000000000000e+000
6475:0.0000000000000000e+000
6476:0.0000000000000000e+000
6477:0.0000000000000000e+000
6478:0.0000000000000000e+000
6479:0.0000000000000000e+000
6480:0.0000000000000000e+000
6481:0.0000000000000000e+000
6482:0.0000000000000000e+000
6483:0.0000000000000000e+000
6484:0.0000000000000000e+000
6485:0.0000000000000000e+000
6486:0.0000000000000000e+000
6487:0.0000000000000000e+000
6488:0.0000000000000000e+000
6489:0.0000000000000000e+000
6490:0.0000000000000000e+000
6491:0.0000000000000000e+000
6492:0.0000000000000000e+000
6493:0.0000000000000000e+000
6494:0.0000000000000000e+000
6495:0.0000000000000000e+000
6496:0.0000000000000000e+000
6497:0.0000000000000000e+000
6498:0.0000000000000000e+000
6499:0.0000000000000000e+000
6500:0.0000000000000000e+000
6501:0.0000000000000000e+000
6502:0.0000000000000000e+000
6503:0.0000000000000000e+000
6504:0.0000000000000000e+000
6505:0.0000000000000000e+000
6506:0.0000000000000000e+000
6507:0.0000000000000000e+000
6508:0.0000000000000000e+000
6509:0.0000000000000000e+000
6510:0.0000000000000000e+000
6511:0.0000000000000000e+000
6512:0.0000000000000000e+000
6513:0.0000000000000000e+000
6514:0.0000000000000000e+000
6515:0.0000000000000000e+000
6516:0.0000000000000000e+000
6517:0.0000000000000000e+000
6518:0.0000000000000000e+000
6519:0.0000000000000000e+000
6520:0.0000000000000000e+000
6521:0.0000000000000000e+000
6522:0.0000000000000000e+000
6523:0.0000000000000000e+000
6524:0.0000000000000000e+000
6525:0.0000000000000000e+000
6526:0.0000000000000000e+000
6527:0.0000000000000000e+000
6528:0.0000000000000000e+000
6529:0.0000000000000000e+000
6530:0.0000000000000000e+000
6531:0.0000000000000000e+000
6532:0.0000000000000000e+000
6533:0.0000000000000000e+000
6534:0.0000000000000000e+000
6535:0.0000000000000000e+000
6536:0.0000000000000000e+000
6537:0.0000000000000000e+000
6538:0.0000000000000000e+000
6539:0.0000000000000000e+000
6540:0.0000000000000000e+000
6541:0.0000000000000000e+000
6542:0.0000000000000000e+000
6543:0.0000000000000000e+000
6544:0.0000000000000000e+000
6545:0.0000000000000000e+000
6546:0.0000000000000000e+000
6547:0.0000000000000000e+000
6548:0.0000000000000000e+000
6549:0.0000000000000000e+000
6550:0.0000000000000000e+000
6551:0.0000000000000000e+000
6552:0.0000000000000000e+000
6553:0.0000000000000000e+000
6554:0.0000000000000000e+000
6555:0.0000000000000000e+000
6556:0.0000000000000000e+000
6557:0.0000000000000000e+000
6558:0.0000000000000000e+000
6559:0.0000000000000000e+000
6560:0.0000000000000000e+000
6561:0.0000000000000000e+000
6562:0.0000000000000000e+000
6563:0.0000000000000000e+000
6564:0.0000000000000000e+000
6565:0.0000000000000000e+000
6566:0.0000000000000000e+000
6567:0.0000000000000000e+000
6568:0.0000000000000000e+000
6569:0.0000000000000000e+000
6570:0.0000000000000000e+000
6571:0.0000000000000000e+000
6572:0.0000000000000000e+000
6573:0.0000000000000000e+000
6574:0.0000000000000000e+000
6575:0.0000000000000000e+000
6576:0.0000000000000000e+000
6577:0.0000000000000000e+000
6578:0.0000000000000000e+000
6579:0.0000000000000000e+000
6580:0.0000000000000000e+000
6581:0.0000000000000000e+000
6582:0.0000000000000000e+000
6583:0.0000000000000000e+000
6584:0.0000000000000000e+000
6585:0.0000000000000000e+000
6586:0.0000000000000000e+000
6587:0.0000000000000000e+000
6588:0.0000000000000000e+000
6589:0.0000000000000000e+000
6590:0.0000000000000000e+000
6591:0.0000000000000000e+000
6592:0.0000000000000000e+000
6593:0.0000000000000000e+000
6594:0.0000000000000000e+000
6595:0.0000000000000000e+000
6596:0.0000000000000000e+000
6597:0.0000000000000000e+000
6598:0.0000000000000000e+000
6599:0.0000000000000000e+000
6600:0.0000000000000000e+000
6601:0.0000000000000000e+000
6602:0.0000000000000000e+000
6603:0.0000000000000000e+000
6604:0.0000000000000000e+000
6605:0.0000000000000000e+000
6606:0.0000000000000000e+000
6607:0.0000000000000000e+000
6608:0.0000000000000000e+000
6609:0.0000000000000000e+000
6610:0.0000000000000000e+000
6611:0.0000000000000000e+000
6612:0.0000000000000000e+000
6613:0.0000000000000000e+000
6614:0.0000000000000000e+000
6615:0.0000000000000000e+000
6616:0.0000000000000000e+000
6617:0.0000000000000000e+000
6618:0.0000000000000000e+000
6619:0.0000000000000000e+000
6620:0.0000000000000000e+000
6621:0.0000000000000000e+000
6622:0.0000000000000000e+000
6623:0.0000000000000000e+000
6624:0.0000000000000000e+000
6625:0.0000000000000000e+000
6626:0.0000000000000000e+000
6627:0.0000000000000000e+000
6628:0.0000000000000000e+000
6629:0.0000000000000000e+000
6630:0.0000000000000000e+000
6631:0.0000000000000000e+000
6632:0.0000000000000000e+000
6633:0.0000000000000000e+000
6634:0.0000000000000000e+000
6635:0.0000000000000000e+000
6636:0.0000000000000000e+000
6637:0.0000000000000000e+000
6638:0.0000000000000000e+000
6639:0.0000000000000000e+000
6640:0.0000000000000000e+000
6641:0.0000000000000000e+000
6642:0.0000000000000000e+000
6643:0.0000000000000000e+000
6644:0.0000000000000000e+000
6645:0.0000000000000000e+000
6646:0.0000000000000000e+000
6647:0.0000000000000000e+000
6648:0.0000000000000000e+000
6649:0.0000000000000000e+000
6650:0.0000000000000000e+000
6651:0.0000000000000000e+000
6652:0.0000000000000000e+000
6653:0.0000000000000000e+000
6654:0.0000000000000000e+000
6655:0.0000000000000000e+000
6656:0.0000000000000000e+000
6657:0.0000000000000000e+000
6658:0.0000000000000000e+000
6659:0.0000000000000000e+000
6660:0.0000000000000000e+000
6661:0.0000000000000000e+000
6662:0.0000000000000000e+000
6663:0.0000000000000000e+000
6664:0.0000000000000000e+000
6665:0.0000000000000000e+000
6666:0.0000000000000000e+000
6667:0.0000000000000000e+000
6668:0.0000000000000000e+000
6669:0.0000000000000000e+000
6670:0.0000000000000000e+000
6671:0.0000000000000000e+000
6672:0.0000000000000000e+000
6673:0.0000000000000000e+000
6674:0.0000000000000000e+000
6675:0.0000000000000000e+000
6676:0.0000000000000000e+000
6677:0.0000000000000000e+000
6678:0.0000000000000000e+000
6679:0.0000000000000000e+000
6680:0.0000000000000000e+000
6681:0.0000000000000000e+000
6682:0.0000000000000000e+000
6683:0.0000000000000000e+000
6684:0.0000000000000000e+000
6685:0.0000000000000000e+000
6686:0.0000000000000000e+000
6687:0.0000000000000000e+000
6688:0.0000000000000000e+000
6689:0.0000000000000000e+000
6690:0.0000000000000000e+000
6691:0.0000000000000000e+000
6692:0.0000000000000000e+000
6693:0.0000000000000000e+000
6694:0.0000000000000000e+000
6695:0.0000000000000000e+000
6696:0.0000000000000000e+000
6697:0.0000000000000000e+000
6698:0.0000000000000000e+000
6699:0.0000000000000000e+000
6700:0.0000000000000000e+000
6701:0.0000000000000000e+000
6702:0.0000000000000000e+000
6703:0.0000000000000000e+000
6704:0.0000000000000000e+000
6705:0.0000000000000000e+000
6706:0.0000000000000000e+000
6707:0.0000000000000000e+000
6708:0.0000000000000000e+000
6709:0.0000000000000000e+000
6710:0.0000000000000000e+000
6711:0.0000000000000000e+000
6712:0.0000000000000000e+000
6713:0.0000000000000000e+000
6714:0.0000000000000000e+000
6715:0.0000000000000000e+000
6716:0.0000000000000000e+000
6717:0.0000000000000000e+000
6718:0.0000000000000000e+000
6719:0.0000000000000000e+000
6720:0.0000000000000000e+000
6721:0.0000000000000000e+000
6722:0.0000000000000000e+000
6723:0.0000000000000000e+000
6724:0.0000000000000000e+000
6725:0.0000000000000000e+000
6726:0.0000000000000000e+000
6727:0.0000000000000000e+000
6728:0.0000000000000000e+000
6729:0.0000000000000000e+000
6730:0.0000000000000000e+000
6731:0.0000000000000000e+000
6732:0.0000000000000000e+000
6733:0.0000000000000000e+000
6734:0.0000000000000000e+000
6735:0.0000000000000000e+000
6736:0.0000000000000000e+000
6737:0.0000000000000000e+000
6738:0.0000000000000000e+000
6739:0.0000000000000000e+000
6740:0.0000000000000000e+000
6741:0.0000000000000000e+000
6742:0.0000000000000000e+000
6743:0.0000000000000000e+000
6744:0.0000000000000000e+000
6745:0.0000000000000000e+000
6746:0.0000000000000000e+000
6747:0.0000000000000000e+000
6748:0.0000000000000000e+000
6749:0.0000000000000000e+000
6750:0.0000000000000000e+000
6751:0.0000000000000000e+000
6752:0.0000000000000000e+000
6753:0.0000000000000000e+000
6754:0.0000000000000000e+000
6755:0.0000000000000000e+000
6756:0.0000000000000000e+000
6757:0.0000000000000000e+000
6758:0.0000000000000000e+000
6759:0.0000000000000000e+000
6760:0.0000000000000000e+000
6761:0.0000000000000000e+000
6762:0.0000000000000000e+000
6763:0.0000000000000000e+000
6764:0.0000000000000000e+000
6765:0.0000000000000000e+000
6766:0.0000000000000000e+000
6767:0.0000000000000000e+000
6768:0.0000000000000000e+000
6769:0.0000000000000000e+000
6770:0.0000000000000000e+000
6771:0.0000000000000000e+000
6772:0.0000000000000000e+000
6773:0.0000000000000000e+000
6774:0.0000000000000000e+000
6775:0.0000000000000000e+000
6776:0.0000000000000000e+000
6777:0.0000000000000000e+000
6778:0.0000000000000000e+000
6779:0.0000000000000000e+000
6780:0.0000000000000000e+000
6781:0.0000000000000000e+000
6782:0.0000000000000000e+000
6783:0.0000000000000000e+000
6784:0.0000000000000000e+000
6785:0.0000000000000000e+000
6786:0.0000000000000000e+000
6787:0.0000000000000000e+000
6788:0.0000000000000000e+000
6789:0.0000000000000000e+000
6790:0.0000000000000000e+000
6791:0.0000000000000000e+000
6792:0.0000000000000000e+000
6793:0.0000000000000000e+000
6794:0.0000000000000000e+000
6795:0.0000000000000000e+000
6796:0.0000000000000000e+000
6797:0.0000000000000000e+000
6798:0.0000000000000000e+000
6799:0.0000000000000000e+000
6800:0.0000000000000000e+000
6801:0.0000000000000000e+000
6802:0.0000000000000000e+000
6803:0.0000000000000000e+000
6804:0.0000000000000000e+000
6805:0.0000000000000000e+000
6806:0.0000000000000000e+000
6807:0.0000000000000000e+000
6808:0.0000000000000000e+000
6809:0.0000000000000000e+000
6810:0.0000000000000000e+000
6811:0.0000000000000000e+000
6812:0.0000000000000000e+000
6813:0.0000000000000000e+000
6814:0.0000000000000000e+000
6815:0.0000000000000000e+000
6816:0.0000000000000000e+000
6817:0.0000000000000000e+000
6818:0.0000000000000000e+000
6819:0.0000000000000000e+000
6820:0.0000000000000000e+000
6821:0.0000000000000000e+000
6822:0.0000000000000000e+000
6823:0.0000000000000000e+000
6824:0.0000000000000000e+000
6825:0.0000000000000000e+000
6826:0.0000000000000000e+000
6827:0.0000000000000000e+000
6828:0.0000000000000000e+000
6829:0.0000000000000000e+000
6830:0.0000000000000000e+000
6831:0.0000000000000000e+000
6832:0.0000000000000000e+000
6833:0.0000000000000000e+000
6834:0.0000000000000000e+000
6835:0.0000000000000000e+000
6836:0.0000000000000000e+000
6837:0.0000000000000000e+000
6838:0.0000000000000000e+000
6839:0.0000000000000000e+000
6840:0.0000000000000000e+000
6841:0.0000000000000000e+000
6842:0.0000000000000000e+000
6843:0.0000000000000000e+000
6844:0.0000000000000000e+000
6845:0.0000000000000000e+000
6846:0.0000000000000000e+000
6847:0.0000000000000000e+000
6848:0.0000000000000000e+000
6849:0.0000000000000000e+000
6850:0.0000000000000000e+000
6851:0.0000000000000000e+000
6852:0.0000000000000000e+000
6853:0.0000000000000000e+000
6854:0.0000000000000000e+000
6855:0.0000000000000000e+000
6856:0.0000000000000000e+000
6857:0.0000000000000000e+000
6858:0.0000000000000000e+000
6859:0.0000000000000000e+000
6860:0.0000000000000000e+000
6861:0.0000000000000000e+000
6862:0.0000000000000000e+000
6863:0.0000000000000000e+000
6864:0.0000000000000000e+000
6865:0.0000000000000000e+000
6866:0.0000000000000000e+000
6867:0.0000000000000000e+000
6868:0.0000000000000000e+000
6869:0.0000000000000000e+000
6870:0.0000000000000000e+000
6871:0.0000000000000000e+000
6872:0.0000000000000000e+000
6873:0.0000000000000000e+000
6874:0.0000000000000000e+000
6875:0.0000000000000000e+000
6876:0.0000000000000000e+000
6877:0.0000000000000000e+000
6878:0.0000000000000000e+000
6879:0.0000000000000000e+000
6880:0.0000000000000000e+000
6881:0.0000000000000000e+000
6882:0.0000000000000000e+000
6883:0.0000000000000000e+000
6884:0.0000000000000000e+000
6885:0.0000000000000000e+000
6886:0.0000000000000000e+000
6887:0.0000000000000000e+000
6888:0.0000000000000000e+000
6889:0.0000000000000000e+000
6890:0.0000000000000000e+000
6891:0.0000000000000000e+000
6892:0.0000000000000000e+000
6893:0.0000000000000000e+000
6894:0.0000000000000000e+000
6895:0.0000000000000000e+000
6896:0.0000000000000000e+000
6897:0.0000000000000000e+000
6898:0.0000000000000000e+000
6899:0.0000000000000000e+000
6900:0.0000000000000000e+000
6901:0.0000000000000000e+000
6902:0.0000000000000000e+000
6903:0.0000000000000000e+000
6904:0.0000000000000000e+000
6905:0.0000000000000000e+000
6906:0.0000000000000000e+000
6907:0.0000000000000000e+000
6908:0.0000000000000000e+000
6909:0.0000000000000000e+000
6910:0.0000000000000000e+000
6911:0.0000000000000000e+000
6912:0.0000000000000000e+000
6913:0.0000000000000000e+000
6914:0.0000000000000000e+000
6915:0.0000000000000000e+000
6916:0.0000000000000000e+000
6917:0.0000000000000000e+000
6918:0.0000000000000000e+000
6919:0.0000000000000000e+000
6920:0.0000000000000000e+000
6921:0.0000000000000000e+000
6922:0.0000000000000000e+000
6923:0.0000000000000000e+000
6924:0.0000000000000000e+000
6925:0.0000000000000000e+000
6926:0.0000000000000000e+000
6927:0.0000000000000000e+000
6928:0.0000000000000000e+000
6929:0.0000000000000000e+000
6930:0.0000000000000000e+000
6931:0.0000000000000000e+000
6932:0.0000000000000000e+000
6933:0.0000000000000000e+000
6934:0.0000000000000000e+000
6935:0.0000000000000000e+000
6936:0.0000000000000000e+000
6937:0.0000000000000000e+000
6938:0.0000000000000000e+000
6939:0.0000000000000000e+000
6940:0.0000000000000000e+000
6941:0.0000000000000000e+000
6942:0.0000000000000000e+000
6943:0.0000000000000000e+000
6944:0.0000000000000000e+000
6945:0.0000000000000000e+000
6946:0.0000000000000000e+000
6947:0.0000000000000000e+000
6948:0.0000000000000000e+000
6949:0.0000000000000000e+000
6950:0.0000000000000000e+000
6951:0.0000000000000000e+000
6952:0.0000000000000000e+000
6953:0.0000000000000000e+000
6954:0.0000000000000000e+000
6955:0.0000000000000000e+000
6956:0.0000000000000000e+000
6957:0.0000000000000000e+000
6958:0.0000000000000000e+000
6959:0.0000000000000000e+000
6960:0.0000000000000000e+000
6961:0.0000000000000000e+000
6962:0.0000000000000000e+000
6963:0.0000000000000000e+000
6964:0.0000000000000000e+000
6965:0.0000000000000000e+000
6966:0.0000000000000000e+000
6967:0.0000000000000000e+000
6968:0.0000000000000000e+000
6969:0.0000000000000000e+000
6970:0.0000000000000000e+000
6971:0.0000000000000000e+000
6972:0.0000000000000000e+000
6973:0.0000000000000000e+000
6974:0.0000000000000000e+000
6975:0.0000000000000000e+000
6976:0.0000000000000000e+000
6977:0.0000000000000000e+000
6978:0.0000000000000000e+000
6979:0.0000000000000000e+000
6980:0.0000000000000000e+000
6981:0.0000000000000000e+000
6982:0.0000000000000000e+000
6983:0.0000000000000000e+000
6984:0.0000000000000000e+000
6985:0.0000000000000000e+000
6986:0.0000000000000000e+000
6987:0.0000000000000000e+000
6988:0.0000000000000000e+000
6989:0.0000000000000000e+000
6990:0.0000000000000000e+000
6991:0.0000000000000000e+000
6992:0.0000000000000000e+000
6993:0.0000000000000000e+000
6994:0.0000000000000000e+000
6995:0.0000000000000000e+000
6996:0.0000000000000000e+000
6997:0.0000000000000000e+000
6998:0.0000000000000000e+000
6999:0.0000000000000000e+000
7000:0.0000000000000000e+000
7001:0.0000000000000000e+000
7002:0.0000000000000000e+000
7003:0.0000000000000000e+000
7004:0.0000000000000000e+000
7005:0.0000000000000000e+000
7006:0.0000000000000000e+000
7007:0.0000000000000000e+000
7008:0.0000000000000000e+000
7009:0.0000000000000000e+000
7010:0.0000000000000000e+000
7011:0.0000000000000000e+000
7012:0.0000000000000000e+000
7013:0.0000000000000000e+000
7014:0.0000000000000000e+000
7015:0.0000000000000000e+000
7016:0.0000000000000000e+000
7017:0.0000000000000000e+000
7018:0.0000000000000000e+000
7019:0.0000000000000000e+000
7020:0.0000000000000000e+000
7021:0.0000000000000000e+000
7022:0.0000000000000000e+000
7023:0.0000000000000000e+000
7024:0.0000000000000000e+000
7025:0.0000000000000000e+000
7026:0.0000000000000000e+000
7027:0.0000000000000000e+000
7028:0.0000000000000000e+000
7029:0.0000000000000000e+000
7030:0.0000000000000000e+000
7031:0.0000000000000000e+000
7032:0.0000000000000000e+000
7033:0.0000000000000000e+000
7034:0.0000000000000000e+000
7035:0.0000000000000000e+000
7036:0.0000000000000000e+000
7037:0.0000000000000000e+000
7038:0.0000000000000000e+000
7039:0.0000000000000000e+000
7040:0.0000000000000000e+000
7041:0.0000000000000000e+000
7042:0.0000000000000000e+000
7043:0.0000000000000000e+000
7044:0.0000000000000000e+000
7045:0.0000000000000000e+000
7046:0.0000000000000000e+000
7047:0.0000000000000000e+000
7048:0.0000000000000000e+000
7049:0.0000000000000000e+000
7050:0.0000000000000000e+000
7051:0.0000000000000000e+000
7052:0.0000000000000000e+000
7053:0.0000000000000000e+000
7054:0.0000000000000000e+000
7055:0.0000000000000000e+000
7056:0.0000000000000000e+000
7057:0.0000000000000000e+000
7058:0.0000000000000000e+000
7059:0.0000000000000000e+000
7060:0.0000000000000000e+000
7061:0.0000000000000000e+000
7062:0.0000000000000000e+000
7063:0.0000000000000000e+000
7064:0.0000000000000000e+000
7065:0.0000000000000000e+000
7066:0.0000000000000000e+000
7067:0.0000000000000000e+000
7068:0.0000000000000000e+000
7069:0.0000000000000000e+000
7070:0.0000000000000000e+000
7071:0.0000000000000000e+000
7072:0.0000000000000000e+000
7073:0.0000000000000000e+000
7074:0.0000000000000000e+000
7075:0.0000000000000000e+000
7076:0.0000000000000000e+000
7077:0.0000000000000000e+000
7078:0.0000000000000000e+000
7079:0.0000000000000000e+000
7080:0.0000000000000000e+000
7081:0.0000000000000000e+000
7082:0.0000000000000000e+000
7083:0.0000000000000000e+000
7084:0.0000000000000000e+000
7085:0.0000000000000000e+000
7086:0.0000000000000000e+000
7087:0.0000000000000000e+000
7088:0.0000000000000000e+000
7089:0.0000000000000000e+000
7090:0.0000000000000000e+000
7091:0.0000000000000000e+000
7092:0.0000000000000000e+000
7093:0.0000000000000000e+000
7094:0.0000000000000000e+000
7095:0.0000000000000000e+000
7096:0.0000000000000000e+000
7097:0.0000000000000000e+000
7098:0.0000000000000000e+000
7099:0.0000000000000000e+000
7100:0.0000000000000000e+000
7101:0.0000000000000000e+000
7102:0.0000000000000000e+000
7103:0.0000000000000000e+000
7104:0.0000000000000000e+000
7105:0.0000000000000000e+000
7106:0.0000000000000000e+000
7107:0.0000000000000000e+000
7108:0.0000000000000000e+000
7109:0.0000000000000000e+000
7110:0.0000000000000000e+000
7111:0.0000000000000000e+000
7112:0.0000000000000000e+000
7113:0.0000000000000000e+000
7114:0.0000000000000000e+000
7115:0.0000000000000000e+000
7116:0.0000000000000000e+000
7117:0.0000000000000000e+000
7118:0.0000000000000000e+000
7119:0.0000000000000000e+000
7120:0.0000000000000000e+000
7121:0.0000000000000000e+000
7122:0.0000000000000000e+000
7123:0.0000000000000000e+000
7124:0.0000000000000000e+000
7125:0.0000000000000000e+000
7126:0.0000000000000000e+000
7127:0.0000000000000000e+000
7128:0.0000000000000000e+000
7129:0.0000000000000000e+000
7130:0.0000000000000000e+000
7131:0.0000000000000000e+000
7132:0.0000000000000000e+000
7133:0.0000000000000000e+000
7134:0.0000000000000000e+000
7135:0.0000000000000000e+000
7136:0.0000000000000000e+000
7137:0.0000000000000000e+000
7138:0.0000000000000000e+000
7139:0.0000000000000000e+000
7140:0.0000000000000000e+000
7141:0.0000000000000000e+000
7142:0.0000000000000000e+000
7143:0.0000000000000000e+000
7144:0.0000000000000000e+000
7145:0.0000000000000000e+000
7146:0.0000000000000000e+000
7147:0.0000000000000000e+000
7148:0.0000000000000000e+000
7149:0.0000000000000000e+000
7150:0.0000000000000000e+000
7151:0.0000000000000000e+000
7152:0.0000000000000000e+000
7153:0.0000000000000000e+000
7154:0.0000000000000000e+000
7155:0.0000000000000000e+000
7156:0.0000000000000000e+000
7157:0.0000000000000000e+000
7158:0.0000000000000000e+000
7159:0.0000000000000000e+000
7160:0.0000000000000000e+000
7161:0.0000000000000000e+000
7162:0.0000000000000000e+000
7163:0.0000000000000000e+000
7164:0.0000000000000000e+000
7165:0.0000000000000000e+000
7166:0.0000000000000000e+000
7167:0.0000000000000000e+000
7168:0.0000000000000000e+000
7169:0.0000000000000000e+000
7170:0.0000000000000000e+000
7171:0.0000000000000000e+000
7172:0.0000000000000000e+000
7173:0.0000000000000000e+000
7174:0.0000000000000000e+000
7175:0.0000000000000000e+000
7176:0.0000000000000000e+000
7177:0.0000000000000000e+000
7178:0.0000000000000000e+000
7179:0.0000000000000000e+000
7180:0.0000000000000000e+000
7181:0.0000000000000000e+000
7182:0.0000000000000000e+000
7183:0.0000000000000000e+000
7184:0.0000000000000000e+000
7185:0.0000000000000000e+000
7186:0.0000000000000000e+000
7187:0.0000000000000000e+000
7188:0.0000000000000000e+000
7189:0.0000000000000000e+000
7190:0.0000000000000000e+000
7191:0.0000000000000000e+000
7192:0.0000000000000000e+000
7193:0.0000000000000000e+000
7194:0.0000000000000000e+000
7195:0.0000000000000000e+000
7196:0.0000000000000000e+000
7197:0.0000000000000000e+000
7198:0.0000000000000000e+000
7199:0.0000000000000000e+000
7200:0.0000000000000000e+000
7201:0.0000000000000000e+000
7202:0.0000000000000000e+000
7203:0.0000000000000000e+000
7204:0.0000000000000000e+000
7205:0.0000000000000000e+000
7206:0.0000000000000000e+000
7207:0.0000000000000000e+000
7208:0.0000000000000000e+000
7209:0.0000000000000000e+000
7210:0.0000000000000000e+000
7211:0.0000000000000000e+000
7212:0.0000000000000000e+000
7213:0.0000000000000000e+000
7214:0.0000000000000000e+000
7215:0.0000000000000000e+000
7216:0.0000000000000000e+000
7217:0.0000000000000000e+000
7218:0.0000000000000000e+000
7219:0.0000000000000000e+000
7220:0.0000000000000000e+000
7221:0.0000000000000000e+000
7222:0.0000000000000000e+000
7223:0.0000000000000000e+000
7224:0.0000000000000000e+000
7225:0.0000000000000000e+000
7226:0.0000000000000000e+000
7227:0.0000000000000000e+000
7228:0.0000000000000000e+000
7229:0.0000000000000000e+000
7230:0.0000000000000000e+000
7231:0.0000000000000000e+000
7232:0.0000000000000000e+000
7233:0.0000000000000000e+000
7234:0.0000000000000000e+000
7235:0.0000000000000000e+000
7236:0.0000000000000000e+000
7237:0.0000000000000000e+000
7238:0.0000000000000000e+000
7239:0.0000000000000000e+000
7240:0.0000000000000000e+000
7241:0.0000000000000000e+000
7242:0.0000000000000000e+000
7243:0.0000000000000000e+000
7244:0.0000000000000000e+000
7245:0.0000000000000000e+000
7246:0.0000000000000000e+000
7247:0.0000000000000000e+000
7248:0.0000000000000000e+000
7249:0.0000000000000000e+000
7250:0.0000000000000000e+000
7251:0.0000000000000000e+000
7252:0.0000000000000000e+000
7253:0.0000000000000000e+000
7254:0.0000000000000000e+000
7255:0.0000000000000000e+000
7256:0.0000000000000000e+000
7257:0.0000000000000000e+000
7258:0.0000000000000000e+000
7259:0.0000000000000000e+000
7260:0.0000000000000000e+000
7261:0.0000000000000000e+000
7262:0.0000000000000000e+000
7263:0.0000000000000000e+000
7264:0.0000000000000000e+000
7265:0.0000000000000000e+000
7266:0.0000000000000000e+000
7267:0.0000000000000000e+000
7268:0.0000000000000000e+000
7269:0.0000000000000000e+000
7270:0.0000000000000000e+000
7271:0.0000000000000000e+000
7272:0.0000000000000000e+000
7273:0.0000000000000000e+000
7274:0.0000000000000000e+000
7275:0.0000000000000000e+000
7276:0.0000000000000000e+000
7277:0.0000000000000000e+000
7278:0.0000000000000000e+000
7279:0.0000000000000000e+000
7280:0.0000000000000000e+000
7281:0.0000000000000000e+000
7282:0.0000000000000000e+000
7283:0.0000000000000000e+000
7284:0.0000000000000000e+000
7285:0.0000000000000000e+000
7286:0.0000000000000000e+000
7287:0.0000000000000000e+000
7288:0.0000000000000000e+000
7289:0.0000000000000000e+000
7290:0.0000000000000000e+000
7291:0.0000000000000000e+000
7292:0.0000000000000000e+000
7293:0.0000000000000000e+000
7294:0.0000000000000000e+000
7295:0.0000000000000000e+000
7296:0.0000000000000000e+000
7297:0.0000000000000000e+000
7298:0.0000000000000000e+000
7299:0.0000000000000000e+000
7300:0.0000000000000000e+000
7301:0.0000000000000000e+000
7302:0.0000000000000000e+000
7303:0.0000000000000000e+000
7304:0.0000000000000000e+000
7305:0.0000000000000000e+000
7306:0.0000000000000000e+000
7307:0.0000000000000000e+000
7308:0.0000000000000000e+000
7309:0.0000000000000000e+000
7310:0.0000000000000000e+000
7311:0.0000000000000000e+000
7312:0.0000000000000000e+000
7313:0.0000000000000000e+000
7314:0.0000000000000000e+000
7315:0.0000000000000000e+000
7316:0.0000000000000000e+000
7317:0.0000000000000000e+000
7318:0.0000000000000000e+000
7319:0.0000000000000000e+000
7320:0.0000000000000000e+000
7321:0.0000000000000000e+000
7322:0.0000000000000000e+000
7323:0.0000000000000000e+000
7324:0.0000000000000000e+000
7325:0.0000000000000000e+000
7326:0.0000000000000000e+000
7327:0.0000000000000000e+000
7328:0.0000000000000000e+000
7329:0.0000000000000000e+000
7330:0.0000000000000000e+000
7331:0.0000000000000000e+000
7332:0.0000000000000000e+000
7333:0.0000000000000000e+000
7334:0.0000000000000000e+000
7335:0.0000000000000000e+000
7336:0.0000000000000000e+000
7337:0.0000000000000000e+000
7338:0.0000000000000000e+000
7339:0.0000000000000000e+000
7340:0.0000000000000000e+000
7341:0.0000000000000000e+000
7342:0.0000000000000000e+000
7343:0.0000000000000000e+000
7344:0.0000000000000000e+000
7345:0.0000000000000000e+000
7346:0.0000000000000000e+000
7347:0.0000000000000000e+000
7348:0.0000000000000000e+000
7349:0.0000000000000000e+000
7350:0.0000000000000000e+000
7351:0.0000000000000000e+000
7352:0.0000000000000000e+000
7353:0.0000000000000000e+000
7354:0.0000000000000000e+000
7355:0.0000000000000000e+000
7356:0.0000000000000000e+000
7357:0.0000000000000000e+000
7358:0.0000000000000000e+000
7359:0.0000000000000000e+000
7360:0.0000000000000000e+000
7361:0.0000000000000000e+000
7362:0.0000000000000000e+000
7363:0.0000000000000000e+000
7364:0.0000000000000000e+000
7365:0.0000000000000000e+000
7366:0.0000000000000000e+000
7367:0.0000000000000000e+000
7368:0.0000000000000000e+000
7369:0.0000000000000000e+000
7370:0.0000000000000000e+000
7371:0.0000000000000000e+000
7372:0.0000000000000000e+000
7373:0.0000000000000000e+000
7374:0.0000000000000000e+000
7375:0.0000000000000000e+000
7376:0.0000000000000000e+000
7377:0.0000000000000000e+000
7378:0.0000000000000000e+000
7379:0.0000000000000000e+000
7380:0.0000000000000000e+000
7381:0.0000000000000000e+000
7382:0.0000000000000000e+000
7383:0.0000000000000000e+000
7384:0.0000000000000000e+000
7385:0.0000000000000000e+000
7386:0.0000000000000000e+000
7387:0.0000000000000000e+000
7388:0.0000000000000000e+000
7389:0.0000000000000000e+000
7390:0.0000000000000000e+000
7391:0.0000000000000000e+000
7392:0.0000000000000000e+000
7393:0.0000000000000000e+000
7394:0.0000000000000000e+000
7395:0.0000000000000000e+000
7396:0.0000000000000000e+000
7397:0.0000000000000000e+000
7398:0.0000000000000000e+000
7399:0.0000000000000000e+000
7400:0.0000000000000000e+000
7401:0.0000000000000000e+000
7402:0.0000000000000000e+000
7403:0.0000000000000000e+000
7404:0.0000000000000000e+000
7405:0.0000000000000000e+000
7406:0.0000000000000000e+000
7407:0.0000000000000000e+000
7408:0.0000000000000000e+000
7409:0.0000000000000000e+000
7410:0.0000000000000000e+000
7411:0.0000000000000000e+000
7412:0.0000000000000000e+000
7413:0.0000000000000000e+000
7414:0.0000000000000000e+000
7415:0.0000000000000000e+000
7416:0.0000000000000000e+000
7417:0.0000000000000000e+000
7418:0.0000000000000000e+000
7419:0.0000000000000000e+000
7420:0.0000000000000000e+000
7421:0.0000000000000000e+000
7422:0.0000000000000000e+000
7423:0.0000000000000000e+000
7424:0.0000000000000000e+000
7425:0.0000000000000000e+000
7426:0.0000000000000000e+000
7427:0.0000000000000000e+000
7428:0.0000000000000000e+000
7429:0.0000000000000000e+000
7430:0.0000000000000000e+000
7431:0.0000000000000000e+000
7432:0.0000000000000000e+000
7433:0.0000000000000000e+000
7434:0.0000000000000000e+000
7435:0.0000000000000000e+000
7436:0.0000000000000000e+000
7437:0.0000000000000000e+000
7438:0.0000000000000000e+000
7439:0.0000000000000000e+000
7440:0.0000000000000000e+000
7441:0.0000000000000000e+000
7442:0.0000000000000000e+000
7443:0.0000000000000000e+000
7444:0.0000000000000000e+000
7445:0.0000000000000000e+000
7446:0.0000000000000000e+000
7447:0.0000000000000000e+000
7448:0.0000000000000000e+000
7449:0.0000000000000000e+000
7450:0.0000000000000000e+000
7451:0.0000000000000000e+000
7452:0.0000000000000000e+000
7453:0.0000000000000000e+000
7454:0.0000000000000000e+000
7455:0.0000000000000000e+000
7456:0.0000000000000000e+000
7457:0.0000000000000000e+000
7458:0.0000000000000000e+000
7459:0.0000000000000000e+000
7460:0.0000000000000000e+000
7461:0.0000000000000000e+000
7462:0.0000000000000000e+000
7463:0.0000000000000000e+000
7464:0.0000000000000000e+000
7465:0.0000000000000000e+000
7466:0.0000000000000000e+000
7467:0.0000000000000000e+000
7468:0.0000000000000000e+000
7469:0.0000000000000000e+000
7470:0.0000000000000000e+000
7471:0.0000000000000000e+000
7472:0.0000000000000000e+000
7473:0.0000000000000000e+000
7474:0.0000000000000000e+000
7475:0.0000000000000000e+000
7476:0.0000000000000000e+000
7477:0.0000000000000000e+000
7478:0.0000000000000000e+000
7479:0.0000000000000000e+000
7480:0.0000000000000000e+000
7481:0.0000000000000000e+000
7482:0.0000000000000000e+000
7483:0.0000000000000000e+000
7484:0.0000000000000000e+000
7485:0.0000000000000000e+000
7486:0.0000000000000000e+000
7487:0.0000000000000000e+000
7488:0.0000000000000000e+000
7489:0.0000000000000000e+000
7490:0.0000000000000000e+000
7491:0.0000000000000000e+000
7492:0.0000000000000000e+000
7493:0.0000000000000000e+000
7494:0.0000000000000000e+000
7495:0.0000000000000000e+000
7496:0.0000000000000000e+000
7497:0.0000000000000000e+000
7498:0.0000000000000000e+000
7499:0.0000000000000000e+000
7500:0.0000000000000000e+000
7501:0.0000000000000000e+000
7502:0.0000000000000000e+000
7503:0.0000000000000000e+000
7504:0.0000000000000000e+000
7505:0.0000000000000000e+000
7506:0.0000000000000000e+000
7507:0.0000000000000000e+000
7508:0.0000000000000000e+000
7509:0.0000000000000000e+000
7510:0.0000000000000000e+000
7511:0.0000000000000000e+000
7512:0.0000000000000000e+000
7513:0.0000000000000000e+000
7514:0.0000000000000000e+000
7515:0.0000000000000000e+000
7516:0.0000000000000000e+000
7517:0.0000000000000000e+000
7518:0.0000000000000000e+000
7519:0.0000000000000000e+000
7520:0.0000000000000000e+000
7521:0.0000000000000000e+000
7522:0.0000000000000000e+000
7523:0.0000000000000000e+000
7524:0.0000000000000000e+000
7525:0.0000000000000000e+000
7526:0.0000000000000000e+000
7527:0.0000000000000000e+000
7528:0.0000000000000000e+000
7529:0.0000000000000000e+000
7530:0.0000000000000000e+000
7531:0.0000000000000000e+000
7532:0.0000000000000000e+000
7533:0.0000000000000000e+000
7534:0.0000000000000000e+000
7535:0.0000000000000000e+000
7536:0.0000000000000000e+000
7537:0.0000000000000000e+000
7538:0.0000000000000000e+000
7539:0.0000000000000000e+000
7540:0.0000000000000000e+000
7541:0.0000000000000000e+000
7542:0.0000000000000000e+000
7543:0.0000000000000000e+000
7544:0.0000000000000000e+000
7545:0.0000000000000000e+000
7546:0.0000000000000000e+000
7547:0.0000000000000000e+000
7548:0.0000000000000000e+000
7549:0.0000000000000000e+000
7550:0.0000000000000000e+000
7551:0.0000000000000000e+000
7552:0.0000000000000000e+000
7553:0.0000000000000000e+000
7554:0.0000000000000000e+000
7555:0.0000000000000000e+000
7556:0.0000000000000000e+000
7557:0.0000000000000000e+000
7558:0.0000000000000000e+000
7559:0.0000000000000000e+000
7560:0.0000000000000000e+000
7561:0.0000000000000000e+000
7562:0.0000000000000000e+000
7563:0.0000000000000000e+000
7564:0.0000000000000000e+000
7565:0.0000000000000000e+000
7566:0.0000000000000000e+000
7567:0.0000000000000000e+000
7568:0.0000000000000000e+000
7569:0.0000000000000000e+000
7570:0.0000000000000000e+000
7571:0.0000000000000000e+000
7572:0.0000000000000000e+000
7573:0.0000000000000000e+000
7574:0.0000000000000000e+000
7575:0.0000000000000000e+000
7576:0.0000000000000000e+000
7577:0.0000000000000000e+000
7578:0.0000000000000000e+000
7579:0.0000000000000000e+000
7580:0.0000000000000000e+000
7581:0.0000000000000000e+000
7582:0.0000000000000000e+000
7583:0.0000000000000000e+000
7584:0.0000000000000000e+000
7585:0.0000000000000000e+000
7586:0.0000000000000000e+000
7587:0.0000000000000000e+000
7588:0.0000000000000000e+000
7589:0.0000000000000000e+000
7590:0.0000000000000000e+000
7591:0.0000000000000000e+000
7592:0.0000000000000000e+000
7593:0.0000000000000000e+000
7594:0.0000000000000000e+000
7595:0.0000000000000000e+000
7596:0.0000000000000000e+000
7597:0.0000000000000000e+000
7598:0.0000000000000000e+000
7599:0.0000000000000000e+000
7600:0.0000000000000000e+000
7601:0.0000000000000000e+000
7602:0.0000000000000000e+000
7603:0.0000000000000000e+000
7604:0.0000000000000000e+000
7605:0.0000000000000000e+000
7606:0.0000000000000000e+000
7607:0.0000000000000000e+000
7608:0.0000000000000000e+000
7609:0.0000000000000000e+000
7610:0.0000000000000000e+000
7611:0.0000000000000000e+000
7612:0.0000000000000000e+000
7613:0.0000000000000000e+000
7614:0.0000000000000000e+000
7615:0.0000000000000000e+000
7616:0.0000000000000000e+000
7617:0.0000000000000000e+000
7618:0.0000000000000000e+000
7619:0.0000000000000000e+000
7620:0.0000000000000000e+000
7621:0.0000000000000000e+000
7622:0.0000000000000000e+000
7623:0.0000000000000000e+000
7624:0.0000000000000000e+000
7625:0.0000000000000000e+000
7626:0.0000000000000000e+000
7627:0.0000000000000000e+000
7628:0.0000000000000000e+000
7629:0.0000000000000000e+000
7630:0.0000000000000000e+000
7631:0.0000000000000000e+000
7632:0.0000000000000000e+000
7633:0.0000000000000000e+000
7634:0.0000000000000000e+000
7635:0.0000000000000000e+000
7636:0.0000000000000000e+000
7637:0.0000000000000000e+000
7638:0.0000000000000000e+000
7639:0.0000000000000000e+000
7640:0.0000000000000000e+000
7641:0.0000000000000000e+000
7642:0.0000000000000000e+000
7643:0.0000000000000000e+000
7644:0.0000000000000000e+000
7645:0.0000000000000000e+000
7646:0.0000000000000000e+000
7647:0.0000000000000000e+000
7648:0.0000000000000000e+000
7649:0.0000000000000000e+000
7650:0.0000000000000000e+000
7651:0.0000000000000000e+000
7652:0.0000000000000000e+000
7653:0.0000000000000000e+000
7654:0.0000000000000000e+000
7655:0.0000000000000000e+000
7656:0.0000000000000000e+000
7657:0.0000000000000000e+000
7658:0.0000000000000000e+000
7659:0.0000000000000000e+000
7660:0.0000000000000000e+000
7661:0.0000000000000000e+000
7662:0.0000000000000000e+000
7663:0.0000000000000000e+000
7664:0.0000000000000000e+000
7665:0.0000000000000000e+000
7666:0.0000000000000000e+000
7667:0.0000000000000000e+000
7668:0.0000000000000000e+000
7669:0.0000000000000000e+000
7670:0.0000000000000000e+000
7671:0.0000000000000000e+000
7672:0.0000000000000000e+000
7673:0.0000000000000000e+000
7674:0.0000000000000000e+000
7675:0.0000000000000000e+000
7676:0.0000000000000000e+000
7677:0.0000000000000000e+000
7678:0.0000000000000000e+000
7679:0.0000000000000000e+000
7680:0.0000000000000000e+000
7681:0.0000000000000000e+000
7682:0.0000000000000000e+000
7683:0.0000000000000000e+000
7684:0.0000000000000000e+000
7685:0.0000000000000000e+000
7686:0.0000000000000000e+000
7687:0.0000000000000000e+000
7688:0.0000000000000000e+000
7689:0.0000000000000000e+000
7690:0.0000000000000000e+000
7691:0.0000000000000000e+000
7692:0.0000000000000000e+000
7693:0.0000000000000000e+000
7694:0.0000000000000000e+000
7695:0.0000000000000000e+000
7696:0.0000000000000000e+000
7697:0.0000000000000000e+000
7698:0.0000000000000000e+000
7699:0.0000000000000000e+000
7700:0.0000000000000000e+000
7701:0.0000000000000000e+000
7702:0.0000000000000000e+000
7703:0.0000000000000000e+000
7704:0.0000000000000000e+000
7705:0.0000000000000000e+000
7706:0.0000000000000000e+000
7707:0.0000000000000000e+000
7708:0.0000000000000000e+000
7709:0.0000000000000000e+000
7710:0.0000000000000000e+000
7711:0.0000000000000000e+000
7712:0.0000000000000000e+000
7713:0.0000000000000000e+000
7714:0.0000000000000000e+000
7715:0.0000000000000000e+000
7716:0.0000000000000000e+000
7717:0.0000000000000000e+000
7718:0.0000000000000000e+000
7719:0.0000000000000000e+000
7720:0.0000000000000000e+000
7721:0.0000000000000000e+000
7722:0.0000000000000000e+000
7723:0.0000000000000000e+000
7724:0.0000000000000000e+000
7725:0.0000000000000000e+000
7726:0.0000000000000000e+000
7727:0.0000000000000000e+000
7728:0.0000000000000000e+000
7729:0.0000000000000000e+000
7730:0.0000000000000000e+000
7731:0.0000000000000000e+000
7732:0.0000000000000000e+000
7733:0.0000000000000000e+000
7734:0.0000000000000000e+000
7735:0.0000000000000000e+000
7736:0.0000000000000000e+000
7737:0.0000000000000000e+000
7738:0.0000000000000000e+000
7739:0.0000000000000000e+000
7740:0.0000000000000000e+000
7741:0.0000000000000000e+000
7742:0.0000000000000000e+000
7743:0.0000000000000000e+000
7744:0.0000000000000000e+000
7745:0.0000000000000000e+000
7746:0.0000000000000000e+000
7747:0.0000000000000000e+000
7748:0.0000000000000000e+000
7749:0.0000000000000000e+000
7750:0.0000000000000000e+000
7751:0.0000000000000000e+000
7752:0.0000000000000000e+000
7753:0.0000000000000000e+000
7754:0.0000000000000000e+000
7755:0.0000000000000000e+000
7756:0.0000000000000000e+000
7757:0.0000000000000000e+000
7758:0.0000000000000000e+000
7759:0.0000000000000000e+000
7760:0.0000000000000000e+000
7761:0.0000000000000000e+000
7762:0.0000000000000000e+000
7763:0.0000000000000000e+000
7764:0.0000000000000000e+000
7765:0.0000000000000000e+000
7766:0.0000000000000000e+000
7767:0.0000000000000000e+000
7768:0.0000000000000000e+000
7769:0.0000000000000000e+000
7770:0.0000000000000000e+000
7771:0.0000000000000000e+000
7772:0.0000000000000000e+000
7773:0.0000000000000000e+000
7774:0.0000000000000000e+000
7775:0.0000000000000000e+000
7776:0.0000000000000000e+000
7777:0.0000000000000000e+000
7778:0.0000000000000000e+000
7779:0.0000000000000000e+000
7780:0.0000000000000000e+000
7781:0.0000000000000000e+000
7782:0.0000000000000000e+000
7783:0.0000000000000000e+000
7784:0.0000000000000000e+000
7785:0.0000000000000000e+000
7786:0.0000000000000000e+000
7787:0.0000000000000000e+000
7788:0.0000000000000000e+000
7789:0.0000000000000000e+000
7790:0.0000000000000000e+000
7791:0.0000000000000000e+000
7792:0.0000000000000000e+000
7793:0.0000000000000000e+000
7794:0.0000000000000000e+000
7795:0.0000000000000000e+000
7796:0.0000000000000000e+000
7797:0.0000000000000000e+000
7798:0.0000000000000000e+000
7799:0.0000000000000000e+000
7800:0.0000000000000000e+000
7801:0.0000000000000000e+000
7802:0.0000000000000000e+000
7803:0.0000000000000000e+000
7804:0.0000000000000000e+000
7805:0.0000000000000000e+000
7806:0.0000000000000000e+000
7807:0.0000000000000000e+000
7808:0.0000000000000000e+000
7809:0.0000000000000000e+000
7810:0.0000000000000000e+000
7811:0.0000000000000000e+000
7812:0.0000000000000000e+000
7813:0.0000000000000000e+000
7814:0.0000000000000000e+000
7815:0.0000000000000000e+000
7816:0.0000000000000000e+000
7817:0.0000000000000000e+000
7818:0.0000000000000000e+000
7819:0.0000000000000000e+000
7820:0.0000000000000000e+000
7821:0.0000000000000000e+000
7822:0.0000000000000000e+000
7823:0.0000000000000000e+000
7824:0.0000000000000000e+000
7825:0.0000000000000000e+000
7826:0.0000000000000000e+000
7827:0.0000000000000000e+000
7828:0.0000000000000000e+000
7829:0.0000000000000000e+000
7830:0.0000000000000000e+000
7831:0.0000000000000000e+000
7832:0.0000000000000000e+000
7833:0.0000000000000000e+000
7834:0.0000000000000000e+000
7835:0.0000000000000000e+000
7836:0.0000000000000000e+000
7837:0.0000000000000000e+000
7838:0.0000000000000000e+000
7839:0.0000000000000000e+000
7840:0.0000000000000000e+000
7841:0.0000000000000000e+000
7842:0.0000000000000000e+000
7843:0.0000000000000000e+000
7844:0.0000000000000000e+000
7845:0.0000000000000000e+000
7846:0.0000000000000000e+000
7847:0.0000000000000000e+000
7848:0.0000000000000000e+000
7849:0.0000000000000000e+000
7850:0.0000000000000000e+000
7851:0.0000000000000000e+000
7852:0.0000000000000000e+000
7853:0.0000000000000000e+000
7854:0.0000000000000000e+000
7855:0.0000000000000000e+000
7856:0.0000000000000000e+000
7857:0.0000000000000000e+000
7858:0.0000000000000000e+000
7859:0.0000000000000000e+000
7860:0.0000000000000000e+000
7861:0.0000000000000000e+000
7862:0.0000000000000000e+000
7863:0.0000000000000000e+000
7864:0.0000000000000000e+000
7865:0.0000000000000000e+000
7866:0.0000000000000000e+000
7867:0.0000000000000000e+000
7868:0.0000000000000000e+000
7869:0.0000000000000000e+000
7870:0.0000000000000000e+000
7871:0.0000000000000000e+000
7872:0.0000000000000000e+000
7873:0.0000000000000000e+000
7874:0.0000000000000000e+000
7875:0.0000000000000000e+000
7876:0.0000000000000000e+000
7877:0.0000000000000000e+000
7878:0.0000000000000000e+000
7879:0.0000000000000000e+000
7880:0.0000000000000000e+000
7881:0.0000000000000000e+000
7882:0.0000000000000000e+000
7883:0.0000000000000000e+000
7884:0.0000000000000000e+000
7885:0.0000000000000000e+000
7886:0.0000000000000000e+000
7887:0.0000000000000000e+000
7888:0.0000000000000000e+000
7889:0.0000000000000000e+000
7890:0.0000000000000000e+000
7891:0.0000000000000000e+000
7892:0.0000000000000000e+000
7893:0.0000000000000000e+000
7894:0.0000000000000000e+000
7895:0.0000000000000000e+000
7896:0.0000000000000000e+000
7897:0.0000000000000000e+000
7898:0.0000000000000000e+000
7899:0.0000000000000000e+000
7900:0.0000000000000000e+000
7901:0.0000000000000000e+000
7902:0.0000000000000000e+000
7903:0.0000000000000000e+000
7904:0.0000000000000000e+000
7905:0.0000000000000000e+000
7906:0.0000000000000000e+000
7907:0.0000000000000000e+000
7908:0.0000000000000000e+000
7909:0.0000000000000000e+000
7910:0.0000000000000000e+000
7911:0.0000000000000000e+000
7912:0.0000000000000000e+000
7913:0.0000000000000000e+000
7914:0.0000000000000000e+000
7915:0.0000000000000000e+000
7916:0.0000000000000000e+000
7917:0.0000000000000000e+000
7918:0.0000000000000000e+000
7919:0.0000000000000000e+000
7920:0.0000000000000000e+000
7921:0.0000000000000000e+000
7922:0.0000000000000000e+000
7923:0.0000000000000000e+000
7924:0.0000000000000000e+000
7925:0.0000000000000000e+000
7926:0.0000000000000000e+000
7927:0.0000000000000000e+000
7928:0.0000000000000000e+000
7929:0.0000000000000000e+000
7930:0.0000000000000000e+000
7931:0.0000000000000000e+000
7932:0.0000000000000000e+000
7933:0.0000000000000000e+000
7934:0.0000000000000000e+000
7935:0.0000000000000000e+000
7936:0.0000000000000000e+000
7937:0.0000000000000000e+000
7938:0.0000000000000000e+000
7939:0.0000000000000000e+000
7940:0.0000000000000000e+000
7941:0.0000000000000000e+000
7942:0.0000000000000000e+000
7943:0.0000000000000000e+000
7944:0.0000000000000000e+000
7945:0.0000000000000000e+000
7946:0.0000000000000000e+000
7947:0.0000000000000000e+000
7948:0.0000000000000000e+000
7949:0.0000000000000000e+000
7950:0.0000000000000000e+000
7951:0.0000000000000000e+000
7952:0.0000000000000000e+000
7953:0.0000000000000000e+000
7954:0.0000000000000000e+000
7955:0.0000000000000000e+000
7956:0.0000000000000000e+000
7957:0.0000000000000000e+000
7958:0.0000000000000000e+000
7959:0.0000000000000000e+000
7960:0.0000000000000000e+000
7961:0.0000000000000000e+000
7962:0.0000000000000000e+000
7963:0.0000000000000000e+000
7964:0.0000000000000000e+000
7965:0.0000000000000000e+000
7966:0.0000000000000000e+000
7967:0.0000000000000000e+000
7968:0.0000000000000000e+000
7969:0.0000000000000000e+000
7970:0.0000000000000000e+000
7971:0.0000000000000000e+000
7972:0.0000000000000000e+000
7973:0.0000000000000000e+000
7974:0.0000000000000000e+000
7975:0.0000000000000000e+000
7976:0.0000000000000000e+000
7977:0.0000000000000000e+000
7978:0.0000000000000000e+000
7979:0.0000000000000000e+000
7980:0.0000000000000000e+000
7981:0.0000000000000000e+000
7982:0.0000000000000000e+000
7983:0.0000000000000000e+000
7984:0.0000000000000000e+000
7985:0.0000000000000000e+000
7986:0.0000000000000000e+000
7987:0.0000000000000000e+000
7988:0.0000000000000000e+000
7989:0.0000000000000000e+000
7990:0.0000000000000000e+000
7991:0.0000000000000000e+000
7992:0.0000000000000000e+000
7993:0.0000000000000000e+000
7994:0.0000000000000000e+000
7995:0.0000000000000000e+000
7996:0.0000000000000000e+000
7997:0.0000000000000000e+000
7998:0.0000000000000000e+000
7999:0.0000000000000000e+000
8000:0.0000000000000000e+000
8001:0.0000000000000000e+000
8002:0.0000000000000000e+000
8003:0.0000000000000000e+000
8004:0.0000000000000000e+000
8005:0.0000000000000000e+000
8006:0.0000000000000000e+000
8007:0.0000000000000000e+000
8008:0.0000000000000000e+000
8009:0.0000000000000000e+000
8010:0.0000000000000000e+000
8011:0.0000000000000000e+000
8012:0.0000000000000000e+000
8013:0.0000000000000000e+000
8014:0.0000000000000000e+000
8015:0.0000000000000000e+000
8016:0.0000000000000000e+000
8017:0.0000000000000000e+000
8018:0.0000000000000000e+000
8019:0.0000000000000000e+000
8020:0.0000000000000000e+000
8021:0.0000000000000000e+000
8022:0.0000000000000000e+000
8023:0.0000000000000000e+000
8024:0.0000000000000000e+000
8025:0.0000000000000000e+000
8026:0.0000000000000000e+000
8027:0.0000000000000000e+000
8028:0.0000000000000000e+000
8029:0.0000000000000000e+000
8030:0.0000000000000000e+000
8031:0.0000000000000000e+000
8032:0.0000000000000000e+000
8033:0.0000000000000000e+000
8034:0.0000000000000000e+000
8035:0.0000000000000000e+000
8036:0.0000000000000000e+000
8037:0.0000000000000000e+000
8038:0.0000000000000000e+000
8039:0.0000000000000000e+000
8040:0.0000000000000000e+000
8041:0.0000000000000000e+000
8042:0.0000000000000000e+000
8043:0.0000000000000000e+000
8044:0.0000000000000000e+000
8045:0.0000000000000000e+000
8046:0.0000000000000000e+000
8047:0.0000000000000000e+000
8048:0.0000000000000000e+000
8049:0.0000000000000000e+000
8050:0.0000000000000000e+000
8051:0.0000000000000000e+000
8052:0.0000000000000000e+000
8053:0.0000000000000000e+000
8054:0.0000000000000000e+000
8055:0.0000000000000000e+000
8056:0.0000000000000000e+000
8057:0.0000000000000000e+000
8058:0.0000000000000000e+000
8059:0.0000000000000000e+000
8060:0.0000000000000000e+000
8061:0.0000000000000000e+000
8062:0.0000000000000000e+000
8063:0.0000000000000000e+000
8064:0.0000000000000000e+000
8065:0.0000000000000000e+000
8066:0.0000000000000000e+000
8067:0.0000000000000000e+000
8068:0.0000000000000000e+000
8069:0.0000000000000000e+000
8070:0.0000000000000000e+000
8071:0.0000000000000000e+000
8072:0.0000000000000000e+000
8073:0.0000000000000000e+000
8074:0.0000000000000000e+000
8075:0.0000000000000000e+000
8076:0.0000000000000000e+000
8077:0.0000000000000000e+000
8078:0.0000000000000000e+000
8079:0.0000000000000000e+000
8080:0.0000000000000000e+000
8081:0.0000000000000000e+000
8082:0.0000000000000000e+000
8083:0.0000000000000000e+000
8084:0.0000000000000000e+000
8085:0.0000000000000000e+000
8086:0.0000000000000000e+000
8087:0.0000000000000000e+000
8088:0.0000000000000000e+000
8089:0.0000000000000000e+000
8090:0.0000000000000000e+000
8091:0.0000000000000000e+000
8092:0.0000000000000000e+000
8093:0.0000000000000000e+000
8094:0.0000000000000000e+000
8095:0.0000000000000000e+000
8096:0.0000000000000000e+000
8097:0.0000000000000000e+000
8098:0.0000000000000000e+000
8099:0.0000000000000000e+000
8100:0.0000000000000000e+000
8101:0.0000000000000000e+000
8102:0.0000000000000000e+000
8103:0.0000000000000000e+000
8104:0.0000000000000000e+000
8105:0.0000000000000000e+000
8106:0.0000000000000000e+000
8107:0.0000000000000000e+000
8108:0.0000000000000000e+000
8109:0.0000000000000000e+000
8110:0.0000000000000000e+000
8111:0.0000000000000000e+000
8112:0.0000000000000000e+000
8113:0.0000000000000000e+000
8114:0.0000000000000000e+000
8115:0.0000000000000000e+000
8116:0.0000000000000000e+000
8117:0.0000000000000000e+000
8118:0.0000000000000000e+000
8119:0.0000000000000000e+000
8120:0.0000000000000000e+000
8121:0.0000000000000000e+000
8122:0.0000000000000000e+000
8123:0.0000000000000000e+000
8124:0.0000000000000000e+000
8125:0.0000000000000000e+000
8126:0.0000000000000000e+000
8127:0.0000000000000000e+000
8128:0.0000000000000000e+000
8129:0.0000000000000000e+000
8130:0.0000000000000000e+000
8131:0.0000000000000000e+000
8132:0.0000000000000000e+000
8133:0.0000000000000000e+000
8134:0.0000000000000000e+000
8135:0.0000000000000000e+000
8136:0.0000000000000000e+000
8137:0.0000000000000000e+000
8138:0.0000000000000000e+000
8139:0.0000000000000000e+000
8140:0.0000000000000000e+000
8141:0.0000000000000000e+000
8142:0.0000000000000000e+000
8143:0.0000000000000000e+000
8144:0.0000000000000000e+000
8145:0.0000000000000000e+000
8146:0.0000000000000000e+000
8147:0.0000000000000000e+000
8148:0.0000000000000000e+000
8149:0.0000000000000000e+000
8150:0.0000000000000000e+000
8151:0.0000000000000000e+000
8152:0.0000000000000000e+000
8153:0.0000000000000000e+000
8154:0.0000000000000000e+000
8155:0.0000000000000000e+000
8156:0.0000000000000000e+000
8157:0.0000000000000000e+000
8158:0.0000000000000000e+000
8159:0.0000000000000000e+000
8160:0.0000000000000000e+000
8161:0.0000000000000000e+000
8162:0.0000000000000000e+000
8163:0.0000000000000000e+000
8164:0.0000000000000000e+000
8165:0.0000000000000000e+000
8166:0.0000000000000000e+000
8167:0.0000000000000000e+000
8168:0.0000000000000000e+000
8169:0.0000000000000000e+000
8170:0.0000000000000000e+000
8171:0.0000000000000000e+000
8172:0.0000000000000000e+000
8173:0.0000000000000000e+000
8174:0.0000000000000000e+000
8175:0.0000000000000000e+000
8176:0.0000000000000000e+000
8177:0.0000000000000000e+000
8178:0.0000000000000000e+000
8179:0.0000000000000000e+000
8180:0.0000000000000000e+000
8181:0.0000000000000000e+000
8182:0.0000000000000000e+000
8183:0.0000000000000000e+000
8184:0.0000000000000000e+000
8185:0.0000000000000000e+000
8186:0.0000000000000000e+000
8187:0.0000000000000000e+000
8188:0.0000000000000000e+000
8189:0.0000000000000000e+000
8190:0.0000000000000000e+000
8191:0.0000000000000000e+000
8192:0.0000000000000000e+000
8193:0.0000000000000000e+000
8194:0.0000000000000000e+000
8195:0.0000000000000000e+000
8196:0.0000000000000000e+000
8197:0.0000000000000000e+000
8198:0.0000000000000000e+000
8199:0.0000000000000000e+000
8200:0.0000000000000000e+000
8201:0.0000000000000000e+000
8202:0.0000000000000000e+000
8203:0.0000000000000000e+000
8204:0.0000000000000000e+000
8205:0.0000000000000000e+000
8206:0.0000000000000000e+000
8207:0.0000000000000000e+000
8208:0.0000000000000000e+000
8209:0.0000000000000000e+000
8210:0.0000000000000000e+000
8211:0.0000000000000000e+000
8212:0.0000000000000000e+000
8213:0.0000000000000000e+000
8214:0.0000000000000000e+000
8215:0.0000000000000000e+000
8216:0.0000000000000000e+000
8217:0.0000000000000000e+000
8218:0.0000000000000000e+000
8219:0.0000000000000000e+000
8220:0.0000000000000000e+000
8221:0.0000000000000000e+000
8222:0.0000000000000000e+000
8223:0.0000000000000000e+000
8224:0.0000000000000000e+000
8225:0.0000000000000000e+000
8226:0.0000000000000000e+000
8227:0.0000000000000000e+000
8228:0.0000000000000000e+000
8229:0.0000000000000000e+000
8230:0.0000000000000000e+000
8231:0.0000000000000000e+000
8232:0.0000000000000000e+000
8233:0.0000000000000000e+000
8234:0.0000000000000000e+000
8235:0.0000000000000000e+000
8236:0.0000000000000000e+000
8237:0.0000000000000000e+000
8238:0.0000000000000000e+000
8239:0.0000000000000000e+000
8240:0.0000000000000000e+000
8241:0.0000000000000000e+000
8242:0.0000000000000000e+000
8243:0.0000000000000000e+000
8244:0.0000000000000000e+000
8245:0.0000000000000000e+000
8246:0.0000000000000000e+000
8247:0.0000000000000000e+000
8248:0.0000000000000000e+000
8249:0.0000000000000000e+000
8250:0.0000000000000000e+000
8251:0.0000000000000000e+000
8252:0.0000000000000000e+000
8253:0.0000000000000000e+000
8254:0.0000000000000000e+000
8255:0.0000000000000000e+000
8256:0.0000000000000000e+000
8257:0.0000000000000000e+000
8258:0.0000000000000000e+000
8259:0.0000000000000000e+000
8260:0.0000000000000000e+000
8261:0.0000000000000000e+000
8262:0.0000000000000000e+000
8263:0.0000000000000000e+000
8264:0.0000000000000000e+000
8265:0.0000000000000000e+000
8266:0.0000000000000000e+000
8267:0.0000000000000000e+000
8268:0.0000000000000000e+000
8269:0.0000000000000000e+000
8270:0.0000000000000000e+000
8271:0.0000000000000000e+000
8272:0.0000000000000000e+000
8273:0.0000000000000000e+000
8274:0.0000000000000000e+000
8275:0.0000000000000000e+000
8276:0.0000000000000000e+000
8277:0.0000000000000000e+000
8278:0.0000000000000000e+000
8279:0.0000000000000000e+000
8280:0.0000000000000000e+000
8281:0.0000000000000000e+000
8282:0.0000000000000000e+000
8283:0.0000000000000000e+000
8284:0.0000000000000000e+000
8285:0.0000000000000000e+000
8286:0.0000000000000000e+000
8287:0.0000000000000000e+000
8288:0.0000000000000000e+000
8289:0.0000000000000000e+000
8290:0.0000000000000000e+000
8291:0.0000000000000000e+000
8292:0.0000000000000000e+000
8293:0.0000000000000000e+000
8294:0.0000000000000000e+000
8295:0.0000000000000000e+000
8296:0.0000000000000000e+000
8297:0.0000000000000000e+000
8298:0.0000000000000000e+000
8299:0.0000000000000000e+000
8300:0.0000000000000000e+000
8301:0.0000000000000000e+000
8302:0.0000000000000000e+000
8303:0.0000000000000000e+000
8304:0.0000000000000000e+000
8305:0.0000000000000000e+000
8306:0.0000000000000000e+000
8307:0.0000000000000000e+000
8308:0.0000000000000000e+000
8309:0.0000000000000000e+000
8310:0.0000000000000000e+000
8311:0.0000000000000000e+000
8312:0.0000000000000000e+000
8313:0.0000000000000000e+000
8314:0.0000000000000000e+000
8315:0.0000000000000000e+000
8316:0.0000000000000000e+000
8317:0.0000000000000000e+000
8318:0.0000000000000000e+000
8319:0.0000000000000000e+000
8320:0.0000000000000000e+000
8321:0.0000000000000000e+000
8322:0.0000000000000000e+000
8323:0.0000000000000000e+000
8324:0.0000000000000000e+000
8325:0.0000000000000000e+000
8326:0.0000000000000000e+000
8327:0.0000000000000000e+000
8328:0.0000000000000000e+000
8329:0.0000000000000000e+000
8330:0.0000000000000000e+000
8331:0.0000000000000000e+000
8332:0.0000000000000000e+000
8333:0.0000000000000000e+000
8334:0.0000000000000000e+000
8335:0.0000000000000000e+000
8336:0.0000000000000000e+000
8337:0.0000000000000000e+000
8338:0.0000000000000000e+000
8339:0.0000000000000000e+000
8340:0.0000000000000000e+000
8341:0.0000000000000000e+000
8342:0.0000000000000000e+000
8343:0.0000000000000000e+000
8344:0.0000000000000000e+000
8345:0.0000000000000000e+000
8346:0.0000000000000000e+000
8347:0.0000000000000000e+000
8348:0.0000000000000000e+000
8349:0.0000000000000000e+000
8350:0.0000000000000000e+000
8351:0.0000000000000000e+000
8352:0.0000000000000000e+000
8353:0.0000000000000000e+000
8354:0.0000000000000000e+000
8355:0.0000000000000000e+000
8356:0.0000000000000000e+000
8357:0.0000000000000000e+000
8358:0.0000000000000000e+000
8359:0.0000000000000000e+000
8360:0.0000000000000000e+000
8361:0.0000000000000000e+000
8362:0.0000000000000000e+000
8363:0.0000000000000000e+000
8364:0.0000000000000000e+000
8365:0.0000000000000000e+000
8366:0.0000000000000000e+000
8367:0.0000000000000000e+000
8368:0.0000000000000000e+000
8369:0.0000000000000000e+000
8370:0.0000000000000000e+000
8371:0.0000000000000000e+000
8372:0.0000000000000000e+000
8373:0.0000000000000000e+000
8374:0.0000000000000000e+000
8375:0.0000000000000000e+000
8376:0.0000000000000000e+000
8377:0.0000000000000000e+000
8378:0.0000000000000000e+000
8379:0.0000000000000000e+000
8380:0.0000000000000000e+000
8381:0.0000000000000000e+000
8382:0.0000000000000000e+000
8383:0.0000000000000000e+000
8384:0.0000000000000000e+000
8385:0.0000000000000000e+000
8386:0.0000000000000000e+000
8387:0.0000000000000000e+000
8388:0.0000000000000000e+000
8389:0.0000000000000000e+000
8390:0.0000000000000000e+000
8391:0.0000000000000000e+000
8392:0.0000000000000000e+000
8393:0.0000000000000000e+000
8394:0.0000000000000000e+000
8395:0.0000000000000000e+000
8396:0.0000000000000000e+000
8397:0.0000000000000000e+000
8398:0.0000000000000000e+000
8399:0.0000000000000000e+000
8400:0.0000000000000000e+000
8401:0.0000000000000000e+000
8402:0.0000000000000000e+000
8403:0.0000000000000000e+000
8404:0.0000000000000000e+000
8405:0.0000000000000000e+000
8406:0.0000000000000000e+000
8407:0.0000000000000000e+000
8408:0.0000000000000000e+000
8409:0.0000000000000000e+000
8410:0.0000000000000000e+000
8411:0.0000000000000000e+000
8412:0.0000000000000000e+000
8413:0.0000000000000000e+000
8414:0.0000000000000000e+000
8415:0.0000000000000000e+000
8416:0.0000000000000000e+000
8417:0.0000000000000000e+000
8418:0.0000000000000000e+000
8419:0.0000000000000000e+000
8420:0.0000000000000000e+000
8421:0.0000000000000000e+000
8422:0.0000000000000000e+000
8423:0.0000000000000000e+000
8424:0.0000000000000000e+000
8425:0.0000000000000000e+000
8426:0.0000000000000000e+000
8427:0.0000000000000000e+000
8428:0.0000000000000000e+000
8429:0.0000000000000000e+000
8430:0.0000000000000000e+000
8431:0.0000000000000000e+000
8432:0.0000000000000000e+000
8433:0.0000000000000000e+000
8434:0.0000000000000000e+000
8435:0.0000000000000000e+000
8436:0.0000000000000000e+000
8437:0.0000000000000000e+000
8438:0.0000000000000000e+000
8439:0.0000000000000000e+000
8440:0.0000000000000000e+000
8441:0.0000000000000000e+000
8442:0.0000000000000000e+000
8443:0.0000000000000000e+000
8444:0.0000000000000000e+000
8445:0.0000000000000000e+000
8446:0.0000000000000000e+000
8447:0.0000000000000000e+000
8448:0.0000000000000000e+000
8449:0.0000000000000000e+000
8450:0.0000000000000000e+000
8451:0.0000000000000000e+000
8452:0.0000000000000000e+000
8453:0.0000000000000000e+000
8454:0.0000000000000000e+000
8455:0.0000000000000000e+000
8456:0.0000000000000000e+000
8457:0.0000000000000000e+000
8458:0.0000000000000000e+000
8459:0.0000000000000000e+000
8460:0.0000000000000000e+000
8461:0.0000000000000000e+000
8462:0.0000000000000000e+000
8463:0.0000000000000000e+000
8464:0.0000000000000000e+000
8465:0.0000000000000000e+000
8466:0.0000000000000000e+000
8467:0.0000000000000000e+000
8468:0.0000000000000000e+000
8469:0.0000000000000000e+000
8470:0.0000000000000000e+000
8471:0.0000000000000000e+000
8472:0.0000000000000000e+000
8473:0.0000000000000000e+000
8474:0.0000000000000000e+000
8475:0.0000000000000000e+000
8476:0.0000000000000000e+000
8477:0.0000000000000000e+000
8478:0.0000000000000000e+000
8479:0.0000000000000000e+000
8480:0.0000000000000000e+000
8481:0.0000000000000000e+000
8482:0.0000000000000000e+000
8483:0.0000000000000000e+000
8484:0.0000000000000000e+000
8485:0.0000000000000000e+000
8486:0.0000000000000000e+000
8487:0.0000000000000000e+000
8488:0.0000000000000000e+000
8489:0.0000000000000000e+000
8490:0.0000000000000000e+000
8491:0.0000000000000000e+000
8492:0.0000000000000000e+000
8493:0.0000000000000000e+000
8494:0.0000000000000000e+000
8495:0.0000000000000000e+000
8496:0.0000000000000000e+000
8497:0.0000000000000000e+000
8498:0.0000000000000000e+000
8499:0.0000000000000000e+000
8500:0.0000000000000000e+000
8501:0.0000000000000000e+000
8502:0.0000000000000000e+000
8503:0.0000000000000000e+000
8504:0.0000000000000000e+000
8505:0.0000000000000000e+000
8506:0.0000000000000000e+000
8507:0.0000000000000000e+000
8508:0.0000000000000000e+000
8509:0.0000000000000000e+000
8510:0.0000000000000000e+000
8511:0.0000000000000000e+000
8512:0.0000000000000000e+000
8513:0.0000000000000000e+000
8514:0.0000000000000000e+000
8515:0.0000000000000000e+000
8516:0.0000000000000000e+000
8517:0.0000000000000000e+000
8518:0.0000000000000000e+000
8519:0.0000000000000000e+000
8520:0.0000000000000000e+000
8521:0.0000000000000000e+000
8522:0.0000000000000000e+000
8523:0.0000000000000000e+000
8524:0.0000000000000000e+000
8525:0.0000000000000000e+000
8526:0.0000000000000000e+000
8527:0.0000000000000000e+000
8528:0.0000000000000000e+000
8529:0.0000000000000000e+000
8530:0.0000000000000000e+000
8531:0.0000000000000000e+000
8532:0.0000000000000000e+000
8533:0.0000000000000000e+000
8534:0.0000000000000000e+000
8535:0.0000000000000000e+000
8536:0.0000000000000000e+000
8537:0.0000000000000000e+000
8538:0.0000000000000000e+000
8539:0.0000000000000000e+000
8540:0.0000000000000000e+000
8541:0.0000000000000000e+000
8542:0.0000000000000000e+000
8543:0.0000000000000000e+000
8544:0.0000000000000000e+000
8545:0.0000000000000000e+000
8546:0.0000000000000000e+000
8547:0.0000000000000000e+000
8548:0.0000000000000000e+000
8549:0.0000000000000000e+000
8550:0.0000000000000000e+000
8551:0.0000000000000000e+000
8552:0.0000000000000000e+000
8553:0.0000000000000000e+000
8554:0.0000000000000000e+000
8555:0.0000000000000000e+000
8556:0.0000000000000000e+000
8557:0.0000000000000000e+000
8558:0.0000000000000000e+000
8559:0.0000000000000000e+000
8560:0.0000000000000000e+000
8561:0.0000000000000000e+000
8562:0.0000000000000000e+000
8563:0.0000000000000000e+000
8564:0.0000000000000000e+000
8565:0.0000000000000000e+000
8566:0.0000000000000000e+000
8567:0.0000000000000000e+000
8568:0.0000000000000000e+000
8569:0.0000000000000000e+000
8570:0.0000000000000000e+000
8571:0.0000000000000000e+000
8572:0.0000000000000000e+000
8573:0.0000000000000000e+000
8574:0.0000000000000000e+000
8575:0.0000000000000000e+000
8576:0.0000000000000000e+000
8577:0.0000000000000000e+000
8578:0.0000000000000000e+000
8579:0.0000000000000000e+000
8580:0.0000000000000000e+000
8581:0.0000000000000000e+000
8582:0.0000000000000000e+000
8583:0.0000000000000000e+000
8584:0.0000000000000000e+000
8585:0.0000000000000000e+000
8586:0.0000000000000000e+000
8587:0.0000000000000000e+000
8588:0.0000000000000000e+000
8589:0.0000000000000000e+000
8590:0.0000000000000000e+000
8591:0.0000000000000000e+000
8592:0.0000000000000000e+000
8593:0.0000000000000000e+000
8594:0.0000000000000000e+000
8595:0.0000000000000000e+000
8596:0.0000000000000000e+000
8597:0.0000000000000000e+000
8598:0.0000000000000000e+000
8599:0.0000000000000000e+000
8600:0.0000000000000000e+000
8601:0.0000000000000000e+000
8602:0.0000000000000000e+000
8603:0.0000000000000000e+000
8604:0.0000000000000000e+000
8605:0.0000000000000000e+000
8606:0.0000000000000000e+000
8607:0.0000000000000000e+000
8608:0.0000000000000000e+000
8609:0.0000000000000000e+000
8610:0.0000000000000000e+000
8611:0.0000000000000000e+000
8612:0.0000000000000000e+000
8613:0.0000000000000000e+000
8614:0.0000000000000000e+000
8615:0.0000000000000000e+000
8616:0.0000000000000000e+000
8617:0.0000000000000000e+000
8618:0.0000000000000000e+000
8619:0.0000000000000000e+000
8620:0.0000000000000000e+000
8621:0.0000000000000000e+000
8622:0.0000000000000000e+000
8623:0.0000000000000000e+000
8624:0.0000000000000000e+000
8625:0.0000000000000000e+000
8626:0.0000000000000000e+000
8627:0.0000000000000000e+000
8628:0.0000000000000000e+000
8629:0.0000000000000000e+000
8630:0.0000000000000000e+000
8631:0.0000000000000000e+000
8632:0.0000000000000000e+000
8633:0.0000000000000000e+000
8634:0.0000000000000000e+000
8635:0.0000000000000000e+000
8636:0.0000000000000000e+000
8637:0.0000000000000000e+000
8638:0.0000000000000000e+000
8639:0.0000000000000000e+000
8640:0.0000000000000000e+000
8641:0.0000000000000000e+000
8642:0.0000000000000000e+000
8643:0.0000000000000000e+000
8644:0.0000000000000000e+000
8645:0.0000000000000000e+000
8646:0.0000000000000000e+000
8647:0.0000000000000000e+000
8648:0.0000000000000000e+000
8649:0.0000000000000000e+000
8650:0.0000000000000000e+000
8651:0.0000000000000000e+000
8652:0.0000000000000000e+000
8653:0.0000000000000000e+000
8654:0.0000000000000000e+000
8655:0.0000000000000000e+000
8656:0.0000000000000000e+000
8657:0.0000000000000000e+000
8658:0.0000000000000000e+000
8659:0.0000000000000000e+000
8660:0.0000000000000000e+000
8661:0.0000000000000000e+000
8662:0.0000000000000000e+000
8663:0.0000000000000000e+000
8664:0.0000000000000000e+000
8665:0.0000000000000000e+000
8666:0.0000000000000000e+000
8667:0.0000000000000000e+000
8668:0.0000000000000000e+000
8669:0.0000000000000000e+000
8670:0.0000000000000000e+000
8671:0.0000000000000000e+000
8672:0.0000000000000000e+000
8673:0.0000000000000000e+000
8674:0.0000000000000000e+000
8675:0.0000000000000000e+000
8676:0.0000000000000000e+000
8677:0.0000000000000000e+000
8678:0.0000000000000000e+000
8679:0.0000000000000000e+000
8680:0.0000000000000000e+000
8681:0.0000000000000000e+000
8682:0.0000000000000000e+000
8683:0.0000000000000000e+000
8684:0.0000000000000000e+000
8685:0.0000000000000000e+000
8686:0.0000000000000000e+000
8687:0.0000000000000000e+000
8688:0.0000000000000000e+000
8689:0.0000000000000000e+000
8690:0.0000000000000000e+000
8691:0.0000000000000000e+000
8692:0.0000000000000000e+000
8693:0.0000000000000000e+000
8694:0.0000000000000000e+000
8695:0.0000000000000000e+000
8696:0.0000000000000000e+000
8697:0.0000000000000000e+000
8698:0.0000000000000000e+000
8699:0.0000000000000000e+000
8700:0.0000000000000000e+000
8701:0.0000000000000000e+000
8702:0.0000000000000000e+000
8703:0.0000000000000000e+000
8704:0.0000000000000000e+000
8705:0.0000000000000000e+000
8706:0.0000000000000000e+000
8707:0.0000000000000000e+000
8708:0.0000000000000000e+000
8709:0.0000000000000000e+000
8710:0.0000000000000000e+000
8711:0.0000000000000000e+000
8712:0.0000000000000000e+000
8713:0.0000000000000000e+000
8714:0.0000000000000000e+000
8715:0.0000000000000000e+000
8716:0.0000000000000000e+000
8717:0.0000000000000000e+000
8718:0.0000000000000000e+000
8719:0.0000000000000000e+000
8720:0.0000000000000000e+000
8721:0.0000000000000000e+000
8722:0.0000000000000000e+000
8723:0.0000000000000000e+000
8724:0.0000000000000000e+000
8725:0.0000000000000000e+000
8726:0.0000000000000000e+000
8727:0.0000000000000000e+000
8728:0.0000000000000000e+000
8729:0.0000000000000000e+000
8730:0.0000000000000000e+000
8731:0.0000000000000000e+000
8732:0.0000000000000000e+000
8733:0.0000000000000000e+000
8734:0.0000000000000000e+000
8735:0.0000000000000000e+000
8736:0.0000000000000000e+000
8737:0.0000000000000000e+000
8738:0.0000000000000000e+000
8739:0.0000000000000000e+000
8740:0.0000000000000000e+000
8741:0.0000000000000000e+000
8742:0.0000000000000000e+000
8743:0.0000000000000000e+000
8744:0.0000000000000000e+000
8745:0.0000000000000000e+000
8746:0.0000000000000000e+000
8747:0.0000000000000000e+000
8748:0.0000000000000000e+000
8749:0.0000000000000000e+000
8750:0.0000000000000000e+000
8751:0.0000000000000000e+000
8752:0.0000000000000000e+000
8753:0.0000000000000000e+000
8754:0.0000000000000000e+000
8755:0.0000000000000000e+000
8756:0.0000000000000000e+000
8757:0.0000000000000000e+000
8758:0.0000000000000000e+000
8759:0.0000000000000000e+000
8760:0.0000000000000000e+000
8761:0.0000000000000000e+000
8762:0.0000000000000000e+000
8763:0.0000000000000000e+000
8764:0.0000000000000000e+000
8765:0.0000000000000000e+000
8766:0.0000000000000000e+000
8767:0.0000000000000000e+000
8768:0.0000000000000000e+000
8769:0.0000000000000000e+000
8770:0.0000000000000000e+000
8771:0.0000000000000000e+000
8772:0.0000000000000000e+000
8773:0.0000000000000000e+000
8774:0.0000000000000000e+000
8775:0.0000000000000000e+000
8776:0.0000000000000000e+000
8777:0.0000000000000000e+000
8778:0.0000000000000000e+000
8779:0.0000000000000000e+000
8780:0.0000000000000000e+000
8781:0.0000000000000000e+000
8782:0.0000000000000000e+000
8783:0.0000000000000000e+000
8784:0.0000000000000000e+000
8785:0.0000000000000000e+000
8786:0.0000000000000000e+000
8787:0.0000000000000000e+000
8788:0.0000000000000000e+000
8789:0.0000000000000000e+000
8790:0.0000000000000000e+000
8791:0.0000000000000000e+000
8792:0.0000000000000000e+000
8793:0.0000000000000000e+000
8794:0.0000000000000000e+000
8795:0.0000000000000000e+000
8796:0.0000000000000000e+000
8797:0.0000000000000000e+000
8798:0.0000000000000000e+000
8799:0.0000000000000000e+000
8800:0.0000000000000000e+000
8801:0.0000000000000000e+000
8802:0.0000000000000000e+000
8803:0.0000000000000000e+000
8804:0.0000000000000000e+000
8805:0.0000000000000000e+000
8806:0.0000000000000000e+000
8807:0.0000000000000000e+000
8808:0.0000000000000000e+000
8809:0.0000000000000000e+000
8810:0.0000000000000000e+000
8811:0.0000000000000000e+000
8812:0.0000000000000000e+000
8813:0.0000000000000000e+000
8814:0.0000000000000000e+000
8815:0.0000000000000000e+000
8816:0.0000000000000000e+000
8817:0.0000000000000000e+000
8818:0.0000000000000000e+000
8819:0.0000000000000000e+000
8820:0.0000000000000000e+000
8821:0.0000000000000000e+000
8822:0.0000000000000000e+000
8823:0.0000000000000000e+000
8824:0.0000000000000000e+000
8825:0.0000000000000000e+000
8826:0.0000000000000000e+000
8827:0.0000000000000000e+000
8828:0.0000000000000000e+000
8829:0.0000000000000000e+000
8830:0.0000000000000000e+000
8831:0.0000000000000000e+000
8832:0.0000000000000000e+000
8833:0.0000000000000000e+000
8834:0.0000000000000000e+000
8835:0.0000000000000000e+000
8836:0.0000000000000000e+000
8837:0.0000000000000000e+000
8838:0.0000000000000000e+000
8839:0.0000000000000000e+000
8840:0.0000000000000000e+000
8841:0.0000000000000000e+000
8842:0.0000000000000000e+000
8843:0.0000000000000000e+000
8844:0.0000000000000000e+000
8845:0.0000000000000000e+000
8846:0.0000000000000000e+000
8847:0.0000000000000000e+000
8848:0.0000000000000000e+000
8849:0.0000000000000000e+000
8850:0.0000000000000000e+000
8851:0.0000000000000000e+000
8852:0.0000000000000000e+000
8853:0.0000000000000000e+000
8854:0.0000000000000000e+000
8855:0.0000000000000000e+000
8856:0.0000000000000000e+000
8857:0.0000000000000000e+000
8858:0.0000000000000000e+000
8859:0.0000000000000000e+000
8860:0.0000000000000000e+000
8861:0.0000000000000000e+000
8862:0.0000000000000000e+000
8863:0.0000000000000000e+000
8864:0.0000000000000000e+000
8865:0.0000000000000000e+000
8866:0.0000000000000000e+000
8867:0.0000000000000000e+000
8868:0.0000000000000000e+000
8869:0.0000000000000000e+000
8870:0.0000000000000000e+000
8871:0.0000000000000000e+000
8872:0.0000000000000000e+000
8873:0.0000000000000000e+000
8874:0.0000000000000000e+000
8875:0.0000000000000000e+000
8876:0.0000000000000000e+000
8877:0.0000000000000000e+000
8878:0.0000000000000000e+000
8879:0.0000000000000000e+000
8880:0.0000000000000000e+000
8881:0.0000000000000000e+000
8882:0.0000000000000000e+000
8883:0.0000000000000000e+000
8884:0.0000000000000000e+000
8885:0.0000000000000000e+000
8886:0.0000000000000000e+000
8887:0.0000000000000000e+000
8888:0.0000000000000000e+000
8889:0.0000000000000000e+000
8890:0.0000000000000000e+000
8891:0.0000000000000000e+000
8892:0.0000000000000000e+000
8893:0.0000000000000000e+000
8894:0.0000000000000000e+000
8895:0.0000000000000000e+000
8896:0.0000000000000000e+000
8897:0.0000000000000000e+000
8898:0.0000000000000000e+000
8899:0.0000000000000000e+000
8900:0.0000000000000000e+000
8901:0.0000000000000000e+000
8902:0.0000000000000000e+000
8903:0.0000000000000000e+000
8904:0.0000000000000000e+000
8905:0.0000000000000000e+000
8906:0.0000000000000000e+000
8907:0.0000000000000000e+000
8908:0.0000000000000000e+000
8909:0.0000000000000000e+000
8910:0.0000000000000000e+000
8911:0.0000000000000000e+000
8912:0.0000000000000000e+000
8913:0.0000000000000000e+000
8914:0.0000000000000000e+000
8915:0.0000000000000000e+000
8916:0.0000000000000000e+000
8917:0.0000000000000000e+000
8918:0.0000000000000000e+000
8919:0.0000000000000000e+000
8920:0.0000000000000000e+000
8921:0.0000000000000000e+000
8922:0.0000000000000000e+000
8923:0.0000000000000000e+000
8924:0.0000000000000000e+000
8925:0.0000000000000000e+000
8926:0.0000000000000000e+000
8927:0.0000000000000000e+000
8928:0.0000000000000000e+000
8929:0.0000000000000000e+000
8930:0.0000000000000000e+000
8931:0.0000000000000000e+000
8932:0.0000000000000000e+000
8933:0.0000000000000000e+000
8934:0.0000000000000000e+000
8935:0.0000000000000000e+000
8936:0.0000000000000000e+000
8937:0.0000000000000000e+000
8938:0.0000000000000000e+000
8939:0.0000000000000000e+000
8940:0.0000000000000000e+000
8941:0.0000000000000000e+000
8942:0.0000000000000000e+000
8943:0.0000000000000000e+000
8944:0.0000000000000000e+000
8945:0.0000000000000000e+000
8946:0.0000000000000000e+000
8947:0.0000000000000000e+000
8948:0.0000000000000000e+000
8949:0.0000000000000000e+000
8950:0.0000000000000000e+000
8951:0.0000000000000000e+000
8952:0.0000000000000000e+000
8953:0.0000000000000000e+000
8954:0.0000000000000000e+000
8955:0.0000000000000000e+000
8956:0.0000000000000000e+000
8957:0.0000000000000000e+000
8958:0.0000000000000000e+000
8959:0.0000000000000000e+000
8960:0.0000000000000000e+000
8961:0.0000000000000000e+000
8962:0.0000000000000000e+000
8963:0.0000000000000000e+000
8964:0.0000000000000000e+000
8965:0.0000000000000000e+000
8966:0.0000000000000000e+000
8967:0.0000000000000000e+000
8968:0.0000000000000000e+000
8969:0.0000000000000000e+000
8970:0.0000000000000000e+000
8971:0.0000000000000000e+000
8972:0.0000000000000000e+000
8973:0.0000000000000000e+000
8974:0.0000000000000000e+000
8975:0.0000000000000000e+000
8976:0.0000000000000000e+000
8977:0.0000000000000000e+000
8978:0.0000000000000000e+000
8979:0.0000000000000000e+000
8980:0.0000000000000000e+000
8981:0.0000000000000000e+000
8982:0.0000000000000000e+000
8983:0.0000000000000000e+000
8984:0.0000000000000000e+000
8985:0.0000000000000000e+000
8986:0.0000000000000000e+000
8987:0.0000000000000000e+000
8988:0.0000000000000000e+000
8989:0.0000000000000000e+000
8990:0.0000000000000000e+000
8991:0.0000000000000000e+000
8992:0.0000000000000000e+000
8993:0.0000000000000000e+000
8994:0.0000000000000000e+000
8995:0.0000000000000000e+000
8996:0.0000000000000000e+000
8997:0.0000000000000000e+000
8998:0.0000000000000000e+000
8999:0.0000000000000000e+000
9000:0.0000000000000000e+000
9001:0.0000000000000000e+000
9002:0.0000000000000000e+000
9003:0.0000000000000000e+000
9004:0.0000000000000000e+000
9005:0.0000000000000000e+000
9006:0.0000000000000000e+000
9007:0.0000000000000000e+000
9008:0.0000000000000000e+000
9009:0.0000000000000000e+000
9010:0.0000000000000000e+000
9011:0.0000000000000000e+000
9012:0.0000000000000000e+000
9013:0.0000000000000000e+000
9014:0.0000000000000000e+000
9015:0.0000000000000000e+000
9016:0.0000000000000000e+000
9017:0.0000000000000000e+000
9018:0.0000000000000000e+000
9019:0.0000000000000000e+000
9020:0.0000000000000000e+000
9021:0.0000000000000000e+000
9022:0.0000000000000000e+000
9023:0.0000000000000000e+000
9024:0.0000000000000000e+000
9025:0.0000000000000000e+000
9026:0.0000000000000000e+000
9027:0.0000000000000000e+000
9028:0.0000000000000000e+000
9029:0.0000000000000000e+000
9030:0.0000000000000000e+000
9031:0.0000000000000000e+000
9032:0.0000000000000000e+000
9033:0.0000000000000000e+000
9034:0.0000000000000000e+000
9035:0.0000000000000000e+000
9036:0.0000000000000000e+000
9037:0.0000000000000000e+000
9038:0.0000000000000000e+000
9039:0.0000000000000000e+000
9040:0.0000000000000000e+000
9041:0.0000000000000000e+000
9042:0.0000000000000000e+000
9043:0.0000000000000000e+000
9044:0.0000000000000000e+000
9045:0.0000000000000000e+000
9046:0.0000000000000000e+000
9047:0.0000000000000000e+000
9048:0.0000000000000000e+000
9049:0.0000000000000000e+000
9050:0.0000000000000000e+000
9051:0.0000000000000000e+000
9052:0.0000000000000000e+000
9053:0.0000000000000000e+000
9054:0.0000000000000000e+000
9055:0.0000000000000000e+000
9056:0.0000000000000000e+000
9057:0.0000000000000000e+000
9058:0.0000000000000000e+000
9059:0.0000000000000000e+000
9060:0.0000000000000000e+000
9061:0.0000000000000000e+000
9062:0.0000000000000000e+000
9063:0.0000000000000000e+000
9064:0.0000000000000000e+000
9065:0.0000000000000000e+000
9066:0.0000000000000000e+000
9067:0.0000000000000000e+000
9068:0.0000000000000000e+000
9069:0.0000000000000000e+000
9070:0.0000000000000000e+000
9071:0.0000000000000000e+000
9072:0.0000000000000000e+000
9073:0.0000000000000000e+000
9074:0.0000000000000000e+000
9075:0.0000000000000000e+000
9076:0.0000000000000000e+000
9077:0.0000000000000000e+000
9078:0.0000000000000000e+000
9079:0.0000000000000000e+000
9080:0.0000000000000000e+000
9081:0.0000000000000000e+000
9082:0.0000000000000000e+000
9083:0.0000000000000000e+000
9084:0.0000000000000000e+000
9085:0.0000000000000000e+000
9086:0.0000000000000000e+000
9087:0.0000000000000000e+000
9088:0.0000000000000000e+000
9089:0.0000000000000000e+000
9090:0.0000000000000000e+000
9091:0.0000000000000000e+000
9092:0.0000000000000000e+000
9093:0.0000000000000000e+000
9094:0.0000000000000000e+000
9095:0.0000000000000000e+000
9096:0.0000000000000000e+000
9097:0.0000000000000000e+000
9098:0.0000000000000000e+000
9099:0.0000000000000000e+000
9100:0.0000000000000000e+000
9101:0.0000000000000000e+000
9102:0.0000000000000000e+000
9103:0.0000000000000000e+000
9104:0.0000000000000000e+000
9105:0.0000000000000000e+000
9106:0.0000000000000000e+000
9107:0.0000000000000000e+000
9108:0.0000000000000000e+000
9109:0.0000000000000000e+000
9110:0.0000000000000000e+000
9111:0.0000000000000000e+000
9112:0.0000000000000000e+000
9113:0.0000000000000000e+000
9114:0.0000000000000000e+000
9115:0.0000000000000000e+000
9116:0.0000000000000000e+000
9117:0.0000000000000000e+000
9118:0.0000000000000000e+000
9119:0.0000000000000000e+000
9120:0.0000000000000000e+000
9121:0.0000000000000000e+000
9122:0.0000000000000000e+000
9123:0.0000000000000000e+000
9124:0.0000000000000000e+000
9125:0.0000000000000000e+000
9126:0.0000000000000000e+000
9127:0.0000000000000000e+000
9128:0.0000000000000000e+000
9129:0.0000000000000000e+000
9130:0.0000000000000000e+000
9131:0.0000000000000000e+000
9132:0.0000000000000000e+000
9133:0.0000000000000000e+000
9134:0.0000000000000000e+000
9135:0.0000000000000000e+000
9136:0.0000000000000000e+000
9137:0.0000000000000000e+000
9138:0.0000000000000000e+000
9139:0.0000000000000000e+000
9140:0.0000000000000000e+000
9141:0.0000000000000000e+000
9142:0.0000000000000000e+000
9143:0.0000000000000000e+000
9144:0.0000000000000000e+000
9145:0.0000000000000000e+000
9146:0.0000000000000000e+000
9147:0.0000000000000000e+000
9148:0.0000000000000000e+000
9149:0.0000000000000000e+000
9150:0.0000000000000000e+000
9151:0.0000000000000000e+000
9152:0.0000000000000000e+000
9153:0.0000000000000000e+000
9154:0.0000000000000000e+000
9155:0.0000000000000000e+000
9156:0.0000000000000000e+000
9157:0.0000000000000000e+000
9158:0.0000000000000000e+000
9159:0.0000000000000000e+000
9160:0.0000000000000000e+000
9161:0.0000000000000000e+000
9162:0.0000000000000000e+000
9163:0.0000000000000000e+000
9164:0.0000000000000000e+000
9165:0.0000000000000000e+000
9166:0.0000000000000000e+000
9167:0.0000000000000000e+000
9168:0.0000000000000000e+000
9169:0.0000000000000000e+000
9170:0.0000000000000000e+000
9171:0.0000000000000000e+000
9172:0.0000000000000000e+000
9173:0.0000000000000000e+000
9174:0.0000000000000000e+000
9175:0.0000000000000000e+000
9176:0.0000000000000000e+000
9177:0.0000000000000000e+000
9178:0.0000000000000000e+000
9179:0.0000000000000000e+000
9180:0.0000000000000000e+000
9181:0.0000000000000000e+000
9182:0.0000000000000000e+000
9183:0.0000000000000000e+000
9184:0.0000000000000000e+000
9185:0.0000000000000000e+000
9186:0.0000000000000000e+000
9187:0.0000000000000000e+000
9188:0.0000000000000000e+000
9189:0.0000000000000000e+000
9190:0.0000000000000000e+000
9191:0.0000000000000000e+000
9192:0.0000000000000000e+000
9193:0.0000000000000000e+000
9194:0.0000000000000000e+000
9195:0.0000000000000000e+000
9196:0.0000000000000000e+000
9197:0.0000000000000000e+000
9198:0.0000000000000000e+000
9199:0.0000000000000000e+000
9200:0.0000000000000000e+000
9201:0.0000000000000000e+000
9202:0.0000000000000000e+000
9203:0.0000000000000000e+000
9204:0.0000000000000000e+000
9205:0.0000000000000000e+000
9206:0.0000000000000000e+000
9207:0.0000000000000000e+000
9208:0.0000000000000000e+000
9209:0.0000000000000000e+000
9210:0.0000000000000000e+000
9211:0.0000000000000000e+000
9212:0.0000000000000000e+000
9213:0.0000000000000000e+000
9214:0.0000000000000000e+000
9215:0.0000000000000000e+000
9216:0.0000000000000000e+000
9217:0.0000000000000000e+000
9218:0.0000000000000000e+000
9219:0.0000000000000000e+000
9220:0.0000000000000000e+000
9221:0.0000000000000000e+000
9222:0.0000000000000000e+000
9223:0.0000000000000000e+000
9224:0.0000000000000000e+000
9225:0.0000000000000000e+000
9226:0.0000000000000000e+000
9227:0.0000000000000000e+000
9228:0.0000000000000000e+000
9229:0.0000000000000000e+000
9230:0.0000000000000000e+000
9231:0.0000000000000000e+000
9232:0.0000000000000000e+000
9233:0.0000000000000000e+000
9234:0.0000000000000000e+000
9235:0.0000000000000000e+000
9236:0.0000000000000000e+000
9237:0.0000000000000000e+000
9238:0.0000000000000000e+000
9239:0.0000000000000000e+000
9240:0.0000000000000000e+000
9241:0.0000000000000000e+000
9242:0.0000000000000000e+000
9243:0.0000000000000000e+000
9244:0.0000000000000000e+000
9245:0.0000000000000000e+000
9246:0.0000000000000000e+000
9247:0.0000000000000000e+000
9248:0.0000000000000000e+000
9249:0.0000000000000000e+000
9250:0.0000000000000000e+000
9251:0.0000000000000000e+000
9252:0.0000000000000000e+000
9253:0.0000000000000000e+000
9254:0.0000000000000000e+000
9255:0.0000000000000000e+000
9256:0.0000000000000000e+000
9257:0.0000000000000000e+000
9258:0.0000000000000000e+000
9259:0.0000000000000000e+000
9260:0.0000000000000000e+000
9261:0.0000000000000000e+000
9262:0.0000000000000000e+000
9263:0.0000000000000000e+000
9264:0.0000000000000000e+000
9265:0.0000000000000000e+000
9266:0.0000000000000000e+000
9267:0.0000000000000000e+000
9268:0.0000000000000000e+000
9269:0.0000000000000000e+000
9270:0.0000000000000000e+000
9271:0.0000000000000000e+000
9272:0.0000000000000000e+000
9273:0.0000000000000000e+000
9274:0.0000000000000000e+000
9275:0.0000000000000000e+000
9276:0.0000000000000000e+000
9277:0.0000000000000000e+000
9278:0.0000000000000000e+000
9279:0.0000000000000000e+000
9280:0.0000000000000000e+000
9281:0.0000000000000000e+000
9282:0.0000000000000000e+000
9283:0.0000000000000000e+000
9284:0.0000000000000000e+000
9285:0.0000000000000000e+000
9286:0.0000000000000000e+000
9287:0.0000000000000000e+000
9288:0.0000000000000000e+000
9289:0.0000000000000000e+000
9290:0.0000000000000000e+000
9291:0.0000000000000000e+000
9292:0.0000000000000000e+000
9293:0.0000000000000000e+000
9294:0.0000000000000000e+000
9295:0.0000000000000000e+000
9296:0.0000000000000000e+000
9297:0.0000000000000000e+000
9298:0.0000000000000000e+000
9299:0.0000000000000000e+000
9300:0.0000000000000000e+000
9301:0.0000000000000000e+000
9302:0.0000000000000000e+000
9303:0.0000000000000000e+000
9304:0.0000000000000000e+000
9305:0.0000000000000000e+000
9306:0.0000000000000000e+000
9307:0.0000000000000000e+000
9308:0.0000000000000000e+000
9309:0.0000000000000000e+000
9310:0.0000000000000000e+000
9311:0.0000000000000000e+000
9312:0.0000000000000000e+000
9313:0.0000000000000000e+000
9314:0.0000000000000000e+000
9315:0.0000000000000000e+000
9316:0.0000000000000000e+000
9317:0.0000000000000000e+000
9318:0.0000000000000000e+000
9319:0.0000000000000000e+000
9320:0.0000000000000000e+000
9321:0.0000000000000000e+000
9322:0.0000000000000000e+000
9323:0.0000000000000000e+000
9324:0.0000000000000000e+000
9325:0.0000000000000000e+000
9326:0.0000000000000000e+000
9327:0.0000000000000000e+000
9328:0.0000000000000000e+000
9329:0.0000000000000000e+000
9330:0.0000000000000000e+000
9331:0.0000000000000000e+000
9332:0.0000000000000000e+000
9333:0.0000000000000000e+000
9334:0.0000000000000000e+000
9335:0.0000000000000000e+000
9336:0.0000000000000000e+000
9337:0.0000000000000000e+000
9338:0.0000000000000000e+000
9339:0.0000000000000000e+000
9340:0.0000000000000000e+000
9341:0.0000000000000000e+000
9342:0.0000000000000000e+000
9343:0.0000000000000000e+000
9344:0.0000000000000000e+000
9345:0.0000000000000000e+000
9346:0.0000000000000000e+000
9347:0.0000000000000000e+000
9348:0.0000000000000000e+000
9349:0.0000000000000000e+000
9350:0.0000000000000000e+000
9351:0.0000000000000000e+000
9352:0.0000000000000000e+000
9353:0.0000000000000000e+000
9354:0.0000000000000000e+000
9355:0.0000000000000000e+000
9356:0.0000000000000000e+000
9357:0.0000000000000000e+000
9358:0.0000000000000000e+000
9359:0.0000000000000000e+000
9360:0.0000000000000000e+000
9361:0.0000000000000000e+000
9362:0.0000000000000000e+000
9363:0.0000000000000000e+000
9364:0.0000000000000000e+000
9365:0.0000000000000000e+000
9366:0.0000000000000000e+000
9367:0.0000000000000000e+000
9368:0.0000000000000000e+000
9369:0.0000000000000000e+000
9370:0.0000000000000000e+000
9371:0.0000000000000000e+000
9372:0.0000000000000000e+000
9373:0.0000000000000000e+000
9374:0.0000000000000000e+000
9375:0.0000000000000000e+000
9376:0.0000000000000000e+000
9377:0.0000000000000000e+000
9378:0.0000000000000000e+000
9379:0.0000000000000000e+000
9380:0.0000000000000000e+000
9381:0.0000000000000000e+000
9382:0.0000000000000000e+000
9383:0.0000000000000000e+000
9384:0.0000000000000000e+000
9385:0.0000000000000000e+000
9386:0.0000000000000000e+000
9387:0.0000000000000000e+000
9388:0.0000000000000000e+000
9389:0.0000000000000000e+000
9390:0.0000000000000000e+000
9391:0.0000000000000000e+000
9392:0.0000000000000000e+000
9393:0.0000000000000000e+000
9394:0.0000000000000000e+000
9395:0.0000000000000000e+000
9396:0.0000000000000000e+000
9397:0.0000000000000000e+000
9398:0.0000000000000000e+000
9399:0.0000000000000000e+000
9400:0.0000000000000000e+000
9401:0.0000000000000000e+000
9402:0.0000000000000000e+000
9403:0.0000000000000000e+000
9404:0.0000000000000000e+000
9405:0.0000000000000000e+000
9406:0.0000000000000000e+000
9407:0.0000000000000000e+000
9408:0.0000000000000000e+000
9409:0.0000000000000000e+000
9410:0.0000000000000000e+000
9411:0.0000000000000000e+000
9412:0.0000000000000000e+000
9413:0.0000000000000000e+000
9414:0.0000000000000000e+000
9415:0.0000000000000000e+000
9416:0.0000000000000000e+000
9417:0.0000000000000000e+000
9418:0.0000000000000000e+000
9419:0.0000000000000000e+000
9420:0.0000000000000000e+000
9421:0.0000000000000000e+000
9422:0.0000000000000000e+000
9423:0.0000000000000000e+000
9424:0.0000000000000000e+000
9425:0.0000000000000000e+000
9426:0.0000000000000000e+000
9427:0.0000000000000000e+000
9428:0.0000000000000000e+000
9429:0.0000000000000000e+000
9430:0.0000000000000000e+000
9431:0.0000000000000000e+000
9432:0.0000000000000000e+000
9433:0.0000000000000000e+000
9434:0.0000000000000000e+000
9435:0.0000000000000000e+000
9436:0.0000000000000000e+000
9437:0.0000000000000000e+000
9438:0.0000000000000000e+000
9439:0.0000000000000000e+000
9440:0.0000000000000000e+000
9441:0.0000000000000000e+000
9442:0.0000000000000000e+000
9443:0.0000000000000000e+000
9444:0.0000000000000000e+000
9445:0.0000000000000000e+000
9446:0.0000000000000000e+000
9447:0.0000000000000000e+000
9448:0.0000000000000000e+000
9449:0.0000000000000000e+000
9450:0.0000000000000000e+000
9451:0.0000000000000000e+000
9452:0.0000000000000000e+000
9453:0.0000000000000000e+000
9454:0.0000000000000000e+000
9455:0.0000000000000000e+000
9456:0.0000000000000000e+000
9457:0.0000000000000000e+000
9458:0.0000000000000000e+000
9459:0.0000000000000000e+000
9460:0.0000000000000000e+000
9461:0.0000000000000000e+000
9462:0.0000000000000000e+000
9463:0.0000000000000000e+000
9464:0.0000000000000000e+000
9465:0.0000000000000000e+000
9466:0.0000000000000000e+000
9467:0.0000000000000000e+000
9468:0.0000000000000000e+000
9469:0.0000000000000000e+000
9470:0.0000000000000000e+000
9471:0.0000000000000000e+000
9472:0.0000000000000000e+000
9473:0.0000000000000000e+000
9474:0.0000000000000000e+000
9475:0.0000000000000000e+000
9476:0.0000000000000000e+000
9477:0.0000000000000000e+000
9478:0.0000000000000000e+000
9479:0.0000000000000000e+000
9480:0.0000000000000000e+000
9481:0.0000000000000000e+000
9482:0.0000000000000000e+000
9483:0.0000000000000000e+000
9484:0.0000000000000000e+000
9485:0.0000000000000000e+000
9486:0.0000000000000000e+000
9487:0.0000000000000000e+000
9488:0.0000000000000000e+000
9489:0.0000000000000000e+000
9490:0.0000000000000000e+000
9491:0.0000000000000000e+000
9492:0.0000000000000000e+000
9493:0.0000000000000000e+000
9494:0.0000000000000000e+000
9495:0.0000000000000000e+000
9496:0.0000000000000000e+000
9497:0.0000000000000000e+000
9498:0.0000000000000000e+000
9499:0.0000000000000000e+000
9500:0.0000000000000000e+000
9501:0.0000000000000000e+000
9502:0.0000000000000000e+000
9503:0.0000000000000000e+000
9504:0.0000000000000000e+000
9505:0.0000000000000000e+000
9506:0.0000000000000000e+000
9507:0.0000000000000000e+000
9508:0.0000000000000000e+000
9509:0.0000000000000000e+000
9510:0.0000000000000000e+000
9511:0.0000000000000000e+000
9512:0.0000000000000000e+000
9513:0.0000000000000000e+000
9514:0.0000000000000000e+000
9515:0.0000000000000000e+000
9516:0.0000000000000000e+000
9517:0.0000000000000000e+000
9518:0.0000000000000000e+000
9519:0.0000000000000000e+000
9520:0.0000000000000000e+000
9521:0.0000000000000000e+000
9522:0.0000000000000000e+000
9523:0.0000000000000000e+000
9524:0.0000000000000000e+000
9525:0.0000000000000000e+000
9526:0.0000000000000000e+000
9527:0.0000000000000000e+000
9528:0.0000000000000000e+000
9529:0.0000000000000000e+000
9530:0.0000000000000000e+000
9531:0.0000000000000000e+000
9532:0.0000000000000000e+000
9533:0.0000000000000000e+000
9534:0.0000000000000000e+000
9535:0.0000000000000000e+000
9536:0.0000000000000000e+000
9537:0.0000000000000000e+000
9538:0.0000000000000000e+000
9539:0.0000000000000000e+000
9540:0.0000000000000000e+000
9541:0.0000000000000000e+000
9542:0.0000000000000000e+000
9543:0.0000000000000000e+000
9544:0.0000000000000000e+000
9545:0.0000000000000000e+000
9546:0.0000000000000000e+000
9547:0.0000000000000000e+000
9548:0.0000000000000000e+000
9549:0.0000000000000000e+000
9550:0.0000000000000000e+000
9551:0.0000000000000000e+000
9552:0.0000000000000000e+000
9553:0.0000000000000000e+000
9554:0.0000000000000000e+000
9555:0.0000000000000000e+000
9556:0.0000000000000000e+000
9557:0.0000000000000000e+000
9558:0.0000000000000000e+000
9559:0.0000000000000000e+000
9560:0.0000000000000000e+000
9561:0.0000000000000000e+000
9562:0.0000000000000000e+000
9563:0.0000000000000000e+000
9564:0.0000000000000000e+000
9565:0.0000000000000000e+000
9566:0.0000000000000000e+000
9567:0.0000000000000000e+000
9568:0.0000000000000000e+000
9569:0.0000000000000000e+000
9570:0.0000000000000000e+000
9571:0.0000000000000000e+000
9572:0.0000000000000000e+000
9573:0.0000000000000000e+000
9574:0.0000000000000000e+000
9575:0.0000000000000000e+000
9576:0.0000000000000000e+000
9577:0.0000000000000000e+000
9578:0.0000000000000000e+000
9579:0.0000000000000000e+000
9580:0.0000000000000000e+000
9581:0.0000000000000000e+000
9582:0.0000000000000000e+000
9583:0.0000000000000000e+000
9584:0.0000000000000000e+000
9585:0.0000000000000000e+000
9586:0.0000000000000000e+000
9587:0.0000000000000000e+000
9588:0.0000000000000000e+000
9589:0.0000000000000000e+000
9590:0.0000000000000000e+000
9591:0.0000000000000000e+000
9592:0.0000000000000000e+000
9593:0.0000000000000000e+000
9594:0.0000000000000000e+000
9595:0.0000000000000000e+000
9596:0.0000000000000000e+000
9597:0.0000000000000000e+000
9598:0.0000000000000000e+000
9599:0.0000000000000000e+000
9600:0.0000000000000000e+000
9601:0.0000000000000000e+000
9602:0.0000000000000000e+000
9603:0.0000000000000000e+000
9604:0.0000000000000000e+000
9605:0.0000000000000000e+000
9606:0.0000000000000000e+000
9607:0.0000000000000000e+000
9608:0.0000000000000000e+000
9609:0.0000000000000000e+000
9610:0.0000000000000000e+000
9611:0.0000000000000000e+000
9612:0.0000000000000000e+000
9613:0.0000000000000000e+000
9614:0.0000000000000000e+000
9615:0.0000000000000000e+000
9616:0.0000000000000000e+000
9617:0.0000000000000000e+000
9618:0.0000000000000000e+000
9619:0.0000000000000000e+000
9620:0.0000000000000000e+000
9621:0.0000000000000000e+000
9622:0.0000000000000000e+000
9623:0.0000000000000000e+000
9624:0.0000000000000000e+000
9625:0.0000000000000000e+000
9626:0.0000000000000000e+000
9627:0.0000000000000000e+000
9628:0.0000000000000000e+000
9629:0.0000000000000000e+000
9630:0.0000000000000000e+000
9631:0.0000000000000000e+000
9632:0.0000000000000000e+000
9633:0.0000000000000000e+000
9634:0.0000000000000000e+000
9635:0.0000000000000000e+000
9636:0.0000000000000000e+000
9637:0.0000000000000000e+000
9638:0.0000000000000000e+000
9639:0.0000000000000000e+000
9640:0.0000000000000000e+000
9641:0.0000000000000000e+000
9642:0.0000000000000000e+000
9643:0.0000000000000000e+000
9644:0.0000000000000000e+000
9645:0.0000000000000000e+000
9646:0.0000000000000000e+000
9647:0.0000000000000000e+000
9648:0.0000000000000000e+000
9649:0.0000000000000000e+000
9650:0.0000000000000000e+000
9651:0.0000000000000000e+000
9652:0.0000000000000000e+000
9653:0.0000000000000000e+000
9654:0.0000000000000000e+000
9655:0.0000000000000000e+000
9656:0.0000000000000000e+000
9657:0.0000000000000000e+000
9658:0.0000000000000000e+000
9659:0.0000000000000000e+000
9660:0.0000000000000000e+000
9661:0.0000000000000000e+000
9662:0.0000000000000000e+000
9663:0.0000000000000000e+000
9664:0.0000000000000000e+000
9665:0.0000000000000000e+000
9666:0.0000000000000000e+000
9667:0.0000000000000000e+000
9668:0.0000000000000000e+000
9669:0.0000000000000000e+000
9670:0.0000000000000000e+000
9671:0.0000000000000000e+000
9672:0.0000000000000000e+000
9673:0.0000000000000000e+000
9674:0.0000000000000000e+000
9675:0.0000000000000000e+000
9676:0.0000000000000000e+000
9677:0.0000000000000000e+000
9678:0.0000000000000000e+000
9679:0.0000000000000000e+000
9680:0.0000000000000000e+000
9681:0.0000000000000000e+000
9682:0.0000000000000000e+000
9683:0.0000000000000000e+000
9684:0.0000000000000000e+000
9685:0.0000000000000000e+000
9686:0.0000000000000000e+000
9687:0.0000000000000000e+000
9688:0.0000000000000000e+000
9689:0.0000000000000000e+000
9690:0.0000000000000000e+000
9691:0.0000000000000000e+000
9692:0.0000000000000000e+000
9693:0.0000000000000000e+000
9694:0.0000000000000000e+000
9695:0.0000000000000000e+000
9696:0.0000000000000000e+000
9697:0.0000000000000000e+000
9698:0.0000000000000000e+000
9699:0.0000000000000000e+000
9700:0.0000000000000000e+000
9701:0.0000000000000000e+000
9702:0.0000000000000000e+000
9703:0.0000000000000000e+000
9704:0.0000000000000000e+000
9705:0.0000000000000000e+000
9706:0.0000000000000000e+000
9707:0.0000000000000000e+000
9708:0.0000000000000000e+000
9709:0.0000000000000000e+000
9710:0.0000000000000000e+000
9711:0.0000000000000000e+000
9712:0.0000000000000000e+000
9713:0.0000000000000000e+000
9714:0.0000000000000000e+000
9715:0.0000000000000000e+000
9716:0.0000000000000000e+000
9717:0.0000000000000000e+000
9718:0.0000000000000000e+000
9719:0.0000000000000000e+000
9720:0.0000000000000000e+000
9721:0.0000000000000000e+000
9722:0.0000000000000000e+000
9723:0.0000000000000000e+000
9724:0.0000000000000000e+000
9725:0.0000000000000000e+000
9726:0.0000000000000000e+000
9727:0.0000000000000000e+000
9728:0.0000000000000000e+000
9729:0.0000000000000000e+000
9730:0.0000000000000000e+000
9731:0.0000000000000000e+000
9732:0.0000000000000000e+000
9733:0.0000000000000000e+000
9734:0.0000000000000000e+000
9735:0.0000000000000000e+000
9736:0.0000000000000000e+000
9737:0.0000000000000000e+000
9738:0.0000000000000000e+000
9739:0.0000000000000000e+000
9740:0.0000000000000000e+000
9741:0.0000000000000000e+000
9742:0.0000000000000000e+000
9743:0.0000000000000000e+000
9744:0.0000000000000000e+000
9745:0.0000000000000000e+000
9746:0.0000000000000000e+000
9747:0.0000000000000000e+000
9748:0.0000000000000000e+000
9749:0.0000000000000000e+000
9750:0.0000000000000000e+000
9751:0.0000000000000000e+000
9752:0.0000000000000000e+000
9753:0.0000000000000000e+000
9754:0.0000000000000000e+000
9755:0.0000000000000000e+000
9756:0.0000000000000000e+000
9757:0.0000000000000000e+000
9758:0.0000000000000000e+000
9759:0.0000000000000000e+000
9760:0.0000000000000000e+000
9761:0.0000000000000000e+000
9762:0.0000000000000000e+000
9763:0.0000000000000000e+000
9764:0.0000000000000000e+000
9765:0.0000000000000000e+000
9766:0.0000000000000000e+000
9767:0.0000000000000000e+000
9768:0.0000000000000000e+000
9769:0.0000000000000000e+000
9770:0.0000000000000000e+000
9771:0.0000000000000000e+000
9772:0.0000000000000000e+000
9773:0.0000000000000000e+000
9774:0.0000000000000000e+000
9775:0.0000000000000000e+000
9776:0.0000000000000000e+000
9777:0.0000000000000000e+000
9778:0.0000000000000000e+000
9779:0.0000000000000000e+000
9780:0.0000000000000000e+000
9781:0.0000000000000000e+000
9782:0.0000000000000000e+000
9783:0.0000000000000000e+000
9784:0.0000000000000000e+000
9785:0.0000000000000000e+000
9786:0.0000000000000000e+000
9787:0.0000000000000000e+000
9788:0.0000000000000000e+000
9789:0.0000000000000000e+000
9790:0.0000000000000000e+000
9791:0.0000000000000000e+000
9792:0.0000000000000000e+000
9793:0.0000000000000000e+000
9794:0.0000000000000000e+000
9795:0.0000000000000000e+000
9796:0.0000000000000000e+000
9797:0.0000000000000000e+000
9798:0.0000000000000000e+000
9799:0.0000000000000000e+000
9800:0.0000000000000000e+000
9801:0.0000000000000000e+000
9802:0.0000000000000000e+000
9803:0.0000000000000000e+000
9804:0.0000000000000000e+000
9805:0.0000000000000000e+000
9806:0.0000000000000000e+000
9807:0.0000000000000000e+000
9808:0.0000000000000000e+000
9809:0.0000000000000000e+000
9810:0.0000000000000000e+000
9811:0.0000000000000000e+000
9812:0.0000000000000000e+000
9813:0.0000000000000000e+000
9814:0.0000000000000000e+000
9815:0.0000000000000000e+000
9816:0.0000000000000000e+000
9817:0.0000000000000000e+000
9818:0.0000000000000000e+000
9819:0.0000000000000000e+000
9820:0.0000000000000000e+000
9821:0.0000000000000000e+000
9822:0.0000000000000000e+000
9823:0.0000000000000000e+000
9824:0.0000000000000000e+000
9825:0.0000000000000000e+000
9826:0.0000000000000000e+000
9827:0.0000000000000000e+000
9828:0.0000000000000000e+000
9829:0.0000000000000000e+000
9830:0.0000000000000000e+000
9831:0.0000000000000000e+000
9832:0.0000000000000000e+000
9833:0.0000000000000000e+000
9834:0.0000000000000000e+000
9835:0.0000000000000000e+000
9836:0.0000000000000000e+000
9837:0.0000000000000000e+000
9838:0.0000000000000000e+000
9839:0.0000000000000000e+000
9840:0.0000000000000000e+000
9841:0.0000000000000000e+000
9842:0.0000000000000000e+000
9843:0.0000000000000000e+000
9844:0.0000000000000000e+000
9845:0.0000000000000000e+000
9846:0.0000000000000000e+000
9847:0.0000000000000000e+000
9848:0.0000000000000000e+000
9849:0.0000000000000000e+000
9850:0.0000000000000000e+000
9851:0.0000000000000000e+000
9852:0.0000000000000000e+000
9853:0.0000000000000000e+000
9854:0.0000000000000000e+000
9855:0.0000000000000000e+000
9856:0.0000000000000000e+000
9857:0.0000000000000000e+000
9858:0.0000000000000000e+000
9859:0.0000000000000000e+000
9860:0.0000000000000000e+000
9861:0.0000000000000000e+000
9862:0.0000000000000000e+000
9863:0.0000000000000000e+000
9864:0.0000000000000000e+000
9865:0.0000000000000000e+000
9866:0.0000000000000000e+000
9867:0.0000000000000000e+000
9868:0.0000000000000000e+000
9869:0.0000000000000000e+000
9870:0.0000000000000000e+000
9871:0.0000000000000000e+000
9872:0.0000000000000000e+000
9873:0.0000000000000000e+000
9874:0.0000000000000000e+000
9875:0.0000000000000000e+000
9876:0.0000000000000000e+000
9877:0.0000000000000000e+000
9878:0.0000000000000000e+000
9879:0.0000000000000000e+000
9880:0.0000000000000000e+000
9881:0.0000000000000000e+000
9882:0.0000000000000000e+000
9883:0.0000000000000000e+000
9884:0.0000000000000000e+000
9885:0.0000000000000000e+000
9886:0.0000000000000000e+000
9887:0.0000000000000000e+000
9888:0.0000000000000000e+000
9889:0.0000000000000000e+000
9890:0.0000000000000000e+000
9891:0.0000000000000000e+000
9892:0.0000000000000000e+000
9893:0.0000000000000000e+000
9894:0.0000000000000000e+000
9895:0.0000000000000000e+000
9896:0.0000000000000000e+000
9897:0.0000000000000000e+000
9898:0.0000000000000000e+000
9899:0.0000000000000000e+000
9900:0.0000000000000000e+000
9901:0.0000000000000000e+000
9902:0.0000000000000000e+000
9903:0.0000000000000000e+000
9904:0.0000000000000000e+000
9905:0.0000000000000000e+000
9906:0.0000000000000000e+000
9907:0.0000000000000000e+000
9908:0.0000000000000000e+000
9909:0.0000000000000000e+000
9910:0.0000000000000000e+000
9911:0.0000000000000000e+000
9912:0.0000000000000000e+000
9913:0.0000000000000000e+000
9914:0.0000000000000000e+000
9915:0.0000000000000000e+000
9916:0.0000000000000000e+000
9917:0.0000000000000000e+000
9918:0.0000000000000000e+000
9919:0.0000000000000000e+000
9920:0.0000000000000000e+000
9921:0.0000000000000000e+000
9922:0.0000000000000000e+000
9923:0.0000000000000000e+000
9924:0.0000000000000000e+000
9925:0.0000000000000000e+000
9926:0.0000000000000000e+000
9927:0.0000000000000000e+000
9928:0.0000000000000000e+000
9929:0.0000000000000000e+000
9930:0.0000000000000000e+000
9931:0.0000000000000000e+000
9932:0.0000000000000000e+000
9933:0.0000000000000000e+000
9934:0.0000000000000000e+000
9935:0.0000000000000000e+000
9936:0.0000000000000000e+000
9937:0.0000000000000000e+000
9938:0.0000000000000000e+000
9939:0.0000000000000000e+000
9940:0.0000000000000000e+000
9941:0.0000000000000000e+000
9942:0.0000000000000000e+000
9943:0.0000000000000000e+000
9944:0.0000000000000000e+000
9945:0.0000000000000000e+000
9946:0.0000000000000000e+000
9947:0.0000000000000000e+000
9948:0.0000000000000000e+000
9949:0.0000000000000000e+000
9950:0.0000000000000000e+000
9951:0.0000000000000000e+000
9952:0.0000000000000000e+000
9953:0.0000000000000000e+000
9954:0.0000000000000000e+000
9955:0.0000000000000000e+000
9956:0.0000000000000000e+000
9957:0.0000000000000000e+000
9958:0.0000000000000000e+000
9959:0.0000000000000000e+000
9960:0.0000000000000000e+000
9961:0.0000000000000000e+000
9962:0.0000000000000000e+000
9963:0.0000000000000000e+000
9964:0.0000000000000000e+000
9965:0.0000000000000000e+000
9966:0.0000000000000000e+000
9967:0.0000000000000000e+000
9968:0.0000000000000000e+000
9969:0.0000000000000000e+000
9970:0.0000000000000000e+000
9971:0.0000000000000000e+000
9972:0.0000000000000000e+000
9973:0.0000000000000000e+000
9974:0.0000000000000000e+000
9975:0.0000000000000000e+000
9976:0.0000000000000000e+000
9977:0.0000000000000000e+000
9978:0.0000000000000000e+000
9979:0.0000000000000000e+000
9980:0.0000000000000000e+000
9981:0.0000000000000000e+000
9982:0.0000000000000000e+000
9983:0.0000000000000000e+000
9984:0.0000000000000000e+000
9985:0.0000000000000000e+000
9986:0.0000000000000000e+000
9987:0.0000000000000000e+000
9988:0.0000000000000000e+000
9989:0.0000000000000000e+000
9990:0.0000000000000000e+000
9991:0.0000000000000000e+000
9992:0.0000000000000000e+000
9993:0.0000000000000000e+000
9994:0.0000000000000000e+000
9995:0.0000000000000000e+000
9996:0.0000000000000000e+000
9997:0.0000000000000000e+000
9998:0.0000000000000000e+000
9999:0.0000000000000000e+000
10000:0.0000000000000000e+000
10001:0.0000000000000000e+000
10002:0.0000000000000000e+000
10003:0.0000000000000000e+000
10004:0.0000000000000000e+000
10005:0.0000000000000000e+000
10006:0.0000000000000000e+000
10007:0.0000000000000000e+000
10008:0.0000000000000000e+000
10009:0.0000000000000000e+000
10010:0.0000000000000000e+000
10011:0.0000000000000000e+000
10012:0.0000000000000000e+000
10013:0.0000000000000000e+000
10014:0.0000000000000000e+000
10015:0.0000000000000000e+000
10016:0.0000000000000000e+000
10017:0.0000000000000000e+000
10018:0.0000000000000000e+000
10019:0.0000000000000000e+000
10020:0.0000000000000000e+000
10021:0.0000000000000000e+000
10022:0.0000000000000000e+000
10023:0.0000000000000000e+000
10024:0.0000000000000000e+000
10025:0.0000000000000000e+000
10026:0.0000000000000000e+000
10027:0.0000000000000000e+000
10028:0.0000000000000000e+000
10029:0.0000000000000000e+000
10030:0.0000000000000000e+000
10031:0.0000000000000000e+000
10032:0.0000000000000000e+000
10033:0.0000000000000000e+000
10034:0.0000000000000000e+000
10035:0.0000000000000000e+000
10036:0.0000000000000000e+000
10037:0.0000000000000000e+000
10038:0.0000000000000000e+000
10039:0.0000000000000000e+000
10040:0.0000000000000000e+000
10041:0.0000000000000000e+000
10042:0.0000000000000000e+000
10043:0.0000000000000000e+000
10044:0.0000000000000000e+000
10045:0.0000000000000000e+000
10046:0.0000000000000000e+000
10047:0.0000000000000000e+000
10048:0.0000000000000000e+000
10049:0.0000000000000000e+000
10050:0.0000000000000000e+000
10051:0.0000000000000000e+000
10052:0.0000000000000000e+000
10053:0.0000000000000000e+000
10054:0.0000000000000000e+000
10055:0.0000000000000000e+000
10056:0.0000000000000000e+000
10057:0.0000000000000000e+000
10058:0.0000000000000000e+000
10059:0.0000000000000000e+000
10060:0.0000000000000000e+000
10061:0.0000000000000000e+000
10062:0.0000000000000000e+000
10063:0.0000000000000000e+000
10064:0.0000000000000000e+000
10065:0.0000000000000000e+000
10066:0.0000000000000000e+000
10067:0.0000000000000000e+000
10068:0.0000000000000000e+000
10069:0.0000000000000000e+000
10070:0.0000000000000000e+000
10071:0.0000000000000000e+000
10072:0.0000000000000000e+000
10073:0.0000000000000000e+000
10074:0.0000000000000000e+000
10075:0.0000000000000000e+000
10076:0.0000000000000000e+000
10077:0.0000000000000000e+000
10078:0.0000000000000000e+000
10079:0.0000000000000000e+000
10080:0.0000000000000000e+000
10081:0.0000000000000000e+000
10082:0.0000000000000000e+000
10083:0.0000000000000000e+000
10084:0.0000000000000000e+000
10085:0.0000000000000000e+000
10086:0.0000000000000000e+000
10087:0.0000000000000000e+000
10088:0.0000000000000000e+000
10089:0.0000000000000000e+000
10090:0.0000000000000000e+000
10091:0.0000000000000000e+000
10092:0.0000000000000000e+000
10093:0.0000000000000000e+000
10094:0.0000000000000000e+000
10095:0.0000000000000000e+000
10096:0.0000000000000000e+000
10097:0.0000000000000000e+000
10098:0.0000000000000000e+000
10099:0.0000000000000000e+000
10100:0.0000000000000000e+000
10101:0.0000000000000000e+000
10102:0.0000000000000000e+000
10103:0.0000000000000000e+000
10104:0.0000000000000000e+000
10105:0.0000000000000000e+000
10106:0.0000000000000000e+000
10107:0.0000000000000000e+000
10108:0.0000000000000000e+000
10109:0.0000000000000000e+000
10110:0.0000000000000000e+000
10111:0.0000000000000000e+000
10112:0.0000000000000000e+000
10113:0.0000000000000000e+000
10114:0.0000000000000000e+000
10115:0.0000000000000000e+000
10116:0.0000000000000000e+000
10117:0.0000000000000000e+000
10118:0.0000000000000000e+000
10119:0.0000000000000000e+000
10120:0.0000000000000000e+000
10121:0.0000000000000000e+000
10122:0.0000000000000000e+000
10123:0.0000000000000000e+000
10124:0.0000000000000000e+000
10125:0.0000000000000000e+000
10126:0.0000000000000000e+000
10127:0.0000000000000000e+000
10128:0.0000000000000000e+000
10129:0.0000000000000000e+000
10130:0.0000000000000000e+000
10131:0.0000000000000000e+000
10132:0.0000000000000000e+000
10133:0.0000000000000000e+000
10134:0.0000000000000000e+000
10135:0.0000000000000000e+000
10136:0.0000000000000000e+000
10137:0.0000000000000000e+000
10138:0.0000000000000000e+000
10139:0.0000000000000000e+000
10140:0.0000000000000000e+000
10141:0.0000000000000000e+000
10142:0.0000000000000000e+000
10143:0.0000000000000000e+000
10144:0.0000000000000000e+000
10145:0.0000000000000000e+000
10146:0.0000000000000000e+000
10147:0.0000000000000000e+000
10148:0.0000000000000000e+000
10149:0.0000000000000000e+000
10150:0.0000000000000000e+000
10151:0.0000000000000000e+000
10152:0.0000000000000000e+000
10153:0.0000000000000000e+000
10154:0.0000000000000000e+000
10155:0.0000000000000000e+000
10156:0.0000000000000000e+000
10157:0.0000000000000000e+000
10158:0.0000000000000000e+000
10159:0.0000000000000000e+000
10160:0.0000000000000000e+000
10161:0.0000000000000000e+000
10162:0.0000000000000000e+000
10163:0.0000000000000000e+000
10164:0.0000000000000000e+000
10165:0.0000000000000000e+000
10166:0.0000000000000000e+000
10167:0.0000000000000000e+000
10168:0.0000000000000000e+000
10169:0.0000000000000000e+000
10170:0.0000000000000000e+000
10171:0.0000000000000000e+000
10172:0.0000000000000000e+000
10173:0.0000000000000000e+000
10174:0.0000000000000000e+000
10175:0.0000000000000000e+000
10176:0.0000000000000000e+000
10177:0.0000000000000000e+000
10178:0.0000000000000000e+000
10179:0.0000000000000000e+000
10180:0.0000000000000000e+000
10181:0.0000000000000000e+000
10182:0.0000000000000000e+000
10183:0.0000000000000000e+000
10184:0.0000000000000000e+000
10185:0.0000000000000000e+000
10186:0.0000000000000000e+000
10187:0.0000000000000000e+000
10188:0.0000000000000000e+000
10189:0.0000000000000000e+000
10190:0.0000000000000000e+000
10191:0.0000000000000000e+000
10192:0.0000000000000000e+000
10193:0.0000000000000000e+000
10194:0.0000000000000000e+000
10195:0.0000000000000000e+000
10196:0.0000000000000000e+000
10197:0.0000000000000000e+000
10198:0.0000000000000000e+000
10199:0.0000000000000000e+000
10200:0.0000000000000000e+000
10201:0.0000000000000000e+000
10202:0.0000000000000000e+000
10203:0.0000000000000000e+000
10204:0.0000000000000000e+000
10205:0.0000000000000000e+000
10206:0.0000000000000000e+000
10207:0.0000000000000000e+000
10208:0.0000000000000000e+000
10209:0.0000000000000000e+000
10210:0.0000000000000000e+000
10211:0.0000000000000000e+000
10212:0.0000000000000000e+000
10213:0.0000000000000000e+000
10214:0.0000000000000000e+000
10215:0.0000000000000000e+000
10216:0.0000000000000000e+000
10217:0.0000000000000000e+000
10218:0.0000000000000000e+000
10219:0.0000000000000000e+000
10220:0.0000000000000000e+000
10221:0.0000000000000000e+000
10222:0.0000000000000000e+000
10223:0.0000000000000000e+000
10224:0.0000000000000000e+000
10225:0.0000000000000000e+000
10226:0.0000000000000000e+000
10227:0.0000000000000000e+000
10228:0.0000000000000000e+000
10229:0.0000000000000000e+000
10230:0.0000000000000000e+000
10231:0.0000000000000000e+000
10232:0.0000000000000000e+000
10233:0.0000000000000000e+000
10234:0.0000000000000000e+000
10235:0.0000000000000000e+000
10236:0.0000000000000000e+000
10237:0.0000000000000000e+000
10238:0.0000000000000000e+000
10239:0.0000000000000000e+000
10240:0.0000000000000000e+000
10241:0.0000000000000000e+000
10242:0.0000000000000000e+000
10243:0.0000000000000000e+000
10244:0.0000000000000000e+000
10245:0.0000000000000000e+000
10246:0.0000000000000000e+000
10247:0.0000000000000000e+000
10248:0.0000000000000000e+000
10249:0.0000000000000000e+000
10250:0.0000000000000000e+000
10251:0.0000000000000000e+000
10252:0.0000000000000000e+000
10253:0.0000000000000000e+000
10254:0.0000000000000000e+000
10255:0.0000000000000000e+000
10256:0.0000000000000000e+000
10257:0.0000000000000000e+000
10258:0.0000000000000000e+000
10259:0.0000000000000000e+000
10260:0.0000000000000000e+000
10261:0.0000000000000000e+000
10262:0.0000000000000000e+000
10263:0.0000000000000000e+000
10264:0.0000000000000000e+000
10265:0.0000000000000000e+000
10266:0.0000000000000000e+000
10267:0.0000000000000000e+000
10268:0.0000000000000000e+000
10269:0.0000000000000000e+000
10270:0.0000000000000000e+000
10271:0.0000000000000000e+000
10272:0.0000000000000000e+000
10273:0.0000000000000000e+000
10274:0.0000000000000000e+000
10275:0.0000000000000000e+000
10276:0.0000000000000000e+000
10277:0.0000000000000000e+000
10278:0.0000000000000000e+000
10279:0.0000000000000000e+000
10280:0.0000000000000000e+000
10281:0.0000000000000000e+000
10282:0.0000000000000000e+000
10283:0.0000000000000000e+000
10284:0.0000000000000000e+000
10285:0.0000000000000000e+000
10286:0.0000000000000000e+000
10287:0.0000000000000000e+000
10288:0.0000000000000000e+000
10289:0.0000000000000000e+000
10290:0.0000000000000000e+000
10291:0.0000000000000000e+000
10292:0.0000000000000000e+000
10293:0.0000000000000000e+000
10294:0.0000000000000000e+000
10295:0.0000000000000000e+000
10296:0.0000000000000000e+000
10297:0.0000000000000000e+000
10298:0.0000000000000000e+000
10299:0.0000000000000000e+000
10300:0.0000000000000000e+000
10301:0.0000000000000000e+000
10302:0.0000000000000000e+000
10303:0.0000000000000000e+000
10304:0.0000000000000000e+000
10305:0.0000000000000000e+000
10306:0.0000000000000000e+000
10307:0.0000000000000000e+000
10308:0.0000000000000000e+000
10309:0.0000000000000000e+000
10310:0.0000000000000000e+000
10311:0.0000000000000000e+000
10312:0.0000000000000000e+000
10313:0.0000000000000000e+000
10314:0.0000000000000000e+000
10315:0.0000000000000000e+000
10316:0.0000000000000000e+000
10317:0.0000000000000000e+000
10318:0.0000000000000000e+000
10319:0.0000000000000000e+000
10320:0.0000000000000000e+000
10321:0.0000000000000000e+000
10322:0.0000000000000000e+000
10323:0.0000000000000000e+000
10324:0.0000000000000000e+000
10325:0.0000000000000000e+000
10326:0.0000000000000000e+000
10327:0.0000000000000000e+000
10328:0.0000000000000000e+000
10329:0.0000000000000000e+000
10330:0.0000000000000000e+000
10331:0.0000000000000000e+000
10332:0.0000000000000000e+000
10333:0.0000000000000000e+000
10334:0.0000000000000000e+000
10335:0.0000000000000000e+000
10336:0.0000000000000000e+000
10337:0.0000000000000000e+000
10338:0.0000000000000000e+000
10339:0.0000000000000000e+000
10340:0.0000000000000000e+000
10341:0.0000000000000000e+000
10342:0.0000000000000000e+000
10343:0.0000000000000000e+000
10344:0.0000000000000000e+000
10345:0.0000000000000000e+000
10346:0.0000000000000000e+000
10347:0.0000000000000000e+000
10348:0.0000000000000000e+000
10349:0.0000000000000000e+000
10350:0.0000000000000000e+000
10351:0.0000000000000000e+000
10352:0.0000000000000000e+000
10353:0.0000000000000000e+000
10354:0.0000000000000000e+000
10355:0.0000000000000000e+000
10356:0.0000000000000000e+000
10357:0.0000000000000000e+000
10358:0.0000000000000000e+000
10359:0.0000000000000000e+000
10360:0.0000000000000000e+000
10361:0.0000000000000000e+000
10362:0.0000000000000000e+000
10363:0.0000000000000000e+000
10364:0.0000000000000000e+000
10365:0.0000000000000000e+000
10366:0.0000000000000000e+000
10367:0.0000000000000000e+000
10368:0.0000000000000000e+000
10369:0.0000000000000000e+000
10370:0.0000000000000000e+000
10371:0.0000000000000000e+000
10372:0.0000000000000000e+000
10373:0.0000000000000000e+000
10374:0.0000000000000000e+000
10375:0.0000000000000000e+000
10376:0.0000000000000000e+000
10377:0.0000000000000000e+000
10378:0.0000000000000000e+000
10379:0.0000000000000000e+000
10380:0.0000000000000000e+000
10381:0.0000000000000000e+000
10382:0.0000000000000000e+000
10383:0.0000000000000000e+000
10384:0.0000000000000000e+000
10385:0.0000000000000000e+000
10386:0.0000000000000000e+000
10387:0.0000000000000000e+000
10388:0.0000000000000000e+000
10389:0.0000000000000000e+000
10390:0.0000000000000000e+000
10391:0.0000000000000000e+000
10392:0.0000000000000000e+000
10393:0.0000000000000000e+000
10394:0.0000000000000000e+000
10395:0.0000000000000000e+000
10396:0.0000000000000000e+000
10397:0.0000000000000000e+000
10398:0.0000000000000000e+000
10399:0.0000000000000000e+000
10400:0.0000000000000000e+000
10401:0.0000000000000000e+000
10402:0.0000000000000000e+000
10403:0.0000000000000000e+000
10404:0.0000000000000000e+000
10405:0.0000000000000000e+000
10406:0.0000000000000000e+000
10407:0.0000000000000000e+000
10408:0.0000000000000000e+000
10409:0.0000000000000000e+000
10410:0.0000000000000000e+000
10411:0.0000000000000000e+000
10412:0.0000000000000000e+000
10413:0.0000000000000000e+000
10414:0.0000000000000000e+000
10415:0.0000000000000000e+000
10416:0.0000000000000000e+000
10417:0.0000000000000000e+000
10418:0.0000000000000000e+000
10419:0.0000000000000000e+000
10420:0.0000000000000000e+000
10421:0.0000000000000000e+000
10422:0.0000000000000000e+000
10423:0.0000000000000000e+000
10424:0.0000000000000000e+000
10425:0.0000000000000000e+000
10426:0.0000000000000000e+000
10427:0.0000000000000000e+000
10428:0.0000000000000000e+000
10429:0.0000000000000000e+000
10430:0.0000000000000000e+000
10431:0.0000000000000000e+000
10432:0.0000000000000000e+000
10433:0.0000000000000000e+000
10434:0.0000000000000000e+000
10435:0.0000000000000000e+000
10436:0.0000000000000000e+000
10437:0.0000000000000000e+000
10438:0.0000000000000000e+000
10439:0.0000000000000000e+000
10440:0.0000000000000000e+000
10441:0.0000000000000000e+000
10442:0.0000000000000000e+000
10443:0.0000000000000000e+000
10444:0.0000000000000000e+000
10445:0.0000000000000000e+000
10446:0.0000000000000000e+000
10447:0.0000000000000000e+000
10448:0.0000000000000000e+000
10449:0.0000000000000000e+000
10450:0.0000000000000000e+000
10451:0.0000000000000000e+000
10452:0.0000000000000000e+000
10453:0.0000000000000000e+000
10454:0.0000000000000000e+000
10455:0.0000000000000000e+000
10456:0.0000000000000000e+000
10457:0.0000000000000000e+000
10458:0.0000000000000000e+000
10459:0.0000000000000000e+000
10460:0.0000000000000000e+000
10461:0.0000000000000000e+000
10462:0.0000000000000000e+000
10463:0.0000000000000000e+000
10464:0.0000000000000000e+000
10465:0.0000000000000000e+000
10466:0.0000000000000000e+000
10467:0.0000000000000000e+000
10468:0.0000000000000000e+000
10469:0.0000000000000000e+000
10470:0.0000000000000000e+000
10471:0.0000000000000000e+000
10472:0.0000000000000000e+000
10473:0.0000000000000000e+000
10474:0.0000000000000000e+000
10475:0.0000000000000000e+000
10476:0.0000000000000000e+000
10477:0.0000000000000000e+000
10478:0.0000000000000000e+000
10479:0.0000000000000000e+000
10480:0.0000000000000000e+000
10481:0.0000000000000000e+000
10482:0.0000000000000000e+000
10483:0.0000000000000000e+000
10484:0.0000000000000000e+000
10485:0.0000000000000000e+000
10486:0.0000000000000000e+000
10487:0.0000000000000000e+000
10488:0.0000000000000000e+000
10489:0.0000000000000000e+000
10490:0.0000000000000000e+000
10491:0.0000000000000000e+000
10492:0.0000000000000000e+000
10493:0.0000000000000000e+000
10494:0.0000000000000000e+000
10495:0.0000000000000000e+000
10496:0.0000000000000000e+000
10497:0.0000000000000000e+000
10498:0.0000000000000000e+000
10499:0.0000000000000000e+000
10500:0.0000000000000000e+000
10501:0.0000000000000000e+000
10502:0.0000000000000000e+000
10503:0.0000000000000000e+000
10504:0.0000000000000000e+000
10505:0.0000000000000000e+000
10506:0.0000000000000000e+000
10507:0.0000000000000000e+000
10508:0.0000000000000000e+000
10509:0.0000000000000000e+000
10510:0.0000000000000000e+000
10511:0.0000000000000000e+000
10512:0.0000000000000000e+000
10513:0.0000000000000000e+000
10514:0.0000000000000000e+000
10515:0.0000000000000000e+000
10516:0.0000000000000000e+000
10517:0.0000000000000000e+000
10518:0.0000000000000000e+000
10519:0.0000000000000000e+000
10520:0.0000000000000000e+000
10521:0.0000000000000000e+000
10522:0.0000000000000000e+000
10523:0.0000000000000000e+000
10524:0.0000000000000000e+000
10525:0.0000000000000000e+000
10526:0.0000000000000000e+000
10527:0.0000000000000000e+000
10528:0.0000000000000000e+000
10529:0.0000000000000000e+000
10530:0.0000000000000000e+000
10531:0.0000000000000000e+000
10532:0.0000000000000000e+000
10533:0.0000000000000000e+000
10534:0.0000000000000000e+000
10535:0.0000000000000000e+000
10536:0.0000000000000000e+000
10537:0.0000000000000000e+000
10538:0.0000000000000000e+000
10539:0.0000000000000000e+000
10540:0.0000000000000000e+000
10541:0.0000000000000000e+000
10542:0.0000000000000000e+000
10543:0.0000000000000000e+000
10544:0.0000000000000000e+000
10545:0.0000000000000000e+000
10546:0.0000000000000000e+000
10547:0.0000000000000000e+000
10548:0.0000000000000000e+000
10549:0.0000000000000000e+000
10550:0.0000000000000000e+000
10551:0.0000000000000000e+000
10552:0.0000000000000000e+000
10553:0.0000000000000000e+000
10554:0.0000000000000000e+000
10555:0.0000000000000000e+000
10556:0.0000000000000000e+000
10557:0.0000000000000000e+000
10558:0.0000000000000000e+000
10559:0.0000000000000000e+000
10560:0.0000000000000000e+000
10561:0.0000000000000000e+000
10562:0.0000000000000000e+000
10563:0.0000000000000000e+000
10564:0.0000000000000000e+000
10565:0.0000000000000000e+000
10566:0.0000000000000000e+000
10567:0.0000000000000000e+000
10568:0.0000000000000000e+000
10569:0.0000000000000000e+000
10570:0.0000000000000000e+000
10571:0.0000000000000000e+000
10572:0.0000000000000000e+000
10573:0.0000000000000000e+000
10574:0.0000000000000000e+000
10575:0.0000000000000000e+000
10576:0.0000000000000000e+000
10577:0.0000000000000000e+000
10578:0.0000000000000000e+000
10579:0.0000000000000000e+000
10580:0.0000000000000000e+000
10581:0.0000000000000000e+000
10582:0.0000000000000000e+000
10583:0.0000000000000000e+000
10584:0.0000000000000000e+000
10585:0.0000000000000000e+000
10586:0.0000000000000000e+000
10587:0.0000000000000000e+000
10588:0.0000000000000000e+000
10589:0.0000000000000000e+000
10590:0.0000000000000000e+000
10591:0.0000000000000000e+000
10592:0.0000000000000000e+000
10593:0.0000000000000000e+000
10594:0.0000000000000000e+000
10595:0.0000000000000000e+000
10596:0.0000000000000000e+000
10597:0.0000000000000000e+000
10598:0.0000000000000000e+000
10599:0.0000000000000000e+000
10600:0.0000000000000000e+000
10601:0.0000000000000000e+000
10602:0.0000000000000000e+000
10603:0.0000000000000000e+000
10604:0.0000000000000000e+000
10605:0.0000000000000000e+000
10606:0.0000000000000000e+000
10607:0.0000000000000000e+000
10608:0.0000000000000000e+000
10609:0.0000000000000000e+000
10610:0.0000000000000000e+000
10611:0.0000000000000000e+000
10612:0.0000000000000000e+000
10613:0.0000000000000000e+000
10614:0.0000000000000000e+000
10615:0.0000000000000000e+000
10616:0.0000000000000000e+000
10617:0.0000000000000000e+000
10618:0.0000000000000000e+000
10619:0.0000000000000000e+000
10620:0.0000000000000000e+000
10621:0.0000000000000000e+000
10622:0.0000000000000000e+000
10623:0.0000000000000000e+000
10624:0.0000000000000000e+000
10625:0.0000000000000000e+000
10626:0.0000000000000000e+000
10627:0.0000000000000000e+000
10628:0.0000000000000000e+000
10629:0.0000000000000000e+000
10630:0.0000000000000000e+000
10631:0.0000000000000000e+000
10632:0.0000000000000000e+000
10633:0.0000000000000000e+000
10634:0.0000000000000000e+000
10635:0.0000000000000000e+000
10636:0.0000000000000000e+000
10637:0.0000000000000000e+000
10638:0.0000000000000000e+000
10639:0.0000000000000000e+000
10640:0.0000000000000000e+000
10641:0.0000000000000000e+000
10642:0.0000000000000000e+000
10643:0.0000000000000000e+000
10644:0.0000000000000000e+000
10645:0.0000000000000000e+000
10646:0.0000000000000000e+000
10647:0.0000000000000000e+000
10648:0.0000000000000000e+000
10649:0.0000000000000000e+000
10650:0.0000000000000000e+000
10651:0.0000000000000000e+000
10652:0.0000000000000000e+000
10653:0.0000000000000000e+000
10654:0.0000000000000000e+000
10655:0.0000000000000000e+000
10656:0.0000000000000000e+000
10657:0.0000000000000000e+000
10658:0.0000000000000000e+000
10659:0.0000000000000000e+000
10660:0.0000000000000000e+000
10661:0.0000000000000000e+000
10662:0.0000000000000000e+000
10663:0.0000000000000000e+000
10664:0.0000000000000000e+000
10665:0.0000000000000000e+000
10666:0.0000000000000000e+000
10667:0.0000000000000000e+000
10668:0.0000000000000000e+000
10669:0.0000000000000000e+000
10670:0.0000000000000000e+000
10671:0.0000000000000000e+000
10672:0.0000000000000000e+000
10673:0.0000000000000000e+000
10674:0.0000000000000000e+000
10675:0.0000000000000000e+000
10676:0.0000000000000000e+000
10677:0.0000000000000000e+000
10678:0.0000000000000000e+000
10679:0.0000000000000000e+000
10680:0.0000000000000000e+000
10681:0.0000000000000000e+000
10682:0.0000000000000000e+000
10683:0.0000000000000000e+000
10684:0.0000000000000000e+000
10685:0.0000000000000000e+000
10686:0.0000000000000000e+000
10687:0.0000000000000000e+000
10688:0.0000000000000000e+000
10689:0.0000000000000000e+000
10690:0.0000000000000000e+000
10691:0.0000000000000000e+000
10692:0.0000000000000000e+000
10693:0.0000000000000000e+000
10694:0.0000000000000000e+000
10695:0.0000000000000000e+000
10696:0.0000000000000000e+000
10697:0.0000000000000000e+000
10698:0.0000000000000000e+000
10699:0.0000000000000000e+000
10700:0.0000000000000000e+000
10701:0.0000000000000000e+000
10702:0.0000000000000000e+000
10703:0.0000000000000000e+000
10704:0.0000000000000000e+000
10705:0.0000000000000000e+000
10706:0.0000000000000000e+000
10707:0.0000000000000000e+000
10708:0.0000000000000000e+000
10709:0.0000000000000000e+000
10710:0.0000000000000000e+000
10711:0.0000000000000000e+000
10712:0.0000000000000000e+000
10713:0.0000000000000000e+000
10714:0.0000000000000000e+000
10715:0.0000000000000000e+000
10716:0.0000000000000000e+000
10717:0.0000000000000000e+000
10718:0.0000000000000000e+000
10719:0.0000000000000000e+000
10720:0.0000000000000000e+000
10721:0.0000000000000000e+000
10722:0.0000000000000000e+000
10723:0.0000000000000000e+000
10724:0.0000000000000000e+000
10725:0.0000000000000000e+000
10726:0.0000000000000000e+000
10727:0.0000000000000000e+000
10728:0.0000000000000000e+000
10729:0.0000000000000000e+000
10730:0.0000000000000000e+000
10731:0.0000000000000000e+000
10732:0.0000000000000000e+000
10733:0.0000000000000000e+000
10734:0.0000000000000000e+000
10735:0.0000000000000000e+000
10736:0.0000000000000000e+000
10737:0.0000000000000000e+000
10738:0.0000000000000000e+000
10739:0.0000000000000000e+000
10740:0.0000000000000000e+000
10741:0.0000000000000000e+000
10742:0.0000000000000000e+000
10743:0.0000000000000000e+000
10744:0.0000000000000000e+000
10745:0.0000000000000000e+000
10746:0.0000000000000000e+000
10747:0.0000000000000000e+000
10748:0.0000000000000000e+000
10749:0.0000000000000000e+000
10750:0.0000000000000000e+000
10751:0.0000000000000000e+000
10752:0.0000000000000000e+000
10753:0.0000000000000000e+000
10754:0.0000000000000000e+000
10755:0.0000000000000000e+000
10756:0.0000000000000000e+000
10757:0.0000000000000000e+000
10758:0.0000000000000000e+000
10759:0.0000000000000000e+000
10760:0.0000000000000000e+000
10761:0.0000000000000000e+000
10762:0.0000000000000000e+000
10763:0.0000000000000000e+000
10764:0.0000000000000000e+000
10765:0.0000000000000000e+000
10766:0.0000000000000000e+000
10767:0.0000000000000000e+000
10768:0.0000000000000000e+000
10769:0.0000000000000000e+000
10770:0.0000000000000000e+000
10771:0.0000000000000000e+000
10772:0.0000000000000000e+000
10773:0.0000000000000000e+000
10774:0.0000000000000000e+000
10775:0.0000000000000000e+000
10776:0.0000000000000000e+000
10777:0.0000000000000000e+000
10778:0.0000000000000000e+000
10779:0.0000000000000000e+000
10780:0.0000000000000000e+000
10781:0.0000000000000000e+000
10782:0.0000000000000000e+000
10783:0.0000000000000000e+000
10784:0.0000000000000000e+000
10785:0.0000000000000000e+000
10786:0.0000000000000000e+000
10787:0.0000000000000000e+000
10788:0.0000000000000000e+000
10789:0.0000000000000000e+000
10790:0.0000000000000000e+000
10791:0.0000000000000000e+000
10792:0.0000000000000000e+000
10793:0.0000000000000000e+000
10794:0.0000000000000000e+000
10795:0.0000000000000000e+000
10796:0.0000000000000000e+000
10797:0.0000000000000000e+000
10798:0.0000000000000000e+000
10799:0.0000000000000000e+000
10800:0.0000000000000000e+000
10801:0.0000000000000000e+000
10802:0.0000000000000000e+000
10803:0.0000000000000000e+000
10804:0.0000000000000000e+000
10805:0.0000000000000000e+000
10806:0.0000000000000000e+000
10807:0.0000000000000000e+000
10808:0.0000000000000000e+000
10809:0.0000000000000000e+000
10810:0.0000000000000000e+000
10811:0.0000000000000000e+000
10812:0.0000000000000000e+000
10813:0.0000000000000000e+000
10814:0.0000000000000000e+000
10815:0.0000000000000000e+000
10816:0.0000000000000000e+000
10817:0.0000000000000000e+000
10818:0.0000000000000000e+000
10819:0.0000000000000000e+000
10820:0.0000000000000000e+000
10821:0.0000000000000000e+000
10822:0.0000000000000000e+000
10823:0.0000000000000000e+000
10824:0.0000000000000000e+000
10825:0.0000000000000000e+000
10826:0.0000000000000000e+000
10827:0.0000000000000000e+000
10828:0.0000000000000000e+000
10829:0.0000000000000000e+000
10830:0.0000000000000000e+000
10831:0.0000000000000000e+000
10832:0.0000000000000000e+000
10833:0.0000000000000000e+000
10834:0.0000000000000000e+000
10835:0.0000000000000000e+000
10836:0.0000000000000000e+000
10837:0.0000000000000000e+000
10838:0.0000000000000000e+000
10839:0.0000000000000000e+000
10840:0.0000000000000000e+000
10841:0.0000000000000000e+000
10842:0.0000000000000000e+000
10843:0.0000000000000000e+000
10844:0.0000000000000000e+000
10845:0.0000000000000000e+000
10846:0.0000000000000000e+000
10847:0.0000000000000000e+000
10848:0.0000000000000000e+000
10849:0.0000000000000000e+000
10850:0.0000000000000000e+000
10851:0.0000000000000000e+000
10852:0.0000000000000000e+000
10853:0.0000000000000000e+000
10854:0.0000000000000000e+000
10855:0.0000000000000000e+000
10856:0.0000000000000000e+000
10857:0.0000000000000000e+000
10858:0.0000000000000000e+000
10859:0.0000000000000000e+000
10860:0.0000000000000000e+000
10861:0.0000000000000000e+000
10862:0.0000000000000000e+000
10863:0.0000000000000000e+000
10864:0.0000000000000000e+000
10865:0.0000000000000000e+000
10866:0.0000000000000000e+000
10867:0.0000000000000000e+000
10868:0.0000000000000000e+000
10869:0.0000000000000000e+000
10870:0.0000000000000000e+000
10871:0.0000000000000000e+000
10872:0.0000000000000000e+000
10873:0.0000000000000000e+000
10874:0.0000000000000000e+000
10875:0.0000000000000000e+000
10876:0.0000000000000000e+000
10877:0.0000000000000000e+000
10878:0.0000000000000000e+000
10879:0.0000000000000000e+000
10880:0.0000000000000000e+000
10881:0.0000000000000000e+000
10882:0.0000000000000000e+000
10883:0.0000000000000000e+000
10884:0.0000000000000000e+000
10885:0.0000000000000000e+000
10886:0.0000000000000000e+000
10887:0.0000000000000000e+000
10888:0.0000000000000000e+000
10889:0.0000000000000000e+000
10890:0.0000000000000000e+000
10891:0.0000000000000000e+000
10892:0.0000000000000000e+000
10893:0.0000000000000000e+000
10894:0.0000000000000000e+000
10895:0.0000000000000000e+000
10896:0.0000000000000000e+000
10897:0.0000000000000000e+000
10898:0.0000000000000000e+000
10899:0.0000000000000000e+000
10900:0.0000000000000000e+000
10901:0.0000000000000000e+000
10902:0.0000000000000000e+000
10903:0.0000000000000000e+000
10904:0.0000000000000000e+000
10905:0.0000000000000000e+000
10906:0.0000000000000000e+000
10907:0.0000000000000000e+000
10908:0.0000000000000000e+000
10909:0.0000000000000000e+000
10910:0.0000000000000000e+000
10911:0.0000000000000000e+000
10912:0.0000000000000000e+000
10913:0.0000000000000000e+000
10914:0.0000000000000000e+000
10915:0.0000000000000000e+000
10916:0.0000000000000000e+000
10917:0.0000000000000000e+000
10918:0.0000000000000000e+000
10919:0.0000000000000000e+000
10920:0.0000000000000000e+000
10921:0.0000000000000000e+000
10922:0.0000000000000000e+000
10923:0.0000000000000000e+000
10924:0.0000000000000000e+000
10925:0.0000000000000000e+000
10926:0.0000000000000000e+000
10927:0.0000000000000000e+000
10928:0.0000000000000000e+000
10929:0.0000000000000000e+000
10930:0.0000000000000000e+000
10931:0.0000000000000000e+000
10932:0.0000000000000000e+000
10933:0.0000000000000000e+000
10934:0.0000000000000000e+000
10935:0.0000000000000000e+000
10936:0.0000000000000000e+000
10937:0.0000000000000000e+000
10938:0.0000000000000000e+000
10939:0.0000000000000000e+000
10940:0.0000000000000000e+000
10941:0.0000000000000000e+000
10942:0.0000000000000000e+000
10943:0.0000000000000000e+000
10944:0.0000000000000000e+000
10945:0.0000000000000000e+000
10946:0.0000000000000000e+000
10947:0.0000000000000000e+000
10948:0.0000000000000000e+000
10949:0.0000000000000000e+000
10950:0.0000000000000000e+000
10951:0.0000000000000000e+000
10952:0.0000000000000000e+000
10953:0.0000000000000000e+000
10954:0.0000000000000000e+000
10955:0.0000000000000000e+000
10956:0.0000000000000000e+000
10957:0.0000000000000000e+000
10958:0.0000000000000000e+000
10959:0.0000000000000000e+000
10960:0.0000000000000000e+000
10961:0.0000000000000000e+000
10962:0.0000000000000000e+000
10963:0.0000000000000000e+000
10964:0.0000000000000000e+000
10965:0.0000000000000000e+000
10966:0.0000000000000000e+000
10967:0.0000000000000000e+000
10968:0.0000000000000000e+000
10969:0.0000000000000000e+000
10970:0.0000000000000000e+000
10971:0.0000000000000000e+000
10972:0.0000000000000000e+000
10973:0.0000000000000000e+000
10974:0.0000000000000000e+000
10975:0.0000000000000000e+000
10976:0.0000000000000000e+000
10977:0.0000000000000000e+000
10978:0.0000000000000000e+000
10979:0.0000000000000000e+000
10980:0.0000000000000000e+000
10981:0.0000000000000000e+000
10982:0.0000000000000000e+000
10983:0.0000000000000000e+000
10984:0.0000000000000000e+000
10985:0.0000000000000000e+000
10986:0.0000000000000000e+000
10987:0.0000000000000000e+000
10988:0.0000000000000000e+000
10989:0.0000000000000000e+000
10990:0.0000000000000000e+000
10991:0.0000000000000000e+000
10992:0.0000000000000000e+000
10993:0.0000000000000000e+000
10994:0.0000000000000000e+000
10995:0.0000000000000000e+000
10996:0.0000000000000000e+000
10997:0.0000000000000000e+000
10998:0.0000000000000000e+000
10999:0.0000000000000000e+000
11000:0.0000000000000000e+000
11001:0.0000000000000000e+000
11002:0.0000000000000000e+000
11003:0.0000000000000000e+000
11004:0.0000000000000000e+000
11005:0.0000000000000000e+000
11006:0.0000000000000000e+000
11007:0.0000000000000000e+000
11008:0.0000000000000000e+000
11009:0.0000000000000000e+000
11010:0.0000000000000000e+000
11011:0.0000000000000000e+000
11012:0.0000000000000000e+000
11013:0.0000000000000000e+000
11014:0.0000000000000000e+000
11015:0.0000000000000000e+000
11016:0.0000000000000000e+000
11017:0.0000000000000000e+000
11018:0.0000000000000000e+000
11019:0.0000000000000000e+000
11020:0.0000000000000000e+000
11021:0.0000000000000000e+000
11022:0.0000000000000000e+000
11023:0.0000000000000000e+000
11024:0.0000000000000000e+000
11025:0.0000000000000000e+000
11026:0.0000000000000000e+000
11027:0.0000000000000000e+000
11028:0.0000000000000000e+000
11029:0.0000000000000000e+000
11030:0.0000000000000000e+000
11031:0.0000000000000000e+000
11032:0.0000000000000000e+000
11033:0.0000000000000000e+000
11034:0.0000000000000000e+000
11035:0.0000000000000000e+000
11036:0.0000000000000000e+000
11037:0.0000000000000000e+000
11038:0.0000000000000000e+000
11039:0.0000000000000000e+000
11040:0.0000000000000000e+000
11041:0.0000000000000000e+000
11042:0.0000000000000000e+000
11043:0.0000000000000000e+000
11044:0.0000000000000000e+000
11045:0.0000000000000000e+000
11046:0.0000000000000000e+000
11047:0.0000000000000000e+000
11048:0.0000000000000000e+000
11049:0.0000000000000000e+000
11050:0.0000000000000000e+000
11051:0.0000000000000000e+000
11052:0.0000000000000000e+000
11053:0.0000000000000000e+000
11054:0.0000000000000000e+000
11055:0.0000000000000000e+000
11056:0.0000000000000000e+000
11057:0.0000000000000000e+000
11058:0.0000000000000000e+000
11059:0.0000000000000000e+000
11060:0.0000000000000000e+000
11061:0.0000000000000000e+000
11062:0.0000000000000000e+000
11063:0.0000000000000000e+000
11064:0.0000000000000000e+000
11065:0.0000000000000000e+000
11066:0.0000000000000000e+000
11067:0.0000000000000000e+000
11068:0.0000000000000000e+000
11069:0.0000000000000000e+000
11070:0.0000000000000000e+000
11071:0.0000000000000000e+000
11072:0.0000000000000000e+000
11073:0.0000000000000000e+000
11074:0.0000000000000000e+000
11075:0.0000000000000000e+000
11076:0.0000000000000000e+000
11077:0.0000000000000000e+000
11078:0.0000000000000000e+000
11079:0.0000000000000000e+000
11080:0.0000000000000000e+000
11081:0.0000000000000000e+000
11082:0.0000000000000000e+000
11083:0.0000000000000000e+000
11084:0.0000000000000000e+000
11085:0.0000000000000000e+000
11086:0.0000000000000000e+000
11087:0.0000000000000000e+000
11088:0.0000000000000000e+000
11089:0.0000000000000000e+000
11090:0.0000000000000000e+000
11091:0.0000000000000000e+000
11092:0.0000000000000000e+000
11093:0.0000000000000000e+000
11094:0.0000000000000000e+000
11095:0.0000000000000000e+000
11096:0.0000000000000000e+000
11097:0.0000000000000000e+000
11098:0.0000000000000000e+000
11099:0.0000000000000000e+000
11100:0.0000000000000000e+000
11101:0.0000000000000000e+000
11102:0.0000000000000000e+000
11103:0.0000000000000000e+000
11104:0.0000000000000000e+000
11105:0.0000000000000000e+000
11106:0.0000000000000000e+000
11107:0.0000000000000000e+000
11108:0.0000000000000000e+000
11109:0.0000000000000000e+000
11110:0.0000000000000000e+000
11111:0.0000000000000000e+000
11112:0.0000000000000000e+000
11113:0.0000000000000000e+000
11114:0.0000000000000000e+000
11115:0.0000000000000000e+000
11116:0.0000000000000000e+000
11117:0.0000000000000000e+000
11118:0.0000000000000000e+000
11119:0.0000000000000000e+000
11120:0.0000000000000000e+000
11121:0.0000000000000000e+000
11122:0.0000000000000000e+000
11123:0.0000000000000000e+000
11124:0.0000000000000000e+000
11125:0.0000000000000000e+000
11126:0.0000000000000000e+000
11127:0.0000000000000000e+000
11128:0.0000000000000000e+000
11129:0.0000000000000000e+000
11130:0.0000000000000000e+000
11131:0.0000000000000000e+000
11132:0.0000000000000000e+000
11133:0.0000000000000000e+000
11134:0.0000000000000000e+000
11135:0.0000000000000000e+000
11136:0.0000000000000000e+000
11137:0.0000000000000000e+000
11138:0.0000000000000000e+000
11139:0.0000000000000000e+000
11140:0.0000000000000000e+000
11141:0.0000000000000000e+000
11142:0.0000000000000000e+000
11143:0.0000000000000000e+000
11144:0.0000000000000000e+000
11145:0.0000000000000000e+000
11146:0.0000000000000000e+000
11147:0.0000000000000000e+000
11148:0.0000000000000000e+000
11149:0.0000000000000000e+000
11150:0.0000000000000000e+000
11151:0.0000000000000000e+000
11152:0.0000000000000000e+000
11153:0.0000000000000000e+000
11154:0.0000000000000000e+000
11155:0.0000000000000000e+000
11156:0.0000000000000000e+000
11157:0.0000000000000000e+000
11158:0.0000000000000000e+000
11159:0.0000000000000000e+000
11160:0.0000000000000000e+000
11161:0.0000000000000000e+000
11162:0.0000000000000000e+000
11163:0.0000000000000000e+000
11164:0.0000000000000000e+000
11165:0.0000000000000000e+000
11166:0.0000000000000000e+000
11167:0.0000000000000000e+000
11168:0.0000000000000000e+000
11169:0.0000000000000000e+000
11170:0.0000000000000000e+000
11171:0.0000000000000000e+000
11172:0.0000000000000000e+000
11173:0.0000000000000000e+000
11174:0.0000000000000000e+000
11175:0.0000000000000000e+000
11176:0.0000000000000000e+000
11177:0.0000000000000000e+000
11178:0.0000000000000000e+000
11179:0.0000000000000000e+000
11180:0.0000000000000000e+000
11181:0.0000000000000000e+000
11182:0.0000000000000000e+000
11183:0.0000000000000000e+000
11184:0.0000000000000000e+000
11185:0.0000000000000000e+000
11186:0.0000000000000000e+000
11187:0.0000000000000000e+000
11188:0.0000000000000000e+000
11189:0.0000000000000000e+000
11190:0.0000000000000000e+000
11191:0.0000000000000000e+000
11192:0.0000000000000000e+000
11193:0.0000000000000000e+000
11194:0.0000000000000000e+000
11195:0.0000000000000000e+000
11196:0.0000000000000000e+000
11197:0.0000000000000000e+000
11198:0.0000000000000000e+000
11199:0.0000000000000000e+000
11200:0.0000000000000000e+000
11201:0.0000000000000000e+000
11202:0.0000000000000000e+000
11203:0.0000000000000000e+000
11204:0.0000000000000000e+000
11205:0.0000000000000000e+000
11206:0.0000000000000000e+000
11207:0.0000000000000000e+000
11208:0.0000000000000000e+000
11209:0.0000000000000000e+000
11210:0.0000000000000000e+000
11211:0.0000000000000000e+000
11212:0.0000000000000000e+000
11213:0.0000000000000000e+000
11214:0.0000000000000000e+000
11215:0.0000000000000000e+000
11216:0.0000000000000000e+000
11217:0.0000000000000000e+000
11218:0.0000000000000000e+000
11219:0.0000000000000000e+000
11220:0.0000000000000000e+000
11221:0.0000000000000000e+000
11222:0.0000000000000000e+000
11223:0.0000000000000000e+000
11224:0.0000000000000000e+000
11225:0.0000000000000000e+000
11226:0.0000000000000000e+000
11227:0.0000000000000000e+000
11228:0.0000000000000000e+000
11229:0.0000000000000000e+000
11230:0.0000000000000000e+000
11231:0.0000000000000000e+000
11232:0.0000000000000000e+000
11233:0.0000000000000000e+000
11234:0.0000000000000000e+000
11235:0.0000000000000000e+000
11236:0.0000000000000000e+000
11237:0.0000000000000000e+000
11238:0.0000000000000000e+000
11239:0.0000000000000000e+000
11240:0.0000000000000000e+000
11241:0.0000000000000000e+000
11242:0.0000000000000000e+000
11243:0.0000000000000000e+000
11244:0.0000000000000000e+000
11245:0.0000000000000000e+000
11246:0.0000000000000000e+000
11247:0.0000000000000000e+000
11248:0.0000000000000000e+000
11249:0.0000000000000000e+000
11250:0.0000000000000000e+000
11251:0.0000000000000000e+000
11252:0.0000000000000000e+000
11253:0.0000000000000000e+000
11254:0.0000000000000000e+000
11255:0.0000000000000000e+000
11256:0.0000000000000000e+000
11257:0.0000000000000000e+000
11258:0.0000000000000000e+000
11259:0.0000000000000000e+000
11260:0.0000000000000000e+000
11261:0.0000000000000000e+000
11262:0.0000000000000000e+000
11263:0.0000000000000000e+000
11264:0.0000000000000000e+000
11265:0.0000000000000000e+000
11266:0.0000000000000000e+000
11267:0.0000000000000000e+000
11268:0.0000000000000000e+000
11269:0.0000000000000000e+000
11270:0.0000000000000000e+000
11271:0.0000000000000000e+000
11272:0.0000000000000000e+000
11273:0.0000000000000000e+000
11274:0.0000000000000000e+000
11275:0.0000000000000000e+000
11276:0.0000000000000000e+000
11277:0.0000000000000000e+000
11278:0.0000000000000000e+000
11279:0.0000000000000000e+000
11280:0.0000000000000000e+000
11281:0.0000000000000000e+000
11282:0.0000000000000000e+000
11283:0.0000000000000000e+000
11284:0.0000000000000000e+000
11285:0.0000000000000000e+000
11286:0.0000000000000000e+000
11287:0.0000000000000000e+000
11288:0.0000000000000000e+000
11289:0.0000000000000000e+000
11290:0.0000000000000000e+000
11291:0.0000000000000000e+000
11292:0.0000000000000000e+000
11293:0.0000000000000000e+000
11294:0.0000000000000000e+000
11295:0.0000000000000000e+000
11296:0.0000000000000000e+000
11297:0.0000000000000000e+000
11298:0.0000000000000000e+000
11299:0.0000000000000000e+000
11300:0.0000000000000000e+000
11301:0.0000000000000000e+000
11302:0.0000000000000000e+000
11303:0.0000000000000000e+000
11304:0.0000000000000000e+000
11305:0.0000000000000000e+000
11306:0.0000000000000000e+000
11307:0.0000000000000000e+000
11308:0.0000000000000000e+000
11309:0.0000000000000000e+000
11310:0.0000000000000000e+000
11311:0.0000000000000000e+000
11312:0.0000000000000000e+000
11313:0.0000000000000000e+000
11314:0.0000000000000000e+000
11315:0.0000000000000000e+000
11316:0.0000000000000000e+000
11317:0.0000000000000000e+000
11318:0.0000000000000000e+000
11319:0.0000000000000000e+000
11320:0.0000000000000000e+000
11321:0.0000000000000000e+000
11322:0.0000000000000000e+000
11323:0.0000000000000000e+000
11324:0.0000000000000000e+000
11325:0.0000000000000000e+000
11326:0.0000000000000000e+000
11327:0.0000000000000000e+000
11328:0.0000000000000000e+000
11329:0.0000000000000000e+000
11330:0.0000000000000000e+000
11331:0.0000000000000000e+000
11332:0.0000000000000000e+000
11333:0.0000000000000000e+000
11334:0.0000000000000000e+000
11335:0.0000000000000000e+000
11336:0.0000000000000000e+000
11337:0.0000000000000000e+000
11338:0.0000000000000000e+000
11339:0.0000000000000000e+000
11340:0.0000000000000000e+000
11341:0.0000000000000000e+000
11342:0.0000000000000000e+000
11343:0.0000000000000000e+000
11344:0.0000000000000000e+000
11345:0.0000000000000000e+000
11346:0.0000000000000000e+000
11347:0.0000000000000000e+000
11348:0.0000000000000000e+000
11349:0.0000000000000000e+000
11350:0.0000000000000000e+000
11351:0.0000000000000000e+000
11352:0.0000000000000000e+000
11353:0.0000000000000000e+000
11354:0.0000000000000000e+000
11355:0.0000000000000000e+000
11356:0.0000000000000000e+000
11357:0.0000000000000000e+000
11358:0.0000000000000000e+000
11359:0.0000000000000000e+000
11360:0.0000000000000000e+000
11361:0.0000000000000000e+000
11362:0.0000000000000000e+000
11363:0.0000000000000000e+000
11364:0.0000000000000000e+000
11365:0.0000000000000000e+000
11366:0.0000000000000000e+000
11367:0.0000000000000000e+000
11368:0.0000000000000000e+000
11369:0.0000000000000000e+000
11370:0.0000000000000000e+000
11371:0.0000000000000000e+000
11372:0.0000000000000000e+000
11373:0.0000000000000000e+000
11374:0.0000000000000000e+000
11375:0.0000000000000000e+000
11376:0.0000000000000000e+000
11377:0.0000000000000000e+000
11378:0.0000000000000000e+000
11379:0.0000000000000000e+000
11380:0.0000000000000000e+000
11381:0.0000000000000000e+000
11382:0.0000000000000000e+000
11383:0.0000000000000000e+000
11384:0.0000000000000000e+000
11385:0.0000000000000000e+000
11386:0.0000000000000000e+000
11387:0.0000000000000000e+000
11388:0.0000000000000000e+000
11389:0.0000000000000000e+000
11390:0.0000000000000000e+000
11391:0.0000000000000000e+000
11392:0.0000000000000000e+000
11393:0.0000000000000000e+000
11394:0.0000000000000000e+000
11395:0.0000000000000000e+000
11396:0.0000000000000000e+000
11397:0.0000000000000000e+000
11398:0.0000000000000000e+000
11399:0.0000000000000000e+000
11400:0.0000000000000000e+000
11401:0.0000000000000000e+000
11402:0.0000000000000000e+000
11403:0.0000000000000000e+000
11404:0.0000000000000000e+000
11405:0.0000000000000000e+000
11406:0.0000000000000000e+000
11407:0.0000000000000000e+000
11408:0.0000000000000000e+000
11409:0.0000000000000000e+000
11410:0.0000000000000000e+000
11411:0.0000000000000000e+000
11412:0.0000000000000000e+000
11413:0.0000000000000000e+000
11414:0.0000000000000000e+000
11415:0.0000000000000000e+000
11416:0.0000000000000000e+000
11417:0.0000000000000000e+000
11418:0.0000000000000000e+000
11419:0.0000000000000000e+000
11420:0.0000000000000000e+000
11421:0.0000000000000000e+000
11422:0.0000000000000000e+000
11423:0.0000000000000000e+000
11424:0.0000000000000000e+000
11425:0.0000000000000000e+000
11426:0.0000000000000000e+000
11427:0.0000000000000000e+000
11428:0.0000000000000000e+000
11429:0.0000000000000000e+000
11430:0.0000000000000000e+000
11431:0.0000000000000000e+000
11432:0.0000000000000000e+000
11433:0.0000000000000000e+000
11434:0.0000000000000000e+000
11435:0.0000000000000000e+000
11436:0.0000000000000000e+000
11437:0.0000000000000000e+000
11438:0.0000000000000000e+000
11439:0.0000000000000000e+000
11440:0.0000000000000000e+000
11441:0.0000000000000000e+000
11442:0.0000000000000000e+000
11443:0.0000000000000000e+000
11444:0.0000000000000000e+000
11445:0.0000000000000000e+000
11446:0.0000000000000000e+000
11447:0.0000000000000000e+000
11448:0.0000000000000000e+000
11449:0.0000000000000000e+000
11450:0.0000000000000000e+000
11451:0.0000000000000000e+000
11452:0.0000000000000000e+000
11453:0.0000000000000000e+000
11454:0.0000000000000000e+000
11455:0.0000000000000000e+000
11456:0.0000000000000000e+000
11457:0.0000000000000000e+000
11458:0.0000000000000000e+000
11459:0.0000000000000000e+000
11460:0.0000000000000000e+000
11461:0.0000000000000000e+000
11462:0.0000000000000000e+000
11463:0.0000000000000000e+000
11464:0.0000000000000000e+000
11465:0.0000000000000000e+000
11466:0.0000000000000000e+000
11467:0.0000000000000000e+000
11468:0.0000000000000000e+000
11469:0.0000000000000000e+000
11470:0.0000000000000000e+000
11471:0.0000000000000000e+000
11472:0.0000000000000000e+000
11473:0.0000000000000000e+000
11474:0.0000000000000000e+000
11475:0.0000000000000000e+000
11476:0.0000000000000000e+000
11477:0.0000000000000000e+000
11478:0.0000000000000000e+000
11479:0.0000000000000000e+000
11480:0.0000000000000000e+000
11481:0.0000000000000000e+000
11482:0.0000000000000000e+000
11483:0.0000000000000000e+000
11484:0.0000000000000000e+000
11485:0.0000000000000000e+000
11486:0.0000000000000000e+000
11487:0.0000000000000000e+000
11488:0.0000000000000000e+000
11489:0.0000000000000000e+000
11490:0.0000000000000000e+000
11491:0.0000000000000000e+000
11492:0.0000000000000000e+000
11493:0.0000000000000000e+000
11494:0.0000000000000000e+000
11495:0.0000000000000000e+000
11496:0.0000000000000000e+000
11497:0.0000000000000000e+000
11498:0.0000000000000000e+000
11499:0.0000000000000000e+000
11500:0.0000000000000000e+000
11501:0.0000000000000000e+000
11502:0.0000000000000000e+000
11503:0.0000000000000000e+000
11504:0.0000000000000000e+000
11505:0.0000000000000000e+000
11506:0.0000000000000000e+000
11507:0.0000000000000000e+000
11508:0.0000000000000000e+000
11509:0.0000000000000000e+000
11510:0.0000000000000000e+000
11511:0.0000000000000000e+000
11512:0.0000000000000000e+000
11513:0.0000000000000000e+000
11514:0.0000000000000000e+000
11515:0.0000000000000000e+000
11516:0.0000000000000000e+000
11517:0.0000000000000000e+000
11518:0.0000000000000000e+000
11519:0.0000000000000000e+000
11520:0.0000000000000000e+000
11521:0.0000000000000000e+000
11522:0.0000000000000000e+000
11523:0.0000000000000000e+000
11524:0.0000000000000000e+000
11525:0.0000000000000000e+000
11526:0.0000000000000000e+000
11527:0.0000000000000000e+000
11528:0.0000000000000000e+000
11529:0.0000000000000000e+000
11530:0.0000000000000000e+000
11531:0.0000000000000000e+000
11532:0.0000000000000000e+000
11533:0.0000000000000000e+000
11534:0.0000000000000000e+000
11535:0.0000000000000000e+000
11536:0.0000000000000000e+000
11537:0.0000000000000000e+000
11538:0.0000000000000000e+000
11539:0.0000000000000000e+000
11540:0.0000000000000000e+000
11541:0.0000000000000000e+000
11542:0.0000000000000000e+000
11543:0.0000000000000000e+000
11544:0.0000000000000000e+000
11545:0.0000000000000000e+000
11546:0.0000000000000000e+000
11547:0.0000000000000000e+000
11548:0.0000000000000000e+000
11549:0.0000000000000000e+000
11550:0.0000000000000000e+000
11551:0.0000000000000000e+000
11552:0.0000000000000000e+000
11553:0.0000000000000000e+000
11554:0.0000000000000000e+000
11555:0.0000000000000000e+000
11556:0.0000000000000000e+000
11557:0.0000000000000000e+000
11558:0.0000000000000000e+000
11559:0.0000000000000000e+000
11560:0.0000000000000000e+000
11561:0.0000000000000000e+000
11562:0.0000000000000000e+000
11563:0.0000000000000000e+000
11564:0.0000000000000000e+000
11565:0.0000000000000000e+000
11566:0.0000000000000000e+000
11567:0.0000000000000000e+000
11568:0.0000000000000000e+000
11569:0.0000000000000000e+000
11570:0.0000000000000000e+000
11571:0.0000000000000000e+000
11572:0.0000000000000000e+000
11573:0.0000000000000000e+000
11574:0.0000000000000000e+000
11575:0.0000000000000000e+000
11576:0.0000000000000000e+000
11577:0.0000000000000000e+000
11578:0.0000000000000000e+000
11579:0.0000000000000000e+000
11580:0.0000000000000000e+000
11581:0.0000000000000000e+000
11582:0.0000000000000000e+000
11583:0.0000000000000000e+000
11584:0.0000000000000000e+000
11585:0.0000000000000000e+000
11586:0.0000000000000000e+000
11587:0.0000000000000000e+000
11588:0.0000000000000000e+000
11589:0.0000000000000000e+000
11590:0.0000000000000000e+000
11591:0.0000000000000000e+000
11592:0.0000000000000000e+000
11593:0.0000000000000000e+000
11594:0.0000000000000000e+000
11595:0.0000000000000000e+000
11596:0.0000000000000000e+000
11597:0.0000000000000000e+000
11598:0.0000000000000000e+000
11599:0.0000000000000000e+000
11600:0.0000000000000000e+000
11601:0.0000000000000000e+000
11602:0.0000000000000000e+000
11603:0.0000000000000000e+000
11604:0.0000000000000000e+000
11605:0.0000000000000000e+000
11606:0.0000000000000000e+000
11607:0.0000000000000000e+000
11608:0.0000000000000000e+000
11609:0.0000000000000000e+000
11610:0.0000000000000000e+000
11611:0.0000000000000000e+000
11612:0.0000000000000000e+000
11613:0.0000000000000000e+000
11614:0.0000000000000000e+000
11615:0.0000000000000000e+000
11616:0.0000000000000000e+000
11617:0.0000000000000000e+000
11618:0.0000000000000000e+000
11619:0.0000000000000000e+000
11620:0.0000000000000000e+000
11621:0.0000000000000000e+000
11622:0.0000000000000000e+000
11623:0.0000000000000000e+000
11624:0.0000000000000000e+000
11625:0.0000000000000000e+000
11626:0.0000000000000000e+000
11627:0.0000000000000000e+000
11628:0.0000000000000000e+000
11629:0.0000000000000000e+000
11630:0.0000000000000000e+000
11631:0.0000000000000000e+000
11632:0.0000000000000000e+000
11633:0.0000000000000000e+000
11634:0.0000000000000000e+000
11635:0.0000000000000000e+000
11636:0.0000000000000000e+000
11637:0.0000000000000000e+000
11638:0.0000000000000000e+000
11639:0.0000000000000000e+000
11640:0.0000000000000000e+000
11641:0.0000000000000000e+000
11642:0.0000000000000000e+000
11643:0.0000000000000000e+000
11644:0.0000000000000000e+000
11645:0.0000000000000000e+000
11646:0.0000000000000000e+000
11647:0.0000000000000000e+000
11648:0.0000000000000000e+000
11649:0.0000000000000000e+000
11650:0.0000000000000000e+000
11651:0.0000000000000000e+000
11652:0.0000000000000000e+000
11653:0.0000000000000000e+000
11654:0.0000000000000000e+000
11655:0.0000000000000000e+000
11656:0.0000000000000000e+000
11657:0.0000000000000000e+000
11658:0.0000000000000000e+000
11659:0.0000000000000000e+000
11660:0.0000000000000000e+000
11661:0.0000000000000000e+000
11662:0.0000000000000000e+000
11663:0.0000000000000000e+000
11664:0.0000000000000000e+000
11665:0.0000000000000000e+000
11666:0.0000000000000000e+000
11667:0.0000000000000000e+000
11668:0.0000000000000000e+000
11669:0.0000000000000000e+000
11670:0.0000000000000000e+000
11671:0.0000000000000000e+000
11672:0.0000000000000000e+000
11673:0.0000000000000000e+000
11674:0.0000000000000000e+000
11675:0.0000000000000000e+000
11676:0.0000000000000000e+000
11677:0.0000000000000000e+000
11678:0.0000000000000000e+000
11679:0.0000000000000000e+000
11680:0.0000000000000000e+000
11681:0.0000000000000000e+000
11682:0.0000000000000000e+000
11683:0.0000000000000000e+000
11684:0.0000000000000000e+000
11685:0.0000000000000000e+000
11686:0.0000000000000000e+000
11687:0.0000000000000000e+000
11688:0.0000000000000000e+000
11689:0.0000000000000000e+000
11690:0.0000000000000000e+000
11691:0.0000000000000000e+000
11692:0.0000000000000000e+000
11693:0.0000000000000000e+000
11694:0.0000000000000000e+000
11695:0.0000000000000000e+000
11696:0.0000000000000000e+000
11697:0.0000000000000000e+000
11698:0.0000000000000000e+000
11699:0.0000000000000000e+000
11700:0.0000000000000000e+000
11701:0.0000000000000000e+000
11702:0.0000000000000000e+000
11703:0.0000000000000000e+000
11704:0.0000000000000000e+000
11705:0.0000000000000000e+000
11706:0.0000000000000000e+000
11707:0.0000000000000000e+000
11708:0.0000000000000000e+000
11709:0.0000000000000000e+000
11710:0.0000000000000000e+000
11711:0.0000000000000000e+000
11712:0.0000000000000000e+000
11713:0.0000000000000000e+000
11714:0.0000000000000000e+000
11715:0.0000000000000000e+000
11716:0.0000000000000000e+000
11717:0.0000000000000000e+000
11718:0.0000000000000000e+000
11719:0.0000000000000000e+000
11720:0.0000000000000000e+000
11721:0.0000000000000000e+000
11722:0.0000000000000000e+000
11723:0.0000000000000000e+000
11724:0.0000000000000000e+000
11725:0.0000000000000000e+000
11726:0.0000000000000000e+000
11727:0.0000000000000000e+000
11728:0.0000000000000000e+000
11729:0.0000000000000000e+000
11730:0.0000000000000000e+000
11731:0.0000000000000000e+000
11732:0.0000000000000000e+000
11733:0.0000000000000000e+000
11734:0.0000000000000000e+000
11735:0.0000000000000000e+000
11736:0.0000000000000000e+000
11737:0.0000000000000000e+000
11738:0.0000000000000000e+000
11739:0.0000000000000000e+000
11740:0.0000000000000000e+000
11741:0.0000000000000000e+000
11742:0.0000000000000000e+000
11743:0.0000000000000000e+000
11744:0.0000000000000000e+000
11745:0.0000000000000000e+000
11746:0.0000000000000000e+000
11747:0.0000000000000000e+000
11748:0.0000000000000000e+000
11749:0.0000000000000000e+000
11750:0.0000000000000000e+000
11751:0.0000000000000000e+000
11752:0.0000000000000000e+000
11753:0.0000000000000000e+000
11754:0.0000000000000000e+000
11755:0.0000000000000000e+000
11756:0.0000000000000000e+000
11757:0.0000000000000000e+000
11758:0.0000000000000000e+000
11759:0.0000000000000000e+000
11760:0.0000000000000000e+000
11761:0.0000000000000000e+000
11762:0.0000000000000000e+000
11763:0.0000000000000000e+000
11764:0.0000000000000000e+000
11765:0.0000000000000000e+000
11766:0.0000000000000000e+000
11767:0.0000000000000000e+000
11768:0.0000000000000000e+000
11769:0.0000000000000000e+000
11770:0.0000000000000000e+000
11771:0.0000000000000000e+000
11772:0.0000000000000000e+000
11773:0.0000000000000000e+000
11774:0.0000000000000000e+000
11775:0.0000000000000000e+000
11776:0.0000000000000000e+000
11777:0.0000000000000000e+000
11778:0.0000000000000000e+000
11779:0.0000000000000000e+000
11780:0.0000000000000000e+000
11781:0.0000000000000000e+000
11782:0.0000000000000000e+000
11783:0.0000000000000000e+000
11784:0.0000000000000000e+000
11785:0.0000000000000000e+000
11786:0.0000000000000000e+000
11787:0.0000000000000000e+000
11788:0.0000000000000000e+000
11789:0.0000000000000000e+000
11790:0.0000000000000000e+000
11791:0.0000000000000000e+000
11792:0.0000000000000000e+000
11793:0.0000000000000000e+000
11794:0.0000000000000000e+000
11795:0.0000000000000000e+000
11796:0.0000000000000000e+000
11797:0.0000000000000000e+000
11798:0.0000000000000000e+000
11799:0.0000000000000000e+000
11800:0.0000000000000000e+000
11801:0.0000000000000000e+000
11802:0.0000000000000000e+000
11803:0.0000000000000000e+000
11804:0.0000000000000000e+000
11805:0.0000000000000000e+000
11806:0.0000000000000000e+000
11807:0.0000000000000000e+000
11808:0.0000000000000000e+000
11809:0.0000000000000000e+000
11810:0.0000000000000000e+000
11811:0.0000000000000000e+000
11812:0.0000000000000000e+000
11813:0.0000000000000000e+000
11814:0.0000000000000000e+000
11815:0.0000000000000000e+000
11816:0.0000000000000000e+000
11817:0.0000000000000000e+000
11818:0.0000000000000000e+000
11819:0.0000000000000000e+000
11820:0.0000000000000000e+000
11821:0.0000000000000000e+000
11822:0.0000000000000000e+000
11823:0.0000000000000000e+000
11824:0.0000000000000000e+000
11825:0.0000000000000000e+000
11826:0.0000000000000000e+000
11827:0.0000000000000000e+000
11828:0.0000000000000000e+000
11829:0.0000000000000000e+000
11830:0.0000000000000000e+000
11831:0.0000000000000000e+000
11832:0.0000000000000000e+000
11833:0.0000000000000000e+000
11834:0.0000000000000000e+000
11835:0.0000000000000000e+000
11836:0.0000000000000000e+000
11837:0.0000000000000000e+000
11838:0.0000000000000000e+000
11839:0.0000000000000000e+000
11840:0.0000000000000000e+000
11841:0.0000000000000000e+000
11842:0.0000000000000000e+000
11843:0.0000000000000000e+000
11844:0.0000000000000000e+000
11845:0.0000000000000000e+000
11846:0.0000000000000000e+000
11847:0.0000000000000000e+000
11848:0.0000000000000000e+000
11849:0.0000000000000000e+000
11850:0.0000000000000000e+000
11851:0.0000000000000000e+000
11852:0.0000000000000000e+000
11853:0.0000000000000000e+000
11854:0.0000000000000000e+000
11855:0.0000000000000000e+000
11856:0.0000000000000000e+000
11857:0.0000000000000000e+000
11858:0.0000000000000000e+000
11859:0.0000000000000000e+000
11860:0.0000000000000000e+000
11861:0.0000000000000000e+000
11862:0.0000000000000000e+000
11863:0.0000000000000000e+000
11864:0.0000000000000000e+000
11865:0.0000000000000000e+000
11866:0.0000000000000000e+000
11867:0.0000000000000000e+000
11868:0.0000000000000000e+000
11869:0.0000000000000000e+000
11870:0.0000000000000000e+000
11871:0.0000000000000000e+000
11872:0.0000000000000000e+000
11873:0.0000000000000000e+000
11874:0.0000000000000000e+000
11875:0.0000000000000000e+000
11876:0.0000000000000000e+000
11877:0.0000000000000000e+000
11878:0.0000000000000000e+000
11879:0.0000000000000000e+000
11880:0.0000000000000000e+000
11881:0.0000000000000000e+000
11882:0.0000000000000000e+000
11883:0.0000000000000000e+000
11884:0.0000000000000000e+000
11885:0.0000000000000000e+000
11886:0.0000000000000000e+000
11887:0.0000000000000000e+000
11888:0.0000000000000000e+000
11889:0.0000000000000000e+000
11890:0.0000000000000000e+000
11891:0.0000000000000000e+000
11892:0.0000000000000000e+000
11893:0.0000000000000000e+000
11894:0.0000000000000000e+000
11895:0.0000000000000000e+000
11896:0.0000000000000000e+000
11897:0.0000000000000000e+000
11898:0.0000000000000000e+000
11899:0.0000000000000000e+000
11900:0.0000000000000000e+000
11901:0.0000000000000000e+000
11902:0.0000000000000000e+000
11903:0.0000000000000000e+000
11904:0.0000000000000000e+000
11905:0.0000000000000000e+000
11906:0.0000000000000000e+000
11907:0.0000000000000000e+000
11908:0.0000000000000000e+000
11909:0.0000000000000000e+000
11910:0.0000000000000000e+000
11911:0.0000000000000000e+000
11912:0.0000000000000000e+000
11913:0.0000000000000000e+000
11914:0.0000000000000000e+000
11915:0.0000000000000000e+000
11916:0.0000000000000000e+000
11917:0.0000000000000000e+000
11918:0.0000000000000000e+000
11919:0.0000000000000000e+000
11920:0.0000000000000000e+000
11921:0.0000000000000000e+000
11922:0.0000000000000000e+000
11923:0.0000000000000000e+000
11924:0.0000000000000000e+000
11925:0.0000000000000000e+000
11926:0.0000000000000000e+000
11927:0.0000000000000000e+000
11928:0.0000000000000000e+000
11929:0.0000000000000000e+000
11930:0.0000000000000000e+000
11931:0.0000000000000000e+000
11932:0.0000000000000000e+000
11933:0.0000000000000000e+000
11934:0.0000000000000000e+000
11935:0.0000000000000000e+000
11936:0.0000000000000000e+000
11937:0.0000000000000000e+000
11938:0.0000000000000000e+000
11939:0.0000000000000000e+000
11940:0.0000000000000000e+000
11941:0.0000000000000000e+000
11942:0.0000000000000000e+000
11943:0.0000000000000000e+000
11944:0.0000000000000000e+000
11945:0.0000000000000000e+000
11946:0.0000000000000000e+000
11947:0.0000000000000000e+000
11948:0.0000000000000000e+000
11949:0.0000000000000000e+000
11950:0.0000000000000000e+000
11951:0.0000000000000000e+000
11952:0.0000000000000000e+000
11953:0.0000000000000000e+000
11954:0.0000000000000000e+000
11955:0.0000000000000000e+000
11956:0.0000000000000000e+000
11957:0.0000000000000000e+000
11958:0.0000000000000000e+000
11959:0.0000000000000000e+000
11960:0.0000000000000000e+000
11961:0.0000000000000000e+000
11962:0.0000000000000000e+000
11963:0.0000000000000000e+000
11964:0.0000000000000000e+000
11965:0.0000000000000000e+000
11966:0.0000000000000000e+000
11967:0.0000000000000000e+000
11968:0.0000000000000000e+000
11969:0.0000000000000000e+000
11970:0.0000000000000000e+000
11971:0.0000000000000000e+000
11972:0.0000000000000000e+000
11973:0.0000000000000000e+000
11974:0.0000000000000000e+000
11975:0.0000000000000000e+000
11976:0.0000000000000000e+000
11977:0.0000000000000000e+000
11978:0.0000000000000000e+000
11979:0.0000000000000000e+000
11980:0.0000000000000000e+000
11981:0.0000000000000000e+000
11982:0.0000000000000000e+000
11983:0.0000000000000000e+000
11984:0.0000000000000000e+000
11985:0.0000000000000000e+000
11986:0.0000000000000000e+000
11987:0.0000000000000000e+000
11988:0.0000000000000000e+000
11989:0.0000000000000000e+000
11990:0.0000000000000000e+000
11991:0.0000000000000000e+000
11992:0.0000000000000000e+000
11993:0.0000000000000000e+000
11994:0.0000000000000000e+000
11995:0.0000000000000000e+000
11996:0.0000000000000000e+000
11997:0.0000000000000000e+000
11998:0.0000000000000000e+000
11999:0.0000000000000000e+000
12000:0.0000000000000000e+000
12001:0.0000000000000000e+000
12002:0.0000000000000000e+000
12003:0.0000000000000000e+000
12004:0.0000000000000000e+000
12005:0.0000000000000000e+000
12006:0.0000000000000000e+000
12007:0.0000000000000000e+000
12008:0.0000000000000000e+000
12009:0.0000000000000000e+000
12010:0.0000000000000000e+000
12011:0.0000000000000000e+000
12012:0.0000000000000000e+000
12013:0.0000000000000000e+000
12014:0.0000000000000000e+000
12015:0.0000000000000000e+000
12016:0.0000000000000000e+000
12017:0.0000000000000000e+000
12018:0.0000000000000000e+000
12019:0.0000000000000000e+000
12020:0.0000000000000000e+000
12021:0.0000000000000000e+000
12022:0.0000000000000000e+000
12023:0.0000000000000000e+000
12024:0.0000000000000000e+000
12025:0.0000000000000000e+000
12026:0.0000000000000000e+000
12027:0.0000000000000000e+000
12028:0.0000000000000000e+000
12029:0.0000000000000000e+000
12030:0.0000000000000000e+000
12031:0.0000000000000000e+000
12032:0.0000000000000000e+000
12033:0.0000000000000000e+000
12034:0.0000000000000000e+000
12035:0.0000000000000000e+000
12036:0.0000000000000000e+000
12037:0.0000000000000000e+000
12038:0.0000000000000000e+000
12039:0.0000000000000000e+000
12040:0.0000000000000000e+000
12041:0.0000000000000000e+000
12042:0.0000000000000000e+000
12043:0.0000000000000000e+000
12044:0.0000000000000000e+000
12045:0.0000000000000000e+000
12046:0.0000000000000000e+000
12047:0.0000000000000000e+000
12048:0.0000000000000000e+000
12049:0.0000000000000000e+000
12050:0.0000000000000000e+000
12051:0.0000000000000000e+000
12052:0.0000000000000000e+000
12053:0.0000000000000000e+000
12054:0.0000000000000000e+000
12055:0.0000000000000000e+000
12056:0.0000000000000000e+000
12057:0.0000000000000000e+000
12058:0.0000000000000000e+000
12059:0.0000000000000000e+000
12060:0.0000000000000000e+000
12061:0.0000000000000000e+000
12062:0.0000000000000000e+000
12063:0.0000000000000000e+000
12064:0.0000000000000000e+000
12065:0.0000000000000000e+000
12066:0.0000000000000000e+000
12067:0.0000000000000000e+000
12068:0.0000000000000000e+000
12069:0.0000000000000000e+000
12070:0.0000000000000000e+000
12071:0.0000000000000000e+000
12072:0.0000000000000000e+000
12073:0.0000000000000000e+000
12074:0.0000000000000000e+000
12075:0.0000000000000000e+000
12076:0.0000000000000000e+000
12077:0.0000000000000000e+000
12078:0.0000000000000000e+000
12079:0.0000000000000000e+000
12080:0.0000000000000000e+000
12081:0.0000000000000000e+000
12082:0.0000000000000000e+000
12083:0.0000000000000000e+000
12084:0.0000000000000000e+000
12085:0.0000000000000000e+000
12086:0.0000000000000000e+000
12087:0.0000000000000000e+000
12088:0.0000000000000000e+000
12089:0.0000000000000000e+000
12090:0.0000000000000000e+000
12091:0.0000000000000000e+000
12092:0.0000000000000000e+000
12093:0.0000000000000000e+000
12094:0.0000000000000000e+000
12095:0.0000000000000000e+000
12096:0.0000000000000000e+000
12097:0.0000000000000000e+000
12098:0.0000000000000000e+000
12099:0.0000000000000000e+000
12100:0.0000000000000000e+000
12101:0.0000000000000000e+000
12102:0.0000000000000000e+000
12103:0.0000000000000000e+000
12104:0.0000000000000000e+000
12105:0.0000000000000000e+000
12106:0.0000000000000000e+000
12107:0.0000000000000000e+000
12108:0.0000000000000000e+000
12109:0.0000000000000000e+000
12110:0.0000000000000000e+000
12111:0.0000000000000000e+000
12112:0.0000000000000000e+000
12113:0.0000000000000000e+000
12114:0.0000000000000000e+000
12115:0.0000000000000000e+000
12116:0.0000000000000000e+000
12117:0.0000000000000000e+000
12118:0.0000000000000000e+000
12119:0.0000000000000000e+000
12120:0.0000000000000000e+000
12121:0.0000000000000000e+000
12122:0.0000000000000000e+000
12123:0.0000000000000000e+000
12124:0.0000000000000000e+000
12125:0.0000000000000000e+000
12126:0.0000000000000000e+000
12127:0.0000000000000000e+000
12128:0.0000000000000000e+000
12129:0.0000000000000000e+000
12130:0.0000000000000000e+000
12131:0.0000000000000000e+000
12132:0.0000000000000000e+000
12133:0.0000000000000000e+000
12134:0.0000000000000000e+000
12135:0.0000000000000000e+000
12136:0.0000000000000000e+000
12137:0.0000000000000000e+000
12138:0.0000000000000000e+000
12139:0.0000000000000000e+000
12140:0.0000000000000000e+000
12141:0.0000000000000000e+000
12142:0.0000000000000000e+000
12143:0.0000000000000000e+000
12144:0.0000000000000000e+000
12145:0.0000000000000000e+000
12146:0.0000000000000000e+000
12147:0.0000000000000000e+000
12148:0.0000000000000000e+000
12149:0.0000000000000000e+000
12150:0.0000000000000000e+000
12151:0.0000000000000000e+000
12152:0.0000000000000000e+000
12153:0.0000000000000000e+000
12154:0.0000000000000000e+000
12155:0.0000000000000000e+000
12156:0.0000000000000000e+000
12157:0.0000000000000000e+000
12158:0.0000000000000000e+000
12159:0.0000000000000000e+000
12160:0.0000000000000000e+000
12161:0.0000000000000000e+000
12162:0.0000000000000000e+000
12163:0.0000000000000000e+000
12164:0.0000000000000000e+000
12165:0.0000000000000000e+000
12166:0.0000000000000000e+000
12167:0.0000000000000000e+000
12168:0.0000000000000000e+000
12169:0.0000000000000000e+000
12170:0.0000000000000000e+000
12171:0.0000000000000000e+000
12172:0.0000000000000000e+000
12173:0.0000000000000000e+000
12174:0.0000000000000000e+000
12175:0.0000000000000000e+000
12176:0.0000000000000000e+000
12177:0.0000000000000000e+000
12178:0.0000000000000000e+000
12179:0.0000000000000000e+000
12180:0.0000000000000000e+000
12181:0.0000000000000000e+000
12182:0.0000000000000000e+000
12183:0.0000000000000000e+000
12184:0.0000000000000000e+000
12185:0.0000000000000000e+000
12186:0.0000000000000000e+000
12187:0.0000000000000000e+000
12188:0.0000000000000000e+000
12189:0.0000000000000000e+000
12190:0.0000000000000000e+000
12191:0.0000000000000000e+000
12192:0.0000000000000000e+000
12193:0.0000000000000000e+000
12194:0.0000000000000000e+000
12195:0.0000000000000000e+000
12196:0.0000000000000000e+000
12197:0.0000000000000000e+000
12198:0.0000000000000000e+000
12199:0.0000000000000000e+000
12200:0.0000000000000000e+000
12201:0.0000000000000000e+000
12202:0.0000000000000000e+000
12203:0.0000000000000000e+000
12204:0.0000000000000000e+000
12205:0.0000000000000000e+000
12206:0.0000000000000000e+000
12207:0.0000000000000000e+000
12208:0.0000000000000000e+000
12209:0.0000000000000000e+000
12210:0.0000000000000000e+000
12211:0.0000000000000000e+000
12212:0.0000000000000000e+000
12213:0.0000000000000000e+000
12214:0.0000000000000000e+000
12215:0.0000000000000000e+000
12216:0.0000000000000000e+000
12217:0.0000000000000000e+000
12218:0.0000000000000000e+000
12219:0.0000000000000000e+000
12220:0.0000000000000000e+000
12221:0.0000000000000000e+000
12222:0.0000000000000000e+000
12223:0.0000000000000000e+000
12224:0.0000000000000000e+000
12225:0.0000000000000000e+000
12226:0.0000000000000000e+000
12227:0.0000000000000000e+000
12228:0.0000000000000000e+000
12229:0.0000000000000000e+000
12230:0.0000000000000000e+000
12231:0.0000000000000000e+000
12232:0.0000000000000000e+000
12233:0.0000000000000000e+000
12234:0.0000000000000000e+000
12235:0.0000000000000000e+000
12236:0.0000000000000000e+000
12237:0.0000000000000000e+000
12238:0.0000000000000000e+000
12239:0.0000000000000000e+000
12240:0.0000000000000000e+000
12241:0.0000000000000000e+000
12242:0.0000000000000000e+000
12243:0.0000000000000000e+000
12244:0.0000000000000000e+000
12245:0.0000000000000000e+000
12246:0.0000000000000000e+000
12247:0.0000000000000000e+000
12248:0.0000000000000000e+000
12249:0.0000000000000000e+000
12250:0.0000000000000000e+000
12251:0.0000000000000000e+000
12252:0.0000000000000000e+000
12253:0.0000000000000000e+000
12254:0.0000000000000000e+000
12255:0.0000000000000000e+000
12256:0.0000000000000000e+000
12257:0.0000000000000000e+000
12258:0.0000000000000000e+000
12259:0.0000000000000000e+000
12260:0.0000000000000000e+000
12261:0.0000000000000000e+000
12262:0.0000000000000000e+000
12263:0.0000000000000000e+000
12264:0.0000000000000000e+000
12265:0.0000000000000000e+000
12266:0.0000000000000000e+000
12267:0.0000000000000000e+000
12268:0.0000000000000000e+000
12269:0.0000000000000000e+000
12270:0.0000000000000000e+000
12271:0.0000000000000000e+000
12272:0.0000000000000000e+000
12273:0.0000000000000000e+000
12274:0.0000000000000000e+000
12275:0.0000000000000000e+000
12276:0.0000000000000000e+000
12277:0.0000000000000000e+000
12278:0.0000000000000000e+000
12279:0.0000000000000000e+000
12280:0.0000000000000000e+000
12281:0.0000000000000000e+000
12282:0.0000000000000000e+000
12283:0.0000000000000000e+000
12284:0.0000000000000000e+000
12285:0.0000000000000000e+000
12286:0.0000000000000000e+000
12287:0.0000000000000000e+000
12288:0.0000000000000000e+000
12289:0.0000000000000000e+000
12290:0.0000000000000000e+000
12291:0.0000000000000000e+000
12292:0.0000000000000000e+000
12293:0.0000000000000000e+000
12294:0.0000000000000000e+000
12295:0.0000000000000000e+000
12296:0.0000000000000000e+000
12297:0.0000000000000000e+000
12298:0.0000000000000000e+000
12299:0.0000000000000000e+000
12300:0.0000000000000000e+000
12301:0.0000000000000000e+000
12302:0.0000000000000000e+000
12303:0.0000000000000000e+000
12304:0.0000000000000000e+000
12305:0.0000000000000000e+000
12306:0.0000000000000000e+000
12307:0.0000000000000000e+000
12308:0.0000000000000000e+000
12309:0.0000000000000000e+000
12310:0.0000000000000000e+000
12311:0.0000000000000000e+000
12312:0.0000000000000000e+000
12313:0.0000000000000000e+000
12314:0.0000000000000000e+000
12315:0.0000000000000000e+000
12316:0.0000000000000000e+000
12317:0.0000000000000000e+000
12318:0.0000000000000000e+000
12319:0.0000000000000000e+000
12320:0.0000000000000000e+000
12321:0.0000000000000000e+000
12322:0.0000000000000000e+000
12323:0.0000000000000000e+000
12324:0.0000000000000000e+000
12325:0.0000000000000000e+000
12326:0.0000000000000000e+000
12327:0.0000000000000000e+000
12328:0.0000000000000000e+000
12329:0.0000000000000000e+000
12330:0.0000000000000000e+000
12331:0.0000000000000000e+000
12332:0.0000000000000000e+000
12333:0.0000000000000000e+000
12334:0.0000000000000000e+000
12335:0.0000000000000000e+000
12336:0.0000000000000000e+000
12337:0.0000000000000000e+000
12338:0.0000000000000000e+000
12339:0.0000000000000000e+000
12340:0.0000000000000000e+000
12341:0.0000000000000000e+000
12342:0.0000000000000000e+000
12343:0.0000000000000000e+000
12344:0.0000000000000000e+000
12345:0.0000000000000000e+000
12346:0.0000000000000000e+000
12347:0.0000000000000000e+000
12348:0.0000000000000000e+000
12349:0.0000000000000000e+000
12350:0.0000000000000000e+000
12351:0.0000000000000000e+000
12352:0.0000000000000000e+000
12353:0.0000000000000000e+000
12354:0.0000000000000000e+000
12355:0.0000000000000000e+000
12356:0.0000000000000000e+000
12357:0.0000000000000000e+000
12358:0.0000000000000000e+000
12359:0.0000000000000000e+000
12360:0.0000000000000000e+000
12361:0.0000000000000000e+000
12362:0.0000000000000000e+000
12363:0.0000000000000000e+000
12364:0.0000000000000000e+000
12365:0.0000000000000000e+000
12366:0.0000000000000000e+000
12367:0.0000000000000000e+000
12368:0.0000000000000000e+000
12369:0.0000000000000000e+000
12370:0.0000000000000000e+000
12371:0.0000000000000000e+000
12372:0.0000000000000000e+000
12373:0.0000000000000000e+000
12374:0.0000000000000000e+000
12375:0.0000000000000000e+000
12376:0.0000000000000000e+000
12377:0.0000000000000000e+000
12378:0.0000000000000000e+000
12379:0.0000000000000000e+000
12380:0.0000000000000000e+000
12381:0.0000000000000000e+000
12382:0.0000000000000000e+000
12383:0.0000000000000000e+000
12384:0.0000000000000000e+000
12385:0.0000000000000000e+000
12386:0.0000000000000000e+000
12387:0.0000000000000000e+000
12388:0.0000000000000000e+000
12389:0.0000000000000000e+000
12390:0.0000000000000000e+000
12391:0.0000000000000000e+000
12392:0.0000000000000000e+000
12393:0.0000000000000000e+000
12394:0.0000000000000000e+000
12395:0.0000000000000000e+000
12396:0.0000000000000000e+000
12397:0.0000000000000000e+000
12398:0.0000000000000000e+000
12399:0.0000000000000000e+000
12400:0.0000000000000000e+000
12401:0.0000000000000000e+000
12402:0.0000000000000000e+000
12403:0.0000000000000000e+000
12404:0.0000000000000000e+000
12405:0.0000000000000000e+000
12406:0.0000000000000000e+000
12407:0.0000000000000000e+000
12408:0.0000000000000000e+000
12409:0.0000000000000000e+000
12410:0.0000000000000000e+000
12411:0.0000000000000000e+000
12412:0.0000000000000000e+000
12413:0.0000000000000000e+000
12414:0.0000000000000000e+000
12415:0.0000000000000000e+000
12416:0.0000000000000000e+000
12417:0.0000000000000000e+000
12418:0.0000000000000000e+000
12419:0.0000000000000000e+000
12420:0.0000000000000000e+000
12421:0.0000000000000000e+000
12422:0.0000000000000000e+000
12423:0.0000000000000000e+000
12424:0.0000000000000000e+000
12425:0.0000000000000000e+000
12426:0.0000000000000000e+000
12427:0.0000000000000000e+000
12428:0.0000000000000000e+000
12429:0.0000000000000000e+000
12430:0.0000000000000000e+000
12431:0.0000000000000000e+000
12432:0.0000000000000000e+000
12433:0.0000000000000000e+000
12434:0.0000000000000000e+000
12435:0.0000000000000000e+000
12436:0.0000000000000000e+000
12437:0.0000000000000000e+000
12438:0.0000000000000000e+000
12439:0.0000000000000000e+000
12440:0.0000000000000000e+000
12441:0.0000000000000000e+000
12442:0.0000000000000000e+000
12443:0.0000000000000000e+000
12444:0.0000000000000000e+000
12445:0.0000000000000000e+000
12446:0.0000000000000000e+000
12447:0.0000000000000000e+000
12448:0.0000000000000000e+000
12449:0.0000000000000000e+000
12450:0.0000000000000000e+000
12451:0.0000000000000000e+000
12452:0.0000000000000000e+000
12453:0.0000000000000000e+000
12454:0.0000000000000000e+000
12455:0.0000000000000000e+000
12456:0.0000000000000000e+000
12457:0.0000000000000000e+000
12458:0.0000000000000000e+000
12459:0.0000000000000000e+000
12460:0.0000000000000000e+000
12461:0.0000000000000000e+000
12462:0.0000000000000000e+000
12463:0.0000000000000000e+000
12464:0.0000000000000000e+000
12465:0.0000000000000000e+000
12466:0.0000000000000000e+000
12467:0.0000000000000000e+000
12468:0.0000000000000000e+000
12469:0.0000000000000000e+000
12470:0.0000000000000000e+000
12471:0.0000000000000000e+000
12472:0.0000000000000000e+000
12473:0.0000000000000000e+000
12474:0.0000000000000000e+000
12475:0.0000000000000000e+000
12476:0.0000000000000000e+000
12477:0.0000000000000000e+000
12478:0.0000000000000000e+000
12479:0.0000000000000000e+000
12480:0.0000000000000000e+000
12481:0.0000000000000000e+000
12482:0.0000000000000000e+000
12483:0.0000000000000000e+000
12484:0.0000000000000000e+000
12485:0.0000000000000000e+000
12486:0.0000000000000000e+000
12487:0.0000000000000000e+000
12488:0.0000000000000000e+000
12489:0.0000000000000000e+000
12490:0.0000000000000000e+000
12491:0.0000000000000000e+000
12492:0.0000000000000000e+000
12493:0.0000000000000000e+000
12494:0.0000000000000000e+000
12495:0.0000000000000000e+000
12496:0.0000000000000000e+000
12497:0.0000000000000000e+000
12498:0.0000000000000000e+000
12499:0.0000000000000000e+000
12500:0.0000000000000000e+000
12501:0.0000000000000000e+000
12502:0.0000000000000000e+000
12503:0.0000000000000000e+000
12504:0.0000000000000000e+000
12505:0.0000000000000000e+000
12506:0.0000000000000000e+000
12507:0.0000000000000000e+000
12508:0.0000000000000000e+000
12509:0.0000000000000000e+000
12510:0.0000000000000000e+000
12511:0.0000000000000000e+000
12512:0.0000000000000000e+000
12513:0.0000000000000000e+000
12514:0.0000000000000000e+000
12515:0.0000000000000000e+000
12516:0.0000000000000000e+000
12517:0.0000000000000000e+000
12518:0.0000000000000000e+000
12519:0.0000000000000000e+000
12520:0.0000000000000000e+000
12521:0.0000000000000000e+000
12522:0.0000000000000000e+000
12523:0.0000000000000000e+000
12524:0.0000000000000000e+000
12525:0.0000000000000000e+000
12526:0.0000000000000000e+000
12527:0.0000000000000000e+000
12528:0.0000000000000000e+000
12529:0.0000000000000000e+000
12530:0.0000000000000000e+000
12531:0.0000000000000000e+000
12532:0.0000000000000000e+000
12533:0.0000000000000000e+000
12534:0.0000000000000000e+000
12535:0.0000000000000000e+000
12536:0.0000000000000000e+000
12537:0.0000000000000000e+000
12538:0.0000000000000000e+000
12539:0.0000000000000000e+000
12540:0.0000000000000000e+000
12541:0.0000000000000000e+000
12542:0.0000000000000000e+000
12543:0.0000000000000000e+000
12544:0.0000000000000000e+000
12545:0.0000000000000000e+000
12546:0.0000000000000000e+000
12547:0.0000000000000000e+000
12548:0.0000000000000000e+000
12549:0.0000000000000000e+000
12550:0.0000000000000000e+000
12551:0.0000000000000000e+000
12552:0.0000000000000000e+000
12553:0.0000000000000000e+000
12554:0.0000000000000000e+000
12555:0.0000000000000000e+000
12556:0.0000000000000000e+000
12557:0.0000000000000000e+000
12558:0.0000000000000000e+000
12559:0.0000000000000000e+000
12560:0.0000000000000000e+000
12561:0.0000000000000000e+000
12562:0.0000000000000000e+000
12563:0.0000000000000000e+000
12564:0.0000000000000000e+000
12565:0.0000000000000000e+000
12566:0.0000000000000000e+000
12567:0.0000000000000000e+000
12568:0.0000000000000000e+000
12569:0.0000000000000000e+000
12570:0.0000000000000000e+000
12571:0.0000000000000000e+000
12572:0.0000000000000000e+000
12573:0.0000000000000000e+000
12574:0.0000000000000000e+000
12575:0.0000000000000000e+000
12576:0.0000000000000000e+000
12577:0.0000000000000000e+000
12578:0.0000000000000000e+000
12579:0.0000000000000000e+000
12580:0.0000000000000000e+000
12581:0.0000000000000000e+000
12582:0.0000000000000000e+000
12583:0.0000000000000000e+000
12584:0.0000000000000000e+000
12585:0.0000000000000000e+000
12586:0.0000000000000000e+000
12587:0.0000000000000000e+000
12588:0.0000000000000000e+000
12589:0.0000000000000000e+000
12590:0.0000000000000000e+000
12591:0.0000000000000000e+000
12592:0.0000000000000000e+000
12593:0.0000000000000000e+000
12594:0.0000000000000000e+000
12595:0.0000000000000000e+000
12596:0.0000000000000000e+000
12597:0.0000000000000000e+000
12598:0.0000000000000000e+000
12599:0.0000000000000000e+000
12600:0.0000000000000000e+000
12601:0.0000000000000000e+000
12602:0.0000000000000000e+000
12603:0.0000000000000000e+000
12604:0.0000000000000000e+000
12605:0.0000000000000000e+000
12606:0.0000000000000000e+000
12607:0.0000000000000000e+000
12608:0.0000000000000000e+000
12609:0.0000000000000000e+000
12610:0.0000000000000000e+000
12611:0.0000000000000000e+000
12612:0.0000000000000000e+000
12613:0.0000000000000000e+000
12614:0.0000000000000000e+000
12615:0.0000000000000000e+000
12616:0.0000000000000000e+000
12617:0.0000000000000000e+000
12618:0.0000000000000000e+000
12619:0.0000000000000000e+000
12620:0.0000000000000000e+000
12621:0.0000000000000000e+000
12622:0.0000000000000000e+000
12623:0.0000000000000000e+000
12624:0.0000000000000000e+000
12625:0.0000000000000000e+000
12626:0.0000000000000000e+000
12627:0.0000000000000000e+000
12628:0.0000000000000000e+000
12629:0.0000000000000000e+000
12630:0.0000000000000000e+000
12631:0.0000000000000000e+000
12632:0.0000000000000000e+000
12633:0.0000000000000000e+000
12634:0.0000000000000000e+000
12635:0.0000000000000000e+000
12636:0.0000000000000000e+000
12637:0.0000000000000000e+000
12638:0.0000000000000000e+000
12639:0.0000000000000000e+000
12640:0.0000000000000000e+000
12641:0.0000000000000000e+000
12642:0.0000000000000000e+000
12643:0.0000000000000000e+000
12644:0.0000000000000000e+000
12645:0.0000000000000000e+000
12646:0.0000000000000000e+000
12647:0.0000000000000000e+000
12648:0.0000000000000000e+000
12649:0.0000000000000000e+000
12650:0.0000000000000000e+000
12651:0.0000000000000000e+000
12652:0.0000000000000000e+000
12653:0.0000000000000000e+000
12654:0.0000000000000000e+000
12655:0.0000000000000000e+000
12656:0.0000000000000000e+000
12657:0.0000000000000000e+000
12658:0.0000000000000000e+000
12659:0.0000000000000000e+000
12660:0.0000000000000000e+000
12661:0.0000000000000000e+000
12662:0.0000000000000000e+000
12663:0.0000000000000000e+000
12664:0.0000000000000000e+000
12665:0.0000000000000000e+000
12666:0.0000000000000000e+000
12667:0.0000000000000000e+000
12668:0.0000000000000000e+000
12669:0.0000000000000000e+000
12670:0.0000000000000000e+000
12671:0.0000000000000000e+000
12672:0.0000000000000000e+000
12673:0.0000000000000000e+000
12674:0.0000000000000000e+000
12675:0.0000000000000000e+000
12676:0.0000000000000000e+000
12677:0.0000000000000000e+000
12678:0.0000000000000000e+000
12679:0.0000000000000000e+000
12680:0.0000000000000000e+000
12681:0.0000000000000000e+000
12682:0.0000000000000000e+000
12683:0.0000000000000000e+000
12684:0.0000000000000000e+000
12685:0.0000000000000000e+000
12686:0.0000000000000000e+000
12687:0.0000000000000000e+000
12688:0.0000000000000000e+000
12689:0.0000000000000000e+000
12690:0.0000000000000000e+000
12691:0.0000000000000000e+000
12692:0.0000000000000000e+000
12693:0.0000000000000000e+000
12694:0.0000000000000000e+000
12695:0.0000000000000000e+000
12696:0.0000000000000000e+000
12697:0.0000000000000000e+000
12698:0.0000000000000000e+000
12699:0.0000000000000000e+000
12700:0.0000000000000000e+000
12701:0.0000000000000000e+000
12702:0.0000000000000000e+000
12703:0.0000000000000000e+000
12704:0.0000000000000000e+000
12705:0.0000000000000000e+000
12706:0.0000000000000000e+000
12707:0.0000000000000000e+000
12708:0.0000000000000000e+000
12709:0.0000000000000000e+000
12710:0.0000000000000000e+000
12711:0.0000000000000000e+000
12712:0.0000000000000000e+000
12713:0.0000000000000000e+000
12714:0.0000000000000000e+000
12715:0.0000000000000000e+000
12716:0.0000000000000000e+000
12717:0.0000000000000000e+000
12718:0.0000000000000000e+000
12719:0.0000000000000000e+000
12720:0.0000000000000000e+000
12721:0.0000000000000000e+000
12722:0.0000000000000000e+000
12723:0.0000000000000000e+000
12724:0.0000000000000000e+000
12725:0.0000000000000000e+000
12726:0.0000000000000000e+000
12727:0.0000000000000000e+000
12728:0.0000000000000000e+000
12729:0.0000000000000000e+000
12730:0.0000000000000000e+000
12731:0.0000000000000000e+000
12732:0.0000000000000000e+000
12733:0.0000000000000000e+000
12734:0.0000000000000000e+000
12735:0.0000000000000000e+000
12736:0.0000000000000000e+000
12737:0.0000000000000000e+000
12738:0.0000000000000000e+000
12739:0.0000000000000000e+000
12740:0.0000000000000000e+000
12741:0.0000000000000000e+000
12742:0.0000000000000000e+000
12743:0.0000000000000000e+000
12744:0.0000000000000000e+000
12745:0.0000000000000000e+000
12746:0.0000000000000000e+000
12747:0.0000000000000000e+000
12748:0.0000000000000000e+000
12749:0.0000000000000000e+000
12750:0.0000000000000000e+000
12751:0.0000000000000000e+000
12752:0.0000000000000000e+000
12753:0.0000000000000000e+000
12754:0.0000000000000000e+000
12755:0.0000000000000000e+000
12756:0.0000000000000000e+000
12757:0.0000000000000000e+000
12758:0.0000000000000000e+000
12759:0.0000000000000000e+000
12760:0.0000000000000000e+000
12761:0.0000000000000000e+000
12762:0.0000000000000000e+000
12763:0.0000000000000000e+000
12764:0.0000000000000000e+000
12765:0.0000000000000000e+000
12766:0.0000000000000000e+000
12767:0.0000000000000000e+000
12768:0.0000000000000000e+000
12769:0.0000000000000000e+000
12770:0.0000000000000000e+000
12771:0.0000000000000000e+000
12772:0.0000000000000000e+000
12773:0.0000000000000000e+000
12774:0.0000000000000000e+000
12775:0.0000000000000000e+000
12776:0.0000000000000000e+000
12777:0.0000000000000000e+000
12778:0.0000000000000000e+000
12779:0.0000000000000000e+000
12780:0.0000000000000000e+000
12781:0.0000000000000000e+000
12782:0.0000000000000000e+000
12783:0.0000000000000000e+000
12784:0.0000000000000000e+000
12785:0.0000000000000000e+000
12786:0.0000000000000000e+000
12787:0.0000000000000000e+000
12788:0.0000000000000000e+000
12789:0.0000000000000000e+000
12790:0.0000000000000000e+000
12791:0.0000000000000000e+000
12792:0.0000000000000000e+000
12793:0.0000000000000000e+000
12794:0.0000000000000000e+000
12795:0.0000000000000000e+000
12796:0.0000000000000000e+000
12797:0.0000000000000000e+000
12798:0.0000000000000000e+000
12799:0.0000000000000000e+000
