label=Stress xy
num_items=4608

0:1.5904134213147650e-001
1:5.3618491824172598e-001
2:8.2182645567083612e-001
3:8.8254138609308852e-001
4:8.8619382343383277e-002
5:1.7698545166603694e-001
6:1.5215167717670469e-001
7:2.5718037194225302e-002
8:-2.2210390191816917e-001
9:-2.7289130838354164e-001
10:-3.9278023219534453e-001
11:-5.2576996683660404e-001
12:-6.2798813490640759e-001
13:-6.0330571257717713e-001
14:-5.5842889491734438e-001
15:-5.1431986438113686e-001
16:8.9065662064976148e-001
17:8.0991547677229170e-001
18:3.7828125904521287e-001
19:-2.0262756452719108e-001
20:4.2130177060660794e-002
21:2.5443886519115050e-001
22:4.4896578650599811e-001
23:5.3484645841710876e-001
24:-4.7704466745299817e-001
25:-3.9363815541787840e-002
26:7.6731864861770216e-001
27:1.5661973747772857e+000
28:-4.2435878715876463e-001
29:6.5744113113126862e-002
30:1.1846356562598845e+000
31:2.4096760942557052e+000
32:-6.1539220835482367e-001
33:-1.1891786556270201e+000
34:-1.3276279622754079e+000
35:-9.6606977558863094e-001
36:4.0142588819608815e-001
37:-1.7894267900733223e-002
38:-2.5026518735363223e-001
39:-1.8714526974097292e-001
40:1.7328305046024370e+000
41:1.4302824376930596e+000
42:9.6477762657654764e-001
43:5.5375566017186306e-001
44:2.7569159901324150e+000
45:2.4789009927025680e+000
46:1.7499479995606628e+000
47:9.1055454238602529e-001
48:-6.2469953033088321e-001
49:-1.0510799630976174e-001
50:2.3322204360634202e-001
51:2.3225496219836239e-001
52:-3.4473318235393985e-002
53:2.3999058557302139e-001
54:3.5390435303577011e-001
55:2.5405830258178091e-001
56:4.6559656053146609e-001
57:5.2514496636169028e-001
58:4.8313329701979402e-001
59:3.5918541007577909e-001
60:6.4192500378993522e-001
61:6.1715813099551087e-001
62:5.6054539963875605e-001
63:4.9853089523678507e-001
64:1.6064332737155332e-001
65:6.2753129296079707e-002
66:-1.1516329629729541e-003
67:-1.2207303558875906e-003
68:1.8035524234309064e-001
69:1.2924584970472833e-001
70:1.1672063181393073e-001
71:1.4863017960823480e-001
72:2.9948803617527348e-001
73:2.6731115672405514e-001
74:2.6688875080662799e-001
75:2.9841812630649728e-001
76:4.6239419438698021e-001
77:4.1245806575984234e-001
78:3.7920845636686834e-001
79:3.7817642244093141e-001
80:8.1050776513183695e-003
81:1.4196951861570724e-002
82:1.7157991782204920e-002
83:1.5605081089304662e-002
84:1.5577602628830484e-001
85:1.2756208876638772e-001
86:9.0007322669204651e-002
87:6.0653744120140296e-002
88:2.9666888607040093e-001
89:2.4308999948514617e-001
90:1.7797789914909326e-001
91:1.3174676767136204e-001
92:3.6497190858805290e-001
93:3.0681702818558326e-001
94:2.3997823187534492e-001
95:1.9567625045639850e-001
96:1.6011947302247326e-002
97:1.9578848665607353e-002
98:2.0401870322142999e-002
99:1.8096574804413908e-002
100:5.4047026081418648e-002
101:5.8214469993080865e-002
102:6.1979682278971410e-002
103:6.3583913744481177e-002
104:1.1939869250323137e-001
105:1.1775064005880126e-001
106:1.1674468946507453e-001
107:1.1685072519659770e-001
108:1.8154086146054776e-001
109:1.7037772073282728e-001
110:1.5911588741966270e-001
111:1.5301581930283004e-001
112:1.5038924099491103e-002
113:9.0583188310270069e-003
114:4.9974347716812521e-003
115:4.7531308570123122e-003
116:6.0513237416788157e-002
117:4.9557202604766121e-002
118:3.8748657096417422e-002
119:3.3136325708379433e-002
120:1.1263086289304050e-001
121:9.7533206415261101e-002
122:8.0986842236379017e-002
123:7.0720658520898302e-002
124:1.4704740109699871e-001
125:1.3057650270024307e-001
126:1.1198232597716563e-001
127:9.9950302412897832e-002
128:5.7937828560560541e-003
129:7.6461553640315870e-003
130:8.3500340130191770e-003
131:7.5766336209354551e-003
132:3.2013651080641754e-002
133:3.1591411891453557e-002
134:3.0202405111114917e-002
135:2.8495442644705372e-002
136:6.7263107078062281e-002
137:6.3353398953958209e-002
138:5.8555650968112223e-002
139:5.5110914823683042e-002
140:9.5076956421414505e-002
141:8.8095936032692335e-002
142:8.0165830863235324e-002
143:7.4990832077027614e-002
144:6.6816228420944583e-003
145:5.1712097969919468e-003
146:4.0404118958611342e-003
147:3.8174304051577907e-003
148:2.7104428684317925e-002
149:2.4293621363655631e-002
150:2.1456672732116044e-002
151:1.9918735461587286e-002
152:5.2977780827410371e-002
153:4.8633619193390785e-002
154:4.3783677389972048e-002
155:4.0693387109447671e-002
156:7.2216109112699170e-002
157:6.6821870475881076e-002
158:6.0592372079517315e-002
159:5.6437443291918528e-002
160:3.9116134791343411e-003
161:4.0295505824160145e-003
162:3.9346190327014981e-003
163:3.6711618242020474e-003
164:1.9338239378726849e-002
165:1.8340472731691412e-002
166:1.7021145287110202e-002
167:1.5996521389316821e-002
168:3.9280129274785962e-002
169:3.6841674216047803e-002
170:3.3944414267945207e-002
171:3.1941673815225884e-002
172:5.4422328224372679e-002
173:5.0891152742074230e-002
174:4.6799483722214354e-002
175:4.4058559906965937e-002
176:3.4687533864855517e-003
177:3.1293196533477515e-003
178:2.8098223832407668e-003
179:2.6595003238724124e-003
180:1.5434240730255922e-002
181:1.4431830823172474e-002
182:1.3304003580660367e-002
183:1.2577572659911209e-002
184:3.0915668872844658e-002
185:2.9055065962723375e-002
186:2.6881473458339168e-002
187:2.5410187118929468e-002
188:4.2681586514900734e-002
189:4.0168439949196506e-002
190:3.7200128995514246e-002
191:3.5163166313090424e-002
192:2.6034431801380715e-003
193:2.4862897206733565e-003
194:2.3212465015530585e-003
195:2.1854060229251635e-003
196:1.2207976446710211e-002
197:1.1496118665610277e-002
198:1.0625826566411110e-002
199:1.0003617873038433e-002
200:2.4638117698581180e-002
201:2.3168329857834364e-002
202:2.1401360762127283e-002
203:2.0162570374732791e-002
204:3.4087686764316977e-002
205:3.2050775988017567e-002
206:2.9614544018719342e-002
207:2.7916966802675493e-002
208:2.1039809909124186e-003
209:1.9470915621726478e-003
210:1.7607338722597930e-003
211:1.6319565155363395e-003
212:9.6560039380200902e-003
213:8.9708313278544331e-003
214:8.1287395507299003e-003
215:7.5230738212930439e-003
216:1.9474538391398837e-002
217:1.8107946902790092e-002
218:1.6420538376076304e-002
219:1.5200509641073685e-002
220:2.6973298571941706e-002
221:2.5090446620575177e-002
222:2.2762990297055696e-002
223:2.1078095908002952e-002
224:1.5555538006164615e-003
225:1.3913870403593591e-003
226:1.1808020043528053e-003
227:1.0221639996039007e-003
228:7.1555840408522760e-003
229:6.3687412654912616e-003
230:5.3623723886763262e-003
231:4.6065572670445781e-003
232:1.4459591011316325e-002
233:1.2876350156387233e-002
234:1.0852607526418484e-002
235:9.3336632666048049e-003
236:2.0055837099003750e-002
237:1.7874477563629684e-002
238:1.5086991556725595e-002
239:1.2995427514701050e-002
240:9.1833574265919732e-004
241:6.7592600783319588e-004
242:3.3623455519703757e-004
243:5.7932934572389116e-005
244:4.1154466730417361e-003
245:3.0078740874367859e-003
246:1.5349611194373880e-003
247:3.8471266743618482e-004
248:8.3472432983996720e-003
249:6.1323317249102260e-003
250:3.2088764404604301e-003
251:9.4243780037417488e-004
252:1.1637032582209347e-002
253:8.5898493763079172e-003
254:4.5760864312508580e-003
255:1.4705921781445934e-003
256:-8.4764776552740495e-001
257:-6.2456620931217532e-001
258:-3.1230125916071955e-001
259:-5.6713410546494265e-002
260:-8.4274864970302643e-001
261:-2.4510532521255537e-001
262:5.2158253411200028e-001
263:1.0991912548313929e+000
264:-4.9901438353498605e-002
265:5.7466907490568508e-001
266:1.3317693116736438e+000
267:1.8677540242064907e+000
268:1.1605510329704667e+000
269:1.4518363330573716e+000
270:1.7398168412343977e+000
271:1.8899754444248908e+000
272:8.4893880335014452e-002
273:5.6678632121656580e-001
274:1.7059125540215194e+000
275:2.9701811075708195e+000
276:1.3223025479819670e+000
277:1.7487245325396739e+000
278:2.6878085956276210e+000
279:3.7009039483346657e+000
280:2.0499038233674090e+000
281:2.3129014708850786e+000
282:2.8721903917449407e+000
283:3.4665239776745413e+000
284:1.9278315688304661e+000
285:1.9957873109494746e+000
286:2.1729322977088645e+000
287:2.3765212337213910e+000
288:3.2992111716021904e+000
289:2.8785991046837203e+000
290:1.9113759613965589e+000
291:8.4933643353954913e-001
292:3.8404749540666296e+000
293:3.0556605879499710e+000
294:1.7127275483148479e+000
295:4.3896646913682630e-001
296:3.4357402691035359e+000
297:2.5551615974852138e+000
298:1.2170665819153081e+000
299:4.6485991511278586e-002
300:2.2740606805386827e+000
301:1.6108876756557835e+000
302:6.5591873970616743e-001
303:-1.4477543608526131e-001
304:5.2260446228192636e-001
305:5.3407503977837367e-001
306:5.4766915873759014e-001
307:5.5703693927086473e-001
308:1.0560242523665796e-001
309:2.5806726236034433e-001
310:4.4625805619259390e-001
311:5.8226996048472834e-001
312:-2.1666318296848794e-001
313:3.6332837375481736e-002
314:3.4347466006285532e-001
315:5.6129482767943073e-001
316:-2.9366051025066159e-001
317:-2.7554993683282094e-002
318:2.8732960067578334e-001
319:5.0390912864738602e-001
320:5.3800610704368979e-001
321:4.7006046992167583e-001
322:4.1053687258748151e-001
323:3.8723908038626814e-001
324:5.9030302237364707e-001
325:5.0090487234223946e-001
326:4.1262746992635813e-001
327:3.6670562437771120e-001
328:5.8914418131414292e-001
329:4.9703248216320800e-001
330:4.0421750150672436e-001
331:3.5405357373075524e-001
332:5.3507088422896232e-001
333:4.6025211190070159e-001
334:3.8923530497905368e-001
335:3.5519276358771823e-001
336:3.6969990930860991e-001
337:3.1881768109547143e-001
338:2.6171802749373174e-001
339:2.2507247779821951e-001
340:3.4871306397193141e-001
341:3.1768363292761848e-001
342:2.8318224788584867e-001
343:2.6132467564744760e-001
344:3.3976917090421654e-001
345:3.2550289114650854e-001
346:3.0856182556252892e-001
347:2.9685922928618852e-001
348:3.4704596658752984e-001
349:3.3862304174445801e-001
350:3.2600183484917555e-001
351:3.1507777377575408e-001
352:2.1137818355312363e-001
353:1.9451567966533834e-001
354:1.7678433467193608e-001
355:1.6646654710946335e-001
356:2.4905766389861458e-001
357:2.2477397988314132e-001
358:1.9882893672623830e-001
359:1.8334159181206142e-001
360:2.8507840769215931e-001
361:2.5508717851594248e-001
362:2.2361184727032801e-001
363:2.0535469613091481e-001
364:3.0261494818028362e-001
365:2.7129583125268214e-001
366:2.3955684678458800e-001
367:2.2222343066977132e-001
368:1.5959535437609496e-001
369:1.4347701267013557e-001
370:1.2517669881974913e-001
371:1.1324257951557025e-001
372:1.7564753018616541e-001
373:1.6083716549273680e-001
374:1.4387604419153516e-001
375:1.3268678954072327e-001
376:1.9739393831206756e-001
377:1.8334345793170020e-001
378:1.6689448143652960e-001
379:1.5573040672456981e-001
380:2.1467672446220040e-001
381:2.0048308999194167e-001
382:1.8347998519949932e-001
383:1.7160964403848122e-001
384:1.0797690280499103e-001
385:9.9627198834854713e-002
386:9.0223978540941094e-002
387:8.4159532413906279e-002
388:1.2710983116311031e-001
389:1.1712744459108390e-001
390:1.0589249961417393e-001
391:9.8652894339914435e-002
392:1.4963031971438970e-001
393:1.3802532416810545e-001
394:1.2506274783038840e-001
395:1.1679747392241194e-001
396:1.6501893738979628e-001
397:1.5255933513674411e-001
398:1.3878020587404707e-001
399:1.3011784871396509e-001
400:8.1064708079904652e-002
401:7.5235307001849605e-002
402:6.8457991212511379e-002
403:6.3898478281326068e-002
404:9.5094833184204391e-002
405:8.8611889899415625e-002
406:8.1066248469433042e-002
407:7.5982515152848859e-002
408:1.1276920337679008e-001
409:1.0542958141932463e-001
410:9.6876285580390450e-002
411:9.1104602453613612e-002
412:1.2583203333106219e-001
413:1.1783275506034566e-001
414:1.0850315637918767e-001
415:1.0220113876049103e-001
416:6.1645284780023311e-002
417:5.7651502575687519e-002
418:5.3038695626290849e-002
419:4.9961528766414444e-002
420:7.3425269171802560e-002
421:6.8811956680025280e-002
422:6.3468926956756974e-002
423:5.9891935489081290e-002
424:8.8168713130776996e-002
425:8.2818855265214444e-002
426:7.6616726778903327e-002
427:7.2459372420421136e-002
428:9.8988881402798851e-002
429:9.3129507047166549e-002
430:8.6340693070136365e-002
431:8.1793527901227348e-002
432:4.8417145229459939e-002
433:4.5590891277518635e-002
434:4.2246492437645500e-002
435:3.9946133872179518e-002
436:5.8080090550012987e-002
437:5.4744382233103600e-002
438:5.0800327982960088e-002
439:4.8090214956119176e-002
440:7.0327785261296724e-002
441:6.6365276074234661e-002
442:6.1688281112711046e-002
443:5.8481447747754822e-002
444:7.9439270869162290e-002
445:7.5025396078908013e-002
446:6.9824535319388453e-002
447:6.6266036254829491e-002
448:3.8730262619388590e-002
449:3.6428294793940073e-002
450:3.3674956029599939e-002
451:3.1756344417681236e-002
452:4.6655431710954015e-002
453:4.3929877262873347e-002
454:4.0660983066668779e-002
455:3.8375665693918398e-002
456:5.6778498779701099e-002
457:5.3527889466120991e-002
458:4.9622359334776586e-002
459:4.6886200736667182e-002
460:6.4370929362696422e-002
461:6.0739052653236342e-002
462:5.6373181862892384e-002
463:5.3312636730707491e-002
464:3.0686046970840115e-002
465:2.8543800483207996e-002
466:2.5894303323561310e-002
467:2.3975148658458557e-002
468:3.7089513199444299e-002
469:3.4500036801515907e-002
470:3.1295037969636744e-002
471:2.8971587436145432e-002
472:4.5334200949457282e-002
473:4.2192841600799391e-002
474:3.8304332865213488e-002
475:3.5485016315937964e-002
476:5.1568975984845278e-002
477:4.8028867888185452e-002
478:4.3648111858320210e-002
479:4.0472980602951077e-002
480:2.2810312621093735e-002
481:2.0324214841158941e-002
482:1.7146252060343679e-002
483:1.4760866338439411e-002
484:2.7558101871443884e-002
485:2.4535573021142881e-002
486:2.0667810136124214e-002
487:1.7761464300700972e-002
488:3.3765586146274215e-002
489:3.0080868728103730e-002
490:2.5362302760098931e-002
491:2.1813953635073591e-002
492:3.8533218981819432e-002
493:3.4369867038235150e-002
494:2.9036909316959299e-002
495:2.5025396623353107e-002
496:1.3210306595362051e-002
497:9.7308101124348022e-003
498:5.1483897517185214e-003
499:1.6035166226195379e-003
500:1.5868632949022316e-002
501:1.1615879197384051e-002
502:6.0117008798773646e-003
503:1.6738372775759007e-003
504:1.9501035794773917e-002
505:1.4301081406609231e-002
506:7.4442748936474719e-003
507:2.1334643336539676e-003
508:2.2410801881312142e-002
509:1.6532145569128458e-002
510:8.7769494187329572e-003
511:2.7677037302353798e-003
512:1.9525015037119196e+000
513:1.8931186551911570e+000
514:1.7228437624394788e+000
515:1.5212130661121384e+000
516:2.8841094970439753e+000
517:2.2147452756993049e+000
518:1.2801457105550595e+000
519:5.1686685945603250e-001
520:2.9150283083206343e+000
521:1.8731765393057529e+000
522:4.9372347212210738e-001
523:-5.7898157460137645e-001
524:2.0308156085834730e+000
525:1.0279608842980585e+000
526:-2.6908125378767850e-001
527:-1.2544560377294742e+000
528:1.4325140433491865e+000
529:1.3658760402489285e+000
530:1.3395631086202322e+000
531:1.3658661483635195e+000
532:2.2672212804078834e-001
533:-3.7824922640379163e-002
534:-2.9920870249612691e-001
535:-4.3533556118243910e-001
536:-9.7243872103104079e-001
537:-1.3198988134171616e+000
538:-1.6592629478623029e+000
539:-1.8320124665021100e+000
540:-1.6048345678829210e+000
541:-1.8814826061427656e+000
542:-2.1053115940193043e+000
543:-2.1717699093815250e+000
544:1.2792571990968258e+000
545:8.7401015979825047e-001
546:2.7792729799555560e-001
547:-2.3055814709050665e-001
548:-4.3341501109787273e-001
549:-3.6027293530843707e-001
550:-3.4772923447810344e-001
551:-4.0164313301644916e-001
552:-1.7389881059829879e+000
553:-1.3085672455212141e+000
554:-8.5014678253947562e-001
555:-5.7785717206724574e-001
556:-2.0276224656959849e+000
557:-1.5279198301555499e+000
558:-9.9464363612392681e-001
559:-6.7688981911332724e-001
560:-3.0415911701222004e-001
561:-5.6752742604021821e-002
562:2.3465520828847977e-001
563:4.3394664722318166e-001
564:-3.6852023130207712e-001
565:-1.6320917699034992e-001
566:8.6092288929525237e-002
567:2.6293422443333264e-001
568:-4.7277098637247394e-001
569:-3.0800479144297660e-001
570:-9.4881544846230820e-002
571:6.7047835742127165e-002
572:-5.6821534131112006e-001
573:-4.2350484163276508e-001
574:-2.2373252436106919e-001
575:-6.2213022358278559e-002
576:4.6644062607495529e-001
577:4.1205867044125816e-001
578:3.6423152776790702e-001
579:3.4529949184717429e-001
580:3.0418484169384713e-001
581:2.9454800310782525e-001
582:2.9282456022187425e-001
583:2.9981954169240060e-001
584:1.2101373424772326e-001
585:1.6022154520026696e-001
586:2.0620973975991624e-001
587:2.3749700585130731e-001
588:2.4874297627527327e-003
589:7.1823846486618173e-002
590:1.4484527541829123e-001
591:1.8744304762458988e-001
592:3.4097213694767742e-001
593:3.3315769309859972e-001
594:3.2114330691424381e-001
595:3.1054095732727693e-001
596:3.0103768506477968e-001
597:2.9437465345428154e-001
598:2.8646452635484315e-001
599:2.8100216307558878e-001
600:2.4395513881149053e-001
601:2.4084111370845973e-001
602:2.4095631626907515e-001
603:2.4424693481013512e-001
604:1.9638803655595924e-001
605:1.9756285381814112e-001
606:2.0587578562162182e-001
607:2.1744382059703216e-001
608:2.9887402772322635e-001
609:2.7015890583928664e-001
610:2.4148480554629459e-001
611:2.2624554025161997e-001
612:2.7365408598463598e-001
613:2.5376739655586544e-001
614:2.3389481016480115e-001
615:2.2331890974600851e-001
616:2.4270072134304810e-001
617:2.3291256338741700e-001
618:2.2267065107899456e-001
619:2.1675903207723357e-001
620:2.2047240280372105e-001
621:2.1733580157375665e-001
622:2.1305518825357631e-001
623:2.0963005839818571e-001
624:2.1918946959371233e-001
625:2.0489083701594088e-001
626:1.8776906263085269e-001
627:1.7582181154297874e-001
628:2.1726777038809156e-001
629:2.0340531916922303e-001
630:1.8728876034699143e-001
631:1.7644621788790946e-001
632:2.1182310265980017e-001
633:1.9921447326206890e-001
634:1.8530281749381572e-001
635:1.7658633825046369e-001
636:2.0539869750842707e-001
637:1.9427586404893948e-001
638:1.8273887775470021e-001
639:1.7617672171949222e-001
640:1.6926884240815504e-001
641:1.5701247051988163e-001
642:1.4348047606705297e-001
643:1.3499372027561723e-001
644:1.7063147332348264e-001
645:1.5970307455185301e-001
646:1.4753759971166527e-001
647:1.3981760199051871e-001
648:1.7186940300296663e-001
649:1.6249418662426421e-001
650:1.5187750394246780e-001
651:1.4497845970340351e-001
652:1.7240438839908812e-001
653:1.6408206454764621e-001
654:1.5447299812821824e-001
655:1.4806563137005632e-001
656:1.3070119384458315e-001
657:1.2252287346204965e-001
658:1.1299328315444736e-001
659:1.0656374146794027e-001
660:1.3569980265097900e-001
661:1.2758226086781543e-001
662:1.1817373725420022e-001
663:1.1186899950753360e-001
664:1.4108597852173169e-001
665:1.3321723492640633e-001
666:1.2418781851587987e-001
667:1.1821541414667501e-001
668:1.4434381219185974e-001
669:1.3679567151448041e-001
670:1.2822631997526857e-001
671:1.2263854386447826e-001
672:1.0328749296589489e-001
673:9.7308235993455297e-002
674:9.0379407668723197e-002
675:8.5737497812293936e-002
676:1.0864226844109795e-001
677:1.0269948676186311e-001
678:9.5801702654152110e-002
679:9.1170905031961014e-002
680:1.1510294794928552e-001
681:1.0922462533722495e-001
682:1.0238935459178129e-001
683:9.7789924327684075e-002
684:1.1965171628672483e-001
685:1.1383572736820473e-001
686:1.0706523883100472e-001
687:1.0250277920148156e-001
688:8.3316181387318958e-002
689:7.8747049681395703e-002
690:7.3363991454306332e-002
691:6.9681459704319909e-002
692:8.8716024427463236e-002
693:8.4021586641228982e-002
694:7.8486445230902285e-002
695:7.4696091998345704e-002
696:9.5309644442732183e-002
697:9.0503875628999211e-002
698:8.4838360300282217e-002
699:8.0959488557540440e-002
700:1.0001712906408981e-001
701:9.5166007546691869e-002
702:8.9452725863516672e-002
703:8.5545986014852873e-002
704:6.7713232749903679e-002
705:6.3928005416572106e-002
706:5.9375387215697781e-002
707:5.6181928521115650e-002
708:7.2647954049533670e-002
709:6.8671283819482690e-002
710:6.3881815496425964e-002
711:6.0516733312275160e-002
712:7.8830123527355453e-002
713:7.4637963631680557e-002
714:6.9584210723380266e-002
715:6.6029497665187092e-002
716:8.3372019385902177e-002
717:7.9040979339359871e-002
718:7.3818956013572828e-002
719:7.0145182211660856e-002
720:5.4356003090830420e-002
721:5.0638423488798025e-002
722:4.6035541315188395e-002
723:4.2697385492943156e-002
724:5.8575546326397554e-002
725:5.4594668961102807e-002
726:4.9655618818774103e-002
727:4.6065450535467421e-002
728:6.3958023432343622e-002
729:5.9674749787367795e-002
730:5.4350762410675886e-002
731:5.0472922015521865e-002
732:6.7989252854936288e-002
733:6.3505735204765185e-002
734:5.7927847405265402e-002
735:5.3861048307116660e-002
736:4.0653456120164126e-002
737:3.6259630024085873e-002
738:3.0629320641748843e-002
739:2.6392473203229450e-002
740:4.3853939198355507e-002
741:3.9081138770563226e-002
742:3.2958863929737313e-002
743:2.8346859393548727e-002
744:4.8068426262295759e-002
745:4.2856350533830488e-002
746:3.6164193128977687e-002
747:3.1117893716550320e-002
748:5.1328309656809276e-002
749:4.5821845314181854e-002
750:3.8748083190895580e-002
751:3.3411212398351965e-002
752:2.3629873283042700e-002
753:1.7417313874721060e-002
754:9.2208579812861693e-003
755:2.8691105011191273e-003
756:2.5335223195095777e-002
757:1.8558694460019589e-002
758:9.6182369967129106e-003
759:2.6899824995119770e-003
760:2.7819095520358703e-002
761:2.0393280176723962e-002
762:1.0595013577409116e-002
763:3.0011142871033077e-003
764:2.9921261267784893e-002
765:2.2064127005034226e-002
766:1.1694930573924024e-002
767:3.6571746742277617e-003
768:1.2938713282965710e+000
769:4.5002613477051689e-001
770:-6.3666822473788953e-001
771:-1.4586114651847197e+000
772:2.1088064258432768e-001
773:-3.1281847038028870e-001
774:-1.0025158266057745e+000
775:-1.5360503956691143e+000
776:-4.9064942140097167e-001
777:-7.3747370080272778e-001
778:-1.0929399548569132e+000
779:-1.3910081463602140e+000
780:-4.8303071719013307e-001
781:-6.2558100781955950e-001
782:-8.6570305403377235e-001
783:-1.0912346659426857e+000
784:-1.7436248840058344e+000
785:-1.9412501468563756e+000
786:-2.0658844733803661e+000
787:-2.0593105560926950e+000
788:-1.7114288405651157e+000
789:-1.7932080039700327e+000
790:-1.8045074049463925e+000
791:-1.7400490376720066e+000
792:-1.4836951386447359e+000
793:-1.5000004772694651e+000
794:-1.4752087692144518e+000
795:-1.4209003433599767e+000
796:-1.1667993115282080e+000
797:-1.1985862459159029e+000
798:-1.2318055800482444e+000
799:-1.2509403994156427e+000
800:-1.9113006273752209e+000
801:-1.4651465555866152e+000
802:-9.9380152096982255e-001
803:-7.1743310959178019e-001
804:-1.6241098272717687e+000
805:-1.3211905962341683e+000
806:-9.9141023706413012e-001
807:-7.8881077901477492e-001
808:-1.3603882439516826e+000
809:-1.2096574064062398e+000
810:-1.0193146422204602e+000
811:-8.7826999358915137e-001
812:-1.2433215272660143e+000
813:-1.1826446881412600e+000
814:-1.0644804514189263e+000
815:-9.4402391378598649e-001
816:-6.1956687811402900e-001
817:-4.7718293612041263e-001
818:-2.7998733888146249e-001
819:-1.2009112064712263e-001
820:-7.0282984074480381e-001
821:-5.5504088582779199e-001
822:-3.6188757738373928e-001
823:-2.1359277666659193e-001
824:-7.9846570712419007e-001
825:-6.4330105030029250e-001
826:-4.5499950165012271e-001
827:-3.2151764154305457e-001
828:-8.6180249325794533e-001
829:-7.0073667221441382e-001
830:-5.1583007347253429e-001
831:-3.9345347958642313e-001
832:-5.3485004390193547e-002
833:2.3545990914020758e-002
834:1.0449960672341568e-001
835:1.5156201056463958e-001
836:-1.5121906681913122e-001
837:-7.1958547869216918e-002
838:1.6272252024039695e-002
839:7.2260291876666216e-002
840:-2.6491860527519706e-001
841:-1.8402072677277423e-001
842:-8.7954246558900870e-002
843:-2.1592290469801507e-002
844:-3.4147400561097785e-001
845:-2.6029575035681279e-001
846:-1.5949517843782421e-001
847:-8.6156733231274554e-002
848:1.6281917924904177e-001
849:1.6898233686840436e-001
850:1.8353756370206092e-001
851:1.9968604164168793e-001
852:9.0141177076872192e-002
853:1.0888125865852614e-001
854:1.3624521303485548e-001
855:1.5945120240591201e-001
856:3.9633715656727225e-003
857:3.6754008931027836e-002
858:7.7752177335350933e-002
859:1.0780743048596513e-001
860:-5.5460160083190477e-002
861:-1.3708418889153237e-002
862:3.5380841535758600e-002
863:6.8877785984197151e-002
864:2.0464004366118294e-001
865:2.0399322395363642e-001
866:2.0232488328482134e-001
867:2.0041431179426172e-001
868:1.6676296043658290e-001
869:1.6956252021768223e-001
870:1.7272022096709988e-001
871:1.7476108511965135e-001
872:1.1766538319702584e-001
873:1.2533116474080380e-001
874:1.3526780354058762e-001
875:1.4283384669564061e-001
876:8.0281031974919759e-002
877:9.1959841414009577e-002
878:1.0746183956074255e-001
879:1.1954596676556754e-001
880:1.9698506967042814e-001
881:1.8757526257555457e-001
882:1.7815289187423633e-001
883:1.7311919330671444e-001
884:1.7368745965336629e-001
885:1.6865408198612866e-001
886:1.6405372737139351e-001
887:1.6203524409691797e-001
888:1.4475602306474103e-001
889:1.4477169662412337e-001
890:1.4560034903284652e-001
891:1.4685491267139730e-001
892:1.2370477636246137e-001
893:1.2708368626338296e-001
894:1.3141242072517620e-001
895:1.3466900657068812e-001
896:1.6991564553063943e-001
897:1.6220237830345788e-001
898:1.5327435204925821e-001
899:1.4730189178340458e-001
900:1.5991286963426266e-001
901:1.5359064685040996e-001
902:1.4641728647120836e-001
903:1.4174350044371625e-001
904:1.4601928837411751e-001
905:1.4170803909128496e-001
906:1.3707981682242662e-001
907:1.3429648697372795e-001
908:1.3472466195391525e-001
909:1.3210497960758744e-001
910:1.2962352114354300e-001
911:1.2843938802638052e-001
912:1.4380315383194561e-001
913:1.3668911165436021e-001
914:1.2864798926878754e-001
915:1.2343583452739386e-001
916:1.3892340648689736e-001
917:1.3300512968321709e-001
918:1.2633920957572531e-001
919:1.2203933026247628e-001
920:1.3238786998507510e-001
921:1.2793139745343507e-001
922:1.2293143176795841e-001
923:1.1972348151480428e-001
924:1.2724932560045205e-001
925:1.2383788026715595e-001
926:1.2001644563573563e-001
927:1.1757003263516444e-001
928:1.2058267714029408e-001
929:1.1490205245259957e-001
930:1.0829216092655948e-001
931:1.0384051543399662e-001
932:1.1953736732584705e-001
933:1.1432204290659372e-001
934:1.0827567796098536e-001
935:1.0422255932092765e-001
936:1.1767042995216533e-001
937:1.1312562775761384e-001
938:1.0789727299905748e-001
939:1.0442755592301875e-001
940:1.1585392065729112e-001
941:1.1187165841161610e-001
942:1.0733370086134419e-001
943:1.0435975031824916e-001
944:1.0140047831314059e-001
945:9.6613564740125904e-002
946:9.0977150173228646e-002
947:8.7124031604310787e-002
948:1.0195986392854245e-001
949:9.7442612639390219e-002
950:9.2120706375513506e-002
951:8.8480033752132384e-002
952:1.0241650051468887e-001
953:9.8263678212317324e-002
954:9.3368550427967045e-002
955:9.0017655448060646e-002
956:1.0255709087420906e-001
957:9.8693237687756008e-002
958:9.4137808230637623e-002
959:9.1018666028326867e-002
960:8.4958360254367649e-002
961:8.0607430389309273e-002
962:7.5358721731110051e-002
963:7.1663931933028058e-002
964:8.6386010192160800e-002
965:8.2100642090218792e-002
966:7.6921786598859052e-002
967:7.3268512613230169e-002
968:8.8030445103959160e-002
969:8.3868059984313056e-002
970:7.8829196275344460e-002
971:7.5267532021477498e-002
972:8.9123541347019108e-002
973:8.5084114472398109e-002
974:8.0189990310645387e-002
975:7.6727238351141730e-002
976:6.9484079894967382e-002
977:6.4931877853343159e-002
978:5.9263834723896187e-002
979:5.5127521355759178e-002
980:7.1083559034980051e-002
981:6.6473345396359379e-002
982:6.0720219451174361e-002
983:5.6511494650634563e-002
984:7.3096553798416300e-002
985:6.8450637809007009e-002
986:6.2638673873637321e-002
987:5.8375458958390580e-002
988:7.4582784421443227e-002
989:6.9940152071263709e-002
990:6.4123078486137200e-002
991:5.9848747374719437e-002
992:5.2542945332864771e-002
993:4.6911180244760535e-002
994:3.9672754574636739e-002
995:3.4208772587248644e-002
996:5.3861007243744027e-002
997:4.8055328994498769e-002
998:4.0583072466572959e-002
999:3.4934565469544425e-002
1000:5.5665567986108687e-002
1001:4.9692796234337179e-002
1002:4.1993497093328093e-002
1003:3.6164051094938705e-002
1004:5.7113708353485906e-002
1005:5.1058712955416634e-002
1006:4.3245212168319377e-002
1007:3.7322930675136243e-002
1008:3.0633418633549913e-002
1009:2.2581801241679099e-002
1010:1.1955118905814010e-002
1011:3.7171472594250644e-003
1012:3.1231260193311714e-002
1013:2.2884415868288016e-002
1014:1.1866688709869353e-002
1015:3.3245133132285012e-003
1016:3.2334919522994790e-002
1017:2.3697374369042713e-002
1018:1.2292723208988950e-002
1019:3.4481347439634319e-003
1020:3.3428871916476449e-002
1021:2.4640939826107149e-002
1022:1.3034219591292284e-002
1023:4.0302673727556533e-003
1024:-3.1571853004953848e-001
1025:-4.6519637303942585e-001
1026:-7.1105115606684066e-001
1027:-9.3844289965440864e-001
1028:-6.8627825640208751e-002
1029:-2.7885191576289686e-001
1030:-5.7085275403422320e-001
1031:-8.0823531139869675e-001
1032:7.9084699255750124e-002
1033:-1.8614092201900748e-001
1034:-5.0670300780733979e-001
1035:-7.3286542973360558e-001
1036:5.8421797081383883e-002
1037:-2.3036915339503938e-001
1038:-5.4856657965332101e-001
1039:-7.4753889742536128e-001
1040:-1.0190098300020307e+000
1041:-1.0727620681058767e+000
1042:-1.1433291551721410e+000
1043:-1.1977488574355140e+000
1044:-8.9399306821950075e-001
1045:-9.6899014266863526e-001
1046:-1.0620743540853503e+000
1047:-1.1297656090700789e+000
1048:-8.1284239588532292e-001
1049:-8.9270062408598727e-001
1050:-9.8534083837542630e-001
1051:-1.0474903385979890e+000
1052:-8.1346369154567033e-001
1053:-8.7952872205565324e-001
1054:-9.4897121098400783e-001
1055:-9.8935422989195720e-001
1056:-1.2060155461937616e+000
1057:-1.1629445305346406e+000
1058:-1.0604659551991111e+000
1059:-9.4644806722099839e-001
1060:-1.1366227321173856e+000
1061:-1.0847516710451950e+000
1062:-9.8876760786777007e-001
1063:-8.9350517101787041e-001
1064:-1.0467771332517812e+000
1065:-9.8477256252364043e-001
1066:-8.9902090779587585e-001
1067:-8.2957718914100675e-001
1068:-9.7844607113044513e-001
1069:-9.0970793875029399e-001
1070:-8.3314698040350599e-001
1071:-7.8452519663790887e-001
1072:-8.6681767816240740e-001
1073:-7.1236035977032697e-001
1074:-5.3668102216640290e-001
1075:-4.2184034880207150e-001
1076:-8.2962586189102716e-001
1077:-7.0423969775873163e-001
1078:-5.5766638116125467e-001
1079:-4.5837102985108885e-001
1080:-7.8548928745603264e-001
1081:-6.9383491729840630e-001
1082:-5.7975968545821288e-001
1083:-4.9654869431210918e-001
1084:-7.5502436605717005e-001
1085:-6.8600614256434478e-001
1086:-5.9264104385643235e-001
1087:-5.1854036716951157e-001
1088:-3.7204458178056105e-001
1089:-2.9088899822200243e-001
1090:-1.8921088799592173e-001
1091:-1.1450459694288849e-001
1092:-4.1176692146968796e-001
1093:-3.3116650417642035e-001
1094:-2.3117659436757595e-001
1095:-1.5850297115794607e-001
1096:-4.5344907666656398e-001
1097:-3.7529496495674469e-001
1098:-2.7975437344888554e-001
1099:-2.1145478277571861e-001
1100:-4.7762110748050418e-001
1101:-4.0266175929127218e-001
1102:-3.1225330548608843e-001
1103:-2.4862597991161714e-001
1104:-8.2703715923963417e-002
1105:-3.8850662066574421e-002
1106:1.2283919401720279e-002
1107:4.6814813745240019e-002
1108:-1.2745601732007628e-001
1109:-8.3577971800590470e-002
1110:-3.1423369720794195e-002
1111:4.6461175345117855e-003
1112:-1.8178299242964358e-001
1113:-1.3761966667101147e-001
1114:-8.3804554710515691e-002
1115:-4.5474960272804898e-002
1116:-2.2030824373123170e-001
1117:-1.7573260496051521e-001
1118:-1.2039212618996821e-001
1119:-8.0136617490479262e-002
1120:5.9083192285767826e-002
1121:7.3213999012761280e-002
1122:9.1786586725904146e-002
1123:1.0612560827288059e-001
1124:1.8746841660161970e-002
1125:3.7457974557683363e-002
1126:6.1194561535344721e-002
1127:7.8869125962381270e-002
1128:-2.9202995284254196e-002
1129:-5.5921161606085242e-003
1130:2.3477776402075341e-002
1131:4.4427992478789174e-002
1132:-6.2368713657174266e-002
1133:-3.5827363835122833e-002
1134:-3.7460726611551315e-003
1135:1.8889830823495248e-002
1136:1.1126381363463127e-001
1137:1.1601404305409610e-001
1138:1.2188595480976647e-001
1139:1.2613675001356983e-001
1140:8.5364542297836063e-002
1141:9.2199988336929301e-002
1142:1.0075724589596852e-001
1143:1.0703917784236663e-001
1144:5.2422283243759353e-002
1145:6.2034188774525080e-002
1146:7.4167920632520687e-002
1147:8.3155752933391267e-002
1148:2.7824527848908657e-002
1149:3.9607237846529302e-002
1150:5.4537983747303537e-002
1151:6.5642540637997016e-002
1152:1.2673780324010200e-001
1153:1.2523082266463381e-001
1154:1.2409765901634004e-001
1155:1.2386761861382439e-001
1156:1.0882203767683858e-001
1157:1.0959592789612975e-001
1158:1.1111059856070477e-001
1159:1.1265853954652569e-001
1160:8.6418890386207356e-002
1161:8.9881473633305578e-002
1162:9.4476104490534216e-002
1163:9.8056608265446543e-002
1164:6.9992981756730271e-002
1165:7.5296178515154272e-002
1166:8.1964230876411609e-002
1167:8.6882458756226008e-002
1168:1.2308016670378261e-001
1169:1.2023858854121744e-001
1170:1.1708798015521893e-001
1171:1.1510000623309841e-001
1172:1.1262284983797372e-001
1173:1.1092581391430296e-001
1174:1.0918064087054191e-001
1175:1.0820250962679431e-001
1176:9.8931205266582903e-002
1177:9.8749898314873255e-002
1178:9.8867679022015653e-002
1179:9.9229531439880961e-002
1180:8.8400667571877242e-002
1181:8.9398271860568909e-002
1182:9.0966329859044237e-002
1183:9.2372393956787577e-002
1184:1.1360776309649004e-001
1185:1.1002082874504926e-001
1186:1.0595823395151195e-001
1187:1.0331763674379928e-001
1188:1.0721485043356295e-001
1189:1.0450322679125135e-001
1190:1.0147449557229317e-001
1191:9.9543392039285722e-002
1192:9.8894105251675052e-002
1193:9.7279172861727992e-002
1194:9.5540182610941882e-002
1195:9.4489425406370717e-002
1196:9.2532188587701972e-002
1197:9.1723058110455141e-002
1198:9.0927241865894473e-002
1199:9.0516469539598687e-002
1200:1.0165559709347907e-001
1201:9.7993577370342644e-002
1202:9.3678721776759011e-002
1203:9.0726520602217198e-002
1204:9.8189289472598654e-002
1205:9.4998763354587235e-002
1206:9.1250973498131230e-002
1207:8.8696530995282255e-002
1208:9.3530255001216825e-002
1209:9.0974571622987888e-002
1210:8.7992314907183317e-002
1211:8.5976511647179288e-002
1212:8.9854751617004111e-002
1213:8.7800721944188614e-002
1214:8.5424881473884856e-002
1215:8.3836996985864831e-002
1216:8.8904384414778700e-002
1217:8.4975558469476395e-002
1218:8.0211561402770332e-002
1219:7.6837679697329658e-002
1220:8.7054572467850394e-002
1221:8.3408652448550752e-002
1222:7.8976251855858479e-002
1223:7.5827766827010465e-002
1224:8.4579020339792407e-002
1225:8.1317762779910902e-002
1226:7.7338290387433908e-002
1227:7.4499434307545909e-002
1228:8.2634070616578986e-002
1229:7.9679554321079996e-002
1230:7.6062776862967002e-002
1231:7.3473152798058453e-002
1232:7.4725405564298700e-002
1233:7.0117159572376145e-002
1234:6.4336676704439960e-002
1235:6.0084048964997770e-002
1236:7.3806809264446799e-002
1237:6.9322556765216731e-002
1238:6.3682192807327787e-002
1239:5.9520359162601622e-002
1240:7.2611294225098780e-002
1241:6.8324591099192825e-002
1242:6.2913716301254044e-002
1243:5.8906116086738167e-002
1244:7.1697291406559047e-002
1245:6.7589417249808673e-002
1246:6.2390206345361750e-002
1247:5.8528235702021536e-002
1248:5.7350899444985615e-002
1249:5.1282521056198606e-002
1250:4.3446203617067344e-002
1251:3.7502329581028865e-002
1252:5.6818199456298332e-002
1253:5.0778903707618728e-002
1254:4.2967354231572261e-002
1255:3.7032364244115504e-002
1256:5.6268014980314585e-002
1257:5.0319558115946593e-002
1258:4.2609336023398364e-002
1259:3.6738831398963917e-002
1260:5.5957339894287993e-002
1261:5.0119046868378973e-002
1262:4.2539381060077146e-002
1263:3.6758841682578217e-002
1264:3.3590634678175017e-002
1265:2.4759467448245934e-002
1266:1.3094212747421464e-002
1267:4.0437684736652811e-003
1268:3.3117613522731418e-002
1269:2.4270751414817004e-002
1270:1.2582901469045806e-002
1271:3.5135159335243165e-003
1272:3.2856947167215933e-002
1273:2.4075024533285382e-002
1274:1.2469139312701874e-002
1275:3.4604576269199028e-003
1276:3.2930394149535344e-002
1277:2.4263711793565772e-002
1278:1.2806065141655850e-002
1279:3.9093773500695397e-003
1280:1.3263913278684081e-002
1281:-2.5839442827361597e-001
1282:-5.5181610588321206e-001
1283:-7.2994240944502053e-001
1284:-4.2950644967103338e-002
1285:-2.4352146190716206e-001
1286:-4.6821304614667369e-001
1287:-6.1207085254698346e-001
1288:-7.1100970080858569e-002
1289:-1.9450043656025084e-001
1290:-3.4984340473799252e-001
1291:-4.6456840943608113e-001
1292:-5.8037906619929081e-002
1293:-1.3422931449938591e-001
1294:-2.5199822388432641e-001
1295:-3.5633419743323830e-001
1296:-7.8881396889364708e-001
1297:-8.4992479638725893e-001
1298:-9.1207311742802466e-001
1299:-9.4622914530611857e-001
1300:-6.6567164718932015e-001
1301:-7.3203194161257035e-001
1302:-8.0311462854064075e-001
1303:-8.4571663497451610e-001
1304:-5.1571051687572855e-001
1305:-5.8992334063151908e-001
1306:-6.7397209025892357e-001
1307:-7.2859718104108639e-001
1308:-4.0897816017011751e-001
1309:-4.8997862055269270e-001
1310:-5.8496861797362087e-001
1311:-6.4957785700871384e-001
1312:-9.3464058332991007e-001
1313:-8.7103388636340928e-001
1314:-8.0379951152340490e-001
1315:-7.6434296628761478e-001
1316:-8.4391055115055569e-001
1317:-8.0428176010127528e-001
1318:-7.6023173390285070e-001
1319:-7.3233645664764702e-001
1320:-7.3890694912100074e-001
1321:-7.2712893297256587e-001
1322:-7.0884799257123310e-001
1323:-6.9260324517421124e-001
1324:-6.6867747667437505e-001
1325:-6.7561387034687304e-001
1326:-6.7364988606298626e-001
1327:-6.6370291055026653e-001
1328:-7.3958930637537512e-001
1329:-6.7738674237362273e-001
1330:-5.9118817647499644e-001
1331:-5.2125738316003323e-001
1332:-7.1076072385501876e-001
1333:-6.5332321943452920e-001
1334:-5.7568776834697022e-001
1335:-5.1411827198903270e-001
1336:-6.7429307026420449e-001
1337:-6.2320088212031977e-001
1338:-5.5690522741214488e-001
1339:-5.0637313282257645e-001
1340:-6.4722056612282231e-001
1341:-6.0109002248054177e-001
1342:-5.4361397100626752e-001
1343:-5.0163975829406959e-001
1344:-4.8223562945283199e-001
1345:-4.1085706277634088e-001
1346:-3.2488877846739816e-001
1347:-2.6448698534234077e-001
1348:-4.8014291595228886e-001
1349:-4.1758184387020408e-001
1350:-3.4128430512838437e-001
1351:-2.8688925568038998e-001
1352:-4.7857248380390627e-001
1353:-4.2585093516744515e-001
1354:-3.5999886142360188e-001
1355:-3.1177609040311960e-001
1356:-4.7825788959531684e-001
1357:-4.3180180341498631e-001
1358:-3.7229078597715781e-001
1359:-3.2752272649546660e-001
1360:-2.3698989826074421e-001
1361:-1.9227855192752047e-001
1362:-1.3655283903684010e-001
1363:-9.5842514413583740e-002
1364:-2.6084586415507460e-001
1365:-2.1644256991486624e-001
1366:-1.6132491697888182e-001
1367:-1.2123863237373392e-001
1368:-2.8737469340601285e-001
1369:-2.4408238121417525e-001
1370:-1.9068320212270690e-001
1371:-1.5212017556552956e-001
1372:-3.0418463927094658e-001
1373:-2.6228729389875155e-001
1374:-2.1091429494892761e-001
1375:-1.7406222313649111e-001
1376:-7.7736680128026425e-002
1377:-5.0525206838289975e-002
1378:-1.7701695230013085e-002
1379:5.4018308368093647e-003
1380:-1.0333931620336405e-001
1381:-7.6058847646820152e-002
1382:-4.2829053680744585e-002
1383:-1.9171734654560957e-002
1384:-1.3465950555158090e-001
1385:-1.0721495608162902e-001
1386:-7.3358447707252333e-002
1387:-4.8904522163267780e-002
1388:-1.5706743354110342e-001
1389:-1.2944036051355337e-001
1390:-9.5029447065764341e-002
1391:-6.9908200271636550e-002
1392:1.4753242975025456e-002
1393:2.7655301707653325e-002
1394:4.3969086736031837e-002
1395:5.6074348761823586e-002
1396:-9.1180079238882949e-003
1397:5.6253644612835876e-003
1398:2.4086353126085244e-002
1399:3.7641739383075648e-002
1400:-3.8019303247255991e-002
1401:-2.1265967371599807e-002
1402:-5.1549778799007961e-004
1403:1.4539459008005488e-002
1404:-5.8450705670551655e-002
1405:-4.0457620307779517e-002
1406:-1.8344820331102765e-002
1407:-2.4413034693446705e-003
1408:6.0903164696312545e-002
1409:6.6992174581616729e-002
1410:7.4587148902889616e-002
1411:8.0140437765162359e-002
1412:4.3155565937114650e-002
1413:5.0455498490839086e-002
1414:5.9589366209557300e-002
1415:6.6290694516483575e-002
1416:2.0830711452412425e-002
1417:2.9666441441409924e-002
1418:4.0750572990303838e-002
1419:4.8905653686225251e-002
1420:4.3566506756509910e-003
1421:1.4335674324136211e-002
1422:2.6870462299851530e-002
1423:3.6105953431490402e-002
1424:8.1998764603400665e-002
1425:8.3653437045128662e-002
1426:8.6017638858582907e-002
1427:8.7987039737901215e-002
1428:6.8792870014045923e-002
1429:7.1673502030761435e-002
1430:7.5495628141322407e-002
1431:7.8473914423436500e-002
1432:5.2203431865072120e-002
1433:5.6560933912553908e-002
1434:6.2125200712836982e-002
1435:6.6297135851026243e-002
1436:3.9979458384467599e-002
1437:4.5374887656594101e-002
1438:5.2151749046607750e-002
1439:5.7144537237240223e-002
1440:8.8407328015445152e-002
1441:8.8018981794501155e-002
1442:8.7726431308776151e-002
1443:8.7666328330358798e-002
1444:7.9363715502657195e-002
1445:7.9761466470386413e-002
1446:8.0431062879507145e-002
1447:8.1059732950938615e-002
1448:6.7762785622848667e-002
1449:6.9170974596817772e-002
1450:7.1076073173269971e-002
1451:7.2588200428469155e-002
1452:5.9023389833410801e-002
1453:6.1194377064163925e-002
1454:6.4031223935779757e-002
1455:6.6208825308931435e-002
1456:8.7175359997486046e-002
1457:8.5418048516061884e-002
1458:8.3399188769286536e-002
1459:8.2061800083587974e-002
1460:8.0911000764259708e-002
1461:7.9748664993869983e-002
1462:7.8441017512765276e-002
1463:7.7598866896824784e-002
1464:7.2876457647859133e-002
1465:7.2469820268629567e-002
1466:7.2063256647604407e-002
1467:7.1846674653635090e-002
1468:6.6824705291434180e-002
1469:6.6981498544731011e-002
1470:6.7244989671167057e-002
1471:6.7492100668433974e-002
1472:8.0973319807980559e-002
1473:7.8201949925464156e-002
1474:7.4803770709704231e-002
1475:7.2366088401372861e-002
1476:7.6740283293985079e-002
1477:7.4347504706497272e-002
1478:7.1404399558858009e-002
1479:6.9285706754224269e-002
1480:7.1285426610067523e-002
1481:6.9397367111239755e-002
1482:6.7062049474923197e-002
1483:6.5370312065641575e-002
1484:6.7156740167145151e-002
1485:6.5663770779606764e-002
1486:6.3805053559181341e-002
1487:6.2448804469856012e-002
1488:7.0661515916891765e-002
1489:6.6672153941776433e-002
1490:6.1614113327893405e-002
1491:5.7850029746357882e-002
1492:6.7734166834213697e-002
1493:6.4004376245381578e-002
1494:5.9256165133803378e-002
1495:5.5707446284784412e-002
1496:6.4026802852310369e-002
1497:6.0656314646407174e-002
1498:5.6339266396320913e-002
1499:5.3092172592175794e-002
1500:6.1271151938208132e-002
1501:5.8191865199984164e-002
1502:5.4225914875401314e-002
1503:5.1225815885153868e-002
1504:5.5326523694600338e-002
1505:4.9570686273797848e-002
1506:4.2091056693341115e-002
1507:3.6381406751941354e-002
1508:5.3291472792164049e-002
1509:4.7729609299786584e-002
1510:4.0487920746363738e-002
1511:3.4949035505510838e-002
1512:5.0832726471956947e-002
1513:4.5564212035517651e-002
1514:3.8685507589235918e-002
1515:3.3409689843331772e-002
1516:4.9098777244384474e-002
1517:4.4085962203222702e-002
1518:3.7525733280793422e-002
1519:3.2482405702283501e-002
1520:3.2595848169026158e-002
1521:2.4022309489080938e-002
1522:1.2685935506793247e-002
1523:3.8820023174360135e-003
1524:3.1267077958936948e-002
1525:2.2918456695348088e-002
1526:1.1876702370783823e-002
1527:3.2994727880097507e-003
1528:2.9890438146280209e-002
1529:2.1898344485469068e-002
1530:1.1323279431241496e-002
1531:3.1049079307008814e-003
1532:2.9108963964645494e-002
1533:2.1438472294624668e-002
1534:1.1284173267675624e-002
1535:3.3891899481634249e-003
1536:-4.4530695083867998e-002
1537:-1.1227121722691724e-001
1538:-2.2279138225030246e-001
1539:-3.2446667698884207e-001
1540:-2.9836191052665492e-002
1541:-1.0573437430566429e-001
1542:-2.1705494304581999e-001
1543:-3.1179951159152286e-001
1544:-1.9925900679426040e-002
1545:-1.0463146075832760e-001
1546:-2.1460074444764612e-001
1547:-2.9846655796528598e-001
1548:-1.9428969385135896e-002
1549:-1.0947765293244489e-001
1550:-2.1657515470282912e-001
1551:-2.9069570438610576e-001
1552:-3.7626708607739984e-001
1553:-4.5563771826706406e-001
1554:-5.4960821979205576e-001
1555:-6.1428450678008006e-001
1556:-3.5710760954925908e-001
1557:-4.2406037293898341e-001
1558:-5.0389822098779646e-001
1559:-5.5932850183616412e-001
1560:-3.3538993448465892e-001
1561:-3.8829944071884448e-001
1562:-4.5251448478679535e-001
1563:-4.9803990347837385e-001
1564:-3.2125849382081334e-001
1565:-3.6505902909514193e-001
1566:-4.1945860732694618e-001
1567:-4.5904691771896405e-001
1568:-6.3502227489840968e-001
1569:-6.4699863493781495e-001
1570:-6.5024577195973032e-001
1571:-6.4324693227579444e-001
1572:-5.7779410740904347e-001
1573:-5.9087209227286863e-001
1574:-5.9853521966861745e-001
1575:-5.9720400506471516e-001
1576:-5.1377126899957049e-001
1577:-5.2699227923769587e-001
1578:-5.3872835727201762e-001
1579:-5.4349752327685052e-001
1580:-4.7285914267084700e-001
1581:-4.8519777097670558e-001
1582:-4.9876126462022802e-001
1583:-5.0721404894841737e-001
1584:-6.2846140564282027e-001
1585:-5.8641018473345308e-001
1586:-5.3445730631425048e-001
1587:-4.9687021565507317e-001
1588:-5.8699071593517826e-001
1589:-5.5450626601753661e-001
1590:-5.1344289684334810e-001
1591:-4.8298151030586400e-001
1592:-5.3844474993181668e-001
1593:-5.1671547295576026e-001
1594:-4.8760689154433717e-001
1595:-4.6471576737427167e-001
1596:-5.0549956734117973e-001
1597:-4.9069007102860424e-001
1598:-4.6901741568116495e-001
1599:-4.5060500530455633e-001
1600:-4.7539568728469944e-001
1601:-4.3143754905584131e-001
1602:-3.7473783368597491e-001
1603:-3.3178125735294933e-001
1604:-4.6423279177142274e-001
1605:-4.2411401429721912e-001
1606:-3.7257653795088080e-001
1607:-3.3369377164904568e-001
1608:-4.4908161258084661e-001
1609:-4.1404063190084878e-001
1610:-3.6932781340523502e-001
1611:-3.3582873473127628e-001
1612:-4.3701934010105370e-001
1613:-4.0592272837460147e-001
1614:-3.6650915527754641e-001
1615:-3.3718889483367676e-001
1616:-3.0927342997637330e-001
1617:-2.6882014639428670e-001
1618:-2.1921483712490036e-001
1619:-1.8362838633128664e-001
1620:-3.1329887401024398e-001
1621:-2.7636637142305731e-001
1622:-2.3071168221845911e-001
1623:-1.9766033647864498e-001
1624:-3.1807906322448559e-001
1625:-2.8525301968928524e-001
1626:-2.4411715656993832e-001
1627:-2.1388623803837051e-001
1628:-3.2138114770461162e-001
1629:-2.9132909403948015e-001
1630:-2.5316949711558218e-001
1631:-2.2472689251299136e-001
1632:-1.6696929142718209e-001
1633:-1.3935300608307638e-001
1634:-1.0487904816134862e-001
1635:-7.9650373120034867e-002
1636:-1.8169641459822630e-001
1637:-1.5443612578514015e-001
1638:-1.2045347774482557e-001
1639:-9.5621932671028698e-002
1640:-1.9876391387237444e-001
1641:-1.7220979834326158e-001
1642:-1.3918351987943331e-001
1643:-1.1511181573732661e-001
1644:-2.1019947631661937e-001
1645:-1.8437185380703414e-001
1646:-1.5232027967745718e-001
1647:-1.2901620199138514e-001
1648:-6.8069878740861914e-002
1649:-4.9770454090008923e-002
1650:-2.7294461811980666e-002
1651:-1.1140548547524774e-002
1652:-8.4144680959030535e-002
1653:-6.5774499538329687e-002
1654:-4.3087958358871734e-002
1655:-2.6682052489781224e-002
1656:-1.0383649325291407e-001
1657:-8.5384597304029156e-002
1658:-6.2437182947454664e-002
1659:-4.5713100397607807e-002
1660:-1.1794717315868374e-001
1661:-9.9440774181653466e-002
1662:-7.6304017517569878e-002
1663:-5.9344196104800032e-002
1664:-4.1335937298655904e-003
1665:6.3805185521896603e-003
1666:1.9579578280172229e-002
1667:2.9298239677135799e-002
1668:-1.9366858080665940e-002
1669:-8.0339685090876894e-003
1670:6.1472773105164568e-003
1671:1.6552749642561551e-002
1672:-3.8039495876757888e-002
1673:-2.5791945303465073e-002
1674:-1.0529645216978233e-002
1675:6.1830887710595138e-004
1676:-5.1429426079551491e-002
1677:-3.8598573449054450e-002
1678:-2.2661316690440712e-002
1679:-1.1062026893605369e-002
1680:3.3422434412703157e-002
1681:3.9270394196910093e-002
1682:4.6591613301207993e-002
1683:5.1966314240148227e-002
1684:2.1038743755778706e-002
1685:2.7580807775139639e-002
1686:3.5776355640589334e-002
1687:4.1797206598089200e-002
1688:5.5240454756062367e-003
1689:1.2929037040785615e-002
1690:2.2209648232177828e-002
1691:2.9030859874511292e-002
1692:-5.8746684834181028e-003
1693:2.1589962334702564e-003
1694:1.2228566894356120e-002
1695:1.9630497471790177e-002
1696:5.4050060855212981e-002
1697:5.6612843630540165e-002
1698:5.9926063522709010e-002
1699:6.2442099209347707e-002
1700:4.4241064625980743e-002
1701:4.7494087518554239e-002
1702:5.1640723703579985e-002
1703:5.4744059005434803e-002
1704:3.1918150181807860e-002
1705:3.6015302047124241e-002
1706:4.1175673197259281e-002
1707:4.4988828863840001e-002
1708:2.2837411524370448e-002
1709:2.7538284419190425e-002
1710:3.3419188613934808e-002
1711:3.7733124807979572e-002
1712:6.3223746960468605e-002
1713:6.3666804838897778e-002
1714:6.4275089093297072e-002
1715:6.4764467153910446e-002
1716:5.5816301196953855e-002
1717:5.6772978479628047e-002
1718:5.8008737936841429e-002
1719:5.8946350242579500e-002
1720:4.6421400969859895e-002
1721:4.8034038296972954e-002
1722:5.0069989974789758e-002
1723:5.1578252951749712e-002
1724:3.9427450425671910e-002
1725:4.1531986271432654e-002
1726:4.4167073462095821e-002
1727:4.6101849798569516e-002
1728:6.4550496263234405e-002
1729:6.3274078761216559e-002
1730:6.1676901139917403e-002
1731:6.0505012929034166e-002
1732:5.8960786136006957e-002
1733:5.8094491648043471e-002
1734:5.6992478384090349e-002
1735:5.6169502164874770e-002
1736:5.1885039560784128e-002
1737:5.1546782634335861e-002
1738:5.1081611282916467e-002
1739:5.0706809334781354e-002
1740:4.6628372596230365e-002
1741:4.6689418834297718e-002
1742:4.6705294958125941e-002
1743:4.6668585152117928e-002
1744:5.9419430883085746e-002
1745:5.6504000075569008e-002
1746:5.2737190532216233e-002
1747:4.9878497534464633e-002
1748:5.5260499016156706e-002
1749:5.2664671222551245e-002
1750:4.9288728671640442e-002
1751:4.6709590748464883e-002
1752:5.0029186245913758e-002
1753:4.7861139718627516e-002
1754:4.5009245530571229e-002
1755:4.2805637496652033e-002
1756:4.6169064520696780e-002
1757:4.4337158776709296e-002
1758:4.1897708751791600e-002
1759:3.9990193561819834e-002
1760:4.7828779870323634e-002
1761:4.2967564411847931e-002
1762:3.6597180940232552e-002
1763:3.1693266936005236e-002
1764:4.4814453319129428e-002
1765:4.0258636740794676e-002
1766:3.4272019203971750e-002
1767:2.9650979231802051e-002
1768:4.1120818729680014e-002
1769:3.6985079553113143e-002
1770:3.1527373733213203e-002
1771:2.7297022526347556e-002
1772:3.8473191002204976e-002
1773:3.4675987526661151e-002
1774:2.9645281939035123e-002
1775:2.5730941585101745e-002
1776:2.8407442947480457e-002
1777:2.0930329927773994e-002
1778:1.1029795742681359e-002
1779:3.3304286496759089e-003
1780:2.6543004798069363e-002
1781:1.9458492180326338e-002
1782:1.0074504917753781e-002
1783:2.7743496573849574e-003
1784:2.4436352555217224e-002
1785:1.7899729164506609e-002
1786:9.2362116466158471e-003
1787:2.4925716840362871e-003
1788:2.3071513852452988e-002
1789:1.6982146758684532e-002
1790:8.9064868430859534e-003
1791:2.6167146081258986e-003
1792:-1.9766297657328086e-002
1793:-1.0742890059934447e-001
1794:-2.0987379790609784e-001
1795:-2.7924847371680533e-001
1796:-1.7699771879867821e-002
1797:-9.2526586502174032e-002
1798:-1.8228993036628771e-001
1799:-2.4506090365485406e-001
1800:-1.5172973779194680e-002
1801:-7.4888586616754502e-002
1802:-1.5024046011767864e-001
1803:-2.0603136321789467e-001
1804:-1.3366183187388430e-002
1805:-6.2753697520150295e-002
1806:-1.2869585249061818e-001
1807:-1.8039074288362839e-001
1808:-3.0781253526098679e-001
1809:-3.4969845489111157e-001
1810:-4.0205676417467934e-001
1811:-4.4043063908916741e-001
1812:-2.7253639737756441e-001
1813:-3.1507885813761566e-001
1814:-3.6793882927475569e-001
1815:-4.0642515804502816e-001
1816:-2.3229614118420819e-001
1817:-2.7484577048406517e-001
1818:-3.2725199571127422e-001
1819:-3.6503561107015464e-001
1820:-2.0588818844868903e-001
1821:-2.4779226523800643e-001
1822:-2.9900128374006335e-001
1823:-3.3559525931426087e-001
1824:-4.5385671421742485e-001
1825:-4.6607227432655529e-001
1826:-4.8019722259222586e-001
1827:-4.8963372614344414e-001
1828:-4.2015028071794114e-001
1829:-4.3341194059909766e-001
1830:-4.4863283552666783e-001
1831:-4.5870321054861923e-001
1832:-3.7897549038262951e-001
1833:-3.9379311321311017e-001
1834:-4.1069323793444901e-001
1835:-4.2178173309121458e-001
1836:-3.4956529047762902e-001
1837:-3.6572194148120091e-001
1838:-3.8410020262477745e-001
1839:-3.9611549765334014e-001
1840:-4.8894239639830689e-001
1841:-4.7655254638754896e-001
1842:-4.5772241690093868e-001
1843:-4.4124765412103129e-001
1844:-4.5883572015464003e-001
1845:-4.4919080541896150e-001
1846:-4.3435442404206193e-001
1847:-4.2125672280351756e-001
1848:-4.2294926730207921e-001
1849:-4.1654505333538583e-001
1850:-4.0647491453923540e-001
1851:-3.9744266231987158e-001
1852:-3.9804577663447255e-001
1853:-3.9386428164772963e-001
1854:-3.8710654453002663e-001
1855:-3.8092913755689412e-001
1856:-4.2875955464924181e-001
1857:-3.9994127096626270e-001
1858:-3.6341571101741077e-001
1859:-3.3624414366747352e-001
1860:-4.1091304296712305e-001
1861:-3.8639393649673692e-001
1862:-3.5500727055644993e-001
1863:-3.3141391132125353e-001
1864:-3.8963009454475483e-001
1865:-3.7005974931826258e-001
1866:-3.4451618333083750e-001
1867:-3.2493092200432677e-001
1868:-3.7485207936464282e-001
1869:-3.5856848867392732e-001
1870:-3.3684288783051647e-001
1871:-3.1982341194192826e-001
1872:-3.2135928024546356e-001
1873:-2.9258143106721124e-001
1874:-2.5590314812373877e-001
1875:-2.2845703794246774e-001
1876:-3.1801753570760638e-001
1877:-2.9143031663192137e-001
1878:-2.5757329043591481e-001
1879:-2.3226124073142901e-001
1880:-3.1328629422817245e-001
1881:-2.8950345534439997e-001
1882:-2.5925721301909677e-001
1883:-2.3667573594246769e-001
1884:-3.0937554199377199e-001
1885:-2.8770089359784656e-001
1886:-2.6016834734484423e-001
1887:-2.3963849113027660e-001
1888:-2.1435575485154790e-001
1889:-1.8918274491228615e-001
1890:-1.5792715323980339e-001
1891:-1.3518862057332734e-001
1892:-2.1916911592246061e-001
1893:-1.9556181505107845e-001
1894:-1.6610413787500622e-001
1895:-1.4455591042119978e-001
1896:-2.2484624316755777e-001
1897:-2.0313273227464973e-001
1898:-1.7582639788147841e-001
1899:-1.5568216321019726e-001
1900:-2.2873532250257281e-001
1901:-2.0835908387679386e-001
1902:-1.8255261774821005e-001
1903:-1.6337025148885009e-001
1904:-1.2428178193548749e-001
1905:-1.0582829502049136e-001
1906:-8.2725637407259425e-002
1907:-6.5765174199641563e-002
1908:-1.3401543033730665e-001
1909:-1.1584429761182727e-001
1910:-9.3097148119608064e-002
1911:-7.6399287371035268e-002
1912:-1.4560131556161177e-001
1913:-1.2787868236845559e-001
1914:-1.0569988787017022e-001
1915:-8.9424756161499294e-002
1916:-1.5362761358366636e-001
1917:-1.3631012892615249e-001
1918:-1.1464705487907639e-001
1919:-9.8757319975576907e-002
1920:-5.7803717374935684e-002
1921:-4.4817824404095402e-002
1922:-2.8689726142549894e-002
1923:-1.6952936685714626e-002
1924:-6.8496632924918061e-002
1925:-5.5456078527293472e-002
1926:-3.9213517732182152e-002
1927:-2.7355930647934040e-002
1928:-8.1625607851647394e-002
1929:-6.8534155168225003e-002
1930:-5.2168894622122972e-002
1931:-4.0174119979410609e-002
1932:-9.1058033333859492e-002
1933:-7.7943220345492573e-002
1934:-6.1504336488694508e-002
1935:-4.9420065340409325e-002
1936:-1.1654808562715771e-002
1937:-3.3452404850340062e-003
1938:7.0673661282176503e-003
1939:1.4719231467480630e-002
1940:-2.1911173758098819e-002
1941:-1.3203878617272635e-002
1942:-2.3046449471176697e-003
1943:5.6954415489008942e-003
1944:-3.4560602753292008e-002
1945:-2.5398592588949765e-002
1946:-1.3948219655044169e-002
1947:-5.5580095183490451e-003
1948:-4.3694484992425335e-002
1949:-3.4233171470207227e-002
1950:-2.2424586929015597e-002
1951:-1.3784579340839579e-002
1952:1.8064288657661590e-002
1953:2.3030789611101738e-002
1954:2.9234465681060352e-002
1955:3.3777549235016878e-002
1956:9.2401925388954070e-003
1957:1.4612191048907050e-002
1958:2.1322766518012307e-002
1959:2.6237376108907209e-002
1960:-1.7770690443930763e-003
1961:4.0967933803161202e-003
1962:1.1433246313253246e-002
1963:1.6805396472612994e-002
1964:-9.8412789694766988e-003
1965:-3.6036093771336496e-003
1966:4.1853486398230550e-003
1967:9.8873344471875711e-003
1968:3.5597080135778031e-002
1969:3.7943611806000303e-002
1970:4.0873600361341834e-002
1971:4.3018433723492337e-002
1972:2.8266956409872861e-002
1973:3.1024642153924586e-002
1974:3.4455530635153102e-002
1975:3.6957036953966155e-002
1976:1.9094747289825794e-002
1977:2.2362458751443850e-002
1978:2.6412416864900964e-002
1979:2.9352866257749834e-002
1980:1.2364836809730806e-002
1981:1.6003210109160112e-002
1982:2.0501237088338686e-002
1983:2.3757867201823584e-002
1984:4.3654004321855407e-002
1985:4.3915505453388633e-002
1986:4.4175064979937957e-002
1987:4.4311441368856536e-002
1988:3.7780586213361264e-002
1989:3.8394463673556388e-002
1990:3.9086700553222886e-002
1991:3.9533949598043412e-002
1992:3.0412358924014091e-002
1993:3.1477440739272534e-002
1994:3.2723047526752667e-002
1995:3.3567350224002097e-002
1996:2.4991057693904722e-002
1997:2.6395412115140727e-002
1998:2.8056599556996683e-002
1999:2.9198671187467929e-002
2000:4.3905148205856802e-002
2001:4.2252118425256231e-002
2002:4.0033134981099144e-002
2003:3.8284695964051346e-002
2004:3.9297781591997413e-002
2005:3.7974348715030026e-002
2006:3.6163046895261536e-002
2007:3.4709944129600538e-002
2008:3.3550212452351715e-002
2009:3.2654342588610281e-002
2010:3.1371730210794931e-002
2011:3.0301489874792958e-002
2012:2.9347158626902188e-002
2013:2.8777101097637033e-002
2014:2.7897232538323196e-002
2015:2.7118543884542292e-002
2016:3.6858846778989221e-002
2017:3.3247245113691211e-002
2018:2.8451906049372370e-002
2019:2.4712756070096566e-002
2020:3.3455038025714937e-002
2021:3.0194515544570973e-002
2022:2.5846440693219647e-002
2023:2.2441820639991217e-002
2024:2.9270322856143165e-002
2025:2.6472979570269839e-002
2026:2.2715138351864447e-002
2027:1.9752105333631691e-002
2028:2.6259402327027507e-002
2029:2.3820984965233872e-002
2030:2.0520645764132619e-002
2031:1.7899989411874026e-002
2032:2.2165392499895731e-002
2033:1.6325408936705945e-002
2034:8.5778237375115658e-003
2035:2.5415720896590555e-003
2036:2.0108682809483813e-002
2037:1.4745154623323899e-002
2038:7.6250263885823235e-003
2039:2.0741450555715924e-003
2040:1.7701602837727915e-002
2041:1.2966345983323017e-002
2042:6.6735243181983168e-003
2043:1.7625458212259693e-003
2044:1.6068511489321043e-002
2045:1.1819873289406113e-002
2046:6.1677688276162513e-003
2047:1.7523239229667192e-003
2048:-1.3060201737060358e-002
2049:-5.9160888382294607e-002
2050:-1.2160417870622613e-001
2051:-1.7122250439476000e-001
2052:-1.3304728047501758e-002
2053:-5.6917667586959528e-002
2054:-1.1501267309961050e-001
2055:-1.6045328151299751e-001
2056:-1.2810421304555737e-002
2057:-5.3672856141094898e-002
2058:-1.0674080621346312e-001
2059:-1.4722597079319785e-001
2060:-1.1808174621296999e-002
2061:-5.0942121445025947e-002
2062:-1.0065240779210144e-001
2063:-1.3771911418967001e-001
2064:-1.9586977856400864e-001
2065:-2.3635950613219006e-001
2066:-2.8579988721228944e-001
2067:-3.2109707641037560e-001
2068:-1.8273053415493831e-001
2069:-2.1923832699572210e-001
2070:-2.6412616624923674e-001
2071:-2.9642672122059144e-001
2072:-1.6674721296077277e-001
2073:-1.9882616230425842e-001
2074:-2.3877423424488567e-001
2075:-2.6793148771773601e-001
2076:-1.5538570299603385e-001
2077:-1.8465763467277943e-001
2078:-2.2158610344419402e-001
2079:-2.4892163975097029e-001
2080:-3.3486093542405054e-001
2081:-3.5150742696065623e-001
2082:-3.7052270054140524e-001
2083:-3.8302462826591649e-001
2084:-3.0950645059103910e-001
2085:-3.2642127804994153e-001
2086:-3.4604772270878459e-001
2087:-3.5921817564785569e-001
2088:-2.8022761730004742e-001
2089:-2.9713514954671399e-001
2090:-3.1709269634870346e-001
2091:-3.3077798934525737e-001
2092:-2.6070072271887934e-001
2093:-2.7732873624830939e-001
2094:-2.9718265681745243e-001
2095:-3.1098862038904296e-001
2096:-3.8535520929349820e-001
2097:-3.8223477136882772e-001
2098:-3.7696701770106078e-001
2099:-3.7201254196118150e-001
2100:-3.6223409634161385e-001
2101:-3.6090049698535392e-001
2102:-3.5794801231926471e-001
2103:-3.5475576246573992e-001
2104:-3.3451942528354389e-001
2105:-3.3524156300499131e-001
2106:-3.3495029210339894e-001
2107:-3.3378166665081771e-001
2108:-3.1515685540784161e-001
2109:-3.1724338380702988e-001
2110:-3.1871620538240525e-001
2111:-3.1888735792551659e-001
2112:-3.6665553236421961e-001
2113:-3.5175916318506256e-001
2114:-3.3173020982286749e-001
2115:-3.1592429499419900e-001
2116:-3.5042379213102431e-001
2117:-3.3763794944321207e-001
2118:-3.2040780120668827e-001
2119:-3.0678163448550838e-001
2120:-3.3065853460835093e-001
2121:-3.2041947350880040e-001
2122:-3.0657108187930160e-001
2123:-2.9558201162463832e-001
2124:-3.1659220888797762e-001
2125:-3.0814657025609271e-001
2126:-2.9668325155570197e-001
2127:-2.8755682538483957e-001
2128:-3.0610513853089433e-001
2129:-2.8559804246321774e-001
2130:-2.5952670986323800e-001
2131:-2.4006918853568765e-001
2132:-2.9815414348584396e-001
2133:-2.7983795939562206e-001
2134:-2.5642893727649479e-001
2135:-2.3886154660123241e-001
2136:-2.8838752764809233e-001
2137:-2.7267968415218002e-001
2138:-2.5241780864957969e-001
2139:-2.3706632293531643e-001
2140:-2.8136732535580550e-001
2141:-2.6746688233876464e-001
2142:-2.4936694191062142e-001
2143:-2.3552207535005285e-001
2144:-2.2963412636609926e-001
2145:-2.0993506540131851e-001
2146:-1.8493270072943366e-001
2147:-1.6630575997351432e-001
2148:-2.2924614167366864e-001
2149:-2.1079336201860743e-001
2150:-1.8736385826781890e-001
2151:-1.6990166696504988e-001
2152:-2.2844060966454768e-001
2153:-2.1156483212719032e-001
2154:-1.9012348006185731e-001
2155:-1.7413191457250457e-001
2156:-2.2759379830578041e-001
2157:-2.1188911824144871e-001
2158:-1.9192253318613892e-001
2159:-1.7702053331323639e-001
2160:-1.5679343568133200e-001
2161:-1.3980569235914081e-001
2162:-1.1854279933096921e-001
2163:-1.0293675860596481e-001
2164:-1.6091190290067159e-001
2165:-1.4470092469459428e-001
2166:-1.2435164085946322e-001
2167:-1.0936930205272356e-001
2168:-1.6579704249859384e-001
2169:-1.5054760521261223e-001
2170:-1.3132258430786847e-001
2171:-1.1710208169236830e-001
2172:-1.6916698171973046e-001
2173:-1.5461472066043483e-001
2174:-1.3619946767398877e-001
2175:-1.2252307808731473e-001
2176:-9.5323397241248622e-002
2177:-8.2253406387129330e-002
2178:-6.5857301948531802e-002
2179:-5.3793785025549344e-002
2180:-1.0196445814428495e-001
2181:-8.9088739156516092e-002
2182:-7.2930324239698377e-002
2183:-6.1036888548190359e-002
2184:-1.0996260573949798e-001
2185:-9.7367173758602543e-002
2186:-8.1553865299881068e-002
2187:-6.9909154592185704e-002
2188:-1.1558186591086825e-001
2189:-1.0322181263661745e-001
2190:-8.7699826646804632e-002
2191:-7.6266304010873628e-002
2192:-4.8049285034390286e-002
2193:-3.8504768116414775e-002
2194:-2.6592240999312983e-002
2195:-1.7876103743994308e-002
2196:-5.5328506350904139e-002
2197:-4.5749796852744384e-002
2198:-3.3777680940192338e-002
2199:-2.5004392893859455e-002
2200:-6.4258716117871262e-002
2201:-5.4649186156575123e-002
2202:-4.2617317308882116e-002
2203:-3.3783254745577640e-002
2204:-7.0668569390372943e-002
2205:-6.1045987473033435e-002
2206:-4.8982112440684372e-002
2207:-4.0112039710511242e-002
2208:-1.3871121405135727e-002
2209:-7.4802621301482157e-003
2210:4.9879152487745362e-004
2211:6.3389843173765944e-003
2212:-2.0924713871837832e-002
2213:-1.4323092211473621e-002
2214:-6.0835730821250057e-003
2215:-5.4876431674299782e-005
2216:-2.9617261095440963e-002
2217:-2.2768684306528651e-002
2218:-1.4225903002424782e-002
2219:-7.9792923857891895e-003
2220:-3.5888431475029361e-002
2221:-2.8872060770668562e-002
2222:-2.0124875846152062e-002
2223:-1.3732729841483424e-002
2224:8.8975007246136148e-003
2225:1.2700194695910851e-002
2226:1.7399235955751199e-002
2227:2.0799679198627918e-002
2228:2.6206375395913641e-003
2229:6.6738575229145858e-003
2230:1.1685097813420383e-002
2231:1.5313583401443561e-002
2232:-5.1627944767196777e-003
2233:-7.9845660474590322e-004
2234:4.5995687173625791e-003
2235:8.5098372875403085e-003
2236:-1.0817115912229782e-002
2237:-6.2263929723651501e-003
2238:-5.4766581011413129e-004
2239:3.5665041610688395e-003
2240:2.2114901143749401e-002
2241:2.3683759432136475e-002
2242:2.5547275864331337e-002
2243:2.6834992740894448e-002
2244:1.6763520974453449e-002
2245:1.8608059215260233e-002
2246:2.0812164642469728e-002
2247:2.2346288760383148e-002
2248:1.0127529598397156e-002
2249:1.2317434500694764e-002
2250:1.4947231561671867e-002
2251:1.6788529627838968e-002
2252:5.3066312558278659e-003
2253:7.7502670609107026e-003
2254:1.0692015736613023e-002
2255:1.2757771994503796e-002
2256:2.7065809986225972e-002
2257:2.6660187901439231e-002
2258:2.5985163782253289e-002
2259:2.5356044717831708e-002
2260:2.2719085234964312e-002
2261:2.2602030880731858e-002
2262:2.2289461168218318e-002
2263:2.1927378948883490e-002
2264:1.7340358973478791e-002
2265:1.7590816085578949e-002
2266:1.7739420233178017e-002
2267:1.7716757687349600e-002
2268:1.3442060717575997e-002
2269:1.3967306616638827e-002
2270:1.4460387497411204e-002
2271:1.4690982853076401e-002
2272:2.4586549756477491e-002
2273:2.2337074134982968e-002
2274:1.9278462839224374e-002
2275:1.6839408262776898e-002
2276:2.1319824770119334e-002
2277:1.9413969916657302e-002
2278:1.6796513352051280e-002
2279:1.4690081923175566e-002
2280:1.7315315029889325e-002
2281:1.5847352722194598e-002
2282:1.3791863040333686e-002
2283:1.2108975333724242e-002
2284:1.4443546749362967e-002
2285:1.3303207001328587e-002
2286:1.1667998856349691e-002
2287:1.0301736088945032e-002
2288:1.5124496274388867e-002
2289:1.1135129218252651e-002
2290:5.8245883258211490e-003
2291:1.6734533913669157e-003
2292:1.3189192018023732e-002
2293:9.6761944324443988e-003
2294:4.9937035139458776e-003
2295:1.3289338221099212e-003
2296:1.0879948113757275e-002
2297:7.9712327613794751e-003
2298:4.0856692880935153e-003
2299:1.0382235206258588e-003
2300:9.2754237575210438e-003
2301:6.8166401950162303e-003
2302:3.5246329053508262e-003
2303:9.3711469984158135e-004
2304:-1.0929784530617400e-002
2305:-4.8839963432705198e-002
2306:-9.6764241173697751e-002
2307:-1.3231695169303634e-001
2308:-9.2801702630126420e-003
2309:-4.4211885472792194e-002
2310:-8.8642002071695827e-002
2311:-1.2181699387013779e-001
2312:-7.8453746983623736e-003
2313:-3.9115298998022102e-002
2314:-7.9279123993436090e-002
2315:-1.0957612930567563e-001
2316:-7.2955979083315489e-003
2317:-3.5930844640875446e-002
2318:-7.3049053382049978e-002
2319:-1.0131212609860600e-001
2320:-1.4927038795882919e-001
2321:-1.7753223133553844e-001
2322:-2.1331528045833428e-001
2323:-2.3990509692459527e-001
2324:-1.3783131975263591e-001
2325:-1.6478323435840594e-001
2326:-1.9886167659234996e-001
2327:-2.2414843832129083e-001
2328:-1.2442286446232542e-001
2329:-1.4965791114020385e-001
2330:-1.8150217100069621e-001
2331:-2.0508103349597534e-001
2332:-1.1530817756285471e-001
2333:-1.3922137461702302e-001
2334:-1.6934547420481808e-001
2335:-1.9160936111001142e-001
2336:-2.5141245877297375e-001
2337:-2.6774434387737678e-001
2338:-2.8733193906621179e-001
2339:-3.0102578219846127e-001
2340:-2.3511944992588055e-001
2341:-2.5081936517751496e-001
2342:-2.6977185673342685e-001
2343:-2.8312412248610053e-001
2344:-2.1538141165294775e-001
2345:-2.3037397374983146e-001
2346:-2.4865073397726137e-001
2347:-2.6167452765782789e-001
2348:-2.0141807880039528e-001
2349:-2.1595831258137638e-001
2350:-2.3383435121487128e-001
2351:-2.4669620905271897e-001
2352:-3.0532698713838730e-001
2353:-3.0798074945339887e-001
2354:-3.1020940459121293e-001
2355:-3.1097193676544865e-001
2356:-2.8756453528973330e-001
2357:-2.9103419610884085e-001
2358:-2.9440254342718508e-001
2359:-2.9609620563022804e-001
2360:-2.6628691943985522e-001
2361:-2.7066769847314004e-001
2362:-2.7532287971645070e-001
2363:-2.7807800509391006e-001
2364:-2.5143301870039875e-001
2365:-2.5639454785472304e-001
2366:-2.6188261830609022e-001
2367:-2.6533372532928856e-001
2368:-3.0906261552196274e-001
2369:-3.0146847335436017e-001
2370:-2.9111967867751298e-001
2371:-2.8285020443133763e-001
2372:-2.9482368380320056e-001
2373:-2.8864326559224340e-001
2374:-2.8010718508971438e-001
2375:-2.7320268752085325e-001
2376:-2.7754759770644727e-001
2377:-2.7303208873037021e-001
2378:-2.6662675868313451e-001
2379:-2.6132356876277651e-001
2380:-2.6530410209640737e-001
2381:-2.6192700033361555e-001
2382:-2.5697517299544653e-001
2383:-2.5276164300903936e-001
2384:-2.7711749569175975e-001
2385:-2.6404911771286999e-001
2386:-2.4697822935874014e-001
2387:-2.3387872661833164e-001
2388:-2.6819639682878932e-001
2389:-2.5649592054467885e-001
2390:-2.4119370845591998e-001
2391:-2.2943749916085759e-001
2392:-2.5718378510818168e-001
2393:-2.4714265435465943e-001
2394:-2.3398447953036799e-001
2395:-2.2385550887247163e-001
2396:-2.4922370567891741e-001
2397:-2.4035827582562047e-001
2398:-2.2871800890371455e-001
2399:-2.1974013089660618e-001
2400:-2.2631654673455212e-001
2401:-2.1124861042353574e-001
2402:-1.9207557767614583e-001
2403:-1.7775326647614059e-001
2404:-2.2255890525948774e-001
2405:-2.0868350313214837e-001
2406:-1.9097989422486794e-001
2407:-1.7771752141182384e-001
2408:-2.1780583455217048e-001
2409:-2.0537541724660771e-001
2410:-1.8944425134480999e-001
2411:-1.7745386286747958e-001
2412:-2.1427751733900161e-001
2413:-2.0286957596951793e-001
2414:-1.8818595538510149e-001
2415:-1.7708544704713033e-001
2416:-1.7015419697471915e-001
2417:-1.5597765447342599e-001
2418:-1.3801618712228669e-001
2419:-1.2465968474402560e-001
2420:-1.7058726311906344e-001
2421:-1.5713114540200657e-001
2422:-1.4007279124768923e-001
2423:-1.2738024185863928e-001
2424:-1.7089664138218302e-001
2425:-1.5834643436033802e-001
2426:-1.4242197481773411e-001
2427:-1.3056165620167773e-001
2428:-1.7093781965432289e-001
2429:-1.5905585389320473e-001
2430:-1.4396642262198661e-001
2431:-1.3271787347162983e-001
2432:-1.1784934965689724e-001
2433:-1.0566939576010123e-001
2434:-9.0366873281218410e-002
2435:-7.9089665803332265e-002
2436:-1.2085929089025244e-001
2437:-1.0909907948915397e-001
2438:-9.4301753673008221e-002
2439:-8.3379217176705489e-002
2440:-1.2440319138247452e-001
2441:-1.1316807654083004e-001
2442:-9.9000469600611873e-002
2443:-8.8518129509693746e-002
2444:-1.2682567776727460e-001
2445:-1.1597573836091900e-001
2446:-1.0226822772280462e-001
2447:-9.2105991553062247e-002
2448:-7.3540942054621125e-002
2449:-6.3949687021587917e-002
2450:-5.1919964273411931e-002
2451:-4.3070916527221496e-002
2452:-7.7955538581537295e-002
2453:-6.8492470493171365e-002
2454:-5.6619750714912667e-002
2455:-4.7883185103722664e-002
2456:-8.3253725710420001e-002
2457:-7.3965916064030399e-002
2458:-6.2308492490984753e-002
2459:-5.3726694930896511e-002
2460:-8.6960694150770013e-002
2461:-7.7813350362644571e-002
2462:-6.6328950312763341e-002
2463:-5.7871913801281052e-002
2464:-3.8839165309273956e-002
2465:-3.1775106989093201e-002
2466:-2.2968237681707301e-002
2467:-1.6532289396173343e-002
2468:-4.3675561970547165e-002
2469:-3.6591779883751036e-002
2470:-2.7754168483447042e-002
2471:-2.1290819561645021e-002
2472:-4.9554748761888152e-002
2473:-4.2452972044362054e-002
2474:-3.3585348523069276e-002
2475:-2.7093988799473768e-002
2476:-5.3730528590249169e-002
2477:-4.6620891758482857e-002
2478:-3.7738004897586171e-002
2479:-3.1231108190089358e-002
2480:-1.3579730541739691e-002
2481:-8.8954914103843864e-003
2482:-3.1004580203345391e-003
2483:1.0984810033896001e-003
2484:-1.8296242495758126e-002
2485:-1.3486661063399389e-002
2486:-7.5348392083420960e-003
2487:-3.2209022194666266e-003
2488:-2.4050366573576749e-002
2489:-1.9091189658709221e-002
2490:-1.2952992036812185e-002
2491:-8.5029560349796970e-003
2492:-2.8154323091298925e-002
2493:-2.3091174298750110e-002
2494:-1.6824070646395021e-002
2495:-1.2280407102740554e-002
2496:2.8918260585198952e-003
2497:5.4498349210344932e-003
2498:8.5337135986961864e-003
2499:1.0702967179454586e-002
2500:-1.3497909119018279e-003
2501:1.3847470591952374e-003
2502:4.6914161376061525e-003
2503:7.0256549183185055e-003
2504:-6.5372673596878180e-003
2505:-3.5843096622813204e-003
2506:-2.4894127934956540e-006
2507:2.5351075172105027e-003
2508:-1.0247507498504000e-002
2509:-7.1362643864929303e-003
2510:-3.3554566621542907e-003
2511:-6.7111822617122341e-004
2512:1.1450393415571953e-002
2513:1.2109648462045286e-002
2514:1.2771788309374685e-002
2515:1.3127524175208004e-002
2516:7.8771923332016797e-003
2517:8.7621338419016995e-003
2518:9.7110642405384435e-003
2519:1.0280733468378428e-002
2520:3.5153577259152478e-003
2521:4.6799250673821647e-003
2522:5.9836854605920548e-003
2523:6.8176460075586040e-003
2524:4.0232401177380835e-004
2525:1.7698419534684620e-003
2526:3.3307289472687233e-003
2527:4.3558869942354472e-003
2528:1.2957242929978604e-002
2529:1.1982636151980074e-002
2530:1.0560991396595814e-002
2531:9.3563659277241164e-003
2532:1.0244234822613529e-002
2533:9.5598082090794113e-003
2534:8.5139144802329741e-003
2535:7.5950957456774404e-003
2536:6.9463107080834710e-003
2537:6.6200960553940841e-003
2538:6.0378464645407916e-003
2539:5.4715335857957398e-003
2540:4.6039471757426918e-003
2541:4.5366537098918275e-003
2542:4.2893709091567393e-003
2543:3.9776057871027540e-003
2544:8.4340356616859537e-003
2545:6.2063297122272997e-003
2546:3.2190077904412132e-003
2547:8.6746267236484874e-004
2548:6.8571420556939591e-003
2549:5.0390976466053190e-003
2550:2.5917344153932658e-003
2551:6.5822777553607530e-004
2552:4.9592768516551547e-003
2553:3.6403376954352086e-003
2554:1.8512974540982980e-003
2555:4.2782563170032291e-004
2556:3.6269422294289214e-003
2557:2.6634175179058367e-003
2558:1.3435586563143253e-003
2559:2.8387821647739102e-004
2560:-7.2277767918450930e-003
2561:-3.4670907259231512e-002
2562:-7.0330098199400060e-002
2563:-9.7548765976598242e-002
2564:-7.1224800305166574e-003
2565:-3.2736955723791705e-002
2566:-6.5980003423856043e-002
2567:-9.1323631896901070e-002
2568:-6.7515590024229263e-003
2569:-3.0229778349238862e-002
2570:-6.0646127982282590e-002
2571:-8.3792981250486703e-002
2572:-6.2882727458054210e-003
2573:-2.8320490029869909e-002
2574:-5.6819951351724261e-002
2575:-7.8474418027149120e-002
2576:-1.1106965493996855e-001
2577:-1.3421904778370689e-001
2578:-1.6338377670857651e-001
2579:-1.8494085325791568e-001
2580:-1.0393554582480860e-001
2581:-1.2561822015016111e-001
2582:-1.5300434515204772e-001
2583:-1.7330172702217883e-001
2584:-9.5332718371059166e-002
2585:-1.1527913003172040e-001
2586:-1.4057612507255415e-001
2587:-1.5940735257472488e-001
2588:-8.9279595633467601e-002
2589:-1.0803121732128446e-001
2590:-1.3190439925244732e-001
2591:-1.4974786062096138e-001
2592:-1.9449919871484153e-001
2593:-2.0881972617694489e-001
2594:-2.2647746539248567e-001
2595:-2.3922439944611451e-001
2596:-1.8241717329138188e-001
2597:-1.9630657501706725e-001
2598:-2.1346891489221903e-001
2599:-2.2588757947219318e-001
2600:-1.6798617143801278e-001
2601:-1.8129042403156082e-001
2602:-1.9777685361090697e-001
2603:-2.0974456775804423e-001
2604:-1.5794698516322608e-001
2605:-1.7078539126916342e-001
2606:-1.8673112062392302e-001
2607:-1.9833584454621794e-001
2608:-2.4398620890435688e-001
2609:-2.4914557018534408e-001
2610:-2.5493419396573219e-001
2611:-2.5864818558072616e-001
2612:-2.3061539995367636e-001
2613:-2.3598262851821403e-001
2614:-2.4212655702871247e-001
2615:-2.4617732623179533e-001
2616:-2.1441033187109518e-001
2617:-2.2000495310225190e-001
2618:-2.2655528730255695e-001
2619:-2.3100164112023550e-001
2620:-2.0294047173437460e-001
2621:-2.0867579478117704e-001
2622:-2.1549380153257705e-001
2623:-2.2020976747044416e-001
2624:-2.5882674087953211e-001
2625:-2.5595017352249666e-001
2626:-2.5165140024146798e-001
2627:-2.4793839919855662e-001
2628:-2.4665693439083666e-001
2629:-2.4455140990564905e-001
2630:-2.4129041967118725e-001
2631:-2.3839718827959402e-001
2632:-2.3183408521998664e-001
2633:-2.3062842524603372e-001
2634:-2.2858298060898852e-001
2635:-2.2665318856840144e-001
2636:-2.2128201918649423e-001
2637:-2.2068471421998845e-001
2638:-2.1946479039862363e-001
2639:-2.1819208014494912e-001
2640:-2.4468622222766068e-001
2641:-2.3638848539540022e-001
2642:-2.2547883715869499e-001
2643:-2.1705322791631523e-001
2644:-2.3562599807940526e-001
2645:-2.2829110316232301e-001
2646:-2.1861598486269607e-001
2647:-2.1111993856819569e-001
2648:-2.2445291960503980e-001
2649:-2.1826785511587890e-001
2650:-2.1006461909359045e-001
2651:-2.0367498346813168e-001
2652:-2.1638598676419468e-001
2653:-2.1100064976227184e-001
2654:-2.0381912489987422e-001
2655:-1.9819593779434985e-001
2656:-2.1187208121182444e-001
2657:-2.0096060712907429e-001
2658:-1.8689660965976612e-001
2659:-1.7624945125785096e-001
2660:-2.0641434756638902e-001
2661:-1.9635918478675096e-001
2662:-1.8339337013440959e-001
2663:-1.7357329946324540e-001
2664:-1.9954178185155083e-001
2665:-1.9052983888500200e-001
2666:-1.7890026117139587e-001
2667:-1.7008528171233778e-001
2668:-1.9446459334584776e-001
2669:-1.8619548559196777e-001
2670:-1.7551603608659291e-001
2671:-1.6741466826783888e-001
2672:-1.7031861409195184e-001
2673:-1.5880026371287698e-001
2674:-1.4416507939158257e-001
2675:-1.3324922777249945e-001
2676:-1.6804812295044361e-001
2677:-1.5721679303688074e-001
2678:-1.4343912211372195e-001
2679:-1.3315072809565984e-001
2680:-1.6505464512242035e-001
2681:-1.5506335590749831e-001
2682:-1.4233100668741136e-001
2683:-1.3280494046330438e-001
2684:-1.6273644883802516e-001
2685:-1.5334583340906549e-001
2686:-1.4135833928344518e-001
2687:-1.3237338398080428e-001
2688:-1.2750346266211449e-001
2689:-1.1687176691968648e-001
2690:-1.0343212777830975e-001
2691:-9.3462266843278505e-002
2692:-1.2768572764701985e-001
2693:-1.1748785323900410e-001
2694:-1.0459334599175042e-001
2695:-9.5025293719187345e-002
2696:-1.2768519660293645e-001
2697:-1.1803061804002678e-001
2698:-1.0581771262500869e-001
2699:-9.6751188600491936e-002
2700:-1.2750211758316618e-001
2701:-1.1824653321219772e-001
2702:-1.0653331999621549e-001
2703:-9.7833777491694515e-002
2704:-8.8395512719030470e-002
2705:-7.9354384570403738e-002
2706:-6.8000756130347853e-002
2707:-5.9637963136304747e-002
2708:-9.0131969416950924e-002
2709:-8.1340680027325613e-002
2710:-7.0293955154192400e-002
2711:-6.2151774368017595e-002
2712:-9.2074957042513769e-002
2713:-8.3597886986240752e-002
2714:-7.2936254470760201e-002
2715:-6.5070160530501714e-002
2716:-9.3316896510627495e-002
2717:-8.5071652964562081e-002
2718:-7.4693423061436170e-002
2719:-6.7029929080259190e-002
2720:-5.5527134280995899e-002
2721:-4.8439907281756248e-002
2722:-3.9583139121982962e-002
2723:-3.3093869810322946e-002
2724:-5.8122256601341814e-002
2725:-5.1124785728678547e-002
2726:-4.2378423457570036e-002
2727:-3.5968638662568914e-002
2728:-6.1144265308682076e-002
2729:-5.4266397752887496e-002
2730:-4.5667341748587643e-002
2731:-3.9363758687934930e-002
2732:-6.3181565258689149e-002
2733:-5.6397280911935341e-002
2734:-4.7913624070188558e-002
2735:-4.1693352608656718e-002
2736:-3.0013473581931661e-002
2737:-2.4920820563567880e-002
2738:-1.8616081063086130e-002
2739:-1.4044229938926027e-002
2740:-3.2906374064803713e-002
2741:-2.7803622188991212e-002
2742:-2.1482181817881800e-002
2743:-1.6894828868814254e-002
2744:-3.6327416765159437e-002
2745:-3.1217496210610794e-002
2746:-2.4882103990140167e-002
2747:-2.0280532998623601e-002
2748:-3.8678615796112668e-002
2749:-3.3567805266655537e-002
2750:-2.7227727195626539e-002
2751:-2.2619863261748415e-002
2752:-1.1986257568013805e-002
2753:-8.8096567038888612e-003
2754:-4.9457466788470836e-003
2755:-2.1993788873311782e-003
2756:-1.4809020211944373e-002
2757:-1.1545196443105773e-002
2758:-7.5681030358470689e-003
2759:-4.7354598996396345e-003
2760:-1.8163038014176704e-002
2761:-1.4796790039251106e-002
2762:-1.0686868159887598e-002
2763:-7.7530371187852741e-003
2764:-2.0481632747705106e-002
2765:-1.7045602116196986e-002
2766:-1.2845251508075802e-002
2767:-9.8425853704094835e-003
2768:-1.0846112628806511e-003
2769:3.7596861094986537e-004
2770:2.0560973761490037e-003
2771:3.1709786153463820e-003
2772:-3.5588488013837006e-003
2773:-1.9523989735810983e-003
2774:-8.2457659979055429e-005
2775:1.1775163462378734e-003
2776:-6.5029999784159175e-003
2777:-4.7221091267184044e-003
2778:-2.6252324924538753e-003
2779:-1.1918314742692050e-003
2780:-8.5418372853485938e-003
2781:-6.6394166008502641e-003
2782:-4.3844844791206287e-003
2783:-2.8303308150905726e-003
2784:3.4762432314392726e-003
2785:3.5345519276333967e-003
2786:3.4504796939355928e-003
2787:3.2632970845924321e-003
2788:1.5773180904628821e-003
2789:1.8456954934317293e-003
2790:2.0360608955262245e-003
2791:2.0594936802718271e-003
2792:-6.7986476004081920e-004
2793:-1.6348478599294161e-004
2794:3.5092002615513612e-004
2795:6.2306865626931716e-004
2796:-2.2409640986395495e-003
2797:-1.5544909110624949e-003
2798:-8.1780531826370479e-004
2799:-3.7501678730528817e-004
2800:2.9919409752335517e-003
2801:2.2027982391109109e-003
2802:1.1129369735655152e-003
2803:2.3143674106027579e-004
2804:1.9224638770878853e-003
2805:1.4282969647288792e-003
2806:7.2713123271825602e-004
2807:1.4648464626023297e-004
2808:6.4234723878176512e-004
2809:4.8800075576903870e-004
2810:2.3520868326502948e-004
2811:2.0514428192220022e-006
2812:-2.5046015599483265e-004
2813:-1.7887339955759355e-004
2814:-1.3305123022924783e-004
2815:-1.3439740891112219e-004
2816:-5.9827969937032918e-003
2817:-2.7299824604627324e-002
2818:-5.4865698419206174e-002
2819:-7.5804263073850284e-002
2820:-5.4595866888432366e-003
2821:-2.5474488198688538e-002
2822:-5.1369966465449599e-002
2823:-7.1050116109166200e-002
2824:-4.9231926412393609e-003
2825:-2.3336799120669292e-002
2826:-4.7180239161226697e-002
2827:-6.5316124540441625e-002
2828:-4.6241671511754031e-003
2829:-2.1885282462622006e-002
2830:-4.4253558756073452e-002
2831:-6.1280664057474371e-002
2832:-8.6258730720440990e-002
2833:-1.0443097690110863e-001
2834:-1.2759748181981162e-001
2835:-1.4493705698198667e-001
2836:-8.0894321017592183e-002
2837:-9.8043617246981588e-002
2838:-1.1992522503915203e-001
2839:-1.3631813767280973e-001
2840:-7.4409962686142847e-002
2841:-9.0299075346561869e-002
2842:-1.1060142739484766e-001
2843:-1.2583369024224753e-001
2844:-6.9834531424730534e-002
2845:-8.4814864847344101e-002
2846:-1.0398128066693427e-001
2847:-1.1838105169928667e-001
2848:-1.5292689654544128e-001
2849:-1.6548046520840098e-001
2850:-1.8109602584641293e-001
2851:-1.9247947321118380e-001
2852:-1.4389782850401830e-001
2853:-1.5587509230069299e-001
2854:-1.7082725328523304e-001
2855:-1.8177008345335402e-001
2856:-1.3290904437246337e-001
2857:-1.4417547636500883e-001
2858:-1.5831569065464379e-001
2859:-1.6872472353543158e-001
2860:-1.2509345931560681e-001
2861:-1.3584656560125805e-001
2862:-1.4940555045291098e-001
2863:-1.5943694529644925e-001
2864:-1.9703601657400119e-001
2865:-2.0281004378772269e-001
2866:-2.0971499423558812e-001
2867:-2.1452553157082629e-001
2868:-1.8621527464480706e-001
2869:-1.9199692281032726e-001
2870:-1.9896450067101931e-001
2871:-2.0386341830726867e-001
2872:-1.7302584333083121e-001
2873:-1.7878089858022894e-001
2874:-1.8578251827876349e-001
2875:-1.9076021139679017e-001
2876:-1.6362857092944580e-001
2877:-1.6933524107682552e-001
2878:-1.7632641592818904e-001
2879:-1.8133648329341756e-001
2880:-2.1569312605446270e-001
2881:-2.1535158658891962e-001
2882:-2.1448404022183082e-001
2883:-2.1349572213212567e-001
2884:-2.0515534921967246e-001
2885:-2.0518600556788644e-001
2886:-2.0484237025932503e-001
2887:-2.0428495703831565e-001
2888:-1.9218942512923143e-001
2889:-1.9264862379332928e-001
2890:-1.9291408663332274e-001
2891:-1.9286181464980937e-001
2892:-1.8285180075608748e-001
2893:-1.8359571401275973e-001
2894:-1.8427094934760843e-001
2895:-1.8456210101159606e-001
2896:-2.1186519761734196e-001
2897:-2.0684587390544890e-001
2898:-2.0014037679219998e-001
2899:-1.9488087698986961e-001
2900:-2.0292861454414343e-001
2901:-1.9849800538467122e-001
2902:-1.9257663150603890e-001
2903:-1.8793039579745699e-001
2904:-1.9182900353185525e-001
2905:-1.8809522070750354e-001
2906:-1.8310390589636649e-001
2907:-1.7918652681861896e-001
2908:-1.8375104752689839e-001
2909:-1.8049671180879701e-001
2910:-1.7614695672900188e-001
2911:-1.7273357429882005e-001
2912:-1.9134457814562239e-001
2913:-1.8344138223503603e-001
2914:-1.7323211353475029e-001
2915:-1.6548557171415884e-001
2916:-1.8472925217947023e-001
2917:-1.7746048246092472e-001
2918:-1.6807088551171176e-001
2919:-1.6094638829111729e-001
2920:-1.7638647630836726e-001
2921:-1.6988091306801995e-001
2922:-1.6147654887153648e-001
2923:-1.5509910360918638e-001
2924:-1.7021320221258557e-001
2925:-1.6424312823340959e-001
2926:-1.5652935072229529e-001
2927:-1.5067501312906195e-001
2928:-1.6098378911396788e-001
2929:-1.5189806168922915e-001
2930:-1.4029530446569302e-001
2931:-1.3159522246201225e-001
2932:-1.5675670902600186e-001
2933:-1.4821938931125733e-001
2934:-1.3732200529564390e-001
2935:-1.2915477869989400e-001
2936:-1.5128748560427441e-001
2937:-1.4342084080060050e-001
2938:-1.3338526293911293e-001
2939:-1.2586841984334735e-001
2940:-1.4713082003366731e-001
2941:-1.3974384178948562e-001
2942:-1.3032394913113340e-001
2943:-1.2327122029278775e-001
2944:-1.2685874187692703e-001
2945:-1.1782536618360787e-001
2946:-1.0639193920867139e-001
2947:-9.7899070978036379e-002
2948:-1.2467602912223168e-001
2949:-1.1607411256950038e-001
2950:-1.0518647008144132e-001
2951:-9.7098773063312716e-002
2952:-1.2170572311963819e-001
2953:-1.1363572062540905e-001
2954:-1.0341970252142985e-001
2955:-9.5829621156797426e-002
2956:-1.1933526842555954e-001
2957:-1.1164917523244429e-001
2958:-1.0191690235359137e-001
2959:-9.4684442361984644e-002
2960:-9.3474153005409163e-002
2961:-8.5368162417619173e-002
2962:-7.5163360841458415e-002
2963:-6.7626461330655030e-002
2964:-9.2858475447472943e-002
2965:-8.5042393632231011e-002
2966:-7.5203916414213048e-002
2967:-6.7938644936066980e-002
2968:-9.1818247984414930e-002
2969:-8.4366574071690181e-002
2970:-7.4987987784947571e-002
2971:-6.8063272948831410e-002
2972:-9.0839365985195500e-002
2973:-8.3656382379733954e-002
2974:-7.4616436279399762e-002
2975:-6.7942131010657519e-002
2976:-6.3830780404592752e-002
2977:-5.7119074974986715e-002
2978:-4.8725309056052123e-002
2979:-4.2570252030424548e-002
2980:-6.4262057776856812e-002
2981:-5.7725934063997203e-002
2982:-4.9549923527351894e-002
2983:-4.3553080938508584e-002
2984:-6.4537007385442907e-002
2985:-5.8224811264630326e-002
2986:-5.0326181574237717e-002
2987:-4.4530607127044895e-002
2988:-6.4527198914626993e-002
2989:-5.8382678580530797e-002
2990:-5.0691489241548496e-002
2991:-4.5046223301095194e-002
2992:-3.9578076511938308e-002
2993:-3.4487496825670032e-002
2994:-2.8170844888247417e-002
2995:-2.3578659916053561e-002
2996:-4.0622821683524851e-002
2997:-3.5607961754859960e-002
2998:-2.9382483230771882e-002
2999:-2.4854337777440047e-002
3000:-4.1680664050025358e-002
3001:-3.6768001166708301e-002
3002:-3.0665919634208144e-002
3003:-2.6224731776479208e-002
3004:-4.2257480234360982e-002
3005:-3.7425754941137757e-002
3006:-3.1421654636252780e-002
3007:-2.7049724129877398e-002
3008:-2.1439590860179450e-002
3009:-1.7985289347993712e-002
3010:-1.3759448948552352e-002
3011:-1.0735980515954199e-002
3012:-2.2732232472947308e-002
3013:-1.9277894954474472e-002
3014:-1.5045191745161307e-002
3015:-1.2011239351369581e-002
3016:-2.4127908344291835e-002
3017:-2.0681937811448892e-002
3018:-1.6451258424785623e-002
3019:-1.3412041353143452e-002
3020:-2.4974691403899706e-002
3021:-2.1541582588421145e-002
3022:-1.7320868319416094e-002
3023:-1.4284065010219286e-002
3024:-9.4164849308626206e-003
3025:-7.4646727355032307e-003
3026:-5.1440401445023319e-003
3027:-3.5385660654207430e-003
3028:-1.0671707608742026e-002
3029:-8.6558517827811671e-003
3030:-6.2464305816157632e-003
3031:-4.5688965097316755e-003
3032:-1.2052709769727355e-002
3033:-9.9686815056683094e-003
3034:-7.4634911990904733e-003
3035:-5.7073255750813160e-003
3036:-1.2914418505853752e-002
3037:-1.0789932677648478e-002
3038:-8.2267269910052156e-003
3039:-6.4220874406457525e-003
3040:-2.9152326484951940e-003
3041:-2.1526390064688723e-003
3042:-1.3154648981941956e-003
3043:-7.9475847098766641e-004
3044:-3.8953901374476295e-003
3045:-3.0170567365058378e-003
3046:-2.0248305107686978e-003
3047:-1.3821852149337238e-003
3048:-4.9793092253142676e-003
3049:-3.9756829307469434e-003
3050:-2.8147081075679710e-003
3051:-2.0386818110807244e-003
3052:-5.6606859700842034e-003
3053:-4.5807385746135998e-003
3054:-3.3161419746200451e-003
3055:-2.4575954675056556e-003
3056:-6.2218908493242046e-004
3057:-4.4823678444402950e-004
3058:-2.6746603569995688e-004
3059:-1.6431574535164548e-004
3060:-1.1347871959943806e-003
3061:-8.0306285933844719e-004
3062:-4.1506096098593056e-004
3063:-1.5201909775592099e-004
3064:-1.7128053921721888e-003
3065:-1.2213951322397948e-003
3066:-6.2324365813859050e-004
3067:-1.9775046809133675e-004
3068:-2.0862485285030596e-003
3069:-1.5078285390476302e-003
3070:-7.9477096444580369e-004
3071:-2.8014850813596394e-004
3072:-4.4986886356804057e-003
3073:-2.1163503957384183e-002
3074:-4.2767226980015734e-002
3075:-5.9218652326146710e-002
3076:-4.2593544951368073e-003
3077:-1.9836549901477565e-002
3078:-4.0043201469938977e-002
3079:-5.5440682777016213e-002
3080:-3.9332153244603504e-003
3081:-1.8183767797791281e-002
3082:-3.6688183974698259e-002
3083:-5.0802959963053021e-002
3084:-3.6726123358174060e-003
3085:-1.6977180303481030e-002
3086:-3.4269319682830555e-002
3087:-4.7471787041827335e-002
3088:-6.7490689288905684e-002
3089:-8.1994240593729395e-002
3090:-1.0056449914476753e-001
3091:-1.1452720575278447e-001
3092:-6.3192867371803893e-002
3093:-7.6810099383062283e-002
3094:-9.4271433014201739e-002
3095:-1.0742059336523915e-001
3096:-5.7917718796713188e-002
3097:-7.0439413298456863e-002
3098:-8.6533317051176090e-002
3099:-9.8681888382865540e-002
3100:-5.4129291432237873e-002
3101:-6.5857961172448576e-002
3102:-8.0964663316203639e-002
3103:-9.2392982922951047e-002
3104:-1.2104687559498288e-001
3105:-1.3151892785101418e-001
3106:-1.4474953480606986e-001
3107:-1.5455861481812685e-001
3108:-1.1357595730674432e-001
3109:-1.2349760975368815e-001
3110:-1.3606539303754009e-001
3111:-1.4540883371612745e-001
3112:-1.0438344927998695e-001
3113:-1.1360686561973131e-001
3114:-1.2533578949100369e-001
3115:-1.3409158281289404e-001
3116:-9.7763217268057437e-002
3117:-1.0646671072552166e-001
3118:-1.1757257480410840e-001
3119:-1.2589320571933241e-001
3120:-1.5867322919286278e-001
3121:-1.6431015765082541e-001
3122:-1.7124145592269624e-001
3123:-1.7622948046340714e-001
3124:-1.4934467949710015e-001
3125:-1.5478003644911337e-001
3126:-1.6151243749783981e-001
3127:-1.6639714497029390e-001
3128:-1.3779720308128710e-001
3129:-1.4296100854187466e-001
3130:-1.4942273980609960e-001
3131:-1.5416409038981671e-001
3132:-1.2942468302664470e-001
3133:-1.3437380004878924e-001
3134:-1.4061952015599294e-001
3135:-1.4524443673895143e-001
3136:-1.7776899026386433e-001
3137:-1.7862208134846080e-001
3138:-1.7946219276823977e-001
3139:-1.7989690434320860e-001
3140:-1.6794641280801675e-001
3141:-1.6893176970535650e-001
3142:-1.6999032953364188e-001
3143:-1.7062763378587353e-001
3144:-1.5571318138416146e-001
3145:-1.5683122014819628e-001
3146:-1.5812275133731335e-001
3147:-1.5898449437497067e-001
3148:-1.4678349861369600e-001
3149:-1.4797265894525152e-001
3150:-1.4940286237798867e-001
3151:-1.5040605384768049e-001
3152:-1.7918260227451491e-001
3153:-1.7614350152142319e-001
3154:-1.7208675666628839e-001
3155:-1.6890729320200390e-001
3156:-1.7005927940321397e-001
3157:-1.6735852588662714e-001
3158:-1.6377295872463624e-001
3159:-1.6097741399010199e-001
3160:-1.5858327716760967e-001
3161:-1.5627647632355879e-001
3162:-1.5324369547429895e-001
3163:-1.5090156148468722e-001
3164:-1.5011509270748710e-001
3165:-1.4807383273924701e-001
3166:-1.4541723761430703e-001
3167:-1.4338621599374760e-001
3168:-1.6651899480509022e-001
3169:-1.6080636855462796e-001
3170:-1.5343045381975928e-001
3171:-1.4783657668423247e-001
3172:-1.5880976527207930e-001
3173:-1.5353530585519429e-001
3174:-1.4674652982358777e-001
3175:-1.4161450788227958e-001
3176:-1.4899666240610768e-001
3177:-1.4424704679871742e-001
3178:-1.3816320767412157e-001
3179:-1.3358693623772949e-001
3180:-1.4166343486506777e-001
3181:-1.3728018291589517e-001
3182:-1.3168979940245062e-001
3183:-1.2750357998491227e-001
3184:-1.4442812097824548e-001
3185:-1.3728829389288361e-001
3186:-1.2818853071586864e-001
3187:-1.2137937562466743e-001
3188:-1.3845072328832764e-001
3189:-1.3176136719362619e-001
3190:-1.2325072996194171e-001
3191:-1.1689417214145199e-001
3192:-1.3071958113010504e-001
3193:-1.2457924460183302e-001
3194:-1.1678673436460674e-001
3195:-1.1098197031220534e-001
3196:-1.2484594906554326e-001
3197:-1.1909673093719052e-001
3198:-1.1181590808915993e-001
3199:-1.0640438871672575e-001
3200:-1.1756409514348291e-001
3201:-1.1008590625453900e-001
3202:-1.0061922894388244e-001
3203:-9.3585994787078131e-002
3204:-1.1330629423849968e-001
3205:-1.0622663941120555e-001
3206:-9.7275839395297770e-002
3207:-9.0634856942358191e-002
3208:-1.0767358548238448e-001
3209:-1.0108805979518605e-001
3210:-9.2776613099893129e-002
3211:-8.6621563064534682e-002
3212:-1.0329703486453658e-001
3213:-9.7070423241977261e-002
3214:-8.9223160809621394e-002
3215:-8.3420742481113863e-002
3216:-8.9836221869636010e-002
3217:-8.2811622281199496e-002
3218:-7.3972509822427576e-002
3219:-6.7447677437126596e-002
3220:-8.7076836210144129e-002
3221:-8.0377190753710595e-002
3222:-7.1952161123542149e-002
3223:-6.5737120135698962e-002
3224:-8.3302662689770435e-002
3225:-7.7011319860458713e-002
3226:-6.9106105403495030e-002
3227:-6.3279583908527823e-002
3228:-8.0276636339869839e-002
3229:-7.4286224465612685e-002
3230:-6.6763749300052674e-002
3231:-6.1222996025603743e-002
3232:-6.4101391581865660e-002
3233:-5.8064971134550114e-002
3234:-5.0508874550130714e-002
3235:-4.4962591741292295e-002
3236:-6.2536884974480317e-002
3237:-5.6738338221368742e-002
3238:-4.9481609482304956e-002
3239:-4.4156352475667786e-002
3240:-6.0264259640504768e-002
3241:-5.4770559684474696e-002
3242:-4.7897230832850572e-002
3243:-4.2854838829141609e-002
3244:-5.8345070061416322e-002
3245:-5.3080794565675896e-002
3246:-4.6495809668706638e-002
3247:-4.1665994233281808e-002
3248:-4.2217122375097171e-002
3249:-3.7449043434125896e-002
3250:-3.1522566710556602e-002
3251:-2.7205978657578376e-002
3252:-4.1511777539111616e-002
3253:-3.6900605123860425e-002
3254:-3.1166136823722271e-002
3255:-2.6986971012063387e-002
3256:-4.0340695580571878e-002
3257:-3.5935223062146665e-002
3258:-3.0452551671943651e-002
3259:-2.6453664207136924e-002
3260:-3.9250894647462391e-002
3261:-3.5003831962505665e-002
3262:-2.9715130392549777e-002
3263:-2.5855168476817760e-002
3264:-2.5152380061499245e-002
3265:-2.1744490101211131e-002
3266:-1.7551544912042187e-002
3267:-1.4532089833423268e-002
3268:-2.4991605307733734e-002
3269:-2.1664949279725138e-002
3270:-1.7565537807366111e-002
3271:-1.4608226170500681e-002
3272:-2.4536431010716002e-002
3273:-2.1322869016216044e-002
3274:-1.7354764840144903e-002
3275:-1.4485639477837034e-002
3276:-2.3999471325383548e-002
3277:-2.0878036685805172e-002
3278:-1.7017679100996733e-002
3279:-1.4221590603083065e-002
3280:-1.3165583012785108e-002
3281:-1.1035756013258916e-002
3282:-8.4609785583921824e-003
3283:-6.6439418727977512e-003
3284:-1.3263307694301009e-002
3285:-1.1152530233238206e-002
3286:-8.5905614922296616e-003
3287:-6.7741096826017576e-003
3288:-1.3174019048726511e-002
3289:-1.1100247190248611e-002
3290:-8.5708442639516307e-003
3291:-6.7673068287869001e-003
3292:-1.2939424241979466e-002
3293:-1.0903328551063315e-002
3294:-8.4110368879562088e-003
3295:-6.6267109578652750e-003
3296:-5.8721665852077146e-003
3297:-4.7662461058437930e-003
3298:-3.4644949169974223e-003
3299:-2.5749674073947603e-003
3300:-5.9958263887695878e-003
3301:-4.8665090294745970e-003
3302:-3.5260145737764865e-003
3303:-2.6004945810874985e-003
3304:-5.9892042539371766e-003
3305:-4.8497546677173002e-003
3306:-3.4853197616306606e-003
3307:-2.5332337973253661e-003
3308:-5.8553934124847083e-003
3309:-4.7238090654239109e-003
3310:-3.3614192276508340e-003
3311:-2.4046028993475310e-003
3312:-2.1875028756120655e-003
3313:-1.5807660879306486e-003
3314:-8.3032509874268875e-004
3315:-2.8671458846901059e-004
3316:-2.1964191833831735e-003
3317:-1.5666851711957487e-003
3318:-7.8597848742236734e-004
3319:-2.1897106741669979e-004
3320:-2.1228577606140398e-003
3321:-1.5004153571247657e-003
3322:-7.2888199509383385e-004
3323:-1.6864470616195415e-004
3324:-2.0011795100165204e-003
3325:-1.4129116020997698e-003
3326:-6.8570567442535963e-004
3327:-1.5924319580868656e-004
3328:-3.5244912213036150e-003
3329:-1.6323895056041617e-002
3330:-3.2966096253163012e-002
3331:-4.5677440705155510e-002
3332:-3.2455250671068856e-003
3333:-1.5075614153824485e-002
3334:-3.0465538730229526e-002
3335:-4.2226589263199707e-002
3336:-2.9064486715536819e-003
3337:-1.3518142745809493e-002
3338:-2.7334591621954223e-002
3339:-3.7902064012569528e-002
3340:-2.6656462882355533e-003
3341:-1.2378983393988666e-002
3342:-2.5035735736041446e-002
3343:-3.4723871987156749e-002
3344:-5.2085847680886206e-002
3345:-6.3377286502786456e-002
3346:-7.7938137849011394e-002
3347:-8.8966956373720416e-002
3348:-4.8149607136970772e-002
3349:-5.8583359466291354e-002
3350:-7.2070069462084357e-002
3351:-8.2310028491215548e-002
3352:-4.3214145631960105e-002
3353:-5.2566487273274287e-002
3354:-6.4700840283542824e-002
3355:-7.3949188635147947e-002
3356:-3.9584841531756843e-002
3357:-4.8137180545700160e-002
3358:-5.9272653540880779e-002
3359:-6.7789826262108305e-002
3360:-9.4149310524794916e-002
3361:-1.0255014574472171e-001
3362:-1.1329275464676904e-001
3363:-1.2135921172771227e-001
3364:-8.7115596494170972e-002
3365:-9.4899009151019106e-002
3366:-1.0489946439406693e-001
3367:-1.1244570034775694e-001
3368:-7.8277550739661278e-002
3369:-8.5271792387454276e-002
3370:-9.4325332665138706e-002
3371:-1.0120921833909370e-001
3372:-7.1763467942246834e-002
3373:-7.8165415798359728e-002
3374:-8.6509588446267036e-002
3375:-9.2898381764362256e-002
3376:-1.2478452822730803e-001
3377:-1.2959055926201252e-001
3378:-1.3568397940594318e-001
3379:-1.4021852211241045e-001
3380:-1.1564644093660811e-001
3381:-1.2013051183779984e-001
3382:-1.2586882208600292e-001
3383:-1.3018097871497830e-001
3384:-1.0411926133732712e-001
3385:-1.0817554530862028e-001
3386:-1.1344046534598164e-001
3387:-1.1745475138115349e-001
3388:-9.5587391767758004e-002
3389:-9.9309883393669557e-002
3390:-1.0420425580305868e-001
3391:-1.0798432354886030e-001
3392:-1.4173513640492891e-001
3393:-1.4292795213761014e-001
3394:-1.4439144100217680e-001
3395:-1.4544200014534003e-001
3396:-1.3162546949572893e-001
3397:-1.3276838487355574e-001
3398:-1.3422791034567116e-001
3399:-1.3532229437890317e-001
3400:-1.1879720258333279e-001
3401:-1.1985293747925908e-001
3402:-1.2127849083308054e-001
3403:-1.2240797965535316e-001
3404:-1.0924248229515403e-001
3405:-1.1021447901439028e-001
3406:-1.1159192006780970e-001
3407:-1.1273139595830367e-001
3408:-1.4519541786840129e-001
3409:-1.4326993548695302e-001
3410:-1.4078482077595519e-001
3411:-1.3890088305095602e-001
3412:-1.3513571673871114e-001
3413:-1.3338561605409710e-001
3414:-1.3117624392243454e-001
3415:-1.2953960894299474e-001
3416:-1.2228520897860394e-001
3417:-1.2073165471453884e-001
3418:-1.1883993623855105e-001
3419:-1.1749368456358787e-001
3420:-1.1264643002495148e-001
3421:-1.1121877910450277e-001
3422:-1.0953824777420962e-001
3423:-1.0838982049157664e-001
3424:-1.3726646121770403e-001
3425:-1.3306433740953480e-001
3426:-1.2772262499461973e-001
3427:-1.2373646413882977e-001
3428:-1.2805805163555126e-001
3429:-1.2417557658772674e-001
3430:-1.1928181068808343e-001
3431:-1.1566265607998900e-001
3432:-1.1619443812264882e-001
3433:-1.1269698683354235e-001
3434:-1.0834587765306822e-001
3435:-1.0517353509964428e-001
3436:-1.0721717295458821e-001
3437:-1.0399027392941081e-001
3438:-1.0002305404705521e-001
3439:-9.7168621244899681e-002
3440:-1.2118812197545742e-001
3441:-1.1564578922466957e-001
3442:-1.0863960601331278e-001
3443:-1.0344219501035572e-001
3444:-1.1331773947825320e-001
3445:-1.0816570856496782e-001
3446:-1.0168505726223812e-001
3447:-9.6902929697339865e-002
3448:-1.0307833142605806e-001
3449:-9.8408639609690193e-002
3450:-9.2578569172589095e-002
3451:-8.8311374716961530e-002
3452:-9.5252775727927216e-002
3453:-9.0932157301172628e-002
3454:-8.5573827161640040e-002
3455:-8.1680687696168527e-002
3456:-1.0044632144445287e-001
3457:-9.4421858446720686e-002
3458:-8.6838001932700512e-002
3459:-8.1237208614863818e-002
3460:-9.4126464125702719e-002
3461:-8.8504478070835543e-002
3462:-8.1448557964367757e-002
3463:-7.6254558823811103e-002
3464:-8.5808847461199364e-002
3465:-8.0692610838675544e-002
3466:-7.4300227111933251e-002
3467:-6.9617610188992513e-002
3468:-7.9378671141961579e-002
3469:-7.4635218391629010e-002
3470:-6.8732029907302233e-002
3471:-6.4426514090965351e-002
3472:-7.8194762243282687e-002
3473:-7.2382596398659960e-002
3474:-6.5088404340569575e-002
3475:-5.9719339088134059e-002
3476:-7.3420125341784617e-002
3477:-6.7978055034865467e-002
3478:-6.1160569847037272e-002
3479:-5.6152150671503039e-002
3480:-6.7046547461465406e-002
3481:-6.2076590073136949e-002
3482:-5.5867037511355078e-002
3483:-5.1318402346921213e-002
3484:-6.2051158206892207e-002
3485:-5.7434804849564342e-002
3486:-5.1680442347220606e-002
3487:-4.7475961752991382e-002
3488:-5.6925918121129807e-002
3489:-5.1806172714340931e-002
3490:-4.5403275139789097e-002
3491:-4.0708050375547970e-002
3492:-5.3539207514192326e-002
3493:-4.8733125328379652e-002
3494:-4.2726126807331968e-002
3495:-3.8324110532247609e-002
3496:-4.8937018651914153e-002
3497:-4.4536249747799600e-002
3498:-3.9040661865504742e-002
3499:-3.5017271159254973e-002
3500:-4.5269056608113679e-002
3501:-4.1175927217190551e-002
3502:-3.6068379131926419e-002
3503:-3.2332173207038059e-002
3504:-3.8357369369524295e-002
3505:-3.4216855645983271e-002
3506:-2.9059206871432239e-002
3507:-2.5293586179194534e-002
3508:-3.6116440406049707e-002
3509:-3.2217823255267522e-002
3510:-2.7358604431931423e-002
3511:-2.3808548969986333e-002
3512:-3.2995675490760157e-002
3513:-2.9414663387393250e-002
3514:-2.4947418584417562e-002
3515:-2.1680613121252287e-002
3516:-3.0452799278886548e-002
3517:-2.7116745816375531e-002
3518:-2.2951926108379518e-002
3519:-1.9903747943608951e-002
3520:-2.3481591402460131e-002
3521:-2.0429583061975645e-002
3522:-1.6651256050997501e-002
3523:-1.3911485516796711e-002
3524:-2.2098989335089841e-002
3525:-1.9214817896043575e-002
3526:-1.5635831811821089e-002
3527:-1.3033793101435752e-002
3528:-2.0106753644860594e-002
3529:-1.7447261962217700e-002
3530:-1.4135796336336335e-002
3531:-1.1719158663180405e-002
3532:-1.8435467430323312e-002
3533:-1.5952549338729291e-002
3534:-1.2851823579731421e-002
3535:-1.0581654420001210e-002
3536:-1.2654124990035084e-002
3537:-1.0654962334547003e-002
3538:-8.2026739959766178e-003
3539:-6.4427359297102842e-003
3540:-1.1839588841751783e-002
3541:-9.9401285180253270e-003
3542:-7.5992550528660866e-003
3543:-5.9104019658020200e-003
3544:-1.0611333199923526e-002
3545:-8.8511846776197691e-003
3546:-6.6677166037449991e-003
3547:-5.0808376646874149e-003
3548:-9.5430823214734169e-003
3549:-7.8967818419713228e-003
3550:-5.8431848441125320e-003
3551:-4.3415365953033396e-003
3552:-5.6826387627179082e-003
3553:-4.5694603153196940e-003
3554:-3.2245244041313702e-003
3555:-2.2760572142841865e-003
3556:-5.1841995980621463e-003
3557:-4.1280966891171196e-003
3558:-2.8412232427437309e-003
3559:-1.9246841809132610e-003
3560:-4.4041344920343591e-003
3561:-3.4330717456882401e-003
3562:-2.2357477924637441e-003
3563:-1.3714385452601662e-003
3564:-3.7068156958600198e-003
3565:-2.8090350576564643e-003
3566:-1.6909186168451028e-003
3567:-8.7474406734061214e-004
3568:-1.8827343754922513e-003
3569:-1.3267506840805253e-003
3570:-6.4157851685540555e-004
3571:-1.4726516617101967e-004
3572:-1.5586712892372121e-003
3573:-1.0801334925636080e-003
3574:-4.9593659088222964e-004
3575:-7.8961832918780027e-005
3576:-1.0477754363691278e-003
3577:-6.8492275863953859e-004
3578:-2.5157130107868056e-004
3579:4.9858337120342129e-005
3580:-5.8868878487127558e-004
3581:-3.2572336171799040e-004
3582:-2.2626877323682252e-005
3583:1.7902280832753545e-004
3584:-2.5285237322403070e-003
3585:-1.1719641992300743e-002
3586:-2.3704189660354799e-002
3587:-3.2884125521597307e-002
3588:-2.2459016885168150e-003
3589:-1.0365273072144571e-002
3590:-2.0973403420858207e-002
3591:-2.9115182825713140e-002
3592:-1.8811523967137483e-003
3593:-8.6242243739169042e-003
3594:-1.7465258764383786e-002
3595:-2.4274564880552667e-002
3596:-1.6046520466527681e-003
3597:-7.3097483156173305e-003
3598:-1.4818427330319245e-002
3599:-2.0623348158316707e-002
3600:-3.7483648644085460e-002
3601:-4.5570020122065083e-002
3602:-5.6123396676762180e-002
3603:-6.4214244165965439e-002
3604:-3.3179313390416132e-002
3605:-4.0307251186319462e-002
3606:-4.9662295992127257e-002
3607:-5.6874660324832751e-002
3608:-2.7649942842853395e-002
3609:-3.3542085103273549e-002
3610:-4.1352811581333075e-002
3611:-4.7433693487493475e-002
3612:-2.3478333204843323e-002
3613:-2.8434564254731030e-002
3614:-3.5076344519657687e-002
3615:-4.0301265740868751e-002
3616:-6.7978405664479755e-002
3617:-7.4025379668147054e-002
3618:-8.1943858048703452e-002
3619:-8.8035080572497301e-002
3620:-6.0203453369044188e-002
3621:-6.5505491167923965e-002
3622:-7.2529165818890462e-002
3623:-7.7993684315411649e-002
3624:-5.0199563358242376e-002
3625:-5.4534156544852830e-002
3626:-6.0396219238820457e-002
3627:-6.5047553097272379e-002
3628:-4.2639601904547887e-002
3629:-4.6236140212446313e-002
3630:-5.1212377385666814e-002
3631:-5.5243888542926722e-002
3632:-9.0587713620630103e-002
3633:-9.4097255651127712e-002
3634:-9.8754327611276921e-002
3635:-1.0238358826206652e-001
3636:-8.0254428385903048e-002
3637:-8.3299450601556718e-002
3638:-8.7437639721838739e-002
3639:-9.0736027236632114e-002
3640:-6.6927164424471386e-002
3641:-6.9360506226000027e-002
3642:-7.2814376340908524e-002
3643:-7.5675455035365380e-002
3644:-5.6831152341885079e-002
3645:-5.8791372062684692e-002
3646:-6.1715135782990468e-002
3647:-6.4236739075566471e-002
3648:-1.0358357521830443e-001
3649:-1.0448710308026322e-001
3650:-1.0581347775120643e-001
3651:-1.0694314309268964e-001
3652:-9.1803078390432558e-002
3653:-9.2536585738158178e-002
3654:-9.3723602072768086e-002
3655:-9.4809666220766226e-002
3656:-7.6563712567788988e-002
3657:-7.7060925648654910e-002
3658:-7.8047245517757741e-002
3659:-7.9061957308656561e-002
3660:-6.4983860548417080e-002
3661:-6.5288879825107324e-002
3662:-6.6106911406596400e-002
3663:-6.7055848714051985e-002
3664:-1.0687111503651835e-001
3665:-1.0549869379328500e-001
3666:-1.0392104044350936e-001
3667:-1.0287508463354850e-001
3668:-9.4750942216239822e-002
3669:-9.3466270934458723e-002
3670:-9.2071850791058979e-002
3671:-9.1219022299648816e-002
3672:-7.9012170683459879e-002
3673:-7.7824850721315980e-002
3674:-7.6647138601579026e-002
3675:-7.6029149453166897e-002
3676:-6.7006458101967384e-002
3677:-6.5880617536985348e-002
3678:-6.4851862873519545e-002
3679:-6.4400730479353505e-002
3680:-1.0176990325891763e-001
3681:-9.8689685756093132e-002
3682:-9.4935052899517050e-002
3683:-9.2259812180284659e-002
3684:-9.0243848706017996e-002
3685:-8.7449981803797802e-002
3686:-8.4117658224114988e-002
3687:-8.1803422715822915e-002
3688:-7.5214552727734321e-002
3689:-7.2777477961926962e-002
3690:-6.9974210612785415e-002
3691:-6.8114170659373932e-002
3692:-6.3702273463649178e-002
3693:-6.1525773006686199e-002
3694:-5.9111184071953295e-002
3695:-5.7586373037708687e-002
3696:-9.0446367647937370e-002
3697:-8.6326836701669643e-002
3698:-8.1242506606555950e-002
3699:-7.7568292979830575e-002
3700:-8.0198202012597100e-002
3701:-7.6490148319048559e-002
3702:-7.1970057914284374e-002
3703:-6.8749287278449867e-002
3704:-6.6772690300843360e-002
3705:-6.3588540138053526e-002
3706:-5.9787716594390632e-002
3707:-5.7145603058278260e-002
3708:-5.6440955126054210e-002
3709:-5.3648416853703258e-002
3710:-5.0385914250188034e-002
3711:-4.8177378342673507e-002
3712:-7.5384866120011954e-002
3713:-7.0863910527315166e-002
3714:-6.5254003581330655e-002
3715:-6.1175560433690684e-002
3716:-6.6813273137683649e-002
3717:-6.2759415882580313e-002
3718:-5.7767327692031113e-002
3719:-5.4168837535532373e-002
3720:-5.5526847771181290e-002
3721:-5.2074569952966013e-002
3722:-4.7878316144765745e-002
3723:-4.4898177158238489e-002
3724:-4.6797534871447007e-002
3725:-4.3800316872917938e-002
3726:-4.0206174916156238e-002
3727:-3.7693950402855905e-002
3728:-5.8919375186742173e-002
3729:-5.4520431611438595e-002
3730:-4.9046148369688299e-002
3731:-4.5053590113224150e-002
3732:-5.2166364050051033e-002
3733:-4.8233053511887447e-002
3734:-4.3359020852633025e-002
3735:-3.9820950721925860e-002
3736:-4.3223854227996454e-002
3737:-3.9895137950942586e-002
3738:-3.5800445993514063e-002
3739:-3.2852429126891590e-002
3740:-3.6268936081781347e-002
3741:-3.3401366334070676e-002
3742:-2.9901071319355609e-002
3743:-2.7403056070694477e-002
3744:-4.2955241082453847e-002
3745:-3.9055595367687358e-002
3746:-3.4192149155603355e-002
3747:-3.0636642114257616e-002
3748:-3.7957017252913429e-002
3749:-3.4478143857184500e-002
3750:-3.0145730766462348e-002
3751:-2.6983469463582380e-002
3752:-3.1293950324035251e-002
3753:-2.8365522271925139e-002
3754:-2.4727857440597592e-002
3755:-2.2080126980728077e-002
3756:-2.6078391660095148e-002
3757:-2.3572966246375907e-002
3758:-2.0469244480323279e-002
3759:-1.8216990078254634e-002
3760:-2.8847854939327504e-002
3761:-2.5669881370485977e-002
3762:-2.1700138383565180e-002
3763:-1.8792912470517727e-002
3764:-2.5393305936491705e-002
3765:-2.2564657465452977e-002
3766:-1.9025929964758503e-002
3767:-1.6430080470867574e-002
3768:-2.0750670819212252e-002
3769:-1.8382189899181372e-002
3770:-1.5411552600431975e-002
3771:-1.3226358229445758e-002
3772:-1.7088547306120992e-002
3773:-1.5076129861849710e-002
3774:-1.2545299750791179e-002
3775:-1.0678220176918277e-002
3776:-1.7393626401724257e-002
3777:-1.5028069168476014e-002
3778:-1.2067814021282961e-002
3779:-9.8956107125361559e-003
3780:-1.5184488981184043e-002
3781:-1.3083069773884503e-002
3782:-1.0439595400388697e-002
3783:-8.4888457541779511e-003
3784:-1.2184147421716357e-002
3785:-1.0433662941190124e-002
3786:-8.2117296692172503e-003
3787:-6.5562235755388153e-003
3788:-9.7940760362129134e-003
3789:-8.3173996447886249e-003
3790:-6.4248638784378418e-003
3791:-5.0004815104383610e-003
3792:-8.9041751585663253e-003
3793:-7.3368809169683811e-003
3794:-5.3738755558622479e-003
3795:-3.9320885431535328e-003
3796:-7.6046042905545562e-003
3797:-6.2180047244330327e-003
3798:-4.4625514246934639e-003
3799:-3.1582252696217119e-003
3800:-5.8147353938652656e-003
3801:-4.6684482178733075e-003
3802:-3.1897370955977942e-003
3803:-2.0693152718420939e-003
3804:-4.3706250415368984e-003
3805:-3.4120168698719821e-003
3806:-2.1499704076777169e-003
3807:-1.1739937704100965e-003
3808:-3.3268442165431118e-003
3809:-2.4806899336849361e-003
3810:-1.4194888376153558e-003
3811:-6.3893318452351393e-004
3812:-2.6202395244454570e-003
3813:-1.8913276506000998e-003
3814:-9.6030914562075245e-004
3815:-2.6206733650921594e-004
3816:-1.6210713866168574e-003
3817:-1.0480335050898305e-003
3818:-2.9065764883420370e-004
3819:2.9728219120047494e-004
3820:-7.9605615904858621e-004
3821:-3.4471434399734404e-004
3822:2.7666814194456454e-004
3823:7.7784048055361894e-004
3824:-3.7785246212295056e-004
3825:-1.7610694992541801e-004
3826:5.0174654008842407e-005
3827:1.9529509851286381e-004
3828:-5.2176257091737171e-005
3829:3.4979005950752679e-005
3830:1.2316653875344303e-004
3831:1.7119351059698964e-004
3832:4.4537756121486148e-004
3833:4.0466670921487349e-004
3834:3.4091701788910983e-004
3835:2.8390628187315535e-004
3836:8.8239915484311117e-004
3837:7.6027321372446033e-004
3838:6.0171377063806381e-004
3839:4.8078472200829115e-004
3840:-1.4325760067311507e-003
3841:-6.4969433872553162e-003
3842:-1.3182658361140711e-002
3843:-1.8366790550785914e-002
3844:-1.0472848181997116e-003
3845:-4.7338822050779460e-003
3846:-9.6488989025224400e-003
3847:-1.3496506414877667e-002
3848:-5.1061410796399858e-004
3849:-2.3953035966600292e-003
3850:-4.9944395598338362e-003
3851:-7.0939527937120880e-003
3852:-7.3245406731084408e-005
3853:-5.7356914265166089e-004
3854:-1.3934012056125661e-003
3855:-2.1497940030375013e-003
3856:-2.0898805716909177e-002
3857:-2.5273097040516682e-002
3858:-3.1190881641978890e-002
3859:-3.5887933201113685e-002
3860:-1.5330239710994814e-002
3861:-1.8442859856328531e-002
3862:-2.2794739506255896e-002
3863:-2.6353094252305587e-002
3864:-8.0108108142151538e-003
3865:-9.4597911473884647e-003
3866:-1.1745754827665799e-002
3867:-1.3800916966369202e-002
3868:-2.3594602972611075e-003
3869:-2.5199265306331069e-003
3870:-3.2049627429331586e-003
3871:-4.0945851470201369e-003
3872:-3.7961669817816381e-002
3873:-4.1099639512555998e-002
3874:-4.5528525031090027e-002
3875:-4.9179572144614714e-002
3876:-2.7856028682290517e-002
3877:-3.0004740296569000e-002
3878:-3.3257014314834764e-002
3879:-3.6093697532437574e-002
3880:-1.4551654950303687e-002
3881:-1.5399178690040961e-002
3882:-1.7102626754959417e-002
3883:-1.8866310167990268e-002
3884:-4.2630870885128182e-003
3885:-4.1052844214848911e-003
3886:-4.6111563075557976e-003
3887:-5.5444074983640994e-003
3888:-5.0586358980572260e-002
3889:-5.2252438388216770e-002
3890:-5.4849854748615215e-002
3891:-5.7165342092923892e-002
3892:-3.7113477717566380e-002
3893:-3.8147479064904156e-002
3894:-4.0048535007677848e-002
3895:-4.1928652956246357e-002
3896:-1.9376049101706941e-002
3897:-1.9576685944503472e-002
3898:-2.0557862140974454e-002
3899:-2.1861265459504526e-002
3900:-5.6593133595106765e-003
3901:-5.2145679162088621e-003
3902:-5.4820253957231528e-003
3903:-6.3367550927142594e-003
3904:-5.7826233323826644e-002
3905:-5.8012508573430169e-002
3906:-5.8730096572701271e-002
3907:-5.9643808434545163e-002
3908:-4.2407943842060945e-002
3909:-4.2345382213560039e-002
3910:-4.2860315811824902e-002
3911:-4.3712216618117437e-002
3912:-2.2100371812983206e-002
3913:-2.1709641477959812e-002
3914:-2.1955593232944694e-002
3915:-2.2723341802390124e-002
3916:-6.3892841040868653e-003
3917:-5.7443424524751471e-003
3918:-5.7806276650906969e-003
3919:-6.4811907405147142e-003
3920:-5.9597190502512096e-002
3921:-5.8512912704971505e-002
3922:-5.7583209871668740e-002
3923:-5.7242350772895231e-002
3924:-4.3678802152212794e-002
3925:-4.2696400088325620e-002
3926:-4.1999097143617332e-002
3927:-4.1912606956325274e-002
3928:-2.2706316269871227e-002
3929:-2.1857195011346638e-002
3930:-2.1463580577063372e-002
3931:-2.1709332207019129e-002
3932:-6.4760842571699832e-003
3933:-5.7293927553857572e-003
3934:-5.5689010551116074e-003
3935:-6.0695756196434214e-003
3936:-5.6619371589651690e-002
3937:-5.4610182678005333e-002
3938:-5.2445218219648933e-002
3939:-5.1135743771044503e-002
3940:-4.1461122431260704e-002
3941:-3.9828295286851959e-002
3942:-3.8223256200989597e-002
3943:-3.7395726832164029e-002
3944:-2.1482920144053542e-002
3945:-2.0345731881154624e-002
3946:-1.9477230160181467e-002
3947:-1.9283096410571642e-002
3948:-6.0166813676203164e-003
3949:-5.2628937389457694e-003
3950:-4.9635011462080131e-003
3951:-5.2583513433762403e-003
3952:-5.0116023964660722e-002
3953:-4.7573849261359789e-002
3954:-4.4654978550248844e-002
3955:-4.2722830709876584e-002
3956:-3.6656373079803260e-002
3957:-3.4670762388925608e-002
3958:-3.2514391483959300e-002
3959:-3.1194511830261670e-002
3960:-1.8912729136108229e-002
3961:-1.7660648256545272e-002
3962:-1.6508741412485421e-002
3963:-1.5995069961548730e-002
3964:-5.1732355703612279e-003
3965:-4.4890149149989693e-003
3966:-4.1143462788655908e-003
3967:-4.2242392263788509e-003
3968:-4.1495395793449116e-002
3969:-3.8788385328201704e-002
3970:-3.5577054313071975e-002
3971:-3.3361431274368927e-002
3972:-3.0304330677875871e-002
3973:-2.8238521422806254e-002
3974:-2.5871047394915341e-002
3975:-2.4307767367525643e-002
3976:-1.5549281518473051e-002
3977:-1.4329094919647950e-002
3978:-1.3074405632872278e-002
3979:-1.2371285200742047e-002
3980:-4.1224044156300491e-003
3981:-3.5572674134455784e-003
3982:-3.1645033909285607e-003
3983:-3.1275743565586100e-003
3984:-3.2094659027818051e-002
3985:-2.9520108871609645e-002
3986:-2.6396175974992157e-002
3987:-2.4182064772879219e-002
3988:-2.3388857749482156e-002
3989:-2.1458094052690686e-002
3990:-1.9159075541319327e-002
3991:-1.7565685079921962e-002
3992:-1.1911175779370866e-002
3993:-1.0829866583562756e-002
3994:-9.6195166349045055e-003
3995:-8.8454863529031178e-003
3996:-3.0228948695304901e-003
3997:-2.5999238370330948e-003
3998:-2.2334741835152070e-003
3999:-2.0947163461445440e-003
4000:-2.3005196957725366e-002
4001:-2.0767683909811881e-002
4002:-1.8000766067278462e-002
4003:-1.5996884375707232e-002
4004:-1.6711909774536078e-002
4005:-1.5059993951889611e-002
4006:-1.3027235115629424e-002
4007:-1.1563144925292871e-002
4008:-8.4181507464224647e-003
4009:-7.5391507425627991e-003
4010:-6.4758437504691679e-003
4011:-5.7249057007587000e-003
4012:-1.9979755450091107e-003
4013:-1.7181771694831415e-003
4014:-1.4067791305180715e-003
4015:-1.2092369851210494e-003
4016:-1.4994932222156069e-002
4017:-1.3207253067320410e-002
4018:-1.0953078437648901e-002
4019:-9.2853443997883926e-003
4020:-1.0836130602231877e-002
4021:-9.5373294227132713e-003
4022:-7.8835909662046955e-003
4023:-6.6473846069789516e-003
4024:-5.3610928159783071e-003
4025:-4.7080956519508308e-003
4026:-3.8481374923562614e-003
4027:-3.1829090270637699e-003
4028:-1.1272359665775991e-003
4029:-9.7531062331223067e-004
4030:-7.3169819998246529e-004
4031:-5.1019125879189612e-004
4032:-8.5005350810615915e-003
4033:-7.1967926035448005e-003
4034:-5.5120778479659299e-003
4035:-4.2333293703903652e-003
4036:-6.0777001764447027e-003
4037:-5.1491279549062069e-003
4038:-3.9149123417462021e-003
4039:-2.9515615258168312e-003
4040:-2.8976761159236319e-003
4041:-2.4648039036010896e-003
4042:-1.8264630430673873e-003
4043:-1.2808256927995811e-003
4044:-4.4586779318861897e-004
4045:-3.9768142870729806e-004
4046:-2.2225490063448048e-004
4047:-1.5308038532334913e-006
4048:-3.6740001442313631e-003
4049:-2.8343009060054149e-003
4050:-1.7092416661199988e-003
4051:-8.2434313411893390e-004
4052:-2.5453169558913480e-003
4053:-1.9643502279847892e-003
4054:-1.1369302578257635e-003
4055:-4.4954898680678361e-004
4056:-1.0772745606152346e-003
4057:-8.3878545793538318e-004
4058:-4.0609990505575396e-004
4059:1.8672546188225192e-005
4060:4.4397211679444015e-005
4061:1.6636558981876829e-005
4062:1.4187493658853685e-004
4063:3.6161288177235926e-004
4064:-4.9030214527810885e-004
4065:-1.1269220851397654e-004
4066:4.3048976904218279e-004
4067:8.8552081163395448e-004
4068:-2.0909277281663750e-004
4069:1.6845026336030344e-005
4070:4.0690144478548073e-004
4071:7.7887920926536297e-004
4072:1.3706372505396203e-004
4073:1.7015441013991462e-004
4074:3.6700401138511294e-004
4075:6.3566311097473457e-004
4076:3.8647594405416340e-004
4077:2.7562437498292381e-004
4078:3.2943375638956141e-004
4079:5.2276946130738733e-004
4080:9.7021107069976658e-004
4081:8.1611327847709917e-004
4082:6.2541662875433706e-004
4083:4.8719646539713035e-004
4084:8.3376169490917743e-004
4085:6.4232614747283779e-004
4086:4.2744291102407751e-004
4087:2.8948500316224284e-004
4088:6.5954794315210288e-004
4089:4.4397742842233772e-004
4090:2.2960797744295237e-004
4091:1.1657261608806530e-004
4092:5.2894591651321055e-004
4093:3.1371678444532436e-004
4094:1.2432149944093538e-004
4095:4.9227531472820351e-005
4096:0.0000000000000000e+000
4097:0.0000000000000000e+000
4098:0.0000000000000000e+000
4099:0.0000000000000000e+000
4100:0.0000000000000000e+000
4101:0.0000000000000000e+000
4102:0.0000000000000000e+000
4103:0.0000000000000000e+000
4104:0.0000000000000000e+000
4105:0.0000000000000000e+000
4106:0.0000000000000000e+000
4107:0.0000000000000000e+000
4108:0.0000000000000000e+000
4109:0.0000000000000000e+000
4110:0.0000000000000000e+000
4111:0.0000000000000000e+000
4112:0.0000000000000000e+000
4113:0.0000000000000000e+000
4114:0.0000000000000000e+000
4115:0.0000000000000000e+000
4116:0.0000000000000000e+000
4117:0.0000000000000000e+000
4118:0.0000000000000000e+000
4119:0.0000000000000000e+000
4120:0.0000000000000000e+000
4121:0.0000000000000000e+000
4122:0.0000000000000000e+000
4123:0.0000000000000000e+000
4124:0.0000000000000000e+000
4125:0.0000000000000000e+000
4126:0.0000000000000000e+000
4127:0.0000000000000000e+000
4128:0.0000000000000000e+000
4129:0.0000000000000000e+000
4130:0.0000000000000000e+000
4131:0.0000000000000000e+000
4132:0.0000000000000000e+000
4133:0.0000000000000000e+000
4134:0.0000000000000000e+000
4135:0.0000000000000000e+000
4136:0.0000000000000000e+000
4137:0.0000000000000000e+000
4138:0.0000000000000000e+000
4139:0.0000000000000000e+000
4140:0.0000000000000000e+000
4141:0.0000000000000000e+000
4142:0.0000000000000000e+000
4143:0.0000000000000000e+000
4144:0.0000000000000000e+000
4145:0.0000000000000000e+000
4146:0.0000000000000000e+000
4147:0.0000000000000000e+000
4148:0.0000000000000000e+000
4149:0.0000000000000000e+000
4150:0.0000000000000000e+000
4151:0.0000000000000000e+000
4152:0.0000000000000000e+000
4153:0.0000000000000000e+000
4154:0.0000000000000000e+000
4155:0.0000000000000000e+000
4156:0.0000000000000000e+000
4157:0.0000000000000000e+000
4158:0.0000000000000000e+000
4159:0.0000000000000000e+000
4160:0.0000000000000000e+000
4161:0.0000000000000000e+000
4162:0.0000000000000000e+000
4163:0.0000000000000000e+000
4164:0.0000000000000000e+000
4165:0.0000000000000000e+000
4166:0.0000000000000000e+000
4167:0.0000000000000000e+000
4168:0.0000000000000000e+000
4169:0.0000000000000000e+000
4170:0.0000000000000000e+000
4171:0.0000000000000000e+000
4172:0.0000000000000000e+000
4173:0.0000000000000000e+000
4174:0.0000000000000000e+000
4175:0.0000000000000000e+000
4176:0.0000000000000000e+000
4177:0.0000000000000000e+000
4178:0.0000000000000000e+000
4179:0.0000000000000000e+000
4180:0.0000000000000000e+000
4181:0.0000000000000000e+000
4182:0.0000000000000000e+000
4183:0.0000000000000000e+000
4184:0.0000000000000000e+000
4185:0.0000000000000000e+000
4186:0.0000000000000000e+000
4187:0.0000000000000000e+000
4188:0.0000000000000000e+000
4189:0.0000000000000000e+000
4190:0.0000000000000000e+000
4191:0.0000000000000000e+000
4192:0.0000000000000000e+000
4193:0.0000000000000000e+000
4194:0.0000000000000000e+000
4195:0.0000000000000000e+000
4196:0.0000000000000000e+000
4197:0.0000000000000000e+000
4198:0.0000000000000000e+000
4199:0.0000000000000000e+000
4200:0.0000000000000000e+000
4201:0.0000000000000000e+000
4202:0.0000000000000000e+000
4203:0.0000000000000000e+000
4204:0.0000000000000000e+000
4205:0.0000000000000000e+000
4206:0.0000000000000000e+000
4207:0.0000000000000000e+000
4208:0.0000000000000000e+000
4209:0.0000000000000000e+000
4210:0.0000000000000000e+000
4211:0.0000000000000000e+000
4212:0.0000000000000000e+000
4213:0.0000000000000000e+000
4214:0.0000000000000000e+000
4215:0.0000000000000000e+000
4216:0.0000000000000000e+000
4217:0.0000000000000000e+000
4218:0.0000000000000000e+000
4219:0.0000000000000000e+000
4220:0.0000000000000000e+000
4221:0.0000000000000000e+000
4222:0.0000000000000000e+000
4223:0.0000000000000000e+000
4224:0.0000000000000000e+000
4225:0.0000000000000000e+000
4226:0.0000000000000000e+000
4227:0.0000000000000000e+000
4228:0.0000000000000000e+000
4229:0.0000000000000000e+000
4230:0.0000000000000000e+000
4231:0.0000000000000000e+000
4232:0.0000000000000000e+000
4233:0.0000000000000000e+000
4234:0.0000000000000000e+000
4235:0.0000000000000000e+000
4236:0.0000000000000000e+000
4237:0.0000000000000000e+000
4238:0.0000000000000000e+000
4239:0.0000000000000000e+000
4240:0.0000000000000000e+000
4241:0.0000000000000000e+000
4242:0.0000000000000000e+000
4243:0.0000000000000000e+000
4244:0.0000000000000000e+000
4245:0.0000000000000000e+000
4246:0.0000000000000000e+000
4247:0.0000000000000000e+000
4248:0.0000000000000000e+000
4249:0.0000000000000000e+000
4250:0.0000000000000000e+000
4251:0.0000000000000000e+000
4252:0.0000000000000000e+000
4253:0.0000000000000000e+000
4254:0.0000000000000000e+000
4255:0.0000000000000000e+000
4256:0.0000000000000000e+000
4257:0.0000000000000000e+000
4258:0.0000000000000000e+000
4259:0.0000000000000000e+000
4260:0.0000000000000000e+000
4261:0.0000000000000000e+000
4262:0.0000000000000000e+000
4263:0.0000000000000000e+000
4264:0.0000000000000000e+000
4265:0.0000000000000000e+000
4266:0.0000000000000000e+000
4267:0.0000000000000000e+000
4268:0.0000000000000000e+000
4269:0.0000000000000000e+000
4270:0.0000000000000000e+000
4271:0.0000000000000000e+000
4272:0.0000000000000000e+000
4273:0.0000000000000000e+000
4274:0.0000000000000000e+000
4275:0.0000000000000000e+000
4276:0.0000000000000000e+000
4277:0.0000000000000000e+000
4278:0.0000000000000000e+000
4279:0.0000000000000000e+000
4280:0.0000000000000000e+000
4281:0.0000000000000000e+000
4282:0.0000000000000000e+000
4283:0.0000000000000000e+000
4284:0.0000000000000000e+000
4285:0.0000000000000000e+000
4286:0.0000000000000000e+000
4287:0.0000000000000000e+000
4288:0.0000000000000000e+000
4289:0.0000000000000000e+000
4290:0.0000000000000000e+000
4291:0.0000000000000000e+000
4292:0.0000000000000000e+000
4293:0.0000000000000000e+000
4294:0.0000000000000000e+000
4295:0.0000000000000000e+000
4296:0.0000000000000000e+000
4297:0.0000000000000000e+000
4298:0.0000000000000000e+000
4299:0.0000000000000000e+000
4300:0.0000000000000000e+000
4301:0.0000000000000000e+000
4302:0.0000000000000000e+000
4303:0.0000000000000000e+000
4304:0.0000000000000000e+000
4305:0.0000000000000000e+000
4306:0.0000000000000000e+000
4307:0.0000000000000000e+000
4308:0.0000000000000000e+000
4309:0.0000000000000000e+000
4310:0.0000000000000000e+000
4311:0.0000000000000000e+000
4312:0.0000000000000000e+000
4313:0.0000000000000000e+000
4314:0.0000000000000000e+000
4315:0.0000000000000000e+000
4316:0.0000000000000000e+000
4317:0.0000000000000000e+000
4318:0.0000000000000000e+000
4319:0.0000000000000000e+000
4320:0.0000000000000000e+000
4321:0.0000000000000000e+000
4322:0.0000000000000000e+000
4323:0.0000000000000000e+000
4324:0.0000000000000000e+000
4325:0.0000000000000000e+000
4326:0.0000000000000000e+000
4327:0.0000000000000000e+000
4328:0.0000000000000000e+000
4329:0.0000000000000000e+000
4330:0.0000000000000000e+000
4331:0.0000000000000000e+000
4332:0.0000000000000000e+000
4333:0.0000000000000000e+000
4334:0.0000000000000000e+000
4335:0.0000000000000000e+000
4336:0.0000000000000000e+000
4337:0.0000000000000000e+000
4338:0.0000000000000000e+000
4339:0.0000000000000000e+000
4340:0.0000000000000000e+000
4341:0.0000000000000000e+000
4342:0.0000000000000000e+000
4343:0.0000000000000000e+000
4344:0.0000000000000000e+000
4345:0.0000000000000000e+000
4346:0.0000000000000000e+000
4347:0.0000000000000000e+000
4348:0.0000000000000000e+000
4349:0.0000000000000000e+000
4350:0.0000000000000000e+000
4351:0.0000000000000000e+000
4352:0.0000000000000000e+000
4353:0.0000000000000000e+000
4354:0.0000000000000000e+000
4355:0.0000000000000000e+000
4356:0.0000000000000000e+000
4357:0.0000000000000000e+000
4358:0.0000000000000000e+000
4359:0.0000000000000000e+000
4360:0.0000000000000000e+000
4361:0.0000000000000000e+000
4362:0.0000000000000000e+000
4363:0.0000000000000000e+000
4364:0.0000000000000000e+000
4365:0.0000000000000000e+000
4366:0.0000000000000000e+000
4367:0.0000000000000000e+000
4368:0.0000000000000000e+000
4369:0.0000000000000000e+000
4370:0.0000000000000000e+000
4371:0.0000000000000000e+000
4372:0.0000000000000000e+000
4373:0.0000000000000000e+000
4374:0.0000000000000000e+000
4375:0.0000000000000000e+000
4376:0.0000000000000000e+000
4377:0.0000000000000000e+000
4378:0.0000000000000000e+000
4379:0.0000000000000000e+000
4380:0.0000000000000000e+000
4381:0.0000000000000000e+000
4382:0.0000000000000000e+000
4383:0.0000000000000000e+000
4384:0.0000000000000000e+000
4385:0.0000000000000000e+000
4386:0.0000000000000000e+000
4387:0.0000000000000000e+000
4388:0.0000000000000000e+000
4389:0.0000000000000000e+000
4390:0.0000000000000000e+000
4391:0.0000000000000000e+000
4392:0.0000000000000000e+000
4393:0.0000000000000000e+000
4394:0.0000000000000000e+000
4395:0.0000000000000000e+000
4396:0.0000000000000000e+000
4397:0.0000000000000000e+000
4398:0.0000000000000000e+000
4399:0.0000000000000000e+000
4400:0.0000000000000000e+000
4401:0.0000000000000000e+000
4402:0.0000000000000000e+000
4403:0.0000000000000000e+000
4404:0.0000000000000000e+000
4405:0.0000000000000000e+000
4406:0.0000000000000000e+000
4407:0.0000000000000000e+000
4408:0.0000000000000000e+000
4409:0.0000000000000000e+000
4410:0.0000000000000000e+000
4411:0.0000000000000000e+000
4412:0.0000000000000000e+000
4413:0.0000000000000000e+000
4414:0.0000000000000000e+000
4415:0.0000000000000000e+000
4416:0.0000000000000000e+000
4417:0.0000000000000000e+000
4418:0.0000000000000000e+000
4419:0.0000000000000000e+000
4420:0.0000000000000000e+000
4421:0.0000000000000000e+000
4422:0.0000000000000000e+000
4423:0.0000000000000000e+000
4424:0.0000000000000000e+000
4425:0.0000000000000000e+000
4426:0.0000000000000000e+000
4427:0.0000000000000000e+000
4428:0.0000000000000000e+000
4429:0.0000000000000000e+000
4430:0.0000000000000000e+000
4431:0.0000000000000000e+000
4432:0.0000000000000000e+000
4433:0.0000000000000000e+000
4434:0.0000000000000000e+000
4435:0.0000000000000000e+000
4436:0.0000000000000000e+000
4437:0.0000000000000000e+000
4438:0.0000000000000000e+000
4439:0.0000000000000000e+000
4440:0.0000000000000000e+000
4441:0.0000000000000000e+000
4442:0.0000000000000000e+000
4443:0.0000000000000000e+000
4444:0.0000000000000000e+000
4445:0.0000000000000000e+000
4446:0.0000000000000000e+000
4447:0.0000000000000000e+000
4448:0.0000000000000000e+000
4449:0.0000000000000000e+000
4450:0.0000000000000000e+000
4451:0.0000000000000000e+000
4452:0.0000000000000000e+000
4453:0.0000000000000000e+000
4454:0.0000000000000000e+000
4455:0.0000000000000000e+000
4456:0.0000000000000000e+000
4457:0.0000000000000000e+000
4458:0.0000000000000000e+000
4459:0.0000000000000000e+000
4460:0.0000000000000000e+000
4461:0.0000000000000000e+000
4462:0.0000000000000000e+000
4463:0.0000000000000000e+000
4464:0.0000000000000000e+000
4465:0.0000000000000000e+000
4466:0.0000000000000000e+000
4467:0.0000000000000000e+000
4468:0.0000000000000000e+000
4469:0.0000000000000000e+000
4470:0.0000000000000000e+000
4471:0.0000000000000000e+000
4472:0.0000000000000000e+000
4473:0.0000000000000000e+000
4474:0.0000000000000000e+000
4475:0.0000000000000000e+000
4476:0.0000000000000000e+000
4477:0.0000000000000000e+000
4478:0.0000000000000000e+000
4479:0.0000000000000000e+000
4480:0.0000000000000000e+000
4481:0.0000000000000000e+000
4482:0.0000000000000000e+000
4483:0.0000000000000000e+000
4484:0.0000000000000000e+000
4485:0.0000000000000000e+000
4486:0.0000000000000000e+000
4487:0.0000000000000000e+000
4488:0.0000000000000000e+000
4489:0.0000000000000000e+000
4490:0.0000000000000000e+000
4491:0.0000000000000000e+000
4492:0.0000000000000000e+000
4493:0.0000000000000000e+000
4494:0.0000000000000000e+000
4495:0.0000000000000000e+000
4496:0.0000000000000000e+000
4497:0.0000000000000000e+000
4498:0.0000000000000000e+000
4499:0.0000000000000000e+000
4500:0.0000000000000000e+000
4501:0.0000000000000000e+000
4502:0.0000000000000000e+000
4503:0.0000000000000000e+000
4504:0.0000000000000000e+000
4505:0.0000000000000000e+000
4506:0.0000000000000000e+000
4507:0.0000000000000000e+000
4508:0.0000000000000000e+000
4509:0.0000000000000000e+000
4510:0.0000000000000000e+000
4511:0.0000000000000000e+000
4512:0.0000000000000000e+000
4513:0.0000000000000000e+000
4514:0.0000000000000000e+000
4515:0.0000000000000000e+000
4516:0.0000000000000000e+000
4517:0.0000000000000000e+000
4518:0.0000000000000000e+000
4519:0.0000000000000000e+000
4520:0.0000000000000000e+000
4521:0.0000000000000000e+000
4522:0.0000000000000000e+000
4523:0.0000000000000000e+000
4524:0.0000000000000000e+000
4525:0.0000000000000000e+000
4526:0.0000000000000000e+000
4527:0.0000000000000000e+000
4528:0.0000000000000000e+000
4529:0.0000000000000000e+000
4530:0.0000000000000000e+000
4531:0.0000000000000000e+000
4532:0.0000000000000000e+000
4533:0.0000000000000000e+000
4534:0.0000000000000000e+000
4535:0.0000000000000000e+000
4536:0.0000000000000000e+000
4537:0.0000000000000000e+000
4538:0.0000000000000000e+000
4539:0.0000000000000000e+000
4540:0.0000000000000000e+000
4541:0.0000000000000000e+000
4542:0.0000000000000000e+000
4543:0.0000000000000000e+000
4544:0.0000000000000000e+000
4545:0.0000000000000000e+000
4546:0.0000000000000000e+000
4547:0.0000000000000000e+000
4548:0.0000000000000000e+000
4549:0.0000000000000000e+000
4550:0.0000000000000000e+000
4551:0.0000000000000000e+000
4552:0.0000000000000000e+000
4553:0.0000000000000000e+000
4554:0.0000000000000000e+000
4555:0.0000000000000000e+000
4556:0.0000000000000000e+000
4557:0.0000000000000000e+000
4558:0.0000000000000000e+000
4559:0.0000000000000000e+000
4560:0.0000000000000000e+000
4561:0.0000000000000000e+000
4562:0.0000000000000000e+000
4563:0.0000000000000000e+000
4564:0.0000000000000000e+000
4565:0.0000000000000000e+000
4566:0.0000000000000000e+000
4567:0.0000000000000000e+000
4568:0.0000000000000000e+000
4569:0.0000000000000000e+000
4570:0.0000000000000000e+000
4571:0.0000000000000000e+000
4572:0.0000000000000000e+000
4573:0.0000000000000000e+000
4574:0.0000000000000000e+000
4575:0.0000000000000000e+000
4576:0.0000000000000000e+000
4577:0.0000000000000000e+000
4578:0.0000000000000000e+000
4579:0.0000000000000000e+000
4580:0.0000000000000000e+000
4581:0.0000000000000000e+000
4582:0.0000000000000000e+000
4583:0.0000000000000000e+000
4584:0.0000000000000000e+000
4585:0.0000000000000000e+000
4586:0.0000000000000000e+000
4587:0.0000000000000000e+000
4588:0.0000000000000000e+000
4589:0.0000000000000000e+000
4590:0.0000000000000000e+000
4591:0.0000000000000000e+000
4592:0.0000000000000000e+000
4593:0.0000000000000000e+000
4594:0.0000000000000000e+000
4595:0.0000000000000000e+000
4596:0.0000000000000000e+000
4597:0.0000000000000000e+000
4598:0.0000000000000000e+000
4599:0.0000000000000000e+000
4600:0.0000000000000000e+000
4601:0.0000000000000000e+000
4602:0.0000000000000000e+000
4603:0.0000000000000000e+000
4604:0.0000000000000000e+000
4605:0.0000000000000000e+000
4606:0.0000000000000000e+000
4607:0.0000000000000000e+000
4608:0.0000000000000000e+000
4609:0.0000000000000000e+000
4610:0.0000000000000000e+000
4611:0.0000000000000000e+000
4612:0.0000000000000000e+000
4613:0.0000000000000000e+000
4614:0.0000000000000000e+000
4615:0.0000000000000000e+000
4616:0.0000000000000000e+000
4617:0.0000000000000000e+000
4618:0.0000000000000000e+000
4619:0.0000000000000000e+000
4620:0.0000000000000000e+000
4621:0.0000000000000000e+000
4622:0.0000000000000000e+000
4623:0.0000000000000000e+000
4624:0.0000000000000000e+000
4625:0.0000000000000000e+000
4626:0.0000000000000000e+000
4627:0.0000000000000000e+000
4628:0.0000000000000000e+000
4629:0.0000000000000000e+000
4630:0.0000000000000000e+000
4631:0.0000000000000000e+000
4632:0.0000000000000000e+000
4633:0.0000000000000000e+000
4634:0.0000000000000000e+000
4635:0.0000000000000000e+000
4636:0.0000000000000000e+000
4637:0.0000000000000000e+000
4638:0.0000000000000000e+000
4639:0.0000000000000000e+000
4640:0.0000000000000000e+000
4641:0.0000000000000000e+000
4642:0.0000000000000000e+000
4643:0.0000000000000000e+000
4644:0.0000000000000000e+000
4645:0.0000000000000000e+000
4646:0.0000000000000000e+000
4647:0.0000000000000000e+000
4648:0.0000000000000000e+000
4649:0.0000000000000000e+000
4650:0.0000000000000000e+000
4651:0.0000000000000000e+000
4652:0.0000000000000000e+000
4653:0.0000000000000000e+000
4654:0.0000000000000000e+000
4655:0.0000000000000000e+000
4656:0.0000000000000000e+000
4657:0.0000000000000000e+000
4658:0.0000000000000000e+000
4659:0.0000000000000000e+000
4660:0.0000000000000000e+000
4661:0.0000000000000000e+000
4662:0.0000000000000000e+000
4663:0.0000000000000000e+000
4664:0.0000000000000000e+000
4665:0.0000000000000000e+000
4666:0.0000000000000000e+000
4667:0.0000000000000000e+000
4668:0.0000000000000000e+000
4669:0.0000000000000000e+000
4670:0.0000000000000000e+000
4671:0.0000000000000000e+000
4672:0.0000000000000000e+000
4673:0.0000000000000000e+000
4674:0.0000000000000000e+000
4675:0.0000000000000000e+000
4676:0.0000000000000000e+000
4677:0.0000000000000000e+000
4678:0.0000000000000000e+000
4679:0.0000000000000000e+000
4680:0.0000000000000000e+000
4681:0.0000000000000000e+000
4682:0.0000000000000000e+000
4683:0.0000000000000000e+000
4684:0.0000000000000000e+000
4685:0.0000000000000000e+000
4686:0.0000000000000000e+000
4687:0.0000000000000000e+000
4688:0.0000000000000000e+000
4689:0.0000000000000000e+000
4690:0.0000000000000000e+000
4691:0.0000000000000000e+000
4692:0.0000000000000000e+000
4693:0.0000000000000000e+000
4694:0.0000000000000000e+000
4695:0.0000000000000000e+000
4696:0.0000000000000000e+000
4697:0.0000000000000000e+000
4698:0.0000000000000000e+000
4699:0.0000000000000000e+000
4700:0.0000000000000000e+000
4701:0.0000000000000000e+000
4702:0.0000000000000000e+000
4703:0.0000000000000000e+000
4704:0.0000000000000000e+000
4705:0.0000000000000000e+000
4706:0.0000000000000000e+000
4707:0.0000000000000000e+000
4708:0.0000000000000000e+000
4709:0.0000000000000000e+000
4710:0.0000000000000000e+000
4711:0.0000000000000000e+000
4712:0.0000000000000000e+000
4713:0.0000000000000000e+000
4714:0.0000000000000000e+000
4715:0.0000000000000000e+000
4716:0.0000000000000000e+000
4717:0.0000000000000000e+000
4718:0.0000000000000000e+000
4719:0.0000000000000000e+000
4720:0.0000000000000000e+000
4721:0.0000000000000000e+000
4722:0.0000000000000000e+000
4723:0.0000000000000000e+000
4724:0.0000000000000000e+000
4725:0.0000000000000000e+000
4726:0.0000000000000000e+000
4727:0.0000000000000000e+000
4728:0.0000000000000000e+000
4729:0.0000000000000000e+000
4730:0.0000000000000000e+000
4731:0.0000000000000000e+000
4732:0.0000000000000000e+000
4733:0.0000000000000000e+000
4734:0.0000000000000000e+000
4735:0.0000000000000000e+000
4736:0.0000000000000000e+000
4737:0.0000000000000000e+000
4738:0.0000000000000000e+000
4739:0.0000000000000000e+000
4740:0.0000000000000000e+000
4741:0.0000000000000000e+000
4742:0.0000000000000000e+000
4743:0.0000000000000000e+000
4744:0.0000000000000000e+000
4745:0.0000000000000000e+000
4746:0.0000000000000000e+000
4747:0.0000000000000000e+000
4748:0.0000000000000000e+000
4749:0.0000000000000000e+000
4750:0.0000000000000000e+000
4751:0.0000000000000000e+000
4752:0.0000000000000000e+000
4753:0.0000000000000000e+000
4754:0.0000000000000000e+000
4755:0.0000000000000000e+000
4756:0.0000000000000000e+000
4757:0.0000000000000000e+000
4758:0.0000000000000000e+000
4759:0.0000000000000000e+000
4760:0.0000000000000000e+000
4761:0.0000000000000000e+000
4762:0.0000000000000000e+000
4763:0.0000000000000000e+000
4764:0.0000000000000000e+000
4765:0.0000000000000000e+000
4766:0.0000000000000000e+000
4767:0.0000000000000000e+000
4768:0.0000000000000000e+000
4769:0.0000000000000000e+000
4770:0.0000000000000000e+000
4771:0.0000000000000000e+000
4772:0.0000000000000000e+000
4773:0.0000000000000000e+000
4774:0.0000000000000000e+000
4775:0.0000000000000000e+000
4776:0.0000000000000000e+000
4777:0.0000000000000000e+000
4778:0.0000000000000000e+000
4779:0.0000000000000000e+000
4780:0.0000000000000000e+000
4781:0.0000000000000000e+000
4782:0.0000000000000000e+000
4783:0.0000000000000000e+000
4784:0.0000000000000000e+000
4785:0.0000000000000000e+000
4786:0.0000000000000000e+000
4787:0.0000000000000000e+000
4788:0.0000000000000000e+000
4789:0.0000000000000000e+000
4790:0.0000000000000000e+000
4791:0.0000000000000000e+000
4792:0.0000000000000000e+000
4793:0.0000000000000000e+000
4794:0.0000000000000000e+000
4795:0.0000000000000000e+000
4796:0.0000000000000000e+000
4797:0.0000000000000000e+000
4798:0.0000000000000000e+000
4799:0.0000000000000000e+000
4800:0.0000000000000000e+000
4801:0.0000000000000000e+000
4802:0.0000000000000000e+000
4803:0.0000000000000000e+000
4804:0.0000000000000000e+000
4805:0.0000000000000000e+000
4806:0.0000000000000000e+000
4807:0.0000000000000000e+000
4808:0.0000000000000000e+000
4809:0.0000000000000000e+000
4810:0.0000000000000000e+000
4811:0.0000000000000000e+000
4812:0.0000000000000000e+000
4813:0.0000000000000000e+000
4814:0.0000000000000000e+000
4815:0.0000000000000000e+000
4816:0.0000000000000000e+000
4817:0.0000000000000000e+000
4818:0.0000000000000000e+000
4819:0.0000000000000000e+000
4820:0.0000000000000000e+000
4821:0.0000000000000000e+000
4822:0.0000000000000000e+000
4823:0.0000000000000000e+000
4824:0.0000000000000000e+000
4825:0.0000000000000000e+000
4826:0.0000000000000000e+000
4827:0.0000000000000000e+000
4828:0.0000000000000000e+000
4829:0.0000000000000000e+000
4830:0.0000000000000000e+000
4831:0.0000000000000000e+000
4832:0.0000000000000000e+000
4833:0.0000000000000000e+000
4834:0.0000000000000000e+000
4835:0.0000000000000000e+000
4836:0.0000000000000000e+000
4837:0.0000000000000000e+000
4838:0.0000000000000000e+000
4839:0.0000000000000000e+000
4840:0.0000000000000000e+000
4841:0.0000000000000000e+000
4842:0.0000000000000000e+000
4843:0.0000000000000000e+000
4844:0.0000000000000000e+000
4845:0.0000000000000000e+000
4846:0.0000000000000000e+000
4847:0.0000000000000000e+000
4848:0.0000000000000000e+000
4849:0.0000000000000000e+000
4850:0.0000000000000000e+000
4851:0.0000000000000000e+000
4852:0.0000000000000000e+000
4853:0.0000000000000000e+000
4854:0.0000000000000000e+000
4855:0.0000000000000000e+000
4856:0.0000000000000000e+000
4857:0.0000000000000000e+000
4858:0.0000000000000000e+000
4859:0.0000000000000000e+000
4860:0.0000000000000000e+000
4861:0.0000000000000000e+000
4862:0.0000000000000000e+000
4863:0.0000000000000000e+000
4864:0.0000000000000000e+000
4865:0.0000000000000000e+000
4866:0.0000000000000000e+000
4867:0.0000000000000000e+000
4868:0.0000000000000000e+000
4869:0.0000000000000000e+000
4870:0.0000000000000000e+000
4871:0.0000000000000000e+000
4872:0.0000000000000000e+000
4873:0.0000000000000000e+000
4874:0.0000000000000000e+000
4875:0.0000000000000000e+000
4876:0.0000000000000000e+000
4877:0.0000000000000000e+000
4878:0.0000000000000000e+000
4879:0.0000000000000000e+000
4880:0.0000000000000000e+000
4881:0.0000000000000000e+000
4882:0.0000000000000000e+000
4883:0.0000000000000000e+000
4884:0.0000000000000000e+000
4885:0.0000000000000000e+000
4886:0.0000000000000000e+000
4887:0.0000000000000000e+000
4888:0.0000000000000000e+000
4889:0.0000000000000000e+000
4890:0.0000000000000000e+000
4891:0.0000000000000000e+000
4892:0.0000000000000000e+000
4893:0.0000000000000000e+000
4894:0.0000000000000000e+000
4895:0.0000000000000000e+000
4896:0.0000000000000000e+000
4897:0.0000000000000000e+000
4898:0.0000000000000000e+000
4899:0.0000000000000000e+000
4900:0.0000000000000000e+000
4901:0.0000000000000000e+000
4902:0.0000000000000000e+000
4903:0.0000000000000000e+000
4904:0.0000000000000000e+000
4905:0.0000000000000000e+000
4906:0.0000000000000000e+000
4907:0.0000000000000000e+000
4908:0.0000000000000000e+000
4909:0.0000000000000000e+000
4910:0.0000000000000000e+000
4911:0.0000000000000000e+000
4912:0.0000000000000000e+000
4913:0.0000000000000000e+000
4914:0.0000000000000000e+000
4915:0.0000000000000000e+000
4916:0.0000000000000000e+000
4917:0.0000000000000000e+000
4918:0.0000000000000000e+000
4919:0.0000000000000000e+000
4920:0.0000000000000000e+000
4921:0.0000000000000000e+000
4922:0.0000000000000000e+000
4923:0.0000000000000000e+000
4924:0.0000000000000000e+000
4925:0.0000000000000000e+000
4926:0.0000000000000000e+000
4927:0.0000000000000000e+000
4928:0.0000000000000000e+000
4929:0.0000000000000000e+000
4930:0.0000000000000000e+000
4931:0.0000000000000000e+000
4932:0.0000000000000000e+000
4933:0.0000000000000000e+000
4934:0.0000000000000000e+000
4935:0.0000000000000000e+000
4936:0.0000000000000000e+000
4937:0.0000000000000000e+000
4938:0.0000000000000000e+000
4939:0.0000000000000000e+000
4940:0.0000000000000000e+000
4941:0.0000000000000000e+000
4942:0.0000000000000000e+000
4943:0.0000000000000000e+000
4944:0.0000000000000000e+000
4945:0.0000000000000000e+000
4946:0.0000000000000000e+000
4947:0.0000000000000000e+000
4948:0.0000000000000000e+000
4949:0.0000000000000000e+000
4950:0.0000000000000000e+000
4951:0.0000000000000000e+000
4952:0.0000000000000000e+000
4953:0.0000000000000000e+000
4954:0.0000000000000000e+000
4955:0.0000000000000000e+000
4956:0.0000000000000000e+000
4957:0.0000000000000000e+000
4958:0.0000000000000000e+000
4959:0.0000000000000000e+000
4960:0.0000000000000000e+000
4961:0.0000000000000000e+000
4962:0.0000000000000000e+000
4963:0.0000000000000000e+000
4964:0.0000000000000000e+000
4965:0.0000000000000000e+000
4966:0.0000000000000000e+000
4967:0.0000000000000000e+000
4968:0.0000000000000000e+000
4969:0.0000000000000000e+000
4970:0.0000000000000000e+000
4971:0.0000000000000000e+000
4972:0.0000000000000000e+000
4973:0.0000000000000000e+000
4974:0.0000000000000000e+000
4975:0.0000000000000000e+000
4976:0.0000000000000000e+000
4977:0.0000000000000000e+000
4978:0.0000000000000000e+000
4979:0.0000000000000000e+000
4980:0.0000000000000000e+000
4981:0.0000000000000000e+000
4982:0.0000000000000000e+000
4983:0.0000000000000000e+000
4984:0.0000000000000000e+000
4985:0.0000000000000000e+000
4986:0.0000000000000000e+000
4987:0.0000000000000000e+000
4988:0.0000000000000000e+000
4989:0.0000000000000000e+000
4990:0.0000000000000000e+000
4991:0.0000000000000000e+000
4992:0.0000000000000000e+000
4993:0.0000000000000000e+000
4994:0.0000000000000000e+000
4995:0.0000000000000000e+000
4996:0.0000000000000000e+000
4997:0.0000000000000000e+000
4998:0.0000000000000000e+000
4999:0.0000000000000000e+000
5000:0.0000000000000000e+000
5001:0.0000000000000000e+000
5002:0.0000000000000000e+000
5003:0.0000000000000000e+000
5004:0.0000000000000000e+000
5005:0.0000000000000000e+000
5006:0.0000000000000000e+000
5007:0.0000000000000000e+000
5008:0.0000000000000000e+000
5009:0.0000000000000000e+000
5010:0.0000000000000000e+000
5011:0.0000000000000000e+000
5012:0.0000000000000000e+000
5013:0.0000000000000000e+000
5014:0.0000000000000000e+000
5015:0.0000000000000000e+000
5016:0.0000000000000000e+000
5017:0.0000000000000000e+000
5018:0.0000000000000000e+000
5019:0.0000000000000000e+000
5020:0.0000000000000000e+000
5021:0.0000000000000000e+000
5022:0.0000000000000000e+000
5023:0.0000000000000000e+000
5024:0.0000000000000000e+000
5025:0.0000000000000000e+000
5026:0.0000000000000000e+000
5027:0.0000000000000000e+000
5028:0.0000000000000000e+000
5029:0.0000000000000000e+000
5030:0.0000000000000000e+000
5031:0.0000000000000000e+000
5032:0.0000000000000000e+000
5033:0.0000000000000000e+000
5034:0.0000000000000000e+000
5035:0.0000000000000000e+000
5036:0.0000000000000000e+000
5037:0.0000000000000000e+000
5038:0.0000000000000000e+000
5039:0.0000000000000000e+000
5040:0.0000000000000000e+000
5041:0.0000000000000000e+000
5042:0.0000000000000000e+000
5043:0.0000000000000000e+000
5044:0.0000000000000000e+000
5045:0.0000000000000000e+000
5046:0.0000000000000000e+000
5047:0.0000000000000000e+000
5048:0.0000000000000000e+000
5049:0.0000000000000000e+000
5050:0.0000000000000000e+000
5051:0.0000000000000000e+000
5052:0.0000000000000000e+000
5053:0.0000000000000000e+000
5054:0.0000000000000000e+000
5055:0.0000000000000000e+000
5056:0.0000000000000000e+000
5057:0.0000000000000000e+000
5058:0.0000000000000000e+000
5059:0.0000000000000000e+000
5060:0.0000000000000000e+000
5061:0.0000000000000000e+000
5062:0.0000000000000000e+000
5063:0.0000000000000000e+000
5064:0.0000000000000000e+000
5065:0.0000000000000000e+000
5066:0.0000000000000000e+000
5067:0.0000000000000000e+000
5068:0.0000000000000000e+000
5069:0.0000000000000000e+000
5070:0.0000000000000000e+000
5071:0.0000000000000000e+000
5072:0.0000000000000000e+000
5073:0.0000000000000000e+000
5074:0.0000000000000000e+000
5075:0.0000000000000000e+000
5076:0.0000000000000000e+000
5077:0.0000000000000000e+000
5078:0.0000000000000000e+000
5079:0.0000000000000000e+000
5080:0.0000000000000000e+000
5081:0.0000000000000000e+000
5082:0.0000000000000000e+000
5083:0.0000000000000000e+000
5084:0.0000000000000000e+000
5085:0.0000000000000000e+000
5086:0.0000000000000000e+000
5087:0.0000000000000000e+000
5088:0.0000000000000000e+000
5089:0.0000000000000000e+000
5090:0.0000000000000000e+000
5091:0.0000000000000000e+000
5092:0.0000000000000000e+000
5093:0.0000000000000000e+000
5094:0.0000000000000000e+000
5095:0.0000000000000000e+000
5096:0.0000000000000000e+000
5097:0.0000000000000000e+000
5098:0.0000000000000000e+000
5099:0.0000000000000000e+000
5100:0.0000000000000000e+000
5101:0.0000000000000000e+000
5102:0.0000000000000000e+000
5103:0.0000000000000000e+000
5104:0.0000000000000000e+000
5105:0.0000000000000000e+000
5106:0.0000000000000000e+000
5107:0.0000000000000000e+000
5108:0.0000000000000000e+000
5109:0.0000000000000000e+000
5110:0.0000000000000000e+000
5111:0.0000000000000000e+000
5112:0.0000000000000000e+000
5113:0.0000000000000000e+000
5114:0.0000000000000000e+000
5115:0.0000000000000000e+000
5116:0.0000000000000000e+000
5117:0.0000000000000000e+000
5118:0.0000000000000000e+000
5119:0.0000000000000000e+000
5120:0.0000000000000000e+000
5121:0.0000000000000000e+000
5122:0.0000000000000000e+000
5123:0.0000000000000000e+000
5124:0.0000000000000000e+000
5125:0.0000000000000000e+000
5126:0.0000000000000000e+000
5127:0.0000000000000000e+000
5128:0.0000000000000000e+000
5129:0.0000000000000000e+000
5130:0.0000000000000000e+000
5131:0.0000000000000000e+000
5132:0.0000000000000000e+000
5133:0.0000000000000000e+000
5134:0.0000000000000000e+000
5135:0.0000000000000000e+000
5136:0.0000000000000000e+000
5137:0.0000000000000000e+000
5138:0.0000000000000000e+000
5139:0.0000000000000000e+000
5140:0.0000000000000000e+000
5141:0.0000000000000000e+000
5142:0.0000000000000000e+000
5143:0.0000000000000000e+000
5144:0.0000000000000000e+000
5145:0.0000000000000000e+000
5146:0.0000000000000000e+000
5147:0.0000000000000000e+000
5148:0.0000000000000000e+000
5149:0.0000000000000000e+000
5150:0.0000000000000000e+000
5151:0.0000000000000000e+000
5152:0.0000000000000000e+000
5153:0.0000000000000000e+000
5154:0.0000000000000000e+000
5155:0.0000000000000000e+000
5156:0.0000000000000000e+000
5157:0.0000000000000000e+000
5158:0.0000000000000000e+000
5159:0.0000000000000000e+000
5160:0.0000000000000000e+000
5161:0.0000000000000000e+000
5162:0.0000000000000000e+000
5163:0.0000000000000000e+000
5164:0.0000000000000000e+000
5165:0.0000000000000000e+000
5166:0.0000000000000000e+000
5167:0.0000000000000000e+000
5168:0.0000000000000000e+000
5169:0.0000000000000000e+000
5170:0.0000000000000000e+000
5171:0.0000000000000000e+000
5172:0.0000000000000000e+000
5173:0.0000000000000000e+000
5174:0.0000000000000000e+000
5175:0.0000000000000000e+000
5176:0.0000000000000000e+000
5177:0.0000000000000000e+000
5178:0.0000000000000000e+000
5179:0.0000000000000000e+000
5180:0.0000000000000000e+000
5181:0.0000000000000000e+000
5182:0.0000000000000000e+000
5183:0.0000000000000000e+000
5184:0.0000000000000000e+000
5185:0.0000000000000000e+000
5186:0.0000000000000000e+000
5187:0.0000000000000000e+000
5188:0.0000000000000000e+000
5189:0.0000000000000000e+000
5190:0.0000000000000000e+000
5191:0.0000000000000000e+000
5192:0.0000000000000000e+000
5193:0.0000000000000000e+000
5194:0.0000000000000000e+000
5195:0.0000000000000000e+000
5196:0.0000000000000000e+000
5197:0.0000000000000000e+000
5198:0.0000000000000000e+000
5199:0.0000000000000000e+000
5200:0.0000000000000000e+000
5201:0.0000000000000000e+000
5202:0.0000000000000000e+000
5203:0.0000000000000000e+000
5204:0.0000000000000000e+000
5205:0.0000000000000000e+000
5206:0.0000000000000000e+000
5207:0.0000000000000000e+000
5208:0.0000000000000000e+000
5209:0.0000000000000000e+000
5210:0.0000000000000000e+000
5211:0.0000000000000000e+000
5212:0.0000000000000000e+000
5213:0.0000000000000000e+000
5214:0.0000000000000000e+000
5215:0.0000000000000000e+000
5216:0.0000000000000000e+000
5217:0.0000000000000000e+000
5218:0.0000000000000000e+000
5219:0.0000000000000000e+000
5220:0.0000000000000000e+000
5221:0.0000000000000000e+000
5222:0.0000000000000000e+000
5223:0.0000000000000000e+000
5224:0.0000000000000000e+000
5225:0.0000000000000000e+000
5226:0.0000000000000000e+000
5227:0.0000000000000000e+000
5228:0.0000000000000000e+000
5229:0.0000000000000000e+000
5230:0.0000000000000000e+000
5231:0.0000000000000000e+000
5232:0.0000000000000000e+000
5233:0.0000000000000000e+000
5234:0.0000000000000000e+000
5235:0.0000000000000000e+000
5236:0.0000000000000000e+000
5237:0.0000000000000000e+000
5238:0.0000000000000000e+000
5239:0.0000000000000000e+000
5240:0.0000000000000000e+000
5241:0.0000000000000000e+000
5242:0.0000000000000000e+000
5243:0.0000000000000000e+000
5244:0.0000000000000000e+000
5245:0.0000000000000000e+000
5246:0.0000000000000000e+000
5247:0.0000000000000000e+000
5248:0.0000000000000000e+000
5249:0.0000000000000000e+000
5250:0.0000000000000000e+000
5251:0.0000000000000000e+000
5252:0.0000000000000000e+000
5253:0.0000000000000000e+000
5254:0.0000000000000000e+000
5255:0.0000000000000000e+000
5256:0.0000000000000000e+000
5257:0.0000000000000000e+000
5258:0.0000000000000000e+000
5259:0.0000000000000000e+000
5260:0.0000000000000000e+000
5261:0.0000000000000000e+000
5262:0.0000000000000000e+000
5263:0.0000000000000000e+000
5264:0.0000000000000000e+000
5265:0.0000000000000000e+000
5266:0.0000000000000000e+000
5267:0.0000000000000000e+000
5268:0.0000000000000000e+000
5269:0.0000000000000000e+000
5270:0.0000000000000000e+000
5271:0.0000000000000000e+000
5272:0.0000000000000000e+000
5273:0.0000000000000000e+000
5274:0.0000000000000000e+000
5275:0.0000000000000000e+000
5276:0.0000000000000000e+000
5277:0.0000000000000000e+000
5278:0.0000000000000000e+000
5279:0.0000000000000000e+000
5280:0.0000000000000000e+000
5281:0.0000000000000000e+000
5282:0.0000000000000000e+000
5283:0.0000000000000000e+000
5284:0.0000000000000000e+000
5285:0.0000000000000000e+000
5286:0.0000000000000000e+000
5287:0.0000000000000000e+000
5288:0.0000000000000000e+000
5289:0.0000000000000000e+000
5290:0.0000000000000000e+000
5291:0.0000000000000000e+000
5292:0.0000000000000000e+000
5293:0.0000000000000000e+000
5294:0.0000000000000000e+000
5295:0.0000000000000000e+000
5296:0.0000000000000000e+000
5297:0.0000000000000000e+000
5298:0.0000000000000000e+000
5299:0.0000000000000000e+000
5300:0.0000000000000000e+000
5301:0.0000000000000000e+000
5302:0.0000000000000000e+000
5303:0.0000000000000000e+000
5304:0.0000000000000000e+000
5305:0.0000000000000000e+000
5306:0.0000000000000000e+000
5307:0.0000000000000000e+000
5308:0.0000000000000000e+000
5309:0.0000000000000000e+000
5310:0.0000000000000000e+000
5311:0.0000000000000000e+000
5312:0.0000000000000000e+000
5313:0.0000000000000000e+000
5314:0.0000000000000000e+000
5315:0.0000000000000000e+000
5316:0.0000000000000000e+000
5317:0.0000000000000000e+000
5318:0.0000000000000000e+000
5319:0.0000000000000000e+000
5320:0.0000000000000000e+000
5321:0.0000000000000000e+000
5322:0.0000000000000000e+000
5323:0.0000000000000000e+000
5324:0.0000000000000000e+000
5325:0.0000000000000000e+000
5326:0.0000000000000000e+000
5327:0.0000000000000000e+000
5328:0.0000000000000000e+000
5329:0.0000000000000000e+000
5330:0.0000000000000000e+000
5331:0.0000000000000000e+000
5332:0.0000000000000000e+000
5333:0.0000000000000000e+000
5334:0.0000000000000000e+000
5335:0.0000000000000000e+000
5336:0.0000000000000000e+000
5337:0.0000000000000000e+000
5338:0.0000000000000000e+000
5339:0.0000000000000000e+000
5340:0.0000000000000000e+000
5341:0.0000000000000000e+000
5342:0.0000000000000000e+000
5343:0.0000000000000000e+000
5344:0.0000000000000000e+000
5345:0.0000000000000000e+000
5346:0.0000000000000000e+000
5347:0.0000000000000000e+000
5348:0.0000000000000000e+000
5349:0.0000000000000000e+000
5350:0.0000000000000000e+000
5351:0.0000000000000000e+000
5352:0.0000000000000000e+000
5353:0.0000000000000000e+000
5354:0.0000000000000000e+000
5355:0.0000000000000000e+000
5356:0.0000000000000000e+000
5357:0.0000000000000000e+000
5358:0.0000000000000000e+000
5359:0.0000000000000000e+000
5360:0.0000000000000000e+000
5361:0.0000000000000000e+000
5362:0.0000000000000000e+000
5363:0.0000000000000000e+000
5364:0.0000000000000000e+000
5365:0.0000000000000000e+000
5366:0.0000000000000000e+000
5367:0.0000000000000000e+000
5368:0.0000000000000000e+000
5369:0.0000000000000000e+000
5370:0.0000000000000000e+000
5371:0.0000000000000000e+000
5372:0.0000000000000000e+000
5373:0.0000000000000000e+000
5374:0.0000000000000000e+000
5375:0.0000000000000000e+000
5376:0.0000000000000000e+000
5377:0.0000000000000000e+000
5378:0.0000000000000000e+000
5379:0.0000000000000000e+000
5380:0.0000000000000000e+000
5381:0.0000000000000000e+000
5382:0.0000000000000000e+000
5383:0.0000000000000000e+000
5384:0.0000000000000000e+000
5385:0.0000000000000000e+000
5386:0.0000000000000000e+000
5387:0.0000000000000000e+000
5388:0.0000000000000000e+000
5389:0.0000000000000000e+000
5390:0.0000000000000000e+000
5391:0.0000000000000000e+000
5392:0.0000000000000000e+000
5393:0.0000000000000000e+000
5394:0.0000000000000000e+000
5395:0.0000000000000000e+000
5396:0.0000000000000000e+000
5397:0.0000000000000000e+000
5398:0.0000000000000000e+000
5399:0.0000000000000000e+000
5400:0.0000000000000000e+000
5401:0.0000000000000000e+000
5402:0.0000000000000000e+000
5403:0.0000000000000000e+000
5404:0.0000000000000000e+000
5405:0.0000000000000000e+000
5406:0.0000000000000000e+000
5407:0.0000000000000000e+000
5408:0.0000000000000000e+000
5409:0.0000000000000000e+000
5410:0.0000000000000000e+000
5411:0.0000000000000000e+000
5412:0.0000000000000000e+000
5413:0.0000000000000000e+000
5414:0.0000000000000000e+000
5415:0.0000000000000000e+000
5416:0.0000000000000000e+000
5417:0.0000000000000000e+000
5418:0.0000000000000000e+000
5419:0.0000000000000000e+000
5420:0.0000000000000000e+000
5421:0.0000000000000000e+000
5422:0.0000000000000000e+000
5423:0.0000000000000000e+000
5424:0.0000000000000000e+000
5425:0.0000000000000000e+000
5426:0.0000000000000000e+000
5427:0.0000000000000000e+000
5428:0.0000000000000000e+000
5429:0.0000000000000000e+000
5430:0.0000000000000000e+000
5431:0.0000000000000000e+000
5432:0.0000000000000000e+000
5433:0.0000000000000000e+000
5434:0.0000000000000000e+000
5435:0.0000000000000000e+000
5436:0.0000000000000000e+000
5437:0.0000000000000000e+000
5438:0.0000000000000000e+000
5439:0.0000000000000000e+000
5440:0.0000000000000000e+000
5441:0.0000000000000000e+000
5442:0.0000000000000000e+000
5443:0.0000000000000000e+000
5444:0.0000000000000000e+000
5445:0.0000000000000000e+000
5446:0.0000000000000000e+000
5447:0.0000000000000000e+000
5448:0.0000000000000000e+000
5449:0.0000000000000000e+000
5450:0.0000000000000000e+000
5451:0.0000000000000000e+000
5452:0.0000000000000000e+000
5453:0.0000000000000000e+000
5454:0.0000000000000000e+000
5455:0.0000000000000000e+000
5456:0.0000000000000000e+000
5457:0.0000000000000000e+000
5458:0.0000000000000000e+000
5459:0.0000000000000000e+000
5460:0.0000000000000000e+000
5461:0.0000000000000000e+000
5462:0.0000000000000000e+000
5463:0.0000000000000000e+000
5464:0.0000000000000000e+000
5465:0.0000000000000000e+000
5466:0.0000000000000000e+000
5467:0.0000000000000000e+000
5468:0.0000000000000000e+000
5469:0.0000000000000000e+000
5470:0.0000000000000000e+000
5471:0.0000000000000000e+000
5472:0.0000000000000000e+000
5473:0.0000000000000000e+000
5474:0.0000000000000000e+000
5475:0.0000000000000000e+000
5476:0.0000000000000000e+000
5477:0.0000000000000000e+000
5478:0.0000000000000000e+000
5479:0.0000000000000000e+000
5480:0.0000000000000000e+000
5481:0.0000000000000000e+000
5482:0.0000000000000000e+000
5483:0.0000000000000000e+000
5484:0.0000000000000000e+000
5485:0.0000000000000000e+000
5486:0.0000000000000000e+000
5487:0.0000000000000000e+000
5488:0.0000000000000000e+000
5489:0.0000000000000000e+000
5490:0.0000000000000000e+000
5491:0.0000000000000000e+000
5492:0.0000000000000000e+000
5493:0.0000000000000000e+000
5494:0.0000000000000000e+000
5495:0.0000000000000000e+000
5496:0.0000000000000000e+000
5497:0.0000000000000000e+000
5498:0.0000000000000000e+000
5499:0.0000000000000000e+000
5500:0.0000000000000000e+000
5501:0.0000000000000000e+000
5502:0.0000000000000000e+000
5503:0.0000000000000000e+000
5504:0.0000000000000000e+000
5505:0.0000000000000000e+000
5506:0.0000000000000000e+000
5507:0.0000000000000000e+000
5508:0.0000000000000000e+000
5509:0.0000000000000000e+000
5510:0.0000000000000000e+000
5511:0.0000000000000000e+000
5512:0.0000000000000000e+000
5513:0.0000000000000000e+000
5514:0.0000000000000000e+000
5515:0.0000000000000000e+000
5516:0.0000000000000000e+000
5517:0.0000000000000000e+000
5518:0.0000000000000000e+000
5519:0.0000000000000000e+000
5520:0.0000000000000000e+000
5521:0.0000000000000000e+000
5522:0.0000000000000000e+000
5523:0.0000000000000000e+000
5524:0.0000000000000000e+000
5525:0.0000000000000000e+000
5526:0.0000000000000000e+000
5527:0.0000000000000000e+000
5528:0.0000000000000000e+000
5529:0.0000000000000000e+000
5530:0.0000000000000000e+000
5531:0.0000000000000000e+000
5532:0.0000000000000000e+000
5533:0.0000000000000000e+000
5534:0.0000000000000000e+000
5535:0.0000000000000000e+000
5536:0.0000000000000000e+000
5537:0.0000000000000000e+000
5538:0.0000000000000000e+000
5539:0.0000000000000000e+000
5540:0.0000000000000000e+000
5541:0.0000000000000000e+000
5542:0.0000000000000000e+000
5543:0.0000000000000000e+000
5544:0.0000000000000000e+000
5545:0.0000000000000000e+000
5546:0.0000000000000000e+000
5547:0.0000000000000000e+000
5548:0.0000000000000000e+000
5549:0.0000000000000000e+000
5550:0.0000000000000000e+000
5551:0.0000000000000000e+000
5552:0.0000000000000000e+000
5553:0.0000000000000000e+000
5554:0.0000000000000000e+000
5555:0.0000000000000000e+000
5556:0.0000000000000000e+000
5557:0.0000000000000000e+000
5558:0.0000000000000000e+000
5559:0.0000000000000000e+000
5560:0.0000000000000000e+000
5561:0.0000000000000000e+000
5562:0.0000000000000000e+000
5563:0.0000000000000000e+000
5564:0.0000000000000000e+000
5565:0.0000000000000000e+000
5566:0.0000000000000000e+000
5567:0.0000000000000000e+000
5568:0.0000000000000000e+000
5569:0.0000000000000000e+000
5570:0.0000000000000000e+000
5571:0.0000000000000000e+000
5572:0.0000000000000000e+000
5573:0.0000000000000000e+000
5574:0.0000000000000000e+000
5575:0.0000000000000000e+000
5576:0.0000000000000000e+000
5577:0.0000000000000000e+000
5578:0.0000000000000000e+000
5579:0.0000000000000000e+000
5580:0.0000000000000000e+000
5581:0.0000000000000000e+000
5582:0.0000000000000000e+000
5583:0.0000000000000000e+000
5584:0.0000000000000000e+000
5585:0.0000000000000000e+000
5586:0.0000000000000000e+000
5587:0.0000000000000000e+000
5588:0.0000000000000000e+000
5589:0.0000000000000000e+000
5590:0.0000000000000000e+000
5591:0.0000000000000000e+000
5592:0.0000000000000000e+000
5593:0.0000000000000000e+000
5594:0.0000000000000000e+000
5595:0.0000000000000000e+000
5596:0.0000000000000000e+000
5597:0.0000000000000000e+000
5598:0.0000000000000000e+000
5599:0.0000000000000000e+000
5600:0.0000000000000000e+000
5601:0.0000000000000000e+000
5602:0.0000000000000000e+000
5603:0.0000000000000000e+000
5604:0.0000000000000000e+000
5605:0.0000000000000000e+000
5606:0.0000000000000000e+000
5607:0.0000000000000000e+000
5608:0.0000000000000000e+000
5609:0.0000000000000000e+000
5610:0.0000000000000000e+000
5611:0.0000000000000000e+000
5612:0.0000000000000000e+000
5613:0.0000000000000000e+000
5614:0.0000000000000000e+000
5615:0.0000000000000000e+000
5616:0.0000000000000000e+000
5617:0.0000000000000000e+000
5618:0.0000000000000000e+000
5619:0.0000000000000000e+000
5620:0.0000000000000000e+000
5621:0.0000000000000000e+000
5622:0.0000000000000000e+000
5623:0.0000000000000000e+000
5624:0.0000000000000000e+000
5625:0.0000000000000000e+000
5626:0.0000000000000000e+000
5627:0.0000000000000000e+000
5628:0.0000000000000000e+000
5629:0.0000000000000000e+000
5630:0.0000000000000000e+000
5631:0.0000000000000000e+000
5632:0.0000000000000000e+000
5633:0.0000000000000000e+000
5634:0.0000000000000000e+000
5635:0.0000000000000000e+000
5636:0.0000000000000000e+000
5637:0.0000000000000000e+000
5638:0.0000000000000000e+000
5639:0.0000000000000000e+000
5640:0.0000000000000000e+000
5641:0.0000000000000000e+000
5642:0.0000000000000000e+000
5643:0.0000000000000000e+000
5644:0.0000000000000000e+000
5645:0.0000000000000000e+000
5646:0.0000000000000000e+000
5647:0.0000000000000000e+000
5648:0.0000000000000000e+000
5649:0.0000000000000000e+000
5650:0.0000000000000000e+000
5651:0.0000000000000000e+000
5652:0.0000000000000000e+000
5653:0.0000000000000000e+000
5654:0.0000000000000000e+000
5655:0.0000000000000000e+000
5656:0.0000000000000000e+000
5657:0.0000000000000000e+000
5658:0.0000000000000000e+000
5659:0.0000000000000000e+000
5660:0.0000000000000000e+000
5661:0.0000000000000000e+000
5662:0.0000000000000000e+000
5663:0.0000000000000000e+000
5664:0.0000000000000000e+000
5665:0.0000000000000000e+000
5666:0.0000000000000000e+000
5667:0.0000000000000000e+000
5668:0.0000000000000000e+000
5669:0.0000000000000000e+000
5670:0.0000000000000000e+000
5671:0.0000000000000000e+000
5672:0.0000000000000000e+000
5673:0.0000000000000000e+000
5674:0.0000000000000000e+000
5675:0.0000000000000000e+000
5676:0.0000000000000000e+000
5677:0.0000000000000000e+000
5678:0.0000000000000000e+000
5679:0.0000000000000000e+000
5680:0.0000000000000000e+000
5681:0.0000000000000000e+000
5682:0.0000000000000000e+000
5683:0.0000000000000000e+000
5684:0.0000000000000000e+000
5685:0.0000000000000000e+000
5686:0.0000000000000000e+000
5687:0.0000000000000000e+000
5688:0.0000000000000000e+000
5689:0.0000000000000000e+000
5690:0.0000000000000000e+000
5691:0.0000000000000000e+000
5692:0.0000000000000000e+000
5693:0.0000000000000000e+000
5694:0.0000000000000000e+000
5695:0.0000000000000000e+000
5696:0.0000000000000000e+000
5697:0.0000000000000000e+000
5698:0.0000000000000000e+000
5699:0.0000000000000000e+000
5700:0.0000000000000000e+000
5701:0.0000000000000000e+000
5702:0.0000000000000000e+000
5703:0.0000000000000000e+000
5704:0.0000000000000000e+000
5705:0.0000000000000000e+000
5706:0.0000000000000000e+000
5707:0.0000000000000000e+000
5708:0.0000000000000000e+000
5709:0.0000000000000000e+000
5710:0.0000000000000000e+000
5711:0.0000000000000000e+000
5712:0.0000000000000000e+000
5713:0.0000000000000000e+000
5714:0.0000000000000000e+000
5715:0.0000000000000000e+000
5716:0.0000000000000000e+000
5717:0.0000000000000000e+000
5718:0.0000000000000000e+000
5719:0.0000000000000000e+000
5720:0.0000000000000000e+000
5721:0.0000000000000000e+000
5722:0.0000000000000000e+000
5723:0.0000000000000000e+000
5724:0.0000000000000000e+000
5725:0.0000000000000000e+000
5726:0.0000000000000000e+000
5727:0.0000000000000000e+000
5728:0.0000000000000000e+000
5729:0.0000000000000000e+000
5730:0.0000000000000000e+000
5731:0.0000000000000000e+000
5732:0.0000000000000000e+000
5733:0.0000000000000000e+000
5734:0.0000000000000000e+000
5735:0.0000000000000000e+000
5736:0.0000000000000000e+000
5737:0.0000000000000000e+000
5738:0.0000000000000000e+000
5739:0.0000000000000000e+000
5740:0.0000000000000000e+000
5741:0.0000000000000000e+000
5742:0.0000000000000000e+000
5743:0.0000000000000000e+000
5744:0.0000000000000000e+000
5745:0.0000000000000000e+000
5746:0.0000000000000000e+000
5747:0.0000000000000000e+000
5748:0.0000000000000000e+000
5749:0.0000000000000000e+000
5750:0.0000000000000000e+000
5751:0.0000000000000000e+000
5752:0.0000000000000000e+000
5753:0.0000000000000000e+000
5754:0.0000000000000000e+000
5755:0.0000000000000000e+000
5756:0.0000000000000000e+000
5757:0.0000000000000000e+000
5758:0.0000000000000000e+000
5759:0.0000000000000000e+000
5760:0.0000000000000000e+000
5761:0.0000000000000000e+000
5762:0.0000000000000000e+000
5763:0.0000000000000000e+000
5764:0.0000000000000000e+000
5765:0.0000000000000000e+000
5766:0.0000000000000000e+000
5767:0.0000000000000000e+000
5768:0.0000000000000000e+000
5769:0.0000000000000000e+000
5770:0.0000000000000000e+000
5771:0.0000000000000000e+000
5772:0.0000000000000000e+000
5773:0.0000000000000000e+000
5774:0.0000000000000000e+000
5775:0.0000000000000000e+000
5776:0.0000000000000000e+000
5777:0.0000000000000000e+000
5778:0.0000000000000000e+000
5779:0.0000000000000000e+000
5780:0.0000000000000000e+000
5781:0.0000000000000000e+000
5782:0.0000000000000000e+000
5783:0.0000000000000000e+000
5784:0.0000000000000000e+000
5785:0.0000000000000000e+000
5786:0.0000000000000000e+000
5787:0.0000000000000000e+000
5788:0.0000000000000000e+000
5789:0.0000000000000000e+000
5790:0.0000000000000000e+000
5791:0.0000000000000000e+000
5792:0.0000000000000000e+000
5793:0.0000000000000000e+000
5794:0.0000000000000000e+000
5795:0.0000000000000000e+000
5796:0.0000000000000000e+000
5797:0.0000000000000000e+000
5798:0.0000000000000000e+000
5799:0.0000000000000000e+000
5800:0.0000000000000000e+000
5801:0.0000000000000000e+000
5802:0.0000000000000000e+000
5803:0.0000000000000000e+000
5804:0.0000000000000000e+000
5805:0.0000000000000000e+000
5806:0.0000000000000000e+000
5807:0.0000000000000000e+000
5808:0.0000000000000000e+000
5809:0.0000000000000000e+000
5810:0.0000000000000000e+000
5811:0.0000000000000000e+000
5812:0.0000000000000000e+000
5813:0.0000000000000000e+000
5814:0.0000000000000000e+000
5815:0.0000000000000000e+000
5816:0.0000000000000000e+000
5817:0.0000000000000000e+000
5818:0.0000000000000000e+000
5819:0.0000000000000000e+000
5820:0.0000000000000000e+000
5821:0.0000000000000000e+000
5822:0.0000000000000000e+000
5823:0.0000000000000000e+000
5824:0.0000000000000000e+000
5825:0.0000000000000000e+000
5826:0.0000000000000000e+000
5827:0.0000000000000000e+000
5828:0.0000000000000000e+000
5829:0.0000000000000000e+000
5830:0.0000000000000000e+000
5831:0.0000000000000000e+000
5832:0.0000000000000000e+000
5833:0.0000000000000000e+000
5834:0.0000000000000000e+000
5835:0.0000000000000000e+000
5836:0.0000000000000000e+000
5837:0.0000000000000000e+000
5838:0.0000000000000000e+000
5839:0.0000000000000000e+000
5840:0.0000000000000000e+000
5841:0.0000000000000000e+000
5842:0.0000000000000000e+000
5843:0.0000000000000000e+000
5844:0.0000000000000000e+000
5845:0.0000000000000000e+000
5846:0.0000000000000000e+000
5847:0.0000000000000000e+000
5848:0.0000000000000000e+000
5849:0.0000000000000000e+000
5850:0.0000000000000000e+000
5851:0.0000000000000000e+000
5852:0.0000000000000000e+000
5853:0.0000000000000000e+000
5854:0.0000000000000000e+000
5855:0.0000000000000000e+000
5856:0.0000000000000000e+000
5857:0.0000000000000000e+000
5858:0.0000000000000000e+000
5859:0.0000000000000000e+000
5860:0.0000000000000000e+000
5861:0.0000000000000000e+000
5862:0.0000000000000000e+000
5863:0.0000000000000000e+000
5864:0.0000000000000000e+000
5865:0.0000000000000000e+000
5866:0.0000000000000000e+000
5867:0.0000000000000000e+000
5868:0.0000000000000000e+000
5869:0.0000000000000000e+000
5870:0.0000000000000000e+000
5871:0.0000000000000000e+000
5872:0.0000000000000000e+000
5873:0.0000000000000000e+000
5874:0.0000000000000000e+000
5875:0.0000000000000000e+000
5876:0.0000000000000000e+000
5877:0.0000000000000000e+000
5878:0.0000000000000000e+000
5879:0.0000000000000000e+000
5880:0.0000000000000000e+000
5881:0.0000000000000000e+000
5882:0.0000000000000000e+000
5883:0.0000000000000000e+000
5884:0.0000000000000000e+000
5885:0.0000000000000000e+000
5886:0.0000000000000000e+000
5887:0.0000000000000000e+000
5888:0.0000000000000000e+000
5889:0.0000000000000000e+000
5890:0.0000000000000000e+000
5891:0.0000000000000000e+000
5892:0.0000000000000000e+000
5893:0.0000000000000000e+000
5894:0.0000000000000000e+000
5895:0.0000000000000000e+000
5896:0.0000000000000000e+000
5897:0.0000000000000000e+000
5898:0.0000000000000000e+000
5899:0.0000000000000000e+000
5900:0.0000000000000000e+000
5901:0.0000000000000000e+000
5902:0.0000000000000000e+000
5903:0.0000000000000000e+000
5904:0.0000000000000000e+000
5905:0.0000000000000000e+000
5906:0.0000000000000000e+000
5907:0.0000000000000000e+000
5908:0.0000000000000000e+000
5909:0.0000000000000000e+000
5910:0.0000000000000000e+000
5911:0.0000000000000000e+000
5912:0.0000000000000000e+000
5913:0.0000000000000000e+000
5914:0.0000000000000000e+000
5915:0.0000000000000000e+000
5916:0.0000000000000000e+000
5917:0.0000000000000000e+000
5918:0.0000000000000000e+000
5919:0.0000000000000000e+000
5920:0.0000000000000000e+000
5921:0.0000000000000000e+000
5922:0.0000000000000000e+000
5923:0.0000000000000000e+000
5924:0.0000000000000000e+000
5925:0.0000000000000000e+000
5926:0.0000000000000000e+000
5927:0.0000000000000000e+000
5928:0.0000000000000000e+000
5929:0.0000000000000000e+000
5930:0.0000000000000000e+000
5931:0.0000000000000000e+000
5932:0.0000000000000000e+000
5933:0.0000000000000000e+000
5934:0.0000000000000000e+000
5935:0.0000000000000000e+000
5936:0.0000000000000000e+000
5937:0.0000000000000000e+000
5938:0.0000000000000000e+000
5939:0.0000000000000000e+000
5940:0.0000000000000000e+000
5941:0.0000000000000000e+000
5942:0.0000000000000000e+000
5943:0.0000000000000000e+000
5944:0.0000000000000000e+000
5945:0.0000000000000000e+000
5946:0.0000000000000000e+000
5947:0.0000000000000000e+000
5948:0.0000000000000000e+000
5949:0.0000000000000000e+000
5950:0.0000000000000000e+000
5951:0.0000000000000000e+000
5952:0.0000000000000000e+000
5953:0.0000000000000000e+000
5954:0.0000000000000000e+000
5955:0.0000000000000000e+000
5956:0.0000000000000000e+000
5957:0.0000000000000000e+000
5958:0.0000000000000000e+000
5959:0.0000000000000000e+000
5960:0.0000000000000000e+000
5961:0.0000000000000000e+000
5962:0.0000000000000000e+000
5963:0.0000000000000000e+000
5964:0.0000000000000000e+000
5965:0.0000000000000000e+000
5966:0.0000000000000000e+000
5967:0.0000000000000000e+000
5968:0.0000000000000000e+000
5969:0.0000000000000000e+000
5970:0.0000000000000000e+000
5971:0.0000000000000000e+000
5972:0.0000000000000000e+000
5973:0.0000000000000000e+000
5974:0.0000000000000000e+000
5975:0.0000000000000000e+000
5976:0.0000000000000000e+000
5977:0.0000000000000000e+000
5978:0.0000000000000000e+000
5979:0.0000000000000000e+000
5980:0.0000000000000000e+000
5981:0.0000000000000000e+000
5982:0.0000000000000000e+000
5983:0.0000000000000000e+000
5984:0.0000000000000000e+000
5985:0.0000000000000000e+000
5986:0.0000000000000000e+000
5987:0.0000000000000000e+000
5988:0.0000000000000000e+000
5989:0.0000000000000000e+000
5990:0.0000000000000000e+000
5991:0.0000000000000000e+000
5992:0.0000000000000000e+000
5993:0.0000000000000000e+000
5994:0.0000000000000000e+000
5995:0.0000000000000000e+000
5996:0.0000000000000000e+000
5997:0.0000000000000000e+000
5998:0.0000000000000000e+000
5999:0.0000000000000000e+000
6000:0.0000000000000000e+000
6001:0.0000000000000000e+000
6002:0.0000000000000000e+000
6003:0.0000000000000000e+000
6004:0.0000000000000000e+000
6005:0.0000000000000000e+000
6006:0.0000000000000000e+000
6007:0.0000000000000000e+000
6008:0.0000000000000000e+000
6009:0.0000000000000000e+000
6010:0.0000000000000000e+000
6011:0.0000000000000000e+000
6012:0.0000000000000000e+000
6013:0.0000000000000000e+000
6014:0.0000000000000000e+000
6015:0.0000000000000000e+000
6016:0.0000000000000000e+000
6017:0.0000000000000000e+000
6018:0.0000000000000000e+000
6019:0.0000000000000000e+000
6020:0.0000000000000000e+000
6021:0.0000000000000000e+000
6022:0.0000000000000000e+000
6023:0.0000000000000000e+000
6024:0.0000000000000000e+000
6025:0.0000000000000000e+000
6026:0.0000000000000000e+000
6027:0.0000000000000000e+000
6028:0.0000000000000000e+000
6029:0.0000000000000000e+000
6030:0.0000000000000000e+000
6031:0.0000000000000000e+000
6032:0.0000000000000000e+000
6033:0.0000000000000000e+000
6034:0.0000000000000000e+000
6035:0.0000000000000000e+000
6036:0.0000000000000000e+000
6037:0.0000000000000000e+000
6038:0.0000000000000000e+000
6039:0.0000000000000000e+000
6040:0.0000000000000000e+000
6041:0.0000000000000000e+000
6042:0.0000000000000000e+000
6043:0.0000000000000000e+000
6044:0.0000000000000000e+000
6045:0.0000000000000000e+000
6046:0.0000000000000000e+000
6047:0.0000000000000000e+000
6048:0.0000000000000000e+000
6049:0.0000000000000000e+000
6050:0.0000000000000000e+000
6051:0.0000000000000000e+000
6052:0.0000000000000000e+000
6053:0.0000000000000000e+000
6054:0.0000000000000000e+000
6055:0.0000000000000000e+000
6056:0.0000000000000000e+000
6057:0.0000000000000000e+000
6058:0.0000000000000000e+000
6059:0.0000000000000000e+000
6060:0.0000000000000000e+000
6061:0.0000000000000000e+000
6062:0.0000000000000000e+000
6063:0.0000000000000000e+000
6064:0.0000000000000000e+000
6065:0.0000000000000000e+000
6066:0.0000000000000000e+000
6067:0.0000000000000000e+000
6068:0.0000000000000000e+000
6069:0.0000000000000000e+000
6070:0.0000000000000000e+000
6071:0.0000000000000000e+000
6072:0.0000000000000000e+000
6073:0.0000000000000000e+000
6074:0.0000000000000000e+000
6075:0.0000000000000000e+000
6076:0.0000000000000000e+000
6077:0.0000000000000000e+000
6078:0.0000000000000000e+000
6079:0.0000000000000000e+000
6080:0.0000000000000000e+000
6081:0.0000000000000000e+000
6082:0.0000000000000000e+000
6083:0.0000000000000000e+000
6084:0.0000000000000000e+000
6085:0.0000000000000000e+000
6086:0.0000000000000000e+000
6087:0.0000000000000000e+000
6088:0.0000000000000000e+000
6089:0.0000000000000000e+000
6090:0.0000000000000000e+000
6091:0.0000000000000000e+000
6092:0.0000000000000000e+000
6093:0.0000000000000000e+000
6094:0.0000000000000000e+000
6095:0.0000000000000000e+000
6096:0.0000000000000000e+000
6097:0.0000000000000000e+000
6098:0.0000000000000000e+000
6099:0.0000000000000000e+000
6100:0.0000000000000000e+000
6101:0.0000000000000000e+000
6102:0.0000000000000000e+000
6103:0.0000000000000000e+000
6104:0.0000000000000000e+000
6105:0.0000000000000000e+000
6106:0.0000000000000000e+000
6107:0.0000000000000000e+000
6108:0.0000000000000000e+000
6109:0.0000000000000000e+000
6110:0.0000000000000000e+000
6111:0.0000000000000000e+000
6112:0.0000000000000000e+000
6113:0.0000000000000000e+000
6114:0.0000000000000000e+000
6115:0.0000000000000000e+000
6116:0.0000000000000000e+000
6117:0.0000000000000000e+000
6118:0.0000000000000000e+000
6119:0.0000000000000000e+000
6120:0.0000000000000000e+000
6121:0.0000000000000000e+000
6122:0.0000000000000000e+000
6123:0.0000000000000000e+000
6124:0.0000000000000000e+000
6125:0.0000000000000000e+000
6126:0.0000000000000000e+000
6127:0.0000000000000000e+000
6128:0.0000000000000000e+000
6129:0.0000000000000000e+000
6130:0.0000000000000000e+000
6131:0.0000000000000000e+000
6132:0.0000000000000000e+000
6133:0.0000000000000000e+000
6134:0.0000000000000000e+000
6135:0.0000000000000000e+000
6136:0.0000000000000000e+000
6137:0.0000000000000000e+000
6138:0.0000000000000000e+000
6139:0.0000000000000000e+000
6140:0.0000000000000000e+000
6141:0.0000000000000000e+000
6142:0.0000000000000000e+000
6143:0.0000000000000000e+000
6144:0.0000000000000000e+000
6145:0.0000000000000000e+000
6146:0.0000000000000000e+000
6147:0.0000000000000000e+000
6148:0.0000000000000000e+000
6149:0.0000000000000000e+000
6150:0.0000000000000000e+000
6151:0.0000000000000000e+000
6152:0.0000000000000000e+000
6153:0.0000000000000000e+000
6154:0.0000000000000000e+000
6155:0.0000000000000000e+000
6156:0.0000000000000000e+000
6157:0.0000000000000000e+000
6158:0.0000000000000000e+000
6159:0.0000000000000000e+000
6160:0.0000000000000000e+000
6161:0.0000000000000000e+000
6162:0.0000000000000000e+000
6163:0.0000000000000000e+000
6164:0.0000000000000000e+000
6165:0.0000000000000000e+000
6166:0.0000000000000000e+000
6167:0.0000000000000000e+000
6168:0.0000000000000000e+000
6169:0.0000000000000000e+000
6170:0.0000000000000000e+000
6171:0.0000000000000000e+000
6172:0.0000000000000000e+000
6173:0.0000000000000000e+000
6174:0.0000000000000000e+000
6175:0.0000000000000000e+000
6176:0.0000000000000000e+000
6177:0.0000000000000000e+000
6178:0.0000000000000000e+000
6179:0.0000000000000000e+000
6180:0.0000000000000000e+000
6181:0.0000000000000000e+000
6182:0.0000000000000000e+000
6183:0.0000000000000000e+000
6184:0.0000000000000000e+000
6185:0.0000000000000000e+000
6186:0.0000000000000000e+000
6187:0.0000000000000000e+000
6188:0.0000000000000000e+000
6189:0.0000000000000000e+000
6190:0.0000000000000000e+000
6191:0.0000000000000000e+000
6192:0.0000000000000000e+000
6193:0.0000000000000000e+000
6194:0.0000000000000000e+000
6195:0.0000000000000000e+000
6196:0.0000000000000000e+000
6197:0.0000000000000000e+000
6198:0.0000000000000000e+000
6199:0.0000000000000000e+000
6200:0.0000000000000000e+000
6201:0.0000000000000000e+000
6202:0.0000000000000000e+000
6203:0.0000000000000000e+000
6204:0.0000000000000000e+000
6205:0.0000000000000000e+000
6206:0.0000000000000000e+000
6207:0.0000000000000000e+000
6208:0.0000000000000000e+000
6209:0.0000000000000000e+000
6210:0.0000000000000000e+000
6211:0.0000000000000000e+000
6212:0.0000000000000000e+000
6213:0.0000000000000000e+000
6214:0.0000000000000000e+000
6215:0.0000000000000000e+000
6216:0.0000000000000000e+000
6217:0.0000000000000000e+000
6218:0.0000000000000000e+000
6219:0.0000000000000000e+000
6220:0.0000000000000000e+000
6221:0.0000000000000000e+000
6222:0.0000000000000000e+000
6223:0.0000000000000000e+000
6224:0.0000000000000000e+000
6225:0.0000000000000000e+000
6226:0.0000000000000000e+000
6227:0.0000000000000000e+000
6228:0.0000000000000000e+000
6229:0.0000000000000000e+000
6230:0.0000000000000000e+000
6231:0.0000000000000000e+000
6232:0.0000000000000000e+000
6233:0.0000000000000000e+000
6234:0.0000000000000000e+000
6235:0.0000000000000000e+000
6236:0.0000000000000000e+000
6237:0.0000000000000000e+000
6238:0.0000000000000000e+000
6239:0.0000000000000000e+000
6240:0.0000000000000000e+000
6241:0.0000000000000000e+000
6242:0.0000000000000000e+000
6243:0.0000000000000000e+000
6244:0.0000000000000000e+000
6245:0.0000000000000000e+000
6246:0.0000000000000000e+000
6247:0.0000000000000000e+000
6248:0.0000000000000000e+000
6249:0.0000000000000000e+000
6250:0.0000000000000000e+000
6251:0.0000000000000000e+000
6252:0.0000000000000000e+000
6253:0.0000000000000000e+000
6254:0.0000000000000000e+000
6255:0.0000000000000000e+000
6256:0.0000000000000000e+000
6257:0.0000000000000000e+000
6258:0.0000000000000000e+000
6259:0.0000000000000000e+000
6260:0.0000000000000000e+000
6261:0.0000000000000000e+000
6262:0.0000000000000000e+000
6263:0.0000000000000000e+000
6264:0.0000000000000000e+000
6265:0.0000000000000000e+000
6266:0.0000000000000000e+000
6267:0.0000000000000000e+000
6268:0.0000000000000000e+000
6269:0.0000000000000000e+000
6270:0.0000000000000000e+000
6271:0.0000000000000000e+000
6272:0.0000000000000000e+000
6273:0.0000000000000000e+000
6274:0.0000000000000000e+000
6275:0.0000000000000000e+000
6276:0.0000000000000000e+000
6277:0.0000000000000000e+000
6278:0.0000000000000000e+000
6279:0.0000000000000000e+000
6280:0.0000000000000000e+000
6281:0.0000000000000000e+000
6282:0.0000000000000000e+000
6283:0.0000000000000000e+000
6284:0.0000000000000000e+000
6285:0.0000000000000000e+000
6286:0.0000000000000000e+000
6287:0.0000000000000000e+000
6288:0.0000000000000000e+000
6289:0.0000000000000000e+000
6290:0.0000000000000000e+000
6291:0.0000000000000000e+000
6292:0.0000000000000000e+000
6293:0.0000000000000000e+000
6294:0.0000000000000000e+000
6295:0.0000000000000000e+000
6296:0.0000000000000000e+000
6297:0.0000000000000000e+000
6298:0.0000000000000000e+000
6299:0.0000000000000000e+000
6300:0.0000000000000000e+000
6301:0.0000000000000000e+000
6302:0.0000000000000000e+000
6303:0.0000000000000000e+000
6304:0.0000000000000000e+000
6305:0.0000000000000000e+000
6306:0.0000000000000000e+000
6307:0.0000000000000000e+000
6308:0.0000000000000000e+000
6309:0.0000000000000000e+000
6310:0.0000000000000000e+000
6311:0.0000000000000000e+000
6312:0.0000000000000000e+000
6313:0.0000000000000000e+000
6314:0.0000000000000000e+000
6315:0.0000000000000000e+000
6316:0.0000000000000000e+000
6317:0.0000000000000000e+000
6318:0.0000000000000000e+000
6319:0.0000000000000000e+000
6320:0.0000000000000000e+000
6321:0.0000000000000000e+000
6322:0.0000000000000000e+000
6323:0.0000000000000000e+000
6324:0.0000000000000000e+000
6325:0.0000000000000000e+000
6326:0.0000000000000000e+000
6327:0.0000000000000000e+000
6328:0.0000000000000000e+000
6329:0.0000000000000000e+000
6330:0.0000000000000000e+000
6331:0.0000000000000000e+000
6332:0.0000000000000000e+000
6333:0.0000000000000000e+000
6334:0.0000000000000000e+000
6335:0.0000000000000000e+000
6336:0.0000000000000000e+000
6337:0.0000000000000000e+000
6338:0.0000000000000000e+000
6339:0.0000000000000000e+000
6340:0.0000000000000000e+000
6341:0.0000000000000000e+000
6342:0.0000000000000000e+000
6343:0.0000000000000000e+000
6344:0.0000000000000000e+000
6345:0.0000000000000000e+000
6346:0.0000000000000000e+000
6347:0.0000000000000000e+000
6348:0.0000000000000000e+000
6349:0.0000000000000000e+000
6350:0.0000000000000000e+000
6351:0.0000000000000000e+000
6352:0.0000000000000000e+000
6353:0.0000000000000000e+000
6354:0.0000000000000000e+000
6355:0.0000000000000000e+000
6356:0.0000000000000000e+000
6357:0.0000000000000000e+000
6358:0.0000000000000000e+000
6359:0.0000000000000000e+000
6360:0.0000000000000000e+000
6361:0.0000000000000000e+000
6362:0.0000000000000000e+000
6363:0.0000000000000000e+000
6364:0.0000000000000000e+000
6365:0.0000000000000000e+000
6366:0.0000000000000000e+000
6367:0.0000000000000000e+000
6368:0.0000000000000000e+000
6369:0.0000000000000000e+000
6370:0.0000000000000000e+000
6371:0.0000000000000000e+000
6372:0.0000000000000000e+000
6373:0.0000000000000000e+000
6374:0.0000000000000000e+000
6375:0.0000000000000000e+000
6376:0.0000000000000000e+000
6377:0.0000000000000000e+000
6378:0.0000000000000000e+000
6379:0.0000000000000000e+000
6380:0.0000000000000000e+000
6381:0.0000000000000000e+000
6382:0.0000000000000000e+000
6383:0.0000000000000000e+000
6384:0.0000000000000000e+000
6385:0.0000000000000000e+000
6386:0.0000000000000000e+000
6387:0.0000000000000000e+000
6388:0.0000000000000000e+000
6389:0.0000000000000000e+000
6390:0.0000000000000000e+000
6391:0.0000000000000000e+000
6392:0.0000000000000000e+000
6393:0.0000000000000000e+000
6394:0.0000000000000000e+000
6395:0.0000000000000000e+000
6396:0.0000000000000000e+000
6397:0.0000000000000000e+000
6398:0.0000000000000000e+000
6399:0.0000000000000000e+000
6400:0.0000000000000000e+000
6401:0.0000000000000000e+000
6402:0.0000000000000000e+000
6403:0.0000000000000000e+000
6404:0.0000000000000000e+000
6405:0.0000000000000000e+000
6406:0.0000000000000000e+000
6407:0.0000000000000000e+000
6408:0.0000000000000000e+000
6409:0.0000000000000000e+000
6410:0.0000000000000000e+000
6411:0.0000000000000000e+000
6412:0.0000000000000000e+000
6413:0.0000000000000000e+000
6414:0.0000000000000000e+000
6415:0.0000000000000000e+000
6416:0.0000000000000000e+000
6417:0.0000000000000000e+000
6418:0.0000000000000000e+000
6419:0.0000000000000000e+000
6420:0.0000000000000000e+000
6421:0.0000000000000000e+000
6422:0.0000000000000000e+000
6423:0.0000000000000000e+000
6424:0.0000000000000000e+000
6425:0.0000000000000000e+000
6426:0.0000000000000000e+000
6427:0.0000000000000000e+000
6428:0.0000000000000000e+000
6429:0.0000000000000000e+000
6430:0.0000000000000000e+000
6431:0.0000000000000000e+000
6432:0.0000000000000000e+000
6433:0.0000000000000000e+000
6434:0.0000000000000000e+000
6435:0.0000000000000000e+000
6436:0.0000000000000000e+000
6437:0.0000000000000000e+000
6438:0.0000000000000000e+000
6439:0.0000000000000000e+000
6440:0.0000000000000000e+000
6441:0.0000000000000000e+000
6442:0.0000000000000000e+000
6443:0.0000000000000000e+000
6444:0.0000000000000000e+000
6445:0.0000000000000000e+000
6446:0.0000000000000000e+000
6447:0.0000000000000000e+000
6448:0.0000000000000000e+000
6449:0.0000000000000000e+000
6450:0.0000000000000000e+000
6451:0.0000000000000000e+000
6452:0.0000000000000000e+000
6453:0.0000000000000000e+000
6454:0.0000000000000000e+000
6455:0.0000000000000000e+000
6456:0.0000000000000000e+000
6457:0.0000000000000000e+000
6458:0.0000000000000000e+000
6459:0.0000000000000000e+000
6460:0.0000000000000000e+000
6461:0.0000000000000000e+000
6462:0.0000000000000000e+000
6463:0.0000000000000000e+000
6464:0.0000000000000000e+000
6465:0.0000000000000000e+000
6466:0.0000000000000000e+000
6467:0.0000000000000000e+000
6468:0.0000000000000000e+000
6469:0.0000000000000000e+000
6470:0.0000000000000000e+000
6471:0.0000000000000000e+000
6472:0.0000000000000000e+000
6473:0.0000000000000000e+000
6474:0.0000000000000000e+000
6475:0.0000000000000000e+000
6476:0.0000000000000000e+000
6477:0.0000000000000000e+000
6478:0.0000000000000000e+000
6479:0.0000000000000000e+000
6480:0.0000000000000000e+000
6481:0.0000000000000000e+000
6482:0.0000000000000000e+000
6483:0.0000000000000000e+000
6484:0.0000000000000000e+000
6485:0.0000000000000000e+000
6486:0.0000000000000000e+000
6487:0.0000000000000000e+000
6488:0.0000000000000000e+000
6489:0.0000000000000000e+000
6490:0.0000000000000000e+000
6491:0.0000000000000000e+000
6492:0.0000000000000000e+000
6493:0.0000000000000000e+000
6494:0.0000000000000000e+000
6495:0.0000000000000000e+000
6496:0.0000000000000000e+000
6497:0.0000000000000000e+000
6498:0.0000000000000000e+000
6499:0.0000000000000000e+000
6500:0.0000000000000000e+000
6501:0.0000000000000000e+000
6502:0.0000000000000000e+000
6503:0.0000000000000000e+000
6504:0.0000000000000000e+000
6505:0.0000000000000000e+000
6506:0.0000000000000000e+000
6507:0.0000000000000000e+000
6508:0.0000000000000000e+000
6509:0.0000000000000000e+000
6510:0.0000000000000000e+000
6511:0.0000000000000000e+000
6512:0.0000000000000000e+000
6513:0.0000000000000000e+000
6514:0.0000000000000000e+000
6515:0.0000000000000000e+000
6516:0.0000000000000000e+000
6517:0.0000000000000000e+000
6518:0.0000000000000000e+000
6519:0.0000000000000000e+000
6520:0.0000000000000000e+000
6521:0.0000000000000000e+000
6522:0.0000000000000000e+000
6523:0.0000000000000000e+000
6524:0.0000000000000000e+000
6525:0.0000000000000000e+000
6526:0.0000000000000000e+000
6527:0.0000000000000000e+000
6528:0.0000000000000000e+000
6529:0.0000000000000000e+000
6530:0.0000000000000000e+000
6531:0.0000000000000000e+000
6532:0.0000000000000000e+000
6533:0.0000000000000000e+000
6534:0.0000000000000000e+000
6535:0.0000000000000000e+000
6536:0.0000000000000000e+000
6537:0.0000000000000000e+000
6538:0.0000000000000000e+000
6539:0.0000000000000000e+000
6540:0.0000000000000000e+000
6541:0.0000000000000000e+000
6542:0.0000000000000000e+000
6543:0.0000000000000000e+000
6544:0.0000000000000000e+000
6545:0.0000000000000000e+000
6546:0.0000000000000000e+000
6547:0.0000000000000000e+000
6548:0.0000000000000000e+000
6549:0.0000000000000000e+000
6550:0.0000000000000000e+000
6551:0.0000000000000000e+000
6552:0.0000000000000000e+000
6553:0.0000000000000000e+000
6554:0.0000000000000000e+000
6555:0.0000000000000000e+000
6556:0.0000000000000000e+000
6557:0.0000000000000000e+000
6558:0.0000000000000000e+000
6559:0.0000000000000000e+000
6560:0.0000000000000000e+000
6561:0.0000000000000000e+000
6562:0.0000000000000000e+000
6563:0.0000000000000000e+000
6564:0.0000000000000000e+000
6565:0.0000000000000000e+000
6566:0.0000000000000000e+000
6567:0.0000000000000000e+000
6568:0.0000000000000000e+000
6569:0.0000000000000000e+000
6570:0.0000000000000000e+000
6571:0.0000000000000000e+000
6572:0.0000000000000000e+000
6573:0.0000000000000000e+000
6574:0.0000000000000000e+000
6575:0.0000000000000000e+000
6576:0.0000000000000000e+000
6577:0.0000000000000000e+000
6578:0.0000000000000000e+000
6579:0.0000000000000000e+000
6580:0.0000000000000000e+000
6581:0.0000000000000000e+000
6582:0.0000000000000000e+000
6583:0.0000000000000000e+000
6584:0.0000000000000000e+000
6585:0.0000000000000000e+000
6586:0.0000000000000000e+000
6587:0.0000000000000000e+000
6588:0.0000000000000000e+000
6589:0.0000000000000000e+000
6590:0.0000000000000000e+000
6591:0.0000000000000000e+000
6592:0.0000000000000000e+000
6593:0.0000000000000000e+000
6594:0.0000000000000000e+000
6595:0.0000000000000000e+000
6596:0.0000000000000000e+000
6597:0.0000000000000000e+000
6598:0.0000000000000000e+000
6599:0.0000000000000000e+000
6600:0.0000000000000000e+000
6601:0.0000000000000000e+000
6602:0.0000000000000000e+000
6603:0.0000000000000000e+000
6604:0.0000000000000000e+000
6605:0.0000000000000000e+000
6606:0.0000000000000000e+000
6607:0.0000000000000000e+000
6608:0.0000000000000000e+000
6609:0.0000000000000000e+000
6610:0.0000000000000000e+000
6611:0.0000000000000000e+000
6612:0.0000000000000000e+000
6613:0.0000000000000000e+000
6614:0.0000000000000000e+000
6615:0.0000000000000000e+000
6616:0.0000000000000000e+000
6617:0.0000000000000000e+000
6618:0.0000000000000000e+000
6619:0.0000000000000000e+000
6620:0.0000000000000000e+000
6621:0.0000000000000000e+000
6622:0.0000000000000000e+000
6623:0.0000000000000000e+000
6624:0.0000000000000000e+000
6625:0.0000000000000000e+000
6626:0.0000000000000000e+000
6627:0.0000000000000000e+000
6628:0.0000000000000000e+000
6629:0.0000000000000000e+000
6630:0.0000000000000000e+000
6631:0.0000000000000000e+000
6632:0.0000000000000000e+000
6633:0.0000000000000000e+000
6634:0.0000000000000000e+000
6635:0.0000000000000000e+000
6636:0.0000000000000000e+000
6637:0.0000000000000000e+000
6638:0.0000000000000000e+000
6639:0.0000000000000000e+000
6640:0.0000000000000000e+000
6641:0.0000000000000000e+000
6642:0.0000000000000000e+000
6643:0.0000000000000000e+000
6644:0.0000000000000000e+000
6645:0.0000000000000000e+000
6646:0.0000000000000000e+000
6647:0.0000000000000000e+000
6648:0.0000000000000000e+000
6649:0.0000000000000000e+000
6650:0.0000000000000000e+000
6651:0.0000000000000000e+000
6652:0.0000000000000000e+000
6653:0.0000000000000000e+000
6654:0.0000000000000000e+000
6655:0.0000000000000000e+000
6656:0.0000000000000000e+000
6657:0.0000000000000000e+000
6658:0.0000000000000000e+000
6659:0.0000000000000000e+000
6660:0.0000000000000000e+000
6661:0.0000000000000000e+000
6662:0.0000000000000000e+000
6663:0.0000000000000000e+000
6664:0.0000000000000000e+000
6665:0.0000000000000000e+000
6666:0.0000000000000000e+000
6667:0.0000000000000000e+000
6668:0.0000000000000000e+000
6669:0.0000000000000000e+000
6670:0.0000000000000000e+000
6671:0.0000000000000000e+000
6672:0.0000000000000000e+000
6673:0.0000000000000000e+000
6674:0.0000000000000000e+000
6675:0.0000000000000000e+000
6676:0.0000000000000000e+000
6677:0.0000000000000000e+000
6678:0.0000000000000000e+000
6679:0.0000000000000000e+000
6680:0.0000000000000000e+000
6681:0.0000000000000000e+000
6682:0.0000000000000000e+000
6683:0.0000000000000000e+000
6684:0.0000000000000000e+000
6685:0.0000000000000000e+000
6686:0.0000000000000000e+000
6687:0.0000000000000000e+000
6688:0.0000000000000000e+000
6689:0.0000000000000000e+000
6690:0.0000000000000000e+000
6691:0.0000000000000000e+000
6692:0.0000000000000000e+000
6693:0.0000000000000000e+000
6694:0.0000000000000000e+000
6695:0.0000000000000000e+000
6696:0.0000000000000000e+000
6697:0.0000000000000000e+000
6698:0.0000000000000000e+000
6699:0.0000000000000000e+000
6700:0.0000000000000000e+000
6701:0.0000000000000000e+000
6702:0.0000000000000000e+000
6703:0.0000000000000000e+000
6704:0.0000000000000000e+000
6705:0.0000000000000000e+000
6706:0.0000000000000000e+000
6707:0.0000000000000000e+000
6708:0.0000000000000000e+000
6709:0.0000000000000000e+000
6710:0.0000000000000000e+000
6711:0.0000000000000000e+000
6712:0.0000000000000000e+000
6713:0.0000000000000000e+000
6714:0.0000000000000000e+000
6715:0.0000000000000000e+000
6716:0.0000000000000000e+000
6717:0.0000000000000000e+000
6718:0.0000000000000000e+000
6719:0.0000000000000000e+000
6720:0.0000000000000000e+000
6721:0.0000000000000000e+000
6722:0.0000000000000000e+000
6723:0.0000000000000000e+000
6724:0.0000000000000000e+000
6725:0.0000000000000000e+000
6726:0.0000000000000000e+000
6727:0.0000000000000000e+000
6728:0.0000000000000000e+000
6729:0.0000000000000000e+000
6730:0.0000000000000000e+000
6731:0.0000000000000000e+000
6732:0.0000000000000000e+000
6733:0.0000000000000000e+000
6734:0.0000000000000000e+000
6735:0.0000000000000000e+000
6736:0.0000000000000000e+000
6737:0.0000000000000000e+000
6738:0.0000000000000000e+000
6739:0.0000000000000000e+000
6740:0.0000000000000000e+000
6741:0.0000000000000000e+000
6742:0.0000000000000000e+000
6743:0.0000000000000000e+000
6744:0.0000000000000000e+000
6745:0.0000000000000000e+000
6746:0.0000000000000000e+000
6747:0.0000000000000000e+000
6748:0.0000000000000000e+000
6749:0.0000000000000000e+000
6750:0.0000000000000000e+000
6751:0.0000000000000000e+000
6752:0.0000000000000000e+000
6753:0.0000000000000000e+000
6754:0.0000000000000000e+000
6755:0.0000000000000000e+000
6756:0.0000000000000000e+000
6757:0.0000000000000000e+000
6758:0.0000000000000000e+000
6759:0.0000000000000000e+000
6760:0.0000000000000000e+000
6761:0.0000000000000000e+000
6762:0.0000000000000000e+000
6763:0.0000000000000000e+000
6764:0.0000000000000000e+000
6765:0.0000000000000000e+000
6766:0.0000000000000000e+000
6767:0.0000000000000000e+000
6768:0.0000000000000000e+000
6769:0.0000000000000000e+000
6770:0.0000000000000000e+000
6771:0.0000000000000000e+000
6772:0.0000000000000000e+000
6773:0.0000000000000000e+000
6774:0.0000000000000000e+000
6775:0.0000000000000000e+000
6776:0.0000000000000000e+000
6777:0.0000000000000000e+000
6778:0.0000000000000000e+000
6779:0.0000000000000000e+000
6780:0.0000000000000000e+000
6781:0.0000000000000000e+000
6782:0.0000000000000000e+000
6783:0.0000000000000000e+000
6784:0.0000000000000000e+000
6785:0.0000000000000000e+000
6786:0.0000000000000000e+000
6787:0.0000000000000000e+000
6788:0.0000000000000000e+000
6789:0.0000000000000000e+000
6790:0.0000000000000000e+000
6791:0.0000000000000000e+000
6792:0.0000000000000000e+000
6793:0.0000000000000000e+000
6794:0.0000000000000000e+000
6795:0.0000000000000000e+000
6796:0.0000000000000000e+000
6797:0.0000000000000000e+000
6798:0.0000000000000000e+000
6799:0.0000000000000000e+000
6800:0.0000000000000000e+000
6801:0.0000000000000000e+000
6802:0.0000000000000000e+000
6803:0.0000000000000000e+000
6804:0.0000000000000000e+000
6805:0.0000000000000000e+000
6806:0.0000000000000000e+000
6807:0.0000000000000000e+000
6808:0.0000000000000000e+000
6809:0.0000000000000000e+000
6810:0.0000000000000000e+000
6811:0.0000000000000000e+000
6812:0.0000000000000000e+000
6813:0.0000000000000000e+000
6814:0.0000000000000000e+000
6815:0.0000000000000000e+000
6816:0.0000000000000000e+000
6817:0.0000000000000000e+000
6818:0.0000000000000000e+000
6819:0.0000000000000000e+000
6820:0.0000000000000000e+000
6821:0.0000000000000000e+000
6822:0.0000000000000000e+000
6823:0.0000000000000000e+000
6824:0.0000000000000000e+000
6825:0.0000000000000000e+000
6826:0.0000000000000000e+000
6827:0.0000000000000000e+000
6828:0.0000000000000000e+000
6829:0.0000000000000000e+000
6830:0.0000000000000000e+000
6831:0.0000000000000000e+000
6832:0.0000000000000000e+000
6833:0.0000000000000000e+000
6834:0.0000000000000000e+000
6835:0.0000000000000000e+000
6836:0.0000000000000000e+000
6837:0.0000000000000000e+000
6838:0.0000000000000000e+000
6839:0.0000000000000000e+000
6840:0.0000000000000000e+000
6841:0.0000000000000000e+000
6842:0.0000000000000000e+000
6843:0.0000000000000000e+000
6844:0.0000000000000000e+000
6845:0.0000000000000000e+000
6846:0.0000000000000000e+000
6847:0.0000000000000000e+000
6848:0.0000000000000000e+000
6849:0.0000000000000000e+000
6850:0.0000000000000000e+000
6851:0.0000000000000000e+000
6852:0.0000000000000000e+000
6853:0.0000000000000000e+000
6854:0.0000000000000000e+000
6855:0.0000000000000000e+000
6856:0.0000000000000000e+000
6857:0.0000000000000000e+000
6858:0.0000000000000000e+000
6859:0.0000000000000000e+000
6860:0.0000000000000000e+000
6861:0.0000000000000000e+000
6862:0.0000000000000000e+000
6863:0.0000000000000000e+000
6864:0.0000000000000000e+000
6865:0.0000000000000000e+000
6866:0.0000000000000000e+000
6867:0.0000000000000000e+000
6868:0.0000000000000000e+000
6869:0.0000000000000000e+000
6870:0.0000000000000000e+000
6871:0.0000000000000000e+000
6872:0.0000000000000000e+000
6873:0.0000000000000000e+000
6874:0.0000000000000000e+000
6875:0.0000000000000000e+000
6876:0.0000000000000000e+000
6877:0.0000000000000000e+000
6878:0.0000000000000000e+000
6879:0.0000000000000000e+000
6880:0.0000000000000000e+000
6881:0.0000000000000000e+000
6882:0.0000000000000000e+000
6883:0.0000000000000000e+000
6884:0.0000000000000000e+000
6885:0.0000000000000000e+000
6886:0.0000000000000000e+000
6887:0.0000000000000000e+000
6888:0.0000000000000000e+000
6889:0.0000000000000000e+000
6890:0.0000000000000000e+000
6891:0.0000000000000000e+000
6892:0.0000000000000000e+000
6893:0.0000000000000000e+000
6894:0.0000000000000000e+000
6895:0.0000000000000000e+000
6896:0.0000000000000000e+000
6897:0.0000000000000000e+000
6898:0.0000000000000000e+000
6899:0.0000000000000000e+000
6900:0.0000000000000000e+000
6901:0.0000000000000000e+000
6902:0.0000000000000000e+000
6903:0.0000000000000000e+000
6904:0.0000000000000000e+000
6905:0.0000000000000000e+000
6906:0.0000000000000000e+000
6907:0.0000000000000000e+000
6908:0.0000000000000000e+000
6909:0.0000000000000000e+000
6910:0.0000000000000000e+000
6911:0.0000000000000000e+000
6912:0.0000000000000000e+000
6913:0.0000000000000000e+000
6914:0.0000000000000000e+000
6915:0.0000000000000000e+000
6916:0.0000000000000000e+000
6917:0.0000000000000000e+000
6918:0.0000000000000000e+000
6919:0.0000000000000000e+000
6920:0.0000000000000000e+000
6921:0.0000000000000000e+000
6922:0.0000000000000000e+000
6923:0.0000000000000000e+000
6924:0.0000000000000000e+000
6925:0.0000000000000000e+000
6926:0.0000000000000000e+000
6927:0.0000000000000000e+000
6928:0.0000000000000000e+000
6929:0.0000000000000000e+000
6930:0.0000000000000000e+000
6931:0.0000000000000000e+000
6932:0.0000000000000000e+000
6933:0.0000000000000000e+000
6934:0.0000000000000000e+000
6935:0.0000000000000000e+000
6936:0.0000000000000000e+000
6937:0.0000000000000000e+000
6938:0.0000000000000000e+000
6939:0.0000000000000000e+000
6940:0.0000000000000000e+000
6941:0.0000000000000000e+000
6942:0.0000000000000000e+000
6943:0.0000000000000000e+000
6944:0.0000000000000000e+000
6945:0.0000000000000000e+000
6946:0.0000000000000000e+000
6947:0.0000000000000000e+000
6948:0.0000000000000000e+000
6949:0.0000000000000000e+000
6950:0.0000000000000000e+000
6951:0.0000000000000000e+000
6952:0.0000000000000000e+000
6953:0.0000000000000000e+000
6954:0.0000000000000000e+000
6955:0.0000000000000000e+000
6956:0.0000000000000000e+000
6957:0.0000000000000000e+000
6958:0.0000000000000000e+000
6959:0.0000000000000000e+000
6960:0.0000000000000000e+000
6961:0.0000000000000000e+000
6962:0.0000000000000000e+000
6963:0.0000000000000000e+000
6964:0.0000000000000000e+000
6965:0.0000000000000000e+000
6966:0.0000000000000000e+000
6967:0.0000000000000000e+000
6968:0.0000000000000000e+000
6969:0.0000000000000000e+000
6970:0.0000000000000000e+000
6971:0.0000000000000000e+000
6972:0.0000000000000000e+000
6973:0.0000000000000000e+000
6974:0.0000000000000000e+000
6975:0.0000000000000000e+000
6976:0.0000000000000000e+000
6977:0.0000000000000000e+000
6978:0.0000000000000000e+000
6979:0.0000000000000000e+000
6980:0.0000000000000000e+000
6981:0.0000000000000000e+000
6982:0.0000000000000000e+000
6983:0.0000000000000000e+000
6984:0.0000000000000000e+000
6985:0.0000000000000000e+000
6986:0.0000000000000000e+000
6987:0.0000000000000000e+000
6988:0.0000000000000000e+000
6989:0.0000000000000000e+000
6990:0.0000000000000000e+000
6991:0.0000000000000000e+000
6992:0.0000000000000000e+000
6993:0.0000000000000000e+000
6994:0.0000000000000000e+000
6995:0.0000000000000000e+000
6996:0.0000000000000000e+000
6997:0.0000000000000000e+000
6998:0.0000000000000000e+000
6999:0.0000000000000000e+000
7000:0.0000000000000000e+000
7001:0.0000000000000000e+000
7002:0.0000000000000000e+000
7003:0.0000000000000000e+000
7004:0.0000000000000000e+000
7005:0.0000000000000000e+000
7006:0.0000000000000000e+000
7007:0.0000000000000000e+000
7008:0.0000000000000000e+000
7009:0.0000000000000000e+000
7010:0.0000000000000000e+000
7011:0.0000000000000000e+000
7012:0.0000000000000000e+000
7013:0.0000000000000000e+000
7014:0.0000000000000000e+000
7015:0.0000000000000000e+000
7016:0.0000000000000000e+000
7017:0.0000000000000000e+000
7018:0.0000000000000000e+000
7019:0.0000000000000000e+000
7020:0.0000000000000000e+000
7021:0.0000000000000000e+000
7022:0.0000000000000000e+000
7023:0.0000000000000000e+000
7024:0.0000000000000000e+000
7025:0.0000000000000000e+000
7026:0.0000000000000000e+000
7027:0.0000000000000000e+000
7028:0.0000000000000000e+000
7029:0.0000000000000000e+000
7030:0.0000000000000000e+000
7031:0.0000000000000000e+000
7032:0.0000000000000000e+000
7033:0.0000000000000000e+000
7034:0.0000000000000000e+000
7035:0.0000000000000000e+000
7036:0.0000000000000000e+000
7037:0.0000000000000000e+000
7038:0.0000000000000000e+000
7039:0.0000000000000000e+000
7040:0.0000000000000000e+000
7041:0.0000000000000000e+000
7042:0.0000000000000000e+000
7043:0.0000000000000000e+000
7044:0.0000000000000000e+000
7045:0.0000000000000000e+000
7046:0.0000000000000000e+000
7047:0.0000000000000000e+000
7048:0.0000000000000000e+000
7049:0.0000000000000000e+000
7050:0.0000000000000000e+000
7051:0.0000000000000000e+000
7052:0.0000000000000000e+000
7053:0.0000000000000000e+000
7054:0.0000000000000000e+000
7055:0.0000000000000000e+000
7056:0.0000000000000000e+000
7057:0.0000000000000000e+000
7058:0.0000000000000000e+000
7059:0.0000000000000000e+000
7060:0.0000000000000000e+000
7061:0.0000000000000000e+000
7062:0.0000000000000000e+000
7063:0.0000000000000000e+000
7064:0.0000000000000000e+000
7065:0.0000000000000000e+000
7066:0.0000000000000000e+000
7067:0.0000000000000000e+000
7068:0.0000000000000000e+000
7069:0.0000000000000000e+000
7070:0.0000000000000000e+000
7071:0.0000000000000000e+000
7072:0.0000000000000000e+000
7073:0.0000000000000000e+000
7074:0.0000000000000000e+000
7075:0.0000000000000000e+000
7076:0.0000000000000000e+000
7077:0.0000000000000000e+000
7078:0.0000000000000000e+000
7079:0.0000000000000000e+000
7080:0.0000000000000000e+000
7081:0.0000000000000000e+000
7082:0.0000000000000000e+000
7083:0.0000000000000000e+000
7084:0.0000000000000000e+000
7085:0.0000000000000000e+000
7086:0.0000000000000000e+000
7087:0.0000000000000000e+000
7088:0.0000000000000000e+000
7089:0.0000000000000000e+000
7090:0.0000000000000000e+000
7091:0.0000000000000000e+000
7092:0.0000000000000000e+000
7093:0.0000000000000000e+000
7094:0.0000000000000000e+000
7095:0.0000000000000000e+000
7096:0.0000000000000000e+000
7097:0.0000000000000000e+000
7098:0.0000000000000000e+000
7099:0.0000000000000000e+000
7100:0.0000000000000000e+000
7101:0.0000000000000000e+000
7102:0.0000000000000000e+000
7103:0.0000000000000000e+000
7104:0.0000000000000000e+000
7105:0.0000000000000000e+000
7106:0.0000000000000000e+000
7107:0.0000000000000000e+000
7108:0.0000000000000000e+000
7109:0.0000000000000000e+000
7110:0.0000000000000000e+000
7111:0.0000000000000000e+000
7112:0.0000000000000000e+000
7113:0.0000000000000000e+000
7114:0.0000000000000000e+000
7115:0.0000000000000000e+000
7116:0.0000000000000000e+000
7117:0.0000000000000000e+000
7118:0.0000000000000000e+000
7119:0.0000000000000000e+000
7120:0.0000000000000000e+000
7121:0.0000000000000000e+000
7122:0.0000000000000000e+000
7123:0.0000000000000000e+000
7124:0.0000000000000000e+000
7125:0.0000000000000000e+000
7126:0.0000000000000000e+000
7127:0.0000000000000000e+000
7128:0.0000000000000000e+000
7129:0.0000000000000000e+000
7130:0.0000000000000000e+000
7131:0.0000000000000000e+000
7132:0.0000000000000000e+000
7133:0.0000000000000000e+000
7134:0.0000000000000000e+000
7135:0.0000000000000000e+000
7136:0.0000000000000000e+000
7137:0.0000000000000000e+000
7138:0.0000000000000000e+000
7139:0.0000000000000000e+000
7140:0.0000000000000000e+000
7141:0.0000000000000000e+000
7142:0.0000000000000000e+000
7143:0.0000000000000000e+000
7144:0.0000000000000000e+000
7145:0.0000000000000000e+000
7146:0.0000000000000000e+000
7147:0.0000000000000000e+000
7148:0.0000000000000000e+000
7149:0.0000000000000000e+000
7150:0.0000000000000000e+000
7151:0.0000000000000000e+000
7152:0.0000000000000000e+000
7153:0.0000000000000000e+000
7154:0.0000000000000000e+000
7155:0.0000000000000000e+000
7156:0.0000000000000000e+000
7157:0.0000000000000000e+000
7158:0.0000000000000000e+000
7159:0.0000000000000000e+000
7160:0.0000000000000000e+000
7161:0.0000000000000000e+000
7162:0.0000000000000000e+000
7163:0.0000000000000000e+000
7164:0.0000000000000000e+000
7165:0.0000000000000000e+000
7166:0.0000000000000000e+000
7167:0.0000000000000000e+000
7168:0.0000000000000000e+000
7169:0.0000000000000000e+000
7170:0.0000000000000000e+000
7171:0.0000000000000000e+000
7172:0.0000000000000000e+000
7173:0.0000000000000000e+000
7174:0.0000000000000000e+000
7175:0.0000000000000000e+000
7176:0.0000000000000000e+000
7177:0.0000000000000000e+000
7178:0.0000000000000000e+000
7179:0.0000000000000000e+000
7180:0.0000000000000000e+000
7181:0.0000000000000000e+000
7182:0.0000000000000000e+000
7183:0.0000000000000000e+000
7184:0.0000000000000000e+000
7185:0.0000000000000000e+000
7186:0.0000000000000000e+000
7187:0.0000000000000000e+000
7188:0.0000000000000000e+000
7189:0.0000000000000000e+000
7190:0.0000000000000000e+000
7191:0.0000000000000000e+000
7192:0.0000000000000000e+000
7193:0.0000000000000000e+000
7194:0.0000000000000000e+000
7195:0.0000000000000000e+000
7196:0.0000000000000000e+000
7197:0.0000000000000000e+000
7198:0.0000000000000000e+000
7199:0.0000000000000000e+000
7200:0.0000000000000000e+000
7201:0.0000000000000000e+000
7202:0.0000000000000000e+000
7203:0.0000000000000000e+000
7204:0.0000000000000000e+000
7205:0.0000000000000000e+000
7206:0.0000000000000000e+000
7207:0.0000000000000000e+000
7208:0.0000000000000000e+000
7209:0.0000000000000000e+000
7210:0.0000000000000000e+000
7211:0.0000000000000000e+000
7212:0.0000000000000000e+000
7213:0.0000000000000000e+000
7214:0.0000000000000000e+000
7215:0.0000000000000000e+000
7216:0.0000000000000000e+000
7217:0.0000000000000000e+000
7218:0.0000000000000000e+000
7219:0.0000000000000000e+000
7220:0.0000000000000000e+000
7221:0.0000000000000000e+000
7222:0.0000000000000000e+000
7223:0.0000000000000000e+000
7224:0.0000000000000000e+000
7225:0.0000000000000000e+000
7226:0.0000000000000000e+000
7227:0.0000000000000000e+000
7228:0.0000000000000000e+000
7229:0.0000000000000000e+000
7230:0.0000000000000000e+000
7231:0.0000000000000000e+000
7232:0.0000000000000000e+000
7233:0.0000000000000000e+000
7234:0.0000000000000000e+000
7235:0.0000000000000000e+000
7236:0.0000000000000000e+000
7237:0.0000000000000000e+000
7238:0.0000000000000000e+000
7239:0.0000000000000000e+000
7240:0.0000000000000000e+000
7241:0.0000000000000000e+000
7242:0.0000000000000000e+000
7243:0.0000000000000000e+000
7244:0.0000000000000000e+000
7245:0.0000000000000000e+000
7246:0.0000000000000000e+000
7247:0.0000000000000000e+000
7248:0.0000000000000000e+000
7249:0.0000000000000000e+000
7250:0.0000000000000000e+000
7251:0.0000000000000000e+000
7252:0.0000000000000000e+000
7253:0.0000000000000000e+000
7254:0.0000000000000000e+000
7255:0.0000000000000000e+000
7256:0.0000000000000000e+000
7257:0.0000000000000000e+000
7258:0.0000000000000000e+000
7259:0.0000000000000000e+000
7260:0.0000000000000000e+000
7261:0.0000000000000000e+000
7262:0.0000000000000000e+000
7263:0.0000000000000000e+000
7264:0.0000000000000000e+000
7265:0.0000000000000000e+000
7266:0.0000000000000000e+000
7267:0.0000000000000000e+000
7268:0.0000000000000000e+000
7269:0.0000000000000000e+000
7270:0.0000000000000000e+000
7271:0.0000000000000000e+000
7272:0.0000000000000000e+000
7273:0.0000000000000000e+000
7274:0.0000000000000000e+000
7275:0.0000000000000000e+000
7276:0.0000000000000000e+000
7277:0.0000000000000000e+000
7278:0.0000000000000000e+000
7279:0.0000000000000000e+000
7280:0.0000000000000000e+000
7281:0.0000000000000000e+000
7282:0.0000000000000000e+000
7283:0.0000000000000000e+000
7284:0.0000000000000000e+000
7285:0.0000000000000000e+000
7286:0.0000000000000000e+000
7287:0.0000000000000000e+000
7288:0.0000000000000000e+000
7289:0.0000000000000000e+000
7290:0.0000000000000000e+000
7291:0.0000000000000000e+000
7292:0.0000000000000000e+000
7293:0.0000000000000000e+000
7294:0.0000000000000000e+000
7295:0.0000000000000000e+000
7296:0.0000000000000000e+000
7297:0.0000000000000000e+000
7298:0.0000000000000000e+000
7299:0.0000000000000000e+000
7300:0.0000000000000000e+000
7301:0.0000000000000000e+000
7302:0.0000000000000000e+000
7303:0.0000000000000000e+000
7304:0.0000000000000000e+000
7305:0.0000000000000000e+000
7306:0.0000000000000000e+000
7307:0.0000000000000000e+000
7308:0.0000000000000000e+000
7309:0.0000000000000000e+000
7310:0.0000000000000000e+000
7311:0.0000000000000000e+000
7312:0.0000000000000000e+000
7313:0.0000000000000000e+000
7314:0.0000000000000000e+000
7315:0.0000000000000000e+000
7316:0.0000000000000000e+000
7317:0.0000000000000000e+000
7318:0.0000000000000000e+000
7319:0.0000000000000000e+000
7320:0.0000000000000000e+000
7321:0.0000000000000000e+000
7322:0.0000000000000000e+000
7323:0.0000000000000000e+000
7324:0.0000000000000000e+000
7325:0.0000000000000000e+000
7326:0.0000000000000000e+000
7327:0.0000000000000000e+000
7328:0.0000000000000000e+000
7329:0.0000000000000000e+000
7330:0.0000000000000000e+000
7331:0.0000000000000000e+000
7332:0.0000000000000000e+000
7333:0.0000000000000000e+000
7334:0.0000000000000000e+000
7335:0.0000000000000000e+000
7336:0.0000000000000000e+000
7337:0.0000000000000000e+000
7338:0.0000000000000000e+000
7339:0.0000000000000000e+000
7340:0.0000000000000000e+000
7341:0.0000000000000000e+000
7342:0.0000000000000000e+000
7343:0.0000000000000000e+000
7344:0.0000000000000000e+000
7345:0.0000000000000000e+000
7346:0.0000000000000000e+000
7347:0.0000000000000000e+000
7348:0.0000000000000000e+000
7349:0.0000000000000000e+000
7350:0.0000000000000000e+000
7351:0.0000000000000000e+000
7352:0.0000000000000000e+000
7353:0.0000000000000000e+000
7354:0.0000000000000000e+000
7355:0.0000000000000000e+000
7356:0.0000000000000000e+000
7357:0.0000000000000000e+000
7358:0.0000000000000000e+000
7359:0.0000000000000000e+000
7360:0.0000000000000000e+000
7361:0.0000000000000000e+000
7362:0.0000000000000000e+000
7363:0.0000000000000000e+000
7364:0.0000000000000000e+000
7365:0.0000000000000000e+000
7366:0.0000000000000000e+000
7367:0.0000000000000000e+000
7368:0.0000000000000000e+000
7369:0.0000000000000000e+000
7370:0.0000000000000000e+000
7371:0.0000000000000000e+000
7372:0.0000000000000000e+000
7373:0.0000000000000000e+000
7374:0.0000000000000000e+000
7375:0.0000000000000000e+000
7376:0.0000000000000000e+000
7377:0.0000000000000000e+000
7378:0.0000000000000000e+000
7379:0.0000000000000000e+000
7380:0.0000000000000000e+000
7381:0.0000000000000000e+000
7382:0.0000000000000000e+000
7383:0.0000000000000000e+000
7384:0.0000000000000000e+000
7385:0.0000000000000000e+000
7386:0.0000000000000000e+000
7387:0.0000000000000000e+000
7388:0.0000000000000000e+000
7389:0.0000000000000000e+000
7390:0.0000000000000000e+000
7391:0.0000000000000000e+000
7392:0.0000000000000000e+000
7393:0.0000000000000000e+000
7394:0.0000000000000000e+000
7395:0.0000000000000000e+000
7396:0.0000000000000000e+000
7397:0.0000000000000000e+000
7398:0.0000000000000000e+000
7399:0.0000000000000000e+000
7400:0.0000000000000000e+000
7401:0.0000000000000000e+000
7402:0.0000000000000000e+000
7403:0.0000000000000000e+000
7404:0.0000000000000000e+000
7405:0.0000000000000000e+000
7406:0.0000000000000000e+000
7407:0.0000000000000000e+000
7408:0.0000000000000000e+000
7409:0.0000000000000000e+000
7410:0.0000000000000000e+000
7411:0.0000000000000000e+000
7412:0.0000000000000000e+000
7413:0.0000000000000000e+000
7414:0.0000000000000000e+000
7415:0.0000000000000000e+000
7416:0.0000000000000000e+000
7417:0.0000000000000000e+000
7418:0.0000000000000000e+000
7419:0.0000000000000000e+000
7420:0.0000000000000000e+000
7421:0.0000000000000000e+000
7422:0.0000000000000000e+000
7423:0.0000000000000000e+000
7424:0.0000000000000000e+000
7425:0.0000000000000000e+000
7426:0.0000000000000000e+000
7427:0.0000000000000000e+000
7428:0.0000000000000000e+000
7429:0.0000000000000000e+000
7430:0.0000000000000000e+000
7431:0.0000000000000000e+000
7432:0.0000000000000000e+000
7433:0.0000000000000000e+000
7434:0.0000000000000000e+000
7435:0.0000000000000000e+000
7436:0.0000000000000000e+000
7437:0.0000000000000000e+000
7438:0.0000000000000000e+000
7439:0.0000000000000000e+000
7440:0.0000000000000000e+000
7441:0.0000000000000000e+000
7442:0.0000000000000000e+000
7443:0.0000000000000000e+000
7444:0.0000000000000000e+000
7445:0.0000000000000000e+000
7446:0.0000000000000000e+000
7447:0.0000000000000000e+000
7448:0.0000000000000000e+000
7449:0.0000000000000000e+000
7450:0.0000000000000000e+000
7451:0.0000000000000000e+000
7452:0.0000000000000000e+000
7453:0.0000000000000000e+000
7454:0.0000000000000000e+000
7455:0.0000000000000000e+000
7456:0.0000000000000000e+000
7457:0.0000000000000000e+000
7458:0.0000000000000000e+000
7459:0.0000000000000000e+000
7460:0.0000000000000000e+000
7461:0.0000000000000000e+000
7462:0.0000000000000000e+000
7463:0.0000000000000000e+000
7464:0.0000000000000000e+000
7465:0.0000000000000000e+000
7466:0.0000000000000000e+000
7467:0.0000000000000000e+000
7468:0.0000000000000000e+000
7469:0.0000000000000000e+000
7470:0.0000000000000000e+000
7471:0.0000000000000000e+000
7472:0.0000000000000000e+000
7473:0.0000000000000000e+000
7474:0.0000000000000000e+000
7475:0.0000000000000000e+000
7476:0.0000000000000000e+000
7477:0.0000000000000000e+000
7478:0.0000000000000000e+000
7479:0.0000000000000000e+000
7480:0.0000000000000000e+000
7481:0.0000000000000000e+000
7482:0.0000000000000000e+000
7483:0.0000000000000000e+000
7484:0.0000000000000000e+000
7485:0.0000000000000000e+000
7486:0.0000000000000000e+000
7487:0.0000000000000000e+000
7488:0.0000000000000000e+000
7489:0.0000000000000000e+000
7490:0.0000000000000000e+000
7491:0.0000000000000000e+000
7492:0.0000000000000000e+000
7493:0.0000000000000000e+000
7494:0.0000000000000000e+000
7495:0.0000000000000000e+000
7496:0.0000000000000000e+000
7497:0.0000000000000000e+000
7498:0.0000000000000000e+000
7499:0.0000000000000000e+000
7500:0.0000000000000000e+000
7501:0.0000000000000000e+000
7502:0.0000000000000000e+000
7503:0.0000000000000000e+000
7504:0.0000000000000000e+000
7505:0.0000000000000000e+000
7506:0.0000000000000000e+000
7507:0.0000000000000000e+000
7508:0.0000000000000000e+000
7509:0.0000000000000000e+000
7510:0.0000000000000000e+000
7511:0.0000000000000000e+000
7512:0.0000000000000000e+000
7513:0.0000000000000000e+000
7514:0.0000000000000000e+000
7515:0.0000000000000000e+000
7516:0.0000000000000000e+000
7517:0.0000000000000000e+000
7518:0.0000000000000000e+000
7519:0.0000000000000000e+000
7520:0.0000000000000000e+000
7521:0.0000000000000000e+000
7522:0.0000000000000000e+000
7523:0.0000000000000000e+000
7524:0.0000000000000000e+000
7525:0.0000000000000000e+000
7526:0.0000000000000000e+000
7527:0.0000000000000000e+000
7528:0.0000000000000000e+000
7529:0.0000000000000000e+000
7530:0.0000000000000000e+000
7531:0.0000000000000000e+000
7532:0.0000000000000000e+000
7533:0.0000000000000000e+000
7534:0.0000000000000000e+000
7535:0.0000000000000000e+000
7536:0.0000000000000000e+000
7537:0.0000000000000000e+000
7538:0.0000000000000000e+000
7539:0.0000000000000000e+000
7540:0.0000000000000000e+000
7541:0.0000000000000000e+000
7542:0.0000000000000000e+000
7543:0.0000000000000000e+000
7544:0.0000000000000000e+000
7545:0.0000000000000000e+000
7546:0.0000000000000000e+000
7547:0.0000000000000000e+000
7548:0.0000000000000000e+000
7549:0.0000000000000000e+000
7550:0.0000000000000000e+000
7551:0.0000000000000000e+000
7552:0.0000000000000000e+000
7553:0.0000000000000000e+000
7554:0.0000000000000000e+000
7555:0.0000000000000000e+000
7556:0.0000000000000000e+000
7557:0.0000000000000000e+000
7558:0.0000000000000000e+000
7559:0.0000000000000000e+000
7560:0.0000000000000000e+000
7561:0.0000000000000000e+000
7562:0.0000000000000000e+000
7563:0.0000000000000000e+000
7564:0.0000000000000000e+000
7565:0.0000000000000000e+000
7566:0.0000000000000000e+000
7567:0.0000000000000000e+000
7568:0.0000000000000000e+000
7569:0.0000000000000000e+000
7570:0.0000000000000000e+000
7571:0.0000000000000000e+000
7572:0.0000000000000000e+000
7573:0.0000000000000000e+000
7574:0.0000000000000000e+000
7575:0.0000000000000000e+000
7576:0.0000000000000000e+000
7577:0.0000000000000000e+000
7578:0.0000000000000000e+000
7579:0.0000000000000000e+000
7580:0.0000000000000000e+000
7581:0.0000000000000000e+000
7582:0.0000000000000000e+000
7583:0.0000000000000000e+000
7584:0.0000000000000000e+000
7585:0.0000000000000000e+000
7586:0.0000000000000000e+000
7587:0.0000000000000000e+000
7588:0.0000000000000000e+000
7589:0.0000000000000000e+000
7590:0.0000000000000000e+000
7591:0.0000000000000000e+000
7592:0.0000000000000000e+000
7593:0.0000000000000000e+000
7594:0.0000000000000000e+000
7595:0.0000000000000000e+000
7596:0.0000000000000000e+000
7597:0.0000000000000000e+000
7598:0.0000000000000000e+000
7599:0.0000000000000000e+000
7600:0.0000000000000000e+000
7601:0.0000000000000000e+000
7602:0.0000000000000000e+000
7603:0.0000000000000000e+000
7604:0.0000000000000000e+000
7605:0.0000000000000000e+000
7606:0.0000000000000000e+000
7607:0.0000000000000000e+000
7608:0.0000000000000000e+000
7609:0.0000000000000000e+000
7610:0.0000000000000000e+000
7611:0.0000000000000000e+000
7612:0.0000000000000000e+000
7613:0.0000000000000000e+000
7614:0.0000000000000000e+000
7615:0.0000000000000000e+000
7616:0.0000000000000000e+000
7617:0.0000000000000000e+000
7618:0.0000000000000000e+000
7619:0.0000000000000000e+000
7620:0.0000000000000000e+000
7621:0.0000000000000000e+000
7622:0.0000000000000000e+000
7623:0.0000000000000000e+000
7624:0.0000000000000000e+000
7625:0.0000000000000000e+000
7626:0.0000000000000000e+000
7627:0.0000000000000000e+000
7628:0.0000000000000000e+000
7629:0.0000000000000000e+000
7630:0.0000000000000000e+000
7631:0.0000000000000000e+000
7632:0.0000000000000000e+000
7633:0.0000000000000000e+000
7634:0.0000000000000000e+000
7635:0.0000000000000000e+000
7636:0.0000000000000000e+000
7637:0.0000000000000000e+000
7638:0.0000000000000000e+000
7639:0.0000000000000000e+000
7640:0.0000000000000000e+000
7641:0.0000000000000000e+000
7642:0.0000000000000000e+000
7643:0.0000000000000000e+000
7644:0.0000000000000000e+000
7645:0.0000000000000000e+000
7646:0.0000000000000000e+000
7647:0.0000000000000000e+000
7648:0.0000000000000000e+000
7649:0.0000000000000000e+000
7650:0.0000000000000000e+000
7651:0.0000000000000000e+000
7652:0.0000000000000000e+000
7653:0.0000000000000000e+000
7654:0.0000000000000000e+000
7655:0.0000000000000000e+000
7656:0.0000000000000000e+000
7657:0.0000000000000000e+000
7658:0.0000000000000000e+000
7659:0.0000000000000000e+000
7660:0.0000000000000000e+000
7661:0.0000000000000000e+000
7662:0.0000000000000000e+000
7663:0.0000000000000000e+000
7664:0.0000000000000000e+000
7665:0.0000000000000000e+000
7666:0.0000000000000000e+000
7667:0.0000000000000000e+000
7668:0.0000000000000000e+000
7669:0.0000000000000000e+000
7670:0.0000000000000000e+000
7671:0.0000000000000000e+000
7672:0.0000000000000000e+000
7673:0.0000000000000000e+000
7674:0.0000000000000000e+000
7675:0.0000000000000000e+000
7676:0.0000000000000000e+000
7677:0.0000000000000000e+000
7678:0.0000000000000000e+000
7679:0.0000000000000000e+000
7680:0.0000000000000000e+000
7681:0.0000000000000000e+000
7682:0.0000000000000000e+000
7683:0.0000000000000000e+000
7684:0.0000000000000000e+000
7685:0.0000000000000000e+000
7686:0.0000000000000000e+000
7687:0.0000000000000000e+000
7688:0.0000000000000000e+000
7689:0.0000000000000000e+000
7690:0.0000000000000000e+000
7691:0.0000000000000000e+000
7692:0.0000000000000000e+000
7693:0.0000000000000000e+000
7694:0.0000000000000000e+000
7695:0.0000000000000000e+000
7696:0.0000000000000000e+000
7697:0.0000000000000000e+000
7698:0.0000000000000000e+000
7699:0.0000000000000000e+000
7700:0.0000000000000000e+000
7701:0.0000000000000000e+000
7702:0.0000000000000000e+000
7703:0.0000000000000000e+000
7704:0.0000000000000000e+000
7705:0.0000000000000000e+000
7706:0.0000000000000000e+000
7707:0.0000000000000000e+000
7708:0.0000000000000000e+000
7709:0.0000000000000000e+000
7710:0.0000000000000000e+000
7711:0.0000000000000000e+000
7712:0.0000000000000000e+000
7713:0.0000000000000000e+000
7714:0.0000000000000000e+000
7715:0.0000000000000000e+000
7716:0.0000000000000000e+000
7717:0.0000000000000000e+000
7718:0.0000000000000000e+000
7719:0.0000000000000000e+000
7720:0.0000000000000000e+000
7721:0.0000000000000000e+000
7722:0.0000000000000000e+000
7723:0.0000000000000000e+000
7724:0.0000000000000000e+000
7725:0.0000000000000000e+000
7726:0.0000000000000000e+000
7727:0.0000000000000000e+000
7728:0.0000000000000000e+000
7729:0.0000000000000000e+000
7730:0.0000000000000000e+000
7731:0.0000000000000000e+000
7732:0.0000000000000000e+000
7733:0.0000000000000000e+000
7734:0.0000000000000000e+000
7735:0.0000000000000000e+000
7736:0.0000000000000000e+000
7737:0.0000000000000000e+000
7738:0.0000000000000000e+000
7739:0.0000000000000000e+000
7740:0.0000000000000000e+000
7741:0.0000000000000000e+000
7742:0.0000000000000000e+000
7743:0.0000000000000000e+000
7744:0.0000000000000000e+000
7745:0.0000000000000000e+000
7746:0.0000000000000000e+000
7747:0.0000000000000000e+000
7748:0.0000000000000000e+000
7749:0.0000000000000000e+000
7750:0.0000000000000000e+000
7751:0.0000000000000000e+000
7752:0.0000000000000000e+000
7753:0.0000000000000000e+000
7754:0.0000000000000000e+000
7755:0.0000000000000000e+000
7756:0.0000000000000000e+000
7757:0.0000000000000000e+000
7758:0.0000000000000000e+000
7759:0.0000000000000000e+000
7760:0.0000000000000000e+000
7761:0.0000000000000000e+000
7762:0.0000000000000000e+000
7763:0.0000000000000000e+000
7764:0.0000000000000000e+000
7765:0.0000000000000000e+000
7766:0.0000000000000000e+000
7767:0.0000000000000000e+000
7768:0.0000000000000000e+000
7769:0.0000000000000000e+000
7770:0.0000000000000000e+000
7771:0.0000000000000000e+000
7772:0.0000000000000000e+000
7773:0.0000000000000000e+000
7774:0.0000000000000000e+000
7775:0.0000000000000000e+000
7776:0.0000000000000000e+000
7777:0.0000000000000000e+000
7778:0.0000000000000000e+000
7779:0.0000000000000000e+000
7780:0.0000000000000000e+000
7781:0.0000000000000000e+000
7782:0.0000000000000000e+000
7783:0.0000000000000000e+000
7784:0.0000000000000000e+000
7785:0.0000000000000000e+000
7786:0.0000000000000000e+000
7787:0.0000000000000000e+000
7788:0.0000000000000000e+000
7789:0.0000000000000000e+000
7790:0.0000000000000000e+000
7791:0.0000000000000000e+000
7792:0.0000000000000000e+000
7793:0.0000000000000000e+000
7794:0.0000000000000000e+000
7795:0.0000000000000000e+000
7796:0.0000000000000000e+000
7797:0.0000000000000000e+000
7798:0.0000000000000000e+000
7799:0.0000000000000000e+000
7800:0.0000000000000000e+000
7801:0.0000000000000000e+000
7802:0.0000000000000000e+000
7803:0.0000000000000000e+000
7804:0.0000000000000000e+000
7805:0.0000000000000000e+000
7806:0.0000000000000000e+000
7807:0.0000000000000000e+000
7808:0.0000000000000000e+000
7809:0.0000000000000000e+000
7810:0.0000000000000000e+000
7811:0.0000000000000000e+000
7812:0.0000000000000000e+000
7813:0.0000000000000000e+000
7814:0.0000000000000000e+000
7815:0.0000000000000000e+000
7816:0.0000000000000000e+000
7817:0.0000000000000000e+000
7818:0.0000000000000000e+000
7819:0.0000000000000000e+000
7820:0.0000000000000000e+000
7821:0.0000000000000000e+000
7822:0.0000000000000000e+000
7823:0.0000000000000000e+000
7824:0.0000000000000000e+000
7825:0.0000000000000000e+000
7826:0.0000000000000000e+000
7827:0.0000000000000000e+000
7828:0.0000000000000000e+000
7829:0.0000000000000000e+000
7830:0.0000000000000000e+000
7831:0.0000000000000000e+000
7832:0.0000000000000000e+000
7833:0.0000000000000000e+000
7834:0.0000000000000000e+000
7835:0.0000000000000000e+000
7836:0.0000000000000000e+000
7837:0.0000000000000000e+000
7838:0.0000000000000000e+000
7839:0.0000000000000000e+000
7840:0.0000000000000000e+000
7841:0.0000000000000000e+000
7842:0.0000000000000000e+000
7843:0.0000000000000000e+000
7844:0.0000000000000000e+000
7845:0.0000000000000000e+000
7846:0.0000000000000000e+000
7847:0.0000000000000000e+000
7848:0.0000000000000000e+000
7849:0.0000000000000000e+000
7850:0.0000000000000000e+000
7851:0.0000000000000000e+000
7852:0.0000000000000000e+000
7853:0.0000000000000000e+000
7854:0.0000000000000000e+000
7855:0.0000000000000000e+000
7856:0.0000000000000000e+000
7857:0.0000000000000000e+000
7858:0.0000000000000000e+000
7859:0.0000000000000000e+000
7860:0.0000000000000000e+000
7861:0.0000000000000000e+000
7862:0.0000000000000000e+000
7863:0.0000000000000000e+000
7864:0.0000000000000000e+000
7865:0.0000000000000000e+000
7866:0.0000000000000000e+000
7867:0.0000000000000000e+000
7868:0.0000000000000000e+000
7869:0.0000000000000000e+000
7870:0.0000000000000000e+000
7871:0.0000000000000000e+000
7872:0.0000000000000000e+000
7873:0.0000000000000000e+000
7874:0.0000000000000000e+000
7875:0.0000000000000000e+000
7876:0.0000000000000000e+000
7877:0.0000000000000000e+000
7878:0.0000000000000000e+000
7879:0.0000000000000000e+000
7880:0.0000000000000000e+000
7881:0.0000000000000000e+000
7882:0.0000000000000000e+000
7883:0.0000000000000000e+000
7884:0.0000000000000000e+000
7885:0.0000000000000000e+000
7886:0.0000000000000000e+000
7887:0.0000000000000000e+000
7888:0.0000000000000000e+000
7889:0.0000000000000000e+000
7890:0.0000000000000000e+000
7891:0.0000000000000000e+000
7892:0.0000000000000000e+000
7893:0.0000000000000000e+000
7894:0.0000000000000000e+000
7895:0.0000000000000000e+000
7896:0.0000000000000000e+000
7897:0.0000000000000000e+000
7898:0.0000000000000000e+000
7899:0.0000000000000000e+000
7900:0.0000000000000000e+000
7901:0.0000000000000000e+000
7902:0.0000000000000000e+000
7903:0.0000000000000000e+000
7904:0.0000000000000000e+000
7905:0.0000000000000000e+000
7906:0.0000000000000000e+000
7907:0.0000000000000000e+000
7908:0.0000000000000000e+000
7909:0.0000000000000000e+000
7910:0.0000000000000000e+000
7911:0.0000000000000000e+000
7912:0.0000000000000000e+000
7913:0.0000000000000000e+000
7914:0.0000000000000000e+000
7915:0.0000000000000000e+000
7916:0.0000000000000000e+000
7917:0.0000000000000000e+000
7918:0.0000000000000000e+000
7919:0.0000000000000000e+000
7920:0.0000000000000000e+000
7921:0.0000000000000000e+000
7922:0.0000000000000000e+000
7923:0.0000000000000000e+000
7924:0.0000000000000000e+000
7925:0.0000000000000000e+000
7926:0.0000000000000000e+000
7927:0.0000000000000000e+000
7928:0.0000000000000000e+000
7929:0.0000000000000000e+000
7930:0.0000000000000000e+000
7931:0.0000000000000000e+000
7932:0.0000000000000000e+000
7933:0.0000000000000000e+000
7934:0.0000000000000000e+000
7935:0.0000000000000000e+000
7936:0.0000000000000000e+000
7937:0.0000000000000000e+000
7938:0.0000000000000000e+000
7939:0.0000000000000000e+000
7940:0.0000000000000000e+000
7941:0.0000000000000000e+000
7942:0.0000000000000000e+000
7943:0.0000000000000000e+000
7944:0.0000000000000000e+000
7945:0.0000000000000000e+000
7946:0.0000000000000000e+000
7947:0.0000000000000000e+000
7948:0.0000000000000000e+000
7949:0.0000000000000000e+000
7950:0.0000000000000000e+000
7951:0.0000000000000000e+000
7952:0.0000000000000000e+000
7953:0.0000000000000000e+000
7954:0.0000000000000000e+000
7955:0.0000000000000000e+000
7956:0.0000000000000000e+000
7957:0.0000000000000000e+000
7958:0.0000000000000000e+000
7959:0.0000000000000000e+000
7960:0.0000000000000000e+000
7961:0.0000000000000000e+000
7962:0.0000000000000000e+000
7963:0.0000000000000000e+000
7964:0.0000000000000000e+000
7965:0.0000000000000000e+000
7966:0.0000000000000000e+000
7967:0.0000000000000000e+000
7968:0.0000000000000000e+000
7969:0.0000000000000000e+000
7970:0.0000000000000000e+000
7971:0.0000000000000000e+000
7972:0.0000000000000000e+000
7973:0.0000000000000000e+000
7974:0.0000000000000000e+000
7975:0.0000000000000000e+000
7976:0.0000000000000000e+000
7977:0.0000000000000000e+000
7978:0.0000000000000000e+000
7979:0.0000000000000000e+000
7980:0.0000000000000000e+000
7981:0.0000000000000000e+000
7982:0.0000000000000000e+000
7983:0.0000000000000000e+000
7984:0.0000000000000000e+000
7985:0.0000000000000000e+000
7986:0.0000000000000000e+000
7987:0.0000000000000000e+000
7988:0.0000000000000000e+000
7989:0.0000000000000000e+000
7990:0.0000000000000000e+000
7991:0.0000000000000000e+000
7992:0.0000000000000000e+000
7993:0.0000000000000000e+000
7994:0.0000000000000000e+000
7995:0.0000000000000000e+000
7996:0.0000000000000000e+000
7997:0.0000000000000000e+000
7998:0.0000000000000000e+000
7999:0.0000000000000000e+000
8000:0.0000000000000000e+000
8001:0.0000000000000000e+000
8002:0.0000000000000000e+000
8003:0.0000000000000000e+000
8004:0.0000000000000000e+000
8005:0.0000000000000000e+000
8006:0.0000000000000000e+000
8007:0.0000000000000000e+000
8008:0.0000000000000000e+000
8009:0.0000000000000000e+000
8010:0.0000000000000000e+000
8011:0.0000000000000000e+000
8012:0.0000000000000000e+000
8013:0.0000000000000000e+000
8014:0.0000000000000000e+000
8015:0.0000000000000000e+000
8016:0.0000000000000000e+000
8017:0.0000000000000000e+000
8018:0.0000000000000000e+000
8019:0.0000000000000000e+000
8020:0.0000000000000000e+000
8021:0.0000000000000000e+000
8022:0.0000000000000000e+000
8023:0.0000000000000000e+000
8024:0.0000000000000000e+000
8025:0.0000000000000000e+000
8026:0.0000000000000000e+000
8027:0.0000000000000000e+000
8028:0.0000000000000000e+000
8029:0.0000000000000000e+000
8030:0.0000000000000000e+000
8031:0.0000000000000000e+000
8032:0.0000000000000000e+000
8033:0.0000000000000000e+000
8034:0.0000000000000000e+000
8035:0.0000000000000000e+000
8036:0.0000000000000000e+000
8037:0.0000000000000000e+000
8038:0.0000000000000000e+000
8039:0.0000000000000000e+000
8040:0.0000000000000000e+000
8041:0.0000000000000000e+000
8042:0.0000000000000000e+000
8043:0.0000000000000000e+000
8044:0.0000000000000000e+000
8045:0.0000000000000000e+000
8046:0.0000000000000000e+000
8047:0.0000000000000000e+000
8048:0.0000000000000000e+000
8049:0.0000000000000000e+000
8050:0.0000000000000000e+000
8051:0.0000000000000000e+000
8052:0.0000000000000000e+000
8053:0.0000000000000000e+000
8054:0.0000000000000000e+000
8055:0.0000000000000000e+000
8056:0.0000000000000000e+000
8057:0.0000000000000000e+000
8058:0.0000000000000000e+000
8059:0.0000000000000000e+000
8060:0.0000000000000000e+000
8061:0.0000000000000000e+000
8062:0.0000000000000000e+000
8063:0.0000000000000000e+000
8064:0.0000000000000000e+000
8065:0.0000000000000000e+000
8066:0.0000000000000000e+000
8067:0.0000000000000000e+000
8068:0.0000000000000000e+000
8069:0.0000000000000000e+000
8070:0.0000000000000000e+000
8071:0.0000000000000000e+000
8072:0.0000000000000000e+000
8073:0.0000000000000000e+000
8074:0.0000000000000000e+000
8075:0.0000000000000000e+000
8076:0.0000000000000000e+000
8077:0.0000000000000000e+000
8078:0.0000000000000000e+000
8079:0.0000000000000000e+000
8080:0.0000000000000000e+000
8081:0.0000000000000000e+000
8082:0.0000000000000000e+000
8083:0.0000000000000000e+000
8084:0.0000000000000000e+000
8085:0.0000000000000000e+000
8086:0.0000000000000000e+000
8087:0.0000000000000000e+000
8088:0.0000000000000000e+000
8089:0.0000000000000000e+000
8090:0.0000000000000000e+000
8091:0.0000000000000000e+000
8092:0.0000000000000000e+000
8093:0.0000000000000000e+000
8094:0.0000000000000000e+000
8095:0.0000000000000000e+000
8096:0.0000000000000000e+000
8097:0.0000000000000000e+000
8098:0.0000000000000000e+000
8099:0.0000000000000000e+000
8100:0.0000000000000000e+000
8101:0.0000000000000000e+000
8102:0.0000000000000000e+000
8103:0.0000000000000000e+000
8104:0.0000000000000000e+000
8105:0.0000000000000000e+000
8106:0.0000000000000000e+000
8107:0.0000000000000000e+000
8108:0.0000000000000000e+000
8109:0.0000000000000000e+000
8110:0.0000000000000000e+000
8111:0.0000000000000000e+000
8112:0.0000000000000000e+000
8113:0.0000000000000000e+000
8114:0.0000000000000000e+000
8115:0.0000000000000000e+000
8116:0.0000000000000000e+000
8117:0.0000000000000000e+000
8118:0.0000000000000000e+000
8119:0.0000000000000000e+000
8120:0.0000000000000000e+000
8121:0.0000000000000000e+000
8122:0.0000000000000000e+000
8123:0.0000000000000000e+000
8124:0.0000000000000000e+000
8125:0.0000000000000000e+000
8126:0.0000000000000000e+000
8127:0.0000000000000000e+000
8128:0.0000000000000000e+000
8129:0.0000000000000000e+000
8130:0.0000000000000000e+000
8131:0.0000000000000000e+000
8132:0.0000000000000000e+000
8133:0.0000000000000000e+000
8134:0.0000000000000000e+000
8135:0.0000000000000000e+000
8136:0.0000000000000000e+000
8137:0.0000000000000000e+000
8138:0.0000000000000000e+000
8139:0.0000000000000000e+000
8140:0.0000000000000000e+000
8141:0.0000000000000000e+000
8142:0.0000000000000000e+000
8143:0.0000000000000000e+000
8144:0.0000000000000000e+000
8145:0.0000000000000000e+000
8146:0.0000000000000000e+000
8147:0.0000000000000000e+000
8148:0.0000000000000000e+000
8149:0.0000000000000000e+000
8150:0.0000000000000000e+000
8151:0.0000000000000000e+000
8152:0.0000000000000000e+000
8153:0.0000000000000000e+000
8154:0.0000000000000000e+000
8155:0.0000000000000000e+000
8156:0.0000000000000000e+000
8157:0.0000000000000000e+000
8158:0.0000000000000000e+000
8159:0.0000000000000000e+000
8160:0.0000000000000000e+000
8161:0.0000000000000000e+000
8162:0.0000000000000000e+000
8163:0.0000000000000000e+000
8164:0.0000000000000000e+000
8165:0.0000000000000000e+000
8166:0.0000000000000000e+000
8167:0.0000000000000000e+000
8168:0.0000000000000000e+000
8169:0.0000000000000000e+000
8170:0.0000000000000000e+000
8171:0.0000000000000000e+000
8172:0.0000000000000000e+000
8173:0.0000000000000000e+000
8174:0.0000000000000000e+000
8175:0.0000000000000000e+000
8176:0.0000000000000000e+000
8177:0.0000000000000000e+000
8178:0.0000000000000000e+000
8179:0.0000000000000000e+000
8180:0.0000000000000000e+000
8181:0.0000000000000000e+000
8182:0.0000000000000000e+000
8183:0.0000000000000000e+000
8184:0.0000000000000000e+000
8185:0.0000000000000000e+000
8186:0.0000000000000000e+000
8187:0.0000000000000000e+000
8188:0.0000000000000000e+000
8189:0.0000000000000000e+000
8190:0.0000000000000000e+000
8191:0.0000000000000000e+000
