label=Stress xy
num_items=1152

0:6.0430812248035181e+01
1:1.4250323103366249e+01
2:5.0683531191893572e+00
3:8.3501969134776473e+01
4:1.6961054094111599e+01
5:7.3584122072581604e+00
6:7.9783029868372054e+01
7:1.4995716108031411e+01
8:7.7812520523153523e+00
9:7.3998345760926696e+01
10:1.0846522584909055e+01
11:1.1217819858950566e+00
12:-3.7590649751446527e+01
13:-1.3156882437091868e+01
14:-1.2249932705638402e+01
15:-1.5654408220111387e+02
16:-4.0942131835712416e+01
17:-2.7032615231650638e+01
18:-3.0496449571197098e+02
19:-6.8110969953104004e+01
20:-3.7750761339289561e+01
21:-2.6639868037078276e+02
22:-6.0872886459173060e+01
23:-3.5744190772091400e+01
24:-2.1133832338104605e+02
25:-4.5631202302702171e+01
26:-3.0221326990481764e+01
27:-1.7768752661143807e+02
28:-3.9265587543187323e+01
29:-2.2032962346928333e+01
30:-9.3421486703053660e+01
31:-2.0795156606816835e+01
32:-1.1151546898934544e+01
33:-7.7917825001409966e+00
34:-1.9708564029389497e+00
35:-4.4522968792093970e-02
36:2.9947301659497594e+00
37:8.8571644287576731e-02
38:-6.5224428291020742e-01
39:6.6872961991808566e+00
40:4.1481118813293200e-01
41:-1.1655680937818935e+00
42:1.0315102269059144e+01
43:7.0496130075332530e-01
44:-1.6863108037508145e+00
45:-2.3807623351310533e-01
46:2.3269476790181876e-01
47:2.4551284076840438e-01
48:-3.4476645554116031e-01
49:4.7709570598560164e-01
50:4.4619836662527906e-01
51:-4.5040101270294380e-01
52:7.2300454530202996e-01
53:6.4884403008106306e-01
54:7.7322583077471335e-02
55:-1.0381043645500056e-01
56:-1.0823916538680885e-01
57:1.2174764223660497e-01
58:-2.0516307755339441e-01
59:-2.1183963542240156e-01
60:1.6781204366394922e-01
61:-3.0643102323210758e-01
62:-3.1691005688724017e-01
63:-4.2720599727337875e-02
64:2.7894412939660582e-02
65:2.8941980890826037e-02
66:-9.8727515230452145e-02
67:1.5887876808015063e-02
68:1.5770378397322992e-02
69:-1.5630692020654155e-01
70:3.5111269216391711e-03
71:3.4308378661854571e-03
72:2.8386812766400030e-03
73:-2.4826909568244907e-02
74:-2.4327923225951363e-02
75:-2.5555821651467577e-02
76:-6.5183289156880847e-02
77:-6.1104272670771981e-02
78:-5.2975476524549391e-02
79:-1.0527641318933174e-01
80:-9.8328959059082580e-02
81:-1.3155423822826468e-02
82:-7.9295975947327841e-04
83:1.7891409995987408e-04
84:-4.2752690848004482e-02
85:-2.2431314151554475e-02
86:-1.8302494823492395e-02
87:-7.2892032954118904e-02
88:-4.4222281454834492e-02
89:-3.6547054488269330e-02
90:-3.6030654945525503e-03
91:-7.0317898985403993e-03
92:-5.5227758273177895e-03
93:-2.1610151900477610e-02
94:-2.2627101988011315e-02
95:-1.7406450651188555e-02
96:-3.9330823179396936e-02
97:-3.8155128428533164e-02
98:-2.9441969303844521e-02
99:-2.7773599196667352e-03
100:-2.3134140403499305e-04
101:-1.0815727189573961e-03
102:-1.2085121320596888e-02
103:-5.5811838774991948e-03
104:-3.0056300934186812e-03
105:-2.1552568242030012e-02
106:-1.0898530300428609e-02
107:-4.7050098471167834e-03
108:3.0308924851793324e+00
109:2.4079105174950390e+00
110:2.2073831938000659e+00
111:-4.9278177661605929e+00
112:-2.3465883357363100e+00
113:4.8945572564121659e-02
114:-8.9083755486190572e+00
115:-4.9846862404596024e+00
116:-1.8548426205371649e+00
117:1.7018066882716041e+00
118:3.6768007061749214e-01
119:-2.2988441758921557e-01
120:4.1835591643066311e-01
121:-3.3077709280317835e-01
122:-6.8167541628128625e-01
123:-1.1259208344969265e+00
124:-1.1997356595428870e+00
125:-1.2136432425247732e+00
126:-2.1100378530422398e-01
127:-9.6787859828968800e-02
128:-9.5326699953561078e-02
129:-6.9969122374585313e-01
130:-6.8637062977310737e-01
131:-7.0187614405356025e-01
132:-1.2374545619316759e+00
133:-1.3084757957936763e+00
134:-1.3243944805622205e+00
135:-1.5574552052668780e-01
136:-2.4557872531984407e-01
137:-2.6341496576193180e-01
138:-7.2359931359765917e-01
139:-7.3545093664790651e-01
140:-7.0286056990907109e-01
141:-1.3043150829110128e+00
142:-1.2440617363516253e+00
143:-1.1669213745651648e+00
144:-2.3861008592300348e-01
145:-1.9451259750686242e-01
146:-1.6979036574734047e-01
147:-6.6591577827468973e-01
148:-6.0380374313073759e-01
149:-5.4722370060324421e-01
150:-1.1157302313922195e+00
151:-1.0224882747501634e+00
152:-9.2093504668442272e-01
153:-1.6360662374050072e-01
154:-1.5056150343938224e-01
155:-1.3130365347660705e-01
156:-5.1217996931058341e-01
157:-4.4437939753827760e-01
158:-3.7598666576200651e-01
159:-8.5431060115769331e-01
160:-7.3552020405509633e-01
161:-6.2175821660625208e-01
162:-1.1699857526351204e-01
163:-9.2823540071276814e-02
164:-7.1307071314627643e-02
165:-3.3680737002451749e-01
166:-2.7289350693017383e-01
167:-2.1200133157785014e-01
168:-5.5837803689290222e-01
169:-4.5327362488829659e-01
170:-3.5155402193216595e-01
171:-5.8715230677478553e-02
172:-3.4394995976815813e-02
173:-8.7597274206220894e-03
174:-1.7338526965920137e-01
175:-9.9337219337733457e-02
176:-2.4846162631269160e-02
177:-2.8757289125535868e-01
178:-1.6751391847898411e-01
179:-4.7883966788129763e-02
180:-8.5271884190492919e+00
181:-5.2938991902738000e+00
182:-2.8795512518271082e+00
183:-6.4471715738283208e+00
184:-5.2811817036165429e+00
185:-4.4122237852403332e+00
186:-5.3626678506850896e+00
187:-5.5731003106229418e+00
188:-5.5586553839031048e+00
189:-2.2395484818096745e+00
190:-1.9597348099343734e+00
191:-1.7323255608153239e+00
192:-4.0205081294192375e+00
193:-3.4161775243706649e+00
194:-2.9118819993341201e+00
195:-5.2850080925210490e+00
196:-4.5995419334903271e+00
197:-4.0617415117274023e+00
198:-1.7050499507531636e+00
199:-1.7585004693680657e+00
200:-1.7400693245748751e+00
201:-2.7670432262265439e+00
202:-2.6795852477289679e+00
203:-2.5465129765455701e+00
204:-3.8670650318531901e+00
205:-3.6280551436111228e+00
206:-3.3696983334055348e+00
207:-1.6914745586068036e+00
208:-1.5847646987753825e+00
209:-1.4710138942889008e+00
210:-2.4408636944277418e+00
211:-2.2398264218877371e+00
212:-2.0380291696642279e+00
213:-3.2025487169035727e+00
214:-2.9025494269444114e+00
215:-2.6080711222732824e+00
216:-1.4007415886310666e+00
217:-1.2713747203907353e+00
218:-1.1324456271204584e+00
219:-1.9166154633984118e+00
220:-1.7016545659847653e+00
221:-1.4866758159299687e+00
222:-2.4336954077854625e+00
223:-2.1315185830034635e+00
224:-1.8388682779691203e+00
225:-1.0457653932988609e+00
226:-8.9786795798408459e-01
227:-7.5752591294185279e-01
228:-1.3634438675045957e+00
229:-1.1618029623388071e+00
230:-9.7078082564246604e-01
231:-1.6775863904227484e+00
232:-1.4186752775231117e+00
233:-1.1734463112898355e+00
234:-6.7915200571508072e-01
235:-5.4830798131644920e-01
236:-4.2214591908339194e-01
237:-8.6473820926268585e-01
238:-6.9015659649101202e-01
239:-5.2435148046419489e-01
240:-1.0398757478749447e+00
241:-8.2556701245913910e-01
242:-6.2412930836746816e-01
243:-3.4410889166903919e-01
244:-1.9955983703258143e-01
245:-5.5761632435240384e-02
246:-4.2488612404448778e-01
247:-2.4384984272492888e-01
248:-6.3798346493120953e-02
249:-5.0623339796645239e-01
250:-2.9500125314287762e-01
251:-8.4987828455672251e-02
252:-5.1698546109557419e+00
253:-5.6783833316234356e+00
254:-5.8495866197074937e+00
255:-5.0750434137557985e+00
256:-5.6952633262096013e+00
257:-6.1136403710917975e+00
258:-5.1752557190923723e+00
259:-5.9346634557940057e+00
260:-6.6277108899360355e+00
261:-5.6531445989426361e+00
262:-5.1076776540313444e+00
263:-4.6908945797886092e+00
264:-6.1321401041038879e+00
265:-5.9178394261786087e+00
266:-5.7193609351578214e+00
267:-6.8358060354999735e+00
268:-6.8380725015352031e+00
269:-6.7432994707108396e+00
270:-4.5001128864649624e+00
271:-4.1740288442611186e+00
272:-3.8414655571219725e+00
273:-5.5301035707121295e+00
274:-5.0753933484910032e+00
275:-4.6321561755718905e+00
276:-6.5277101025170916e+00
277:-5.9632447681915624e+00
278:-5.4282047774053961e+00
279:-3.6370933168572877e+00
280:-3.2769811644031774e+00
281:-2.9253364808425038e+00
282:-4.3657255679904194e+00
283:-3.8939177622191123e+00
284:-3.4344220267445404e+00
285:-5.1020190991353296e+00
286:-4.5075598318174332e+00
287:-3.9292572361995761e+00
288:-2.7184136503576175e+00
289:-2.3631289247235046e+00
290:-2.0227550337860110e+00
291:-3.1670660828616142e+00
292:-2.7152557069676040e+00
293:-2.2873149468689808e+00
294:-3.5972506151997230e+00
295:-3.0453767746745091e+00
296:-2.5263313310434334e+00
297:-1.8376591087820573e+00
298:-1.5430144454001893e+00
299:-1.2649259385568852e+00
300:-2.0588892845841200e+00
301:-1.7015241989768051e+00
302:-1.3675284027054453e+00
303:-2.2537857890510580e+00
304:-1.8345227777199629e+00
305:-1.4454421885222264e+00
306:-1.1159883358431393e+00
307:-8.8131823949355970e-01
308:-6.6175460846814782e-01
309:-1.1943006518962391e+00
310:-9.2998282645367292e-01
311:-6.8435898208291024e-01
312:-1.2495996942138279e+00
313:-9.6056915712079016e-01
314:-6.9382011684717892e-01
315:-5.3498699259189164e-01
316:-3.1040436353205081e-01
317:-8.7743939065182741e-02
318:-5.4689882113147081e-01
319:-3.1072532888665072e-01
320:-7.8657624663420952e-02
321:-5.5077897175076773e-01
322:-3.1564543545175089e-01
323:-8.6801270602935146e-02
324:-5.3526770171217342e+00
325:-6.2307291619898884e+00
326:-7.0577555097399127e+00
327:-5.9139378811015817e+00
328:-7.0239771944544414e+00
329:-8.0002050459379692e+00
330:-6.7504183415018915e+00
331:-8.0633253672846674e+00
332:-9.1596352664468998e+00
333:-7.3190282142957690e+00
334:-7.3458105176277293e+00
335:-7.2533206846312597e+00
336:-8.2583617947393240e+00
337:-8.2022069988178838e+00
338:-8.0632394699263354e+00
339:-9.3951162933065362e+00
340:-9.2179268805563428e+00
341:-8.9943841381943308e+00
342:-7.0224365431835878e+00
343:-6.4167808068227501e+00
344:-5.8394691539749610e+00
345:-7.8085346407116933e+00
346:-7.1299759047644065e+00
347:-6.4580932170159357e+00
348:-8.6917322340042027e+00
349:-7.8954578873017285e+00
350:-7.0841915534838433e+00
351:-5.4771033793727382e+00
352:-4.8052363318614377e+00
353:-4.1556533366607118e+00
354:-6.0187206711671557e+00
355:-5.2018885440416351e+00
356:-4.4245525602694471e+00
357:-6.5508602338638022e+00
358:-5.5756202227742859e+00
359:-4.6570884460808486e+00
360:-3.7873978129306169e+00
361:-3.1813769864852639e+00
362:-2.6129822136062648e+00
363:-3.9957215815348781e+00
364:-3.3030358535554321e+00
365:-2.6555045052480959e+00
366:-4.1624465050827810e+00
367:-3.3785469028188313e+00
368:-2.6473300063327541e+00
369:-2.3173185710935966e+00
370:-1.8669171015294070e+00
371:-1.4498804791234732e+00
372:-2.3248189080383357e+00
373:-1.8310033873564255e+00
374:-1.3746759581338082e+00
375:-2.2813022218918624e+00
376:-1.7475211464059637e+00
377:-1.2553514066803519e+00
378:-1.2434628573102855e+00
379:-9.4517167433030636e-01
380:-6.7098834000040086e-01
381:-1.1553052969055941e+00
382:-8.5086593178647651e-01
383:-5.7322314242803207e-01
384:-1.0259014964184818e+00
385:-7.2174120956229038e-01
386:-4.4706622557737213e-01
387:-5.2845082427994239e-01
388:-3.0208951237518528e-01
389:-8.3235419478837974e-02
390:-4.3861410949003610e-01
391:-2.4251484002236473e-01
392:-5.5924329127460662e-02
393:-3.2645274856401041e-01
394:-1.7503770746455929e-01
395:-3.5132964502228324e-02
396:-7.3684972456084132e+00
397:-8.7393771037294723e+00
398:-9.8816443423929634e+00
399:-8.7515535586291051e+00
400:-1.0094749244725353e+01
401:-1.1250826835032546e+01
402:-1.0557798758304358e+01
403:-1.1806948804606478e+01
404:-1.2910475278788061e+01
405:-1.0103122450928469e+01
406:-9.8377527413598820e+00
407:-9.5231512817885839e+00
408:-1.1436317647756526e+01
409:-1.0976763456578059e+01
410:-1.0421626444333642e+01
411:-1.3024087269847611e+01
412:-1.2313369135100121e+01
413:-1.1460717108223431e+01
414:-9.1581626362297932e+00
415:-8.2469762795014407e+00
416:-7.3306987575241740e+00
417:-9.8822951507875629e+00
418:-8.6783858899116098e+00
419:-7.5250775910021206e+00
420:-1.0710414742266972e+01
421:-9.1448887636737766e+00
422:-7.6856558742623866e+00
423:-6.7426830107965436e+00
424:-5.6843498890262767e+00
425:-4.6923443034291035e+00
426:-6.8387420113911759e+00
427:-5.6538428851357612e+00
428:-4.5511158544684172e+00
429:-6.8773001292950298e+00
430:-5.5532828169305013e+00
431:-4.3272821595690178e+00
432:-4.1655680581303027e+00
433:-3.3405811860312249e+00
434:-2.5714953495968449e+00
435:-3.9819995000542363e+00
436:-3.1142845547550828e+00
437:-2.3060020828721717e+00
438:-3.7141195575919763e+00
439:-2.8103655901486602e+00
440:-1.9695755338731624e+00
441:-2.1915942865794857e+00
442:-1.6463912809319714e+00
443:-1.1435152751690338e+00
444:-1.9160945983084163e+00
445:-1.3723476867333522e+00
446:-8.6926390454562819e-01
447:-1.5729460544611624e+00
448:-1.0352530909016566e+00
449:-5.3655938623226351e-01
450:-9.1370935159592814e-01
451:-6.1840245336191402e-01
452:-3.5232139688375963e-01
453:-6.4848457761939793e-01
454:-3.8316818938533215e-01
455:-1.4349727983393035e-01
456:-3.2794502437786227e-01
457:-9.8806269160023177e-02
458:1.0826737044835026e-01
459:-2.4408162857982768e-01
460:-1.2748904667140645e-01
461:-2.3532652052238541e-02
462:-6.2555473558015051e-02
463:-1.6878589041697919e-02
464:1.4294539053655620e-02
465:1.5774752540499382e-01
466:1.2438735196672915e-01
467:7.4655852975758552e-02
468:-1.1776609755659061e+01
469:-1.2961782832123335e+01
470:-1.3931253018261096e+01
471:-1.4436341086138070e+01
472:-1.5496513568520811e+01
473:-1.6058661643436899e+01
474:-1.7949228584586340e+01
475:-1.8819293991525416e+01
476:-1.8909013473857680e+01
477:-1.3904291514286561e+01
478:-1.2919261652367855e+01
479:-1.1837961339506771e+01
480:-1.5568146035433617e+01
481:-1.3710888447915277e+01
482:-1.1960633515921566e+01
483:-1.7837946882497960e+01
484:-1.4771509249153215e+01
485:-1.2015347377800111e+01
486:-1.0965632100992309e+01
487:-9.2019555081992301e+00
488:-7.5786868775356320e+00
489:-1.0839015018275139e+01
490:-8.7961264167444160e+00
491:-6.9551891269414519e+00
492:-1.0544424401803496e+01
493:-8.2155746437347830e+00
494:-6.1502195469921208e+00
495:-6.7152303926021615e+00
496:-5.3456297809855950e+00
497:-4.0767650450011699e+00
498:-6.0443403521188488e+00
499:-4.6856234094397520e+00
500:-3.4211423620270494e+00
501:-5.1991702715346149e+00
502:-3.8828006694802095e+00
503:-2.6541669823264269e+00
504:-3.4539668239213124e+00
505:-2.5569877964140297e+00
506:-1.7210808601561915e+00
507:-2.8181691958552149e+00
508:-1.9826547802469625e+00
509:-1.1981797947400725e+00
510:-2.0830874350020312e+00
511:-1.3190474790895887e+00
512:-5.9601429213044621e-01
513:-1.3323541027246988e+00
514:-8.1503208299596075e-01
515:-3.3186849740881758e-01
516:-8.4543796064217835e-01
517:-3.9715781892354851e-01
518:3.1935472095441987e-02
519:-2.8580330962452749e-01
520:8.0949773928052068e-02
521:4.4348759022297624e-01
522:-1.3620856764708092e-01
523:6.3470017597950734e-02
524:2.4519233201226501e-01
525:1.9510386749423880e-01
526:3.3433505786411521e-01
527:4.6614962519825653e-01
528:5.7081120752034453e-01
529:6.5055678898578706e-01
530:7.3342539521049244e-01
531:2.7342192298775686e-01
532:1.8964272086358888e-01
533:8.9351650661302948e-02
534:4.5771623514831594e-01
535:2.9194319052077672e-01
536:1.1104287372865751e-01
537:6.9176064841009999e-01
538:4.5482472355463188e-01
539:2.0414612244813266e-01
540:-2.0234865787787250e+01
541:-2.0342260582064814e+01
542:-1.9896111023735678e+01
543:-2.6012735803205754e+01
544:-2.2572698919487824e+01
545:-1.9640840913928766e+01
546:-3.4868689132851941e+01
547:-2.6086242137499305e+01
548:-1.8873697251071071e+01
549:-1.8491116647085764e+01
550:-1.4757399427234256e+01
551:-1.1474611109590059e+01
552:-1.7442545719406095e+01
553:-1.2963816910060608e+01
554:-9.2160972416024993e+00
555:-1.5414503707450177e+01
556:-1.0378846719829825e+01
557:-6.3542791117768553e+00
558:-9.8814446105259766e+00
559:-7.5544471996262246e+00
560:-5.4694198983154356e+00
561:-7.6834947828938471e+00
562:-5.7612927178921689e+00
563:-3.9455484700692578e+00
564:-4.9857095577288346e+00
565:-3.6357893180166068e+00
566:-2.2568146030729581e+00
567:-4.5378732459950122e+00
568:-3.3129019746684669e+00
569:-2.1614318331655529e+00
570:-3.1505190521487436e+00
571:-2.1854973417564150e+00
572:-1.2515590211679135e+00
573:-1.6508795809579746e+00
574:-9.5900192947451957e-01
575:-2.5578992777505677e-01
576:-1.6344140939585414e+00
577:-9.4316185088852500e-01
578:-2.7640926867207416e-01
579:-8.4373176989761267e-01
580:-3.4178458977596871e-01
581:1.8235680787579300e-01
582:2.1295593616166252e-02
583:3.0743646201519065e-01
584:6.6246542632802774e-01
585:1.7095810445841918e-03
586:3.1054085572122325e-01
587:6.2559412869327702e-01
588:3.9267385681768585e-01
589:5.9446352868533503e-01
590:8.2337119156946770e-01
591:7.9835991204301671e-01
592:8.9685703483959445e-01
593:1.0433681413737668e+00
594:7.2929691195469715e-01
595:7.7287901701143957e-01
596:8.2618681764973823e-01
597:8.8465829471367685e-01
598:8.6297960668875140e-01
599:8.6317698975135460e-01
600:1.0633981003379709e+00
601:9.7669086459469445e-01
602:9.2401007544494207e-01
603:7.6642108041201651e-01
604:4.9460904572785191e-01
605:2.1219763752140652e-01
606:7.7794335476682053e-01
607:4.6995735082787810e-01
608:1.6078931110666234e-01
609:8.2216954496749839e-01
610:5.0822808687134347e-01
611:2.0252193073289879e-01
612:-3.5862304786884145e+01
613:-2.5203519350973664e+01
614:-1.6356117488895233e+01
615:-2.6175374832523854e+01
616:-1.6197143947644086e+01
617:-7.7984224491949741e+00
618:-1.2989383650493677e+01
619:-4.6638451444990769e+00
620:2.3140581624663130e+00
621:-1.2719855418858762e+01
622:-8.3428181380434712e+00
623:-4.6486470796435526e+00
624:-5.4091100177556246e+00
625:-4.1093278990196946e+00
626:-2.0843956175463121e+00
627:3.0029520843085127e+00
628:6.3927486961668623e-01
629:4.0876420281499581e-01
630:-3.4455839885923161e+00
631:-2.5002589993478650e+00
632:-1.4551791243908374e+00
633:-1.3096037128030014e+00
634:-1.0063028981164372e+00
635:-4.9579811822397446e-01
636:6.1534415877623250e-01
637:3.8191970528353641e-01
638:4.6314829648999617e-01
639:-9.9138103783047282e-01
640:-4.7131193509936237e-01
641:1.0406680448022504e-01
642:-2.8641248150451493e-01
643:-1.0524516865810436e-01
644:2.3993474735184792e-01
645:4.3517366834973836e-01
646:2.3073997662920229e-01
647:2.9902185438724255e-01
648:3.1583919233623836e-01
649:4.9027573076203462e-01
650:7.5419901743508067e-01
651:3.6101416454470941e-01
652:3.9936853089567437e-01
653:5.5130286433123055e-01
654:3.2252530367339044e-01
655:2.4784334991852075e-01
656:3.1083458208556486e-01
657:8.5173167198570021e-01
658:9.0475966606450731e-01
659:1.0190498494314477e+00
660:6.0004469249891457e-01
661:5.9773973684299975e-01
662:6.8132832581208613e-01
663:3.1751379245342626e-01
664:2.5995146786495166e-01
665:3.1291404323832289e-01
666:1.0244845265016411e+00
667:9.1703571497746283e-01
668:8.5251462094469144e-01
669:6.7951414654312514e-01
670:5.7385899691035924e-01
671:5.2957033258356712e-01
672:3.0756658659381464e-01
673:2.1639807421981488e-01
674:2.0503481496634901e-01
675:7.5621634466444076e-01
676:4.6855231274305698e-01
677:1.9088494829388589e-01
678:4.6694977313689023e-01
679:2.6071260787924744e-01
680:6.1107690277833852e-02
681:1.8189317979511097e-01
682:6.4325706901863011e-02
683:-4.9973938151144377e-02
684:-2.5787992351503771e+01
685:-1.7898201800748136e+01
686:-1.0034709224493566e+01
687:-1.1773357932189187e+01
688:-1.0943839828596202e+01
689:-1.0120138449305653e+01
690:-7.7141283208599312e+00
691:-8.9925453990685611e+00
692:-1.0256297951381356e+01
693:-8.0878589551152018e+00
694:-8.5877534830706601e+00
695:-9.0697735270002227e+00
696:-6.8607964850585708e+00
697:-6.4040917164636353e+00
698:-5.9389627196566463e+00
699:-5.4099869290008593e+00
700:-4.9726780561077915e+00
701:-4.5363952108163339e+00
702:-4.6797856188165774e+00
703:-4.6178400556979726e+00
704:-4.5588915268136709e+00
705:-4.1707886163783572e+00
706:-4.5015359382778781e+00
707:-4.8326033864788460e+00
708:-4.2893637015883801e+00
709:-4.6288488568696051e+00
710:-4.9659772305193330e+00
711:-4.6023038915217693e+00
712:-4.8029998949431079e+00
713:-5.0008809327836463e+00
714:-5.1472060739194010e+00
715:-5.2147363598269214e+00
716:-5.2805540427598689e+00
717:-5.6815070509966992e+00
718:-5.7780380183858924e+00
719:-5.8739587454063038e+00
720:-6.0598971466202567e+00
721:-6.2290438957072229e+00
722:-6.3973981278805150e+00
723:-7.2846732211674903e+00
724:-7.5376416970139060e+00
725:-7.7880889015121317e+00
726:-9.2095291305468994e+00
727:-9.4966782824214295e+00
728:-9.7795774085135143e+00
729:-1.0526901568894083e+01
730:-1.0827521654124338e+01
731:-1.1124171602808945e+01
732:-1.2838810823705053e+01
733:-1.3169794870061367e+01
734:-1.3499499371341875e+01
735:-1.5400954058703624e+01
736:-1.5740936716977933e+01
737:-1.6082330421645562e+01
738:-1.7317344388290707e+01
739:-1.7590538877279389e+01
740:-1.7860836426689666e+01
741:-2.3634778167782674e+01
742:-2.3809479751723803e+01
743:-2.3963789446698222e+01
744:-3.3756167799298666e+01
745:-3.4027933354515625e+01
746:-3.4261812071377378e+01
747:-3.5377288482037713e+01
748:-3.5774717417400190e+01
749:-3.6151946376401114e+01
750:-3.3599782004088731e+01
751:-3.2507304032978915e+01
752:-3.1472901788859929e+01
753:-3.9922013484665293e+01
754:-3.4708397039093001e+01
755:-2.9631132023865170e+01
756:-3.0916737879998813e+01
757:-3.1020821372538375e+01
758:-3.1024721783735188e+01
759:-1.3084948554921297e+01
760:-1.2637747122826278e+01
761:-1.2129241913810136e+01
762:-7.6037338766063147e+00
763:-7.1577169237780636e+00
764:-6.6892754984504244e+00
765:-8.0528622738384783e+00
766:-7.8699515036384708e+00
767:-7.6776358770308812e+00
768:-6.8482622091562773e+00
769:-7.0271153265803967e+00
770:-7.2024260854620321e+00
771:-5.2455518556847061e+00
772:-5.5001933907880920e+00
773:-5.7571550652135413e+00
774:-4.4139850718172697e+00
775:-4.5782971322161945e+00
776:-4.7454669385831156e+00
777:-3.8264339181436600e+00
778:-3.8810692973504777e+00
779:-3.9345474054229292e+00
780:-3.8747208739847916e+00
781:-3.9620997848021133e+00
782:-4.0443064073821544e+00
783:-4.1380494699276076e+00
784:-4.3037386604850196e+00
785:-4.4644044862700945e+00
786:-4.6545159256535076e+00
787:-4.8877894798806558e+00
788:-5.1205664606847598e+00
789:-5.2798265661506836e+00
790:-5.4616245190994404e+00
791:-5.6474526899736368e+00
792:-5.7592266953137923e+00
793:-5.8671458870183901e+00
794:-5.9781680147926606e+00
795:-6.8976043108611576e+00
796:-7.0191341684507336e+00
797:-7.1360535743844533e+00
798:-8.3248945912639538e+00
799:-8.6756300550115899e+00
800:-9.0140416793775451e+00
801:-9.1998669917155755e+00
802:-9.7586926258071944e+00
803:-1.0306927406897849e+01
804:-1.1381862926359837e+01
805:-1.1994267670952826e+01
806:-1.2609750343536623e+01
807:-1.4786084364330401e+01
808:-1.4997922989386984e+01
809:-1.5226508323426243e+01
810:-1.7620046418105879e+01
811:-1.7419557785682798e+01
812:-1.7228321160911669e+01
813:-2.3888856394115695e+01
814:-2.3741516807010527e+01
815:-2.3564004967850419e+01
816:-3.1277868838766242e+01
817:-3.2386460583172031e+01
818:-3.3425455815816171e+01
819:-3.0682779334128909e+01
820:-3.2778404634584390e+01
821:-3.4824899209975015e+01
822:-3.4656428385475976e+01
823:-3.4348403233266239e+01
824:-3.4101002121266724e+01
825:-6.0521370960987191e+01
826:-5.1979679442379854e+01
827:-4.3608366729259274e+01
828:-2.6453198561083346e-01
829:-1.2711739140635332e+00
830:-2.3096838492275134e+00
831:-4.1781361916079207e-01
832:-1.8566103210289080e+00
833:-3.3125547757532030e+00
834:-4.8212901877547282e-01
835:-2.1063797731402936e+00
836:-3.7330580265062525e+00
837:-3.0029541511474558e+00
838:-4.3908403946205992e+00
839:-5.8787259352566705e+00
840:-4.1715461975156956e+00
841:-5.6895741706903395e+00
842:-7.2589182229539473e+00
843:-4.6498415679460949e+00
844:-6.1738148813866216e+00
845:-7.7004210558421606e+00
846:-7.0939697979564631e+00
847:-9.8670545524240012e+00
848:-1.2871502267513145e+01
849:-8.1505581498827482e+00
850:-9.6812854740203438e+00
851:-1.1319035068917634e+01
852:-8.4424331725150363e+00
853:-9.4528669624097166e+00
854:-1.0445982333202148e+01
855:-1.5420230596307277e+01
856:-2.1198999879671373e+01
857:-2.7247138978872545e+01
858:-1.2000025500043268e+01
859:-1.2690004105482469e+01
860:-1.3467655950858838e+01
861:-1.0527572725571032e+01
862:-9.7653292478307812e+00
863:-8.9090624341278790e+00
864:-4.1634333764600867e-01
865:-1.8205982309273248e+00
866:-3.2224687186367835e+00
867:-2.3811738135686136e-01
868:-1.0432889676430070e+00
869:-1.8442603322156310e+00
870:-1.4468486739738859e-01
871:-6.3449250707657423e-01
872:-1.1182841089005322e+00
873:-4.0016959959374931e+00
874:-5.2712876968719797e+00
875:-6.5286640262509410e+00
876:-2.2758318760091396e+00
877:-2.9512666231160494e+00
878:-3.6121433891524743e+00
879:-1.3775368039315468e+00
880:-1.7776389812356170e+00
881:-2.1608405679542733e+00
882:-7.1500899344108584e+00
883:-8.0041631173968195e+00
884:-8.8087234075231802e+00
885:-3.9523814582172569e+00
886:-4.4470129976665742e+00
887:-4.9058362931311654e+00
888:-2.3684258413008425e+00
889:-2.6952307929176444e+00
890:-2.9999321494245890e+00
891:-9.0135960580465397e+00
892:-8.8628096499654401e+00
893:-8.5846335222511314e+00
894:-5.2215533914082304e+00
895:-5.8318434806572643e+00
896:-6.3817771265277035e+00
897:-3.2816356332141017e+00
898:-3.9635836394153237e+00
899:-4.6522084784925015e+00
900:-1.3257574020510191e-01
901:-5.8191846809320247e-01
902:-1.0256934512334832e+00
903:-1.2820831480277542e-01
904:-5.6659304821784040e-01
905:-1.0027664085579582e+00
906:-1.2158976751443469e-01
907:-5.4262678258041297e-01
908:-9.6480879624424731e-01
909:-1.2733704542517907e+00
910:-1.6747194839505861e+00
911:-2.0611809059717001e+00
912:-1.2601861480845660e+00
913:-1.7064285437624562e+00
914:-2.1470435402780645e+00
915:-1.2170728803926583e+00
916:-1.6634001662652873e+00
917:-2.1133602614910485e+00
918:-2.2735190526197702e+00
919:-2.6168018601869822e+00
920:-2.9452682559672803e+00
921:-2.3971478986424155e+00
922:-2.8174014161656422e+00
923:-3.2341762178368998e+00
924:-2.3774649117106965e+00
925:-2.8378262292683663e+00
926:-3.3060465269089625e+00
927:-3.1680894569397782e+00
928:-3.6286109018091413e+00
929:-4.1103573585230766e+00
930:-3.4197160835406946e+00
931:-3.6454953167130646e+00
932:-3.8754609813600260e+00
933:-3.5124742427661482e+00
934:-3.7402720954974744e+00
935:-3.9552177993333095e+00
936:-1.2091098293035571e-01
937:-5.4194651172850239e-01
938:-9.6443246669777438e-01
939:-1.3555446357644499e-01
940:-6.0394992354157973e-01
941:-1.0714890373174790e+00
942:-1.6399270222191242e-01
943:-7.1986100222679394e-01
944:-1.2725661836820226e+00
945:-1.2131104547999041e+00
946:-1.6470613641128296e+00
947:-2.0853395963745780e+00
948:-1.3385904362355276e+00
949:-1.7878522627548801e+00
950:-2.2345678938961222e+00
951:-1.5828385421677904e+00
952:-2.0923431222363877e+00
953:-2.5924279885999679e+00
954:-2.3458500856526356e+00
955:-2.8047207186391980e+00
956:-3.2708725805187706e+00
957:-2.4936544698105738e+00
958:-2.9350312290731724e+00
959:-3.3703660841403500e+00
960:-2.8649425311777206e+00
961:-3.2949319424164023e+00
962:-3.7055563163711560e+00
963:-3.5010280110145220e+00
964:-3.8111715107659658e+00
965:-4.1059286612467103e+00
966:-3.6198832444069704e+00
967:-4.0413570964383529e+00
968:-4.4557744210822943e+00
969:-3.9686374028264990e+00
970:-4.4754109777058702e+00
971:-4.9834578470805821e+00
972:-1.8319814860714412e-01
973:-7.9776141390721900e-01
974:-1.4093612316766055e+00
975:-2.1424709442494411e-01
976:-9.3629896559308801e-01
977:-1.6583803293848953e+00
978:-2.4900218457758244e-01
979:-1.1082088740060174e+00
980:-1.9704379962124758e+00
981:-1.7519272994210089e+00
982:-2.3136727863970954e+00
983:-2.8664437472516440e+00
984:-2.0688063607682214e+00
985:-2.7567629396468658e+00
986:-3.4441483941541065e+00
987:-2.4735549799206447e+00
988:-3.3433879241639106e+00
989:-4.2210531457858131e+00
990:-3.1579209956001453e+00
991:-3.6007536428539355e+00
992:-4.0252305792012315e+00
993:-3.8147751756894190e+00
994:-4.4004046479753924e+00
995:-4.9844700841345251e+00
996:-4.7281483230952661e+00
997:-5.5978851409435491e+00
998:-6.4828495974446136e+00
999:-4.3093828917251553e+00
1000:-4.8730580164893924e+00
1001:-5.4364487787418199e+00
1002:-5.3425644491834516e+00
1003:-5.9810811993911273e+00
1004:-6.6056308898697198e+00
1005:-6.9324731079421209e+00
1006:-7.5649588614496555e+00
1007:-8.1697948580104374e+00
1008:-2.7789022519826939e-01
1009:-1.2501660613928109e+00
1010:-2.2238384543742873e+00
1011:-3.6110641210053518e-01
1012:-1.6164678229534646e+00
1013:-2.8646455411342155e+00
1014:-4.7699519788483002e-01
1015:-2.0941856193238171e+00
1016:-3.6956120986313885e+00
1017:-2.7986245812860622e+00
1018:-3.8017269682946901e+00
1019:-4.8085915939009665e+00
1020:-3.5907215418200806e+00
1021:-4.8303108032036972e+00
1022:-6.0512722470542206e+00
1023:-4.5942309638386565e+00
1024:-6.0645993894002368e+00
1025:-7.4939499412982569e+00
1026:-5.4098028348544638e+00
1027:-6.4732749177432476e+00
1028:-7.5471386793275901e+00
1029:-6.7682326364070233e+00
1030:-8.0082652772766689e+00
1031:-9.2252791859372660e+00
1032:-8.2736579217249453e+00
1033:-9.5138194203605497e+00
1034:-1.0697551775882594e+01
1035:-8.0333053037808710e+00
1036:-8.6077128955491808e+00
1037:-9.1577541492863475e+00
1038:-9.7884773653848782e+00
1039:-1.0522135008300111e+01
1040:-1.1256392452164130e+01
1041:-1.1421953852576312e+01
1042:-1.2780550800105704e+01
1043:-1.4164713687564115e+01
1044:-5.6369160697085219e-01
1045:-2.4492097900175698e+00
1046:-4.3197765722099861e+00
1047:-8.2560336138402557e-01
1048:-3.5959307515662848e+00
1049:-6.3626792816869511e+00
1050:-1.2439203184287335e+00
1051:-5.4805633180263342e+00
1052:-9.7249999983550932e+00
1053:-5.3496237197679282e+00
1054:-7.0014707825160274e+00
1055:-8.6125765547191335e+00
1056:-7.8925314336385837e+00
1057:-1.0374185087488383e+01
1058:-1.2838437982507340e+01
1059:-1.2119385005470061e+01
1060:-1.6102035771926261e+01
1061:-2.0090626311265869e+01
1062:-9.4500954521997933e+00
1063:-1.0703047843052122e+01
1064:-1.1893464032904355e+01
1065:-1.4109458020080227e+01
1066:-1.5991939469661364e+01
1067:-1.7824308275572768e+01
1068:-2.2203157977607191e+01
1069:-2.5446102611286612e+01
1070:-2.8651358158626756e+01
1071:-1.2784092321537466e+01
1072:-1.4693032911073290e+01
1073:-1.6599422192195810e+01
1074:-1.8969689712198566e+01
1075:-2.1025628843190212e+01
1076:-2.2957425836990481e+01
1077:-2.9895109522927662e+01
1078:-3.0829703435571282e+01
1079:-3.1518564382245689e+01
1080:-1.3272208159684273e+00
1081:-5.8858571118327809e+00
1082:-1.0461039030464251e+01
1083:-9.5898556804671675e-01
1084:-4.3057129486772396e+00
1085:-7.6876893872127567e+00
1086:-3.8126741646973794e-01
1087:-1.7774927468194002e+00
1088:-3.2276705702114645e+00
1089:-1.3066890342311746e+01
1090:-1.7458728363644088e+01
1091:-2.1885754389150279e+01
1092:-9.7019879440773380e+00
1093:-1.3291905832185316e+01
1094:-1.6994182496033755e+01
1095:-4.3120409754936961e+00
1096:-6.6758076326295432e+00
1097:-9.2291038370724756e+00
1098:-2.4257042220268552e+01
1099:-2.7971510887648563e+01
1100:-3.1709678441968119e+01
1101:-1.9204533221284670e+01
1102:-2.3169032951631969e+01
1103:-2.7355767270590228e+01
1104:-1.1363305977872704e+01
1105:-1.6293442916759499e+01
1106:-2.1644350145929074e+01
1107:-3.2735368705361665e+01
1108:-3.2410482895079838e+01
1109:-3.1936569736691450e+01
1110:-2.9321570399567310e+01
1111:-3.1943656991314107e+01
1112:-3.4870635114260075e+01
1113:-2.7163605055700732e+01
1114:-4.0997775325026652e+01
1115:-5.5590756004857155e+01
1116:-2.0611803507672402e-02
1117:-2.3466758837517032e-03
1118:2.6521308061164525e-02
1119:-3.0729172881720754e-02
1120:-1.5588104600726457e-01
1121:-2.0479937549283941e-01
1122:-6.6143240685210505e-02
1123:-3.1963257200822515e-01
1124:-4.3125767237221807e-01
1125:-6.1154037240525344e-02
1126:-1.3454471966029138e-01
1127:2.0045831359345484e-01
1128:-2.9362262469054490e-01
1129:-4.1570762817469104e-01
1130:-2.5359998578137738e-01
1131:-5.2744555941865234e-01
1132:-7.3466818098166797e-01
1133:-7.8189922646332899e-01
1134:1.7955815887809187e-01
1135:-3.8799809217392123e-02
1136:4.4320973110450218e-01
1137:-4.3778106260424743e-01
1138:-7.5527821898595682e-01
1139:-4.8769753029440734e-02
1140:-1.1318038613180590e+00
1141:-1.5203910069860473e+00
1142:-5.6133441639509418e-01
1143:-4.9636753361534766e-02
1144:-9.1372657262112400e-01
1145:9.5444608298319789e-01
1146:-4.2914852879564669e-01
1147:-3.4611086949576553e+00
1148:-7.0465807961293807e+00
1149:-7.6649075314676118e-01
1150:-5.7787143570369519e+00
1151:-1.4630224305810572e+01
