label=Stress xy
num_items=1017

0:8.8915170065695595e+00
1:-2.9735723622627201e+00
2:-3.8850906517143353e+00
3:-3.9704580894312271e+00
4:-4.0065205007301312e+00
5:-3.8607094278962708e+00
6:-8.9868069412391609e+00
7:-4.6731979161747264e+00
8:-2.6857675654860969e+00
9:-3.1958429320079591e+00
10:-3.4625616382189515e+00
11:-3.6054082749620546e+00
12:-3.5807876635872469e+00
13:-3.4289669609356861e+00
14:-3.5572620497245500e+00
15:-4.6946746079494766e+00
16:-5.6440814091838449e+00
17:-5.3087665723872233e+00
18:-4.0344243771503301e+00
19:-4.1065937243951645e+00
20:-4.2006607118232564e+00
21:-4.3461928840026189e+00
22:-4.2028347687401704e+00
23:-4.1690350123573507e+00
24:-7.6285643904598261e+00
25:-6.0600575685367764e+00
26:-4.4175737985404071e+00
27:-3.6751521086033736e+00
28:-3.8129972082649188e+00
29:-3.9134031059366885e+00
30:-3.9773792810025204e+00
31:-3.8152018191087667e+00
32:-3.8776460600190377e+00
33:-6.3752860568382825e+00
34:-5.9429691306000745e+00
35:-4.7379339820953872e+00
36:-3.9049839540993014e+00
37:-4.0155373936566461e+00
38:-4.1155508805420435e+00
39:-4.2208371867328589e+00
40:-4.0629973354373190e+00
41:-4.0808335570167129e+00
42:-7.3181676061145247e+00
43:-6.1590190523374702e+00
44:-4.4770400194872071e+00
45:-3.8405943331250394e+00
46:-3.9554927994820304e+00
47:-4.0626455895788220e+00
48:-4.1411774750600578e+00
49:-3.9926160208331338e+00
50:-4.0194317389625684e+00
51:-7.1403333535628084e+00
52:-6.0070388046759025e+00
53:-3.6650836384344276e+00
54:-3.6501064290220655e+00
55:-3.6782125350336456e+00
56:-3.7982064679922343e+00
57:-3.8493455130725094e+00
58:-3.7156022841075877e+00
59:-3.7150024033537488e+00
60:-7.4294914819343951e+00
61:-4.5438929590876471e+00
62:4.5840765944952659e+00
63:-7.4427183229843923e+00
64:-7.3608019482380769e+00
65:-7.4797994074618614e+00
66:-7.5053963629245812e+00
67:-7.5185358467194447e+00
68:-7.4770550401896543e+00
69:-1.1014663799592745e+01
70:-7.4289989280120663e+00
71:-4.9615755451074310e+00
72:-7.0534850932691606e+00
73:-7.0165775693722399e+00
74:-7.0341772619475531e+00
75:-7.0664369489683416e+00
76:-7.0576227992153582e+00
77:-7.0326338041085394e+00
78:-8.6505533486278274e+00
79:-6.4352780516797310e+00
80:-4.6600491339031453e+00
81:-6.7949326237171395e+00
82:-6.7920763095763350e+00
83:-6.8035060059151702e+00
84:-6.8189504018890110e+00
85:-6.8116182785328938e+00
86:-6.8020018936448023e+00
87:-6.6838519181072265e+00
88:-6.0156431136867363e+00
89:-4.7631484800561470e+00
90:-7.2278106492098164e+00
91:-7.2105427941108484e+00
92:-7.2224046366699968e+00
93:-7.2495697646745221e+00
94:-7.2413847043502564e+00
95:-7.2207307132035332e+00
96:-8.1580856266395152e+00
97:-6.5012589433830561e+00
98:-4.7691850122736001e+00
99:-7.2676340929460181e+00
100:-7.2518653080784494e+00
101:-7.2634715288924356e+00
102:-7.2892363497000892e+00
103:-7.2812685130138828e+00
104:-7.2618431901985474e+00
105:-7.9342265391727880e+00
106:-6.4789425494884751e+00
107:-4.7253932131835201e+00
108:-7.2109304983835711e+00
109:-7.1820113220838442e+00
110:-7.1939413650435533e+00
111:-7.2267275425338191e+00
112:-7.2199028054550913e+00
113:-7.1911656537094313e+00
114:-8.3132466146005601e+00
115:-6.4568423599493308e+00
116:-3.8916776122224861e+00
117:-5.3925161197842666e+00
118:-5.2754480055675028e+00
119:-5.3028049509063839e+00
120:-5.3926100037519902e+00
121:-5.3223772551045334e+00
122:-5.2766896740171978e+00
123:-8.2944432856295283e+00
124:-4.8966216502796041e+00
125:3.9127135125823664e+00
126:-1.2121310560917882e+01
127:-1.2054661112291846e+01
128:-1.2146233515742981e+01
129:-1.2189213586702669e+01
130:-1.2230368293810526e+01
131:-1.2153644703848249e+01
132:-2.3422366665384537e+01
133:-1.2177359699444613e+01
134:-6.1780488723748874e+00
135:-9.6273968374783223e+00
136:-9.5828729071392438e+00
137:-9.5971886793023469e+00
138:-9.6205935257216151e+00
139:-9.6150776207672095e+00
140:-9.5963204529284543e+00
141:-1.0879723747559257e+01
142:-8.4952419120389404e+00
143:-6.2300029537598265e+00
144:-9.7189461276895202e+00
145:-9.6865965710314619e+00
146:-9.6953884708844473e+00
147:-9.7197787036046517e+00
148:-9.7147673737457083e+00
149:-9.6943655537053957e+00
150:-1.0681468081481166e+01
151:-8.4971697588793518e+00
152:-6.2549789490096588e+00
153:-9.8580478325218479e+00
154:-9.8256856055687560e+00
155:-9.8340541210432839e+00
156:-9.8582258807022196e+00
157:-9.8533931671732464e+00
158:-9.8330682229816695e+00
159:-1.0650023239761230e+01
160:-8.5664927105913780e+00
161:-6.2582824401568526e+00
162:-1.0046718872419323e+01
163:-1.0010713306734401e+01
164:-1.0019194737409057e+01
165:-1.0045410882143582e+01
166:-1.0040391045849098e+01
167:-1.0018170797755134e+01
168:-1.1051519386081750e+01
169:-8.7533546662406643e+00
170:-6.2804674183648403e+00
171:-9.8377074812740091e+00
172:-9.7852219397710005e+00
173:-9.7937036207214696e+00
174:-9.8260352659947543e+00
175:-9.8218411780637993e+00
176:-9.7916254692849201e+00
177:-1.1194040311837107e+01
178:-8.6001730344947607e+00
179:-5.1383518788165690e+00
180:-6.7498312752947349e+00
181:-6.5654030288525602e+00
182:-6.5924851892461165e+00
183:-6.6876831644965193e+00
184:-6.6122027917908479e+00
185:-6.5645075787775200e+00
186:-1.1333650541818864e+01
187:-6.4157573363442273e+00
188:5.3131144354123139e+00
189:-1.5341321607650904e+01
190:-1.5261287844655353e+01
191:-1.5370834510534159e+01
192:-1.5421595858368159e+01
193:-1.5470138558995872e+01
194:-1.5379552501237830e+01
195:-2.8170570741251346e+01
196:-1.5209383799557576e+01
197:-7.9987704442670449e+00
198:-1.2497094221402188e+01
199:-1.2415409578369655e+01
200:-1.2431715259915993e+01
201:-1.2469572800265063e+01
202:-1.2462225711691415e+01
203:-1.2430756142072772e+01
204:-1.5086650193043665e+01
205:-1.1084977738461649e+01
206:-7.7718597620479768e+00
207:-1.2191460890555659e+01
208:-1.2148900093807224e+01
209:-1.2158511487268262e+01
210:-1.2189115089930803e+01
211:-1.2183368271307177e+01
212:-1.2157339195820137e+01
213:-1.3319109052925247e+01
214:-1.0608138964933948e+01
215:-7.7521580339785245e+00
216:-1.2420619633573354e+01
217:-1.2374189981282971e+01
218:-1.2383709888266855e+01
219:-1.2416396284924078e+01
220:-1.2410539858896334e+01
221:-1.2382515315737486e+01
222:-1.3699526861106097e+01
223:-1.0808740828157074e+01
224:-7.8012559165629272e+00
225:-1.2608276320350301e+01
226:-1.2558670190884598e+01
227:-1.2567835181134855e+01
228:-1.2601973297319427e+01
229:-1.2596150604483448e+01
230:-1.2566648099658526e+01
231:-1.3943462747848509e+01
232:-1.0948348122361070e+01
233:-7.7913909948692144e+00
234:-1.2286561019399235e+01
235:-1.2215812678455309e+01
236:-1.2225574718970943e+01
237:-1.2267961141690234e+01
238:-1.2262951460853131e+01
239:-1.2222975966897684e+01
240:-1.4185825325410391e+01
241:-1.0759051988114560e+01
242:-6.3894950946182778e+00
243:-8.0694436879331377e+00
244:-7.8284374386610240e+00
245:-7.8660103961556462e+00
246:-7.9908222993048215e+00
247:-7.8910952339323428e+00
248:-7.8287721922224929e+00
249:-1.4264062624698235e+01
250:-7.9038296417055953e+00
251:6.6567920032486487e+00
252:-1.9418484266054602e+01
253:-1.9324383326944233e+01
254:-1.9455878075669954e+01
255:-1.9526222687250470e+01
256:-1.9595305133752721e+01
257:-1.9469096914904448e+01
258:-3.7840742768108456e+01
259:-1.9497823268503641e+01
260:-9.6193930517956385e+00
261:-1.5118256686833965e+01
262:-1.5016597510130751e+01
263:-1.5034221871599378e+01
264:-1.5080079248755105e+01
265:-1.5071679483920608e+01
266:-1.5033202014360556e+01
267:-1.8191155829136623e+01
268:-1.3364787133074795e+01
269:-9.3144105815140517e+00
270:-1.4811679577867036e+01
271:-1.4754169692774450e+01
272:-1.4764887317736168e+01
273:-1.4804432368044598e+01
274:-1.4797649348059560e+01
275:-1.4763503956368428e+01
276:-1.6454863200723434e+01
277:-1.2894091240649072e+01
278:-9.3210196697207497e+00
279:-1.5001141258184138e+01
280:-1.4940808343588836e+01
281:-1.4951144458013982e+01
282:-1.4992018185068439e+01
283:-1.4985288760900943e+01
284:-1.4949772506745898e+01
285:-1.6679693760818843e+01
286:-1.3034370672913443e+01
287:-9.3204244428386254e+00
288:-1.5186586129678346e+01
289:-1.5123348168664755e+01
290:-1.5133533512948564e+01
291:-1.5175856338071265e+01
292:-1.5169083924969637e+01
293:-1.5132152891826946e+01
294:-1.6931982170440353e+01
295:-1.3187218110041501e+01
296:-9.3456313166396221e+00
297:-1.4752506625422772e+01
298:-1.4663559975286688e+01
299:-1.4674531335970119e+01
300:-1.4726901570715450e+01
301:-1.4721104366982535e+01
302:-1.4671421816838228e+01
303:-1.7157949143957101e+01
304:-1.2918881557981209e+01
305:-7.6361257305401820e+00
306:-9.4040213612684358e+00
307:-9.1066213798465352e+00
308:-9.1547168818094367e+00
309:-9.3090680582494052e+00
310:-9.1851338842253334e+00
311:-9.1082255343090566e+00
312:-1.7242465935154030e+01
313:-9.4115017918848398e+00
314:7.9972415669311827e+00
315:-2.1948924792399477e+01
316:-2.1871475843167108e+01
317:-2.1984400685731796e+01
318:-2.2063799879418497e+01
319:-2.2145352729179830e+01
320:-2.2001565633515224e+01
321:-4.0757076621998358e+01
322:-2.1310550614384027e+01
323:-1.0602066177780552e+01
324:-1.7162482515199766e+01
325:-1.7029787453695398e+01
326:-1.7044022124253267e+01
327:-1.7099576022755432e+01
328:-1.7091071712421858e+01
329:-1.7043259494758455e+01
330:-2.0507695040202066e+01
331:-1.4947615605728803e+01
332:-1.0281812905310060e+01
333:-1.6661038016329044e+01
334:-1.6587818465517074e+01
335:-1.6596170496832343e+01
336:-1.6642417491819664e+01
337:-1.6636082411855160e+01
338:-1.6594879780382943e+01
339:-1.8244730274478300e+01
340:-1.4299382652515460e+01
341:-1.0239955480505685e+01
342:-1.6849070787291993e+01
343:-1.6772875739060925e+01
344:-1.6780963103490095e+01
345:-1.6828687927815349e+01
346:-1.6822352648398027e+01
347:-1.6779672414825228e+01
348:-1.8450249974416597e+01
349:-1.4442446403365087e+01
350:-1.0258833310091589e+01
351:-1.7036601166597993e+01
352:-1.6957139701020822e+01
353:-1.6964850413389268e+01
354:-1.7014052098018883e+01
355:-1.7007758013146038e+01
356:-1.6963568502312679e+01
357:-1.8663445758974827e+01
358:-1.4579604851139988e+01
359:-1.0257536733123757e+01
360:-1.6473073365798314e+01
361:-1.6364217026751213e+01
362:-1.6373158605648189e+01
363:-1.6434155760511064e+01
364:-1.6428795492643427e+01
365:-1.6369896942149758e+01
366:-1.8847514298886487e+01
367:-1.4238864709531493e+01
368:-8.3129531093675375e+00
369:-1.0058479960620659e+01
370:-9.7067046318739614e+00
371:-9.7614963659690499e+00
372:-9.9432501447950852e+00
373:-9.7979902595692483e+00
374:-9.7072401748853210e+00
375:-1.8855944035698183e+01
376:-1.0129039637749070e+01
377:9.5332574156918621e+00
378:-3.0820990980752971e+01
379:-3.1202479650533864e+01
380:-3.0739000341782301e+01
381:-3.0821471942215368e+01
382:-3.0969493009995951e+01
383:-3.0796766637266533e+01
384:-2.2213862530249713e+01
385:-1.1805581267492794e+01
386:-6.4450755153843229e+00
387:-2.3552685358573488e+01
388:-2.3505161188089303e+01
389:-2.3427316818866117e+01
390:-2.3477870581576134e+01
391:-2.3501289330240027e+01
392:-2.3435443736700062e+01
393:-1.0830119796448663e+01
394:-8.2570826415602419e+00
395:-6.2671044091259391e+00
396:-2.2880581796062252e+01
397:-2.2859588238805358e+01
398:-2.2810152288760165e+01
399:-2.2848191904027704e+01
400:-2.2875163259704756e+01
401:-2.2815678191658506e+01
402:-9.4696512573109732e+00
403:-7.8957987180481446e+00
404:-6.2639183158262259e+00
405:-2.3098688605252136e+01
406:-2.3076944556800385e+01
407:-2.3026475926981700e+01
408:-2.3065532183413001e+01
409:-2.3093029519968589e+01
410:-2.3032108675993268e+01
411:-9.1757142772661098e+00
412:-7.8972831303207887e+00
413:-6.2731747476721447e+00
414:-2.3312988735644435e+01
415:-2.3290485938825043e+01
416:-2.3239044105011562e+01
417:-2.3279192985432076e+01
418:-2.3307164041545967e+01
419:-2.3244773075143669e+01
420:-8.9145530481683917e+00
421:-7.9044898335011986e+00
422:-6.2865904287658214e+00
423:-2.2872446760557384e+01
424:-2.2836021581146497e+01
425:-2.2783442740144068e+01
426:-2.2837673148536265e+01
427:-2.2864267976353656e+01
428:-2.2788688385597609e+01
429:-8.6273115646453107e+00
430:-7.7638024402516033e+00
431:-5.6042515920249709e+00
432:-1.7310929707045766e+01
433:-1.7153761429596830e+01
434:-1.7134333305415389e+01
435:-1.7320804353666777e+01
436:-1.7198631579789435e+01
437:-1.7098515365881997e+01
438:-8.3309960032141301e+00
439:-6.5227778514654888e+00
440:7.1075520330341357e-01
441:-2.4965058525485556e+01
442:-2.4952879999537437e+01
443:-2.4938853714062379e+01
444:-2.4950422308288164e+01
445:-2.4952586730082853e+01
446:-2.4952521292551321e+01
447:2.5664321315781930e+01
448:7.4454048687360332e+00
449:-1.3072157427089685e+01
450:-2.9738567880573687e+01
451:-2.9704660167970744e+01
452:-2.9712990170744547e+01
453:-2.9710477021243072e+01
454:-2.9704603988616082e+01
455:-2.9704047841701684e+01
456:-1.6701559138426699e+01
457:-5.7231222689955841e+00
458:7.5056542013319705e+00
459:-1.3616625020110112e+01
460:-1.3600272283745278e+01
461:-1.3595057749555512e+01
462:-1.3600610628827889e+01
463:-1.3600097066484116e+01
464:-1.3599901765719562e+01
465:1.0326575699992501e+01
466:5.7721870786392255e+00
467:1.6503920285328557e+00
468:-2.0722733488978754e+01
469:-2.0709447039196181e+01
470:-2.0706412675746535e+01
471:-2.0710043559711551e+01
472:-2.0709323957312645e+01
473:-2.0709155738020296e+01
474:-3.5009989078521153e-01
475:-3.2043008494889547e+00
476:-5.8357392053729527e+00
477:-7.0712382320847302e+00
478:-7.0446296234629218e+00
479:-7.0516898249564690e+00
480:-7.0493335297928033e+00
481:-7.0445939480948523e+00
482:-7.0441534673704647e+00
483:-3.7499593962533346e+00
484:6.6933701507578380e+00
485:1.8257959331081302e+01
486:-3.8074149879443027e+01
487:-3.8102872522745699e+01
488:-3.8078972211603954e+01
489:-3.8093446188133676e+01
490:-3.8102649873691789e+01
491:-3.8103253805117561e+01
492:1.1065113668709008e+01
493:-2.7676056050999271e+01
494:-6.9004483955521991e+01
495:3.5942146761971500e+01
496:3.5998461782883361e+01
497:3.5945034125597054e+01
498:3.5978225120952068e+01
499:3.5997919903428837e+01
500:3.5999155837812033e+01
501:-5.8004060564995754e+01
502:2.3657077887090040e+01
503:1.0672499734704044e+02
504:-6.6229418607978602e+01
505:-6.6297980834893607e+01
506:-6.6211378162813816e+01
507:-6.6267585414263181e+01
508:-6.6296975167653784e+01
509:-6.6298649762574911e+01
510:9.6295536480512098e+01
511:-2.3855498262799706e+01
512:-1.4457405263327504e+02
513:1.8204580648427982e+01
514:1.8184164317686690e+01
515:1.8198912377058747e+01
516:1.8190266524923249e+01
517:1.8184286687127543e+01
518:1.8183875109983564e+01
519:3.7916794955620524e+01
520:1.4537210237921807e+01
521:-4.7351275929089871e+00
522:-7.3477434099969863e-01
523:-7.3259517154727061e-01
524:-7.3665488684769542e-01
525:-7.3391059047855156e-01
526:-7.3264813771849624e-01
527:-7.3258460984856988e-01
528:-8.3209398281859528e+00
529:-3.2314321140059352e+00
530:2.6049284917363704e+00
531:6.9440214555839690e+00
532:6.9421376598642430e+00
533:6.9416891692167413e+00
534:6.9422171811655655e+00
535:6.9421199295287339e+00
536:6.9420962554238370e+00
537:4.6981265422148022e+00
538:5.4692596526633039e+00
539:6.0320060263032005e+00
540:3.8525469447921963e+00
541:3.8503607317130411e+00
542:3.8522126270669572e+00
543:3.8510869970616595e+00
544:3.8503782116350269e+00
545:3.8503319929575004e+00
546:5.3874660590242414e+00
547:3.2496021999751457e+00
548:1.8517063294653957e+00
549:2.8555457203946468e+00
550:2.8546534240349870e+00
551:2.8534384056869802e+00
552:2.8544232722953704e+00
553:2.8546289176442974e+00
554:2.8546255830173624e+00
555:2.1613818876726660e+00
556:2.9245318573552481e+00
557:1.8749777941058088e+00
558:-1.8044218074537294e+01
559:-1.8061494194435685e+01
560:-1.8047729127885844e+01
561:-1.8055987461920243e+01
562:-1.8061369953182076e+01
563:-1.8061728260600688e+01
564:-4.3428759542840778e+00
565:-2.0222415741188023e+01
566:-3.1246247651432608e+01
567:2.8441681148471559e+01
568:2.8500754147678538e+01
569:2.8459876873181514e+01
570:2.8483578265546825e+01
571:2.8500428774689933e+01
572:2.8501605282696261e+01
573:-1.6102491146820846e+01
574:3.7128705663647239e+01
575:8.0309999384873365e+01
576:0.0000000000000000e+00
577:0.0000000000000000e+00
578:0.0000000000000000e+00
579:0.0000000000000000e+00
580:0.0000000000000000e+00
581:0.0000000000000000e+00
582:0.0000000000000000e+00
583:0.0000000000000000e+00
584:0.0000000000000000e+00
585:0.0000000000000000e+00
586:0.0000000000000000e+00
587:0.0000000000000000e+00
588:0.0000000000000000e+00
589:0.0000000000000000e+00
590:0.0000000000000000e+00
591:0.0000000000000000e+00
592:0.0000000000000000e+00
593:0.0000000000000000e+00
594:0.0000000000000000e+00
595:0.0000000000000000e+00
596:0.0000000000000000e+00
597:0.0000000000000000e+00
598:0.0000000000000000e+00
599:0.0000000000000000e+00
600:0.0000000000000000e+00
601:0.0000000000000000e+00
602:0.0000000000000000e+00
603:0.0000000000000000e+00
604:0.0000000000000000e+00
605:0.0000000000000000e+00
606:0.0000000000000000e+00
607:0.0000000000000000e+00
608:0.0000000000000000e+00
609:0.0000000000000000e+00
610:0.0000000000000000e+00
611:0.0000000000000000e+00
612:0.0000000000000000e+00
613:0.0000000000000000e+00
614:0.0000000000000000e+00
615:0.0000000000000000e+00
616:0.0000000000000000e+00
617:0.0000000000000000e+00
618:0.0000000000000000e+00
619:0.0000000000000000e+00
620:0.0000000000000000e+00
621:0.0000000000000000e+00
622:0.0000000000000000e+00
623:0.0000000000000000e+00
624:0.0000000000000000e+00
625:0.0000000000000000e+00
626:0.0000000000000000e+00
627:0.0000000000000000e+00
628:0.0000000000000000e+00
629:0.0000000000000000e+00
630:0.0000000000000000e+00
631:0.0000000000000000e+00
632:0.0000000000000000e+00
633:0.0000000000000000e+00
634:0.0000000000000000e+00
635:0.0000000000000000e+00
636:0.0000000000000000e+00
637:0.0000000000000000e+00
638:0.0000000000000000e+00
639:0.0000000000000000e+00
640:0.0000000000000000e+00
641:0.0000000000000000e+00
642:0.0000000000000000e+00
643:0.0000000000000000e+00
644:0.0000000000000000e+00
645:0.0000000000000000e+00
646:0.0000000000000000e+00
647:0.0000000000000000e+00
648:0.0000000000000000e+00
649:0.0000000000000000e+00
650:0.0000000000000000e+00
651:0.0000000000000000e+00
652:0.0000000000000000e+00
653:0.0000000000000000e+00
654:0.0000000000000000e+00
655:0.0000000000000000e+00
656:0.0000000000000000e+00
657:0.0000000000000000e+00
658:0.0000000000000000e+00
659:0.0000000000000000e+00
660:0.0000000000000000e+00
661:0.0000000000000000e+00
662:0.0000000000000000e+00
663:0.0000000000000000e+00
664:0.0000000000000000e+00
665:0.0000000000000000e+00
666:0.0000000000000000e+00
667:0.0000000000000000e+00
668:0.0000000000000000e+00
669:0.0000000000000000e+00
670:0.0000000000000000e+00
671:0.0000000000000000e+00
672:0.0000000000000000e+00
673:0.0000000000000000e+00
674:0.0000000000000000e+00
675:0.0000000000000000e+00
676:0.0000000000000000e+00
677:0.0000000000000000e+00
678:0.0000000000000000e+00
679:0.0000000000000000e+00
680:0.0000000000000000e+00
681:0.0000000000000000e+00
682:0.0000000000000000e+00
683:0.0000000000000000e+00
684:0.0000000000000000e+00
685:0.0000000000000000e+00
686:0.0000000000000000e+00
687:0.0000000000000000e+00
688:0.0000000000000000e+00
689:0.0000000000000000e+00
690:0.0000000000000000e+00
691:0.0000000000000000e+00
692:0.0000000000000000e+00
693:0.0000000000000000e+00
694:0.0000000000000000e+00
695:0.0000000000000000e+00
696:0.0000000000000000e+00
697:0.0000000000000000e+00
698:0.0000000000000000e+00
699:0.0000000000000000e+00
700:0.0000000000000000e+00
701:0.0000000000000000e+00
702:0.0000000000000000e+00
703:0.0000000000000000e+00
704:0.0000000000000000e+00
705:0.0000000000000000e+00
706:0.0000000000000000e+00
707:0.0000000000000000e+00
708:0.0000000000000000e+00
709:0.0000000000000000e+00
710:0.0000000000000000e+00
711:0.0000000000000000e+00
712:0.0000000000000000e+00
713:0.0000000000000000e+00
714:0.0000000000000000e+00
715:0.0000000000000000e+00
716:0.0000000000000000e+00
717:0.0000000000000000e+00
718:0.0000000000000000e+00
719:0.0000000000000000e+00
720:0.0000000000000000e+00
721:0.0000000000000000e+00
722:0.0000000000000000e+00
723:0.0000000000000000e+00
724:0.0000000000000000e+00
725:0.0000000000000000e+00
726:0.0000000000000000e+00
727:0.0000000000000000e+00
728:0.0000000000000000e+00
729:0.0000000000000000e+00
730:0.0000000000000000e+00
731:0.0000000000000000e+00
732:0.0000000000000000e+00
733:0.0000000000000000e+00
734:0.0000000000000000e+00
735:0.0000000000000000e+00
736:0.0000000000000000e+00
737:0.0000000000000000e+00
738:0.0000000000000000e+00
739:0.0000000000000000e+00
740:0.0000000000000000e+00
741:0.0000000000000000e+00
742:0.0000000000000000e+00
743:0.0000000000000000e+00
744:0.0000000000000000e+00
745:0.0000000000000000e+00
746:0.0000000000000000e+00
747:0.0000000000000000e+00
748:0.0000000000000000e+00
749:0.0000000000000000e+00
750:0.0000000000000000e+00
751:0.0000000000000000e+00
752:0.0000000000000000e+00
753:0.0000000000000000e+00
754:0.0000000000000000e+00
755:0.0000000000000000e+00
756:0.0000000000000000e+00
757:0.0000000000000000e+00
758:0.0000000000000000e+00
759:0.0000000000000000e+00
760:0.0000000000000000e+00
761:0.0000000000000000e+00
762:0.0000000000000000e+00
763:0.0000000000000000e+00
764:0.0000000000000000e+00
765:0.0000000000000000e+00
766:0.0000000000000000e+00
767:0.0000000000000000e+00
768:0.0000000000000000e+00
769:0.0000000000000000e+00
770:0.0000000000000000e+00
771:0.0000000000000000e+00
772:0.0000000000000000e+00
773:0.0000000000000000e+00
774:0.0000000000000000e+00
775:0.0000000000000000e+00
776:0.0000000000000000e+00
777:0.0000000000000000e+00
778:0.0000000000000000e+00
779:0.0000000000000000e+00
780:0.0000000000000000e+00
781:0.0000000000000000e+00
782:0.0000000000000000e+00
783:0.0000000000000000e+00
784:0.0000000000000000e+00
785:0.0000000000000000e+00
786:0.0000000000000000e+00
787:0.0000000000000000e+00
788:0.0000000000000000e+00
789:0.0000000000000000e+00
790:0.0000000000000000e+00
791:0.0000000000000000e+00
792:0.0000000000000000e+00
793:0.0000000000000000e+00
794:0.0000000000000000e+00
795:0.0000000000000000e+00
796:0.0000000000000000e+00
797:0.0000000000000000e+00
798:0.0000000000000000e+00
799:0.0000000000000000e+00
800:0.0000000000000000e+00
801:0.0000000000000000e+00
802:0.0000000000000000e+00
803:0.0000000000000000e+00
804:0.0000000000000000e+00
805:0.0000000000000000e+00
806:0.0000000000000000e+00
807:0.0000000000000000e+00
808:0.0000000000000000e+00
809:0.0000000000000000e+00
810:0.0000000000000000e+00
811:0.0000000000000000e+00
812:0.0000000000000000e+00
813:0.0000000000000000e+00
814:0.0000000000000000e+00
815:0.0000000000000000e+00
816:0.0000000000000000e+00
817:0.0000000000000000e+00
818:0.0000000000000000e+00
819:0.0000000000000000e+00
820:0.0000000000000000e+00
821:0.0000000000000000e+00
822:0.0000000000000000e+00
823:0.0000000000000000e+00
824:0.0000000000000000e+00
825:0.0000000000000000e+00
826:0.0000000000000000e+00
827:0.0000000000000000e+00
828:0.0000000000000000e+00
829:0.0000000000000000e+00
830:0.0000000000000000e+00
831:0.0000000000000000e+00
832:0.0000000000000000e+00
833:0.0000000000000000e+00
834:0.0000000000000000e+00
835:0.0000000000000000e+00
836:0.0000000000000000e+00
837:0.0000000000000000e+00
838:0.0000000000000000e+00
839:0.0000000000000000e+00
840:0.0000000000000000e+00
841:0.0000000000000000e+00
842:0.0000000000000000e+00
843:0.0000000000000000e+00
844:0.0000000000000000e+00
845:0.0000000000000000e+00
846:0.0000000000000000e+00
847:0.0000000000000000e+00
848:0.0000000000000000e+00
849:0.0000000000000000e+00
850:0.0000000000000000e+00
851:0.0000000000000000e+00
852:0.0000000000000000e+00
853:0.0000000000000000e+00
854:0.0000000000000000e+00
855:0.0000000000000000e+00
856:0.0000000000000000e+00
857:0.0000000000000000e+00
858:0.0000000000000000e+00
859:0.0000000000000000e+00
860:0.0000000000000000e+00
861:0.0000000000000000e+00
862:0.0000000000000000e+00
863:0.0000000000000000e+00
864:0.0000000000000000e+00
865:0.0000000000000000e+00
866:0.0000000000000000e+00
867:0.0000000000000000e+00
868:0.0000000000000000e+00
869:0.0000000000000000e+00
870:0.0000000000000000e+00
871:0.0000000000000000e+00
872:0.0000000000000000e+00
873:0.0000000000000000e+00
874:0.0000000000000000e+00
875:0.0000000000000000e+00
876:0.0000000000000000e+00
877:0.0000000000000000e+00
878:0.0000000000000000e+00
879:0.0000000000000000e+00
880:0.0000000000000000e+00
881:0.0000000000000000e+00
882:0.0000000000000000e+00
883:0.0000000000000000e+00
884:0.0000000000000000e+00
885:0.0000000000000000e+00
886:0.0000000000000000e+00
887:0.0000000000000000e+00
888:0.0000000000000000e+00
889:0.0000000000000000e+00
890:0.0000000000000000e+00
891:0.0000000000000000e+00
892:0.0000000000000000e+00
893:0.0000000000000000e+00
894:0.0000000000000000e+00
895:0.0000000000000000e+00
896:0.0000000000000000e+00
897:0.0000000000000000e+00
898:0.0000000000000000e+00
899:0.0000000000000000e+00
900:0.0000000000000000e+00
901:0.0000000000000000e+00
902:0.0000000000000000e+00
903:0.0000000000000000e+00
904:0.0000000000000000e+00
905:0.0000000000000000e+00
906:0.0000000000000000e+00
907:0.0000000000000000e+00
908:0.0000000000000000e+00
909:0.0000000000000000e+00
910:0.0000000000000000e+00
911:0.0000000000000000e+00
912:0.0000000000000000e+00
913:0.0000000000000000e+00
914:0.0000000000000000e+00
915:0.0000000000000000e+00
916:0.0000000000000000e+00
917:0.0000000000000000e+00
918:0.0000000000000000e+00
919:0.0000000000000000e+00
920:0.0000000000000000e+00
921:0.0000000000000000e+00
922:0.0000000000000000e+00
923:0.0000000000000000e+00
924:0.0000000000000000e+00
925:0.0000000000000000e+00
926:0.0000000000000000e+00
927:0.0000000000000000e+00
928:0.0000000000000000e+00
929:0.0000000000000000e+00
930:0.0000000000000000e+00
931:0.0000000000000000e+00
932:0.0000000000000000e+00
933:0.0000000000000000e+00
934:0.0000000000000000e+00
935:0.0000000000000000e+00
936:0.0000000000000000e+00
937:0.0000000000000000e+00
938:0.0000000000000000e+00
939:0.0000000000000000e+00
940:0.0000000000000000e+00
941:0.0000000000000000e+00
942:0.0000000000000000e+00
943:0.0000000000000000e+00
944:0.0000000000000000e+00
945:0.0000000000000000e+00
946:0.0000000000000000e+00
947:0.0000000000000000e+00
948:0.0000000000000000e+00
949:0.0000000000000000e+00
950:0.0000000000000000e+00
951:0.0000000000000000e+00
952:0.0000000000000000e+00
953:0.0000000000000000e+00
954:0.0000000000000000e+00
955:0.0000000000000000e+00
956:0.0000000000000000e+00
957:0.0000000000000000e+00
958:0.0000000000000000e+00
959:0.0000000000000000e+00
960:0.0000000000000000e+00
961:0.0000000000000000e+00
962:0.0000000000000000e+00
963:0.0000000000000000e+00
964:0.0000000000000000e+00
965:0.0000000000000000e+00
966:0.0000000000000000e+00
967:0.0000000000000000e+00
968:0.0000000000000000e+00
969:0.0000000000000000e+00
970:0.0000000000000000e+00
971:0.0000000000000000e+00
972:0.0000000000000000e+00
973:0.0000000000000000e+00
974:0.0000000000000000e+00
975:0.0000000000000000e+00
976:0.0000000000000000e+00
977:0.0000000000000000e+00
978:0.0000000000000000e+00
979:0.0000000000000000e+00
980:0.0000000000000000e+00
981:0.0000000000000000e+00
982:0.0000000000000000e+00
983:0.0000000000000000e+00
984:0.0000000000000000e+00
985:0.0000000000000000e+00
986:0.0000000000000000e+00
987:0.0000000000000000e+00
988:0.0000000000000000e+00
989:0.0000000000000000e+00
990:0.0000000000000000e+00
991:0.0000000000000000e+00
992:0.0000000000000000e+00
993:0.0000000000000000e+00
994:0.0000000000000000e+00
995:0.0000000000000000e+00
996:0.0000000000000000e+00
997:0.0000000000000000e+00
998:0.0000000000000000e+00
999:0.0000000000000000e+00
1000:0.0000000000000000e+00
1001:0.0000000000000000e+00
1002:0.0000000000000000e+00
1003:0.0000000000000000e+00
1004:0.0000000000000000e+00
1005:0.0000000000000000e+00
1006:0.0000000000000000e+00
1007:0.0000000000000000e+00
1008:0.0000000000000000e+00
1009:0.0000000000000000e+00
1010:0.0000000000000000e+00
1011:0.0000000000000000e+00
1012:0.0000000000000000e+00
1013:0.0000000000000000e+00
1014:0.0000000000000000e+00
1015:0.0000000000000000e+00
1016:0.0000000000000000e+00
