x	y	stress_xx
 1.0000000000e+000	 0.0000000000e+000	 1.1262972783e-001
 9.9996079486e-001	 8.8548710816e-003	 1.1866706508e-001
 9.9984261196e-001	 1.7741231999e-002	 1.2814230728e-001
 9.9964460724e-001	 2.6658192499e-002	 1.4110129157e-001
 9.9936594664e-001	 3.5604840910e-002	 1.5758320363e-001
 9.9900580671e-001	 4.4580244178e-002	 1.7762029924e-001
 9.9856337512e-001	 5.3583447921e-002	 2.0123762900e-001
 9.9803785128e-001	 6.2613476500e-002	 2.2845276709e-001
 9.9742844692e-001	 7.1669333105e-002	 2.5927554475e-001
 9.9673438666e-001	 8.0749999857e-002	 2.9370778905e-001
 9.9595490863e-001	 8.9854437932e-002	 3.3174306791e-001
 1.0062500000e+000	 0.0000000000e+000	 2.2280775887e-001
 1.0062105498e+000	 8.9102140240e-003	 2.2941677103e-001
 1.0060916283e+000	 1.7852114695e-002	 2.3910704310e-001
 1.0058923860e+000	 2.6824806197e-002	 2.5192046286e-001
 1.0056119838e+000	 3.5827371159e-002	 2.6789241036e-001
 1.0052495930e+000	 4.4858870696e-002	 2.8705148518e-001
 1.0048043962e+000	 5.3918344462e-002	 3.0941923686e-001
 1.0042755878e+000	 6.3004810719e-002	 3.3500989953e-001
 1.0036623747e+000	 7.2117266427e-002	 3.6383013103e-001
 1.0029639766e+000	 8.1254687346e-002	 3.9587875762e-001
 1.0021796268e+000	 9.0416028158e-002	 4.3114652477e-001
 1.0125000000e+000	 0.0000000000e+000	 3.4016976789e-001
 1.0124603048e+000	 8.9655569666e-003	 3.4729596411e-001
 1.0123406446e+000	 1.7962997392e-002	 3.5715398898e-001
 1.0121401648e+000	 2.6991419896e-002	 3.6978188464e-001
 1.0118580210e+000	 3.6049901409e-002	 3.8521132583e-001
 1.0114933793e+000	 4.5137497216e-002	 4.0346735265e-001
 1.0110454173e+000	 5.4253241004e-002	 4.2456810664e-001
 1.0105133244e+000	 6.3396144939e-002	 4.4852457092e-001
 1.0098963025e+000	 7.2565199750e-002	 4.7534031500e-001
 1.0091935665e+000	 8.1759374836e-002	 5.0501124510e-001
 1.0084043450e+000	 9.0977618386e-002	 5.3752536054e-001
 1.0187500000e+000	 0.0000000000e+000	 4.6459796431e-001
 1.0187100598e+000	 9.0208999093e-003	 4.7218710106e-001
 1.0185896609e+000	 1.8073880089e-002	 4.8216576090e-001
 1.0183879436e+000	 2.7158033595e-002	 4.9456824303e-001
 1.0181040581e+000	 3.6272431660e-002	 5.0942261625e-001
 1.0177371656e+000	 4.5416123736e-002	 5.2675045701e-001
 1.0172864384e+000	 5.4588137547e-002	 5.4656659098e-001
 1.0167510610e+000	 6.3787479160e-002	 5.6887883849e-001
 1.0161302303e+000	 7.3013133075e-002	 5.9368776491e-001
 1.0154231564e+000	 8.2264062328e-002	 6.2098643634e-001
 1.0146290632e+000	 9.1539208616e-002	 6.5076018157e-001
 1.0250000000e+000	 0.0000000000e+000	 5.9597743048e-001
 1.0249598147e+000	 9.0762428523e-003	 6.0397550000e-001
 1.0248386773e+000	 1.8184762787e-002	 6.1402782709e-001
 1.0246357224e+000	 2.7324647294e-002	 6.2616506986e-001
 1.0243500953e+000	 3.6494961911e-002	 6.4041178956e-001
 1.0239809519e+000	 4.5694750257e-002	 6.5678619399e-001
 1.0235274595e+000	 5.4923034091e-002	 6.7529988411e-001
 1.0229887976e+000	 6.4178813382e-002	 6.9595760492e-001
 1.0223641581e+000	 7.3461066400e-002	 7.1875700098e-001
 1.0216527463e+000	 8.2768749821e-002	 7.4368837747e-001
 1.0208537813e+000	 9.2100798847e-002	 7.7073446743e-001
 1.0312500000e+000	 0.0000000000e+000	 7.3419603464e-001
 1.0312095697e+000	 9.1315857954e-003	 7.4254925367e-001
 1.0310876936e+000	 1.8295645485e-002	 7.5262842166e-001
 1.0308835012e+000	 2.7491260995e-002	 7.6446065645e-001
 1.0305961325e+000	 3.6717492163e-002	 7.7806710937e-001
 1.0302247382e+000	 4.5973376779e-002	 7.9346271355e-001
 1.0297684806e+000	 5.5257930636e-002	 8.1065593573e-001
 1.0292265341e+000	 6.4570147605e-002	 8.2964853210e-001
 1.0285980859e+000	 7.3908999727e-002	 8.5043530900e-001
 1.0278823362e+000	 8.3273437315e-002	 8.7300388910e-001
 1.0270784995e+000	 9.2662389079e-002	 8.9733448380e-001
 1.0375000000e+000	 0.0000000000e+000	 8.7914434700e-001
 1.0374593247e+000	 9.1869287387e-003	 8.8779914591e-001
 1.0373367099e+000	 1.8406528183e-002	 8.9785846122e-001
 1.0371312800e+000	 2.7657874695e-002	 9.0934597052e-001
 1.0368421696e+000	 3.6940022416e-002	 9.2227951187e-001
 1.0364685245e+000	 4.6252003302e-002	 9.3667083701e-001
 1.0360095017e+000	 5.5592827181e-002	 9.5252536800e-001
 1.0354642707e+000	 6.4961481830e-002	 9.6984195802e-001
 1.0348320137e+000	 7.4356933056e-002	 9.8861265702e-001
 1.0341119262e+000	 8.3778124811e-002	 1.0088224828e+000
 1.0333032177e+000	 9.3223979314e-002	 1.0304491986e+000
 1.0437500000e+000	 0.0000000000e+000	 1.0307155588e+000
 1.0437090796e+000	 9.2422716822e-003	 1.0396185710e+000
 1.0435857262e+000	 1.8517410881e-002	 1.0496114646e+000
 1.0433790588e+000	 2.7824488396e-002	 1.0607145760e+000
 1.0430882068e+000	 3.7162552669e-002	 1.0729425259e+000
 1.0427123108e+000	 4.6530629825e-002	 1.0863039770e+000
 1.0422505228e+000	 5.5927723728e-002	 1.1008013955e+000
 1.0417020073e+000	 6.5352816055e-002	 1.1164308167e+000
 1.0410659415e+000	 7.4804866385e-002	 1.1331816151e+000
 1.0403415161e+000	 8.4282812308e-002	 1.1510362806e+000
 1.0395279359e+000	 9.3785569549e-002	 1.1699702009e+000
 1.0500000000e+000	 0.0000000000e+000	 1.1888054045e+000
 1.0499588346e+000	 9.2976146259e-003	 1.1979034562e+000
 1.0498347426e+000	 1.8628293580e-002	 1.2077834754e+000
 1.0496268376e+000	 2.7991102098e-002	 1.2184625558e+000
 1.0493342440e+000	 3.7385082924e-002	 1.2299521957e+000
 1.0489560970e+000	 4.6809256350e-002	 1.2422580604e+000
 1.0484915439e+000	 5.6262620276e-002	 1.2553797482e+000
 1.0479397438e+000	 6.5744150282e-002	 1.2693105608e+000
 1.0472998693e+000	 7.5252799716e-002	 1.2840372776e+000
 1.0465711060e+000	 8.4787499806e-002	 1.2995399371e+000
 1.0457526541e+000	 9.4347159786e-002	 1.3157916233e+000
 1.0562500000e+000	 0.0000000000e+000	 1.3533120861e+000
 1.0562085896e+000	 9.3529575698e-003	 1.3625521864e+000
 1.0560837589e+000	 1.8739176280e-002	 1.3722729874e+000
 1.0558746164e+000	 2.8157715801e-002	 1.3824884374e+000
 1.0555802811e+000	 3.7607613178e-002	 1.3932070066e+000
 1.0551998833e+000	 4.7087882875e-002	 1.4044314538e+000
 1.0547325650e+000	 5.6597516825e-002	 1.4161585969e+000
 1.0541774804e+000	 6.6135484510e-002	 1.4283790872e+000
 1.0535337971e+000	 7.5700733048e-002	 1.4410771891e+000
 1.0528006959e+000	 8.5292187306e-002	 1.4542305648e+000
 1.0519773722e+000	 9.4908750025e-002	 1.4678100662e+000
 1.0625000000e+000	 0.0000000000e+000	 1.5241362011e+000
 1.0624583445e+000	 9.4083005139e-003	 1.5334655323e+000
 1.0623327752e+000	 1.8850058980e-002	 1.5429808723e+000
 1.0621223952e+000	 2.8324329504e-002	 1.5526931206e+000
 1.0618263183e+000	 3.7830143434e-002	 1.5626078131e+000
 1.0614436696e+000	 4.7366509402e-002	 1.5727248921e+000
 1.0609735861e+000	 5.6932413375e-002	 1.5830384814e+000
 1.0604152170e+000	 6.6526818739e-002	 1.5935366652e+000
 1.0597677248e+000	 7.6148666382e-002	 1.6042012715e+000
 1.0590302858e+000	 8.5796874808e-002	 1.6150076616e+000
 1.0582020904e+000	 9.5470340265e-002	 1.6259245257e+000
 9.9595490863e-001	 8.9854437932e-002	 3.3174306791e-001
 9.9508926501e-001	 9.8981587693e-002	 3.8559316327e-001
 9.9413672268e-001	 1.0813036885e-001	 4.4240519340e-001
 9.9309656377e-001	 1.1729968064e-001	 5.0217983731e-001
 9.9196808628e-001	 1.2648840201e-001	 5.6490979590e-001
 9.9075060469e-001	 1.3569539180e-001	 6.3057957245e-001
 9.8944345050e-001	 1.4491948905e-001	 6.9916526226e-001
 9.8804597288e-001	 1.5415951315e-001	 7.7063435209e-001
 9.8655753926e-001	 1.6341426419e-001	 8.4494553035e-001
 9.8497753588e-001	 1.7268252319e-001	 9.2204850851e-001
 9.8330536841e-001	 1.8196305243e-001	 1.0018838548e+000
 1.0021796268e+000	 9.0416028158e-002	 4.3114652477e-001
 1.0013085729e+000	 9.9600222606e-002	 4.8285063504e-001
 1.0003500772e+000	 1.0880618365e-001	 5.3718435148e-001
 9.9930341729e-001	 1.1803280364e-001	 5.9414631414e-001
 9.9816788682e-001	 1.2727895451e-001	 6.5372734654e-001
 9.9694279597e-001	 1.3654348799e-001	 7.1591024090e-001
 9.9562747206e-001	 1.4582523585e-001	 7.8066955251e-001
 9.9422126022e-001	 1.5512301010e-001	 8.4797140398e-001
 9.9272352389e-001	 1.6443560334e-001	 9.1777330004e-001
 9.9113364548e-001	 1.7376178895e-001	 9.9002395385e-001
 9.8945102696e-001	 1.8310032150e-001	 1.0646631253e+000
 1.0084043450e+000	 9.0977618386e-002	 5.3752536054e-001
 1.0075278808e+000	 1.0021885752e-001	 5.8709527109e-001
 1.0065634317e+000	 1.0948199845e-001	 6.3896984545e-001
 1.0055102708e+000	 1.1876592663e-001	 6.9314574427e-001
 1.0043676874e+000	 1.2806950701e-001	 7.4961196854e-001
 1.0031349872e+000	 1.3739158418e-001	 8.0834964942e-001
 1.0018114936e+000	 1.4673098265e-001	 8.6933184716e-001
 1.0003965476e+000	 1.5608650705e-001	 9.3252335997e-001
 9.9888950851e-001	 1.6545694248e-001	 9.9788054348e-001
 9.9728975509e-001	 1.7484105472e-001	 1.0653511416e+000
 9.9559668552e-001	 1.8423759058e-001	 1.1348741292e+000
 1.0146290632e+000	 9.1539208616e-002	 6.5076018157e-001
 1.0137471887e+000	 1.0083749244e-001	 6.9820718901e-001
 1.0127767862e+000	 1.1015781324e-001	 7.4764122022e-001
 1.0117171243e+000	 1.1949904963e-001	 7.9905701543e-001
 1.0105674879e+000	 1.2886005952e-001	 8.5244180737e-001
 1.0093271785e+000	 1.3823968038e-001	 9.0777511550e-001
 1.0079955152e+000	 1.4763672945e-001	 9.6502854949e-001
 1.0065718349e+000	 1.5705000400e-001	 1.0241656225e+000
 1.0050554931e+000	 1.6647828163e-001	 1.0851415749e+000
 1.0034458647e+000	 1.7592032049e-001	 1.1479032101e+000
 1.0017423441e+000	 1.8537485965e-001	 1.2123887413e+000
 1.0208537813e+000	 9.2100798847e-002	 7.7073446743e-001
 1.0199664966e+000	 1.0145612735e-001	 8.1606938974e-001
 1.0189901407e+000	 1.1083362804e-001	 8.6308091671e-001
 1.0179239779e+000	 1.2023217263e-001	 9.1176192648e-001
 1.0167672884e+000	 1.2965061203e-001	 9.6209793717e-001
 1.0155193698e+000	 1.3908777657e-001	 1.0140669054e+000
 1.0141795368e+000	 1.4854247625e-001	 1.0676390342e+000
 1.0127471222e+000	 1.5801350096e-001	 1.1227765904e+000
 1.0112214778e+000	 1.6749962078e-001	 1.1794337329e+000
 1.0096019743e+000	 1.7699958625e-001	 1.2375563525e+000
 1.0078880026e+000	 1.8651212873e-001	 1.2970819236e+000
 1.0270784995e+000	 9.2662389079e-002	 8.9733448380e-001
 1.0261858045e+000	 1.0207476227e-001	 9.4056767023e-001
 1.0252034953e+000	 1.1150944285e-001	 9.8517418409e-001
 1.0241308314e+000	 1.2096529563e-001	 1.0311450992e+000
 1.0229670890e+000	 1.3044116454e-001	 1.0784642721e+000
 1.0217115611e+000	 1.3993587277e-001	 1.1271081450e+000
 1.0203635583e+000	 1.4944822305e-001	 1.1770455575e+000
 1.0189224095e+000	 1.5897699791e-001	 1.2282375686e+000
 1.0173874624e+000	 1.6852095993e-001	 1.2806372887e+000
 1.0157580839e+000	 1.7807885202e-001	 1.3341897241e+000
 1.0140336612e+000	 1.8764939780e-001	 1.3888316322e+000
 1.0333032177e+000	 9.3223979314e-002	 1.0304491986e+000
 1.0324051124e+000	 1.0269339719e-001	 1.0715905392e+000
 1.0314168498e+000	 1.1218525765e-001	 1.1138089952e+000
 1.0303376849e+000	 1.2169841863e-001	 1.1570938930e+000
 1.0291668895e+000	 1.3123171705e-001	 1.2014274805e+000
 1.0279037524e+000	 1.4078396896e-001	 1.2467847331e+000
 1.0265475799e+000	 1.5035396986e-001	 1.2931331701e+000
 1.0250976969e+000	 1.5994049487e-001	 1.3404326801e+000
 1.0235534470e+000	 1.6954229908e-001	 1.3886353580e+000
 1.0219141935e+000	 1.7915811779e-001	 1.4376853527e+000
 1.0201793197e+000	 1.8878666688e-001	 1.4875187269e+000
 1.0395279359e+000	 9.3785569549e-002	 1.1699702009e+000
 1.0386244204e+000	 1.0331203211e-001	 1.2090291360e+000
 1.0376302043e+000	 1.1286107245e-001	 1.2488759649e+000
 1.0365445384e+000	 1.2243154164e-001	 1.2894983237e+000
 1.0353666901e+000	 1.3202226956e-001	 1.3308769031e+000
 1.0340959436e+000	 1.4163206516e-001	 1.3729852593e+000
 1.0327316015e+000	 1.5125971667e-001	 1.4157896336e+000
 1.0312729842e+000	 1.6090399183e-001	 1.4592487818e+000
 1.0297194316e+000	 1.7056363823e-001	 1.5033138155e+000
 1.0280703031e+000	 1.8023738356e-001	 1.5479280532e+000
 1.0263249783e+000	 1.8992393596e-001	 1.5930268844e+000
 1.0457526541e+000	 9.4347159786e-002	 1.3157916233e+000
 1.0448437283e+000	 1.0393066704e-001	 1.3527771521e+000
 1.0438435588e+000	 1.1353688726e-001	 1.3902682716e+000
 1.0427513920e+000	 1.2316466464e-001	 1.4282509833e+000
 1.0415664906e+000	 1.3281282208e-001	 1.4667044727e+000
 1.0402881349e+000	 1.4248016136e-001	 1.5056009232e+000
 1.0389156230e+000	 1.5216546347e-001	 1.5449053399e+000
 1.0374482715e+000	 1.6186748879e-001	 1.5845753834e+000
 1.0358854162e+000	 1.7158497738e-001	 1.6245612132e+000
 1.0342264127e+000	 1.8131664934e-001	 1.6648053443e+000
 1.0324706368e+000	 1.9106120504e-001	 1.7052425141e+000
 1.0519773722e+000	 9.4908750025e-002	 1.4678100662e+000
 1.0510630362e+000	 1.0454930196e-001	 1.5027307560e+000
 1.0500569133e+000	 1.1421270207e-001	 1.5378815813e+000
 1.0489582455e+000	 1.2389778765e-001	 1.5732469650e+000
 1.0477662911e+000	 1.3360337459e-001	 1.6088046378e+000
 1.0464803262e+000	 1.4332825757e-001	 1.6445254571e+000
 1.0450996446e+000	 1.5307121029e-001	 1.6803732335e+000
 1.0436235589e+000	 1.6283098575e-001	 1.7163045682e+000
 1.0420514009e+000	 1.7260631654e-001	 1.7522687008e+000
 1.0403825223e+000	 1.8239591511e-001	 1.7882073685e+000
 1.0386162954e+000	 1.9219847412e-001	 1.8240546779e+000
 1.0582020904e+000	 9.5470340265e-002	 1.6259245257e+000
 1.0572823441e+000	 1.0516793689e-001	 1.6587885199e+000
 1.0562702678e+000	 1.1488851688e-001	 1.6916139746e+000
 1.0551650990e+000	 1.2463091066e-001	 1.7243837886e+000
 1.0539660917e+000	 1.3439392711e-001	 1.7570742889e+000
 1.0526725175e+000	 1.4417635377e-001	 1.7896550524e+000
 1.0512836661e+000	 1.5397695710e-001	 1.8220887361e+000
 1.0497988462e+000	 1.6379448271e-001	 1.8543309183e+000
 1.0482173855e+000	 1.7362765569e-001	 1.8863299495e+000
 1.0465386319e+000	 1.8347518088e-001	 1.9180268152e+000
 1.0447619540e+000	 1.9333574320e-001	 1.9493550115e+000
 9.8330536841e-001	 1.8196305243e-001	 1.0018838548e+000
 9.8154046252e-001	 1.9125459577e-001	 1.0964911877e+000
 9.7968226449e-001	 2.0055587900e-001	 1.1930549841e+000
 9.7773024174e-001	 2.0986561017e-001	 1.2915415701e+000
 9.7568388343e-001	 2.1918248004e-001	 1.3919089784e+000
 9.7354270101e-001	 2.2850516241e-001	 1.4941068229e+000
 9.7130622879e-001	 2.3783231458e-001	 1.5980761878e+000
 9.6897402446e-001	 2.4716257779e-001	 1.7037495310e+000
 9.6654566967e-001	 2.5649457767e-001	 1.8110506036e+000
 9.6402077054e-001	 2.6582692472e-001	 1.9198943843e+000
 9.6139895816e-001	 2.7515821483e-001	 2.0301870306e+000
 9.8945102696e-001	 1.8310032150e-001	 1.0646631253e+000
 9.8767509042e-001	 1.9244993699e-001	 1.1551041289e+000
 9.8580527865e-001	 2.0180935324e-001	 1.2471885279e+000
 9.8384105576e-001	 2.1117727024e-001	 1.3408794965e+000
 9.8178190771e-001	 2.2055237054e-001	 1.4361320512e+000
 9.7962734290e-001	 2.2993331968e-001	 1.5328929321e+000
 9.7737689272e-001	 2.3931876655e-001	 1.6311004977e+000
 9.7503011212e-001	 2.4870734391e-001	 1.7306846349e+000
 9.7258658011e-001	 2.5809766879e-001	 1.8315666844e+000
 9.7004590036e-001	 2.6748834301e-001	 1.9336593819e+000
 9.6740770166e-001	 2.7687795368e-001	 2.0368668157e+000
 9.9559668552e-001	 1.8423759058e-001	 1.1348741292e+000
 9.9380971831e-001	 1.9364527821e-001	 1.2211601135e+000
 9.9192829281e-001	 2.0306282748e-001	 1.3087836016e+000
 9.8995186977e-001	 2.1248893030e-001	 1.3977046491e+000
 9.8787993198e-001	 2.2192226104e-001	 1.4878752846e+000
 9.8571198478e-001	 2.3136147694e-001	 1.5792393967e+000
 9.8344755666e-001	 2.4080521852e-001	 1.6717326353e+000
 9.8108619978e-001	 2.5025211002e-001	 1.7652823276e+000
 9.7862749056e-001	 2.5970075990e-001	 1.8598074096e+000
 9.7607103019e-001	 2.6914976129e-001	 1.9552183737e+000
 9.7341644516e-001	 2.7859769253e-001	 2.0514172325e+000
 1.0017423441e+000	 1.8537485965e-001	 1.2123887413e+000
 9.9994434621e-001	 1.9484061943e-001	 1.2945310703e+000
 9.9805130697e-001	 2.0431630172e-001	 1.3777121101e+000
 9.9606268379e-001	 2.1380059036e-001	 1.4618888301e+000
 9.9397795626e-001	 2.2329215154e-001	 1.5470102982e+000
 9.9179662667e-001	 2.3278963421e-001	 1.6330175734e+000
 9.8951822059e-001	 2.4229167049e-001	 1.7198436133e+000
 9.8714228743e-001	 2.5179687614e-001	 1.8074131959e+000
 9.8466840100e-001	 2.6130385101e-001	 1.8956428574e+000
 9.8209616001e-001	 2.7081117958e-001	 1.9844408459e+000
 9.7942518865e-001	 2.8031743137e-001	 2.0737070917e+000
 1.0078880026e+000	 1.8651212873e-001	 1.2970819236e+000
 1.0060789741e+000	 1.9603596066e-001	 1.3750920170e+000
 1.0041743211e+000	 2.0556977597e-001	 1.4538490507e+000
 1.0021734978e+000	 2.1511225043e-001	 1.5333069399e+000
 1.0000759805e+000	 2.2466204204e-001	 1.6134118181e+000
 9.9788126856e-001	 2.3421779148e-001	 1.6941019359e+000
 9.9558888453e-001	 2.4377812246e-001	 1.7753075741e+000
 9.9319837509e-001	 2.5334164225e-001	 1.8569509714e+000
 9.9070931144e-001	 2.6290694213e-001	 1.9389462687e+000
 9.8812128983e-001	 2.7247259786e-001	 2.0211994681e+000
 9.8543393214e-001	 2.8203717022e-001	 2.1036084101e+000
 1.0140336612e+000	 1.8764939780e-001	 1.3888316322e+000
 1.0122136020e+000	 1.9723130188e-001	 1.4627209663e+000
 1.0102973353e+000	 2.0682325021e-001	 1.5370724191e+000
 1.0082843118e+000	 2.1642391049e-001	 1.6118368827e+000
 1.0061740048e+000	 2.2603193255e-001	 1.6869575821e+000
 1.0039659104e+000	 2.3564594874e-001	 1.7623699798e+000
 1.0016595485e+000	 2.4526457442e-001	 1.8380016947e+000
 9.9925446275e-001	 2.5488640836e-001	 1.9137724357e+000
 9.9675022188e-001	 2.6451003324e-001	 1.9895939515e+000
 9.9414641965e-001	 2.7413401614e-001	 2.0653699965e+000
 9.9144267564e-001	 2.8375690907e-001	 2.1409963133e+000
 1.0201793197e+000	 1.8878666688e-001	 1.4875187269e+000
 1.0183482299e+000	 1.9842664310e-001	 1.5572988354e+000
 1.0164203494e+000	 2.0807672445e-001	 1.6272631188e+000
 1.0143951258e+000	 2.1773557055e-001	 1.6973594763e+000
 1.0122720291e+000	 2.2740182305e-001	 1.7675282494e+000
 1.0100505523e+000	 2.3707410601e-001	 1.8377021322e+000
 1.0077302124e+000	 2.4675102639e-001	 1.9078060958e+000
 1.0053105504e+000	 2.5643117447e-001	 1.9777573279e+000
 1.0027911323e+000	 2.6611312435e-001	 2.0474651884e+000
 1.0001715495e+000	 2.7579543443e-001	 2.1168311810e+000
 9.9745141913e-001	 2.8547664791e-001	 2.1857489418e+000
 1.0263249783e+000	 1.8992393596e-001	 1.5930268844e+000
 1.0244828578e+000	 1.9962198433e-001	 1.6587093597e+000
 1.0225433636e+000	 2.0933019870e-001	 1.7243048746e+000
 1.0205059398e+000	 2.1904723062e-001	 1.7897583649e+000
 1.0183700534e+000	 2.2877171355e-001	 1.8550073129e+000
 1.0161351942e+000	 2.3850226327e-001	 1.9199816633e+000
 1.0138008763e+000	 2.4823747836e-001	 1.9846037532e+000
 1.0113666381e+000	 2.5797594059e-001	 2.0487882569e+000
 1.0088320428e+000	 2.6771621547e-001	 2.1124421478e+000
 1.0061966793e+000	 2.7745685271e-001	 2.1754646756e+000
 1.0034601626e+000	 2.8719638676e-001	 2.2377473610e+000
 1.0324706368e+000	 1.9106120504e-001	 1.7052425141e+000
 1.0306174857e+000	 2.0081732555e-001	 1.7668390084e+000
 1.0286663777e+000	 2.1058367294e-001	 1.8280841483e+000
 1.0266167539e+000	 2.2035889068e-001	 1.8889199348e+000
 1.0244680776e+000	 2.3014160405e-001	 1.9492810151e+000
 1.0222198361e+000	 2.3993042054e-001	 2.0090946026e+000
 1.0198715403e+000	 2.4972393032e-001	 2.0682804131e+000
 1.0174227257e+000	 2.5952070670e-001	 2.1267506152e+000
 1.0148729532e+000	 2.6931930658e-001	 2.1844097976e+000
 1.0122218091e+000	 2.7911827099e-001	 2.2411549520e+000
 1.0094689061e+000	 2.8891612560e-001	 2.2968754740e+000
 1.0386162954e+000	 1.9219847412e-001	 1.8240546779e+000
 1.0367521136e+000	 2.0201266678e-001	 1.8815769039e+000
 1.0347893919e+000	 2.1183714719e-001	 1.9384900576e+000
 1.0327275679e+000	 2.2167055075e-001	 1.9947332336e+000
 1.0305661019e+000	 2.3151149455e-001	 2.0502382665e+000
 1.0283044780e+000	 2.4135857781e-001	 2.1049296564e+000
 1.0259422042e+000	 2.5121038229e-001	 2.1587245100e+000
 1.0234788134e+000	 2.6106547281e-001	 2.2115324972e+000
 1.0209138636e+000	 2.7092239769e-001	 2.2632558227e+000
 1.0182469389e+000	 2.8077968927e-001	 2.3137892163e+000
 1.0154776496e+000	 2.9063586444e-001	 2.3630199379e+000
 1.0447619540e+000	 1.9333574320e-001	 1.9493550115e+000
 1.0428867415e+000	 2.0320800801e-001	 2.0028147435e+000
 1.0409124061e+000	 2.1309062144e-001	 2.0554142982e+000
 1.0388383819e+000	 2.2298221082e-001	 2.1070898914e+000
 1.0366641262e+000	 2.3288138505e-001	 2.1577705672e+000
 1.0343891199e+000	 2.4278673507e-001	 2.2073781296e+000
 1.0320128681e+000	 2.5269683426e-001	 2.2558270879e+000
 1.0295349010e+000	 2.6261023892e-001	 2.3030246190e+000
 1.0269547741e+000	 2.7252548880e-001	 2.3488705450e+000
 1.0242720687e+000	 2.8244110754e-001	 2.3932573281e+000
 1.0214863931e+000	 2.9235560328e-001	 2.4360700823e+000
 9.6139895816e-001	 2.7515821483e-001	 2.0301870306e+000
 9.5867988915e-001	 2.8448702975e-001	 2.1488183210e+000
 9.5586324609e-001	 2.9381193769e-001	 2.2688265901e+000
 9.5294873809e-001	 3.0313149381e-001	 2.3901209457e+000
 9.4993610118e-001	 3.1244424085e-001	 2.5126017788e+000
 9.4682509884e-001	 3.2174870969e-001	 2.6361607745e+000
 9.4361552239e-001	 3.3104341994e-001	 2.7606809417e+000
 9.4030719147e-001	 3.4032688062e-001	 2.8860366615e+000
 9.3689995439e-001	 3.4959759075e-001	 3.0120937552e+000
 9.3339368862e-001	 3.5885404004e-001	 3.1387095711e+000
 9.2978830108e-001	 3.6809470955e-001	 3.2657330915e+000
 9.6740770166e-001	 2.7687795368e-001	 2.0368668157e+000
 9.6467163846e-001	 2.8626507369e-001	 2.1488529227e+000
 9.6183739139e-001	 2.9564826231e-001	 2.2621055254e+000
 9.5890466771e-001	 3.0502606566e-001	 2.3765347505e+000
 9.5587320182e-001	 3.1439701737e-001	 2.4920420347e+000
 9.5274275572e-001	 3.2375963913e-001	 2.6085201378e+000
 9.4951311941e-001	 3.3311244132e-001	 2.7258531730e+000
 9.4618411142e-001	 3.4245392363e-001	 2.8439166570e+000
 9.4275557911e-001	 3.5178257570e-001	 2.9625775799e+000
 9.3922739918e-001	 3.6109687780e-001	 3.0816944933e+000
 9.3559947796e-001	 3.7039530149e-001	 3.2011176197e+000
 9.7341644516e-001	 2.7859769253e-001	 2.0514172325e+000
 9.7066338778e-001	 2.8804311764e-001	 2.1568625105e+000
 9.6781153668e-001	 2.9748458692e-001	 2.2634683324e+000
 9.6486059733e-001	 3.0692063750e-001	 2.3711457915e+000
 9.6181030246e-001	 3.1634979388e-001	 2.4797973134e+000
 9.5866041259e-001	 3.2577056858e-001	 2.5893166701e+000
 9.5541071643e-001	 3.3518146271e-001	 2.6995890125e+000
 9.5206103137e-001	 3.4458096664e-001	 2.8104909213e+000
 9.4861120383e-001	 3.5396756065e-001	 2.9218904786e+000
 9.4506110973e-001	 3.6333971555e-001	 3.0336473584e+000
 9.4141065484e-001	 3.7269589343e-001	 3.1456129372e+000
 9.7942518865e-001	 2.8031743137e-001	 2.0737070917e+000
 9.7665513709e-001	 2.8982116158e-001	 2.1727147592e+000
 9.7378568198e-001	 2.9932091154e-001	 2.2727815154e+000
 9.7081652695e-001	 3.0881520934e-001	 2.3738193678e+000
 9.6774740310e-001	 3.1830257039e-001	 2.4757316738e+000
 9.6457806946e-001	 3.2778149802e-001	 2.5784131560e+000
 9.6130831345e-001	 3.3725048409e-001	 2.6817499359e+000
 9.5793795132e-001	 3.4670800965e-001	 2.7856195865e+000
 9.5446682855e-001	 3.5615254559e-001	 2.8898912058e+000
 9.5089482029e-001	 3.6558255330e-001	 2.9944255088e+000
 9.4722183172e-001	 3.7499648536e-001	 3.0990749401e+000
 9.8543393214e-001	 2.8203717022e-001	 2.1036084101e+000
 9.8264688640e-001	 2.9159920552e-001	 2.1962805839e+000
 9.7975982727e-001	 3.0115723616e-001	 2.2899148544e+000
 9.7677245657e-001	 3.1070978119e-001	 2.3844240909e+000
 9.7368450374e-001	 3.2025534690e-001	 2.4797125258e+000
 9.7049572633e-001	 3.2979242746e-001	 2.5756757702e+000
 9.6720591047e-001	 3.3931950547e-001	 2.6722008492e+000
 9.6381487127e-001	 3.4883505266e-001	 2.7691662571e+000
 9.6032245327e-001	 3.5833753054e-001	 2.8664420312e+000
 9.5672853084e-001	 3.6782539105e-001	 2.9638898462e+000
 9.5303300861e-001	 3.7729707730e-001	 3.0613631293e+000
 9.9144267564e-001	 2.8375690907e-001	 2.1409963133e+000
 9.8863863571e-001	 2.9337724946e-001	 2.2274340418e+000
 9.8573397256e-001	 3.0299356077e-001	 2.3147413060e+000
 9.8272838618e-001	 3.1260435303e-001	 2.4028317849e+000
 9.7962160437e-001	 3.2220812341e-001	 2.4916105284e+000
 9.7641338320e-001	 3.3180335690e-001	 2.5809739744e+000
 9.7310350749e-001	 3.4138852684e-001	 2.6708099853e+000
 9.6969179122e-001	 3.5096209566e-001	 2.7609979045e+000
 9.6617807798e-001	 3.6052251548e-001	 2.8514086326e+000
 9.6256224140e-001	 3.7006822881e-001	 2.9419047233e+000
 9.5884418549e-001	 3.7959766923e-001	 3.0323405002e+000
 9.9745141913e-001	 2.8547664791e-001	 2.1857489418e+000
 9.9463038503e-001	 2.9515529340e-001	 2.2660522375e+000
 9.9170811786e-001	 3.0482988538e-001	 2.3471369077e+000
 9.8868431580e-001	 3.1449892486e-001	 2.4289173891e+000
 9.8555870501e-001	 3.2416089992e-001	 2.5112994919e+000
 9.8233104008e-001	 3.3381428634e-001	 2.5941804188e+000
 9.7900110451e-001	 3.4345754822e-001	 2.6774488029e+000
 9.7556871117e-001	 3.5308913867e-001	 2.7609847656e+000
 9.7203370270e-001	 3.6270750043e-001	 2.8446599941e+000
 9.6839595196e-001	 3.7231106656e-001	 2.9283378403e+000
 9.6465536237e-001	 3.8189826117e-001	 3.0118734386e+000
 1.0034601626e+000	 2.8719638676e-001	 2.2377473610e+000
 1.0006221343e+000	 2.9693333734e-001	 2.3120152317e+000
 9.9768226315e-001	 3.0666621000e-001	 2.3869806857e+000
 9.9464024542e-001	 3.1639349670e-001	 2.4625588650e+000
 9.9149580564e-001	 3.2611367643e-001	 2.5386562833e+000
 9.8824869695e-001	 3.3582521577e-001	 2.6151708462e+000
 9.8489870152e-001	 3.4552656960e-001	 2.6919918908e+000
 9.8144563112e-001	 3.5521618168e-001	 2.7690002449e+000
 9.7788932742e-001	 3.6489248537e-001	 2.8460683065e+000
 9.7422966251e-001	 3.7455390431e-001	 2.9230601443e+000
 9.7046653926e-001	 3.8419885310e-001	 2.9998316182e+000
 1.0094689061e+000	 2.8891612560e-001	 2.2968754740e+000
 1.0066138836e+000	 2.9871138127e-001	 2.3652059532e+000
 1.0036564084e+000	 3.0850253461e-001	 2.4341545658e+000
 1.0005961750e+000	 3.1828806854e-001	 2.5036371066e+000
 9.9743290628e-001	 3.2806645293e-001	 2.5735607359e+000
 9.9416635382e-001	 3.3783614521e-001	 2.6438240003e+000
 9.9079629854e-001	 3.4759559097e-001	 2.7143168742e+000
 9.8732255106e-001	 3.5734322468e-001	 2.7849208205e+000
 9.8374495213e-001	 3.6707747031e-001	 2.8555088718e+000
 9.8006337307e-001	 3.7679674206e-001	 2.9259457329e+000
 9.7627771614e-001	 3.8649944504e-001	 2.9960879034e+000
 1.0154776496e+000	 2.9063586444e-001	 2.3630199379e+000
 1.0126056330e+000	 3.0048942521e-001	 2.4255101143e+000
 1.0096305537e+000	 3.1033885922e-001	 2.4885432876e+000
 1.0065521046e+000	 3.2018264037e-001	 2.5520358533e+000
 1.0033700069e+000	 3.3001922944e-001	 2.6158955609e+000
 1.0000840107e+000	 3.3984707464e-001	 2.6800215365e+000
 9.9669389556e-001	 3.4966461234e-001	 2.7443043252e+000
 9.9319947101e-001	 3.5947026768e-001	 2.8086259532e+000
 9.8960057685e-001	 3.6926245525e-001	 2.8728600118e+000
 9.8589708362e-001	 3.7903957981e-001	 2.9368717610e+000
 9.8208889302e-001	 3.8880003698e-001	 3.0005182546e+000
 1.0214863931e+000	 2.9235560328e-001	 2.4360700823e+000
 1.0185973823e+000	 3.0226746914e-001	 2.4928161285e+000
 1.0156046990e+000	 3.1217518382e-001	 2.5500343219e+000
 1.0125080343e+000	 3.2207721221e-001	 2.6076416062e+000
 1.0093071075e+000	 3.3197200594e-001	 2.6655462634e+000
 1.0060016676e+000	 3.4185800407e-001	 2.7236479368e+000
 1.0025914926e+000	 3.5173363372e-001	 2.7818376755e+000
 9.9907639096e-001	 3.6159731069e-001	 2.8399979983e+000
 9.9545620156e-001	 3.7144744020e-001	 2.8980029785e+000
 9.9173079417e-001	 3.8128241756e-001	 2.9557183506e+000
 9.8790006990e-001	 3.9110062891e-001	 3.0130016373e+000
 9.2978830108e-001	 3.6809470955e-001	 3.2657330915e+000
 9.2608372854e-001	 3.7731807239e-001	 3.3988592966e+000
 9.2227993800e-001	 3.8652259441e-001	 3.5283704124e+000
 9.1837692696e-001	 3.9570673493e-001	 3.6541034225e+000
 9.1437472374e-001	 4.0486894748e-001	 3.7758907748e+000
 9.1027338778e-001	 4.1400768054e-001	 3.8935606112e+000
 9.0607300991e-001	 4.2312137829e-001	 4.0069370132e+000
 9.0177371256e-001	 4.3220848139e-001	 4.1158402635e+000
 8.9737565002e-001	 4.4126742776e-001	 4.2200871229e+000
 8.9287900861e-001	 4.5029665337e-001	 4.3194911221e+000
 8.8828400685e-001	 4.5929459305e-001	 4.4138628682e+000
 9.3559947796e-001	 3.7039530149e-001	 3.2011176197e+000
 9.3187175185e-001	 3.7967631034e-001	 3.3271433818e+000
 9.2804418762e-001	 3.8893836062e-001	 3.4494573140e+000
 9.2411678275e-001	 3.9817990202e-001	 3.5678911915e+000
 9.2008956575e-001	 4.0739937840e-001	 3.6822722356e+000
 9.1596259645e-001	 4.1659522854e-001	 3.7924233515e+000
 9.1173596621e-001	 4.2576588690e-001	 3.8981633838e+000
 9.0740979826e-001	 4.3490978439e-001	 3.9993073859e+000
 9.0298424782e-001	 4.4402534917e-001	 4.0956669068e+000
 8.9845950240e-001	 4.5311100745e-001	 4.1870502926e+000
 8.9383578189e-001	 4.6216518425e-001	 4.2732630026e+000
 9.4141065484e-001	 3.7269589343e-001	 3.1456129372e+000
 9.3765977515e-001	 3.8203454829e-001	 3.2645470059e+000
 9.3380843723e-001	 3.9135412683e-001	 3.3796759807e+000
 9.2985663854e-001	 4.0065306911e-001	 3.4908263890e+000
 9.2580440777e-001	 4.0992980932e-001	 3.5978201825e+000
 9.2165180512e-001	 4.1918277654e-001	 3.7004749835e+000
 9.1739892252e-001	 4.2841039551e-001	 3.7986043486e+000
 9.1304588395e-001	 4.3761108739e-001	 3.8920180481e+000
 9.0859284563e-001	 4.4678327059e-001	 3.9805223615e+000
 9.0403999620e-001	 4.5592536152e-001	 4.0639203888e+000
 8.9938755692e-001	 4.6503577545e-001	 4.1420123764e+000
 9.4722183172e-001	 3.7499648536e-001	 3.0990749401e+000
 9.4344779845e-001	 3.8439278625e-001	 3.2109271247e+000
 9.3957268684e-001	 3.9376989305e-001	 3.3188843993e+000
 9.3559649433e-001	 4.0312623620e-001	 3.4227680040e+000
 9.3151924980e-001	 4.1246024023e-001	 3.5223945768e+000
 9.2734101379e-001	 4.2177032454e-001	 3.6175764093e+000
 9.2306187883e-001	 4.3105490412e-001	 3.7081217188e+000
 9.1868196965e-001	 4.4031239040e-001	 3.7938349374e+000
 9.1420144344e-001	 4.4954119201e-001	 3.8745170163e+000
 9.0962048999e-001	 4.5873971560e-001	 3.9499657472e+000
 9.0493933196e-001	 4.6790636666e-001	 4.0199760979e+000
 9.5303300861e-001	 3.7729707730e-001	 3.0613631293e+000
 9.4923582176e-001	 3.8675102420e-001	 3.1661442823e+000
 9.4533693645e-001	 3.9618565926e-001	 3.2669441309e+000
 9.4133635012e-001	 4.0559940329e-001	 3.3635785860e+000
 9.3723409182e-001	 4.1499067115e-001	 3.4558589275e+000
 9.3303022246e-001	 4.2435787254e-001	 3.5435920675e+000
 9.2872483513e-001	 4.3369941273e-001	 3.6265808318e+000
 9.2431805535e-001	 4.4301369340e-001	 3.7046242579e+000
 9.1981004124e-001	 4.5229911343e-001	 3.7775179093e+000
 9.1520098379e-001	 4.6155406968e-001	 3.8450542061e+000
 9.1049110700e-001	 4.7077695786e-001	 3.9070227706e+000
 9.5884418549e-001	 3.7959766923e-001	 3.0323405002e+000
 9.5502384506e-001	 3.8910926215e-001	 3.1300625034e+000
 9.5110118606e-001	 3.9860142547e-001	 3.2237202023e+000
 9.4707620592e-001	 4.0807257038e-001	 3.3131241376e+000
 9.4294893384e-001	 4.1752110207e-001	 3.3980801846e+000
 9.3871943113e-001	 4.2694542054e-001	 3.4783898265e+000
 9.3438779144e-001	 4.3634392134e-001	 3.5538504442e+000
 9.2995414105e-001	 4.4571499641e-001	 3.6242556239e+000
 9.2541863905e-001	 4.5505703485e-001	 3.6893954807e+000
 9.2078147759e-001	 4.6436842376e-001	 3.7490569986e+000
 9.1604288203e-001	 4.7364754907e-001	 3.8030243870e+000
 9.6465536237e-001	 3.8189826117e-001	 3.0118734386e+000
 9.6081186836e-001	 3.9146750010e-001	 3.1025491874e+000
 9.5686543567e-001	 4.0101719169e-001	 3.1890810022e+000
 9.5281606171e-001	 4.1054573748e-001	 3.2712740098e+000
 9.4866377586e-001	 4.2005153299e-001	 3.3489286348e+000
 9.4440863980e-001	 4.2953296854e-001	 3.4218408806e+000
 9.4005074776e-001	 4.3898842995e-001	 3.4898026294e+000
 9.3559022675e-001	 4.4841629942e-001	 3.5526019576e+000
 9.3102723687e-001	 4.5781495627e-001	 3.6100234704e+000
 9.2636197140e-001	 4.6718277785e-001	 3.6618486510e+000
 9.2159465708e-001	 4.7651814027e-001	 3.7078562270e+000
 9.7046653926e-001	 3.8419885310e-001	 2.9998316182e+000
 9.6659989167e-001	 3.9382573806e-001	 3.0834750081e+000
 9.6262968529e-001	 4.0343295791e-001	 3.1628981798e+000
 9.5855591750e-001	 4.1301890457e-001	 3.2379008024e+000
 9.5437861788e-001	 4.2258196392e-001	 3.3082778020e+000
 9.5009784847e-001	 4.3212051655e-001	 3.3738196511e+000
 9.4571370407e-001	 4.4163293857e-001	 3.4343126774e+000
 9.4122631246e-001	 4.5111760243e-001	 3.4895393893e+000
 9.3663583468e-001	 4.6057287770e-001	 3.5392788193e+000
 9.3194246520e-001	 4.6999713193e-001	 3.5833068838e+000
 9.2714643212e-001	 4.7938873148e-001	 3.6213967592e+000
 9.7627771614e-001	 3.8649944504e-001	 2.9960879034e+000
 9.7238791497e-001	 3.9618397601e-001	 3.0727138160e+000
 9.6839393490e-001	 4.0584872412e-001	 3.1450465482e+000
 9.6429577330e-001	 4.1549207166e-001	 3.2128802670e+000
 9.6009345991e-001	 4.2511239484e-001	 3.2760043510e+000
 9.5578705715e-001	 4.3470806455e-001	 3.3342036896e+000
 9.5137666038e-001	 4.4427744719e-001	 3.3872589999e+000
 9.4686239816e-001	 4.5381890544e-001	 3.4349471625e+000
 9.4224443249e-001	 4.6333079913e-001	 3.4770415740e+000
 9.3752295900e-001	 4.7281148602e-001	 3.5133125169e+000
 9.3269820716e-001	 4.8225932269e-001	 3.5435275459e+000
 9.8208889302e-001	 3.8880003698e-001	 3.0005182546e+000
 9.7817593828e-001	 3.9854221396e-001	 3.0701425442e+000
 9.7415818451e-001	 4.0826449034e-001	 3.1354039908e+000
 9.7003562909e-001	 4.1796523876e-001	 3.1960912135e+000
 9.6580830193e-001	 4.2764282577e-001	 3.2519879942e+000
 9.6147626582e-001	 4.3729561256e-001	 3.3028735856e+000
 9.5703961669e-001	 4.4692195580e-001	 3.3485230375e+000
 9.5249848387e-001	 4.5652020845e-001	 3.3887075418e+000
 9.4785303031e-001	 4.6608872055e-001	 3.4231947949e+000
 9.4310345281e-001	 4.7562584011e-001	 3.4517493776e+000
 9.3824998221e-001	 4.8512991390e-001	 3.4741331518e+000
 9.8790006990e-001	 3.9110062891e-001	 3.0130016373e+000
 9.8396396158e-001	 4.0090045192e-001	 3.0756411179e+000
 9.7992243413e-001	 4.1068025656e-001	 3.1338513709e+000
 9.7577548489e-001	 4.2043840586e-001	 3.1874154207e+000
 9.7152314396e-001	 4.3017325669e-001	 3.2361114023e+000
 9.6716547450e-001	 4.3988316057e-001	 3.2797128774e+000
 9.6270257301e-001	 4.4956646442e-001	 3.3179891707e+000
 9.5813456957e-001	 4.5922151147e-001	 3.3507057237e+000
 9.5346162812e-001	 4.6884664198e-001	 3.3776244676e+000
 9.4868394662e-001	 4.7844019420e-001	 3.3985042126e+000
 9.4380175725e-001	 4.8800050512e-001	 3.4131010556e+000
 8.8828400685e-001	 4.5929459305e-001	 4.4138628682e+000
 8.8359089566e-001	 4.6825968131e-001	 4.4957146965e+000
 8.7879995843e-001	 4.7719035311e-001	 4.5781646293e+000
 8.7391151114e-001	 4.8608504475e-001	 4.6611861585e+000
 8.6892590245e-001	 4.9494219467e-001	 4.7447467322e+000
 8.6384351377e-001	 5.0376024430e-001	 4.8288079079e+000
 8.5866475923e-001	 5.1253763888e-001	 4.9133255202e+000
 8.5339008574e-001	 5.2127282835e-001	 4.9982498635e+000
 8.4801997294e-001	 5.2996426816e-001	 5.0835258887e+000
 8.4255493313e-001	 5.3861042014e-001	 5.1690934131e+000
 8.3699551125e-001	 5.4720975336e-001	 5.2548873444e+000
 8.9383578189e-001	 4.6216518425e-001	 4.2732630026e+000
 8.8911333875e-001	 4.7118630431e-001	 4.3498578740e+000
 8.8429245816e-001	 4.8017279281e-001	 4.4270888390e+000
 8.7937345807e-001	 4.8912307628e-001	 4.5049213455e+000
 8.7435668933e-001	 4.9803558339e-001	 4.5833146522e+000
 8.6924253572e-001	 5.0690874583e-001	 4.6622219930e+000
 8.6403141397e-001	 5.1574099912e-001	 4.7415907563e+000
 8.5872377377e-001	 5.2453078353e-001	 4.8213626806e+000
 8.5332009776e-001	 5.3327654483e-001	 4.9014740628e+000
 8.4782090145e-001	 5.4197673526e-001	 4.9818559817e+000
 8.4222673318e-001	 5.5062981432e-001	 5.0624345347e+000
 8.9938755692e-001	 4.6503577545e-001	 4.1420123764e+000
 8.9463578184e-001	 4.7411292731e-001	 4.2133085820e+000
 8.8978495789e-001	 4.8315523251e-001	 4.2852794072e+000
 8.8483540501e-001	 4.9216110780e-001	 4.3578822101e+000
 8.7978747622e-001	 5.0112897210e-001	 4.4310680125e+000
 8.7464155767e-001	 5.1005724735e-001	 4.5047816758e+000
 8.6939806870e-001	 5.1894435937e-001	 4.5789620926e+000
 8.6405746180e-001	 5.2778873870e-001	 4.6535423938e+000
 8.5862022258e-001	 5.3658882151e-001	 4.7284501699e+000
 8.5308686978e-001	 5.4534305039e-001	 4.8036077079e+000
 8.4745795512e-001	 5.5404987528e-001	 4.8789322402e+000
 9.0493933196e-001	 4.6790636666e-001	 4.0199760979e+000
 9.0015822493e-001	 4.7703955032e-001	 4.0859341915e+000
 8.9527745762e-001	 4.8613767222e-001	 4.1526059737e+000
 8.9029735194e-001	 4.9519913933e-001	 4.2199406654e+000
 8.8521826310e-001	 5.0422236082e-001	 4.2878810028e+000
 8.8004057963e-001	 5.1320574888e-001	 4.3563634249e+000
 8.7476472344e-001	 5.2214771961e-001	 4.4253182764e+000
 8.6939114982e-001	 5.3104669388e-001	 4.4946700279e+000
 8.6392034740e-001	 5.3990109818e-001	 4.5643375099e+000
 8.5835283810e-001	 5.4870936552e-001	 4.6342341619e+000
 8.5268917706e-001	 5.5746993624e-001	 4.7042682959e+000
 9.1049110700e-001	 4.7077695786e-001	 3.9070227706e+000
 9.0568066802e-001	 4.7996617332e-001	 3.9676055262e+000
 9.0076995736e-001	 4.8912011192e-001	 4.0289415885e+000
 8.9575929888e-001	 4.9823717086e-001	 4.0909719929e+000
 8.9064904998e-001	 5.0731574953e-001	 4.1536311395e+000
 8.8543960158e-001	 5.1635425040e-001	 4.2168469928e+000
 8.8013137818e-001	 5.2535107985e-001	 4.2805412971e+000
 8.7472483785e-001	 5.3430464906e-001	 4.3446298082e+000
 8.6922047223e-001	 5.4321337486e-001	 4.4090225409e+000
 8.6361880643e-001	 5.5207568064e-001	 4.4736240310e+000
 8.5792039900e-001	 5.6088999720e-001	 4.5383336122e+000
 9.1604288203e-001	 4.7364754907e-001	 3.8030243870e+000
 9.1120311112e-001	 4.8289279633e-001	 3.8581967580e+000
 9.0626245709e-001	 4.9210255163e-001	 3.9141626093e+000
 9.0122124582e-001	 5.0127520239e-001	 3.9708547403e+000
 8.9607983687e-001	 5.1040913825e-001	 4.0281991638e+000
 8.9083862354e-001	 5.1950275193e-001	 4.0861153166e+000
 8.8549803292e-001	 5.2855444010e-001	 4.1445162880e+000
 8.8005852589e-001	 5.3756260424e-001	 4.2033090631e+000
 8.7452059705e-001	 5.4652565154e-001	 4.2623947841e+000
 8.6888477476e-001	 5.5544199577e-001	 4.3216690249e+000
 8.6315162094e-001	 5.6431005816e-001	 4.3810220822e+000
 9.2159465708e-001	 4.7651814027e-001	 3.7078562270e+000
 9.1672555421e-001	 4.8581941934e-001	 3.7575853061e+000
 9.1175495683e-001	 4.9508499134e-001	 3.8081486008e+000
 9.0668319277e-001	 5.0431323392e-001	 3.8594706233e+000
 9.0151062376e-001	 5.1350252697e-001	 3.9114689454e+000
 8.9623764550e-001	 5.2265125346e-001	 3.9640544221e+000
 8.9086468766e-001	 5.3175780034e-001	 4.0171314314e+000
 8.8539221392e-001	 5.4082055942e-001	 4.0705981307e+000
 8.7982072188e-001	 5.4983792822e-001	 4.1243467311e+000
 8.7415074309e-001	 5.5880831090e-001	 4.1782637852e+000
 8.6838284289e-001	 5.6773011913e-001	 4.2322304918e+000
 9.2714643212e-001	 4.7938873148e-001	 3.6213967592e+000
 9.2224799731e-001	 4.8874604235e-001	 3.6656517399e+000
 9.1724745657e-001	 4.9806743105e-001	 3.7107822398e+000
 9.1214513971e-001	 5.0735126545e-001	 3.7567044303e+000
 9.0694141065e-001	 5.1659591569e-001	 3.8033273885e+000
 9.0163666746e-001	 5.2579975499e-001	 3.8505533311e+000
 8.9623134241e-001	 5.3496116059e-001	 3.8982778676e+000
 8.9072590195e-001	 5.4407851460e-001	 3.9463902690e+000
 8.8512084671e-001	 5.5315020490e-001	 3.9947737553e+000
 8.7941671142e-001	 5.6217462603e-001	 4.0433057968e+000
 8.7361406483e-001	 5.7115018009e-001	 4.0918584327e+000
 9.3269820716e-001	 4.8225932269e-001	 3.5435275459e+000
 9.2777044041e-001	 4.9167266536e-001	 3.5822796853e+000
 9.2273995631e-001	 5.0104987076e-001	 3.6219492215e+000
 9.1760708665e-001	 5.1038929699e-001	 3.6624439315e+000
 9.1237219754e-001	 5.1968930441e-001	 3.7036643413e+000
 9.0703568942e-001	 5.2894825652e-001	 3.7455039724e+000
 9.0159799716e-001	 5.3816452084e-001	 3.7878496066e+000
 8.9605958999e-001	 5.4733646978e-001	 3.8305815686e+000
 8.9042097155e-001	 5.5646248158e-001	 3.8735740259e+000
 8.8468267975e-001	 5.6554094116e-001	 3.9166953041e+000
 8.7884528678e-001	 5.7457024105e-001	 3.9598082194e+000
 9.3824998221e-001	 4.8512991390e-001	 3.4741331518e+000
 9.3329288351e-001	 4.9459928837e-001	 3.5073557339e+000
 9.2823245605e-001	 5.0403231047e-001	 3.5415381711e+000
 9.2306903360e-001	 5.1342732852e-001	 3.5765797904e+000
 9.1780298443e-001	 5.2278269313e-001	 3.6123725095e+000
 9.1243471138e-001	 5.3209675805e-001	 3.6488010958e+000
 9.0696465190e-001	 5.4136788108e-001	 3.6857434434e+000
 9.0139327803e-001	 5.5059442496e-001	 3.7230708692e+000
 8.9572109638e-001	 5.5977475826e-001	 3.7606484253e+000
 8.8994864809e-001	 5.6890725629e-001	 3.7983352290e+000
 8.8407650873e-001	 5.7799030201e-001	 3.8359848082e+000
 9.4380175725e-001	 4.8800050512e-001	 3.4131010556e+000
 9.3881532661e-001	 4.9752591139e-001	 3.4407693561e+000
 9.3372495580e-001	 5.0701475018e-001	 3.4694405571e+000
 9.2853098055e-001	 5.1646536006e-001	 3.4990054786e+000
 9.2323377133e-001	 5.2587608185e-001	 3.5293473716e+000
 9.1783373335e-001	 5.3524525959e-001	 3.5603421890e+000
 9.1233130665e-001	 5.4457124133e-001	 3.5918588760e+000
 9.0672696607e-001	 5.5385238015e-001	 3.6237596785e+000
 9.0102122122e-001	 5.6308703494e-001	 3.6559004694e+000
 8.9521461642e-001	 5.7227357142e-001	 3.6881310919e+000
 8.8930773068e-001	 5.8141036298e-001	 3.7202957199e+000
 8.3699551125e-001	 5.4720975336e-001	 5.2548873444e+000
 8.3134228471e-001	 5.5576074499e-001	 5.3589862442e+000
 8.2559586333e-001	 5.6426188112e-001	 5.4379001997e+000
 8.1975688910e-001	 5.7271165764e-001	 5.4913168518e+000
 8.1382603608e-001	 5.8110858109e-001	 5.5189427745e+000
 8.0780401013e-001	 5.8945116950e-001	 5.5205041242e+000
 8.0169154872e-001	 5.9773795322e-001	 5.4957472692e+000
 7.9548942062e-001	 6.0596747576e-001	 5.4444393996e+000
 7.8919842564e-001	 6.1413829464e-001	 5.3663691138e+000
 7.8281939432e-001	 6.2224898220e-001	 5.2613469822e+000
 7.7635318757e-001	 6.3029812637e-001	 5.2811278687e+000
 8.4222673318e-001	 5.5062981432e-001	 5.0624345347e+000
 8.3653817398e-001	 5.5923424965e-001	 5.1572872096e+000
 8.3075583746e-001	 5.6778851788e-001	 5.2261582812e+000
 8.2488036965e-001	 5.7629110550e-001	 5.2687262293e+000
 8.1891244880e-001	 5.8474050973e-001	 5.2846892643e+000
 8.1285278519e-001	 5.9313523931e-001	 5.2737659956e+000
 8.0670212090e-001	 6.0147381543e-001	 5.2356960805e+000
 8.0046122950e-001	 6.0975477249e-001	 5.1702408501e+000
 7.9413091580e-001	 6.1797665899e-001	 5.0771839140e+000
 7.8771201554e-001	 6.2613803834e-001	 4.9882751468e+000
 7.8120539500e-001	 6.3423748967e-001	 5.0698911177e+000
 8.4745795512e-001	 5.5404987528e-001	 4.8789322402e+000
 8.4173406326e-001	 5.6270775430e-001	 4.9645344907e+000
 8.3591581160e-001	 5.7131515464e-001	 5.0233677329e+000
 8.3000385020e-001	 5.7987055336e-001	 5.0551012357e+000
 8.2399886152e-001	 5.8837243836e-001	 5.0594247895e+000
 8.1790156025e-001	 5.9681930912e-001	 5.0360493941e+000
 8.1171269307e-001	 6.0520967764e-001	 4.9847079262e+000
 8.0543303837e-001	 6.1354206921e-001	 4.9051557837e+000
 7.9906340596e-001	 6.2181502334e-001	 4.7971715057e+000
 7.9260463676e-001	 6.3002709448e-001	 4.8002806590e+000
 7.8605760242e-001	 6.3817685296e-001	 4.8657900890e+000
 8.5268917706e-001	 5.5746993624e-001	 4.7042682959e+000
 8.4692995253e-001	 5.6618125896e-001	 4.7806175470e+000
 8.4107578574e-001	 5.7484179139e-001	 4.8294194603e+000
 8.3512733075e-001	 5.8345000123e-001	 4.8503340419e+000
 8.2908527424e-001	 5.9200436700e-001	 4.8430426040e+000
 8.2295033531e-001	 6.0050337894e-001	 4.8072484729e+000
 8.1672326525e-001	 6.0894553985e-001	 4.7426776744e+000
 8.1040484725e-001	 6.1732936594e-001	 4.6490795967e+000
 8.0399589612e-001	 6.2565338768e-001	 4.5439980091e+000
 7.9749725797e-001	 6.3391615063e-001	 4.6192548855e+000
 7.9090980985e-001	 6.4211621625e-001	 4.6686796493e+000
 8.5792039900e-001	 5.6088999720e-001	 4.5383336122e+000
 8.5212584181e-001	 5.6965476362e-001	 4.6054288881e+000
 8.4623575989e-001	 5.7836842815e-001	 4.6442073976e+000
 8.4025081131e-001	 5.8702944909e-001	 4.6543198304e+000
 8.3417168696e-001	 5.9563629563e-001	 4.6354389612e+000
 8.2799911037e-001	 6.0418744875e-001	 4.5872603768e+000
 8.2173383743e-001	 6.1268140206e-001	 4.5095031808e+000
 8.1537665613e-001	 6.2111666267e-001	 4.4019106739e+000
 8.0892838628e-001	 6.2949175203e-001	 4.3851497437e+000
 8.0238987919e-001	 6.3780520677e-001	 4.4450565299e+000
 7.9576201727e-001	 6.4605557955e-001	 4.4784176834e+000
 8.6315162094e-001	 5.6431005816e-001	 4.3810220822e+000
 8.5732173108e-001	 5.7312826828e-001	 4.4388639813e+000
 8.5139573403e-001	 5.8189506492e-001	 4.4676284158e+000
 8.4537429186e-001	 5.9060889696e-001	 4.4669567043e+000
 8.3925809969e-001	 5.9926822427e-001	 4.4365130226e+000
 8.3304788544e-001	 6.0787151856e-001	 4.3759851511e+000
 8.2674440961e-001	 6.1641726427e-001	 4.2850851981e+000
 8.2034846501e-001	 6.2490395940e-001	 4.1635502983e+000
 8.1386087644e-001	 6.3333011637e-001	 4.2329802450e+000
 8.0728250040e-001	 6.4169426291e-001	 4.2775472085e+000
 8.0061422470e-001	 6.4999494284e-001	 4.2948650026e+000
 8.6838284289e-001	 5.6773011913e-001	 4.2322304918e+000
 8.6251762036e-001	 5.7660177294e-001	 4.2808211623e+000
 8.5655570817e-001	 5.8542170168e-001	 4.2995822346e+000
 8.5049777242e-001	 5.9418834482e-001	 4.2881455993e+000
 8.4434451241e-001	 6.0290015290e-001	 4.2461667708e+000
 8.3809666050e-001	 6.1155558838e-001	 4.1733256545e+000
 8.3175498179e-001	 6.2015312649e-001	 4.0693272891e+000
 8.2532027389e-001	 6.2869125613e-001	 4.0300274313e+000
 8.1879336661e-001	 6.3716848072e-001	 4.0873545845e+000
 8.1217512162e-001	 6.4558331906e-001	 4.1165913624e+000
 8.0546643212e-001	 6.5393430614e-001	 4.1178852569e+000
 8.7361406483e-001	 5.7115018009e-001	 4.0918584327e+000
 8.6771350964e-001	 5.8007527760e-001	 4.1312015496e+000
 8.6171568232e-001	 5.8894833844e-001	 4.1399713369e+000
 8.5562125297e-001	 5.9776779268e-001	 4.1177901990e+000
 8.4943092514e-001	 6.0653208154e-001	 4.0643049248e+000
 8.4314543556e-001	 6.1523965819e-001	 3.9791874746e+000
 8.3676555397e-001	 6.2388898870e-001	 3.8621357424e+000
 8.3029208277e-001	 6.3247855285e-001	 3.9054454919e+000
 8.2372585677e-001	 6.4100684507e-001	 3.9481405651e+000
 8.1706774284e-001	 6.4947237520e-001	 3.9620561733e+000
 8.1031863954e-001	 6.5787366943e-001	 3.9473448496e+000
 8.7884528678e-001	 5.7457024105e-001	 3.9598082194e+000
 8.7290939892e-001	 5.8354878226e-001	 3.9899089613e+000
 8.6687565647e-001	 5.9247497520e-001	 3.9887008863e+000
 8.6074473353e-001	 6.0134724055e-001	 3.9557968528e+000
 8.5451733786e-001	 6.1016401018e-001	 3.8908348583e+000
 8.4819421063e-001	 6.1892372801e-001	 3.7934788470e+000
 8.4177612615e-001	 6.2762485091e-001	 3.7294927436e+000
 8.3526389165e-001	 6.3626584958e-001	 3.7871467127e+000
 8.2865834693e-001	 6.4484520941e-001	 3.8152086398e+000
 8.2196036405e-001	 6.5336143134e-001	 3.8138114816e+000
 8.1517084697e-001	 6.6181303273e-001	 3.7831128554e+000
 8.8407650873e-001	 5.7799030201e-001	 3.8359848082e+000
 8.7810528820e-001	 5.8702228692e-001	 3.8568498357e+000
 8.7203563062e-001	 5.9600161196e-001	 3.8456786485e+000
 8.6586821409e-001	 6.0492668841e-001	 3.8020744974e+000
 8.5960375059e-001	 6.1379593881e-001	 3.7256665217e+000
 8.5324298569e-001	 6.2260779782e-001	 3.6161105768e+000
 8.4678669833e-001	 6.3136071312e-001	 3.6313105923e+000
 8.4023570053e-001	 6.4005314631e-001	 3.6750045731e+000
 8.3359083709e-001	 6.4868357376e-001	 3.6884318335e+000
 8.2685298527e-001	 6.5725048749e-001	 3.6717297080e+000
 8.2002305439e-001	 6.6575239602e-001	 3.6250609416e+000
 8.8930773068e-001	 5.8141036298e-001	 3.7202957199e+000
 8.8330117749e-001	 5.9049579158e-001	 3.7319331538e+000
 8.7719560477e-001	 5.9952824872e-001	 3.7108149139e+000
 8.7099169465e-001	 6.0850613628e-001	 3.6565345804e+000
 8.6469016332e-001	 6.1742786745e-001	 3.5687123658e+000
 8.5829176076e-001	 6.2629186763e-001	 3.4784015256e+000
 8.5179727051e-001	 6.3509657533e-001	 3.5391721471e+000
 8.4520750941e-001	 6.4384044304e-001	 3.5688950444e+000
 8.3852332726e-001	 6.5252193810e-001	 3.5676856670e+000
 8.3174560649e-001	 6.6113954363e-001	 3.5356857775e+000
 8.2487526182e-001	 6.6969175932e-001	 3.4730632919e+000
 7.7635318757e-001	 6.3029812637e-001	 5.2811278687e+000
 7.6980069631e-001	 6.3828433156e-001	 5.3163044424e+000
 7.6316284107e-001	 6.4620621937e-001	 5.3306759856e+000
 7.5644057159e-001	 6.5406242942e-001	 5.3247099293e+000
 7.4963486637e-001	 6.6185162011e-001	 5.2988911836e+000
 7.4274673220e-001	 6.6957246936e-001	 5.2537215768e+000
 7.3577720365e-001	 6.7722367538e-001	 5.1897192735e+000
 7.2872734261e-001	 6.8480395737e-001	 5.1074181734e+000
 7.2159823770e-001	 6.9231205626e-001	 5.0073672916e+000
 7.1439100374e-001	 6.9974673538e-001	 4.8901301215e+000
 7.0710678115e-001	 7.0710678115e-001	 4.7562839820e+000
 7.8120539500e-001	 6.3423748967e-001	 5.0698911177e+000
 7.7461195066e-001	 6.4227360863e-001	 5.0950494859e+000
 7.6793260883e-001	 6.5024500824e-001	 5.1015621251e+000
 7.6116832517e-001	 6.5815031961e-001	 5.0898883340e+000
 7.5432008429e-001	 6.6598819274e-001	 5.0605028585e+000
 7.4738889928e-001	 6.7375729730e-001	 5.0138953339e+000
 7.4037581118e-001	 6.8145632336e-001	 4.9505697113e+000
 7.3328188851e-001	 6.8908398211e-001	 4.8710436658e+000
 7.2610822669e-001	 6.9663900662e-001	 4.7758479894e+000
 7.1885594752e-001	 7.0412015249e-001	 4.6655259699e+000
 7.1152619854e-001	 7.1152619854e-001	 4.5406327558e+000
 7.8605760242e-001	 6.3817685296e-001	 4.8657900890e+000
 7.7942320502e-001	 6.4626288571e-001	 4.8806254731e+000
 7.7270237659e-001	 6.5428379712e-001	 4.8789491006e+000
 7.6589607875e-001	 6.6223820980e-001	 4.8612122892e+000
 7.5900530222e-001	 6.7012476537e-001	 4.8278797869e+000
 7.5203106636e-001	 6.7794212524e-001	 4.7794292190e+000
 7.4497441871e-001	 6.8568897133e-001	 4.7163505206e+000
 7.3783643441e-001	 6.9336400685e-001	 4.6391453554e+000
 7.3061821569e-001	 7.0096595698e-001	 4.5483265207e+000
 7.2332089130e-001	 7.0849356959e-001	 4.4444173419e+000
 7.1594561593e-001	 7.1594561593e-001	 4.3279510548e+000
 7.9090980985e-001	 6.4211621625e-001	 4.6686796493e+000
 7.8423445937e-001	 6.5025216279e-001	 4.6728924850e+000
 7.7747214435e-001	 6.5832258600e-001	 4.6627026942e+000
 7.7062383233e-001	 6.6632609999e-001	 4.6385537631e+000
 7.6369052014e-001	 6.7426133800e-001	 4.6009006063e+000
 7.5667323345e-001	 6.8212695318e-001	 4.5502090186e+000
 7.4957302624e-001	 6.8992161931e-001	 4.4869551146e+000
 7.4239098031e-001	 6.9764403159e-001	 4.4116247563e+000
 7.3512820468e-001	 7.0529290734e-001	 4.3247129713e+000
 7.2778583508e-001	 7.1286698669e-001	 4.2267233616e+000
 7.2036503332e-001	 7.2036503332e-001	 4.1181675045e+000
 7.9576201727e-001	 6.4605557955e-001	 4.4784176834e+000
 7.8904571373e-001	 6.5424143987e-001	 4.4717134876e+000
 7.8224191211e-001	 6.6236137487e-001	 4.4526914288e+000
 7.7535158590e-001	 6.7041399017e-001	 4.4217873085e+000
 7.6837573806e-001	 6.7839791063e-001	 4.3794463707e+000
 7.6131540053e-001	 6.8631178111e-001	 4.3261227571e+000
 7.5417163377e-001	 6.9415426729e-001	 4.2622789537e+000
 7.4694552620e-001	 7.0192405633e-001	 4.1883852281e+000
 7.3963819367e-001	 7.0961985770e-001	 4.1049190592e+000
 7.3225077886e-001	 7.1724040379e-001	 4.0123645617e+000
 7.2478445071e-001	 7.2478445071e-001	 3.9112119037e+000
 8.0061422470e-001	 6.4999494284e-001	 4.2948650026e+000
 7.9385696808e-001	 6.5823071694e-001	 4.2769542447e+000
 7.8701167987e-001	 6.6640016375e-001	 4.2487864844e+000
 7.8007933948e-001	 6.7450188036e-001	 4.2107899842e+000
 7.7306095598e-001	 6.8253448326e-001	 4.1634004777e+000
 7.6595756761e-001	 6.9049660905e-001	 4.1070606285e+000
 7.5877024130e-001	 6.9838691526e-001	 4.0422194836e+000
 7.5150007210e-001	 7.0620408107e-001	 3.9693319198e+000
 7.4414818266e-001	 7.1394680805e-001	 3.8888580858e+000
 7.3671572264e-001	 7.2161382089e-001	 3.8012628406e+000
 7.2920386809e-001	 7.2920386809e-001	 3.7070151890e+000
 8.0546643212e-001	 6.5393430614e-001	 4.1178852569e+000
 7.9866822244e-001	 6.6221999402e-001	 4.0884832335e+000
 7.9178144763e-001	 6.7043895262e-001	 4.0508616187e+000
 7.8480709306e-001	 6.7858977055e-001	 4.0054412797e+000
 7.7774617389e-001	 6.8667105589e-001	 3.9526485979e+000
 7.7059973469e-001	 6.9468143699e-001	 3.8929149315e+000
 7.6336884883e-001	 7.0261956324e-001	 3.8266760753e+000
 7.5605461800e-001	 7.1048410581e-001	 3.7543717163e+000
 7.4865817165e-001	 7.1827375841e-001	 3.6764448877e+000
 7.4118066641e-001	 7.2598723800e-001	 3.5933414214e+000
 7.3362328548e-001	 7.3362328548e-001	 3.5055094010e+000
 8.1031863954e-001	 6.5787366943e-001	 3.9473448496e+000
 8.0347947679e-001	 6.6620927110e-001	 3.9061715633e+000
 7.9655121539e-001	 6.7447774150e-001	 3.8587930895e+000
 7.8953484663e-001	 6.8267766074e-001	 3.8056230422e+000
 7.8243139181e-001	 6.9080762852e-001	 3.7470786067e+000
 7.7524190177e-001	 6.9886626493e-001	 3.6835800061e+000
 7.6796745635e-001	 7.0685221121e-001	 3.6155499674e+000
 7.6060916389e-001	 7.1476413055e-001	 3.5434131860e+000
 7.5316816064e-001	 7.2260070877e-001	 3.4675957909e+000
 7.4564561019e-001	 7.3036065510e-001	 3.3885248122e+000
 7.3804270287e-001	 7.3804270287e-001	 3.3066276506e+000
 8.1517084697e-001	 6.6181303273e-001	 3.7831128554e+000
 8.0829073115e-001	 6.7019854817e-001	 3.7298928972e+000
 8.0132098315e-001	 6.7851653037e-001	 3.6724595807e+000
 7.9426260021e-001	 6.8676555093e-001	 3.6112194067e+000
 7.8711660973e-001	 6.9494420115e-001	 3.5465805188e+000
 7.7988406885e-001	 7.0305109287e-001	 3.4789521733e+000
 7.7256606388e-001	 7.1108485919e-001	 3.4087442110e+000
 7.6516370979e-001	 7.1904415529e-001	 3.3363665308e+000
 7.5767814963e-001	 7.2692765912e-001	 3.2622285665e+000
 7.5011055397e-001	 7.3473407220e-001	 3.1867387681e+000
 7.4246212025e-001	 7.4246212025e-001	 3.1103040877e+000
 8.2002305439e-001	 6.6575239602e-001	 3.6250609416e+000
 8.1310198550e-001	 6.7418782525e-001	 3.5595233769e+000
 8.0609075091e-001	 6.8255531925e-001	 3.4917421300e+000
 7.9899035378e-001	 6.9085344112e-001	 3.4221167280e+000
 7.9180182765e-001	 6.9908077378e-001	 3.3510464248e+000
 7.8452623593e-001	 7.0723592081e-001	 3.2789296759e+000
 7.7716467140e-001	 7.1531750717e-001	 3.2061636152e+000
 7.6971825568e-001	 7.2332418002e-001	 3.1331435379e+000
 7.6218813862e-001	 7.3125460948e-001	 3.0602623880e+000
 7.5457549775e-001	 7.3910748930e-001	 2.9879102537e+000
 7.4688153764e-001	 7.4688153764e-001	 2.9164738699e+000
 8.2487526182e-001	 6.6969175932e-001	 3.4730632919e+000
 8.1791323986e-001	 6.7817710233e-001	 3.3949415490e+000
 8.1086051867e-001	 6.8659410813e-001	 3.3165240603e+000
 8.0371810736e-001	 6.9494133131e-001	 3.2382035156e+000
 7.9648704556e-001	 7.0321734641e-001	 3.1603704303e+000
 7.8916840301e-001	 7.1142074874e-001	 3.0834126225e+000
 7.8176327893e-001	 7.1955015514e-001	 3.0077146964e+000
 7.7427280157e-001	 7.2760420476e-001	 2.9336575332e+000
 7.6669812761e-001	 7.3558155983e-001	 2.8616177899e+000
 7.5904044152e-001	 7.4348090640e-001	 2.7919674082e+000
 7.5130095502e-001	 7.5130095503e-001	 2.7250731336e+000
 7.0710678115e-001	 7.0710678115e-001	 4.7562839820e+000
 6.9974673538e-001	 7.1439100374e-001	 4.6116570059e+000
 6.9231205626e-001	 7.2159823770e-001	 4.4653904287e+000
 6.8480395737e-001	 7.2872734261e-001	 4.3178410525e+000
 6.7722367538e-001	 7.3577720365e-001	 4.1693634868e+000
 6.6957246936e-001	 7.4274673220e-001	 4.0203097334e+000
 6.6185162011e-001	 7.4963486637e-001	 3.8710287799e+000
 6.5406242942e-001	 7.5644057159e-001	 3.7218662028e+000
 6.4620621937e-001	 7.6316284107e-001	 3.5731637794e+000
 6.3828433156e-001	 7.6980069631e-001	 3.4252591120e+000
 6.3029812637e-001	 7.7635318757e-001	 3.2784852624e+000
 7.1152619854e-001	 7.1152619854e-001	 4.5406327558e+000
 7.0412015249e-001	 7.1885594752e-001	 4.4011872291e+000
 6.9663900662e-001	 7.2610822669e-001	 4.2591670121e+000
 6.8908398211e-001	 7.3328188851e-001	 4.1149361001e+000
 6.8145632336e-001	 7.4037581118e-001	 3.9688571569e+000
 6.7375729730e-001	 7.4738889928e-001	 3.8212910891e+000
 6.6598819274e-001	 7.5432008429e-001	 3.6725966279e+000
 6.5815031961e-001	 7.6116832517e-001	 3.5231299192e+000
 6.5024500824e-001	 7.6793260883e-001	 3.3732441226e+000
 6.4227360863e-001	 7.7461195066e-001	 3.2232890199e+000
 6.3423748967e-001	 7.8120539500e-001	 3.0736106348e+000
 7.1594561593e-001	 7.1594561593e-001	 4.3279510548e+000
 7.0849356959e-001	 7.2332089130e-001	 4.1937632345e+000
 7.0096595698e-001	 7.3061821569e-001	 4.0560786835e+000
 6.9336400685e-001	 7.3783643441e-001	 3.9152685625e+000
 6.8568897133e-001	 7.4497441871e-001	 3.7717035526e+000
 6.7794212524e-001	 7.5203106636e-001	 3.6257534188e+000
 6.7012476537e-001	 7.5900530222e-001	 3.4777865806e+000
 6.6223820980e-001	 7.6589607875e-001	 3.3281696887e+000
 6.5428379712e-001	 7.7270237659e-001	 3.1772672109e+000
 6.4626288571e-001	 7.7942320502e-001	 3.0254410259e+000
 6.3817685296e-001	 7.8605760242e-001	 2.8730500272e+000
 7.2036503332e-001	 7.2036503332e-001	 4.1181675045e+000
 7.1286698669e-001	 7.2778583508e-001	 3.9893120917e+000
 7.0529290734e-001	 7.3512820468e-001	 3.8560507443e+000
 6.9764403159e-001	 7.4239098031e-001	 3.7187617617e+000
 6.8992161931e-001	 7.4957302624e-001	 3.5778238065e+000
 6.8212695318e-001	 7.5667323345e-001	 3.4336154572e+000
 6.7426133800e-001	 7.6369052014e-001	 3.2865147672e+000
 6.6632609999e-001	 7.7062383233e-001	 3.1368988290e+000
 6.5832258600e-001	 7.7747214435e-001	 2.9851433465e+000
 6.5025216279e-001	 7.8423445937e-001	 2.8316222141e+000
 6.4211621625e-001	 7.9090980985e-001	 2.6767071054e+000
 7.2478445071e-001	 7.2478445071e-001	 3.9112119037e+000
 7.1724040379e-001	 7.3225077886e-001	 3.7877620786e+000
 7.0961985770e-001	 7.3963819367e-001	 3.6590097448e+000
 7.0192405633e-001	 7.4694552620e-001	 3.5253403147e+000
 6.9415426729e-001	 7.5417163377e-001	 3.3871403976e+000
 6.8631178111e-001	 7.6131540053e-001	 3.2447973419e+000
 6.7839791063e-001	 7.6837573806e-001	 3.0986987819e+000
 6.7041399017e-001	 7.7535158590e-001	 2.9492321906e+000
 6.6236137487e-001	 7.8224191211e-001	 2.7967844371e+000
 6.5424143987e-001	 7.8904571373e-001	 2.6417413525e+000
 6.4605557955e-001	 7.9576201727e-001	 2.4844873020e+000
 7.2920386809e-001	 7.2920386809e-001	 3.7070151890e+000
 7.2161382089e-001	 7.3671572264e-001	 3.5890426451e+000
 7.1394680805e-001	 7.4414818266e-001	 3.4648834465e+000
 7.0620408107e-001	 7.5150007210e-001	 3.3349300942e+000
 6.9838691526e-001	 7.5877024130e-001	 3.1995771105e+000
 6.9049660905e-001	 7.6595756761e-001	 3.0592205710e+000
 6.8253448326e-001	 7.7306095598e-001	 2.9142576400e+000
 6.7450188036e-001	 7.8007933948e-001	 2.7650861101e+000
 6.6640016375e-001	 7.8701167987e-001	 2.6121039473e+000
 6.5823071694e-001	 7.9385696808e-001	 2.4557088413e+000
 6.4999494284e-001	 8.0061422470e-001	 2.2962977630e+000
 7.3362328548e-001	 7.3362328548e-001	 3.5055094010e+000
 7.2598723800e-001	 7.4118066641e-001	 3.3930843774e+000
 7.1827375841e-001	 7.4865817165e-001	 3.2736007853e+000
 7.1048410581e-001	 7.5605461800e-001	 3.1474581905e+000
 7.0261956324e-001	 7.6336884883e-001	 3.0150589956e+000
 6.9468143699e-001	 7.7059973469e-001	 2.8768079621e+000
 6.8667105589e-001	 7.7774617389e-001	 2.7331117343e+000
 6.7858977055e-001	 7.8480709306e-001	 2.5843783658e+000
 6.7043895262e-001	 7.9178144763e-001	 2.4310168516e+000
 6.6221999402e-001	 7.9866822244e-001	 2.2734366642e+000
 6.5393430614e-001	 8.0546643212e-001	 2.1120472959e+000
 7.3804270287e-001	 7.3804270287e-001	 3.3066276506e+000
 7.3036065510e-001	 7.4564561019e-001	 3.1998189644e+000
 7.2260070877e-001	 7.5316816064e-001	 3.0850918369e+000
 7.1476413055e-001	 7.6060916389e-001	 2.9628528753e+000
 7.0685221121e-001	 7.6796745635e-001	 2.8335123316e+000
 6.9886626493e-001	 7.7524190177e-001	 2.6974836130e+000
 6.9080762852e-001	 7.8243139181e-001	 2.5551827946e+000
 6.8267766074e-001	 7.8953484663e-001	 2.4070281339e+000
 6.7447774150e-001	 7.9655121539e-001	 2.2534395891e+000
 6.6620927110e-001	 8.0347947679e-001	 2.0948383410e+000
 6.5787366943e-001	 8.1031863954e-001	 1.9316463204e+000
 7.4246212025e-001	 7.4246212025e-001	 3.1103040877e+000
 7.3473407220e-001	 7.5011055397e-001	 3.0091791648e+000
 7.2692765912e-001	 7.5767814963e-001	 2.8992877820e+000
 7.1904415529e-001	 7.6516370979e-001	 2.7810435666e+000
 7.1108485919e-001	 7.7256606388e-001	 2.6548645890e+000
 7.0305109287e-001	 7.7988406885e-001	 2.5211728632e+000
 6.9494420115e-001	 7.8711660973e-001	 2.3803938476e+000
 6.8676555093e-001	 7.9426260021e-001	 2.2329559476e+000
 6.7851653037e-001	 8.0132098315e-001	 2.0792900200e+000
 6.7019854817e-001	 8.0829073115e-001	 1.9198288815e+000
 6.6181303273e-001	 8.1517084697e-001	 1.7550068199e+000
 7.4688153764e-001	 7.4688153764e-001	 2.9164738699e+000
 7.3910748930e-001	 7.5457549775e-001	 2.8210987752e+000
 7.3125460948e-001	 7.6218813862e-001	 2.7161208746e+000
 7.2332418002e-001	 7.6971825568e-001	 2.6019607945e+000
 7.1531750717e-001	 7.7716467140e-001	 2.4790443945e+000
 7.0723592081e-001	 7.8452623593e-001	 2.3478022572e+000
 6.9908077378e-001	 7.9180182765e-001	 2.2086691784e+000
 6.9085344112e-001	 7.9899035378e-001	 2.0620836564e+000
 6.8255531925e-001	 8.0609075091e-001	 1.9084873839e+000
 6.7418782525e-001	 8.1310198550e-001	 1.7483247417e+000
 6.6575239602e-001	 8.2002305439e-001	 1.5820422957e+000
 7.5130095502e-001	 7.5130095503e-001	 2.7250731336e+000
 7.4348090640e-001	 7.5904044152e-001	 2.6355125997e+000
 7.3558155983e-001	 7.6669812761e-001	 2.5355244097e+000
 7.2760420476e-001	 7.7427280157e-001	 2.4255361688e+000
 7.1955015514e-001	 7.8176327893e-001	 2.3059814972e+000
 7.1142074874e-001	 7.8916840301e-001	 2.1772995096e+000
 7.0321734641e-001	 7.9648704556e-001	 2.0399342938e+000
 6.9494133131e-001	 8.0371810736e-001	 1.8943343878e+000
 6.8659410813e-001	 8.1086051867e-001	 1.7409522584e+000
 6.7817710233e-001	 8.1791323986e-001	 1.5802437812e+000
 6.6969175932e-001	 8.2487526182e-001	 1.4126677220e+000
 6.3029812637e-001	 7.7635318757e-001	 3.2784852624e+000
 6.2224898220e-001	 7.8281939432e-001	 3.1685666129e+000
 6.1413829464e-001	 7.8919842564e-001	 2.9264463768e+000
 6.0596747576e-001	 7.9548942062e-001	 2.6869291040e+000
 5.9773795322e-001	 8.0169154872e-001	 2.4501827894e+000
 5.8945116950e-001	 8.0780401013e-001	 2.2163710031e+000
 5.8110858109e-001	 8.1382603608e-001	 1.9856529215e+000
 5.7271165764e-001	 8.1975688910e-001	 1.7581833663e+000
 5.6426188112e-001	 8.2559586333e-001	 1.5341128511e+000
 5.5576074499e-001	 8.3134228471e-001	 1.3135876337e+000
 5.4720975336e-001	 8.3699551125e-001	 1.0967497771e+000
 6.3423748967e-001	 7.8120539500e-001	 3.0736106348e+000
 6.2613803834e-001	 7.8771201554e-001	 3.0295988412e+000
 6.1797665899e-001	 7.9413091580e-001	 2.8126325361e+000
 6.0975477249e-001	 8.0046122950e-001	 2.5709447205e+000
 6.0147381543e-001	 8.0670212090e-001	 2.3330704642e+000
 5.9313523931e-001	 8.1285278519e-001	 2.0991363725e+000
 5.8474050973e-001	 8.1891244880e-001	 1.8692638583e+000
 5.7629110550e-001	 8.2488036965e-001	 1.6435692289e+000
 5.6778851788e-001	 8.3075583746e-001	 1.4221637800e+000
 5.5923424965e-001	 8.3653817398e-001	 1.2051538980e+000
 5.5062981432e-001	 8.4222673318e-001	 9.9264116871e-001
 6.3817685296e-001	 7.8605760242e-001	 2.8730500272e+000
 6.3002709448e-001	 7.9260463676e-001	 2.8252662808e+000
 6.2181502334e-001	 7.9906340596e-001	 2.7007529376e+000
 6.1354206921e-001	 8.0543303837e-001	 2.4563029685e+000
 6.0520967764e-001	 8.1171269307e-001	 2.2166995425e+000
 5.9681930912e-001	 8.1790156025e-001	 1.9820325583e+000
 5.8837243836e-001	 8.2399886152e-001	 1.7523859285e+000
 5.7987055336e-001	 8.3000385020e-001	 1.5278377127e+000
 5.7131515464e-001	 8.3591581160e-001	 1.3084602604e+000
 5.6270775430e-001	 8.4173406326e-001	 1.0943203609e+000
 5.5404987528e-001	 8.4745795512e-001	 8.8547940191e-001
 6.4211621625e-001	 7.9090980985e-001	 2.6767071054e+000
 6.3391615063e-001	 7.9749725797e-001	 2.6245689008e+000
 6.2565338768e-001	 8.0399589612e-001	 2.5748127515e+000
 6.1732936594e-001	 8.1040484725e-001	 2.3429372103e+000
 6.0894553985e-001	 8.1672326525e-001	 2.1010154963e+000
 6.0050337894e-001	 8.2295033531e-001	 1.8650173475e+000
 5.9200436700e-001	 8.2908527424e-001	 1.6349894321e+000
 5.8345000123e-001	 8.3512733075e-001	 1.4109718228e+000
 5.7484179139e-001	 8.4107578574e-001	 1.1929981868e+000
 5.6618125896e-001	 8.4692995253e-001	 9.8109598459e-001
 5.5746993624e-001	 8.5268917706e-001	 7.7528667705e-001
 6.4605557955e-001	 7.9576201727e-001	 2.4844873020e+000
 6.3780520677e-001	 8.0238987919e-001	 2.4274229337e+000
 6.2949175203e-001	 8.0892838628e-001	 2.3737637741e+000
 6.2111666267e-001	 8.1537665613e-001	 2.2307817503e+000
 6.1268140206e-001	 8.2173383743e-001	 1.9859644550e+000
 6.0418744875e-001	 8.2799911037e-001	 1.7480488947e+000
 5.9563629563e-001	 8.3417168696e-001	 1.5170447430e+000
 5.8702944909e-001	 8.4025081131e-001	 1.2929543395e+000
 5.7836842815e-001	 8.4623575989e-001	 1.0757729265e+000
 5.6965476362e-001	 8.5212584181e-001	 8.6548889676e-001
 5.6088999720e-001	 8.5792039900e-001	 6.6208404908e-001
 6.4999494284e-001	 8.0061422470e-001	 2.2962977630e+000
 6.4169426291e-001	 8.0728250040e-001	 2.2337460635e+000
 6.3333011637e-001	 8.1386087644e-001	 2.1756128275e+000
 6.2490395940e-001	 8.2034846501e-001	 2.1197718065e+000
 6.1641726427e-001	 8.2674440961e-001	 1.8714931855e+000
 6.0787151856e-001	 8.3304788544e-001	 1.6310857114e+000
 5.9926822427e-001	 8.3925809969e-001	 1.3985223068e+000
 5.9060889696e-001	 8.4537429186e-001	 1.1737678250e+000
 5.8189506492e-001	 8.5139573403e-001	 9.5677933487e-001
 5.7312826828e-001	 8.5732173108e-001	 7.4750641578e-001
 5.6431005816e-001	 8.6315162094e-001	 5.4589146220e-001
 6.5393430614e-001	 8.0546643212e-001	 2.1120472959e+000
 6.4558331906e-001	 8.1217512162e-001	 2.0434573822e+000
 6.3716848072e-001	 8.1879336661e-001	 1.9802894988e+000
 6.2869125613e-001	 8.2532027389e-001	 1.9226707614e+000
 6.2015312649e-001	 8.3175498179e-001	 1.7575490731e+000
 6.1155558838e-001	 8.3809666050e-001	 1.5140866553e+000
 6.0290015290e-001	 8.4434451241e-001	 1.2793926383e+000
 5.9418834482e-001	 8.5049777242e-001	 1.0533946304e+000
 5.8542170168e-001	 8.5655570817e-001	 8.3601177130e-001
 5.7660177294e-001	 8.6251762036e-001	 6.2715507514e-001
 5.6773011913e-001	 8.6838284289e-001	 4.2672778329e-001
 6.5787366943e-001	 8.1031863954e-001	 1.9316463204e+000
 6.4947237520e-001	 8.1706774284e-001	 1.8564773479e+000
 6.4100684507e-001	 8.2372585677e-001	 1.7877244899e+000
 6.3247855285e-001	 8.3029208277e-001	 1.7254854919e+000
 6.2388898870e-001	 8.3676555397e-001	 1.6440801030e+000
 6.1523965819e-001	 8.4314543556e-001	 1.3970109195e+000
 6.0653208154e-001	 8.4943092514e-001	 1.1596263198e+000
 5.9776779268e-001	 8.5562125297e-001	 9.3181690157e-001
 5.8894833844e-001	 8.6171568232e-001	 7.1346411379e-001
 5.8007527760e-001	 8.6771350964e-001	 5.0444064698e-001
 5.7115018009e-001	 8.7361406483e-001	 3.0461083422e-001
 6.6181303273e-001	 8.1517084697e-001	 1.7550068199e+000
 6.5336143134e-001	 8.2196036405e-001	 1.6727277437e+000
 6.4484520941e-001	 8.2865834693e-001	 1.5978495848e+000
 6.3626584958e-001	 8.3526389165e-001	 1.5304410033e+000
 6.2762485091e-001	 8.4177612615e-001	 1.4705609642e+000
 6.1892372801e-001	 8.4819421063e-001	 1.2798180230e+000
 6.1016401018e-001	 8.5451733786e-001	 1.0391939987e+000
 6.0134724055e-001	 8.6074473353e-001	 8.0901658543e-001
 5.9247497520e-001	 8.6687565647e-001	 5.8912977332e-001
 5.8354878226e-001	 8.7290939892e-001	 3.7936816472e-001
 5.7457024105e-001	 8.7884528678e-001	 1.7955742290e-001
 6.6575239602e-001	 8.2002305439e-001	 1.5820422957e+000
 6.5725048749e-001	 8.2685298527e-001	 1.4921316388e+000
 6.4868357376e-001	 8.3359083709e-001	 1.4105976172e+000
 6.4005314631e-001	 8.4023570053e-001	 1.3374800858e+000
 6.3136071312e-001	 8.4678669833e-001	 1.2728083570e+000
 6.2260779782e-001	 8.5324298569e-001	 1.1624678008e+000
 6.1379593881e-001	 8.5960375059e-001	 9.1806638614e-001
 6.0492668841e-001	 8.6586821409e-001	 6.8497543593e-001
 5.9600161196e-001	 8.7203563062e-001	 4.6300170772e-001
 5.8702228692e-001	 8.7810528820e-001	 2.5194194489e-001
 5.7799030201e-001	 8.8407650873e-001	 5.1583373290e-002
 6.6969175932e-001	 8.2487526182e-001	 1.4126677220e+000
 6.6113954363e-001	 8.3174560649e-001	 1.3146133505e+000
 6.5252193810e-001	 8.3852332726e-001	 1.2259024399e+000
 6.4384044304e-001	 8.4520750941e-001	 1.1465463149e+000
 6.3509657533e-001	 8.5179727051e-001	 1.0765449143e+000
 6.2629186763e-001	 8.5829176076e-001	 1.0158868387e+000
 6.1742786745e-001	 8.6469016332e-001	 7.9621425454e-001
 6.0850613628e-001	 8.7099169465e-001	 5.5967501960e-001
 5.9952824872e-001	 8.7719560477e-001	 3.3507243492e-001
 5.9049579158e-001	 8.8330117749e-001	 1.2216560829e-001
 5.8141036298e-001	 8.8930773068e-001	-7.9296445623e-002
 5.4720975336e-001	 8.3699551125e-001	 1.0967497771e+000
 5.3861042014e-001	 8.4255493313e-001	 8.6690231931e-001
 5.2996426816e-001	 8.4801997294e-001	 6.3147231408e-001
 5.2127282835e-001	 8.5339008574e-001	 3.9090496708e-001
 5.1253763888e-001	 8.5866475923e-001	 1.4564810615e-001
 5.0376024430e-001	 8.6384351377e-001	-1.0384812126e-001
 4.9494219467e-001	 8.6892590245e-001	-3.5713155156e-001
 4.8608504475e-001	 8.7391151114e-001	-6.1374830924e-001
 4.7719035311e-001	 8.7879995843e-001	-8.7324311149e-001
 4.6825968131e-001	 8.8359089566e-001	-1.1351595733e+000
 4.5929459305e-001	 8.8828400685e-001	-1.3990405122e+000
 5.5062981432e-001	 8.4222673318e-001	 9.9264116871e-001
 5.4197673526e-001	 8.4782090145e-001	 7.7322132423e-001
 5.3327654483e-001	 8.5332009776e-001	 5.4845568159e-001
 5.2453078353e-001	 8.5872377377e-001	 3.1877024368e-001
 5.1574099912e-001	 8.6403141397e-001	 8.4593558573e-002
 5.0690874583e-001	 8.6924253572e-001	-1.5364355971e-001
 4.9803558339e-001	 8.7435668933e-001	-3.9550831147e-001
 4.8912307628e-001	 8.7937345807e-001	-6.4056619252e-001
 4.8017279281e-001	 8.8429245816e-001	-8.8838127615e-001
 4.7118630431e-001	 8.8911333875e-001	-1.1385164956e+000
 4.6216518425e-001	 8.9383578189e-001	-1.3905339267e+000
 5.5404987528e-001	 8.4745795512e-001	 8.8547940191e-001
 5.4534305039e-001	 8.5308686978e-001	 6.7621607354e-001
 5.3658882151e-001	 8.5862022258e-001	 4.6184190399e-001
 5.2778873870e-001	 8.6405746180e-001	 2.4276377533e-001
 5.1894435937e-001	 8.6939806870e-001	 1.9391038251e-002
 5.1005724735e-001	 8.7464155767e-001	-2.0786474386e-001
 5.0112897210e-001	 8.7978747622e-001	-4.3859005208e-001
 4.9216110780e-001	 8.8483540501e-001	-6.7236967014e-001
 4.8315523251e-001	 8.8978495789e-001	-9.0878694367e-001
 4.7411292731e-001	 8.9463578184e-001	-1.1474240401e+000
 4.6503577545e-001	 8.9938755692e-001	-1.3878622095e+000
 5.5746993624e-001	 8.5268917706e-001	 7.7528667705e-001
 5.4870936552e-001	 8.5835283810e-001	 5.7591499193e-001
 5.3990109818e-001	 8.6392034740e-001	 3.7166568277e-001
 5.3104669388e-001	 8.6939114982e-001	 1.6292658938e-001
 5.2214771961e-001	 8.7476472344e-001	-4.9912056006e-002
 5.1320574888e-001	 8.8004057963e-001	-2.6645786137e-001
 5.0422236082e-001	 8.8521826310e-001	-4.8631650892e-001
 4.9519913933e-001	 8.9029735194e-001	-7.0909199041e-001
 4.8613767222e-001	 8.9527745762e-001	-9.3438684356e-001
 4.7703955032e-001	 9.0015822493e-001	-1.1618023896e+000
 4.6790636666e-001	 9.0493933196e-001	-1.3909389718e+000
 5.6088999720e-001	 8.5792039900e-001	 6.6208404908e-001
 5.5207568064e-001	 8.6361880643e-001	 4.7234521895e-001
 5.4321337486e-001	 8.6922047223e-001	 2.7796029352e-001
 5.3430464906e-001	 8.7472483785e-001	 7.9298145472e-002
 5.2535107985e-001	 8.8013137818e-001	-1.2327003590e-001
 5.1635425040e-001	 8.8543960158e-001	-3.2937095407e-001
 5.0731574953e-001	 8.9064904998e-001	-5.3862941623e-001
 4.9823717086e-001	 8.9575929888e-001	-7.5066854562e-001
 4.8912011192e-001	 9.0076995736e-001	-9.6510999530e-001
 4.7996617332e-001	 9.0568066802e-001	-1.1815741632e+000
 4.7077695786e-001	 9.1049110700e-001	-1.3996804086e+000
 5.6431005816e-001	 8.6315162094e-001	 5.4589146220e-001
 5.5544199577e-001	 8.6888477476e-001	 3.6553264797e-001
 5.4652565154e-001	 8.7452059705e-001	 1.8075762912e-001
 5.3756260424e-001	 8.8005852589e-001	-8.0836169779e-003
 5.2855444010e-001	 8.8549803292e-001	-2.0063887179e-001
 5.1950275193e-001	 8.9083862354e-001	-3.9655386182e-001
 5.1040913825e-001	 8.9607983687e-001	-5.9547244638e-001
 5.0127520239e-001	 9.0122124582e-001	-7.9703680709e-001
 4.9210255163e-001	 9.0626245709e-001	-1.0008876389e+000
 4.8289279633e-001	 9.1120311112e-001	-1.2066643428e+000
 4.7364754907e-001	 9.1604288203e-001	-1.4140052200e+000
 5.6773011913e-001	 8.6838284289e-001	 4.2672778329e-001
 5.5880831090e-001	 8.7415074309e-001	 2.5550196370e-001
 5.4983792822e-001	 8.7982072188e-001	 8.0088241403e-002
 5.4082055942e-001	 8.8539221392e-001	-9.9182232977e-002
 5.3175780034e-001	 8.9086468766e-001	-2.8197614279e-001
 5.2265125346e-001	 8.9623764550e-001	-4.6795816833e-001
 5.1350252697e-001	 9.0151062376e-001	-6.5679115152e-001
 5.0431323392e-001	 9.0668319277e-001	-8.4813626250e-001
 4.9508499134e-001	 9.1175495683e-001	-1.0416531680e+000
 4.8581941934e-001	 9.1672555421e-001	-1.2370002016e+000
 4.7651814027e-001	 9.2159465708e-001	-1.4338345359e+000
 5.7115018009e-001	 8.7361406483e-001	 3.0461083422e-001
 5.6217462603e-001	 8.7941671142e-001	 1.4227667840e-001
 5.5315020490e-001	 8.8512084671e-001	-2.4018618694e-002
 5.4407851460e-001	 8.9072590195e-001	-1.9396266782e-001
 5.3496116059e-001	 8.9623134241e-001	-3.6724098854e-001
 5.2579975499e-001	 9.0163666746e-001	-5.4353714894e-001
 5.1659591569e-001	 9.0694141065e-001	-7.2253290726e-001
 5.0735126545e-001	 9.1214513971e-001	-9.0390835559e-001
 4.9806743105e-001	 9.1724745657e-001	-1.0873420655e+000
 4.8874604235e-001	 9.2224799731e-001	-1.2725112361e+000
 4.7938873148e-001	 9.2714643212e-001	-1.4590918437e+000
 5.7457024105e-001	 8.7884528678e-001	 1.7955742290e-001
 5.6554094116e-001	 8.8468267975e-001	 2.5879166734e-002
 5.5646248158e-001	 8.9042097155e-001	-1.3153496242e-001
 5.4733646978e-001	 8.9605958999e-001	-2.9239127451e-001
 5.3816452084e-001	 9.0159799716e-001	-4.5639406278e-001
 5.2894825652e-001	 9.0703568942e-001	-6.2324572029e-001
 5.1968930441e-001	 9.1237219754e-001	-7.9264685847e-001
 5.1038929699e-001	 9.1760708665e-001	-9.6429642788e-001
 5.0104987076e-001	 9.2273995631e-001	-1.1378918413e+000
 4.9167266536e-001	 9.2777044041e-001	-1.3131290991e+000
 4.8225932269e-001	 9.3269820716e-001	-1.4897029174e+000
 5.7799030201e-001	 8.8407650873e-001	 5.1583373290e-002
 5.6890725629e-001	 8.8994864809e-001	-9.3669300517e-002
 5.5977475826e-001	 8.9572109638e-001	-2.4243402585e-001
 5.5059442496e-001	 9.0139327803e-001	-3.9443575270e-001
 5.4136788108e-001	 9.0696465190e-001	-5.4939748858e-001
 5.3209675805e-001	 9.1243471138e-001	-7.0704039177e-001
 5.2278269313e-001	 9.1780298443e-001	-8.6708386684e-001
 5.1342732852e-001	 9.2306903360e-001	-1.0292456626e+000
 5.0403231047e-001	 9.2823245605e-001	-1.1932419722e+000
 4.9459928837e-001	 9.3329288351e-001	-1.3587875368e+000
 4.8512991390e-001	 9.3824998221e-001	-1.5255957505e+000
 5.8141036298e-001	 8.8930773068e-001	-7.9296445623e-002
 5.7227357142e-001	 8.9521461642e-001	-2.1634852403e-001
 5.6308703494e-001	 9.0102122122e-001	-3.5669023389e-001
 5.5385238015e-001	 9.0672696607e-001	-5.0006510913e-001
 5.4457124133e-001	 9.1233130665e-001	-6.4621481510e-001
 5.3524525959e-001	 9.1783373335e-001	-7.9487921863e-001
 5.2587608185e-001	 9.2323377133e-001	-9.4579646048e-001
 5.1646536006e-001	 9.2853098055e-001	-1.0987030303e+000
 5.0701475018e-001	 9.3372495580e-001	-1.2533338444e+000
 4.9752591139e-001	 9.3881532661e-001	-1.4094223263e+000
 4.8800050512e-001	 9.4380175725e-001	-1.5667004906e+000
 4.5929459305e-001	 8.8828400685e-001	-1.3990405122e+000
 4.5029665337e-001	 8.9287900861e-001	-1.6523952553e+000
 4.4126742776e-001	 8.9737565002e-001	-1.9043546287e+000
 4.3220848139e-001	 9.0177371256e-001	-2.1546434369e+000
 4.2312137829e-001	 9.0607300991e-001	-2.4029874699e+000
 4.1400768054e-001	 9.1027338778e-001	-2.6491136087e+000
 4.0486894748e-001	 9.1437472374e-001	-2.8927499312e+000
 3.9570673493e-001	 9.1837692696e-001	-3.1336258185e+000
 3.8652259441e-001	 9.2227993800e-001	-3.3714720625e+000
 3.7731807239e-001	 9.2608372854e-001	-3.6060209734e+000
 3.6809470955e-001	 9.2978830108e-001	-3.8370064884e+000
 4.6216518425e-001	 8.9383578189e-001	-1.3905339267e+000
 4.5311100745e-001	 8.9845950240e-001	-1.6352958655e+000
 4.4402534917e-001	 9.0298424782e-001	-1.8784280391e+000
 4.3490978439e-001	 9.0740979826e-001	-2.1196779466e+000
 4.2576588690e-001	 9.1173596621e-001	-2.3587940726e+000
 4.1659522854e-001	 9.1596259645e-001	-2.5955259661e+000
 4.0739937840e-001	 9.2008956575e-001	-2.8296243206e+000
 3.9817990202e-001	 9.2411678275e-001	-3.0608410559e+000
 3.8893836062e-001	 9.2804418762e-001	-3.2889294000e+000
 3.7967631034e-001	 9.3187175185e-001	-3.5136439728e+000
 3.7039530149e-001	 9.3559947796e-001	-3.7347408713e+000
 4.6503577545e-001	 8.9938755692e-001	-1.3878622095e+000
 4.5592536152e-001	 9.0403999620e-001	-1.6243598503e+000
 4.4678327059e-001	 9.0859284563e-001	-1.8589965193e+000
 4.3761108739e-001	 9.1304588395e-001	-2.0915422938e+000
 4.2841039551e-001	 9.1739892252e-001	-2.3217682346e+000
 4.1918277654e-001	 9.2165180512e-001	-2.5494464396e+000
 4.0992980932e-001	 9.2580440777e-001	-2.7743500980e+000
 4.0065306911e-001	 9.2985663854e-001	-2.9962535465e+000
 3.9135412683e-001	 9.3380843723e-001	-3.2149323270e+000
 3.8203454829e-001	 9.3765977515e-001	-3.4301632461e+000
 3.7269589343e-001	 9.4141065484e-001	-3.6417244362e+000
 4.6790636666e-001	 9.0493933196e-001	-1.3909389718e+000
 4.5873971560e-001	 9.0962048999e-001	-1.6194934331e+000
 4.4954119201e-001	 9.1420144344e-001	-1.8459588461e+000
 4.4031239040e-001	 9.1868196965e-001	-2.0701277537e+000
 4.3105490412e-001	 9.2306187883e-001	-2.2917936792e+000
 4.2177032454e-001	 9.2734101379e-001	-2.5107511542e+000
 4.1246024023e-001	 9.3151924980e-001	-2.7267957470e+000
 4.0312623620e-001	 9.3559649433e-001	-2.9397240943e+000
 3.9376989305e-001	 9.3957268684e-001	-3.1493339335e+000
 3.8439278625e-001	 9.4344779845e-001	-3.3554241385e+000
 3.7499648536e-001	 9.4722183172e-001	-3.5577947574e+000
 4.7077695786e-001	 9.1049110700e-001	-1.3996804086e+000
 4.6155406968e-001	 9.1520098379e-001	-1.6206055875e+000
 4.5229911343e-001	 9.1981004124e-001	-1.8392167150e+000
 4.4301369340e-001	 9.2431805535e-001	-2.0553286903e+000
 4.3369941273e-001	 9.2872483513e-001	-2.2687573894e+000
 4.2435787254e-001	 9.3303022246e-001	-2.4793196662e+000
 4.1499067115e-001	 9.3723409182e-001	-2.6868333563e+000
 4.0559940329e-001	 9.4133635012e-001	-2.8911172825e+000
 3.9618565926e-001	 9.4533693645e-001	-3.0919912636e+000
 3.8675102420e-001	 9.4923582176e-001	-3.2892761256e+000
 3.7729707730e-001	 9.5303300861e-001	-3.4827937158e+000
 4.7364754907e-001	 9.1604288203e-001	-1.4140052200e+000
 4.6436842376e-001	 9.2078147759e-001	-1.6276079548e+000
 4.5505703485e-001	 9.2541863905e-001	-1.8386746520e+000
 4.4571499641e-001	 9.2995414105e-001	-2.0470424626e+000
 4.3634392134e-001	 9.3438779144e-001	-2.2525495089e+000
 4.2694542054e-001	 9.3871943113e-001	-2.4550348601e+000
 4.1752110207e-001	 9.4294893384e-001	-2.6543385102e+000
 4.0807257038e-001	 9.4707620592e-001	-2.8503013591e+000
 3.9860142547e-001	 9.5110118606e-001	-3.0427651961e+000
 3.8910926215e-001	 9.5502384506e-001	-3.2315726878e+000
 3.7959766923e-001	 9.5884418549e-001	-3.4165673684e+000
 4.7651814027e-001	 9.2159465708e-001	-1.4338345359e+000
 4.6718277785e-001	 9.2636197140e-001	-1.6404147630e+000
 4.5781495627e-001	 9.3102723687e-001	-1.8442399287e+000
 4.4841629942e-001	 9.3559022675e-001	-2.0451693347e+000
 4.3898842995e-001	 9.4005074776e-001	-2.2430632474e+000
 4.2953296854e-001	 9.4440863980e-001	-2.4377828478e+000
 4.2005153299e-001	 9.4866377586e-001	-2.6291901836e+000
 4.1054573748e-001	 9.5281606171e-001	-2.8171481259e+000
 4.0101719169e-001	 9.5686543567e-001	-3.0015203281e+000
 3.9146750010e-001	 9.6081186836e-001	-3.1821711895e+000
 3.8189826117e-001	 9.6465536237e-001	-3.3589658225e+000
 4.7938873148e-001	 9.2714643212e-001	-1.4590918437e+000
 4.6999713193e-001	 9.3194246520e-001	-1.6589427497e+000
 4.6057287770e-001	 9.3663583468e-001	-1.8558224796e+000
 4.5111760243e-001	 9.4122631246e-001	-2.0496123885e+000
 4.4163293857e-001	 9.4571370407e-001	-2.2401947884e+000
 4.3212051655e-001	 9.5009784847e-001	-2.4274528721e+000
 4.2258196392e-001	 9.5437861788e-001	-2.6112706403e+000
 4.1301890457e-001	 9.5855591750e-001	-2.7915328330e+000
 4.0343295791e-001	 9.6262968529e-001	-2.9681248647e+000
 3.9382573806e-001	 9.6659989167e-001	-3.1409327633e+000
 3.8419885310e-001	 9.7046653926e-001	-3.3098431145e+000
 4.8225932269e-001	 9.3269820716e-001	-1.4897029174e+000
 4.7281148602e-001	 9.3752295900e-001	-1.6831110871e+000
 4.6333079913e-001	 9.4224443249e-001	-1.8733348231e+000
 4.5381890544e-001	 9.4686239816e-001	-2.0602774402e+000
 4.4427744719e-001	 9.5137666038e-001	-2.2438432009e+000
 4.3470806455e-001	 9.5578705715e-001	-2.4239372136e+000
 4.2511239484e-001	 9.6009345991e-001	-2.6004653348e+000
 4.1549207166e-001	 9.6429577330e-001	-2.7733340754e+000
 4.0584872412e-001	 9.6839393490e-001	-2.9424505108e+000
 3.9618397601e-001	 9.7238791497e-001	-3.1077221975e+000
 3.8649944504e-001	 9.7627771614e-001	-3.2690570930e+000
 4.8512991390e-001	 9.3824998221e-001	-1.5255957505e+000
 4.7562584011e-001	 9.4310345281e-001	-1.7128413103e+000
 4.6608872055e-001	 9.4785303031e-001	-1.8966919851e+000
 4.5652020845e-001	 9.5249848387e-001	-2.0770729589e+000
 4.4692195580e-001	 9.5703961669e-001	-2.2539103536e+000
 4.3729561256e-001	 9.6147626582e-001	-2.4271311008e+000
 4.2764282577e-001	 9.6580830193e-001	-2.5966628188e+000
 4.1796523876e-001	 9.7003562909e-001	-2.7624336942e+000
 4.0826449034e-001	 9.7415818451e-001	-2.9243723681e+000
 3.9854221396e-001	 9.7817593828e-001	-3.0824078281e+000
 3.8880003698e-001	 9.8208889302e-001	-3.2364693058e+000
 4.8800050512e-001	 9.4380175725e-001	-1.5667004906e+000
 4.7844019420e-001	 9.4868394662e-001	-1.7480572478e+000
 4.6884664198e-001	 9.5346162812e-001	-1.9258114249e+000
 4.5922151147e-001	 9.5813456957e-001	-2.0999099891e+000
 4.4956646442e-001	 9.6270257301e-001	-2.2703008333e+000
 4.3988316057e-001	 9.6716547450e-001	-2.4369326233e+000
 4.3017325669e-001	 9.7152314396e-001	-2.5997546491e+000
 4.2043840586e-001	 9.7577548489e-001	-2.7587166816e+000
 4.1068025656e-001	 9.7992243413e-001	-2.9137688349e+000
 4.0090045192e-001	 9.8396396158e-001	-3.0648614345e+000
 3.9110062891e-001	 9.8790006990e-001	-3.2119448913e+000
 3.6809470955e-001	 9.2978830108e-001	-3.8370064884e+000
 3.5885404004e-001	 9.3339368862e-001	-4.0702397628e+000
 3.4959759075e-001	 9.3689995439e-001	-4.2992447732e+000
 3.4032688062e-001	 9.4030719147e-001	-4.5238538009e+000
 3.3104341994e-001	 9.4361552239e-001	-4.7439003409e+000
 3.2174870969e-001	 9.4682509884e-001	-4.9592191292e+000
 3.1244424085e-001	 9.4993610118e-001	-5.1696461739e+000
 3.0313149381e-001	 9.5294873809e-001	-5.3750187891e+000
 2.9381193769e-001	 9.5586324609e-001	-5.5751756316e+000
 2.8448702975e-001	 9.5867988915e-001	-5.7699567402e+000
 2.7515821483e-001	 9.6139895816e-001	-5.9592035789e+000
 3.7039530149e-001	 9.3559947796e-001	-3.7347408713e+000
 3.6109687780e-001	 9.3922739918e-001	-3.9599047397e+000
 3.5178257570e-001	 9.4275557911e-001	-4.1808905050e+000
 3.4245392363e-001	 9.4618411142e-001	-4.3975369798e+000
 3.3311244132e-001	 9.4951311941e-001	-4.6096840954e+000
 3.2375963913e-001	 9.5274275572e-001	-4.8171729214e+000
 3.1439701737e-001	 9.5587320182e-001	-5.0198456900e+000
 3.0502606566e-001	 9.5890466771e-001	-5.2175458227e+000
 2.9564826231e-001	 9.6183739139e-001	-5.4101179604e+000
 2.8626507369e-001	 9.6467163846e-001	-5.5974079967e+000
 2.7687795368e-001	 9.6740770166e-001	-5.7792631150e+000
 3.7269589343e-001	 9.4141065484e-001	-3.6417244362e+000
 3.6333971555e-001	 9.4506110973e-001	-3.8588602305e+000
 3.5396756065e-001	 9.4861120383e-001	-4.0718698613e+000
 3.4458096664e-001	 9.5206103137e-001	-4.2805986878e+000
 3.3518146271e-001	 9.5541071643e-001	-4.4848930905e+000
 3.2577056858e-001	 9.5866041259e-001	-4.6846004845e+000
 3.1634979388e-001	 9.6181030246e-001	-4.8795693353e+000
 3.0692063750e-001	 9.6486059733e-001	-5.0696491793e+000
 2.9748458692e-001	 9.6781153668e-001	-5.2546906470e+000
 2.8804311764e-001	 9.7066338778e-001	-5.4345454905e+000
 2.7859769253e-001	 9.7341644516e-001	-5.6090666141e+000
 3.7499648536e-001	 9.4722183172e-001	-3.5577947574e+000
 3.6558255330e-001	 9.5089482029e-001	-3.7669417890e+000
 3.5615254559e-001	 9.5446682855e-001	-3.9720163603e+000
 3.4670800965e-001	 9.5793795132e-001	-4.1728703933e+000
 3.3725048409e-001	 9.6130831345e-001	-4.3693567329e+000
 3.2778149802e-001	 9.6457806946e-001	-4.5613291518e+000
 3.1830257039e-001	 9.6774740310e-001	-4.7486423599e+000
 3.0881520934e-001	 9.7081652695e-001	-4.9311520170e+000
 2.9932091154e-001	 9.7378568198e-001	-5.1087147501e+000
 2.8982116158e-001	 9.7665513709e-001	-5.2811881745e+000
 2.8031743137e-001	 9.7942518865e-001	-5.4484309182e+000
 3.7729707730e-001	 9.5303300861e-001	-3.4827937158e+000
 3.6782539105e-001	 9.5672853084e-001	-3.6839893120e+000
 3.5833753054e-001	 9.6032245327e-001	-3.8811678998e+000
 3.4883505266e-001	 9.6381487127e-001	-4.0741879823e+000
 3.3931950547e-001	 9.6720591047e-001	-4.2629088842e+000
 3.2979242746e-001	 9.7049572633e-001	-4.4471907500e+000
 3.2025534690e-001	 9.7368450374e-001	-4.6268945457e+000
 3.1070978119e-001	 9.7677245657e-001	-4.8018820647e+000
 3.0115723616e-001	 9.7975982727e-001	-4.9720159385e+000
 2.9159920552e-001	 9.8264688640e-001	-5.1371596513e+000
 2.8203717022e-001	 9.8543393214e-001	-5.2971775591e+000
 3.7959766923e-001	 9.5884418549e-001	-3.4165673684e+000
 3.7006822881e-001	 9.6256224140e-001	-3.6098469074e+000
 3.6052251548e-001	 9.6617807798e-001	-3.7991666251e+000
 3.5096209566e-001	 9.6969179122e-001	-3.9843916240e+000
 3.4138852684e-001	 9.7310350749e-001	-4.1653877261e+000
 3.3180335690e-001	 9.7641338320e-001	-4.3420214628e+000
 3.2220812341e-001	 9.7962160437e-001	-4.5141600693e+000
 3.1260435303e-001	 9.8272838618e-001	-4.6816714838e+000
 3.0299356077e-001	 9.8573397256e-001	-4.8444243515e+000
 2.9337724946e-001	 9.8863863571e-001	-5.0022880327e+000
 2.8375690907e-001	 9.9144267564e-001	-5.1551326164e+000
 3.8189826117e-001	 9.6465536237e-001	-3.3589658225e+000
 3.7231106656e-001	 9.6839595196e-001	-3.5443627682e+000
 3.6270750043e-001	 9.7203370270e-001	-3.7258588005e+000
 3.5308913867e-001	 9.7556871117e-001	-3.9033256421e+000
 3.4345754822e-001	 9.7900110451e-001	-4.0766356303e+000
 3.3381428634e-001	 9.8233104008e-001	-4.2456616998e+000
 3.2416089992e-001	 9.8555870501e-001	-4.4102773694e+000
 3.1449892486e-001	 9.8868431580e-001	-4.5703567345e+000
 3.0482988538e-001	 9.9170811786e-001	-4.7257744642e+000
 2.9515529340e-001	 9.9463038503e-001	-4.8764058036e+000
 2.8547664791e-001	 9.9745141913e-001	-5.0221265805e+000
 3.8419885310e-001	 9.7046653926e-001	-3.3098431145e+000
 3.7455390431e-001	 9.7422966251e-001	-3.4873890495e+000
 3.6489248537e-001	 9.7788932742e-001	-3.6610946867e+000
 3.5521618168e-001	 9.8144563112e-001	-3.8308383905e+000
 3.4552656960e-001	 9.8489870152e-001	-3.9964990332e+000
 3.3582521577e-001	 9.8824869695e-001	-4.1579559701e+000
 3.2611367643e-001	 9.9149580564e-001	-4.3150890194e+000
 3.1639349670e-001	 9.9464024542e-001	-4.4677784472e+000
 3.0666621000e-001	 9.9768226315e-001	-4.6159049580e+000
 2.9693333734e-001	 1.0006221343e+000	-4.7593496909e+000
 2.8719638676e-001	 1.0034601626e+000	-4.8979942204e+000
 3.8649944504e-001	 9.7627771614e-001	-3.2690570930e+000
 3.7679674206e-001	 9.8006337307e-001	-3.4387817505e+000
 3.6707747031e-001	 9.8374495213e-001	-3.6047284210e+000
 3.5734322468e-001	 9.8732255106e-001	-3.7667821330e+000
 3.4759559097e-001	 9.9079629854e-001	-3.9248283143e+000
 3.3783614521e-001	 9.9416635382e-001	-4.0787527600e+000
 3.2806645293e-001	 9.9743290628e-001	-4.2284416042e+000
 3.1828806854e-001	 1.0005961750e+000	-4.3737812982e+000
 3.0850253461e-001	 1.0036564084e+000	-4.5146585949e+000
 2.9871138127e-001	 1.0066138836e+000	-4.6509605378e+000
 2.8891612560e-001	 1.0094689061e+000	-4.7825744566e+000
 3.8880003698e-001	 9.8208889302e-001	-3.2364693058e+000
 3.7903957981e-001	 9.8589708362e-001	-3.3984006015e+000
 3.6926245525e-001	 9.8960057685e-001	-3.5566179034e+000
 3.5947026768e-001	 9.9319947101e-001	-3.7110129278e+000
 3.4966461234e-001	 9.9669389556e-001	-3.8614776805e+000
 3.3984707464e-001	 1.0000840107e+000	-4.0079044158e+000
 3.3001922944e-001	 1.0033700069e+000	-4.1501856015e+000
 3.2018264037e-001	 1.0065521046e+000	-4.2882138903e+000
 3.1033885922e-001	 1.0096305537e+000	-4.4218820971e+000
 3.0048942521e-001	 1.0126056330e+000	-4.5510831815e+000
 2.9063586444e-001	 1.0154776496e+000	-4.6757102381e+000
 3.9110062891e-001	 9.8790006990e-001	-3.2119448913e+000
 3.8128241756e-001	 9.9173079417e-001	-3.3661089533e+000
 3.7144744020e-001	 9.9545620156e-001	-3.5166246851e+000
 3.6159731069e-001	 9.9907639096e-001	-3.6633905161e+000
 3.5173363372e-001	 1.0025914926e+000	-3.8063050527e+000
 3.4185800407e-001	 1.0060016676e+000	-3.9452670295e+000
 3.3197200594e-001	 1.0093071075e+000	-4.0801752674e+000
 3.2207721221e-001	 1.0125080343e+000	-4.2109286372e+000
 3.1217518382e-001	 1.0156046990e+000	-4.3374260304e+000
 3.0226746914e-001	 1.0185973823e+000	-4.4595663360e+000
 2.9235560328e-001	 1.0214863931e+000	-4.5772484238e+000
 2.7515821483e-001	 9.6139895816e-001	-5.9592035789e+000
 2.6582692472e-001	 9.6402077054e-001	-6.1455492216e+000
 2.5649457767e-001	 9.6654566967e-001	-6.3253184907e+000
 2.4716257779e-001	 9.6897402446e-001	-6.4984292347e+000
 2.3783231458e-001	 9.7130622879e-001	-6.6648005975e+000
 2.2850516241e-001	 9.7354270101e-001	-6.8243530071e+000
 2.1918248004e-001	 9.7568388343e-001	-6.9770081691e+000
 2.0986561017e-001	 9.7773024174e-001	-7.1226890627e+000
 2.0055587900e-001	 9.7968226449e-001	-7.2613199422e+000
 1.9125459577e-001	 9.8154046252e-001	-7.3928263410e+000
 1.8196305243e-001	 9.8330536841e-001	-7.5171350803e+000
 2.7687795368e-001	 9.6740770166e-001	-5.7792631150e+000
 2.6748834301e-001	 9.7004590036e-001	-5.9597670146e+000
 2.5809766879e-001	 9.7258658011e-001	-6.1337585275e+000
 2.4870734391e-001	 9.7503011212e-001	-6.3011608778e+000
 2.3931876655e-001	 9.7737689272e-001	-6.4618984699e+000
 2.2993331968e-001	 9.7962734290e-001	-6.6158968731e+000
 2.2055237054e-001	 9.8178190771e-001	-6.7630828086e+000
 2.1117727024e-001	 9.8384105576e-001	-6.9033841429e+000
 2.0180935324e-001	 9.8580527865e-001	-7.0367298837e+000
 1.9244993699e-001	 9.8767509042e-001	-7.1630501811e+000
 1.8310032150e-001	 9.8945102696e-001	-7.2822763320e+000
 2.7859769253e-001	 9.7341644516e-001	-5.6090666141e+000
 2.6914976129e-001	 9.7607103019e-001	-5.7837774389e+000
 2.5970075990e-001	 9.7862749056e-001	-5.9520422635e+000
 2.5025211002e-001	 9.8108619978e-001	-6.1137896832e+000
 2.4080521852e-001	 9.8344755666e-001	-6.2689493571e+000
 2.3136147694e-001	 9.8571198478e-001	-6.4174519862e+000
 2.2192226104e-001	 9.8787993198e-001	-6.5592292971e+000
 2.1248893030e-001	 9.8995186977e-001	-6.6942140298e+000
 2.0306282748e-001	 9.9192829281e-001	-6.8223399302e+000
 1.9364527821e-001	 9.9380971831e-001	-6.9435417473e+000
 1.8423759058e-001	 9.9559668552e-001	-7.0577552344e+000
 2.8031743137e-001	 9.7942518865e-001	-5.4484309182e+000
 2.7081117958e-001	 9.8209616001e-001	-5.6173954223e+000
 2.6130385101e-001	 9.8466840100e-001	-5.7799826993e+000
 2.5179687614e-001	 9.8714228743e-001	-5.9361267130e+000
 2.4229167049e-001	 9.8951822059e-001	-6.0857623714e+000
 2.3278963421e-001	 9.9179662667e-001	-6.2288255000e+000
 2.2329215154e-001	 9.9397795626e-001	-6.3652528205e+000
 2.1380059036e-001	 9.9606268379e-001	-6.4949819344e+000
 2.0431630172e-001	 9.9805130697e-001	-6.6179513115e+000
 1.9484061943e-001	 9.9994434621e-001	-6.7341002833e+000
 1.8537485965e-001	 1.0017423441e+000	-6.8433690405e+000
 2.8203717022e-001	 9.8543393214e-001	-5.2971775591e+000
 2.7247259786e-001	 9.8812128983e-001	-5.4604406180e+000
 2.6290694213e-001	 9.9070931144e-001	-5.6173975971e+000
 2.5334164225e-001	 9.9319837509e-001	-5.7679878268e+000
 2.4377812246e-001	 9.9558888453e-001	-5.9121514599e+000
 2.3421779148e-001	 9.9788126856e-001	-6.0498294396e+000
 2.2466204204e-001	 1.0000759805e+000	-6.1809634742e+000
 2.1511225043e-001	 1.0021734978e+000	-6.3054960156e+000
 2.0556977597e-001	 1.0041743211e+000	-6.4233702442e+000
 1.9603596066e-001	 1.0060789741e+000	-6.5345300583e+000
 1.8651212873e-001	 1.0078880026e+000	-6.6389200687e+000
 2.8375690907e-001	 9.9144267564e-001	-5.1551326164e+000
 2.7413401614e-001	 9.9414641965e-001	-5.3127372611e+000
 2.6451003324e-001	 9.9675022188e-001	-5.4641093357e+000
 2.5488640836e-001	 9.9925446275e-001	-5.6091935364e+000
 2.4526457442e-001	 1.0016595485e+000	-5.7479352574e+000
 2.3564594874e-001	 1.0039659104e+000	-5.8802805547e+000
 2.2603193255e-001	 1.0061740048e+000	-6.0061761149e+000
 2.1642391049e-001	 1.0082843118e+000	-6.1255692306e+000
 2.0682325021e-001	 1.0102973353e+000	-6.2384077804e+000
 1.9723130188e-001	 1.0122136020e+000	-6.3446402151e+000
 1.8764939780e-001	 1.0140336612e+000	-6.4442155488e+000
 2.8547664791e-001	 9.9745141913e-001	-5.0221265805e+000
 2.7579543443e-001	 1.0001715495e+000	-5.1741140309e+000
 2.6611312435e-001	 1.0027911323e+000	-5.3199447718e+000
 2.5643117447e-001	 1.0053105504e+000	-5.4595688656e+000
 2.4675102639e-001	 1.0077302124e+000	-5.5929369458e+000
 2.3707410601e-001	 1.0100505523e+000	-5.7200001766e+000
 2.2740182305e-001	 1.0122720291e+000	-5.8407102165e+000
 2.1773557055e-001	 1.0143951258e+000	-5.9550191897e+000
 2.0807672445e-001	 1.0164203494e+000	-6.0628796620e+000
 1.9842664310e-001	 1.0183482299e+000	-6.1642446230e+000
 1.8878666688e-001	 1.0201793197e+000	-6.2590674745e+000
 2.8719638676e-001	 1.0034601626e+000	-4.8979942204e+000
 2.7745685271e-001	 1.0061966793e+000	-5.0444039176e+000
 2.6771621547e-001	 1.0088320428e+000	-5.1847351061e+000
 2.5797594059e-001	 1.0113666381e+000	-5.3189432153e+000
 2.4823747836e-001	 1.0138008763e+000	-5.4469841175e+000
 2.3850226327e-001	 1.0161351942e+000	-5.5688140816e+000
 2.2877171355e-001	 1.0183700534e+000	-5.6843897325e+000
 2.1904723062e-001	 1.0205059398e+000	-5.7936680179e+000
 2.0933019870e-001	 1.0225433636e+000	-5.8966061804e+000
 1.9962198433e-001	 1.0244828578e+000	-5.9931617363e+000
 1.8992393596e-001	 1.0263249783e+000	-6.0832924603e+000
 2.8891612560e-001	 1.0094689061e+000	-4.7825744566e+000
 2.7911827099e-001	 1.0122218091e+000	-4.9234440943e+000
 2.6931930658e-001	 1.0148729532e+000	-5.0583157533e+000
 2.5952070670e-001	 1.0174227257e+000	-5.1871502330e+000
 2.4972393032e-001	 1.0198715403e+000	-5.3099086443e+000
 2.3993042054e-001	 1.0222198361e+000	-5.4265523585e+000
 2.3014160405e-001	 1.0244680776e+000	-5.5370429621e+000
 2.2035889068e-001	 1.0266167539e+000	-5.6413422196e+000
 2.1058367294e-001	 1.0286663777e+000	-5.7394120411e+000
 2.0081732555e-001	 1.0306174857e+000	-5.8312144582e+000
 1.9106120504e-001	 1.0324706368e+000	-5.9167116046e+000
 2.9063586444e-001	 1.0154776496e+000	-4.6757102381e+000
 2.8077968927e-001	 1.0182469389e+000	-4.8110757928e+000
 2.7092239769e-001	 1.0209138636e+000	-4.9405262184e+000
 2.6106547281e-001	 1.0234788134e+000	-5.0640276876e+000
 2.5121038229e-001	 1.0259422042e+000	-5.1815465509e+000
 2.4135857781e-001	 1.0283044780e+000	-5.2930492808e+000
 2.3151149455e-001	 1.0305661019e+000	-5.3985024221e+000
 2.2167055075e-001	 1.0327275679e+000	-5.4978725496e+000
 2.1183714719e-001	 1.0347893919e+000	-5.5911262332e+000
 2.0201266678e-001	 1.0367521136e+000	-5.6782300086e+000
 1.9219847412e-001	 1.0386162954e+000	-5.7591503563e+000
 2.9235560328e-001	 1.0214863931e+000	-4.5772484238e+000
 2.8244110754e-001	 1.0242720687e+000	-4.7071441845e+000
 2.7252548880e-001	 1.0269547741e+000	-4.8312099756e+000
 2.6261023892e-001	 1.0295349010e+000	-4.9494173475e+000
 2.5269683426e-001	 1.0320128681e+000	-5.0617378925e+000
 2.4278673507e-001	 1.0343891199e+000	-5.1681431841e+000
 2.3288138505e-001	 1.0366641262e+000	-5.2686047224e+000
 2.2298221082e-001	 1.0388383819e+000	-5.3630938881e+000
 2.1309062144e-001	 1.0409124061e+000	-5.4515819030e+000
 2.0320800801e-001	 1.0428867415e+000	-5.5340397978e+000
 1.9333574320e-001	 1.0447619540e+000	-5.6104383877e+000
 1.8196305243e-001	 9.8330536841e-001	-7.5171350803e+000
 1.7268252319e-001	 9.8497753588e-001	-7.6449039357e+000
 1.6341426419e-001	 9.8655753926e-001	-7.7651288366e+000
 1.5415951315e-001	 9.8804597288e-001	-7.8777935740e+000
 1.4491948905e-001	 9.8944345050e-001	-7.9828825633e+000
 1.3569539180e-001	 9.9075060469e-001	-8.0803808313e+000
 1.2648840201e-001	 9.9196808628e-001	-8.1702740076e+000
 1.1729968064e-001	 9.9309656377e-001	-8.2525483204e+000
 1.0813036885e-001	 9.9413672268e-001	-8.3271905965e+000
 9.8981587693e-002	 9.9508926501e-001	-8.3941882653e+000
 8.9854437932e-002	 9.9595490863e-001	-8.4535293659e+000
 1.8310032150e-001	 9.8945102696e-001	-7.2822763320e+000
 1.7376178895e-001	 9.9113364548e-001	-7.4063076130e+000
 1.6443560334e-001	 9.9272352389e-001	-7.5228921095e+000
 1.5512301010e-001	 9.9422126022e-001	-7.6320177612e+000
 1.4582523585e-001	 9.9562747206e-001	-7.7336729900e+000
 1.3654348799e-001	 9.9694279597e-001	-7.8278466848e+000
 1.2727895451e-001	 9.9816788682e-001	-7.9145281904e+000
 1.1803280364e-001	 9.9930341729e-001	-7.9937073026e+000
 1.0880618365e-001	 1.0003500772e+000	-8.0653742660e+000
 9.9600222606e-002	 1.0013085729e+000	-8.1295197768e+000
 9.0416028158e-002	 1.0021796268e+000	-8.1861349898e+000
 1.8423759058e-001	 9.9559668552e-001	-7.0577552344e+000
 1.7484105472e-001	 9.9728975509e-001	-7.1781169722e+000
 1.6545694248e-001	 9.9888950851e-001	-7.2911315056e+000
 1.5608650705e-001	 1.0003965476e+000	-7.3967908974e+000
 1.4673098265e-001	 1.0018114936e+000	-7.4950875486e+000
 1.3739158418e-001	 1.0031349872e+000	-7.5860141801e+000
 1.2806950701e-001	 1.0043676874e+000	-7.6695638210e+000
 1.1876592663e-001	 1.0055102708e+000	-7.7457298009e+000
 1.0948199845e-001	 1.0065634317e+000	-7.8145057467e+000
 1.0021885752e-001	 1.0075278808e+000	-7.8758855848e+000
 9.0977618386e-002	 1.0084043450e+000	-7.9298635467e+000
 1.8537485965e-001	 1.0017423441e+000	-6.8433690405e+000
 1.7592032049e-001	 1.0034458647e+000	-6.9601273496e+000
 1.6647828163e-001	 1.0050554931e+000	-7.0696404395e+000
 1.5705000400e-001	 1.0065718349e+000	-7.1719044718e+000
 1.4763672945e-001	 1.0079955152e+000	-7.2669157995e+000
 1.3823968038e-001	 1.0093271785e+000	-7.3546709473e+000
 1.2886005952e-001	 1.0105674879e+000	-7.4351665977e+000
 1.1949904963e-001	 1.0117171243e+000	-7.5083995815e+000
 1.1015781324e-001	 1.0127767862e+000	-7.5743668738e+000
 1.0083749244e-001	 1.0137471887e+000	-7.6330655949e+000
 9.1539208616e-002	 1.0146290632e+000	-7.6844930149e+000
 1.8651212873e-001	 1.0078880026e+000	-6.6389200687e+000
 1.7699958625e-001	 1.0096019743e+000	-6.7521391847e+000
 1.6749962078e-001	 1.0112214778e+000	-6.8582174674e+000
 1.5801350096e-001	 1.0127471222e+000	-6.9571551535e+000
 1.4854247625e-001	 1.0141795368e+000	-7.0489525223e+000
 1.3908777657e-001	 1.0155193698e+000	-7.1336098747e+000
 1.2965061203e-001	 1.0167672884e+000	-7.2111275168e+000
 1.2023217263e-001	 1.0179239779e+000	-7.2815057489e+000
 1.1083362804e-001	 1.0189901407e+000	-7.3447448610e+000
 1.0145612735e-001	 1.0199664966e+000	-7.4008451317e+000
 9.2100798847e-002	 1.0208537813e+000	-7.4498068328e+000
 1.8764939780e-001	 1.0140336612e+000	-6.4442155488e+000
 1.7807885202e-001	 1.0157580839e+000	-6.5539578652e+000
 1.6852095993e-001	 1.0173874624e+000	-6.6566661308e+000
 1.5897699791e-001	 1.0189224095e+000	-6.7523446345e+000
 1.4944822305e-001	 1.0203635583e+000	-6.8409975576e+000
 1.3993587277e-001	 1.0217115611e+000	-6.9226289499e+000
 1.3044116454e-001	 1.0229670890e+000	-6.9972427123e+000
 1.2096529563e-001	 1.0241308314e+000	-7.0648425843e+000
 1.1150944285e-001	 1.0252034953e+000	-7.1254321375e+000
 1.0207476227e-001	 1.0261858045e+000	-7.1790147746e+000
 9.2662389079e-002	 1.0270784995e+000	-7.2255937332e+000
 1.8878666688e-001	 1.0201793197e+000	-6.2590674745e+000
 1.7915811779e-001	 1.0219141935e+000	-6.3653935783e+000
 1.6954229908e-001	 1.0235534470e+000	-6.4647948067e+000
 1.5994049487e-001	 1.0250976969e+000	-6.5572794790e+000
 1.5035396986e-001	 1.0265475799e+000	-6.6428556543e+000
 1.4078396896e-001	 1.0279037524e+000	-6.7215311058e+000
 1.3123171705e-001	 1.0291668895e+000	-6.7933133012e+000
 1.2169841863e-001	 1.0303376849e+000	-6.8582093890e+000
 1.1218525765e-001	 1.0314168498e+000	-6.9162261909e+000
 1.0269339719e-001	 1.0324051124e+000	-6.9673701999e+000
 9.3223979314e-002	 1.0333032177e+000	-7.0116475836e+000
 1.8992393596e-001	 1.0263249783e+000	-6.0832924603e+000
 1.8023738356e-001	 1.0280703031e+000	-6.1862611669e+000
 1.7056363823e-001	 1.0297194316e+000	-6.2824165627e+000
 1.6090399183e-001	 1.0312729842e+000	-6.3717709767e+000
 1.5125971667e-001	 1.0327316015e+000	-6.4543363230e+000
 1.4163206516e-001	 1.0340959436e+000	-6.5301240730e+000
 1.3202226956e-001	 1.0353666901e+000	-6.5991452340e+000
 1.2243154164e-001	 1.0365445384e+000	-6.6614103347e+000
 1.1286107245e-001	 1.0376302043e+000	-6.7169294157e+000
 1.0331203211e-001	 1.0386244204e+000	-6.7657120275e+000
 9.3785569549e-002	 1.0395279359e+000	-6.8077672330e+000
 1.9106120504e-001	 1.0324706368e+000	-5.9167116046e+000
 1.8131664934e-001	 1.0342264127e+000	-6.0163799908e+000
 1.7158497738e-001	 1.0358854162e+000	-6.1093490172e+000
 1.6186748879e-001	 1.0374482715e+000	-6.1956350026e+000
 1.5216546347e-001	 1.0389156230e+000	-6.2752536939e+000
 1.4248016136e-001	 1.0402881349e+000	-6.3482202365e+000
 1.3281282208e-001	 1.0415664906e+000	-6.4145491513e+000
 1.2316466464e-001	 1.0427513920e+000	-6.4742543183e+000
 1.1353688726e-001	 1.0438435588e+000	-6.5273489674e+000
 1.0393066704e-001	 1.0448437283e+000	-6.5738456744e+000
 9.4347159786e-002	 1.0457526541e+000	-6.6137563634e+000
 1.9219847412e-001	 1.0386162954e+000	-5.7591503563e+000
 1.8239591511e-001	 1.0403825223e+000	-5.8555737934e+000
 1.7260631654e-001	 1.0420514009e+000	-5.9454142054e+000
 1.6283098575e-001	 1.0436235589e+000	-6.0286918816e+000
 1.5307121029e-001	 1.0450996446e+000	-6.1054263807e+000
 1.4332825757e-001	 1.0464803262e+000	-6.1756364986e+000
 1.3360337459e-001	 1.0477662911e+000	-6.2393402444e+000
 1.2389778765e-001	 1.0489582455e+000	-6.2965548224e+000
 1.1421270207e-001	 1.0500569133e+000	-6.3472966217e+000
 1.0454930196e-001	 1.0510630362e+000	-6.3915812124e+000
 9.4908750025e-002	 1.0519773722e+000	-6.4294233466e+000
 1.9333574320e-001	 1.0447619540e+000	-5.6104383877e+000
 1.8347518088e-001	 1.0465386319e+000	-5.7036705727e+000
 1.7362765569e-001	 1.0482173855e+000	-5.7904384484e+000
 1.6379448271e-001	 1.0497988462e+000	-5.8707662569e+000
 1.5397695710e-001	 1.0512836661e+000	-5.9446773479e+000
 1.4417635377e-001	 1.0526725175e+000	-6.0121941455e+000
 1.3439392711e-001	 1.0539660917e+000	-6.0733381221e+000
 1.2463091066e-001	 1.0551650990e+000	-6.1281297798e+000
 1.1488851688e-001	 1.0562702678e+000	-6.1765886384e+000
 1.0516793689e-001	 1.0572823441e+000	-6.2187332313e+000
 9.5470340265e-002	 1.0582020904e+000	-6.2545811066e+000
 8.9854437932e-002	 9.9595490863e-001	-8.4535293659e+000
 8.0749999857e-002	 9.9673438666e-001	-8.5163589416e+000
 7.1669333105e-002	 9.9742844692e-001	-8.5717851900e+000
 6.2613476500e-002	 9.9803785128e-001	-8.6198355581e+000
 5.3583447921e-002	 9.9856337512e-001	-8.6605371263e+000
 4.4580244178e-002	 9.9900580671e-001	-8.6939166194e+000
 3.5604840910e-002	 9.9936594664e-001	-8.7200004228e+000
 2.6658192499e-002	 9.9964460724e-001	-8.7388146016e+000
 1.7741231999e-002	 9.9984261196e-001	-8.7503849225e+000
 8.8548710816e-003	 9.9996079486e-001	-8.7547368801e+000
 0.0000000000e+000	 1.0000000000e+000	-8.7518957252e+000
 9.0416028158e-002	 1.0021796268e+000	-8.1861349898e+000
 8.1254687346e-002	 1.0029639766e+000	-8.2473984019e+000
 7.2117266427e-002	 1.0036623747e+000	-8.3013806842e+000
 6.3004810719e-002	 1.0042755878e+000	-8.3481094936e+000
 5.3918344462e-002	 1.0048043962e+000	-8.3876120228e+000
 4.4858870696e-002	 1.0052495930e+000	-8.4199150139e+000
 3.5827371159e-002	 1.0056119838e+000	-8.4450447748e+000
 2.6824806197e-002	 1.0058923860e+000	-8.4630272007e+000
 1.7852114695e-002	 1.0060916283e+000	-8.4738877975e+000
 8.9102140240e-003	 1.0062105498e+000	-8.4776517103e+000
 0.0000000000e+000	 1.0062500000e+000	-8.4743437531e+000
 9.0977618386e-002	 1.0084043450e+000	-7.9298635467e+000
 8.1759374836e-002	 1.0091935665e+000	-7.9895849826e+000
 7.2565199750e-002	 1.0098963025e+000	-8.0421498480e+000
 6.3396144939e-002	 1.0105133244e+000	-8.0875859887e+000
 5.4253241004e-002	 1.0110454173e+000	-8.1259206874e+000
 4.5137497216e-002	 1.0114933793e+000	-8.1571806784e+000
 3.6049901409e-002	 1.0118580210e+000	-8.1813921659e+000
 2.6991419896e-002	 1.0121401648e+000	-8.1985808466e+000
 1.7962997392e-002	 1.0123406446e+000	-8.2087719360e+000
 8.9655569666e-003	 1.0124603048e+000	-8.2119901975e+000
 0.0000000000e+000	 1.0125000000e+000	-8.2082599753e+000
 9.1539208616e-002	 1.0146290632e+000	-7.6844930149e+000
 8.2264062328e-002	 1.0154231564e+000	-7.7426959634e+000
 7.3013133075e-002	 1.0161302303e+000	-7.7938692608e+000
 6.3787479160e-002	 1.0167510610e+000	-7.8380409217e+000
 5.4588137547e-002	 1.0172864384e+000	-7.8752382966e+000
 4.5416123736e-002	 1.0177371656e+000	-7.9054880874e+000
 3.6272431660e-002	 1.0181040581e+000	-7.9288163685e+000
 2.7158033595e-002	 1.0183879436e+000	-7.9452486104e+000
 1.8073880089e-002	 1.0185896609e+000	-7.9548097079e+000
 9.0208999093e-003	 1.0187100598e+000	-7.9575240118e+000
 0.0000000000e+000	 1.0187500000e+000	-7.9534153634e+000
 9.2100798847e-002	 1.0208537813e+000	-7.4498068328e+000
 8.2768749821e-002	 1.0216527463e+000	-7.5065140946e+000
 7.3461066400e-002	 1.0223641581e+000	-7.5563209843e+000
 6.4178813382e-002	 1.0229887976e+000	-7.5992556652e+000
 5.4923034091e-002	 1.0235274595e+000	-7.6353455332e+000
 4.5694750257e-002	 1.0239809519e+000	-7.6646172343e+000
 3.6494961911e-002	 1.0243500953e+000	-7.6870966869e+000
 2.7324647294e-002	 1.0246357224e+000	-7.7028091078e+000
 1.8184762787e-002	 1.0248386773e+000	-7.7117790418e+000
 9.0762428523e-003	 1.0249598147e+000	-7.7140303958e+000
 0.0000000000e+000	 1.0250000000e+000	-7.7095864752e+000
 9.2662389079e-002	 1.0270784995e+000	-7.2255937332e+000
 8.3273437315e-002	 1.0278823362e+000	-7.2808274322e+000
 7.3908999727e-002	 1.0285980859e+000	-7.3292923970e+000
 6.4570147605e-002	 1.0292265341e+000	-7.3710169197e+000
 5.5257930636e-002	 1.0297684806e+000	-7.4060284199e+000
 4.5973376779e-002	 1.0302247382e+000	-7.4343534643e+000
 3.6717492163e-002	 1.0305961325e+000	-7.4560177898e+000
 2.7491260995e-002	 1.0308835012e+000	-7.4710463317e+000
 1.8295645485e-002	 1.0310876936e+000	-7.4794632561e+000
 9.1315857954e-003	 1.0312095697e+000	-7.4812919948e+000
 0.0000000000e+000	 1.0312500000e+000	-7.4765552853e+000
 9.3223979314e-002	 1.0333032177e+000	-7.0116475836e+000
 8.3778124811e-002	 1.0341119262e+000	-7.0654291776e+000
 7.4356933056e-002	 1.0348320137e+000	-7.1125760335e+000
 6.4961481830e-002	 1.0354642707e+000	-7.1531165530e+000
 5.5592827181e-002	 1.0360095017e+000	-7.1870781585e+000
 4.6252003302e-002	 1.0364685245e+000	-7.2144873135e+000
 3.6940022416e-002	 1.0368421696e+000	-7.2353695483e+000
 2.7657874695e-002	 1.0371312800e+000	-7.2497494901e+000
 1.8406528183e-002	 1.0373367099e+000	-7.2576508967e+000
 9.1869287387e-003	 1.0374593247e+000	-7.2590966950e+000
 0.0000000000e+000	 1.0375000000e+000	-7.2541090219e+000
 9.3785569549e-002	 1.0395279359e+000	-6.8077672330e+000
 8.4282812308e-002	 1.0403415161e+000	-6.8601175234e+000
 7.4804866385e-002	 1.0410659415e+000	-6.9059694302e+000
 6.5352816055e-002	 1.0417020073e+000	-6.9453514459e+000
 5.5927723728e-002	 1.0422505228e+000	-6.9782909742e+000
 4.6530629825e-002	 1.0427123108e+000	-7.0048143529e+000
 3.7162552669e-002	 1.0430882068e+000	-7.0249468807e+000
 2.7824488396e-002	 1.0433790588e+000	-7.0387128495e+000
 1.8517410881e-002	 1.0435857262e+000	-7.0461355809e+000
 9.2422716822e-003	 1.0437090796e+000	-7.0472374660e+000
 0.0000000000e+000	 1.0437500000e+000	-7.0420400093e+000
 9.4347159786e-002	 1.0457526541e+000	-6.6137563634e+000
 8.4787499806e-002	 1.0465711060e+000	-6.6646955053e+000
 7.5252799716e-002	 1.0472998693e+000	-6.7092749768e+000
 6.5744150282e-002	 1.0479397438e+000	-6.7475233425e+000
 5.6262620276e-002	 1.0484915439e+000	-6.7794679670e+000
 4.6809256350e-002	 1.0489560970e+000	-6.8051350392e+000
 3.7385082924e-002	 1.0493342440e+000	-6.8245496018e+000
 2.7991102098e-002	 1.0496268376e+000	-6.8377355851e+000
 1.8628293580e-002	 1.0498347426e+000	-6.8447158460e+000
 9.2976146259e-003	 1.0499588346e+000	-6.8455122097e+000
 0.0000000000e+000	 1.0500000000e+000	-6.8401455169e+000
 9.4908750025e-002	 1.0519773722e+000	-6.4294233466e+000
 8.5292187306e-002	 1.0528006959e+000	-6.4789708584e+000
 7.5700733048e-002	 1.0535337971e+000	-6.5222997723e+000
 6.6135484510e-002	 1.0541774804e+000	-6.5594387067e+000
 5.6597516825e-002	 1.0547325650e+000	-6.5904149665e+000
 4.7087882875e-002	 1.0551998833e+000	-6.6152545697e+000
 3.7607613178e-002	 1.0555802811e+000	-6.6339822784e+000
 2.8157715801e-002	 1.0558746164e+000	-6.6466216351e+000
 1.8739176280e-002	 1.0560837589e+000	-6.6531950038e+000
 9.3529575698e-003	 1.0562085896e+000	-6.6537236144e+000
 0.0000000000e+000	 1.0562500000e+000	-6.6482276120e+000
 9.5470340265e-002	 1.0582020904e+000	-6.2545811066e+000
 8.5796874808e-002	 1.0590302858e+000	-6.3027558793e+000
 7.6148666382e-002	 1.0597677248e+000	-6.3448554868e+000
 6.6526818739e-002	 1.0604152170e+000	-6.3809085832e+000
 5.6932413375e-002	 1.0609735861e+000	-6.4109423937e+000
 4.7366509402e-002	 1.0614436696e+000	-6.4349827432e+000
 3.7830143434e-002	 1.0618263183e+000	-6.4530540892e+000
 2.8324329504e-002	 1.0621223952e+000	-6.4651795605e+000
 1.8850058980e-002	 1.0623327752e+000	-6.4713810004e+000
 9.4083005139e-003	 1.0624583445e+000	-6.4716790140e+000
 0.0000000000e+000	 1.0625000000e+000	-6.4660930194e+000
 1.0625000000e+000	 0.0000000000e+000	 1.5241362011e+000
 1.0624583445e+000	 9.4083005139e-003	 1.5334655323e+000
 1.0623327752e+000	 1.8850058980e-002	 1.5429808723e+000
 1.0621223952e+000	 2.8324329504e-002	 1.5526931206e+000
 1.0618263183e+000	 3.7830143434e-002	 1.5626078131e+000
 1.0614436696e+000	 4.7366509402e-002	 1.5727248921e+000
 1.0609735861e+000	 5.6932413375e-002	 1.5830384814e+000
 1.0604152170e+000	 6.6526818739e-002	 1.5935366652e+000
 1.0597677248e+000	 7.6148666382e-002	 1.6042012715e+000
 1.0590302858e+000	 8.5796874808e-002	 1.6150076616e+000
 1.0582020904e+000	 9.5470340265e-002	 1.6259245257e+000
 1.0687500000e+000	 0.0000000000e+000	 1.5932224715e+000
 1.0687080995e+000	 9.4636434581e-003	 1.6030932772e+000
 1.0685817915e+000	 1.8960941680e-002	 1.6128956564e+000
 1.0683701740e+000	 2.8490943207e-002	 1.6226385085e+000
 1.0680723555e+000	 3.8052673690e-002	 1.6323254687e+000
 1.0676874559e+000	 4.7645135928e-002	 1.6419546817e+000
 1.0672146072e+000	 5.7267309926e-002	 1.6515185794e+000
 1.0666529535e+000	 6.6918152969e-002	 1.6610036625e+000
 1.0660016526e+000	 7.6596599716e-002	 1.6703902868e+000
 1.0652598757e+000	 8.6301562309e-002	 1.6796524559e+000
 1.0644268086e+000	 9.6031930505e-002	 1.6887576194e+000
 1.0750000000e+000	 0.0000000000e+000	 1.6671923557e+000
 1.0749578545e+000	 9.5189864023e-003	 1.6775685866e+000
 1.0748308079e+000	 1.9071824379e-002	 1.6876279849e+000
 1.0746179528e+000	 2.8657556910e-002	 1.6973775341e+000
 1.0743183926e+000	 3.8275203946e-002	 1.7068190507e+000
 1.0739312422e+000	 4.7923762455e-002	 1.7159489601e+000
 1.0734556282e+000	 5.7602206476e-002	 1.7247580772e+000
 1.0728906901e+000	 6.7309487198e-002	 1.7332313904e+000
 1.0722355804e+000	 7.7044533049e-002	 1.7413478511e+000
 1.0714894656e+000	 8.6806249811e-002	 1.7490801688e+000
 1.0706515268e+000	 9.6593520745e-002	 1.7563946118e+000
 1.0812500000e+000	 0.0000000000e+000	 1.7459747626e+000
 1.0812076094e+000	 9.5743293464e-003	 1.7568202300e+000
 1.0810798242e+000	 1.9182707079e-002	 1.7671064285e+000
 1.0808657316e+000	 2.8824170613e-002	 1.7768385102e+000
 1.0805644298e+000	 3.8497734202e-002	 1.7860165536e+000
 1.0801750285e+000	 4.8202388981e-002	 1.7946353429e+000
 1.0796966493e+000	 5.7937103026e-002	 1.8026841502e+000
 1.0791284267e+000	 6.7700821427e-002	 1.8101465228e+000
 1.0784695082e+000	 7.7492466382e-002	 1.8170000746e+000
 1.0777190556e+000	 8.7310937312e-002	 1.8232162841e+000
 1.0768762449e+000	 9.7155110985e-002	 1.8287602978e+000
 1.0875000000e+000	 0.0000000000e+000	 1.8295002353e+000
 1.0874573644e+000	 9.6296722906e-003	 1.8407786092e+000
 1.0873288405e+000	 1.9293589779e-002	 1.8512611902e+000
 1.0871135104e+000	 2.8990784316e-002	 1.8609513828e+000
 1.0868104670e+000	 3.8720264457e-002	 1.8698476083e+000
 1.0864188148e+000	 4.8481015507e-002	 1.8779430868e+000
 1.0859376704e+000	 5.8271999576e-002	 1.8852256219e+000
 1.0853661633e+000	 6.8092155656e-002	 1.8916773898e+000
 1.0847034360e+000	 7.7940399715e-002	 1.8972747339e+000
 1.0839486455e+000	 8.7815624812e-002	 1.9019879644e+000
 1.0831009631e+000	 9.7716701224e-002	 1.9057811650e+000
 1.0937500000e+000	 0.0000000000e+000	 1.9177009044e+000
 1.0937071194e+000	 9.6850152348e-003	 1.9293757113e+000
 1.0935778568e+000	 1.9404472479e-002	 1.9400240581e+000
 1.0933612892e+000	 2.9157398019e-002	 1.9496476846e+000
 1.0930565041e+000	 3.8942794713e-002	 1.9582434353e+000
 1.0926626011e+000	 4.8759642034e-002	 1.9658030430e+000
 1.0921786915e+000	 5.8606896126e-002	 1.9723129163e+000
 1.0916038998e+000	 6.8483489884e-002	 1.9777539303e+000
 1.0909373638e+000	 7.8388333048e-002	 1.9821012242e+000
 1.0901782354e+000	 8.8320312312e-002	 1.9853240026e+000
 1.0893256813e+000	 9.8278291462e-002	 1.9873853446e+000
 1.1000000000e+000	 0.0000000000e+000	 2.0105104431e+000
 1.0999568743e+000	 9.7403581789e-003	 2.0225450643e+000
 1.0998268732e+000	 1.9515355179e-002	 2.0333283605e+000
 1.0996090680e+000	 2.9324011722e-002	 2.0428604898e+000
 1.0993025413e+000	 3.9165324969e-002	 2.0511367995e+000
 1.0989063874e+000	 4.9038268560e-002	 2.0581476116e+000
 1.0984197126e+000	 5.8941792675e-002	 2.0638780126e+000
 1.0978416364e+000	 6.8874824113e-002	 2.0683076466e+000
 1.0971712916e+000	 7.8836266380e-002	 2.0714105139e+000
 1.0964078253e+000	 8.8824999812e-002	 2.0731547758e+000
 1.0955503995e+000	 9.8839881700e-002	 2.0735025650e+000
 1.1062500000e+000	 0.0000000000e+000	 2.1078640234e+000
 1.1062066293e+000	 9.7957011231e-003	 2.1202216931e+000
 1.1060758895e+000	 1.9626237879e-002	 2.1311089227e+000
 1.1058568468e+000	 2.9490625425e-002	 2.1405243708e+000
 1.1055485785e+000	 3.9387855224e-002	 2.1484619668e+000
 1.1051501737e+000	 4.9316895085e-002	 2.1549106981e+000
 1.1046607337e+000	 5.9276689225e-002	 2.1598544018e+000
 1.1040793730e+000	 6.9266158341e-002	 2.1632715597e+000
 1.1034052194e+000	 7.9284199712e-002	 2.1651350995e+000
 1.1026374152e+000	 8.9329687312e-002	 2.1654122005e+000
 1.1017751176e+000	 9.9401471938e-002	 2.1640641068e+000
 1.1125000000e+000	 0.0000000000e+000	 2.2096982743e+000
 1.1124563843e+000	 9.8510440672e-003	 2.2223420775e+000
 1.1123249058e+000	 1.9737120578e-002	 2.2333020244e+000
 1.1121046255e+000	 2.9657239128e-002	 2.2425753557e+000
 1.1117946156e+000	 3.9610385479e-002	 2.2501546617e+000
 1.1113939600e+000	 4.9595521611e-002	 2.2560276710e+000
 1.1109017548e+000	 5.9611585774e-002	 2.2601770433e+000
 1.1103171095e+000	 6.9657492569e-002	 2.2625801675e+000
 1.1096391472e+000	 7.9732133044e-002	 2.2632089631e+000
 1.1088670051e+000	 8.9834374811e-002	 2.2620296893e+000
 1.1079998358e+000	 9.9963062175e-002	 2.2590027588e+000
 1.1187500000e+000	 0.0000000000e+000	 2.3159512407e+000
 1.1187061393e+000	 9.9063870114e-003	 2.3288441120e+000
 1.1185739221e+000	 1.9848003278e-002	 2.3398453595e+000
 1.1183524043e+000	 2.9823852830e-002	 2.3489508880e+000
 1.1180406528e+000	 3.9832915735e-002	 2.3561520268e+000
 1.1176377463e+000	 4.9874148137e-002	 2.3614353208e+000
 1.1171427759e+000	 5.9946482323e-002	 2.3647823248e+000
 1.1165548461e+000	 7.0048826796e-002	 2.3661694025e+000
 1.1158730750e+000	 8.0180066375e-002	 2.3655675308e+000
 1.1150965951e+000	 9.0339062309e-002	 2.3629421091e+000
 1.1142245540e+000	 1.0052465241e-001	 2.3582527763e+000
 1.1250000000e+000	 0.0000000000e+000	 2.4265623443e+000
 1.1249558942e+000	 9.9617299555e-003	 2.4396670658e+000
 1.1248229385e+000	 1.9958885978e-002	 2.4506779967e+000
 1.1246001831e+000	 2.9990466533e-002	 2.4595897869e+000
 1.1242866900e+000	 4.0055445990e-002	 2.4663925830e+000
 1.1238815325e+000	 5.0152774663e-002	 2.4710718209e+000
 1.1233837970e+000	 6.0281378872e-002	 2.4736080219e+000
 1.1227925827e+000	 7.0440161024e-002	 2.4739765930e+000
 1.1221070028e+000	 8.0627999707e-002	 2.4721476323e+000
 1.1213261850e+000	 9.0843749807e-002	 2.4680857410e+000
 1.1204492722e+000	 1.0108624265e-001	 2.4617498403e+000
 1.0582020904e+000	 9.5470340265e-002	 1.6259245257e+000
 1.0572823441e+000	 1.0516793689e-001	 1.6587885199e+000
 1.0562702678e+000	 1.1488851688e-001	 1.6916139746e+000
 1.0551650990e+000	 1.2463091066e-001	 1.7243837886e+000
 1.0539660917e+000	 1.3439392711e-001	 1.7570742889e+000
 1.0526725175e+000	 1.4417635377e-001	 1.7896550524e+000
 1.0512836661e+000	 1.5397695710e-001	 1.8220887361e+000
 1.0497988462e+000	 1.6379448271e-001	 1.8543309183e+000
 1.0482173855e+000	 1.7362765569e-001	 1.8863299495e+000
 1.0465386319e+000	 1.8347518088e-001	 1.9180268152e+000
 1.0447619540e+000	 1.9333574320e-001	 1.9493550115e+000
 1.0644268086e+000	 9.6031930505e-002	 1.6887576194e+000
 1.0635016520e+000	 1.0578657182e-001	 1.7204253950e+000
 1.0624836223e+000	 1.1556433169e-001	 1.7517714931e+000
 1.0613719525e+000	 1.2536403367e-001	 1.7827776333e+000
 1.0601658922e+000	 1.3518447963e-001	 1.8134191009e+000
 1.0588647087e+000	 1.4502444998e-001	 1.8436645724e+000
 1.0574676877e+000	 1.5488270391e-001	 1.8734759490e+000
 1.0559741335e+000	 1.6475797967e-001	 1.9028082010e+000
 1.0543833701e+000	 1.7464899485e-001	 1.9316092223e+000
 1.0526947415e+000	 1.8455444666e-001	 1.9598196969e+000
 1.0509076125e+000	 1.9447301229e-001	 1.9873729774e+000
 1.0706515268e+000	 9.6593520745e-002	 1.7563946118e+000
 1.0697209599e+000	 1.0640520674e-001	 1.7868872892e+000
 1.0686969769e+000	 1.1624014650e-001	 1.8167820390e+000
 1.0675788060e+000	 1.2609715668e-001	 1.8460594520e+000
 1.0663656927e+000	 1.3597503214e-001	 1.8746938183e+000
 1.0650569000e+000	 1.4587254618e-001	 1.9026529553e+000
 1.0636517093e+000	 1.5578845072e-001	 1.9298980447e+000
 1.0621494208e+000	 1.6572147664e-001	 1.9563834802e+000
 1.0605493547e+000	 1.7567033401e-001	 1.9820567253e+000
 1.0588508511e+000	 1.8563371243e-001	 2.0068581833e+000
 1.0570532711e+000	 1.9561028137e-001	 2.0307210786e+000
 1.0768762449e+000	 9.7155110985e-002	 1.8287602978e+000
 1.0759402678e+000	 1.0702384167e-001	 1.8580983587e+000
 1.0749103314e+000	 1.1691596131e-001	 1.8865690629e+000
 1.0737856596e+000	 1.2683027968e-001	 1.9141519232e+000
 1.0725654933e+000	 1.3676558466e-001	 1.9408202800e+000
 1.0712490913e+000	 1.4672064238e-001	 1.9665411326e+000
 1.0698357308e+000	 1.5669419753e-001	 1.9912749793e+000
 1.0683247082e+000	 1.6668497360e-001	 2.0149756683e+000
 1.0667153393e+000	 1.7669167316e-001	 2.0375902587e+000
 1.0650069607e+000	 1.8671297821e-001	 2.0590588934e+000
 1.0631989296e+000	 1.9674755045e-001	 2.0793146838e+000
 1.0831009631e+000	 9.7716701224e-002	 1.9057811650e+000
 1.0821595757e+000	 1.0764247660e-001	 1.9339844650e+000
 1.0811236859e+000	 1.1759177611e-001	 1.9610577358e+000
 1.0799925131e+000	 1.2756340269e-001	 1.9869794623e+000
 1.0787652938e+000	 1.3755613718e-001	 2.0117220805e+000
 1.0774412826e+000	 1.4756873858e-001	 2.0352518122e+000
 1.0760197524e+000	 1.5759994434e-001	 2.0575285083e+000
 1.0744999955e+000	 1.6764847056e-001	 2.0785055020e+000
 1.0728813239e+000	 1.7771301232e-001	 2.0981294736e+000
 1.0711630703e+000	 1.8779224398e-001	 2.1163403258e+000
 1.0693445882e+000	 1.9788481953e-001	 2.1330710722e+000
 1.0893256813e+000	 9.8278291462e-002	 1.9873853446e+000
 1.0883788836e+000	 1.0826111152e-001	 2.0144731261e+000
 1.0873370404e+000	 1.1826759092e-001	 2.0401748999e+000
 1.0861993666e+000	 1.2829652570e-001	 2.0644681723e+000
 1.0849650943e+000	 1.3834668969e-001	 2.0873245203e+000
 1.0836334739e+000	 1.4841683479e-001	 2.1087094283e+000
 1.0822037740e+000	 1.5850569115e-001	 2.1285821352e+000
 1.0806752828e+000	 1.6861196752e-001	 2.1468954898e+000
 1.0790473086e+000	 1.7873435147e-001	 2.1635958188e+000
 1.0773191799e+000	 1.8887150975e-001	 2.1786228050e+000
 1.0754902467e+000	 1.9902208861e-001	 2.1919093786e+000
 1.0955503995e+000	 9.8839881700e-002	 2.0735025650e+000
 1.0945981915e+000	 1.0887974645e-001	 2.0994934696e+000
 1.0935503949e+000	 1.1894340573e-001	 2.1238490209e+000
 1.0924062201e+000	 1.2902964870e-001	 2.1465457959e+000
 1.0911648949e+000	 1.3913724221e-001	 2.1675545570e+000
 1.0898256651e+000	 1.4926493099e-001	 2.1868400919e+000
 1.0883877955e+000	 1.5941143796e-001	 2.2043610620e+000
 1.0868505702e+000	 1.6957546448e-001	 2.2200698622e+000
 1.0852132932e+000	 1.7975569062e-001	 2.2339124904e+000
 1.0834752895e+000	 1.8995077552e-001	 2.2458284293e+000
 1.0816359053e+000	 2.0015935769e-001	 2.2557505403e+000
 1.1017751176e+000	 9.9401471938e-002	 2.1640641068e+000
 1.1008174994e+000	 1.0949838137e-001	 2.1889761870e+000
 1.0997637494e+000	 1.1961922053e-001	 2.2120101420e+000
 1.0986130736e+000	 1.2976277171e-001	 2.2331416687e+000
 1.0973646954e+000	 1.3992779472e-001	 2.2523407591e+000
 1.0960178564e+000	 1.5011302719e-001	 2.2695715434e+000
 1.0945718171e+000	 1.6031718477e-001	 2.2847921410e+000
 1.0930258575e+000	 1.7053896144e-001	 2.2979545223e+000
 1.0913792778e+000	 1.8077702978e-001	 2.3090043816e+000
 1.0896313991e+000	 1.9103004130e-001	 2.3178810209e+000
 1.0877815638e+000	 2.0129662677e-001	 2.3245172470e+000
 1.1079998358e+000	 9.9963062175e-002	 2.2590027588e+000
 1.1070368073e+000	 1.1011701629e-001	 2.2828534899e+000
 1.1059771040e+000	 1.2029503534e-001	 2.3045898403e+000
 1.1048199272e+000	 1.3049589471e-001	 2.3241866749e+000
 1.1035644960e+000	 1.4071834723e-001	 2.3416132599e+000
 1.1022100477e+000	 1.5096112339e-001	 2.3568331072e+000
 1.1007558387e+000	 1.6122293158e-001	 2.3698038286e+000
 1.0992011448e+000	 1.7150245839e-001	 2.3804769997e+000
 1.0975452624e+000	 1.8179836893e-001	 2.3887980357e+000
 1.0957875087e+000	 1.9210930707e-001	 2.3947060774e+000
 1.0939272224e+000	 2.0243389585e-001	 2.3981338909e+000
 1.1142245540e+000	 1.0052465241e-001	 2.3582527763e+000
 1.1132561152e+000	 1.1073565121e-001	 2.3810590676e+000
 1.1121904585e+000	 1.2097085015e-001	 2.4015211831e+000
 1.1110267807e+000	 1.3122901772e-001	 2.4196132041e+000
 1.1097642965e+000	 1.4150889975e-001	 2.4353037145e+000
 1.1084022390e+000	 1.5180921959e-001	 2.4485556472e+000
 1.1069398602e+000	 1.6212867838e-001	 2.4593261403e+000
 1.1053764322e+000	 1.7246595535e-001	 2.4675664046e+000
 1.1037112470e+000	 1.8281970808e-001	 2.4732215998e+000
 1.1019436183e+000	 1.9318857284e-001	 2.4762307250e+000
 1.1000728809e+000	 2.0357116493e-001	 2.4765265193e+000
 1.1204492722e+000	 1.0108624265e-001	 2.4617498403e+000
 1.1194754231e+000	 1.1135428614e-001	 2.4835280460e+000
 1.1184038130e+000	 1.2164666495e-001	 2.5027386870e+000
 1.1172336342e+000	 1.3196214072e-001	 2.5193551092e+000
 1.1159640970e+000	 1.4229945226e-001	 2.5333452573e+000
 1.1145944303e+000	 1.5265731578e-001	 2.5446715238e+000
 1.1131238818e+000	 1.6303442519e-001	 2.5532906079e+000
 1.1115517195e+000	 1.7342945231e-001	 2.5591533836e+000
 1.1098772317e+000	 1.8384104723e-001	 2.5622047801e+000
 1.1080997279e+000	 1.9426783861e-001	 2.5623836732e+000
 1.1062185395e+000	 2.0470843400e-001	 2.5596227889e+000
 1.0447619540e+000	 1.9333574320e-001	 1.9493550115e+000
 1.0428867415e+000	 2.0320800801e-001	 2.0028147435e+000
 1.0409124061e+000	 2.1309062144e-001	 2.0554142982e+000
 1.0388383819e+000	 2.2298221082e-001	 2.1070898914e+000
 1.0366641262e+000	 2.3288138505e-001	 2.1577705672e+000
 1.0343891199e+000	 2.4278673507e-001	 2.2073781296e+000
 1.0320128681e+000	 2.5269683426e-001	 2.2558270879e+000
 1.0295349010e+000	 2.6261023892e-001	 2.3030246190e+000
 1.0269547741e+000	 2.7252548880e-001	 2.3488705450e+000
 1.0242720687e+000	 2.8244110754e-001	 2.3932573281e+000
 1.0214863931e+000	 2.9235560328e-001	 2.4360700823e+000
 1.0509076125e+000	 1.9447301229e-001	 1.9873729774e+000
 1.0490213693e+000	 2.0440334923e-001	 2.0374841876e+000
 1.0470354202e+000	 2.1434409568e-001	 2.0865574984e+000
 1.0449491959e+000	 2.2429387088e-001	 2.1345277724e+000
 1.0427621505e+000	 2.3425127556e-001	 2.1813227476e+000
 1.0404737618e+000	 2.4421489234e-001	 2.2268629715e+000
 1.0380835321e+000	 2.5418328623e-001	 2.2710617500e+000
 1.0355909887e+000	 2.6415500503e-001	 2.3138251121e+000
 1.0329956845e+000	 2.7412857991e-001	 2.3550517912e+000
 1.0302971986e+000	 2.8410252582e-001	 2.3946332232e+000
 1.0274951366e+000	 2.9407534212e-001	 2.4324535616e+000
 1.0570532711e+000	 1.9561028137e-001	 2.0307210786e+000
 1.0551559972e+000	 2.0559869046e-001	 2.0775185431e+000
 1.0531584344e+000	 2.1559756993e-001	 2.1231061204e+000
 1.0510600099e+000	 2.2560553095e-001	 2.1674173303e+000
 1.0488601747e+000	 2.3562116606e-001	 2.2103786098e+000
 1.0465584036e+000	 2.4564304961e-001	 2.2519092506e+000
 1.0441541960e+000	 2.5566973819e-001	 2.2919213504e+000
 1.0416470763e+000	 2.6569977115e-001	 2.3303197808e+000
 1.0390365950e+000	 2.7573167102e-001	 2.3670021716e+000
 1.0363223284e+000	 2.8576394410e-001	 2.4018589120e+000
 1.0335038801e+000	 2.9579508096e-001	 2.4347731695e+000
 1.0631989296e+000	 1.9674755045e-001	 2.0793146838e+000
 1.0612906251e+000	 2.0679403169e-001	 2.1228328465e+000
 1.0592814485e+000	 2.1685104418e-001	 2.1649748239e+000
 1.0571708239e+000	 2.2691719101e-001	 2.2056728025e+000
 1.0549581990e+000	 2.3699105656e-001	 2.2448519241e+000
 1.0526430455e+000	 2.4707120687e-001	 2.2824302244e+000
 1.0502248599e+000	 2.5715619016e-001	 2.3183185880e+000
 1.0477031640e+000	 2.6724453726e-001	 2.3524207190e+000
 1.0450775054e+000	 2.7733476213e-001	 2.3846331284e+000
 1.0423474582e+000	 2.8742536238e-001	 2.4148451384e+000
 1.0395126236e+000	 2.9751481981e-001	 2.4429389046e+000
 1.0693445882e+000	 1.9788481953e-001	 2.1330710722e+000
 1.0674252530e+000	 2.0798937291e-001	 2.1733440545e+000
 1.0654044627e+000	 2.1810451842e-001	 2.2120801997e+000
 1.0632816379e+000	 2.2822885108e-001	 2.2492103711e+000
 1.0610562233e+000	 2.3836094706e-001	 2.2846584195e+000
 1.0587276874e+000	 2.4849936414e-001	 2.3183411247e+000
 1.0562955239e+000	 2.5864264213e-001	 2.3501681530e+000
 1.0537592517e+000	 2.6878930337e-001	 2.3800420307e+000
 1.0511184158e+000	 2.7893785324e-001	 2.4078581343e+000
 1.0483725880e+000	 2.8908678066e-001	 2.4335046982e+000
 1.0455213671e+000	 2.9923455865e-001	 2.4568628401e+000
 1.0754902467e+000	 1.9902208861e-001	 2.1919093786e+000
 1.0735598809e+000	 2.0918471414e-001	 2.2289709890e+000
 1.0715274768e+000	 2.1935799267e-001	 2.2643407153e+000
 1.0693924519e+000	 2.2954051114e-001	 2.2979481068e+000
 1.0671542476e+000	 2.3973083756e-001	 2.3297157277e+000
 1.0648123293e+000	 2.4992752141e-001	 2.3595591014e+000
 1.0623661878e+000	 2.6012909409e-001	 2.3873866704e+000
 1.0598153393e+000	 2.7033406948e-001	 2.4130997724e+000
 1.0571593263e+000	 2.8054094435e-001	 2.4365926338e+000
 1.0543977178e+000	 2.9074819894e-001	 2.4577523802e+000
 1.0515301105e+000	 3.0095429749e-001	 2.4764590649e+000
 1.0816359053e+000	 2.0015935769e-001	 2.2557505403e+000
 1.0796945088e+000	 2.1038005537e-001	 2.2896342842e+000
 1.0776504910e+000	 2.2061146691e-001	 2.3216766612e+000
 1.0755032660e+000	 2.3085217121e-001	 2.3518059154e+000
 1.0732522718e+000	 2.4110072807e-001	 2.3799433289e+000
 1.0708969712e+000	 2.5135567867e-001	 2.4060031678e+000
 1.0684368517e+000	 2.6161554606e-001	 2.4298926447e+000
 1.0658714270e+000	 2.7187883559e-001	 2.4515118981e+000
 1.0632002367e+000	 2.8214403546e-001	 2.4707539880e+000
 1.0604228476e+000	 2.9240961722e-001	 2.4875049098e+000
 1.0575388540e+000	 3.0267403633e-001	 2.5016436260e+000
 1.0877815638e+000	 2.0129662677e-001	 2.3245172470e+000
 1.0858291367e+000	 2.1157539659e-001	 2.3552563353e+000
 1.0837735051e+000	 2.2186494116e-001	 2.3840100991e+000
 1.0816140800e+000	 2.3216383127e-001	 2.4107054862e+000
 1.0793502961e+000	 2.4247061857e-001	 2.4352624999e+000
 1.0769816130e+000	 2.5278383594e-001	 2.4575941479e+000
 1.0745075156e+000	 2.6310199803e-001	 2.4776064071e+000
 1.0719275146e+000	 2.7342360170e-001	 2.4951982053e+000
 1.0692411471e+000	 2.8374712657e-001	 2.5102614199e+000
 1.0664479775e+000	 2.9407103550e-001	 2.5226808943e+000
 1.0635475975e+000	 3.0439377518e-001	 2.5323344736e+000
 1.0939272224e+000	 2.0243389585e-001	 2.3981338909e+000
 1.0919637646e+000	 2.1277073782e-001	 2.4257612493e+000
 1.0898965193e+000	 2.2311841540e-001	 2.4512648129e+000
 1.0877248940e+000	 2.3347549134e-001	 2.4745702414e+000
 1.0854483204e+000	 2.4384050907e-001	 2.4955962631e+000
 1.0830662549e+000	 2.5421199320e-001	 2.5142546257e+000
 1.0805781796e+000	 2.6458845000e-001	 2.5304500640e+000
 1.0779836023e+000	 2.7496836782e-001	 2.5440802834e+000
 1.0752820576e+000	 2.8535021768e-001	 2.5550359620e+000
 1.0724731073e+000	 2.9573245378e-001	 2.5632007698e+000
 1.0695563410e+000	 3.0611351402e-001	 2.5684514070e+000
 1.1000728809e+000	 2.0357116493e-001	 2.4765265193e+000
 1.0980983925e+000	 2.1396607904e-001	 2.5010747967e+000
 1.0960195334e+000	 2.2437188965e-001	 2.5233662598e+000
 1.0938357080e+000	 2.3478715140e-001	 2.5433252882e+000
 1.0915463446e+000	 2.4521039957e-001	 2.5608693382e+000
 1.0891508968e+000	 2.5564015047e-001	 2.5759088960e+000
 1.0866488435e+000	 2.6607490196e-001	 2.5883474472e+000
 1.0840396899e+000	 2.7651313393e-001	 2.5980814634e+000
 1.0813229680e+000	 2.8695330880e-001	 2.6050004063e+000
 1.0784982371e+000	 2.9739387206e-001	 2.6089867504e+000
 1.0755650845e+000	 3.0783325287e-001	 2.6099160235e+000
 1.1062185395e+000	 2.0470843400e-001	 2.5596227889e+000
 1.1042330204e+000	 2.1516142026e-001	 2.5811243660e+000
 1.1021425476e+000	 2.2562536389e-001	 2.6002415246e+000
 1.0999465220e+000	 2.3609881147e-001	 2.6168973719e+000
 1.0976443689e+000	 2.4658029007e-001	 2.6310080952e+000
 1.0952355387e+000	 2.5706830774e-001	 2.6424829169e+000
 1.0927195074e+000	 2.6756135393e-001	 2.6512240666e+000
 1.0900957776e+000	 2.7805790004e-001	 2.6571267699e+000
 1.0873638784e+000	 2.8855639991e-001	 2.6600792551e+000
 1.0845233669e+000	 2.9905529034e-001	 2.6599627785e+000
 1.0815738280e+000	 3.0955299171e-001	 2.6566516683e+000
 1.0214863931e+000	 2.9235560328e-001	 2.4360700823e+000
 1.0185973823e+000	 3.0226746914e-001	 2.4928161285e+000
 1.0156046990e+000	 3.1217518382e-001	 2.5500343219e+000
 1.0125080343e+000	 3.2207721221e-001	 2.6076416062e+000
 1.0093071075e+000	 3.3197200594e-001	 2.6655462634e+000
 1.0060016676e+000	 3.4185800407e-001	 2.7236479368e+000
 1.0025914926e+000	 3.5173363372e-001	 2.7818376755e+000
 9.9907639096e-001	 3.6159731069e-001	 2.8399979983e+000
 9.9545620156e-001	 3.7144744020e-001	 2.8980029785e+000
 9.9173079417e-001	 3.8128241756e-001	 2.9557183506e+000
 9.8790006990e-001	 3.9110062891e-001	 3.0130016373e+000
 1.0274951366e+000	 2.9407534212e-001	 2.4324535616e+000
 1.0245891316e+000	 3.0404551307e-001	 2.4848504787e+000
 1.0215788443e+000	 3.1401150843e-001	 2.5375483541e+000
 1.0184639639e+000	 3.2397178404e-001	 2.5904603152e+000
 1.0152442082e+000	 3.3392478244e-001	 2.6434908417e+000
 1.0119193244e+000	 3.4386893351e-001	 2.6965357950e+000
 1.0084890896e+000	 3.5380265509e-001	 2.7494824688e+000
 1.0049533109e+000	 3.6372435369e-001	 2.8022096596e+000
 1.0013118263e+000	 3.7363242514e-001	 2.8545877588e+000
 9.9756450473e-001	 3.8352525531e-001	 2.9064788653e+000
 9.9371124679e-001	 3.9340122085e-001	 2.9577369207e+000
 1.0335038801e+000	 2.9579508096e-001	 2.4347731695e+000
 1.0305808809e+000	 3.0582355701e-001	 2.4828461718e+000
 1.0275529896e+000	 3.1584783304e-001	 2.5310541955e+000
 1.0244198935e+000	 3.2586635587e-001	 2.5793065362e+000
 1.0211813088e+000	 3.3587755894e-001	 2.6275038513e+000
 1.0178369813e+000	 3.4587986294e-001	 2.6755381954e+000
 1.0143866866e+000	 3.5587167646e-001	 2.7232930768e+000
 1.0108302309e+000	 3.6585139669e-001	 2.7706435346e+000
 1.0071674510e+000	 3.7581741008e-001	 2.8174562377e+000
 1.0033982153e+000	 3.8576809306e-001	 2.8635896046e+000
 9.9952242367e-001	 3.9570181278e-001	 2.9088939450e+000
 1.0395126236e+000	 2.9751481981e-001	 2.4429389046e+000
 1.0365726302e+000	 3.0760160094e-001	 2.4867135716e+000
 1.0335271349e+000	 3.1768415765e-001	 2.5304625332e+000
 1.0303758231e+000	 3.2776092771e-001	 2.5740912378e+000
 1.0271184094e+000	 3.3783033545e-001	 2.6174964999e+000
 1.0237546382e+000	 3.4789079238e-001	 2.6605665412e+000
 1.0202842836e+000	 3.5794069784e-001	 2.7031810539e+000
 1.0167071508e+000	 3.6797843969e-001	 2.7452112842e+000
 1.0130230757e+000	 3.7800239502e-001	 2.7865201376e+000
 1.0092319258e+000	 3.8801093081e-001	 2.8269623059e+000
 1.0053336005e+000	 3.9800240472e-001	 2.8663844165e+000
 1.0455213671e+000	 2.9923455865e-001	 2.4568628401e+000
 1.0425643795e+000	 3.0937964488e-001	 2.4963651142e+000
 1.0395012802e+000	 3.1952048226e-001	 2.5356861263e+000
 1.0363317527e+000	 3.2965549954e-001	 2.5747274613e+000
 1.0330555101e+000	 3.3978311195e-001	 2.6133820691e+000
 1.0296722950e+000	 3.4990172181e-001	 2.6515343127e+000
 1.0261818806e+000	 3.6000971921e-001	 2.6890600366e+000
 1.0225840707e+000	 3.7010548270e-001	 2.7258266574e+000
 1.0188787004e+000	 3.8018737996e-001	 2.7616932758e+000
 1.0150656364e+000	 3.9025376856e-001	 2.7965108108e+000
 1.0111447774e+000	 4.0030299665e-001	 2.8301221555e+000
 1.0515301105e+000	 3.0095429749e-001	 2.4764590649e+000
 1.0485561288e+000	 3.1115768881e-001	 2.5117152492e+000
 1.0454754255e+000	 3.2135680687e-001	 2.5466397465e+000
 1.0422876823e+000	 3.3155007138e-001	 2.5811302609e+000
 1.0389926107e+000	 3.4173588846e-001	 2.6150758559e+000
 1.0355899519e+000	 3.5191265124e-001	 2.6483570085e+000
 1.0320794776e+000	 3.6207874058e-001	 2.6808456836e+000
 1.0284609907e+000	 3.7223252570e-001	 2.7124054314e+000
 1.0247343251e+000	 3.8237236490e-001	 2.7428915056e+000
 1.0208993469e+000	 3.9249660631e-001	 2.7721510050e+000
 1.0169559543e+000	 4.0260358859e-001	 2.8000230363e+000
 1.0575388540e+000	 3.0267403633e-001	 2.5016436260e+000
 1.0545478781e+000	 3.1293573275e-001	 2.5326803826e+000
 1.0514495707e+000	 3.2319313148e-001	 2.5632401210e+000
 1.0482436119e+000	 3.3344464322e-001	 2.5932166468e+000
 1.0449297113e+000	 3.4368866496e-001	 2.6224951147e+000
 1.0415076088e+000	 3.5392358068e-001	 2.6509520879e+000
 1.0379770747e+000	 3.6414776196e-001	 2.6784556192e+000
 1.0343379106e+000	 3.7435956870e-001	 2.7048653544e+000
 1.0305899498e+000	 3.8455734985e-001	 2.7300326577e+000
 1.0267330575e+000	 3.9473944406e-001	 2.7538007598e+000
 1.0227671312e+000	 4.0490418052e-001	 2.7760049286e+000
 1.0635475975e+000	 3.0439377518e-001	 2.5323344736e+000
 1.0605396274e+000	 3.1471377669e-001	 2.5591788212e+000
 1.0574237160e+000	 3.2502945609e-001	 2.5854058770e+000
 1.0541995416e+000	 3.3533921505e-001	 2.6109055301e+000
 1.0508668120e+000	 3.4564144147e-001	 2.6355590026e+000
 1.0474252656e+000	 3.5593451012e-001	 2.6592389158e+000
 1.0438746717e+000	 3.6621678333e-001	 2.6818093770e+000
 1.0402148306e+000	 3.7648661171e-001	 2.7031260895e+000
 1.0364455746e+000	 3.8674233479e-001	 2.7230364846e+000
 1.0325667680e+000	 3.9698228182e-001	 2.7413798767e+000
 1.0285783081e+000	 4.0720477246e-001	 2.7579876411e+000
 1.0695563410e+000	 3.0611351402e-001	 2.5684514070e+000
 1.0665313767e+000	 3.1649182062e-001	 2.5911307193e+000
 1.0633978613e+000	 3.2686578070e-001	 2.6130574889e+000
 1.0601554712e+000	 3.3723378689e-001	 2.6341176690e+000
 1.0568039126e+000	 3.4759421798e-001	 2.6541885255e+000
 1.0533429225e+000	 3.5794543955e-001	 2.6731387087e+000
 1.0497722687e+000	 3.6828580471e-001	 2.6908283467e+000
 1.0460917505e+000	 3.7861365471e-001	 2.7071091611e+000
 1.0423011993e+000	 3.8892731973e-001	 2.7218246067e+000
 1.0384004786e+000	 3.9922511957e-001	 2.7348100324e+000
 1.0343894849e+000	 4.0950536440e-001	 2.7458928671e+000
 1.0755650845e+000	 3.0783325287e-001	 2.6099160235e+000
 1.0725231260e+000	 3.1826986456e-001	 2.6284580275e+000
 1.0693720066e+000	 3.2870210532e-001	 2.6461172262e+000
 1.0661114008e+000	 3.3912835873e-001	 2.6627756176e+000
 1.0627410132e+000	 3.4954699448e-001	 2.6783064867e+000
 1.0592605794e+000	 3.5995636899e-001	 2.6925744835e+000
 1.0556698657e+000	 3.7035482609e-001	 2.7054357220e+000
 1.0519686705e+000	 3.8074069772e-001	 2.7167379032e+000
 1.0481568240e+000	 3.9111230468e-001	 2.7263204600e+000
 1.0442341891e+000	 4.0146795732e-001	 2.7340147270e+000
 1.0402006618e+000	 4.1180595633e-001	 2.7396441320e+000
 1.0815738280e+000	 3.0955299171e-001	 2.6566516683e+000
 1.0785148753e+000	 3.2004790850e-001	 2.6710844421e+000
 1.0753461519e+000	 3.3053842993e-001	 2.6845091038e+000
 1.0720673304e+000	 3.4102293057e-001	 2.6968036757e+000
 1.0686781139e+000	 3.5149977099e-001	 2.7078374371e+000
 1.0651782362e+000	 3.6196729843e-001	 2.7174710071e+000
 1.0615674627e+000	 3.7242384746e-001	 2.7255564509e+000
 1.0578455904e+000	 3.8286774073e-001	 2.7319374083e+000
 1.0540124487e+000	 3.9329728962e-001	 2.7364492459e+000
 1.0500678997e+000	 4.0371079507e-001	 2.7389192332e+000
 1.0460118387e+000	 4.1410654827e-001	 2.7391667420e+000
 9.8790006990e-001	 3.9110062891e-001	 3.0130016373e+000
 9.8396396158e-001	 4.0090045192e-001	 3.0756411179e+000
 9.7992243413e-001	 4.1068025656e-001	 3.1338513709e+000
 9.7577548489e-001	 4.2043840586e-001	 3.1874154207e+000
 9.7152314396e-001	 4.3017325669e-001	 3.2361114023e+000
 9.6716547450e-001	 4.3988316057e-001	 3.2797128774e+000
 9.6270257301e-001	 4.4956646442e-001	 3.3179891707e+000
 9.5813456957e-001	 4.5922151147e-001	 3.3507057237e+000
 9.5346162812e-001	 4.6884664198e-001	 3.3776244676e+000
 9.4868394662e-001	 4.7844019420e-001	 3.3985042126e+000
 9.4380175725e-001	 4.8800050512e-001	 3.4131010556e+000
 9.9371124679e-001	 3.9340122085e-001	 2.9577369207e+000
 9.8975198489e-001	 4.0325868987e-001	 3.0138790594e+000
 9.8568668374e-001	 4.1309602278e-001	 3.0660209521e+000
 9.8151534068e-001	 4.2291157295e-001	 3.1139485252e+000
 9.7723798598e-001	 4.3270368762e-001	 3.1574423856e+000
 9.7285468318e-001	 4.4247070858e-001	 3.1962781336e+000
 9.6836552932e-001	 4.5221097304e-001	 3.2302266939e+000
 9.6377065528e-001	 4.6192281448e-001	 3.2590546672e+000
 9.5907022594e-001	 4.7160456341e-001	 3.2825246994e+000
 9.5426444043e-001	 4.8125454829e-001	 3.3003958702e+000
 9.4935353230e-001	 4.9087109633e-001	 3.3124240981e+000
 9.9952242367e-001	 3.9570181278e-001	 2.9088939450e+000
 9.9554000819e-001	 4.0561692783e-001	 2.9586748445e+000
 9.9145093336e-001	 4.1551178899e-001	 3.0048820718e+000
 9.8725519648e-001	 4.2538474005e-001	 3.0473043225e+000
 9.8295282801e-001	 4.3523411854e-001	 3.0857245420e+000
 9.7854389185e-001	 4.4505825658e-001	 3.1199202340e+000
 9.7402848564e-001	 4.5485548166e-001	 3.1496637881e+000
 9.6940674099e-001	 4.6462411749e-001	 3.1747228279e+000
 9.6467882375e-001	 4.7436248484e-001	 3.1948605777e+000
 9.5984493423e-001	 4.8406890238e-001	 3.2098362494e+000
 9.5490530735e-001	 4.9374168754e-001	 3.2194054469e+000
 1.0053336005e+000	 3.9800240472e-001	 2.8663844165e+000
 1.0013280315e+000	 4.0797516578e-001	 2.9099390664e+000
 9.9721518297e-001	 4.1792755521e-001	 2.9503442890e+000
 9.9299505227e-001	 4.2785790715e-001	 2.9873914164e+000
 9.8866767003e-001	 4.3776454947e-001	 3.0208655996e+000
 9.8423310053e-001	 4.4764580459e-001	 3.0505461115e+000
 9.7969144195e-001	 4.5749999028e-001	 3.0762066715e+000
 9.7504282669e-001	 4.6732542051e-001	 3.0976157902e+000
 9.7028742157e-001	 4.7712040627e-001	 3.1145371343e+000
 9.6542542804e-001	 4.8688325647e-001	 3.1267299116e+000
 9.6045708239e-001	 4.9661227875e-001	 3.1339492743e+000
 1.0111447774e+000	 4.0030299665e-001	 2.8301221555e+000
 1.0071160548e+000	 4.1033340374e-001	 2.8675844681e+000
 1.0029794326e+000	 4.2034332143e-001	 2.9023193459e+000
 9.9873490806e-001	 4.3033107424e-001	 2.9341206263e+000
 9.9438251206e-001	 4.4029498039e-001	 2.9627755330e+000
 9.8992230920e-001	 4.5023335260e-001	 2.9880649744e+000
 9.8535439826e-001	 4.6014449890e-001	 3.0097638650e+000
 9.8067891239e-001	 4.7002672352e-001	 3.0276414672e+000
 9.7589601938e-001	 4.7987832770e-001	 3.0414617544e+000
 9.7100592184e-001	 4.8969761055e-001	 3.0509837936e+000
 9.6600885744e-001	 4.9948286996e-001	 3.0559621490e+000
 1.0169559543e+000	 4.0260358859e-001	 2.8000230363e+000
 1.0129040781e+000	 4.1269164169e-001	 2.8315258805e+000
 1.0087436822e+000	 4.2275908764e-001	 2.8607211056e+000
 1.0044747639e+000	 4.3280424134e-001	 2.8874049238e+000
 1.0000973541e+000	 4.4282541132e-001	 2.9113664986e+000
 9.9561151787e-001	 4.5282090060e-001	 2.9323882410e+000
 9.9101735457e-001	 4.6278900752e-001	 2.9502461264e+000
 9.8631499810e-001	 4.7272802653e-001	 2.9647100342e+000
 9.8150461719e-001	 4.8263624912e-001	 2.9755441084e+000
 9.7658641565e-001	 4.9251196464e-001	 2.9825071396e+000
 9.7156063248e-001	 5.0235346117e-001	 2.9853529676e+000
 1.0227671312e+000	 4.0490418052e-001	 2.7760049286e+000
 1.0186921014e+000	 4.1504987964e-001	 2.8016801631e+000
 1.0145079318e+000	 4.2517485386e-001	 2.8254654920e+000
 1.0102146196e+000	 4.3527740843e-001	 2.8471593711e+000
 1.0058121961e+000	 4.4535584224e-001	 2.8665527728e+000
 1.0013007265e+000	 4.5540844861e-001	 2.8834294773e+000
 9.9668031088e-001	 4.6543351613e-001	 2.8975663872e+000
 9.9195108380e-001	 4.7542932954e-001	 2.9087338640e+000
 9.8711321500e-001	 4.8539417055e-001	 2.9166960875e+000
 9.8216690945e-001	 4.9532631873e-001	 2.9212114358e+000
 9.7711240752e-001	 5.0522405238e-001	 2.9220328881e+000
 1.0285783081e+000	 4.0720477246e-001	 2.7579876411e+000
 1.0244801247e+000	 4.1740811760e-001	 2.7779661471e+000
 1.0202721814e+000	 4.2759062008e-001	 2.7964704312e+000
 1.0159544754e+000	 4.3775057553e-001	 2.8133010629e+000
 1.0115270381e+000	 4.4788627316e-001	 2.8282506920e+000
 1.0069899352e+000	 4.5799599661e-001	 2.8411043358e+000
 1.0023432672e+000	 4.6807802475e-001	 2.8516396904e+000
 9.9758716950e-001	 4.7813063255e-001	 2.8596274654e+000
 9.9272181281e-001	 4.8815209197e-001	 2.8648317408e+000
 9.8774740325e-001	 4.9814067281e-001	 2.8670103470e+000
 9.8266418256e-001	 5.0809464359e-001	 2.8659152665e+000
 1.0343894849e+000	 4.0950536440e-001	 2.7458928671e+000
 1.0302681480e+000	 4.1976635555e-001	 2.7603045796e+000
 1.0260364310e+000	 4.3000638629e-001	 2.7736557954e+000
 1.0216943312e+000	 4.4022374262e-001	 2.7857490685e+000
 1.0172418801e+000	 4.5041670409e-001	 2.7963785951e+000
 1.0126791439e+000	 4.6058354462e-001	 2.8053304974e+000
 1.0080062235e+000	 4.7072253336e-001	 2.8123831322e+000
 1.0032232552e+000	 4.8083193556e-001	 2.8173074227e+000
 9.9833041062e-001	 4.9091001340e-001	 2.8198672147e+000
 9.9332789705e-001	 5.0095502689e-001	 2.8198196554e+000
 9.8821595760e-001	 5.1096523480e-001	 2.8169155947e+000
 1.0402006618e+000	 4.1180595633e-001	 2.7396441320e+000
 1.0360561713e+000	 4.2212459350e-001	 2.7486180701e+000
 1.0318006806e+000	 4.3242215251e-001	 2.7569433486e+000
 1.0274341870e+000	 4.4269690972e-001	 2.7644243768e+000
 1.0229567222e+000	 4.5294713501e-001	 2.7708567669e+000
 1.0183683526e+000	 4.6317109262e-001	 2.7760276143e+000
 1.0136691798e+000	 4.7336704198e-001	 2.7797158036e+000
 1.0088593409e+000	 4.8353323857e-001	 2.7816923380e+000
 1.0039390084e+000	 4.9366793482e-001	 2.7817206945e+000
 9.9890839085e-001	 5.0376938097e-001	 2.7795572015e+000
 9.9376773264e-001	 5.1383582600e-001	 2.7749514410e+000
 1.0460118387e+000	 4.1410654827e-001	 2.7391667420e+000
 1.0418441946e+000	 4.2448283146e-001	 2.7428310392e+000
 1.0375649302e+000	 4.3483791872e-001	 2.7462566943e+000
 1.0331740428e+000	 4.4517007681e-001	 2.7492498434e+000
 1.0286715642e+000	 4.5547756593e-001	 2.7516073847e+000
 1.0240575612e+000	 4.6575864062e-001	 2.7531172556e+000
 1.0193321361e+000	 4.7601155059e-001	 2.7535587358e+000
 1.0144954266e+000	 4.8623454157e-001	 2.7527027752e+000
 1.0095476062e+000	 4.9642585624e-001	 2.7503123473e+000
 1.0044888846e+000	 5.0658373506e-001	 2.7461428270e+000
 9.9931950768e-001	 5.1670641720e-001	 2.7399423924e+000
 9.4380175725e-001	 4.8800050512e-001	 3.4131010556e+000
 9.3881532661e-001	 4.9752591139e-001	 3.4407693561e+000
 9.3372495580e-001	 5.0701475018e-001	 3.4694405571e+000
 9.2853098055e-001	 5.1646536006e-001	 3.4990054786e+000
 9.2323377133e-001	 5.2587608185e-001	 3.5293473716e+000
 9.1783373335e-001	 5.3524525959e-001	 3.5603421890e+000
 9.1233130665e-001	 5.4457124133e-001	 3.5918588760e+000
 9.0672696607e-001	 5.5385238015e-001	 3.6237596785e+000
 9.0102122122e-001	 5.6308703494e-001	 3.6559004694e+000
 8.9521461642e-001	 5.7227357142e-001	 3.6881310919e+000
 8.8930773068e-001	 5.8141036298e-001	 3.7202957199e+000
 9.4935353230e-001	 4.9087109633e-001	 3.3124240981e+000
 9.4433776971e-001	 5.0045253440e-001	 3.3392746362e+000
 9.3921745554e-001	 5.0999718990e-001	 3.3660300459e+000
 9.3399292750e-001	 5.1950339159e-001	 3.3925580212e+000
 9.2866455822e-001	 5.2896947058e-001	 3.4187194942e+000
 9.2323275532e-001	 5.3839376112e-001	 3.4443689411e+000
 9.1769796140e-001	 5.4777460158e-001	 3.4693547086e+000
 9.1206065411e-001	 5.5711033533e-001	 3.4935193560e+000
 9.0632134605e-001	 5.6639931162e-001	 3.5167000158e+000
 9.0048058476e-001	 5.7563988656e-001	 3.5387287700e+000
 8.9453895263e-001	 5.8483042394e-001	 3.5594330418e+000
 9.5490530735e-001	 4.9374168754e-001	 3.2194054469e+000
 9.4986021282e-001	 5.0337915742e-001	 3.2452381083e+000
 9.4470995529e-001	 5.1297962961e-001	 3.2698912127e+000
 9.3945487445e-001	 5.2254142313e-001	 3.2932094047e+000
 9.3409534512e-001	 5.3206285930e-001	 3.3150313647e+000
 9.2863177728e-001	 5.4154226265e-001	 3.3351901509e+000
 9.2306461615e-001	 5.5097796183e-001	 3.3535135605e+000
 9.1739434215e-001	 5.6036829051e-001	 3.3698245064e+000
 9.1162147089e-001	 5.6971158830e-001	 3.3839414114e+000
 9.0574655310e-001	 5.7900620169e-001	 3.3956786177e+000
 8.9977017457e-001	 5.8825048490e-001	 3.4048468100e+000
 9.6045708239e-001	 4.9661227875e-001	 3.1339492743e+000
 9.5538265592e-001	 5.0630578043e-001	 3.1585689456e+000
 9.5020245503e-001	 5.1596206932e-001	 3.1809380124e+000
 9.4491682140e-001	 5.2557945466e-001	 3.2008781429e+000
 9.3952613201e-001	 5.3515624802e-001	 3.2182058298e+000
 9.3403079925e-001	 5.4469076418e-001	 3.2327327685e+000
 9.2843127090e-001	 5.5418132208e-001	 3.2442662523e+000
 9.2272803019e-001	 5.6362624569e-001	 3.2526095846e+000
 9.1692159572e-001	 5.7302386498e-001	 3.2575625066e+000
 9.1101252143e-001	 5.8237251682e-001	 3.2589216387e+000
 9.0500139652e-001	 5.9167054587e-001	 3.2564809370e+000
 9.6600885744e-001	 4.9948286996e-001	 3.0559621490e+000
 9.6090509902e-001	 5.0923240344e-001	 3.0791786145e+000
 9.5569495477e-001	 5.1894450903e-001	 3.0990865955e+000
 9.5037876834e-001	 5.2861748620e-001	 3.1154848531e+000
 9.4495691890e-001	 5.3824963674e-001	 3.1281677529e+000
 9.3942982121e-001	 5.4783926571e-001	 3.1369256787e+000
 9.3379792565e-001	 5.5738468232e-001	 3.1415454632e+000
 9.2806171823e-001	 5.6688420087e-001	 3.1418108339e+000
 9.2222172055e-001	 5.7633614166e-001	 3.1375028747e+000
 9.1627848976e-001	 5.8573883194e-001	 3.1284005006e+000
 9.1023261847e-001	 5.9509060683e-001	 3.1142809450e+000
 9.7156063248e-001	 5.0235346117e-001	 2.9853529676e+000
 9.6642754211e-001	 5.1215902645e-001	 3.0069808095e+000
 9.6118745451e-001	 5.2192694874e-001	 3.0242552456e+000
 9.5584071529e-001	 5.3165551773e-001	 3.0369521959e+000
 9.5038770579e-001	 5.4134302546e-001	 3.0448439558e+000
 9.4482884317e-001	 5.5098776724e-001	 3.0476996461e+000
 9.3916458040e-001	 5.6058804257e-001	 3.0452856780e+000
 9.3339540627e-001	 5.7014215605e-001	 3.0373662342e+000
 9.2752184538e-001	 5.7964841834e-001	 3.0237037631e+000
 9.2154445810e-001	 5.8910514707e-001	 3.0040594867e+000
 9.1546384041e-001	 5.9851066779e-001	 2.9781939204e+000
 9.7711240752e-001	 5.0522405238e-001	 2.9220328881e+000
 9.7194998521e-001	 5.1508564946e-001	 2.9418913896e+000
 9.6667995425e-001	 5.2490938845e-001	 2.9563643190e+000
 9.6130266223e-001	 5.3469354926e-001	 2.9652048172e+000
 9.5581849268e-001	 5.4443641418e-001	 2.9681631637e+000
 9.5022786513e-001	 5.5413626877e-001	 2.9649872611e+000
 9.4453123514e-001	 5.6379140281e-001	 2.9554231359e+000
 9.3872909430e-001	 5.7340011123e-001	 2.9392154532e+000
 9.3282197021e-001	 5.8296069502e-001	 2.9161080450e+000
 9.2681042643e-001	 5.9247146220e-001	 2.8858444506e+000
 9.2069506236e-001	 6.0193072875e-001	 2.8481684684e+000
 9.8266418256e-001	 5.0809464359e-001	 2.8659152665e+000
 9.7747242831e-001	 5.1801227247e-001	 2.8838283173e+000
 9.7217245399e-001	 5.2789182816e-001	 2.8953361855e+000
 9.6676460918e-001	 5.3773158079e-001	 2.9001692922e+000
 9.6124927957e-001	 5.4752980289e-001	 2.8980559511e+000
 9.5562688709e-001	 5.5728477030e-001	 2.8887228890e+000
 9.4989788988e-001	 5.6699476306e-001	 2.8718957807e+000
 9.4406278234e-001	 5.7665806641e-001	 2.8472997985e+000
 9.3812209504e-001	 5.8627297169e-001	 2.8146601742e+000
 9.3207639476e-001	 5.9583777732e-001	 2.7737027717e+000
 9.2592628430e-001	 6.0535078970e-001	 2.7241546713e+000
 9.8821595760e-001	 5.1096523480e-001	 2.8169155947e+000
 9.8299487140e-001	 5.2093889548e-001	 2.8327115994e+000
 9.7766495373e-001	 5.3087426786e-001	 2.8410951726e+000
 9.7222655612e-001	 5.4076961232e-001	 2.8417740710e+000
 9.6668006646e-001	 5.5062319161e-001	 2.8344546902e+000
 9.6102590905e-001	 5.6043327182e-001	 2.8188426195e+000
 9.5526454463e-001	 5.7019812330e-001	 2.7946432128e+000
 9.4939647037e-001	 5.7991602158e-001	 2.7615621716e+000
 9.4342221987e-001	 5.8958524837e-001	 2.7193061402e+000
 9.3734236309e-001	 5.9920409245e-001	 2.6675833123e+000
 9.3115750625e-001	 6.0877085066e-001	 2.6061040459e+000
 9.9376773264e-001	 5.1383582600e-001	 2.7749514410e+000
 9.8851731450e-001	 5.2386551849e-001	 2.7884632301e+000
 9.8315745347e-001	 5.3385670757e-001	 2.7935675102e+000
 9.7768850306e-001	 5.4380764385e-001	 2.7899494265e+000
 9.7211085335e-001	 5.5371658033e-001	 2.7772935000e+000
 9.6642493101e-001	 5.6358177335e-001	 2.7552842191e+000
 9.6063119937e-001	 5.7340148354e-001	 2.7236066436e+000
 9.5473015840e-001	 5.8317397676e-001	 2.6819470232e+000
 9.4872234470e-001	 5.9289752504e-001	 2.6299934256e+000
 9.4260833142e-001	 6.0257040757e-001	 2.5674363760e+000
 9.3638872819e-001	 6.1219091162e-001	 2.4939695042e+000
 9.9931950768e-001	 5.1670641720e-001	 2.7399423924e+000
 9.9403975759e-001	 5.2679214149e-001	 2.7510071355e+000
 9.8864995320e-001	 5.3683914727e-001	 2.7526812782e+000
 9.8315045000e-001	 5.4684567537e-001	 2.7446274033e+000
 9.7754164023e-001	 5.5680996904e-001	 2.7265081987e+000
 9.7182395297e-001	 5.6673027487e-001	 2.6979870840e+000
 9.6599785411e-001	 5.7660484378e-001	 2.6587288500e+000
 9.6006384644e-001	 5.8643193193e-001	 2.6084003104e+000
 9.5402246953e-001	 5.9620980171e-001	 2.5466709644e+000
 9.4787429975e-001	 6.0593672269e-001	 2.4732136682e+000
 9.4161995013e-001	 6.1561097257e-001	 2.3877053143e+000
 8.8930773068e-001	 5.8141036298e-001	 3.7202957199e+000
 8.8330117749e-001	 5.9049579158e-001	 3.7319331538e+000
 8.7719560477e-001	 5.9952824872e-001	 3.7108149139e+000
 8.7099169465e-001	 6.0850613628e-001	 3.6565345804e+000
 8.6469016332e-001	 6.1742786745e-001	 3.5687123658e+000
 8.5829176076e-001	 6.2629186763e-001	 3.4784015256e+000
 8.5179727051e-001	 6.3509657533e-001	 3.5391721471e+000
 8.4520750941e-001	 6.4384044304e-001	 3.5688950444e+000
 8.3852332726e-001	 6.5252193810e-001	 3.5676856670e+000
 8.3174560649e-001	 6.6113954363e-001	 3.5356857775e+000
 8.2487526182e-001	 6.6969175932e-001	 3.4730632919e+000
 8.9453895263e-001	 5.8483042394e-001	 3.5594330418e+000
 8.8849706677e-001	 5.9396929625e-001	 3.5564077559e+000
 8.8235557892e-001	 6.0305488548e-001	 3.5218833659e+000
 8.7611517521e-001	 6.1208558414e-001	 3.4554616502e+000
 8.6977657605e-001	 6.2105979609e-001	 3.3567699390e+000
 8.6334053583e-001	 6.2997593745e-001	 3.3449188812e+000
 8.5680784270e-001	 6.3883243755e-001	 3.3969248386e+000
 8.5017931829e-001	 6.4762773977e-001	 3.4192622060e+000
 8.4345581742e-001	 6.5636030245e-001	 3.4120587513e+000
 8.3663822770e-001	 6.6502859977e-001	 3.3754673573e+000
 8.2972746924e-001	 6.7363112261e-001	 3.3096658438e+000
 8.9977017457e-001	 5.8825048490e-001	 3.4048468100e+000
 8.9369295605e-001	 5.9744280091e-001	 3.3874047152e+000
 8.8751555306e-001	 6.0658152224e-001	 3.3397047846e+000
 8.8123865577e-001	 6.1566503201e-001	 3.2613567599e+000
 8.7486298878e-001	 6.2469172472e-001	 3.1519948631e+000
 8.6838931089e-001	 6.3366000726e-001	 3.2165234038e+000
 8.6181841488e-001	 6.4256829976e-001	 3.2598628486e+000
 8.5515112717e-001	 6.5141503649e-001	 3.2748979747e+000
 8.4838830758e-001	 6.6019866679e-001	 3.2617688279e+000
 8.4153084892e-001	 6.6891765591e-001	 3.2206393798e+000
 8.3457967667e-001	 6.7757048590e-001	 3.1516973311e+000
 9.0500139652e-001	 5.9167054587e-001	 3.2564809370e+000
 8.9888884533e-001	 6.0091630556e-001	 3.2248652702e+000
 8.9267552721e-001	 6.1010815900e-001	 3.1642179915e+000
 8.8636213633e-001	 6.1924447987e-001	 3.0741565732e+000
 8.7994940151e-001	 6.2832365335e-001	 3.0312585103e+000
 8.7343808596e-001	 6.3734407707e-001	 3.0931113584e+000
 8.6682898706e-001	 6.4630416197e-001	 3.1278802176e+000
 8.6012293605e-001	 6.5520233322e-001	 3.1356944413e+000
 8.5332079774e-001	 6.6403703114e-001	 3.1167063145e+000
 8.4642347013e-001	 6.7280671205e-001	 3.0710908675e+000
 8.3943188409e-001	 6.8150984920e-001	 2.9990456606e+000
 9.1023261847e-001	 5.9509060683e-001	 3.1142809450e+000
 9.0408473462e-001	 6.0438981022e-001	 3.0687323435e+000
 8.9783550136e-001	 6.1363479576e-001	 2.9953635616e+000
 8.9148561689e-001	 6.2282392773e-001	 2.8937995699e+000
 8.8503581423e-001	 6.3195558199e-001	 2.9225269328e+000
 8.7848686102e-001	 6.4102814688e-001	 2.9745809334e+000
 8.7183955924e-001	 6.5004002418e-001	 3.0008729542e+000
 8.6509474493e-001	 6.5898962994e-001	 3.0015457030e+000
 8.5825328790e-001	 6.6787539548e-001	 2.9767636675e+000
 8.5131609135e-001	 6.7669576819e-001	 2.9267129081e+000
 8.4428409151e-001	 6.8544921249e-001	 2.8516008244e+000
 9.1546384041e-001	 5.9851066779e-001	 2.9781939204e+000
 9.0928062389e-001	 6.0786331488e-001	 2.9189504943e+000
 9.0299547550e-001	 6.1716143252e-001	 2.8330837724e+000
 8.9660909745e-001	 6.2640337559e-001	 2.7515214672e+000
 8.9012222696e-001	 6.3558751062e-001	 2.8184714090e+000
 8.8353563608e-001	 6.4471221669e-001	 2.8608321856e+000
 8.7685013142e-001	 6.5377588638e-001	 2.8787389785e+000
 8.7006655381e-001	 6.6277692667e-001	 2.8723478064e+000
 8.6318577806e-001	 6.7171375982e-001	 2.8418353241e+000
 8.5620871256e-001	 6.8058482433e-001	 2.7873985952e+000
 8.4913629893e-001	 6.8938857578e-001	 2.7092548401e+000
 9.2069506236e-001	 6.0193072875e-001	 2.8481684684e+000
 9.1447651317e-001	 6.1133681954e-001	 2.7754658716e+000
 9.0815544965e-001	 6.2068806928e-001	 2.6773225567e+000
 9.0173257800e-001	 6.2998282345e-001	 2.6629160238e+000
 8.9520863968e-001	 6.3921943925e-001	 2.7189961610e+000
 8.8858441115e-001	 6.4839628650e-001	 2.7517669874e+000
 8.8186070360e-001	 6.5751174859e-001	 2.7613780682e+000
 8.7503836269e-001	 6.6656422339e-001	 2.7479986916e+000
 8.6811826822e-001	 6.7555212416e-001	 2.7118176456e+000
 8.6110133378e-001	 6.8447388047e-001	 2.6530429716e+000
 8.5398850636e-001	 6.9332793907e-001	 2.5719016931e+000
 9.2592628430e-001	 6.0535078970e-001	 2.7241546713e+000
 9.1967240245e-001	 6.1481032419e-001	 2.6382261691e+000
 9.1331542379e-001	 6.2421470603e-001	 2.5280254548e+000
 9.0685605856e-001	 6.3356227131e-001	 2.5786823649e+000
 9.0029505241e-001	 6.4285136788e-001	 2.6240071283e+000
 8.9363318621e-001	 6.5208035631e-001	 2.6472889750e+000
 8.8687127577e-001	 6.6124761080e-001	 2.6486918062e+000
 8.8001017157e-001	 6.7035152011e-001	 2.6283981393e+000
 8.7305075838e-001	 6.7939048850e-001	 2.5866088637e+000
 8.6599395499e-001	 6.8836293661e-001	 2.5235429740e+000
 8.5884071378e-001	 6.9726730235e-001	 2.4394372813e+000
 9.3115750625e-001	 6.0877085066e-001	 2.6061040459e+000
 9.2486829173e-001	 6.1828382884e-001	 2.5071805822e+000
 9.1847539794e-001	 6.2774134279e-001	 2.4430991096e+000
 9.1197953911e-001	 6.3714171917e-001	 2.4987305997e+000
 9.0538146513e-001	 6.4648329651e-001	 2.5334119195e+000
 8.9868196127e-001	 6.5576442611e-001	 2.5473034991e+000
 8.9188184795e-001	 6.6498347300e-001	 2.5405835294e+000
 8.8498198044e-001	 6.7413881683e-001	 2.5134477187e+000
 8.7798324854e-001	 6.8322885284e-001	 2.4661090272e+000
 8.7088657620e-001	 6.9225199274e-001	 2.3987973801e+000
 8.6369292120e-001	 7.0120666564e-001	 2.3117593610e+000
 9.3638872819e-001	 6.1219091162e-001	 2.4939695042e+000
 9.3006418100e-001	 6.2175733350e-001	 2.3822797657e+000
 9.2363537208e-001	 6.3126797954e-001	 2.3790997664e+000
 9.1710301966e-001	 6.4072116703e-001	 2.4229724107e+000
 9.1046787785e-001	 6.5011522514e-001	 2.4471197662e+000
 9.0373073633e-001	 6.5944849592e-001	 2.4517175772e+000
 8.9689242013e-001	 6.6871933520e-001	 2.4369582802e+000
 8.8995378932e-001	 6.7792611355e-001	 2.4030507377e+000
 8.8291573870e-001	 6.8706721718e-001	 2.3502199517e+000
 8.7577919741e-001	 6.9614104888e-001	 2.2787067570e+000
 8.6854512862e-001	 7.0514602893e-001	 2.1887674954e+000
 9.4161995013e-001	 6.1561097257e-001	 2.3877053143e+000
 9.3526007028e-001	 6.2523083815e-001	 2.2681656491e+000
 9.2879534622e-001	 6.3479461629e-001	 2.3190874372e+000
 9.2222650022e-001	 6.4430061488e-001	 2.3513210105e+000
 9.1555429057e-001	 6.5374715377e-001	 2.3650414775e+000
 9.0877951139e-001	 6.6313256573e-001	 2.3604398471e+000
 9.0190299230e-001	 6.7245519741e-001	 2.3377227588e+000
 8.9492559819e-001	 6.8171341027e-001	 2.2971121946e+000
 8.8784822885e-001	 6.9090558152e-001	 2.2388451707e+000
 8.8067181863e-001	 7.0003010501e-001	 2.1631734112e+000
 8.7339733604e-001	 7.0908539221e-001	 2.0703630042e+000
 8.2487526182e-001	 6.6969175932e-001	 3.4730632919e+000
 8.1791323986e-001	 6.7817710233e-001	 3.3949415490e+000
 8.1086051867e-001	 6.8659410813e-001	 3.3165240603e+000
 8.0371810736e-001	 6.9494133131e-001	 3.2382035156e+000
 7.9648704556e-001	 7.0321734641e-001	 3.1603704303e+000
 7.8916840301e-001	 7.1142074874e-001	 3.0834126225e+000
 7.8176327893e-001	 7.1955015514e-001	 3.0077146964e+000
 7.7427280157e-001	 7.2760420476e-001	 2.9336575332e+000
 7.6669812761e-001	 7.3558155983e-001	 2.8616177899e+000
 7.5904044152e-001	 7.4348090640e-001	 2.7919674082e+000
 7.5130095502e-001	 7.5130095503e-001	 2.7250731336e+000
 8.2972746924e-001	 6.7363112261e-001	 3.3096658438e+000
 8.2272449421e-001	 6.8216637940e-001	 3.2316084186e+000
 8.1563028643e-001	 6.9063289700e-001	 3.1534960446e+000
 8.0844586093e-001	 6.9902922149e-001	 3.0757086618e+000
 8.0117226348e-001	 7.0735391904e-001	 2.9986237648e+000
 7.9381057008e-001	 7.1560557668e-001	 2.9226158916e+000
 7.8636188645e-001	 7.2378280312e-001	 2.8480561187e+000
 7.7882734747e-001	 7.3188422950e-001	 2.7753115637e+000
 7.7120811660e-001	 7.3990851019e-001	 2.7047448976e+000
 7.6350538530e-001	 7.4785432350e-001	 2.6367138664e+000
 7.5572037241e-001	 7.5572037241e-001	 2.5715708234e+000
 8.3457967667e-001	 6.7757048590e-001	 3.1516973311e+000
 8.2753574856e-001	 6.8615565648e-001	 3.0733913588e+000
 8.2040005419e-001	 6.9467168588e-001	 2.9952698522e+000
 8.1317361450e-001	 7.0311711168e-001	 2.9177001792e+000
 8.0585748140e-001	 7.1149049167e-001	 2.8410469919e+000
 7.9845273716e-001	 7.1979040462e-001	 2.7656717265e+000
 7.9096049398e-001	 7.2801545109e-001	 2.6919321096e+000
 7.8338189336e-001	 7.3616425423e-001	 2.6201816740e+000
 7.7571810558e-001	 7.4423546054e-001	 2.5507692822e+000
 7.6797032907e-001	 7.5222774059e-001	 2.4840386615e+000
 7.6013978979e-001	 7.6013978979e-001	 2.4203279493e+000
 8.3943188409e-001	 6.8150984920e-001	 2.9990456606e+000
 8.3234700292e-001	 6.9014493355e-001	 2.9201832749e+000
 8.2516982194e-001	 6.9871047475e-001	 2.8417434328e+000
 8.1790136808e-001	 7.0720500187e-001	 2.7640811057e+000
 8.1054269931e-001	 7.1562706430e-001	 2.6875482790e+000
 8.0309490424e-001	 7.2397523255e-001	 2.6124934631e+000
 7.9555910150e-001	 7.3224809906e-001	 2.5392612111e+000
 7.8793643925e-001	 7.4044427897e-001	 2.4681916462e+000
 7.8022809457e-001	 7.4856241090e-001	 2.3996199981e+000
 7.7243527285e-001	 7.5660115769e-001	 2.3338761500e+000
 7.6455920718e-001	 7.6455920718e-001	 2.2712841977e+000
 8.4428409151e-001	 6.8544921249e-001	 2.8516008244e+000
 8.3715825727e-001	 6.9413421063e-001	 2.7718790371e+000
 8.2993958970e-001	 7.0274926362e-001	 2.6928165797e+000
 8.2262912165e-001	 7.1129289205e-001	 2.6147562006e+000
 8.1522791723e-001	 7.1976363693e-001	 2.5380373923e+000
 8.0773707132e-001	 7.2816006049e-001	 2.4629959132e+000
 8.0015770902e-001	 7.3648074704e-001	 2.3899633166e+000
 7.9249098515e-001	 7.4472430370e-001	 2.3192664897e+000
 7.8473808356e-001	 7.5288936125e-001	 2.2512272022e+000
 7.7690021662e-001	 7.6097457479e-001	 2.1861616659e+000
 7.6897862456e-001	 7.6897862456e-001	 2.1243801066e+000
 8.4913629893e-001	 6.8938857578e-001	 2.7092548401e+000
 8.4196951162e-001	 6.9812348770e-001	 2.6283754239e+000
 8.3470935746e-001	 7.0678805249e-001	 2.5483908769e+000
 8.2735687522e-001	 7.1538078224e-001	 2.4696318957e+000
 8.1991313514e-001	 7.2390020955e-001	 2.3924256514e+000
 8.1237923839e-001	 7.3234488842e-001	 2.3170953221e+000
 8.0475631655e-001	 7.4071339501e-001	 2.2439596329e+000
 7.9704553104e-001	 7.4900432844e-001	 2.1733324063e+000
 7.8924807254e-001	 7.5721631160e-001	 2.1055221228e+000
 7.8136516040e-001	 7.6534799189e-001	 2.0408314929e+000
 7.7339804194e-001	 7.7339804194e-001	 1.9795570416e+000
 8.5398850636e-001	 6.9332793907e-001	 2.5719016931e+000
 8.4678076597e-001	 7.0211276477e-001	 2.4895710685e+000
 8.3947912521e-001	 7.1082684136e-001	 2.4083696487e+000
 8.3208462880e-001	 7.1946867242e-001	 2.3286162477e+000
 8.2459835306e-001	 7.2803678218e-001	 2.2506258851e+000
 8.1702140547e-001	 7.3652971636e-001	 2.1747093280e+000
 8.0935492407e-001	 7.4494604298e-001	 2.1011726428e+000
 8.0160007693e-001	 7.5328435317e-001	 2.0303167563e+000
 7.9375806153e-001	 7.6154326195e-001	 1.9624370287e+000
 7.8583010417e-001	 7.6972140898e-001	 1.8978228369e+000
 7.7781745933e-001	 7.7781745933e-001	 1.8367571723e+000
 8.5884071378e-001	 6.9726730235e-001	 2.4394372813e+000
 8.5159202032e-001	 7.0610204184e-001	 2.3553664059e+000
 8.4424889297e-001	 7.1486563023e-001	 2.2726579099e+000
 8.3681238237e-001	 7.2355656260e-001	 2.1916188925e+000
 8.2928357097e-001	 7.3217335480e-001	 2.1125523887e+000
 8.2166357254e-001	 7.4071454429e-001	 2.0357569226e+000
 8.1395353159e-001	 7.4917869095e-001	 1.9615260690e+000
 8.0615462282e-001	 7.5756437790e-001	 1.8901480262e+000
 7.9826805051e-001	 7.6587021230e-001	 1.8219052001e+000
 7.9029504794e-001	 7.7409482608e-001	 1.7570738003e+000
 7.8223687671e-001	 7.8223687671e-001	 1.6959234492e+000
 8.6369292120e-001	 7.0120666564e-001	 2.3117593610e+000
 8.5640327467e-001	 7.1009131891e-001	 2.2256636223e+000
 8.4901866073e-001	 7.1890441910e-001	 2.1411623190e+000
 8.4154013594e-001	 7.2764445278e-001	 2.0585510004e+000
 8.3396878889e-001	 7.3630992742e-001	 1.9781208830e+000
 8.2630573962e-001	 7.4489937222e-001	 1.9001584130e+000
 8.1855213912e-001	 7.5341133892e-001	 1.8249448392e+000
 8.1070916871e-001	 7.6184440264e-001	 1.7527557961e+000
 8.0277803950e-001	 7.7019716265e-001	 1.6838609001e+000
 7.9475999172e-001	 7.7846824317e-001	 1.6185233567e+000
 7.8665629409e-001	 7.8665629409e-001	 1.5569995824e+000
 8.6854512862e-001	 7.0514602893e-001	 2.1887674954e+000
 8.6121452902e-001	 7.1408059598e-001	 2.1003666067e+000
 8.5378842848e-001	 7.2294320797e-001	 2.0137911317e+000
 8.4626788951e-001	 7.3173234296e-001	 1.9293252338e+000
 8.3865400680e-001	 7.4044650005e-001	 1.8472484743e+000
 8.3094790670e-001	 7.4908420015e-001	 1.7678353852e+000
 8.2315074664e-001	 7.5764398689e-001	 1.6913550525e+000
 8.1526371460e-001	 7.6612442737e-001	 1.6180707103e+000
 8.0728802848e-001	 7.7452411300e-001	 1.5482393472e+000
 7.9922493549e-001	 7.8284166027e-001	 1.4821113267e+000
 7.9107571147e-001	 7.9107571147e-001	 1.4199300199e+000
 8.7339733604e-001	 7.0908539221e-001	 2.0703630042e+000
 8.6602578337e-001	 7.1806987305e-001	 1.9793809029e+000
 8.5855819624e-001	 7.2698199683e-001	 1.8904541570e+000
 8.5099564308e-001	 7.3582023314e-001	 1.8038557052e+000
 8.4333922472e-001	 7.4458307267e-001	 1.7198536158e+000
 8.3559007377e-001	 7.5326902808e-001	 1.6387106683e+000
 8.2774935416e-001	 7.6187663485e-001	 1.5606839472e+000
 8.1981826049e-001	 7.7040445210e-001	 1.4860244468e+000
 8.1179801747e-001	 7.7885106335e-001	 1.4149766890e+000
 8.0368987926e-001	 7.8721507736e-001	 1.3477783543e+000
 7.9549512885e-001	 7.9549512885e-001	 1.2846599274e+000
 7.5130095502e-001	 7.5130095503e-001	 2.7250731336e+000
 7.4348090640e-001	 7.5904044152e-001	 2.6355125997e+000
 7.3558155983e-001	 7.6669812761e-001	 2.5355244097e+000
 7.2760420476e-001	 7.7427280157e-001	 2.4255361688e+000
 7.1955015514e-001	 7.8176327893e-001	 2.3059814972e+000
 7.1142074874e-001	 7.8916840301e-001	 2.1772995096e+000
 7.0321734641e-001	 7.9648704556e-001	 2.0399342938e+000
 6.9494133131e-001	 8.0371810736e-001	 1.8943343878e+000
 6.8659410813e-001	 8.1086051867e-001	 1.7409522584e+000
 6.7817710233e-001	 8.1791323986e-001	 1.5802437812e+000
 6.6969175932e-001	 8.2487526182e-001	 1.4126677220e+000
 7.5572037241e-001	 7.5572037241e-001	 2.5715708234e+000
 7.4785432350e-001	 7.6350538530e-001	 2.4850836361e+000
 7.3990851019e-001	 7.7120811660e-001	 2.3884939259e+000
 7.3188422950e-001	 7.7882734747e-001	 2.2822211503e+000
 7.2378280312e-001	 7.8636188645e-001	 2.1666904708e+000
 7.1560557668e-001	 7.9381057008e-001	 2.0423322397e+000
 7.0735391904e-001	 8.0117226348e-001	 1.9095814868e+000
 6.9902922149e-001	 8.0844586093e-001	 1.7688774065e+000
 6.9063289700e-001	 8.1563028643e-001	 1.6206628449e+000
 6.8216637940e-001	 8.2272449421e-001	 1.4653837892e+000
 6.7363112261e-001	 8.2972746924e-001	 1.3034888606e+000
 7.6013978979e-001	 7.6013978979e-001	 2.4203279493e+000
 7.5222774059e-001	 7.6797032907e-001	 2.3367173961e+000
 7.4423546054e-001	 7.7571810558e-001	 2.2433272761e+000
 7.3616425423e-001	 7.8338189336e-001	 2.1405690156e+000
 7.2801545109e-001	 7.9096049398e-001	 2.0288594334e+000
 7.1979040462e-001	 7.9845273716e-001	 1.9086202359e+000
 7.1149049167e-001	 8.0585748140e-001	 1.7802775120e+000
 7.0311711168e-001	 8.1317361450e-001	 1.6442612287e+000
 6.9467168588e-001	 8.2040005419e-001	 1.5010047274e+000
 6.8615565648e-001	 8.2753574856e-001	 1.3509442236e+000
 6.7757048590e-001	 8.3457967667e-001	 1.1945183090e+000
 7.6455920718e-001	 7.6455920718e-001	 2.2712841977e+000
 7.5660115769e-001	 7.7243527285e-001	 2.1903568056e+000
 7.4856241090e-001	 7.8022809457e-001	 2.0999706929e+000
 7.4044427897e-001	 7.8793643925e-001	 2.0005293690e+000
 7.3224809906e-001	 7.9555910150e-001	 1.8924414252e+000
 7.2397523255e-001	 8.0309490424e-001	 1.7761200369e+000
 7.1562706430e-001	 8.1054269931e-001	 1.6519824671e+000
 7.0720500187e-001	 8.1790136808e-001	 1.5204495699e+000
 6.9871047475e-001	 8.2516982194e-001	 1.3819452972e+000
 6.9014493355e-001	 8.3234700292e-001	 1.2368962065e+000
 6.8150984920e-001	 8.3943188409e-001	 1.0857309742e+000
 7.6897862456e-001	 7.6897862456e-001	 2.1243801066e+000
 7.6097457479e-001	 7.7690021662e-001	 2.0459455650e+000
 7.5288936125e-001	 7.8473808356e-001	 1.9583711043e+000
 7.4472430370e-001	 7.9249098515e-001	 1.8620524310e+000
 7.3648074704e-001	 8.0015770902e-001	 1.7573900218e+000
 7.2816006049e-001	 8.0773707132e-001	 1.6447886346e+000
 7.1976363693e-001	 8.1522791723e-001	 1.5246568197e+000
 7.1129289205e-001	 8.2262912165e-001	 1.3974064320e+000
 7.0274926362e-001	 8.2993958970e-001	 1.2634521462e+000
 6.9413421063e-001	 8.3715825727e-001	 1.1232109748e+000
 6.8544921249e-001	 8.4428409151e-001	 9.7710179048e-001
 7.7339804194e-001	 7.7339804194e-001	 1.9795570416e+000
 7.6534799189e-001	 7.8136516040e-001	 1.9034281268e+000
 7.5721631160e-001	 7.8924807254e-001	 1.8184761150e+000
 7.4900432844e-001	 7.9704553104e-001	 1.7250890209e+000
 7.4071339501e-001	 8.0475631655e-001	 1.6236593188e+000
 7.3234488842e-001	 8.1237923839e-001	 1.5145834611e+000
 7.2390020955e-001	 8.1991313514e-001	 1.3982613972e+000
 7.1538078224e-001	 8.2735687522e-001	 1.2750960943e+000
 7.0678805249e-001	 8.3470935746e-001	 1.1454930613e+000
 6.9812348770e-001	 8.4196951162e-001	 1.0098598765e+000
 6.8938857578e-001	 8.4913629893e-001	 8.6860571932e-001
 7.7781745933e-001	 7.7781745933e-001	 1.8367571723e+000
 7.6972140898e-001	 7.8583010417e-001	 1.7627496748e+000
 7.6154326195e-001	 7.9375806153e-001	 1.6802339861e+000
 7.5328435317e-001	 8.0160007693e-001	 1.5895905394e+000
 7.4494604298e-001	 8.0935492407e-001	 1.4912039172e+000
 7.3652971636e-001	 8.1702140547e-001	 1.3854623766e+000
 7.2803678218e-001	 8.2459835306e-001	 1.2727573765e+000
 7.1946867242e-001	 8.3208462880e-001	 1.1534831064e+000
 7.1082684136e-001	 8.3947912521e-001	 1.0280360192e+000
 7.0211276477e-001	 8.4678076597e-001	 8.9681436814e-001
 6.9332793907e-001	 8.5398850636e-001	 7.6021774799e-001
 7.8223687671e-001	 7.8223687671e-001	 1.6959234492e+000
 7.7409482608e-001	 7.9029504794e-001	 1.6238561031e+000
 7.6587021230e-001	 7.9826805051e-001	 1.5435936173e+000
 7.5756437790e-001	 8.0615462282e-001	 1.4555089526e+000
 7.4917869095e-001	 8.1395353159e-001	 1.3599789088e+000
 7.4071454429e-001	 8.2166357254e-001	 1.2573836569e+000
 7.3217335480e-001	 8.2928357097e-001	 1.1481062738e+000
 7.2355656260e-001	 8.3681238237e-001	 1.0325322800e+000
 7.1486563023e-001	 8.4424889297e-001	 9.1104918058e-001
 7.0610204184e-001	 8.5159202032e-001	 7.8404601117e-001
 6.9726730235e-001	 8.5884071378e-001	 6.5191288908e-001
 7.8665629409e-001	 7.8665629409e-001	 1.5569995824e+000
 7.7846824317e-001	 7.9475999172e-001	 1.4866939961e+000
 7.7019716265e-001	 8.0277803950e-001	 1.4085045285e+000
 7.6184440264e-001	 8.1070916871e-001	 1.3227967759e+000
 7.5341133892e-001	 8.1855213912e-001	 1.2299398628e+000
 7.4489937222e-001	 8.2630573962e-001	 1.1303059818e+000
 7.3630992742e-001	 8.3396878889e-001	 1.0242699354e+000
 7.2764445278e-001	 8.4154013594e-001	 9.1220868184e-001
 7.1890441910e-001	 8.4901866073e-001	 7.9450088510e-001
 7.1009131891e-001	 8.5640327467e-001	 6.7152646935e-001
 7.0120666564e-001	 8.6369292120e-001	 5.4366617977e-001
 7.9107571147e-001	 7.9107571147e-001	 1.4199300199e+000
 7.8284166027e-001	 7.9922493549e-001	 1.3512106095e+000
 7.7452411300e-001	 8.0728802848e-001	 1.2749168430e+000
 7.6612442737e-001	 8.1526371460e-001	 1.1914070586e+000
 7.5764398689e-001	 8.2315074664e-001	 1.1010428123e+000
 7.4908420015e-001	 8.3094790670e-001	 1.0041884241e+000
 7.4044650005e-001	 8.3865400680e-001	 9.0121052818e-001
 7.3173234296e-001	 8.4626788951e-001	 7.9247762642e-001
 7.2294320797e-001	 8.5378842848e-001	 6.7835964649e-001
 7.1408059598e-001	 8.6121452902e-001	 5.5922750575e-001
 7.0514602893e-001	 8.6854512862e-001	 4.3545268110e-001
 7.9549512885e-001	 7.9549512885e-001	 1.2846599274e+000
 7.8721507736e-001	 8.0368987926e-001	 1.2173538511e+000
 7.7885106335e-001	 8.1179801747e-001	 1.1427812700e+000
 7.7040445210e-001	 8.1981826049e-001	 1.0612933693e+000
 7.6187663485e-001	 8.2774935416e-001	 9.7324424115e-001
 7.5326902808e-001	 8.3559007377e-001	 8.7899043832e-001
 7.4458307267e-001	 8.4333922472e-001	 7.7889053116e-001
 7.3582023314e-001	 8.5099564308e-001	 6.7330466919e-001
 7.2698199683e-001	 8.5855819624e-001	 5.6259414764e-001
 7.1806987305e-001	 8.6602578337e-001	 4.4712098003e-001
 7.0908539221e-001	 8.7339733604e-001	 3.2724747736e-001
 6.6969175932e-001	 8.2487526182e-001	 1.4126677220e+000
 6.6113954363e-001	 8.3174560649e-001	 1.3146133505e+000
 6.5252193810e-001	 8.3852332726e-001	 1.2259024399e+000
 6.4384044304e-001	 8.4520750941e-001	 1.1465463149e+000
 6.3509657533e-001	 8.5179727051e-001	 1.0765449143e+000
 6.2629186763e-001	 8.5829176076e-001	 1.0158868387e+000
 6.1742786745e-001	 8.6469016332e-001	 7.9621425454e-001
 6.0850613628e-001	 8.7099169465e-001	 5.5967501960e-001
 5.9952824872e-001	 8.7719560477e-001	 3.3507243492e-001
 5.9049579158e-001	 8.8330117749e-001	 1.2216560829e-001
 5.8141036298e-001	 8.8930773068e-001	-7.9296445623e-002
 6.7363112261e-001	 8.2972746924e-001	 1.3034888606e+000
 6.6502859977e-001	 8.3663822770e-001	 1.2038885722e+000
 6.5636030245e-001	 8.4345581742e-001	 1.1132629357e+000
 6.4762773977e-001	 8.5017931829e-001	 1.0316288493e+000
 6.3883243755e-001	 8.5680784270e-001	 9.5899206688e-001
 6.2997593745e-001	 8.6334053583e-001	 8.9534723811e-001
 6.2105979609e-001	 8.6977657605e-001	 7.5369131147e-001
 6.1208558414e-001	 8.7611517521e-001	 5.1284730496e-001
 6.0305488548e-001	 8.8235557892e-001	 2.8364376261e-001
 5.9396929625e-001	 8.8849706677e-001	 6.5842037410e-002
 5.8483042394e-001	 8.9453895263e-001	-1.4080637193e-001
 6.7757048590e-001	 8.3457967667e-001	 1.1945183090e+000
 6.6891765591e-001	 8.4153084892e-001	 1.0934506548e+000
 6.6019866679e-001	 8.4838830758e-001	 1.0009947209e+000
 6.5141503649e-001	 8.5515112717e-001	 9.1717293734e-001
 6.4256829976e-001	 8.6181841488e-001	 8.4199682605e-001
 6.3366000726e-001	 8.6838931089e-001	 7.7546703416e-001
 6.2469172472e-001	 8.7486298878e-001	 7.1081530861e-001
 6.1566503201e-001	 8.8123865577e-001	 4.6580691212e-001
 6.0658152224e-001	 8.8751555306e-001	 2.3214834124e-001
 5.9744280091e-001	 8.9369295605e-001	 9.6030544620e-003
 5.8825048490e-001	 8.9977017457e-001	-2.0207510859e-001
 6.8150984920e-001	 8.3943188409e-001	 1.0857309742e+000
 6.7280671205e-001	 8.4642347013e-001	 9.8327328170e-001
 6.6403703114e-001	 8.5332079774e-001	 8.8907018638e-001
 6.5520233322e-001	 8.6012293605e-001	 8.0314960836e-001
 6.4630416197e-001	 8.6682898706e-001	 7.2552879166e-001
 6.3734407707e-001	 8.7343808596e-001	 6.5621433032e-001
 6.2832365335e-001	 8.7994940151e-001	 5.9520221421e-001
 6.1924447987e-001	 8.8636213633e-001	 4.1851607999e-001
 6.1010815900e-001	 8.9267552721e-001	 1.8054708581e-001
 6.0091630556e-001	 8.9888884533e-001	-4.6591817380e-002
 5.9167054587e-001	 9.0500139652e-001	-2.6314459156e-001
 6.8544921249e-001	 8.4428409151e-001	 9.7710179048e-001
 6.7669576819e-001	 8.5131609135e-001	 8.7333019253e-001
 6.6787539548e-001	 8.5825328790e-001	 7.7746180906e-001
 6.5898962994e-001	 8.6509474493e-001	 6.8953000990e-001
 6.5004002418e-001	 8.7183955924e-001	 6.0955771593e-001
 6.4102814688e-001	 8.7848686102e-001	 5.3755741833e-001
 6.3195558199e-001	 8.8503581423e-001	 4.7353121726e-001
 6.2282392773e-001	 8.9148561689e-001	 3.7093731305e-001
 6.1363479576e-001	 8.9783550136e-001	 1.2880121817e-001
 6.0438981022e-001	 9.0408473462e-001	-1.0278270499e-001
 5.9509060683e-001	 9.1023261847e-001	-3.2405636202e-001
 6.8938857578e-001	 8.4913629893e-001	 8.6860571932e-001
 6.8058482433e-001	 8.5620871256e-001	 7.6359518110e-001
 6.7171375982e-001	 8.6318577806e-001	 6.6614214962e-001
 6.6277692667e-001	 8.7006655381e-001	 5.7628540451e-001
 6.5377588638e-001	 8.7685013142e-001	 4.9405349914e-001
 6.4471221669e-001	 8.8353563608e-001	 4.1946477287e-001
 6.3558751062e-001	 8.9012222696e-001	 3.5252738276e-001
 6.2640337559e-001	 8.9660909745e-001	 2.9323935424e-001
 6.1716143252e-001	 9.0299547550e-001	 7.6872258262e-002
 6.0786331488e-001	 9.0928062389e-001	-1.5900939529e-001
 5.9851066779e-001	 9.1546384041e-001	-3.8485157769e-001
 6.9332793907e-001	 8.5398850636e-001	 7.6021774799e-001
 6.8447388047e-001	 8.6110133378e-001	 6.5404209405e-001
 6.7555212416e-001	 8.6811826822e-001	 5.5508385009e-001
 6.6656422339e-001	 8.7503836269e-001	 4.6338716647e-001
 6.5751174859e-001	 8.8186070360e-001	 3.7898618539e-001
 6.4839628650e-001	 8.8858441115e-001	 3.0190504633e-001
 6.3921943925e-001	 8.9520863968e-001	 2.3215791062e-001
 6.2998282345e-001	 9.0173257800e-001	 1.6974900512e-001
 6.2068806928e-001	 9.0815544965e-001	 2.4722015676e-002
 6.1133681954e-001	 9.1447651317e-001	-2.1531134491e-001
 6.0193072875e-001	 9.2069506236e-001	-4.4557102366e-001
 6.9726730235e-001	 8.5884071378e-001	 6.5191288908e-001
 6.8836293661e-001	 8.6599395499e-001	 5.4464482931e-001
 6.7939048850e-001	 8.7305075838e-001	 4.4425963156e-001
 6.7035152011e-001	 8.8001017157e-001	 3.5080677859e-001
 6.6124761080e-001	 8.8687127577e-001	 2.6432595859e-001
 6.5208035631e-001	 8.9363318621e-001	 1.8484706378e-001
 6.4285136788e-001	 9.0029505241e-001	 1.1239020806e-001
 6.3356227131e-001	 9.0685605856e-001	 4.6965763603e-002
 6.2421470603e-001	 9.1331542379e-001	-2.7687418550e-002
 6.1481032419e-001	 9.1967240245e-001	-2.7172768950e-001
 6.0535078970e-001	 9.2592628430e-001	-5.0625512298e-001
 7.0120666564e-001	 8.6369292120e-001	 5.4366617977e-001
 6.9225199274e-001	 8.7088657620e-001	 4.3537733465e-001
 6.8322885284e-001	 8.7798324854e-001	 3.3364229196e-001
 6.7413881683e-001	 8.8498198044e-001	 2.3851582922e-001
 6.6498347300e-001	 8.9188184795e-001	 1.5004313849e-001
 6.5576442611e-001	 8.9868196127e-001	 6.8259818159e-002
 6.4648329651e-001	 9.0538146513e-001	-6.8081162363e-003
 6.3714171917e-001	 9.1197953911e-001	-7.5144202444e-002
 6.2774134279e-001	 9.1847539794e-001	-1.3674148336e-001
 6.1828382884e-001	 9.2486829173e-001	-3.2829725279e-001
 6.0877085066e-001	 9.3115750625e-001	-5.6694394678e-001
 7.0514602893e-001	 8.6854512862e-001	 4.3545268110e-001
 6.9614104888e-001	 8.7577919741e-001	 3.2621360632e-001
 6.8706721718e-001	 8.8291573870e-001	 2.2320470391e-001
 6.7792611355e-001	 8.8995378932e-001	 1.2648600926e-001
 6.6871933520e-001	 8.9689242013e-001	 3.6108176878e-002
 6.5944849592e-001	 9.0373073633e-001	-4.7887534448e-002
 6.5011522514e-001	 9.1046787785e-001	-1.2546925772e-001
 6.4072116703e-001	 9.1710301966e-001	-1.9661449506e-001
 6.3126797954e-001	 9.2363537208e-001	-2.6131007661e-001
 6.2175733350e-001	 9.3006418100e-001	-3.8505855525e-001
 6.1219091162e-001	 9.3638872819e-001	-6.2767722415e-001
 7.0908539221e-001	 8.7339733604e-001	 3.2724747736e-001
 7.0003010501e-001	 8.8067181863e-001	 2.1712768768e-001
 6.9090558152e-001	 8.8784822885e-001	 1.1291981266e-001
 6.8171341027e-001	 8.9492559819e-001	 1.4689109319e-002
 6.7245519741e-001	 9.0190299230e-001	-7.7508346042e-002
 6.6313256573e-001	 9.0877951139e-001	-1.6362567933e-001
 6.5374715377e-001	 9.1555429057e-001	-2.4362522145e-001
 6.4430061488e-001	 9.2222650022e-001	-3.1747849258e-001
 6.3479461629e-001	 9.2879534622e-001	-3.8516616793e-001
 6.2523083815e-001	 9.3526007028e-001	-4.4667802554e-001
 6.1561097257e-001	 9.4161995013e-001	-6.8849435159e-001
 5.8141036298e-001	 8.8930773068e-001	-7.9296445623e-002
 5.7227357142e-001	 8.9521461642e-001	-2.1634852403e-001
 5.6308703494e-001	 9.0102122122e-001	-3.5669023389e-001
 5.5385238015e-001	 9.0672696607e-001	-5.0006510913e-001
 5.4457124133e-001	 9.1233130665e-001	-6.4621481510e-001
 5.3524525959e-001	 9.1783373335e-001	-7.9487921863e-001
 5.2587608185e-001	 9.2323377133e-001	-9.4579646048e-001
 5.1646536006e-001	 9.2853098055e-001	-1.0987030303e+000
 5.0701475018e-001	 9.3372495580e-001	-1.2533338444e+000
 4.9752591139e-001	 9.3881532661e-001	-1.4094223263e+000
 4.8800050512e-001	 9.4380175725e-001	-1.5667004906e+000
 5.8483042394e-001	 8.9453895263e-001	-1.4080637193e-001
 5.7563988656e-001	 9.0048058476e-001	-2.7411976941e-001
 5.6639931162e-001	 9.0632134605e-001	-4.0987893138e-001
 5.5711033533e-001	 9.1206065411e-001	-5.4786606150e-001
 5.4777460158e-001	 9.1769796140e-001	-6.8786197435e-001
 5.3839376112e-001	 9.2323275532e-001	-8.2964611729e-001
 5.2896947058e-001	 9.2866455822e-001	-9.7299659454e-001
 5.1950339159e-001	 9.3399292750e-001	-1.1176901937e+000
 5.0999718990e-001	 9.3921745554e-001	-1.2635024153e+000
 5.0045253440e-001	 9.4433776971e-001	-1.4102075050e+000
 4.9087109633e-001	 9.4935353230e-001	-1.5575784896e+000
 5.8825048490e-001	 8.9977017457e-001	-2.0207510859e-001
 5.7900620169e-001	 9.0574655310e-001	-3.3220213186e-001
 5.6971158830e-001	 9.1162147089e-001	-4.6393867271e-001
 5.6036829051e-001	 9.1739434215e-001	-5.9710537043e-001
 5.5097796183e-001	 9.2306461615e-001	-7.3152195166e-001
 5.4154226265e-001	 9.2863177728e-001	-8.6700720412e-001
 5.3206285930e-001	 9.3409534512e-001	-1.0033789525e+000
 5.2254142313e-001	 9.3945487445e-001	-1.1404540370e+000
 5.1297962961e-001	 9.4470995529e-001	-1.2780482941e+000
 5.0337915742e-001	 9.4986021282e-001	-1.4159765416e+000
 4.9374168754e-001	 9.5490530735e-001	-1.5540525660e+000
 5.9167054587e-001	 9.0500139652e-001	-2.6314459156e-001
 5.8237251682e-001	 9.1101252143e-001	-3.9062669127e-001
 5.7302386498e-001	 9.1692159572e-001	-5.1888952948e-001
 5.6362624569e-001	 9.2272803019e-001	-6.4779195314e-001
 5.5418132208e-001	 9.2843127090e-001	-7.7719236982e-001
 5.4469076418e-001	 9.3403079925e-001	-9.0694867361e-001
 5.3515624802e-001	 9.3952613201e-001	-1.0369181730e+000
 5.2557945466e-001	 9.4491682140e-001	-1.1669575213e+000
 5.1596206932e-001	 9.5020245503e-001	-1.2969226495e+000
 5.0630578043e-001	 9.5538265592e-001	-1.4266687034e+000
 4.9661227875e-001	 9.6045708239e-001	-1.5560499835e+000
 5.9509060683e-001	 9.1023261847e-001	-3.2405636202e-001
 5.8573883194e-001	 9.1627848976e-001	-4.4942437085e-001
 5.7633614166e-001	 9.2222172055e-001	-5.7475165812e-001
 5.6688420087e-001	 9.2806171823e-001	-6.9993505631e-001
 5.5738468232e-001	 9.3379792565e-001	-8.2487142884e-001
 5.4783926571e-001	 9.3942982121e-001	-9.4945754819e-001
 5.3824963674e-001	 9.4495691890e-001	-1.0735899760e+000
 5.2861748620e-001	 9.5037876834e-001	-1.1971649454e+000
 5.1894450903e-001	 9.5569495477e-001	-1.3200782466e+000
 5.0923240344e-001	 9.6090509902e-001	-1.4422251155e+000
 4.9948286996e-001	 9.6600885744e-001	-1.5635001270e+000
 5.9851066779e-001	 9.1546384041e-001	-3.8485157769e-001
 5.8910514707e-001	 9.2154445810e-001	-5.0862594165e-001
 5.7964841834e-001	 9.2752184538e-001	-6.3154529741e-001
 5.7014215605e-001	 9.3339540627e-001	-7.5354424669e-001
 5.6058804257e-001	 9.3916458040e-001	-8.7455788947e-001
 5.5098776724e-001	 9.4482884317e-001	-9.9452165457e-001
 5.4134302546e-001	 9.5038770579e-001	-1.1133711320e+000
 5.3165551773e-001	 9.5584071529e-001	-1.2310419078e+000
 5.2192694874e-001	 9.6118745451e-001	-1.3474694015e+000
 5.1215902645e-001	 9.6642754211e-001	-1.4625887078e+000
 5.0235346117e-001	 9.7156063248e-001	-1.5763344420e+000
 6.0193072875e-001	 9.2069506236e-001	-4.4557102366e-001
 5.9247146220e-001	 9.2681042643e-001	-5.6826202686e-001
 5.8296069502e-001	 9.3282197021e-001	-6.8929076619e-001
 5.7340011123e-001	 9.3872909430e-001	-8.0862940199e-001
 5.6379140281e-001	 9.4453123514e-001	-9.2625105727e-001
 5.5413626877e-001	 9.5022786513e-001	-1.0421296009e+000
 5.4443641418e-001	 9.5581849268e-001	-1.1562394325e+000
 5.3469354926e-001	 9.6130266223e-001	-1.2685552694e+000
 5.2490938845e-001	 9.6667995425e-001	-1.3790519371e+000
 5.1508564946e-001	 9.7194998521e-001	-1.4877041634e+000
 5.0522405238e-001	 9.7711240752e-001	-1.5944863762e+000
 6.0535078970e-001	 9.2592628430e-001	-5.0625512298e-001
 5.9583777732e-001	 9.3207639476e-001	-6.2836310600e-001
 5.8627297169e-001	 9.3812209504e-001	-7.4800846109e-001
 5.7665806641e-001	 9.4406278234e-001	-8.6520070211e-001
 5.6699476306e-001	 9.4989788988e-001	-9.7995076720e-001
 5.5728477030e-001	 9.5562688709e-001	-1.0922707547e+000
 5.4752980289e-001	 9.6124927957e-001	-1.2021736605e+000
 5.3773158079e-001	 9.6676460918e-001	-1.3096731180e+000
 5.2789182816e-001	 9.7217245399e-001	-1.4147831407e+000
 5.1801227247e-001	 9.7747242831e-001	-1.5175178694e+000
 5.0809464359e-001	 9.8266418256e-001	-1.6178913231e+000
 6.0877085066e-001	 9.3115750625e-001	-5.6694394678e-001
 5.9920409245e-001	 9.3734236309e-001	-6.8895951896e-001
 5.8958524837e-001	 9.4342221987e-001	-8.0771885431e-001
 5.7991602158e-001	 9.4939647037e-001	-9.2326862063e-001
 5.7019812330e-001	 9.5526454463e-001	-1.0356573688e+000
 5.6043327182e-001	 9.6102590905e-001	-1.1449352214e+000
 5.5062319161e-001	 9.6668006646e-001	-1.2511535634e+000
 5.4076961232e-001	 9.7222655612e-001	-1.3543647340e+000
 5.3087426786e-001	 9.7766495373e-001	-1.4546217227e+000
 5.2093889548e-001	 9.8299487140e-001	-1.5519778690e+000
 5.1096523480e-001	 9.8821595760e-001	-1.6464865669e+000
 6.1219091162e-001	 9.3638872819e-001	-6.2767722415e-001
 6.0257040757e-001	 9.4260833142e-001	-7.5008146988e-001
 5.9289752504e-001	 9.4872234470e-001	-8.6844249156e-001
 5.8317397676e-001	 9.5473015840e-001	-9.8284391663e-001
 5.7340148354e-001	 9.6063119937e-001	-1.0933717117e+000
 5.6358177335e-001	 9.6642493101e-001	-1.2001138241e+000
 5.5371658033e-001	 9.7211085335e-001	-1.3031598255e+000
 5.4380764385e-001	 9.7768850306e-001	-1.4026005567e+000
 5.3385670757e-001	 9.8315745347e-001	-1.4985277766e+000
 5.2386551849e-001	 9.8851731450e-001	-1.5910338149e+000
 5.1383582600e-001	 9.9376773264e-001	-1.6802112300e+000
 6.1561097257e-001	 9.4161995013e-001	-6.8849435159e-001
 6.0593672269e-001	 9.4787429975e-001	-8.1175903094e-001
 5.9620980171e-001	 9.5402246953e-001	-9.3019999000e-001
 5.8643193193e-001	 9.6006384644e-001	-1.0439376268e+000
 5.7660484378e-001	 9.6599785411e-001	-1.1530951318e+000
 5.6673027487e-001	 9.7182395297e-001	-1.2577980831e+000
 5.5680996904e-001	 9.7754164023e-001	-1.3581740423e+000
 5.4684567537e-001	 9.8315045000e-001	-1.4543521526e+000
 5.3683914727e-001	 9.8864995320e-001	-1.5464627414e+000
 5.2679214149e-001	 9.9403975759e-001	-1.6346369251e+000
 5.1670641720e-001	 9.9931950768e-001	-1.7190062217e+000
 4.8800050512e-001	 9.4380175725e-001	-1.5667004906e+000
 4.7844019420e-001	 9.4868394662e-001	-1.7480572478e+000
 4.6884664198e-001	 9.5346162812e-001	-1.9258114249e+000
 4.5922151147e-001	 9.5813456957e-001	-2.0999099891e+000
 4.4956646442e-001	 9.6270257301e-001	-2.2703008333e+000
 4.3988316057e-001	 9.6716547450e-001	-2.4369326233e+000
 4.3017325669e-001	 9.7152314396e-001	-2.5997546491e+000
 4.2043840586e-001	 9.7577548489e-001	-2.7587166816e+000
 4.1068025656e-001	 9.7992243413e-001	-2.9137688349e+000
 4.0090045192e-001	 9.8396396158e-001	-3.0648614345e+000
 3.9110062891e-001	 9.8790006990e-001	-3.2119448913e+000
 4.9087109633e-001	 9.4935353230e-001	-1.5575784896e+000
 4.8125454829e-001	 9.5426444043e-001	-1.7323123799e+000
 4.7160456341e-001	 9.5907022594e-001	-1.9036017213e+000
 4.6192281448e-001	 9.6377065528e-001	-2.0713958873e+000
 4.5221097304e-001	 9.6836552932e-001	-2.2356450380e+000
 4.4247070858e-001	 9.7285468318e-001	-2.3962999623e+000
 4.3270368762e-001	 9.7723798598e-001	-2.5533119257e+000
 4.2291157295e-001	 9.8151534068e-001	-2.7066325241e+000
 4.1309602278e-001	 9.8568668374e-001	-2.8562135424e+000
 4.0325868987e-001	 9.8975198489e-001	-3.0020068197e+000
 3.9340122085e-001	 9.9371124679e-001	-3.1439641215e+000
 4.9374168754e-001	 9.5490530735e-001	-1.5540525660e+000
 4.8406890238e-001	 9.5984493423e-001	-1.7220935060e+000
 4.7436248484e-001	 9.6467882375e-001	-1.8868470280e+000
 4.6462411749e-001	 9.6940674099e-001	-2.0482650046e+000
 4.5485548166e-001	 9.7402848564e-001	-2.2062999542e+000
 4.4505825658e-001	 9.7854389185e-001	-2.3609048799e+000
 4.3523411854e-001	 9.8295282801e-001	-2.5120331135e+000
 4.2538474005e-001	 9.8725519648e-001	-2.6596381651e+000
 4.1551178899e-001	 9.9145093336e-001	-2.8036735787e+000
 4.0561692783e-001	 9.9554000819e-001	-2.9440927951e+000
 3.9570181278e-001	 9.9952242367e-001	-3.0808490201e+000
 4.9661227875e-001	 9.6045708239e-001	-1.5560499835e+000
 4.8688325647e-001	 9.6542542804e-001	-1.7173277155e+000
 4.7712040627e-001	 9.7028742157e-001	-1.8754742759e+000
 4.6732542051e-001	 9.7504282669e-001	-2.0304441285e+000
 4.5749999028e-001	 9.7969144195e-001	-2.1821922422e+000
 4.4764580459e-001	 9.8423310053e-001	-2.3306739259e+000
 4.3776454947e-001	 9.8866767003e-001	-2.4758446679e+000
 4.2785790715e-001	 9.9299505227e-001	-2.6176599823e+000
 4.1792755521e-001	 9.9721518297e-001	-2.7560752614e+000
 4.0797516578e-001	 1.0013280315e+000	-2.8910456347e+000
 3.9800240472e-001	 1.0053336005e+000	-3.0225258355e+000
 4.9948286996e-001	 9.6600885744e-001	-1.5635001270e+000
 4.8969761055e-001	 9.7100592184e-001	-1.7179442107e+000
 4.7987832770e-001	 9.7589601938e-001	-1.8694124996e+000
 4.7002672352e-001	 9.8067891239e-001	-2.0178621414e+000
 4.6014449890e-001	 9.8535439826e-001	-2.1632506480e+000
 4.5023335260e-001	 9.8992230920e-001	-2.3055357252e+000
 4.4029498039e-001	 9.9438251206e-001	-2.4446751091e+000
 4.3033107424e-001	 9.9873490806e-001	-2.5806264080e+000
 4.2034332143e-001	 1.0029794326e+000	-2.7133469511e+000
 4.1033340374e-001	 1.0071160548e+000	-2.8427936449e+000
 4.0030299665e-001	 1.0111447774e+000	-2.9689228368e+000
 5.0235346117e-001	 9.7156063248e-001	-1.5763344420e+000
 4.9251196464e-001	 9.7658641565e-001	-1.7238742466e+000
 4.8263624912e-001	 9.8150461719e-001	-1.8685927779e+000
 4.7272802653e-001	 9.8631499810e-001	-2.0104499610e+000
 4.6278900752e-001	 9.9101735457e-001	-2.1494059430e+000
 4.5282090060e-001	 9.9561151787e-001	-2.2854209190e+000
 4.4282541132e-001	 1.0000973541e+000	-2.4184549639e+000
 4.3280424134e-001	 1.0044747639e+000	-2.5484678703e+000
 4.2275908764e-001	 1.0087436822e+000	-2.6754189939e+000
 4.1269164169e-001	 1.0129040781e+000	-2.7992671064e+000
 4.0260358859e-001	 1.0169559543e+000	-2.9199702559e+000
 5.0522405238e-001	 9.7711240752e-001	-1.5944863762e+000
 4.9532631873e-001	 9.8216690945e-001	-1.7350510720e+000
 4.8539417055e-001	 9.8711321500e-001	-1.8729481753e+000
 4.7542932954e-001	 9.9195108380e-001	-2.0081404817e+000
 4.6543351613e-001	 9.9668031088e-001	-2.1405908668e+000
 4.5540844861e-001	 1.0013007265e+000	-2.2702621071e+000
 4.4535584224e-001	 1.0058121961e+000	-2.3971167077e+000
 4.3527740843e-001	 1.0102146196e+000	-2.5211167363e+000
 4.2517485386e-001	 1.0145079318e+000	-2.6422236645e+000
 4.1504987964e-001	 1.0186921014e+000	-2.7603982178e+000
 4.0490418052e-001	 1.0227671312e+000	-2.8756002321e+000
 5.0809464359e-001	 9.8266418256e-001	-1.6178913231e+000
 4.9814067281e-001	 9.8774740325e-001	-1.7514098739e+000
 4.8815209197e-001	 9.9272181281e-001	-1.8824136861e+000
 4.7813063255e-001	 9.9758716950e-001	-2.0108685196e+000
 4.6807802475e-001	 1.0023432672e+000	-2.1367400716e+000
 4.5799599661e-001	 1.0069899352e+000	-2.2599937929e+000
 4.4788627316e-001	 1.0115270381e+000	-2.3805947103e+000
 4.3775057553e-001	 1.0159544754e+000	-2.4985072575e+000
 4.2759062008e-001	 1.0202721814e+000	-2.6136951121e+000
 4.1740811760e-001	 1.0244801247e+000	-2.7261210415e+000
 4.0720477246e-001	 1.0285783081e+000	-2.8357467575e+000
 5.1096523480e-001	 9.8821595760e-001	-1.6464865669e+000
 5.0095502689e-001	 9.9332789705e-001	-1.7728877226e+000
 4.9091001340e-001	 9.9833041062e-001	-1.8969261801e+000
 4.8083193556e-001	 1.0032232552e+000	-2.0185707580e+000
 4.7072253336e-001	 1.0080062235e+000	-2.1377900686e+000
 4.6058354462e-001	 1.0126791439e+000	-2.2545523296e+000
 4.5041670409e-001	 1.0172418801e+000	-2.3688251822e+000
 4.4022374262e-001	 1.0216943312e+000	-2.4805755168e+000
 4.3000638629e-001	 1.0260364310e+000	-2.5897693071e+000
 4.1976635555e-001	 1.0302681480e+000	-2.6963714518e+000
 4.0950536440e-001	 1.0343894849e+000	-2.8003456259e+000
 5.1383582600e-001	 9.9376773264e-001	-1.6802112300e+000
 5.0376938097e-001	 9.9890839085e-001	-1.7994235191e+000
 4.9366793482e-001	 1.0039390084e+000	-1.9164243504e+000
 4.8353323857e-001	 1.0088593409e+000	-2.0311856954e+000
 4.7336704198e-001	 1.0136691798e+000	-2.1436791757e+000
 4.6317109262e-001	 1.0183683526e+000	-2.2538758691e+000
 4.5294713501e-001	 1.0229567222e+000	-2.3617461233e+000
 4.4269690972e-001	 1.0274341870e+000	-2.4672593772e+000
 4.3242215251e-001	 1.0318006806e+000	-2.5703839909e+000
 4.2212459350e-001	 1.0360561713e+000	-2.6710870837e+000
 4.1180595633e-001	 1.0402006618e+000	-2.7693343816e+000
 5.1670641720e-001	 9.9931950768e-001	-1.7190062217e+000
 5.0658373506e-001	 1.0044888846e+000	-1.8309579444e+000
 4.9642585624e-001	 1.0095476062e+000	-1.9408486624e+000
 4.8623454157e-001	 1.0144954266e+000	-2.0486535952e+000
 4.7601155059e-001	 1.0193321361e+000	-2.1543474676e+000
 4.6575864062e-001	 1.0240575612e+000	-2.2579043113e+000
 4.5547756593e-001	 1.0286715642e+000	-2.3592972732e+000
 4.4517007681e-001	 1.0331740428e+000	-2.4584984327e+000
 4.3483791872e-001	 1.0375649302e+000	-2.5554786266e+000
 4.2448283146e-001	 1.0418441946e+000	-2.6502072843e+000
 4.1410654827e-001	 1.0460118387e+000	-2.7426522714e+000
 3.9110062891e-001	 9.8790006990e-001	-3.2119448913e+000
 3.8128241756e-001	 9.9173079417e-001	-3.3661089533e+000
 3.7144744020e-001	 9.9545620156e-001	-3.5166246851e+000
 3.6159731069e-001	 9.9907639096e-001	-3.6633905161e+000
 3.5173363372e-001	 1.0025914926e+000	-3.8063050527e+000
 3.4185800407e-001	 1.0060016676e+000	-3.9452670295e+000
 3.3197200594e-001	 1.0093071075e+000	-4.0801752674e+000
 3.2207721221e-001	 1.0125080343e+000	-4.2109286372e+000
 3.1217518382e-001	 1.0156046990e+000	-4.3374260304e+000
 3.0226746914e-001	 1.0185973823e+000	-4.4595663360e+000
 2.9235560328e-001	 1.0214863931e+000	-4.5772484238e+000
 3.9340122085e-001	 9.9371124679e-001	-3.1439641215e+000
 3.8352525531e-001	 9.9756450473e-001	-3.2922516835e+000
 3.7363242514e-001	 1.0013118263e+000	-3.4368557323e+000
 3.6372435369e-001	 1.0049533109e+000	-3.5776897863e+000
 3.5380265509e-001	 1.0084890896e+000	-3.7146673793e+000
 3.4386893351e-001	 1.0119193244e+000	-3.8477019963e+000
 3.3392478244e-001	 1.0152442082e+000	-3.9767070163e+000
 3.2397178404e-001	 1.0184639639e+000	-4.1015956621e+000
 3.1401150843e-001	 1.0215788443e+000	-4.2222809567e+000
 3.0404551307e-001	 1.0245891316e+000	-4.3386756872e+000
 2.9407534212e-001	 1.0274951366e+000	-4.4506923756e+000
 3.9570181278e-001	 9.9952242367e-001	-3.0808490201e+000
 3.8576809306e-001	 1.0033982153e+000	-3.2234400676e+000
 3.7581741008e-001	 1.0071674510e+000	-3.3623143884e+000
 3.6585139669e-001	 1.0108302309e+000	-3.4974005445e+000
 3.5587167646e-001	 1.0143866866e+000	-3.6286269508e+000
 3.4587986294e-001	 1.0178369813e+000	-3.7559217945e+000
 3.3587755894e-001	 1.0211813088e+000	-3.8792129637e+000
 3.2586635587e-001	 1.0244198935e+000	-3.9984279822e+000
 3.1584783304e-001	 1.0275529896e+000	-4.1134939529e+000
 3.0582355701e-001	 1.0305808809e+000	-4.2243375075e+000
 2.9579508096e-001	 1.0335038801e+000	-4.3308847657e+000
 3.9800240472e-001	 1.0053336005e+000	-3.0225258355e+000
 3.8801093081e-001	 1.0092319258e+000	-3.1595959242e+000
 3.7800239502e-001	 1.0130230757e+000	-3.2929180252e+000
 3.6797843969e-001	 1.0167071508e+000	-3.4224357019e+000
 3.5794069784e-001	 1.0202842836e+000	-3.5480922057e+000
 3.4789079238e-001	 1.0237546382e+000	-3.6698303807e+000
 3.3783033545e-001	 1.0271184094e+000	-3.7875925770e+000
 3.2776092771e-001	 1.0303758231e+000	-3.9013205712e+000
 3.1768415765e-001	 1.0335271349e+000	-4.0109554959e+000
 3.0760160094e-001	 1.0365726302e+000	-4.1164377768e+000
 2.9751481981e-001	 1.0395126236e+000	-4.2177070788e+000
 4.0030299665e-001	 1.0111447774e+000	-2.9689228368e+000
 3.9025376856e-001	 1.0150656364e+000	-3.1006431819e+000
 3.8018737996e-001	 1.0188787004e+000	-3.2285862151e+000
 3.7010548270e-001	 1.0225840707e+000	-3.3527104607e+000
 3.6000971921e-001	 1.0261818806e+000	-3.4729739649e+000
 3.4990172181e-001	 1.0296722950e+000	-3.5893341853e+000
 3.3978311195e-001	 1.0330555101e+000	-3.7017478891e+000
 3.2965549954e-001	 1.0363317527e+000	-3.8101710597e+000
 3.1952048226e-001	 1.0395012802e+000	-3.9145588121e+000
 3.0937964488e-001	 1.0425643795e+000	-4.0148653170e+000
 2.9923455865e-001	 1.0455213671e+000	-4.1110437342e+000
 4.0260358859e-001	 1.0169559543e+000	-2.9199702559e+000
 3.9249660631e-001	 1.0208993469e+000	-3.0465078195e+000
 3.8237236490e-001	 1.0247343251e+000	-3.1692406682e+000
 3.7223252570e-001	 1.0284609907e+000	-3.2881422490e+000
 3.6207874058e-001	 1.0320794776e+000	-3.4031853633e+000
 3.5191265124e-001	 1.0355899519e+000	-3.5143420412e+000
 3.4173588846e-001	 1.0389926107e+000	-3.6215834247e+000
 3.3155007138e-001	 1.0422876823e+000	-3.7248796598e+000
 3.2135680687e-001	 1.0454754255e+000	-3.8241997987e+000
 3.1115768881e-001	 1.0485561288e+000	-3.9195117102e+000
 3.0095429749e-001	 1.0515301105e+000	-4.0107820014e+000
 4.0490418052e-001	 1.0227671312e+000	-2.8756002321e+000
 3.9473944406e-001	 1.0267330575e+000	-2.9971178077e+000
 3.8455734985e-001	 1.0305899498e+000	-3.1148051715e+000
 3.7435956870e-001	 1.0343379106e+000	-3.2286506572e+000
 3.6414776196e-001	 1.0379770747e+000	-3.3386417843e+000
 3.5392358068e-001	 1.0415076088e+000	-3.4447651164e+000
 3.4368866496e-001	 1.0449297113e+000	-3.5470061298e+000
 3.3344464322e-001	 1.0482436119e+000	-3.6453490917e+000
 3.2319313148e-001	 1.0514495707e+000	-3.7397769479e+000
 3.1293573275e-001	 1.0545478781e+000	-3.8302712212e+000
 3.0267403633e-001	 1.0575388540e+000	-3.9168119194e+000
 4.0720477246e-001	 1.0285783081e+000	-2.8357467575e+000
 3.9698228182e-001	 1.0325667680e+000	-2.9524030525e+000
 3.8674233479e-001	 1.0364455746e+000	-3.0652055302e+000
 3.7648661171e-001	 1.0402148306e+000	-3.1741573774e+000
 3.6621678333e-001	 1.0438746717e+000	-3.2792607963e+000
 3.5593451012e-001	 1.0474252656e+000	-3.3805168473e+000
 3.4564144147e-001	 1.0508668120e+000	-3.4779253033e+000
 3.3533921505e-001	 1.0541995416e+000	-3.5714845125e+000
 3.2502945609e-001	 1.0574237160e+000	-3.6611912737e+000
 3.1471377669e-001	 1.0605396274e+000	-3.7470407208e+000
 3.0439377518e-001	 1.0635475975e+000	-3.8290262186e+000
 4.0950536440e-001	 1.0343894849e+000	-2.8003456259e+000
 3.9922511957e-001	 1.0384004786e+000	-2.9122953414e+000
 3.8892731973e-001	 1.0423011993e+000	-3.0203695113e+000
 3.7861365471e-001	 1.0460917505e+000	-3.1245861438e+000
 3.6828580471e-001	 1.0497722687e+000	-3.2249620910e+000
 3.5794543955e-001	 1.0533429225e+000	-3.3215128756e+000
 3.4759421798e-001	 1.0568039126e+000	-3.4142525307e+000
 3.3723378689e-001	 1.0601554712e+000	-3.5031934483e+000
 3.2686578070e-001	 1.0633978613e+000	-3.5883462409e+000
 3.1649182062e-001	 1.0665313767e+000	-3.6697196131e+000
 3.0611351402e-001	 1.0695563410e+000	-3.7473202448e+000
 4.1180595633e-001	 1.0402006618e+000	-2.7693343816e+000
 4.0146795732e-001	 1.0442341891e+000	-2.8767282904e+000
 3.9111230468e-001	 1.0481568240e+000	-2.9802267883e+000
 3.8074069772e-001	 1.0519686705e+000	-3.0798626762e+000
 3.7035482609e-001	 1.0556698657e+000	-3.1756674245e+000
 3.5995636899e-001	 1.0592605794e+000	-3.2676709862e+000
 3.4954699448e-001	 1.0627410132e+000	-3.3559016204e+000
 3.3912835873e-001	 1.0661114008e+000	-3.4403857275e+000
 3.2870210532e-001	 1.0693720066e+000	-3.5211476967e+000
 3.1826986456e-001	 1.0725231260e+000	-3.5982097646e+000
 3.0783325287e-001	 1.0755650845e+000	-3.6715918866e+000
 4.1410654827e-001	 1.0460118387e+000	-2.7426522714e+000
 4.0371079507e-001	 1.0500678997e+000	-2.8456372932e+000
 3.9329728962e-001	 1.0540124487e+000	-2.9447088889e+000
 3.8286774073e-001	 1.0578455904e+000	-3.0399146242e+000
 3.7242384746e-001	 1.0615674627e+000	-3.1313005597e+000
 3.6196729843e-001	 1.0651782362e+000	-3.2189110479e+000
 3.5149977099e-001	 1.0686781139e+000	-3.3027885419e+000
 3.4102293057e-001	 1.0720673304e+000	-3.3829734172e+000
 3.3053842993e-001	 1.0753461519e+000	-3.4595038045e+000
 3.2004790850e-001	 1.0785148753e+000	-3.5324154360e+000
 3.0955299171e-001	 1.0815738280e+000	-3.6017415044e+000
 2.9235560328e-001	 1.0214863931e+000	-4.5772484238e+000
 2.8244110754e-001	 1.0242720687e+000	-4.7071441845e+000
 2.7252548880e-001	 1.0269547741e+000	-4.8312099756e+000
 2.6261023892e-001	 1.0295349010e+000	-4.9494173475e+000
 2.5269683426e-001	 1.0320128681e+000	-5.0617378925e+000
 2.4278673507e-001	 1.0343891199e+000	-5.1681431841e+000
 2.3288138505e-001	 1.0366641262e+000	-5.2686047224e+000
 2.2298221082e-001	 1.0388383819e+000	-5.3630938881e+000
 2.1309062144e-001	 1.0409124061e+000	-5.4515819030e+000
 2.0320800801e-001	 1.0428867415e+000	-5.5340397978e+000
 1.9333574320e-001	 1.0447619540e+000	-5.6104383877e+000
 2.9407534212e-001	 1.0274951366e+000	-4.4506923756e+000
 2.8410252582e-001	 1.0302971986e+000	-4.5762910297e+000
 2.7412857991e-001	 1.0329956845e+000	-4.6960552991e+000
 2.6415500503e-001	 1.0355909887e+000	-4.8099668955e+000
 2.5418328623e-001	 1.0380835321e+000	-4.9180074277e+000
 2.4421489234e-001	 1.0404737618e+000	-5.0201583299e+000
 2.3425127556e-001	 1.0427621505e+000	-5.1164007993e+000
 2.2429387088e-001	 1.0449491959e+000	-5.2067157410e+000
 2.1434409568e-001	 1.0470354202e+000	-5.2910837201e+000
 2.0440334923e-001	 1.0490213693e+000	-5.3694849227e+000
 1.9447301229e-001	 1.0509076125e+000	-5.4418991232e+000
 2.9579508096e-001	 1.0335038801e+000	-4.3308847657e+000
 2.8576394410e-001	 1.0363223284e+000	-4.4523044419e+000
 2.7573167102e-001	 1.0390365950e+000	-4.5678882204e+000
 2.6569977115e-001	 1.0416470763e+000	-4.6776279387e+000
 2.5566973819e-001	 1.0441541960e+000	-4.7815151835e+000
 2.4564304961e-001	 1.0465584036e+000	-4.8795412099e+000
 2.3562116606e-001	 1.0488601747e+000	-4.9716968695e+000
 2.2560553095e-001	 1.0510600099e+000	-5.0579725472e+000
 2.1559756993e-001	 1.0531584344e+000	-5.1383581051e+000
 2.0559869046e-001	 1.0551559972e+000	-5.2128428358e+000
 1.9561028137e-001	 1.0570532711e+000	-5.2814154229e+000
 2.9751481981e-001	 1.0395126236e+000	-4.2177070788e+000
 2.8742536238e-001	 1.0423474582e+000	-4.3350627909e+000
 2.7733476213e-001	 1.0450775054e+000	-4.4465839755e+000
 2.6724453726e-001	 1.0477031640e+000	-4.5522725617e+000
 2.5715619016e-001	 1.0502248599e+000	-4.6521300779e+000
 2.4707120687e-001	 1.0526430455e+000	-4.7461575614e+000
 2.3699105656e-001	 1.0549581990e+000	-4.8343554777e+000
 2.2691719101e-001	 1.0571708239e+000	-4.9167236483e+000
 2.1685104418e-001	 1.0592814485e+000	-4.9932611875e+000
 2.0679403169e-001	 1.0612906251e+000	-5.0639664473e+000
 1.9674755045e-001	 1.0631989296e+000	-5.1288369713e+000
 2.9923455865e-001	 1.0455213671e+000	-4.1110437342e+000
 2.8908678066e-001	 1.0483725880e+000	-4.2244474418e+000
 2.7893785324e-001	 1.0511184158e+000	-4.3320208569e+000
 2.6878930337e-001	 1.0537592517e+000	-4.4337759682e+000
 2.5864264213e-001	 1.0562955239e+000	-4.5297242107e+000
 2.4849936414e-001	 1.0587276874e+000	-4.6198763671e+000
 2.3836094706e-001	 1.0610562233e+000	-4.7042424775e+000
 2.2822885108e-001	 1.0632816379e+000	-4.7828317590e+000
 2.1810451842e-001	 1.0654044627e+000	-4.8556525345e+000
 2.0798937291e-001	 1.0674252530e+000	-4.9227121700e+000
 1.9788481953e-001	 1.0693445882e+000	-4.9840170220e+000
 3.0095429749e-001	 1.0515301105e+000	-4.0107820014e+000
 2.9074819894e-001	 1.0543977178e+000	-4.1203426691e+000
 2.8054094435e-001	 1.0571593263e+000	-4.2240801269e+000
 2.7033406948e-001	 1.0598153393e+000	-4.3220163917e+000
 2.6012909409e-001	 1.0623661878e+000	-4.4141727726e+000
 2.4992752141e-001	 1.0648123293e+000	-4.5005697619e+000
 2.3973083756e-001	 1.0671542476e+000	-4.5812269371e+000
 2.2954051114e-001	 1.0693924519e+000	-4.6561628710e+000
 2.1935799267e-001	 1.0715274768e+000	-4.7253950533e+000
 2.0918471414e-001	 1.0735598809e+000	-4.7889398203e+000
 1.9902208861e-001	 1.0754902467e+000	-4.8468122951e+000
 3.0267403633e-001	 1.0575388540e+000	-3.9168119194e+000
 2.9240961722e-001	 1.0604228476e+000	-4.0226355747e+000
 2.8214403546e-001	 1.0632002367e+000	-4.1226459328e+000
 2.7187883559e-001	 1.0658714270e+000	-4.2168750098e+000
 2.6161554606e-001	 1.0684368517e+000	-4.3053539572e+000
 2.5135567867e-001	 1.0708969712e+000	-4.3881129436e+000
 2.4110072807e-001	 1.0732522718e+000	-4.4651810475e+000
 2.3085217121e-001	 1.0755032660e+000	-4.5365861596e+000
 2.2061146691e-001	 1.0776504910e+000	-4.6023548958e+000
 2.1038005537e-001	 1.0796945088e+000	-4.6625125206e+000
 2.0015935769e-001	 1.0816359053e+000	-4.7170828791e+000
 3.0439377518e-001	 1.0635475975e+000	-3.8290262186e+000
 2.9407103550e-001	 1.0664479775e+000	-3.9312160075e+000
 2.8374712657e-001	 1.0692411471e+000	-4.0276052255e+000
 2.7342360170e-001	 1.0719275146e+000	-4.1182358606e+000
 2.6310199803e-001	 1.0745075156e+000	-4.2031488766e+000
 2.5278383594e-001	 1.0769816130e+000	-4.2823840864e+000
 2.4247061857e-001	 1.0793502961e+000	-4.3559800349e+000
 2.3216383127e-001	 1.0816140800e+000	-4.4239738940e+000
 2.2186494116e-001	 1.0837735051e+000	-4.4864013674e+000
 2.1157539659e-001	 1.0858291367e+000	-4.5432966064e+000
 2.0129662677e-001	 1.0877815638e+000	-4.5946921355e+000
 3.0611351402e-001	 1.0695563410e+000	-3.7473202448e+000
 2.9573245378e-001	 1.0724731073e+000	-3.8459764862e+000
 2.8535021768e-001	 1.0752820576e+000	-3.9388476809e+000
 2.7496836782e-001	 1.0779836023e+000	-4.0259857626e+000
 2.6458845000e-001	 1.0805781796e+000	-4.1074414792e+000
 2.5421199320e-001	 1.0830662549e+000	-4.1832642570e+000
 2.4384050907e-001	 1.0854483204e+000	-4.2535020748e+000
 2.3347549134e-001	 1.0877248940e+000	-4.3182013504e+000
 2.2311841540e-001	 1.0898965193e+000	-4.3774068379e+000
 2.1277073782e-001	 1.0919637646e+000	-4.4311615360e+000
 2.0243389585e-001	 1.0939272224e+000	-4.4795066071e+000
 3.0783325287e-001	 1.0755650845e+000	-3.6715918866e+000
 2.9739387206e-001	 1.0784982371e+000	-3.7668121253e+000
 2.8695330880e-001	 1.0813229680e+000	-3.8562656237e+000
 2.7651313393e-001	 1.0840396899e+000	-3.9400142370e+000
 2.6607490196e-001	 1.0866488435e+000	-4.0181184704e+000
 2.5564015047e-001	 1.0891508968e+000	-4.0906373344e+000
 2.4521039957e-001	 1.0915463446e+000	-4.1576282102e+000
 2.3478715140e-001	 1.0938357080e+000	-4.2191467280e+000
 2.2437188965e-001	 1.0960195334e+000	-4.2752466562e+000
 2.1396607904e-001	 1.0980983925e+000	-4.3259798031e+000
 2.0357116493e-001	 1.1000728809e+000	-4.3713959290e+000
 3.0955299171e-001	 1.0815738280e+000	-3.6017415044e+000
 2.9905529034e-001	 1.0845233669e+000	-3.6936205622e+000
 2.8855639991e-001	 1.0873638784e+000	-3.7797539538e+000
 2.7805790004e-001	 1.0900957776e+000	-3.8602134326e+000
 2.6756135393e-001	 1.0927195074e+000	-3.9350692361e+000
 2.5706830774e-001	 1.0952355387e+000	-4.0043899312e+000
 2.4658029007e-001	 1.0976443689e+000	-4.0682422716e+000
 2.3609881147e-001	 1.0999465220e+000	-4.1266910675e+000
 2.2562536389e-001	 1.1021425476e+000	-4.1797990676e+000
 2.1516142026e-001	 1.1042330204e+000	-4.2276268528e+000
 2.0470843400e-001	 1.1062185395e+000	-4.2702327424e+000
 1.9333574320e-001	 1.0447619540e+000	-5.6104383877e+000
 1.8347518088e-001	 1.0465386319e+000	-5.7036705727e+000
 1.7362765569e-001	 1.0482173855e+000	-5.7904384484e+000
 1.6379448271e-001	 1.0497988462e+000	-5.8707662569e+000
 1.5397695710e-001	 1.0512836661e+000	-5.9446773479e+000
 1.4417635377e-001	 1.0526725175e+000	-6.0121941455e+000
 1.3439392711e-001	 1.0539660917e+000	-6.0733381221e+000
 1.2463091066e-001	 1.0551650990e+000	-6.1281297798e+000
 1.1488851688e-001	 1.0562702678e+000	-6.1765886384e+000
 1.0516793689e-001	 1.0572823441e+000	-6.2187332313e+000
 9.5470340265e-002	 1.0582020904e+000	-6.2545811066e+000
 1.9447301229e-001	 1.0509076125e+000	-5.4418991232e+000
 1.8455444666e-001	 1.0526947415e+000	-5.5323270825e+000
 1.7464899485e-001	 1.0543833701e+000	-5.6163885678e+000
 1.6475797967e-001	 1.0559741335e+000	-5.6941058582e+000
 1.5488270391e-001	 1.0574676877e+000	-5.7655003027e+000
 1.4502444998e-001	 1.0588647087e+000	-5.8305922882e+000
 1.3518447963e-001	 1.0601658922e+000	-5.8894012144e+000
 1.2536403367e-001	 1.0613719525e+000	-5.9419454773e+000
 1.1556433169e-001	 1.0624836223e+000	-5.9882424585e+000
 1.0578657182e-001	 1.0635016520e+000	-6.0283085223e+000
 9.6031930505e-002	 1.0644268086e+000	-6.0621590195e+000
 1.9561028137e-001	 1.0570532711e+000	-5.2814154229e+000
 1.8563371243e-001	 1.0588508511e+000	-5.3689559286e+000
 1.7567033401e-001	 1.0605493547e+000	-5.4502307511e+000
 1.6572147664e-001	 1.0621494208e+000	-5.5252602393e+000
 1.5578845072e-001	 1.0636517093e+000	-5.5940637709e+000
 1.4587254618e-001	 1.0650569000e+000	-5.6566597218e+000
 1.3597503214e-001	 1.0663656927e+000	-5.7130654423e+000
 1.2609715668e-001	 1.0675788060e+000	-5.7632972421e+000
 1.1624014650e-001	 1.0686969769e+000	-5.8073703812e+000
 1.0640520674e-001	 1.0697209599e+000	-5.8452990689e+000
 9.6593520745e-002	 1.0706515268e+000	-5.8770964687e+000
 1.9674755045e-001	 1.0631989296e+000	-5.1288369713e+000
 1.8671297821e-001	 1.0650069607e+000	-5.2134075290e+000
 1.7669167316e-001	 1.0667153393e+000	-5.2918161381e+000
 1.6668497360e-001	 1.0683247082e+000	-5.3640812502e+000
 1.5669419753e-001	 1.0698357308e+000	-5.4302203012e+000
 1.4672064238e-001	 1.0712490913e+000	-5.4902496822e+000
 1.3676558466e-001	 1.0725654933e+000	-5.5441847173e+000
 1.2683027968e-001	 1.0737856596e+000	-5.5920396496e+000
 1.1691596131e-001	 1.0749103314e+000	-5.6338276344e+000
 1.0702384167e-001	 1.0759402678e+000	-5.6695607393e+000
 9.7155110985e-002	 1.0768762449e+000	-5.6992499515e+000
 1.9788481953e-001	 1.0693445882e+000	-4.9840170220e+000
 1.8779224398e-001	 1.0711630703e+000	-5.0655358450e+000
 1.7771301232e-001	 1.0728813239e+000	-5.1409993872e+000
 1.6764847056e-001	 1.0744999955e+000	-5.2104242354e+000
 1.5759994434e-001	 1.0760197524e+000	-5.2738259134e+000
 1.4756873858e-001	 1.0774412826e+000	-5.3312188535e+000
 1.3755613718e-001	 1.0787652938e+000	-5.3826163765e+000
 1.2756340269e-001	 1.0799925131e+000	-5.4280306790e+000
 1.1759177611e-001	 1.0811236859e+000	-5.4674728281e+000
 1.0764247660e-001	 1.0821595757e+000	-5.5009527634e+000
 9.7716701224e-002	 1.0831009631e+000	-5.5284793062e+000
 1.9902208861e-001	 1.0754902467e+000	-4.8468122951e+000
 1.8887150975e-001	 1.0773191799e+000	-4.9251982804e+000
 1.7873435147e-001	 1.0790473086e+000	-4.9976385754e+000
 1.6861196752e-001	 1.0806752828e+000	-5.0641479347e+000
 1.5850569115e-001	 1.0822037740e+000	-5.1247399992e+000
 1.4841683479e-001	 1.0836334739e+000	-5.1794272691e+000
 1.3834668969e-001	 1.0849650943e+000	-5.2282210846e+000
 1.2829652570e-001	 1.0861993666e+000	-5.2711316156e+000
 1.1826759092e-001	 1.0873370404e+000	-5.3081678576e+000
 1.0826111152e-001	 1.0883788836e+000	-5.3393376361e+000
 9.8278291462e-002	 1.0893256813e+000	-5.3646476166e+000
 2.0015935769e-001	 1.0816359053e+000	-4.7170828791e+000
 1.8995077552e-001	 1.0834752895e+000	-4.7922555835e+000
 1.7975569062e-001	 1.0852132932e+000	-4.8615951006e+000
 1.6957546448e-001	 1.0868505702e+000	-4.9251143858e+000
 1.5941143796e-001	 1.0883877955e+000	-4.9828252266e+000
 1.4926493099e-001	 1.0898256651e+000	-5.0347382169e+000
 1.3913724221e-001	 1.0911648949e+000	-5.0808627395e+000
 1.2902964870e-001	 1.0924062201e+000	-5.1212069573e+000
 1.1894340573e-001	 1.0935503949e+000	-5.1557778110e+000
 1.0887974645e-001	 1.0945981915e+000	-5.1845810250e+000
 9.8839881700e-002	 1.0955503995e+000	-5.2076211202e+000
 2.0129662677e-001	 1.0877815638e+000	-4.5946921355e+000
 1.9103004130e-001	 1.0896313991e+000	-4.6665717523e+000
 1.8077702978e-001	 1.0913792778e+000	-4.7327335882e+000
 1.7053896144e-001	 1.0930258575e+000	-4.7931888321e+000
 1.6031718477e-001	 1.0945718171e+000	-4.8479474471e+000
 1.5011302719e-001	 1.0960178564e+000	-4.8970181473e+000
 1.3992779472e-001	 1.0973646954e+000	-4.9404083810e+000
 1.2976277171e-001	 1.0986130736e+000	-4.9781243237e+000
 1.1961922053e-001	 1.0997637494e+000	-5.0101708779e+000
 1.0949838137e-001	 1.1008174994e+000	-5.0365516807e+000
 9.9401471938e-002	 1.1017751176e+000	-5.0572691186e+000
 2.0243389585e-001	 1.0939272224e+000	-4.4795066071e+000
 1.9210930707e-001	 1.0957875087e+000	-4.5480139439e+000
 1.8179836893e-001	 1.0975452624e+000	-4.6109218005e+000
 1.7150245839e-001	 1.0992011448e+000	-4.6682396318e+000
 1.6122293158e-001	 1.1007558387e+000	-4.7199756065e+000
 1.5096112339e-001	 1.1022100477e+000	-4.7661365844e+000
 1.4071834723e-001	 1.1035644960e+000	-4.8067281023e+000
 1.3049589471e-001	 1.1048199272e+000	-4.8417543683e+000
 1.2029503534e-001	 1.1059771040e+000	-4.8712182632e+000
 1.1011701629e-001	 1.1070368073e+000	-4.8951213502e+000
 9.9963062175e-002	 1.1079998358e+000	-4.9134638918e+000
 2.0357116493e-001	 1.1000728809e+000	-4.3713959290e+000
 1.9318857284e-001	 1.1019436183e+000	-4.4364523856e+000
 1.8281970808e-001	 1.1037112470e+000	-4.4960305487e+000
 1.7246595535e-001	 1.1053764322e+000	-4.5501381718e+000
 1.6212867838e-001	 1.1069398602e+000	-4.5987816582e+000
 1.5180921959e-001	 1.1084022390e+000	-4.6419660399e+000
 1.4150889975e-001	 1.1097642965e+000	-4.6796949651e+000
 1.3122901772e-001	 1.1110267807e+000	-4.7119706939e+000
 1.2097085015e-001	 1.1121904585e+000	-4.7387941022e+000
 1.1073565121e-001	 1.1132561152e+000	-4.7601646928e+000
 1.0052465241e-001	 1.1142245540e+000	-4.7760806146e+000
 2.0470843400e-001	 1.1062185395e+000	-4.2702327424e+000
 1.9426783861e-001	 1.1080997279e+000	-4.3317602899e+000
 1.8384104723e-001	 1.1098772317e+000	-4.3879336084e+000
 1.7342945231e-001	 1.1115517195e+000	-4.4387587826e+000
 1.6303442519e-001	 1.1131238818e+000	-4.4842404798e+000
 1.5265731578e-001	 1.1145944303e+000	-4.5243819303e+000
 1.4229945226e-001	 1.1159640970e+000	-4.5591849166e+000
 1.3196214072e-001	 1.1172336342e+000	-4.5886497707e+000
 1.2164666495e-001	 1.1184038130e+000	-4.6127753798e+000
 1.1135428614e-001	 1.1194754231e+000	-4.6315591999e+000
 1.0108624265e-001	 1.1204492722e+000	-4.6449972768e+000
 9.5470340265e-002	 1.0582020904e+000	-6.2545811066e+000
 8.5796874808e-002	 1.0590302858e+000	-6.3027558793e+000
 7.6148666382e-002	 1.0597677248e+000	-6.3448554868e+000
 6.6526818739e-002	 1.0604152170e+000	-6.3809085832e+000
 5.6932413375e-002	 1.0609735861e+000	-6.4109423937e+000
 4.7366509402e-002	 1.0614436696e+000	-6.4349827432e+000
 3.7830143434e-002	 1.0618263183e+000	-6.4530540892e+000
 2.8324329504e-002	 1.0621223952e+000	-6.4651795605e+000
 1.8850058980e-002	 1.0623327752e+000	-6.4713810004e+000
 9.4083005139e-003	 1.0624583445e+000	-6.4716790140e+000
 0.0000000000e+000	 1.0625000000e+000	-6.4660930194e+000
 9.6031930505e-002	 1.0644268086e+000	-6.0621590195e+000
 8.6301562309e-002	 1.0652598757e+000	-6.1089073003e+000
 7.6596599716e-002	 1.0660016526e+000	-6.1496870910e+000
 6.6918152969e-002	 1.0666529535e+000	-6.1845270150e+000
 5.7267309926e-002	 1.0672146072e+000	-6.2134541721e+000
 4.7645135928e-002	 1.0676874559e+000	-6.2364941682e+000
 3.8052673690e-002	 1.0680723555e+000	-6.2536711509e+000
 2.8490943207e-002	 1.0683701740e+000	-6.2650078492e+000
 1.8960941680e-002	 1.0685817915e+000	-6.2705256194e+000
 9.4636434581e-003	 1.0687080995e+000	-6.2702444939e+000
 0.0000000000e+000	 1.0687500000e+000	-6.2641832352e+000
 9.6593520745e-002	 1.0706515268e+000	-5.8770964687e+000
 8.6806249811e-002	 1.0714894656e+000	-5.9224249727e+000
 7.7044533049e-002	 1.0722355804e+000	-5.9618942463e+000
 6.7309487198e-002	 1.0728906901e+000	-5.9955328666e+000
 5.7602206476e-002	 1.0734556282e+000	-6.0233677903e+000
 4.7923762455e-002	 1.0739312422e+000	-6.0454243846e+000
 3.8275203946e-002	 1.0743183926e+000	-6.0617264649e+000
 2.8657556910e-002	 1.0746179528e+000	-6.0722963365e+000
 1.9071824379e-002	 1.0748308079e+000	-6.0771548424e+000
 9.5189864023e-003	 1.0749578545e+000	-6.0763214145e+000
 0.0000000000e+000	 1.0750000000e+000	-6.0698141297e+000
 9.7155110985e-002	 1.0768762449e+000	-5.6992499515e+000
 8.7310937312e-002	 1.0777190556e+000	-5.7431649826e+000
 7.7492466382e-002	 1.0784695082e+000	-5.7813326254e+000
 6.7700821427e-002	 1.0791284267e+000	-5.8137813955e+000
 5.7937103026e-002	 1.0796966493e+000	-5.8405380888e+000
 4.8202388981e-002	 1.0801750285e+000	-5.8616278145e+000
 3.8497734202e-002	 1.0805644298e+000	-5.8770740338e+000
 2.8824170613e-002	 1.0808657316e+000	-5.8868986046e+000
 1.9182707079e-002	 1.0810798242e+000	-5.8911218306e+000
 9.5743293464e-003	 1.0812076094e+000	-5.8897625153e+000
 0.0000000000e+000	 1.0812500000e+000	-5.8828380205e+000
 9.7716701224e-002	 1.0831009631e+000	-5.5284793062e+000
 8.7815624812e-002	 1.0839486455e+000	-5.5709867611e+000
 7.7940399715e-002	 1.0847034360e+000	-5.6078612501e+000
 6.8092155656e-002	 1.0853661633e+000	-5.6391312127e+000
 5.8271999576e-002	 1.0859376704e+000	-5.6648232669e+000
 4.8481015507e-002	 1.0864188148e+000	-5.6849622441e+000
 3.8720264457e-002	 1.0868104670e+000	-5.6995712301e+000
 2.8990784316e-002	 1.0871135104e+000	-5.7086716113e+000
 1.9293589779e-002	 1.0873288405e+000	-5.7122831267e+000
 9.6296722906e-003	 1.0874573644e+000	-5.7104239239e+000
 0.0000000000e+000	 1.0875000000e+000	-5.7031106200e+000
 9.8278291462e-002	 1.0893256813e+000	-5.3646476166e+000
 8.8320312312e-002	 1.0901782354e+000	-5.4057529885e+000
 7.8388333048e-002	 1.0909373638e+000	-5.4413423960e+000
 6.8483489884e-002	 1.0916038998e+000	-5.4714441877e+000
 5.8606896126e-002	 1.0921786915e+000	-5.4960847867e+000
 4.8759642034e-002	 1.0926626011e+000	-5.5152887276e+000
 3.8942794713e-002	 1.0930565041e+000	-5.5290786992e+000
 2.9157398019e-002	 1.0933612892e+000	-5.5374755933e+000
 1.9404472479e-002	 1.0935778568e+000	-5.5404985587e+000
 9.6850152348e-003	 1.0937071194e+000	-5.5381650595e+000
 0.0000000000e+000	 1.0937500000e+000	-5.5304909388e+000
 9.8839881700e-002	 1.0955503995e+000	-5.2076211202e+000
 8.8824999812e-002	 1.0964078253e+000	-5.2473295023e+000
 7.8836266380e-002	 1.0971712916e+000	-5.2816414996e+000
 6.8874824113e-002	 1.0978416364e+000	-5.3105853550e+000
 5.8941792675e-002	 1.0984197126e+000	-5.3341872803e+000
 4.9038268560e-002	 1.0989063874e+000	-5.3524714940e+000
 3.9165324969e-002	 1.0993025413e+000	-5.3654602670e+000
 2.9324011722e-002	 1.0996090680e+000	-5.3731739734e+000
 1.9515355179e-002	 1.0998268732e+000	-5.3756311461e+000
 9.7403581789e-003	 1.0999568743e+000	-5.3728485389e+000
 0.0000000000e+000	 1.1000000000e+000	-5.3648411917e+000
 9.9401471938e-002	 1.1017751176e+000	-5.0572691186e+000
 8.9329687312e-002	 1.1026374152e+000	-5.0955852082e+000
 7.9284199712e-002	 1.1034052194e+000	-5.1286270693e+000
 6.9266158341e-002	 1.1040793730e+000	-5.1564228255e+000
 5.9276689225e-002	 1.1046607337e+000	-5.1789984603e+000
 4.9316895085e-002	 1.1051501737e+000	-5.1963778578e+000
 3.9387855224e-002	 1.1055485785e+000	-5.2085828501e+000
 2.9490625425e-002	 1.1058568468e+000	-5.2156332700e+000
 1.9626237879e-002	 1.1060758895e+000	-5.2175470102e+000
 9.7957011231e-003	 1.1062066293e+000	-5.2143400867e+000
 0.0000000000e+000	 1.1062500000e+000	-5.2060267073e+000
 9.9963062175e-002	 1.1079998358e+000	-4.9134638918e+000
 8.9834374811e-002	 1.1088670051e+000	-4.9503919933e+000
 7.9732133044e-002	 1.1096391472e+000	-4.9821705992e+000
 6.9657492569e-002	 1.1103171095e+000	-5.0088276996e+000
 5.9611585774e-002	 1.1109017548e+000	-5.0303890336e+000
 4.9595521611e-002	 1.1113939600e+000	-5.0468781324e+000
 3.9610385479e-002	 1.1117946156e+000	-5.0583163684e+000
 2.9657239128e-002	 1.1121046255e+000	-5.0647230107e+000
 1.9737120578e-002	 1.1123249058e+000	-5.0661152866e+000
 9.8510440672e-003	 1.1124563843e+000	-5.0625084476e+000
 0.0000000000e+000	 1.1125000000e+000	-5.0539158405e+000
 1.0052465241e-001	 1.1142245540e+000	-4.7760806146e+000
 9.0339062309e-002	 1.1150965951e+000	-4.8116246432e+000
 8.0180066375e-002	 1.1158730750e+000	-4.8421464852e+000
 7.0048826796e-002	 1.1165548461e+000	-4.8676739837e+000
 5.9946482323e-002	 1.1171427759e+000	-4.8882326173e+000
 4.9874148137e-002	 1.1176377463e+000	-4.9038455459e+000
 3.9832915735e-002	 1.1180406528e+000	-4.9145336618e+000
 2.9823852830e-002	 1.1183524043e+000	-4.9203156479e+000
 1.9848003278e-002	 1.1185739221e+000	-4.9212080413e+000
 9.9063870114e-003	 1.1187061393e+000	-4.9172253022e+000
 0.0000000000e+000	 1.1187500000e+000	-4.9083798882e+000
 1.0108624265e-001	 1.1204492722e+000	-4.6449972768e+000
 9.0843749807e-002	 1.1213261850e+000	-4.6791607615e+000
 8.0627999707e-002	 1.1221070028e+000	-4.7084319451e+000
 7.0440161024e-002	 1.1227925827e+000	-4.7328385097e+000
 6.0281378872e-002	 1.1233837970e+000	-4.7524056581e+000
 5.0152774663e-002	 1.1238815325e+000	-4.7671561605e+000
 4.0055445990e-002	 1.1242866900e+000	-4.7771104090e+000
 2.9990466533e-002	 1.1246001831e+000	-4.7822864776e+000
 1.9958885978e-002	 1.1248229385e+000	-4.7827001889e+000
 9.9617299555e-003	 1.1249558942e+000	-4.7783651855e+000
 0.0000000000e+000	 1.1250000000e+000	-4.7692930070e+000
 1.1250000000e+000	 0.0000000000e+000	 2.4265623443e+000
 1.1249558942e+000	 9.9617299555e-003	 2.4396670658e+000
 1.1248229385e+000	 1.9958885978e-002	 2.4506779967e+000
 1.1246001831e+000	 2.9990466533e-002	 2.4595897869e+000
 1.1242866900e+000	 4.0055445990e-002	 2.4663925830e+000
 1.1238815325e+000	 5.0152774663e-002	 2.4710718209e+000
 1.1233837970e+000	 6.0281378872e-002	 2.4736080219e+000
 1.1227925827e+000	 7.0440161024e-002	 2.4739765930e+000
 1.1221070028e+000	 8.0627999707e-002	 2.4721476323e+000
 1.1213261850e+000	 9.0843749807e-002	 2.4680857410e+000
 1.1204492722e+000	 1.0108624265e-001	 2.4617498403e+000
 1.1312500000e+000	 0.0000000000e+000	 2.4673431007e+000
 1.1312056492e+000	 1.0017072900e-002	 2.4807994669e+000
 1.1310719548e+000	 2.0069768678e-002	 2.4918704643e+000
 1.1308479619e+000	 3.0157080236e-002	 2.5005484589e+000
 1.1305327271e+000	 4.0277976245e-002	 2.5068214387e+000
 1.1301253188e+000	 5.0431401188e-002	 2.5106728098e+000
 1.1296248181e+000	 6.0616275421e-002	 2.5120811957e+000
 1.1290303192e+000	 7.0831495251e-002	 2.5110202416e+000
 1.1283409306e+000	 8.1075933037e-002	 2.5074584236e+000
 1.1275557749e+000	 9.1348437305e-002	 2.5013588638e+000
 1.1266739904e+000	 1.0164783288e-001	 2.4926791516e+000
 1.1375000000e+000	 0.0000000000e+000	 2.5118297808e+000
 1.1374554042e+000	 1.0072415844e-002	 2.5255977891e+000
 1.1373209711e+000	 2.0180651377e-002	 2.5366953789e+000
 1.1370957407e+000	 3.0323693939e-002	 2.5451127245e+000
 1.1367787643e+000	 4.0500506500e-002	 2.5508357440e+000
 1.1363691051e+000	 5.0710027713e-002	 2.5538458984e+000
 1.1358658392e+000	 6.0951171969e-002	 2.5541199950e+000
 1.1352680558e+000	 7.1222829478e-002	 2.5516299948e+000
 1.1345748584e+000	 8.1523866368e-002	 2.5463428253e+000
 1.1337853648e+000	 9.1853124803e-002	 2.5382201988e+000
 1.1328987085e+000	 1.0220942312e-001	 2.5272184378e+000
 1.1437500000e+000	 0.0000000000e+000	 2.5599744846e+000
 1.1437051591e+000	 1.0127758788e-002	 2.5740140157e+000
 1.1435699874e+000	 2.0291534077e-002	 2.5851045463e+000
 1.1433435195e+000	 3.0490307641e-002	 2.5932341505e+000
 1.1430248015e+000	 4.0723036755e-002	 2.5983867644e+000
 1.1426128914e+000	 5.0988654239e-002	 2.6005419886e+000
 1.1421068603e+000	 6.1286068518e-002	 2.5996748951e+000
 1.1415057924e+000	 7.1614163705e-002	 2.5957558377e+000
 1.1408087862e+000	 8.1971799699e-002	 2.5887502682e+000
 1.1400149547e+000	 9.2357812301e-002	 2.5786185583e+000
 1.1391234267e+000	 1.0277101336e-001	 2.5653158280e+000
 1.1500000000e+000	 0.0000000000e+000	 2.6117303534e+000
 1.1499549141e+000	 1.0183101732e-002	 2.6260011688e+000
 1.1498190038e+000	 2.0402416777e-002	 2.6370508102e+000
 1.1495912983e+000	 3.0656921344e-002	 2.6448653424e+000
 1.1492708386e+000	 4.0945567011e-002	 2.6494268069e+000
 1.1488566777e+000	 5.1267280764e-002	 2.6507130281e+000
 1.1483478814e+000	 6.1620965067e-002	 2.6486974230e+000
 1.1477435290e+000	 7.2005497933e-002	 2.6433488147e+000
 1.1470427139e+000	 8.2419733030e-002	 2.6346312521e+000
 1.1462445447e+000	 9.2862499799e-002	 2.6225038348e+000
 1.1453481449e+000	 1.0333260359e-001	 2.6069205442e+000
 1.1562500000e+000	 0.0000000000e+000	 2.6670515415e+000
 1.1562046691e+000	 1.0238444676e-002	 2.6815132813e+000
 1.1560680201e+000	 2.0513299477e-002	 2.6924880245e+000
 1.1558390771e+000	 3.0823535047e-002	 2.6999599167e+000
 1.1555168758e+000	 4.1168097266e-002	 2.7039091919e+000
 1.1551004640e+000	 5.1545907290e-002	 2.7043119821e+000
 1.1545889025e+000	 6.1955861616e-002	 2.7011401289e+000
 1.1539812655e+000	 7.2396832160e-002	 2.6943610012e+000
 1.1532766417e+000	 8.2867666361e-002	 2.6839373170e+000
 1.1524741346e+000	 9.3367187297e-002	 2.6698269715e+000
 1.1515728631e+000	 1.0389419383e-001	 2.6519828720e+000
 1.1625000000e+000	 0.0000000000e+000	 2.7258931894e+000
 1.1624544240e+000	 1.0293787620e-002	 2.7405053700e+000
 1.1623170364e+000	 2.0624182176e-002	 2.7513710260e+000
 1.1620868559e+000	 3.0990148750e-002	 2.7584724736e+000
 1.1617629130e+000	 4.1390627521e-002	 2.7617882262e+000
 1.1613442503e+000	 5.1824533815e-002	 2.7612928060e+000
 1.1608299236e+000	 6.2290758164e-002	 2.7569565591e+000
 1.1602190021e+000	 7.2788166387e-002	 2.7487454757e+000
 1.1595105695e+000	 8.3315599692e-002	 2.7366210145e+000
 1.1587037245e+000	 9.3871874795e-002	 2.7205399346e+000
 1.1577975813e+000	 1.0445578406e-001	 2.7004541318e+000
 1.1687500000e+000	 0.0000000000e+000	 2.7882113970e+000
 1.1687041790e+000	 1.0349130564e-002	 2.8029334088e+000
 1.1685660527e+000	 2.0735064876e-002	 2.8136556080e+000
 1.1683346347e+000	 3.1156762452e-002	 2.8203585709e+000
 1.1680089501e+000	 4.1613157776e-002	 2.8230191762e+000
 1.1675880366e+000	 5.2103160341e-002	 2.8216104190e+000
 1.1670709447e+000	 6.2625654713e-002	 2.8161012290e+000
 1.1664567387e+000	 7.3179500615e-002	 2.8064562929e+000
 1.1657444973e+000	 8.3763533023e-002	 2.7926358817e+000
 1.1649333144e+000	 9.4376562293e-002	 2.7745956852e+000
 1.1640222995e+000	 1.0501737430e-001	 2.7522866511e+000
 1.1750000000e+000	 0.0000000000e+000	 2.8539631982e+000
 1.1749539340e+000	 1.0404473509e-002	 2.8687543035e+000
 1.1748150691e+000	 2.0845947576e-002	 2.8792984951e+000
 1.1745824135e+000	 3.1323376155e-002	 2.8855746982e+000
 1.1742549873e+000	 4.1835688031e-002	 2.8875582425e+000
 1.1738318229e+000	 5.2381786866e-002	 2.8852206783e+000
 1.1733119658e+000	 6.2960551262e-002	 2.8785295975e+000
 1.1726944752e+000	 7.3570834842e-002	 2.8674484579e+000
 1.1719784251e+000	 8.4211466354e-002	 2.8519364141e+000
 1.1711629043e+000	 9.4881249791e-002	 2.8319481533e+000
 1.1702470176e+000	 1.0557896453e-001	 2.8074337380e+000
 1.1812500000e+000	 0.0000000000e+000	 2.9231065364e+000
 1.1812036889e+000	 1.0459816453e-002	 2.9379258673e+000
 1.1810640854e+000	 2.0956830276e-002	 2.9482573184e+000
 1.1808301923e+000	 3.1489989858e-002	 2.9540782526e+000
 1.1805010245e+000	 4.2058218287e-002	 2.9553625355e+000
 1.1800756092e+000	 5.2660413392e-002	 2.9520803545e+000
 1.1795529869e+000	 6.3295447811e-002	 2.9441980417e+000
 1.1789322118e+000	 7.3962169069e-002	 2.9316779009e+000
 1.1782123529e+000	 8.4659399685e-002	 2.9144780407e+000
 1.1773924942e+000	 9.5385937289e-002	 2.8925522122e+000
 1.1764717358e+000	 1.0614055477e-001	 2.8658496549e+000
 1.1875000000e+000	 0.0000000000e+000	 2.9956002402e+000
 1.1874534439e+000	 1.0515159397e-002	 3.0104067966e+000
 1.1873131017e+000	 2.1067712975e-002	 3.0204905919e+000
 1.1870779711e+000	 3.1656603561e-002	 3.0258275145e+000
 1.1867470616e+000	 4.2280748542e-002	 3.0263900511e+000
 1.1863193955e+000	 5.2939039917e-002	 3.0221471073e+000
 1.1857940079e+000	 6.3630344359e-002	 3.0130638334e+000
 1.1851699484e+000	 7.4353503296e-002	 2.9991014533e+000
 1.1844462807e+000	 8.5107333016e-002	 2.9802170994e+000
 1.1836220842e+000	 9.5890624787e-002	 2.9563636534e+000
 1.1826964540e+000	 1.0670214501e-001	 2.9274895937e+000
 1.1204492722e+000	 1.0108624265e-001	 2.4617498403e+000
 1.1194754231e+000	 1.1135428614e-001	 2.4835280460e+000
 1.1184038130e+000	 1.2164666495e-001	 2.5027386870e+000
 1.1172336342e+000	 1.3196214072e-001	 2.5193551092e+000
 1.1159640970e+000	 1.4229945226e-001	 2.5333452573e+000
 1.1145944303e+000	 1.5265731578e-001	 2.5446715238e+000
 1.1131238818e+000	 1.6303442519e-001	 2.5532906079e+000
 1.1115517195e+000	 1.7342945231e-001	 2.5591533836e+000
 1.1098772317e+000	 1.8384104723e-001	 2.5622047801e+000
 1.1080997279e+000	 1.9426783861e-001	 2.5623836732e+000
 1.1062185395e+000	 2.0470843400e-001	 2.5596227889e+000
 1.1266739904e+000	 1.0164783288e-001	 2.4926791516e+000
 1.1256947310e+000	 1.1197292106e-001	 2.5127247082e+000
 1.1246171675e+000	 1.2232247975e-001	 2.5301230627e+000
 1.1234404877e+000	 1.3269526372e-001	 2.5448461979e+000
 1.1221638976e+000	 1.4309000477e-001	 2.5568606525e+000
 1.1207866215e+000	 1.5350541198e-001	 2.5661273707e+000
 1.1193079034e+000	 1.6394017199e-001	 2.5726015598e+000
 1.1177270068e+000	 1.7439294926e-001	 2.5762325601e+000
 1.1160432163e+000	 1.8486238638e-001	 2.5769637245e+000
 1.1142558375e+000	 1.9534710438e-001	 2.5747323106e+000
 1.1123641980e+000	 2.0584570308e-001	 2.5694693855e+000
 1.1328987085e+000	 1.0220942312e-001	 2.5272184378e+000
 1.1319140389e+000	 1.1259155598e-001	 2.5455029933e+000
 1.1308305220e+000	 1.2299829456e-001	 2.5610653098e+000
 1.1296473413e+000	 1.3342838672e-001	 2.5738760554e+000
 1.1283636981e+000	 1.4388055728e-001	 2.5839004083e+000
 1.1269788128e+000	 1.5435350818e-001	 2.5910979054e+000
 1.1254919249e+000	 1.6484591880e-001	 2.5954223005e+000
 1.1239022941e+000	 1.7535644622e-001	 2.5968214338e+000
 1.1222092009e+000	 1.8588372553e-001	 2.5952371118e+000
 1.1204119471e+000	 1.9642637014e-001	 2.5906050003e+000
 1.1185098566e+000	 2.0698297216e-001	 2.5828545291e+000
 1.1391234267e+000	 1.0277101336e-001	 2.5653158280e+000
 1.1381333468e+000	 1.1321019090e-001	 2.5818112218e+000
 1.1370438765e+000	 1.2367410936e-001	 2.5955139183e+000
 1.1358541948e+000	 1.3416150973e-001	 2.6063933194e+000
 1.1345634987e+000	 1.4467110979e-001	 2.6144132875e+000
 1.1331710041e+000	 1.5520160437e-001	 2.6195319935e+000
 1.1316759465e+000	 1.6575166560e-001	 2.6217017751e+000
 1.1300775815e+000	 1.7631994318e-001	 2.6208690060e+000
 1.1283751855e+000	 1.8690506468e-001	 2.6169739763e+000
 1.1265680567e+000	 1.9750563591e-001	 2.6099507853e+000
 1.1246555151e+000	 2.0812024123e-001	 2.5997272471e+000
 1.1453481449e+000	 1.0333260359e-001	 2.6069205442e+000
 1.1443526547e+000	 1.1382882582e-001	 2.6215988013e+000
 1.1432572311e+000	 1.2434992416e-001	 2.6334184607e+000
 1.1420610483e+000	 1.3489463273e-001	 2.6423477061e+000
 1.1407632992e+000	 1.4546166230e-001	 2.6483491284e+000
 1.1393631954e+000	 1.5604970057e-001	 2.6513795735e+000
 1.1378599681e+000	 1.6665741241e-001	 2.6513900003e+000
 1.1362528688e+000	 1.7728344013e-001	 2.6483253494e+000
 1.1345411702e+000	 1.8792640383e-001	 2.6421244236e+000
 1.1327241663e+000	 1.9858490168e-001	 2.6327197811e+000
 1.1308011737e+000	 2.0925751031e-001	 2.6200376417e+000
 1.1515728631e+000	 1.0389419383e-001	 2.6519828720e+000
 1.1505719627e+000	 1.1444746075e-001	 2.6648161975e+000
 1.1494705856e+000	 1.2502573897e-001	 2.6747295627e+000
 1.1482679018e+000	 1.3562775573e-001	 2.6816899807e+000
 1.1469630998e+000	 1.4625221481e-001	 2.6856588152e+000
 1.1455553867e+000	 1.5689779677e-001	 2.6865916278e+000
 1.1440439896e+000	 1.6756315921e-001	 2.6844380353e+000
 1.1424281561e+000	 1.7824693709e-001	 2.6791415782e+000
 1.1407071548e+000	 1.8894774298e-001	 2.6706396013e+000
 1.1388802759e+000	 1.9966416745e-001	 2.6588631468e+000
 1.1369468322e+000	 2.1039477938e-001	 2.6437368607e+000
 1.1577975813e+000	 1.0445578406e-001	 2.7004541318e+000
 1.1567912706e+000	 1.1506609567e-001	 2.7114149055e+000
 1.1556839401e+000	 1.2570155377e-001	 2.7193988747e+000
 1.1544747554e+000	 1.3636087873e-001	 2.7243719295e+000
 1.1531629003e+000	 1.4704276732e-001	 2.7262942503e+000
 1.1517475779e+000	 1.5774589297e-001	 2.7251201546e+000
 1.1502280112e+000	 1.6846890602e-001	 2.7207979537e+000
 1.1486034435e+000	 1.7921043404e-001	 2.7132698209e+000
 1.1468731394e+000	 1.8996908213e-001	 2.7024716716e+000
 1.1450363855e+000	 2.0074343321e-001	 2.6883330568e+000
 1.1430924908e+000	 2.1153204846e-001	 2.6707770694e+000
 1.1640222995e+000	 1.0501737430e-001	 2.7522866511e+000
 1.1630105785e+000	 1.1568473059e-001	 2.7613474223e+000
 1.1618972946e+000	 1.2637736858e-001	 2.7673790448e+000
 1.1606816089e+000	 1.3709400174e-001	 2.7703463326e+000
 1.1593627008e+000	 1.4783331983e-001	 2.7702083268e+000
 1.1579397692e+000	 1.5859398916e-001	 2.7669181408e+000
 1.1564120328e+000	 1.6937465282e-001	 2.7604228166e+000
 1.1547787308e+000	 1.8017393100e-001	 2.7506631927e+000
 1.1530391240e+000	 1.9099042127e-001	 2.7375737838e+000
 1.1511924951e+000	 2.0182269898e-001	 2.7210826740e+000
 1.1492381493e+000	 2.1266931753e-001	 2.7011114233e+000
 1.1702470176e+000	 1.0557896453e-001	 2.8074337380e+000
 1.1692298864e+000	 1.1630336551e-001	 2.8145672201e+000
 1.1681106491e+000	 1.2705318338e-001	 2.8186236916e+000
 1.1668884624e+000	 1.3782712474e-001	 2.8195669375e+000
 1.1655625014e+000	 1.4862387234e-001	 2.8173549024e+000
 1.1641319605e+000	 1.5944208536e-001	 2.8119395356e+000
 1.1625960543e+000	 1.7028039962e-001	 2.8032666460e+000
 1.1609540181e+000	 1.8113742795e-001	 2.7912757693e+000
 1.1592051086e+000	 1.9201176042e-001	 2.7759000479e+000
 1.1573486047e+000	 2.0290196475e-001	 2.7570661230e+000
 1.1553838079e+000	 2.1380658661e-001	 2.7346940420e+000
 1.1764717358e+000	 1.0614055477e-001	 2.8658496549e+000
 1.1754491943e+000	 1.1692200043e-001	 2.8710287207e+000
 1.1743240037e+000	 1.2772899818e-001	 2.8730873793e+000
 1.1730953159e+000	 1.3856024774e-001	 2.8719884330e+000
 1.1717623019e+000	 1.4941442485e-001	 2.8676887735e+000
 1.1703241518e+000	 1.6029018155e-001	 2.8601392252e+000
 1.1687800759e+000	 1.7118614643e-001	 2.8492843996e+000
 1.1671293055e+000	 1.8210092490e-001	 2.8350625619e+000
 1.1653710933e+000	 1.9303309957e-001	 2.8174055097e+000
 1.1635047143e+000	 2.0398123051e-001	 2.7962384654e+000
 1.1615294665e+000	 2.1494385568e-001	 2.7714799834e+000
 1.1826964540e+000	 1.0670214501e-001	 2.9274895937e+000
 1.1816685022e+000	 1.1754063535e-001	 2.9306872706e+000
 1.1805373582e+000	 1.2840481299e-001	 2.9307255923e+000
 1.1793021695e+000	 1.3929337074e-001	 2.9275664253e+000
 1.1779621025e+000	 1.5020497736e-001	 2.9211656509e+000
 1.1765163431e+000	 1.6113827775e-001	 2.9114730080e+000
 1.1749640975e+000	 1.7209189323e-001	 2.8984319464e+000
 1.1733045928e+000	 1.8306442186e-001	 2.8819794920e+000
 1.1715370779e+000	 1.9405443872e-001	 2.8620461255e+000
 1.1696608239e+000	 2.0506049628e-001	 2.8385556744e+000
 1.1676751250e+000	 2.1608112475e-001	 2.8114252192e+000
 1.1062185395e+000	 2.0470843400e-001	 2.5596227889e+000
 1.1042330204e+000	 2.1516142026e-001	 2.5811243660e+000
 1.1021425476e+000	 2.2562536389e-001	 2.6002415246e+000
 1.0999465220e+000	 2.3609881147e-001	 2.6168973719e+000
 1.0976443689e+000	 2.4658029007e-001	 2.6310080952e+000
 1.0952355387e+000	 2.5706830774e-001	 2.6424829169e+000
 1.0927195074e+000	 2.6756135393e-001	 2.6512240666e+000
 1.0900957776e+000	 2.7805790004e-001	 2.6571267699e+000
 1.0873638784e+000	 2.8855639991e-001	 2.6600792551e+000
 1.0845233669e+000	 2.9905529034e-001	 2.6599627785e+000
 1.0815738280e+000	 3.0955299171e-001	 2.6566516683e+000
 1.1123641980e+000	 2.0584570308e-001	 2.5694693855e+000
 1.1103676482e+000	 2.1635676149e-001	 2.5886346019e+000
 1.1082655617e+000	 2.2687883814e-001	 2.6054886784e+000
 1.1060573360e+000	 2.3741047153e-001	 2.6199555682e+000
 1.1037423932e+000	 2.4795018057e-001	 2.6319521596e+000
 1.1013201806e+000	 2.5849646500e-001	 2.6413882290e+000
 1.0987901714e+000	 2.6904780590e-001	 2.6481664094e+000
 1.0961518652e+000	 2.7960266616e-001	 2.6521821776e+000
 1.0934047889e+000	 2.9015949102e-001	 2.6533238586e+000
 1.0905484967e+000	 3.0071670863e-001	 2.6514726494e+000
 1.0875825715e+000	 3.1127273056e-001	 2.6465026614e+000
 1.1185098566e+000	 2.0698297216e-001	 2.5828545291e+000
 1.1165022761e+000	 2.1755210271e-001	 2.5997285299e+000
 1.1143885759e+000	 2.2813231238e-001	 2.6143678222e+000
 1.1121681500e+000	 2.3872213160e-001	 2.6266971883e+000
 1.1098404174e+000	 2.4932007107e-001	 2.6366341975e+000
 1.1074048224e+000	 2.5992462227e-001	 2.6440891554e+000
 1.1048608353e+000	 2.7053425786e-001	 2.6489650706e+000
 1.1022079529e+000	 2.8114743227e-001	 2.6511576389e+000
 1.0994456993e+000	 2.9176258213e-001	 2.6505552460e+000
 1.0965736265e+000	 3.0237812691e-001	 2.6470389893e+000
 1.0935913150e+000	 3.1299246940e-001	 2.6404827193e+000
 1.1246555151e+000	 2.0812024123e-001	 2.5997272471e+000
 1.1226369040e+000	 2.1874744393e-001	 2.6143547154e+000
 1.1205115900e+000	 2.2938578662e-001	 2.6268270631e+000
 1.1182789640e+000	 2.4003379166e-001	 2.6370698853e+000
 1.1159384417e+000	 2.5068996157e-001	 2.6450014119e+000
 1.1134894643e+000	 2.6135277953e-001	 2.6505324538e+000
 1.1109314992e+000	 2.7202070983e-001	 2.6535663668e+000
 1.1082640405e+000	 2.8269219838e-001	 2.6539990335e+000
 1.1054866097e+000	 2.9336567324e-001	 2.6517188644e+000
 1.1025987563e+000	 3.0403954519e-001	 2.6466068174e+000
 1.0996000584e+000	 3.1471220824e-001	 2.6385364375e+000
 1.1308011737e+000	 2.0925751031e-001	 2.6200376417e+000
 1.1287715319e+000	 2.1994278515e-001	 2.6324628106e+000
 1.1266346042e+000	 2.3063926086e-001	 2.6428156078e+000
 1.1243897780e+000	 2.4134545172e-001	 2.6510224248e+000
 1.1220364660e+000	 2.5205985207e-001	 2.6570021318e+000
 1.1195741062e+000	 2.6278093680e-001	 2.6606660207e+000
 1.1170021631e+000	 2.7350716179e-001	 2.6619177667e+000
 1.1143201282e+000	 2.8423696449e-001	 2.6606534074e+000
 1.1115275202e+000	 2.9496876435e-001	 2.6567613418e+000
 1.1086238862e+000	 3.0570096346e-001	 2.6501223479e+000
 1.1056088019e+000	 3.1643194709e-001	 2.6406096218e+000
 1.1369468322e+000	 2.1039477938e-001	 2.6437368607e+000
 1.1349061598e+000	 2.2113812637e-001	 2.6540035254e+000
 1.1327576183e+000	 2.3189273510e-001	 2.6622837326e+000
 1.1305005920e+000	 2.4265711178e-001	 2.6685046543e+000
 1.1281344903e+000	 2.5342974257e-001	 2.6725857806e+000
 1.1256587481e+000	 2.6420909406e-001	 2.6744388607e+000
 1.1230728271e+000	 2.7499361376e-001	 2.6739678608e+000
 1.1203762158e+000	 2.8578173060e-001	 2.6710689416e+000
 1.1175684306e+000	 2.9657185546e-001	 2.6656304545e+000
 1.1146490160e+000	 3.0736238174e-001	 2.6575329580e+000
 1.1116175454e+000	 3.1815168593e-001	 2.6466492547e+000
 1.1430924908e+000	 2.1153204846e-001	 2.6707770694e+000
 1.1410407877e+000	 2.2233346759e-001	 2.6789285985e+000
 1.1388806325e+000	 2.3314620934e-001	 2.6851827549e+000
 1.1366114061e+000	 2.4396877184e-001	 2.6894674745e+000
 1.1342325145e+000	 2.5479963306e-001	 2.6917028476e+000
 1.1317433900e+000	 2.6563725132e-001	 2.6918010563e+000
 1.1291434910e+000	 2.7648006572e-001	 2.6896663303e+000
 1.1264323035e+000	 2.8732649670e-001	 2.6851949212e+000
 1.1236093410e+000	 2.9817494657e-001	 2.6782750970e+000
 1.1206741458e+000	 3.0902380002e-001	 2.6687871564e+000
 1.1176262889e+000	 3.1987142477e-001	 2.6566034646e+000
 1.1492381493e+000	 2.1266931753e-001	 2.7011114233e+000
 1.1471754156e+000	 2.2352880881e-001	 2.7071907704e+000
 1.1450036467e+000	 2.3439968358e-001	 2.7114650051e+000
 1.1427222201e+000	 2.4528043190e-001	 2.7138628112e+000
 1.1403305388e+000	 2.5616952356e-001	 2.7143048589e+000
 1.1378280318e+000	 2.6706540858e-001	 2.7127037398e+000
 1.1352141549e+000	 2.7796651768e-001	 2.7089639187e+000
 1.1324883911e+000	 2.8887126281e-001	 2.7029817064e+000
 1.1296502515e+000	 2.9977803767e-001	 2.6946452516e+000
 1.1266992756e+000	 3.1068521829e-001	 2.6838345532e+000
 1.1236350324e+000	 3.2159116361e-001	 2.6704214947e+000
 1.1553838079e+000	 2.1380658661e-001	 2.7346940420e+000
 1.1533100435e+000	 2.2472415003e-001	 2.7387437565e+000
 1.1511266608e+000	 2.3565315782e-001	 2.7410837999e+000
 1.1488330341e+000	 2.4659209196e-001	 2.7416435876e+000
 1.1464285631e+000	 2.5753941405e-001	 2.7403443502e+000
 1.1439126737e+000	 2.6849356584e-001	 2.7370990645e+000
 1.1412848189e+000	 2.7945296964e-001	 2.7318124030e+000
 1.1385444788e+000	 2.9041602892e-001	 2.7243807036e+000
 1.1356911619e+000	 3.0138112878e-001	 2.7146919597e+000
 1.1327244054e+000	 3.1234663657e-001	 2.7026258304e+000
 1.1296437759e+000	 3.2331090244e-001	 2.6880536735e+000
 1.1615294665e+000	 2.1494385568e-001	 2.7714799834e+000
 1.1594446714e+000	 2.2591949125e-001	 2.7735422213e+000
 1.1572496750e+000	 2.3690663206e-001	 2.7739934158e+000
 1.1549438481e+000	 2.4790375202e-001	 2.7727636983e+000
 1.1525265873e+000	 2.5890930455e-001	 2.7697748399e+000
 1.1499973156e+000	 2.6992172310e-001	 2.7649401786e+000
 1.1473554828e+000	 2.8093942160e-001	 2.7581645668e+000
 1.1446005664e+000	 2.9196079502e-001	 2.7493443378e+000
 1.1417320723e+000	 3.0298421988e-001	 2.7383672937e+000
 1.1387495352e+000	 3.1400805484e-001	 2.7251127138e+000
 1.1356525194e+000	 3.2503064128e-001	 2.7094513862e+000
 1.1676751250e+000	 2.1608112475e-001	 2.8114252192e+000
 1.1655792993e+000	 2.2711483247e-001	 2.8115417533e+000
 1.1633726891e+000	 2.3816010630e-001	 2.8101490644e+000
 1.1610546621e+000	 2.4921541207e-001	 2.8071779839e+000
 1.1586246116e+000	 2.6027919504e-001	 2.8025508032e+000
 1.1560819575e+000	 2.7134988036e-001	 2.7961811983e+000
 1.1534261467e+000	 2.8242587356e-001	 2.7879741734e+000
 1.1506566541e+000	 2.9350556113e-001	 2.7778260257e+000
 1.1477729828e+000	 3.0458731099e-001	 2.7656243298e+000
 1.1447746651e+000	 3.1566947311e-001	 2.7512479455e+000
 1.1416612629e+000	 3.2675038012e-001	 2.7345670466e+000
 1.0815738280e+000	 3.0955299171e-001	 2.6566516683e+000
 1.0785148753e+000	 3.2004790850e-001	 2.6710844421e+000
 1.0753461519e+000	 3.3053842993e-001	 2.6845091038e+000
 1.0720673304e+000	 3.4102293057e-001	 2.6968036757e+000
 1.0686781139e+000	 3.5149977099e-001	 2.7078374371e+000
 1.0651782362e+000	 3.6196729843e-001	 2.7174710071e+000
 1.0615674627e+000	 3.7242384746e-001	 2.7255564509e+000
 1.0578455904e+000	 3.8286774073e-001	 2.7319374083e+000
 1.0540124487e+000	 3.9329728962e-001	 2.7364492459e+000
 1.0500678997e+000	 4.0371079507e-001	 2.7389192332e+000
 1.0460118387e+000	 4.1410654827e-001	 2.7391667420e+000
 1.0875825715e+000	 3.1127273056e-001	 2.6465026614e+000
 1.0845066246e+000	 3.2182595244e-001	 2.6593437369e+000
 1.0813202972e+000	 3.3237475454e-001	 2.6707528560e+000
 1.0780232600e+000	 3.4291750241e-001	 2.6806049811e+000
 1.0746152145e+000	 3.5345254750e-001	 2.6887665867e+000
 1.0710958931e+000	 3.6397822787e-001	 2.6950957509e+000
 1.0674650597e+000	 3.7449286884e-001	 2.6994422703e+000
 1.0637225104e+000	 3.8499478373e-001	 2.7016477982e+000
 1.0598680734e+000	 3.9548227457e-001	 2.7015460053e+000
 1.0559016102e+000	 4.0595363282e-001	 2.6989627649e+000
 1.0518230156e+000	 4.1640714020e-001	 2.6937163613e+000
 1.0935913150e+000	 3.1299246940e-001	 2.6404827193e+000
 1.0904983739e+000	 3.2360399638e-001	 2.6518246248e+000
 1.0872944425e+000	 3.3421107916e-001	 2.6613190669e+000
 1.0839791896e+000	 3.4481207425e-001	 2.6688379229e+000
 1.0805523151e+000	 3.5540532401e-001	 2.6742448299e+000
 1.0770135500e+000	 3.6598915731e-001	 2.6773952852e+000
 1.0733626567e+000	 3.7656189022e-001	 2.6781367704e+000
 1.0695994303e+000	 3.8712182674e-001	 2.6763088979e+000
 1.0657236981e+000	 3.9766725951e-001	 2.6717435818e+000
 1.0617353208e+000	 4.0819647057e-001	 2.6642652306e+000
 1.0576341925e+000	 4.1870773214e-001	 2.6536909652e+000
 1.0996000584e+000	 3.1471220824e-001	 2.6385364375e+000
 1.0964901232e+000	 3.2538204031e-001	 2.6484710024e+000
 1.0932685878e+000	 3.3604740377e-001	 2.6561508481e+000
 1.0899351192e+000	 3.4670664608e-001	 2.6614447410e+000
 1.0864894158e+000	 3.5735810051e-001	 2.6642134477e+000
 1.0829312068e+000	 3.6800008674e-001	 2.6643098446e+000
 1.0792602537e+000	 3.7863091159e-001	 2.6615790510e+000
 1.0754763502e+000	 3.8924886974e-001	 2.6558585845e+000
 1.0715793228e+000	 3.9985224445e-001	 2.6469785405e+000
 1.0675690314e+000	 4.1043930832e-001	 2.6347617944e+000
 1.0634453693e+000	 4.2100832407e-001	 2.6190242281e+000
 1.1056088019e+000	 3.1643194709e-001	 2.6406096218e+000
 1.1024818726e+000	 3.2716008425e-001	 2.6492279974e+000
 1.0992427330e+000	 3.3788372838e-001	 2.6551925656e+000
 1.0958910488e+000	 3.4860121792e-001	 2.6583689552e+000
 1.0924265164e+000	 3.5931087702e-001	 2.6586150287e+000
 1.0888488637e+000	 3.7001101618e-001	 2.6557810013e+000
 1.0851578508e+000	 3.8069993297e-001	 2.6497095821e+000
 1.0813532702e+000	 3.9137591275e-001	 2.6402361393e+000
 1.0774349476e+000	 4.0203722939e-001	 2.6271888879e+000
 1.0734027419e+000	 4.1268214607e-001	 2.6103891013e+000
 1.0692565462e+000	 4.2330891601e-001	 2.5896513459e+000
 1.1116175454e+000	 3.1815168593e-001	 2.6466492547e+000
 1.1084736219e+000	 3.2893812818e-001	 2.6540419353e+000
 1.1052168783e+000	 3.3972005299e-001	 2.6583898060e+000
 1.1018469784e+000	 3.5049578976e-001	 2.6595553307e+000
 1.0983636170e+000	 3.6126365352e-001	 2.6573934342e+000
 1.0947665205e+000	 3.7202194561e-001	 2.6517516291e+000
 1.0910554478e+000	 3.8276895434e-001	 2.6424701668e+000
 1.0872301901e+000	 3.9350295575e-001	 2.6293822107e+000
 1.0832905723e+000	 4.0422221433e-001	 2.6123140332e+000
 1.0792364525e+000	 4.1492498382e-001	 2.5910852364e+000
 1.0750677231e+000	 4.2560950794e-001	 2.5655089953e+000
 1.1176262889e+000	 3.1987142477e-001	 2.6566034646e+000
 1.1144653712e+000	 3.3071617212e-001	 2.6628603073e+000
 1.1111910236e+000	 3.4155637759e-001	 2.6656893433e+000
 1.1078029081e+000	 3.5239036159e-001	 2.6649498446e+000
 1.1043007176e+000	 3.6321643003e-001	 2.6604937635e+000
 1.1006841774e+000	 3.7403287505e-001	 2.6521658687e+000
 1.0969530448e+000	 3.8483797571e-001	 2.6398039053e+000
 1.0931071101e+000	 3.9562999875e-001	 2.6232387766e+000
 1.0891461970e+000	 4.0640719928e-001	 2.6022947501e+000
 1.0850701630e+000	 4.1716782157e-001	 2.5767896868e+000
 1.0808789000e+000	 4.2791009987e-001	 2.5465352937e+000
 1.1236350324e+000	 3.2159116361e-001	 2.6704214947e+000
 1.1204571205e+000	 3.3249421605e-001	 2.6756317386e+000
 1.1171651689e+000	 3.4339270220e-001	 2.6770391076e+000
 1.1137588377e+000	 3.5428493342e-001	 2.6744996534e+000
 1.1102378183e+000	 3.6516920653e-001	 2.6678623209e+000
 1.1066018343e+000	 3.7604380448e-001	 2.6569690934e+000
 1.1028506418e+000	 3.8690699709e-001	 2.6416551605e+000
 1.0989840300e+000	 3.9775704175e-001	 2.6217491096e+000
 1.0950018217e+000	 4.0859218421e-001	 2.5970731406e+000
 1.0909038736e+000	 4.1941065932e-001	 2.5674433036e+000
 1.0866900769e+000	 4.3021069180e-001	 2.5326697607e+000
 1.1296437759e+000	 3.2331090244e-001	 2.6880536735e+000
 1.1264488698e+000	 3.3427225998e-001	 2.6923059589e+000
 1.1231393142e+000	 3.4522902681e-001	 2.6923881540e+000
 1.1197147673e+000	 3.5617950526e-001	 2.6881530617e+000
 1.1161749189e+000	 3.6712198303e-001	 2.6794465841e+000
 1.1125194912e+000	 3.7805473391e-001	 2.6661078764e+000
 1.1087482388e+000	 3.8897601846e-001	 2.6479695241e+000
 1.1048609500e+000	 3.9988408475e-001	 2.6248577423e+000
 1.1008574464e+000	 4.1077716915e-001	 2.5965925999e+000
 1.0967375841e+000	 4.2165349707e-001	 2.5629882661e+000
 1.0925012537e+000	 4.3251128374e-001	 2.5238532810e+000
 1.1356525194e+000	 3.2503064128e-001	 2.7094513862e+000
 1.1324406191e+000	 3.3605030391e-001	 2.7128337730e+000
 1.1291134595e+000	 3.4706535141e-001	 2.7116866333e+000
 1.1256706969e+000	 3.5807407709e-001	 2.7058594918e+000
 1.1221120195e+000	 3.6907475953e-001	 2.6951951724e+000
 1.1184371480e+000	 3.8006566334e-001	 2.6795299595e+000
 1.1146458358e+000	 3.9104503983e-001	 2.6586937843e+000
 1.1107378699e+000	 4.0201112775e-001	 2.6325104336e+000
 1.1067130711e+000	 4.1296215409e-001	 2.6007977817e+000
 1.1025712947e+000	 4.2389633481e-001	 2.5633680463e+000
 1.0983124306e+000	 4.3481187567e-001	 2.5200280680e+000
 1.1416612629e+000	 3.2675038012e-001	 2.7345670466e+000
 1.1384323684e+000	 3.3782834784e-001	 2.7371670322e+000
 1.1350876048e+000	 3.4890167602e-001	 2.7348857623e+000
 1.1316266265e+000	 3.5996864892e-001	 2.7275694545e+000
 1.1280491202e+000	 3.7102753603e-001	 2.7150578173e+000
 1.1243548049e+000	 3.8207659277e-001	 2.6971842216e+000
 1.1205434328e+000	 3.9311406120e-001	 2.6737758945e+000
 1.1166147899e+000	 4.0413817075e-001	 2.6446541370e+000
 1.1125686958e+000	 4.1514713903e-001	 2.6096345653e+000
 1.1084050052e+000	 4.2613917256e-001	 2.5685273749e+000
 1.1041236075e+000	 4.3711246760e-001	 2.5211376293e+000
 1.0460118387e+000	 4.1410654827e-001	 2.7391667420e+000
 1.0418441946e+000	 4.2448283146e-001	 2.7428310392e+000
 1.0375649302e+000	 4.3483791872e-001	 2.7462566943e+000
 1.0331740428e+000	 4.4517007681e-001	 2.7492498434e+000
 1.0286715642e+000	 4.5547756593e-001	 2.7516073847e+000
 1.0240575612e+000	 4.6575864062e-001	 2.7531172556e+000
 1.0193321361e+000	 4.7601155059e-001	 2.7535587358e+000
 1.0144954266e+000	 4.8623454157e-001	 2.7527027752e+000
 1.0095476062e+000	 4.9642585624e-001	 2.7503123473e+000
 1.0044888846e+000	 5.0658373506e-001	 2.7461428270e+000
 9.9931950768e-001	 5.1670641720e-001	 2.7399423924e+000
 1.0518230156e+000	 4.1640714020e-001	 2.6937163613e+000
 1.0476322179e+000	 4.2684106941e-001	 2.6918574841e+000
 1.0433291798e+000	 4.3725368494e-001	 2.6902806039e+000
 1.0389138986e+000	 4.4764324390e-001	 2.6887916134e+000
 1.0343864062e+000	 4.5800799685e-001	 2.6871865992e+000
 1.0297467699e+000	 4.6834618862e-001	 2.6852521167e+000
 1.0249950924e+000	 4.7865605920e-001	 2.6827654906e+000
 1.0201315123e+000	 4.8893584458e-001	 2.6794951422e+000
 1.0151562040e+000	 4.9918377766e-001	 2.6752009426e+000
 1.0100693784e+000	 5.0939808914e-001	 2.6696345911e+000
 1.0048712827e+000	 5.1957700841e-001	 2.6625400190e+000
 1.0576341925e+000	 4.1870773214e-001	 2.6536909652e+000
 1.0534202412e+000	 4.2919930736e-001	 2.6463898960e+000
 1.0490934295e+000	 4.3966945115e-001	 2.6398884494e+000
 1.0446537544e+000	 4.5011641099e-001	 2.6339921604e+000
 1.0401012482e+000	 4.6053842777e-001	 2.6284961891e+000
 1.0354359786e+000	 4.7093373662e-001	 2.6231855932e+000
 1.0306580487e+000	 4.8130056781e-001	 2.6178356266e+000
 1.0257675980e+000	 4.9163714759e-001	 2.6122120659e+000
 1.0207648019e+000	 5.0194169908e-001	 2.6060715637e+000
 1.0156498722e+000	 5.1221244322e-001	 2.5991620280e+000
 1.0104230578e+000	 5.2244759961e-001	 2.5912230272e+000
 1.0634453693e+000	 4.2100832407e-001	 2.6190242281e+000
 1.0592082645e+000	 4.3155754531e-001	 2.6063618927e+000
 1.0548576791e+000	 4.4208521737e-001	 2.5950138794e+000
 1.0503936102e+000	 4.5258957808e-001	 2.5847852509e+000
 1.0458160902e+000	 4.6306885869e-001	 2.5754701261e+000
 1.0411251872e+000	 4.7352128463e-001	 2.5668519491e+000
 1.0363210050e+000	 4.8394507642e-001	 2.5587037874e+000
 1.0314036837e+000	 4.9433845059e-001	 2.5507886568e+000
 1.0263733997e+000	 5.0469962050e-001	 2.5428598752e+000
 1.0212303660e+000	 5.1502679730e-001	 2.5346614428e+000
 1.0159748328e+000	 5.2531819082e-001	 2.5259284495e+000
 1.0692565462e+000	 4.2330891601e-001	 2.5896513459e+000
 1.0649962878e+000	 4.3391578326e-001	 2.5717086244e+000
 1.0606219287e+000	 4.4450098358e-001	 2.5555920835e+000
 1.0561334660e+000	 4.5506274518e-001	 2.5411061995e+000
 1.0515309323e+000	 4.6559928961e-001	 2.5280439351e+000
 1.0468143959e+000	 4.7610883263e-001	 2.5161870058e+000
 1.0419839613e+000	 4.8658958504e-001	 2.5053061764e+000
 1.0370397694e+000	 4.9703975360e-001	 2.4951615857e+000
 1.0319819975e+000	 5.0745754192e-001	 2.4855031006e+000
 1.0268108598e+000	 5.1784115138e-001	 2.4760706971e+000
 1.0215266078e+000	 5.2818878202e-001	 2.4665948703e+000
 1.0750677231e+000	 4.2560950794e-001	 2.5655089953e+000
 1.0707843111e+000	 4.3627402121e-001	 2.5423667319e+000
 1.0663861783e+000	 4.4691674979e-001	 2.5215597505e+000
 1.0618733218e+000	 4.5753591227e-001	 2.5028918270e+000
 1.0572457743e+000	 4.6812972053e-001	 2.4861546531e+000
 1.0525036046e+000	 4.7869638063e-001	 2.4711281000e+000
 1.0476469177e+000	 4.8923409365e-001	 2.4575805142e+000
 1.0426758551e+000	 4.9974105661e-001	 2.4452690413e+000
 1.0375905953e+000	 5.1021546334e-001	 2.4339399802e+000
 1.0323913537e+000	 5.2065550546e-001	 2.4233291665e+000
 1.0270783829e+000	 5.3105937322e-001	 2.4131623838e+000
 1.0808789000e+000	 4.2791009987e-001	 2.5465352937e+000
 1.0765723344e+000	 4.3863225916e-001	 2.5182743067e+000
 1.0721504279e+000	 4.4933251601e-001	 2.4928550281e+000
 1.0676131775e+000	 4.6000907936e-001	 2.4700804199e+000
 1.0629606163e+000	 4.7066015145e-001	 2.4497407876e+000
 1.0581928132e+000	 4.8128392863e-001	 2.4316140432e+000
 1.0533098740e+000	 4.9187860226e-001	 2.4154659985e+000
 1.0483119408e+000	 5.0244235961e-001	 2.4010506894e+000
 1.0431991931e+000	 5.1297338477e-001	 2.3881107306e+000
 1.0379718475e+000	 5.2346985954e-001	 2.3763777000e+000
 1.0326301579e+000	 5.3392996443e-001	 2.3655725531e+000
 1.0866900769e+000	 4.3021069180e-001	 2.5326697607e+000
 1.0823603577e+000	 4.4099049711e-001	 2.4993708521e+000
 1.0779146775e+000	 4.5174828222e-001	 2.4694174842e+000
 1.0733530333e+000	 4.6248224645e-001	 2.4426116911e+000
 1.0686754583e+000	 4.7319058237e-001	 2.4187422780e+000
 1.0638820219e+000	 4.8387147663e-001	 2.3975850818e+000
 1.0589728303e+000	 4.9452311087e-001	 2.3789032638e+000
 1.0539480265e+000	 5.0514366262e-001	 2.3624476337e+000
 1.0488077909e+000	 5.1573130619e-001	 2.3479570049e+000
 1.0435523413e+000	 5.2628421362e-001	 2.3351585807e+000
 1.0381819330e+000	 5.3680055563e-001	 2.3237683715e+000
 1.0925012537e+000	 4.3251128374e-001	 2.5238532810e+000
 1.0881483810e+000	 4.4334873506e-001	 2.4855972456e+000
 1.0836789271e+000	 4.5416404843e-001	 2.4511880685e+000
 1.0790928891e+000	 4.6495541354e-001	 2.4204267423e+000
 1.0743903003e+000	 4.7572101329e-001	 2.3931004570e+000
 1.0695712306e+000	 4.8645902463e-001	 2.3689828593e+000
 1.0646357866e+000	 4.9716761948e-001	 2.3478343438e+000
 1.0595841122e+000	 5.0784496562e-001	 2.3294023772e+000
 1.0544163887e+000	 5.1848922761e-001	 2.3134218547e+000
 1.0491328351e+000	 5.2909856770e-001	 2.2996154877e+000
 1.0437337080e+000	 5.3967114683e-001	 2.2876942239e+000
 1.0983124306e+000	 4.3481187567e-001	 2.5200280680e+000
 1.0939364043e+000	 4.4570697301e-001	 2.4768957027e+000
 1.0894431767e+000	 4.5657981464e-001	 2.4381090765e+000
 1.0848327449e+000	 4.6742858063e-001	 2.4034680268e+000
 1.0801051424e+000	 4.7825144421e-001	 2.3727580142e+000
 1.0752604393e+000	 4.8904657263e-001	 2.3457503793e+000
 1.0702987429e+000	 4.9981212810e-001	 2.3222026340e+000
 1.0652201979e+000	 5.1054626863e-001	 2.3018587854e+000
 1.0600249865e+000	 5.2124714903e-001	 2.2844496930e+000
 1.0547133289e+000	 5.3191292178e-001	 2.2696934588e+000
 1.0492854831e+000	 5.4254173804e-001	 2.2572958502e+000
 1.1041236075e+000	 4.3711246760e-001	 2.5211376293e+000
 1.0997244276e+000	 4.4806521096e-001	 2.4732097418e+000
 1.0952074263e+000	 4.5899558085e-001	 2.4301241139e+000
 1.0905726007e+000	 4.6990174772e-001	 2.3916793145e+000
 1.0858199844e+000	 4.8078187512e-001	 2.3576589599e+000
 1.0809496479e+000	 4.9163412063e-001	 2.3278319696e+000
 1.0759616992e+000	 5.0245663671e-001	 2.3019528563e+000
 1.0708562836e+000	 5.1324757164e-001	 2.2797620504e+000
 1.0656335844e+000	 5.2400507045e-001	 2.2609862584e+000
 1.0602938227e+000	 5.3472727586e-001	 2.2453388553e+000
 1.0548372581e+000	 5.4541232924e-001	 2.2325203098e+000
 9.9931950768e-001	 5.1670641720e-001	 2.7399423924e+000
 9.9403975759e-001	 5.2679214149e-001	 2.7510071355e+000
 9.8864995320e-001	 5.3683914727e-001	 2.7526812782e+000
 9.8315045000e-001	 5.4684567537e-001	 2.7446274033e+000
 9.7754164023e-001	 5.5680996904e-001	 2.7265081987e+000
 9.7182395297e-001	 5.6673027487e-001	 2.6979870840e+000
 9.6599785411e-001	 5.7660484378e-001	 2.6587288500e+000
 9.6006384644e-001	 5.8643193193e-001	 2.6084003104e+000
 9.5402246953e-001	 5.9620980171e-001	 2.5466709644e+000
 9.4787429975e-001	 6.0593672269e-001	 2.4732136682e+000
 9.4161995013e-001	 6.1561097257e-001	 2.3877053143e+000
 1.0048712827e+000	 5.1957700841e-001	 2.6625400190e+000
 9.9956220068e-001	 5.2971876450e-001	 2.6717230785e+000
 9.9414245294e-001	 5.3982158698e-001	 2.6705959084e+000
 9.8861239694e-001	 5.4988370690e-001	 2.6588020204e+000
 9.8297242712e-001	 5.5990335775e-001	 2.6359857276e+000
 9.7722297492e-001	 5.6987877640e-001	 2.6017928026e+000
 9.7136450885e-001	 5.7980820402e-001	 2.5558711477e+000
 9.6539753447e-001	 5.8968988710e-001	 2.4978714769e+000
 9.5932259435e-001	 5.9952207839e-001	 2.4274480079e+000
 9.5314026807e-001	 6.0930303781e-001	 2.3442591629e+000
 9.4685117207e-001	 6.1903103352e-001	 2.2479682758e+000
 1.0104230578e+000	 5.2244759961e-001	 2.5912230272e+000
 1.0050846438e+000	 5.3264538750e-001	 2.5984297260e+000
 9.9963495268e-001	 5.4280402668e-001	 2.5944176484e+000
 9.9407434388e-001	 5.5292173843e-001	 2.5788112477e+000
 9.8840321401e-001	 5.6299674647e-001	 2.5512364675e+000
 9.8262199688e-001	 5.7302727792e-001	 2.5113214305e+000
 9.7673116359e-001	 5.8301156426e-001	 2.4586971398e+000
 9.7073122250e-001	 5.9294784228e-001	 2.3929981911e+000
 9.6462271918e-001	 6.0283435506e-001	 2.3138634945e+000
 9.5840623640e-001	 6.1266935294e-001	 2.2209370038e+000
 9.5208239401e-001	 6.2245109448e-001	 2.1138684520e+000
 1.0159748328e+000	 5.2531819082e-001	 2.5259284495e+000
 1.0106070869e+000	 5.3557201051e-001	 2.5310672248e+000
 1.0051274524e+000	 5.4578646638e-001	 2.5240895950e+000
 9.9953629083e-001	 5.5595976995e-001	 2.5046009656e+000
 9.9383400090e-001	 5.6609013518e-001	 2.4722089132e+000
 9.8802101884e-001	 5.7617577944e-001	 2.4265239053e+000
 9.8209781834e-001	 5.8621492450e-001	 2.3671600331e+000
 9.7606491053e-001	 5.9620579745e-001	 2.2937357532e+000
 9.6992284401e-001	 6.0614663173e-001	 2.2058746395e+000
 9.6367220473e-001	 6.1603566806e-001	 2.1032061410e+000
 9.5731361595e-001	 6.2587115543e-001	 2.0020694921e+000
 1.0215266078e+000	 5.2818878202e-001	 2.4665948703e+000
 1.0161295300e+000	 5.3849863351e-001	 2.4695772174e+000
 1.0106199522e+000	 5.4876890609e-001	 2.4595562883e+000
 1.0049982378e+000	 5.5899780148e-001	 2.4361184488e+000
 9.9926478779e-001	 5.6918352389e-001	 2.3988529086e+000
 9.9342004080e-001	 5.7932428097e-001	 2.3473524729e+000
 9.8746447308e-001	 5.8941828474e-001	 2.2812143053e+000
 9.8139859857e-001	 5.9946375263e-001	 2.2000407008e+000
 9.7522296884e-001	 6.0945890840e-001	 2.1034398661e+000
 9.6893817306e-001	 6.1940198318e-001	 1.9910267077e+000
 9.6254483790e-001	 6.2929121639e-001	 1.9432593765e+000
 1.0270783829e+000	 5.3105937322e-001	 2.4131623838e+000
 1.0216519731e+000	 5.4142525652e-001	 2.4139028012e+000
 1.0161124519e+000	 5.5175134579e-001	 2.4007636722e+000
 1.0104601847e+000	 5.6203583301e-001	 2.3733123284e+000
 1.0046955747e+000	 5.7227691261e-001	 2.3311196107e+000
 9.9881906276e-001	 5.8247278249e-001	 2.2737606519e+000
 9.9283112783e-001	 5.9262164498e-001	 2.2008156710e+000
 9.8673228660e-001	 6.0272170780e-001	 2.1118707758e+000
 9.8052309367e-001	 6.1277118508e-001	 2.0065187738e+000
 9.7420414139e-001	 6.2276829831e-001	 1.8843599884e+000
 9.6777605984e-001	 6.3271127735e-001	 1.8876483249e+000
 1.0326301579e+000	 5.3392996443e-001	 2.3655725531e+000
 1.0271744162e+000	 5.4435187952e-001	 2.3639884893e+000
 1.0216049516e+000	 5.5473378550e-001	 2.3476590567e+000
 1.0159221317e+000	 5.6507386453e-001	 2.3161325557e+000
 1.0101263616e+000	 5.7537030132e-001	 2.2689614538e+000
 1.0042180847e+000	 5.8562128402e-001	 2.2057031996e+000
 9.9819778257e-001	 5.9582500522e-001	 2.1259210477e+000
 9.9206597464e-001	 6.0597966298e-001	 2.0291848920e+000
 9.8582321850e-001	 6.1608346175e-001	 1.9150721057e+000
 9.7947010973e-001	 6.2613461343e-001	 1.8036345562e+000
 9.7300728179e-001	 6.3613133830e-001	 1.8351677591e+000
 1.0381819330e+000	 5.3680055563e-001	 2.3237683715e+000
 1.0326968593e+000	 5.4727850253e-001	 2.3197801731e+000
 1.0270974514e+000	 5.5771622520e-001	 2.3001910814e+000
 1.0213840786e+000	 5.6811189606e-001	 2.2645303665e+000
 1.0155571485e+000	 5.7846369004e-001	 2.2123321156e+000
 1.0096171067e+000	 5.8876978554e-001	 2.1431360789e+000
 1.0035644373e+000	 5.9902836546e-001	 2.0564885248e+000
 9.9739966268e-001	 6.0923761815e-001	 1.9519431038e+000
 9.9112334334e-001	 6.1939573843e-001	 1.8290617188e+000
 9.8473607806e-001	 6.2950092855e-001	 1.7670611835e+000
 9.7823850373e-001	 6.3955139926e-001	 1.7857501713e+000
 1.0437337080e+000	 5.3967114683e-001	 2.2876942239e+000
 1.0382193024e+000	 5.5020512553e-001	 2.2812250853e+000
 1.0325899511e+000	 5.6069866490e-001	 2.2583096805e+000
 1.0268460256e+000	 5.7114992759e-001	 2.2184582474e+000
 1.0209879354e+000	 5.8155707875e-001	 2.1611864842e+000
 1.0150161287e+000	 5.9191828706e-001	 2.0860164259e+000
 1.0089310921e+000	 6.0223172570e-001	 1.9924773311e+000
 1.0027333507e+000	 6.1249557333e-001	 1.8801065759e+000
 9.9642346817e-001	 6.2270801510e-001	 1.7484505538e+000
 9.9000204640e-001	 6.3286724368e-001	 1.7335597922e+000
 9.8346972568e-001	 6.4297146022e-001	 1.7393290958e+000
 1.0492854831e+000	 5.4254173804e-001	 2.2572958502e+000
 1.0437417455e+000	 5.5313174854e-001	 2.2482717646e+000
 1.0380824509e+000	 5.6368110461e-001	 2.2219660480e+000
 1.0323079725e+000	 5.7418795911e-001	 2.1778699025e+000
 1.0264187222e+000	 5.8465046746e-001	 2.1154806258e+000
 1.0204151506e+000	 5.9506678859e-001	 2.0343025193e+000
 1.0142977468e+000	 6.0543508594e-001	 1.9338478058e+000
 1.0080670388e+000	 6.1575352850e-001	 1.8136375536e+000
 1.0017235930e+000	 6.2602029177e-001	 1.6904587343e+000
 9.9526801473e-001	 6.3623355880e-001	 1.7030643960e+000
 9.8870094763e-001	 6.4639152118e-001	 1.6958390814e+000
 1.0548372581e+000	 5.4541232924e-001	 2.2325203098e+000
 1.0492641886e+000	 5.5605837155e-001	 2.2208700211e+000
 1.0435749506e+000	 5.6666354431e-001	 2.1911126049e+000
 1.0377699195e+000	 5.7722599064e-001	 2.1427202213e+000
 1.0318495091e+000	 5.8774385618e-001	 2.0751717539e+000
 1.0258141726e+000	 5.9821529011e-001	 1.9879537501e+000
 1.0196644016e+000	 6.0863844618e-001	 1.8805613685e+000
 1.0134007268e+000	 6.1901148368e-001	 1.7524993349e+000
 1.0070237178e+000	 6.2933256845e-001	 1.6750487477e+000
 1.0005339831e+000	 6.3959987393e-001	 1.6755100144e+000
 9.9393216958e-001	 6.4981158214e-001	 1.6552156644e+000
 9.4161995013e-001	 6.1561097257e-001	 2.3877053143e+000
 9.3526007028e-001	 6.2523083815e-001	 2.2681656491e+000
 9.2879534622e-001	 6.3479461629e-001	 2.3190874372e+000
 9.2222650022e-001	 6.4430061488e-001	 2.3513210105e+000
 9.1555429057e-001	 6.5374715377e-001	 2.3650414775e+000
 9.0877951139e-001	 6.6313256573e-001	 2.3604398471e+000
 9.0190299230e-001	 6.7245519741e-001	 2.3377227588e+000
 8.9492559819e-001	 6.8171341027e-001	 2.2971121946e+000
 8.8784822885e-001	 6.9090558152e-001	 2.2388451707e+000
 8.8067181863e-001	 7.0003010501e-001	 2.1631734112e+000
 8.7339733604e-001	 7.0908539221e-001	 2.0703630042e+000
 9.4685117207e-001	 6.1903103352e-001	 2.2479682758e+000
 9.4045595955e-001	 6.2870434280e-001	 2.1869967345e+000
 9.3395532036e-001	 6.3832125305e-001	 2.2272344616e+000
 9.2734998077e-001	 6.4788006274e-001	 2.2504526465e+000
 9.2064070329e-001	 6.5737908239e-001	 2.2568386547e+000
 9.1382828644e-001	 6.6681663553e-001	 2.2465942366e+000
 9.0691356448e-001	 6.7619105961e-001	 2.2199352365e+000
 8.9989740707e-001	 6.8550070699e-001	 2.1770912836e+000
 8.9278071901e-001	 6.9474394585e-001	 2.1183054660e+000
 8.8556443984e-001	 7.0391916115e-001	 2.0438339881e+000
 8.7824954346e-001	 7.1302475550e-001	 1.9539458125e+000
 9.5208239401e-001	 6.2245109448e-001	 2.1138684520e+000
 9.4565184883e-001	 6.3217784745e-001	 2.1093036630e+000
 9.3911529450e-001	 6.4184788980e-001	 2.1389040796e+000
 9.3247346132e-001	 6.5145951059e-001	 2.1531360167e+000
 9.2572711601e-001	 6.6101101102e-001	 2.1521990690e+000
 9.1887706150e-001	 6.7050070534e-001	 2.1363057116e+000
 9.1192413665e-001	 6.7992692181e-001	 2.1056809874e+000
 9.0486921594e-001	 6.8928800371e-001	 2.0605621775e+000
 8.9771320917e-001	 6.9858231019e-001	 2.0011984569e+000
 8.9045706105e-001	 7.0780821728e-001	 1.9278505364e+000
 8.8310175088e-001	 7.1696411878e-001	 1.8407902894e+000
 9.5731361595e-001	 6.2587115543e-001	 2.0020694921e+000
 9.5084773811e-001	 6.3565135211e-001	 2.0350127799e+000
 9.4427526864e-001	 6.4537452655e-001	 2.0540212528e+000
 9.3759694187e-001	 6.5503895845e-001	 2.0592950012e+000
 9.3081352873e-001	 6.6464293965e-001	 2.0510458230e+000
 9.2392583656e-001	 6.7418477514e-001	 2.0294969027e+000
 9.1693470883e-001	 6.8366278402e-001	 1.9948824767e+000
 9.0984102482e-001	 6.9307530043e-001	 1.9474474833e+000
 9.0264569932e-001	 7.0242067453e-001	 1.8874472009e+000
 8.9534968226e-001	 7.1169727342e-001	 1.8151468726e+000
 8.8795395830e-001	 7.2090348207e-001	 1.7308213202e+000
 9.6254483790e-001	 6.2929121639e-001	 1.9432593765e+000
 9.5604362738e-001	 6.3912485676e-001	 1.9640516220e+000
 9.4943524279e-001	 6.4890116331e-001	 1.9725121572e+000
 9.4272042243e-001	 6.5861840631e-001	 1.9688547114e+000
 9.3589994146e-001	 6.6827486828e-001	 1.9533032610e+000
 9.2897461163e-001	 6.7786884495e-001	 1.9260916861e+000
 9.2194528101e-001	 6.8739864622e-001	 1.8874634124e+000
 9.1481283370e-001	 6.9686259715e-001	 1.8376710422e+000
 9.0757818948e-001	 7.0625903887e-001	 1.7769759737e+000
 9.0024230347e-001	 7.1558632955e-001	 1.7056480098e+000
 8.9280616572e-001	 7.2484284536e-001	 1.6239649578e+000
 9.6777605984e-001	 6.3271127735e-001	 1.8876483249e+000
 9.6123951666e-001	 6.4259836142e-001	 1.8963488849e+000
 9.5459521693e-001	 6.5242780006e-001	 1.8943041506e+000
 9.4784390299e-001	 6.6219785417e-001	 1.8817414567e+000
 9.4098635418e-001	 6.7190679691e-001	 1.8588969356e+000
 9.3402338669e-001	 6.8155291476e-001	 1.8260151499e+000
 9.2695585319e-001	 6.9113450843e-001	 1.7833487121e+000
 9.1978464258e-001	 7.0064989387e-001	 1.7311578960e+000
 9.1251067964e-001	 7.1009740321e-001	 1.6697102369e+000
 9.0513492469e-001	 7.1947538569e-001	 1.5992801253e+000
 8.9765837314e-001	 7.2878220865e-001	 1.5201483917e+000
 9.7300728179e-001	 6.3613133830e-001	 1.8351677591e+000
 9.6643540594e-001	 6.4607186607e-001	 1.8318343926e+000
 9.5975519108e-001	 6.5595443682e-001	 1.8193257407e+000
 9.5296738354e-001	 6.6577730203e-001	 1.7978827125e+000
 9.4607276691e-001	 6.7553872554e-001	 1.7677535751e+000
 9.3907216175e-001	 6.8523698457e-001	 1.7291935619e+000
 9.3196642536e-001	 6.9487037064e-001	 1.6824644707e+000
 9.2475645145e-001	 7.0443719060e-001	 1.6278342549e+000
 9.1744316980e-001	 7.1393576755e-001	 1.5655766057e+000
 9.1002754590e-001	 7.2336444183e-001	 1.4959705290e+000
 9.0251058056e-001	 7.3272157194e-001	 1.4192999167e+000
 9.7823850373e-001	 6.3955139926e-001	 1.7857501713e+000
 9.7163129522e-001	 6.4954537073e-001	 1.7704390663e+000
 9.6491516523e-001	 6.5948107358e-001	 1.7475065543e+000
 9.5809086410e-001	 6.6935674989e-001	 1.7172070890e+000
 9.5115917963e-001	 6.7917065417e-001	 1.6798010521e+000
 9.4412093682e-001	 6.8892105438e-001	 1.6355543375e+000
 9.3697699754e-001	 6.9860623285e-001	 1.5847379283e+000
 9.2972826033e-001	 7.0822448732e-001	 1.5276274665e+000
 9.2237565996e-001	 7.1777413189e-001	 1.4645028180e+000
 9.1492016712e-001	 7.2725349797e-001	 1.3956476334e+000
 9.0736278799e-001	 7.3666093523e-001	 1.3213489043e+000
 9.8346972568e-001	 6.4297146022e-001	 1.7393290958e+000
 9.7682718450e-001	 6.5301887538e-001	 1.7120948963e+000
 9.7007513937e-001	 6.6300771033e-001	 1.6787773078e+000
 9.6321434466e-001	 6.7293619775e-001	 1.6396443007e+000
 9.5624559236e-001	 6.8280258281e-001	 1.5949683528e+000
 9.4916971188e-001	 6.9260512419e-001	 1.5450260099e+000
 9.4198756973e-001	 7.0234209505e-001	 1.4900974403e+000
 9.3470006921e-001	 7.1201178405e-001	 1.4304659852e+000
 9.2730815012e-001	 7.2161249624e-001	 1.3664177051e+000
 9.1981278833e-001	 7.3114255411e-001	 1.2982409242e+000
 9.1221499541e-001	 7.4060029852e-001	 1.2262257731e+000
 9.8870094763e-001	 6.4639152118e-001	 1.6958390814e+000
 9.8202307379e-001	 6.5649238004e-001	 1.6567349129e+000
 9.7523511352e-001	 6.6653434709e-001	 1.6130697781e+000
 9.6833782522e-001	 6.7651564561e-001	 1.5651251376e+000
 9.6133200509e-001	 6.8643451144e-001	 1.5131855482e+000
 9.5421848695e-001	 6.9628919400e-001	 1.4575381997e+000
 9.4699814191e-001	 7.0607795726e-001	 1.3984724476e+000
 9.3967187809e-001	 7.1579908077e-001	 1.3362793431e+000
 9.3224064029e-001	 7.2545086058e-001	 1.2712511620e+000
 9.2470540955e-001	 7.3503161025e-001	 1.2036809321e+000
 9.1706720283e-001	 7.4453966181e-001	 1.1338619619e+000
 9.9393216958e-001	 6.4981158214e-001	 1.6552156644e+000
 9.8721896307e-001	 6.5996588470e-001	 1.6042931594e+000
 9.8039508767e-001	 6.7006098385e-001	 1.5503167748e+000
 9.7346130578e-001	 6.8009509347e-001	 1.4935814366e+000
 9.6641841782e-001	 6.9006644007e-001	 1.4343837649e+000
 9.5926726201e-001	 6.9997326381e-001	 1.3730215868e+000
 9.5200871409e-001	 7.0981381948e-001	 1.3097934480e+000
 9.4464368698e-001	 7.1958637750e-001	 1.2449981217e+000
 9.3717313045e-001	 7.2928922493e-001	 1.1789341200e+000
 9.2959803077e-001	 7.3892066640e-001	 1.1118992048e+000
 9.2191941026e-001	 7.4847902511e-001	 1.0441899024e+000
 8.7339733604e-001	 7.0908539221e-001	 2.0703630042e+000
 8.6602578337e-001	 7.1806987305e-001	 1.9793809029e+000
 8.5855819624e-001	 7.2698199683e-001	 1.8904541570e+000
 8.5099564308e-001	 7.3582023314e-001	 1.8038557052e+000
 8.4333922472e-001	 7.4458307267e-001	 1.7198536158e+000
 8.3559007377e-001	 7.5326902808e-001	 1.6387106683e+000
 8.2774935416e-001	 7.6187663485e-001	 1.5606839472e+000
 8.1981826049e-001	 7.7040445210e-001	 1.4860244468e+000
 8.1179801747e-001	 7.7885106335e-001	 1.4149766890e+000
 8.0368987926e-001	 7.8721507736e-001	 1.3477783543e+000
 7.9549512885e-001	 7.9549512885e-001	 1.2846599274e+000
 8.7824954346e-001	 7.1302475550e-001	 1.9539458125e+000
 8.7083703772e-001	 7.2205915012e-001	 1.8658721969e+000
 8.6332796399e-001	 7.3102078570e-001	 1.7794159540e+000
 8.5572339665e-001	 7.3990812332e-001	 1.6948433890e+000
 8.4802444263e-001	 7.4871964529e-001	 1.6124163087e+000
 8.4023224085e-001	 7.5745385601e-001	 1.5323916093e+000
 8.3234796168e-001	 7.6610928282e-001	 1.4550208745e+000
 8.2437280638e-001	 7.7468447683e-001	 1.3805499858e+000
 8.1630800645e-001	 7.8317801370e-001	 1.3092187438e+000
 8.0815482303e-001	 7.9158849445e-001	 1.2412605033e+000
 7.9991454623e-001	 7.9991454623e-001	 1.1769018219e+000
 8.8310175088e-001	 7.1696411878e-001	 1.8407902894e+000
 8.7564829207e-001	 7.2604842718e-001	 1.7554553333e+000
 8.6809773175e-001	 7.3505957457e-001	 1.6713059898e+000
 8.6045115022e-001	 7.4399601350e-001	 1.5886020477e+000
 8.5270966054e-001	 7.5285621791e-001	 1.5075991652e+000
 8.4487440792e-001	 7.6163868394e-001	 1.4285484627e+000
 8.3694656920e-001	 7.7034193079e-001	 1.3516961266e+000
 8.2892735227e-001	 7.7896450156e-001	 1.2772830230e+000
 8.2081799544e-001	 7.8750496405e-001	 1.2055443241e+000
 8.1261976680e-001	 7.9596191155e-001	 1.1367091463e+000
 8.0433396361e-001	 8.0433396361e-001	 1.0710002025e+000
 8.8795395830e-001	 7.2090348207e-001	 1.7308213202e+000
 8.8045954642e-001	 7.3003770425e-001	 1.6480575260e+000
 8.7286749950e-001	 7.3909836344e-001	 1.5660537278e+000
 8.6517890380e-001	 7.4808390368e-001	 1.4850633144e+000
 8.5739487846e-001	 7.5699279054e-001	 1.4053359069e+000
 8.4951657500e-001	 7.6582351187e-001	 1.3271169571e+000
 8.4154517673e-001	 7.7457457876e-001	 1.2506473557e+000
 8.3348189816e-001	 7.8324452629e-001	 1.1761630510e+000
 8.2532798442e-001	 7.9183191440e-001	 1.1038946782e+000
 8.1708471058e-001	 8.0033532864e-001	 1.0340672023e+000
 8.0875338099e-001	 8.0875338099e-001	 9.6689957262e-001
 8.9280616572e-001	 7.2484284536e-001	 1.6239649578e+000
 8.8527080078e-001	 7.3402698132e-001	 1.5436071010e+000
 8.7763726726e-001	 7.4313715231e-001	 1.4635896900e+000
 8.6990665737e-001	 7.5217179387e-001	 1.3841598288e+000
 8.6208009637e-001	 7.6112936316e-001	 1.3055612123e+000
 8.5415874207e-001	 7.7000833980e-001	 1.2280337296e+000
 8.4614378425e-001	 7.7880722673e-001	 1.1518130773e+000
 8.3803644406e-001	 7.8752455102e-001	 1.0771303814e+000
 8.2983797341e-001	 7.9615886475e-001	 1.0042118320e+000
 8.2154965435e-001	 8.0470874574e-001	 9.3327832814e-001
 8.1317279837e-001	 8.1317279837e-001	 8.6454513637e-001
 8.9765837314e-001	 7.2878220865e-001	 1.5201483917e+000
 8.9008205513e-001	 7.3801625840e-001	 1.4420334663e+000
 8.8240703502e-001	 7.4717594118e-001	 1.3638454278e+000
 8.7463441094e-001	 7.5625968405e-001	 1.2858252097e+000
 8.6676531429e-001	 7.6526593579e-001	 1.2082106905e+000
 8.5880090915e-001	 7.7419316774e-001	 1.1312363019e+000
 8.5074239177e-001	 7.8303987470e-001	 1.0551326462e+000
 8.4259098995e-001	 7.9180457576e-001	 9.8012612334e-001
 8.3434796239e-001	 8.0048581510e-001	 9.0643856802e-001
 8.2601459812e-001	 8.0908216284e-001	 8.3428689895e-001
 8.1759221576e-001	 8.1759221576e-001	 7.6388277981e-001
 9.0251058056e-001	 7.3272157194e-001	 1.4192999167e+000
 8.9489330948e-001	 7.4200553547e-001	 1.3432670827e+000
 8.8717680277e-001	 7.5121473005e-001	 1.2667534946e+000
 8.7936216451e-001	 7.6034757423e-001	 1.1899940288e+000
 8.7145053220e-001	 7.6940250841e-001	 1.1132208563e+000
 8.6344307623e-001	 7.7837799567e-001	 1.0366630556e+000
 8.5534099930e-001	 7.8727252267e-001	 9.6054623463e-001
 8.4714553584e-001	 7.9608460049e-001	 8.8509216132e-001
 8.3885795138e-001	 8.0481276545e-001	 8.1051840509e-001
 8.3047954190e-001	 8.1345557993e-001	 7.3703798874e-001
 8.2201163314e-001	 8.2201163314e-001	 6.6485905242e-001
 9.0736278799e-001	 7.3666093523e-001	 1.3213489043e+000
 8.9970456383e-001	 7.4599481254e-001	 1.2472394361e+000
 8.9194657053e-001	 7.5525351892e-001	 1.1722474192e+000
 8.8408991809e-001	 7.6443546442e-001	 1.0966017854e+000
 8.7613575012e-001	 7.7353908104e-001	 1.0205291061e+000
 8.6808524330e-001	 7.8256282360e-001	 9.4425321018e-001
 8.5993960682e-001	 7.9150517064e-001	 8.6799480973e-001
 8.5170008173e-001	 8.0036462523e-001	 7.9197113492e-001
 8.4336794037e-001	 8.0913971581e-001	 7.1639557864e-001
 8.3494448567e-001	 8.1782899703e-001	 6.4147735169e-001
 8.2643105052e-001	 8.2643105052e-001	 5.6742114948e-001
 9.1221499541e-001	 7.4060029852e-001	 1.2262257731e+000
 9.0451581818e-001	 7.4998408962e-001	 1.1538830097e+000
 8.9671633829e-001	 7.5929230779e-001	 1.0802616795e+000
 8.8881767166e-001	 7.6852335461e-001	 1.0055848812e+000
 8.8082096803e-001	 7.7767565367e-001	 9.3007369412e-001
 8.7272741038e-001	 7.8674765154e-001	 8.5394679989e-001
 8.6453821434e-001	 7.9573781862e-001	 7.7742011286e-001
 8.5625462762e-001	 8.0464464996e-001	 7.0070641853e-001
 8.4787792935e-001	 8.1346666616e-001	 6.2401502158e-001
 8.3940942945e-001	 8.2220241413e-001	 5.4755140409e-001
 8.3085046791e-001	 8.3085046791e-001	 4.7151689482e-001
 9.1706720283e-001	 7.4453966181e-001	 1.1338619619e+000
 9.0932707254e-001	 7.5397336669e-001	 1.0631312580e+000
 9.0148610605e-001	 7.6333109667e-001	 9.9073167755e-001
 8.9354542523e-001	 7.7261124479e-001	 9.1688059718e-001
 8.8550618595e-001	 7.8181222629e-001	 8.4179371010e-001
 8.7736957746e-001	 7.9093247948e-001	 7.6568465276e-001
 8.6913682187e-001	 7.9997046659e-001	 6.8876463895e-001
 8.6080917352e-001	 8.0892467470e-001	 6.1124210200e-001
 8.5238791834e-001	 8.1779361651e-001	 5.3332234596e-001
 8.4387437322e-001	 8.2657583123e-001	 4.5520720681e-001
 8.3526988529e-001	 8.3526988529e-001	 3.7709472422e-001
 9.2191941026e-001	 7.4847902511e-001	 1.0441899024e+000
 9.1413832689e-001	 7.5796264377e-001	 9.7491858100e-001
 9.0625587380e-001	 7.6736988554e-001	 9.0359371540e-001
 8.9827317881e-001	 7.7669913498e-001	 8.3042706982e-001
 8.9019140387e-001	 7.8594879892e-001	 7.5562905705e-001
 8.8201174454e-001	 7.9511730741e-001	 6.7940836943e-001
 8.7373542939e-001	 8.0420311456e-001	 6.0197161669e-001
 8.6536371941e-001	 8.1320469944e-001	 5.2352297173e-001
 8.5689790733e-001	 8.2212056687e-001	 4.4426382498e-001
 8.4833931700e-001	 8.3094924832e-001	 3.6439244833e-001
 8.3968930268e-001	 8.3968930267e-001	 2.8410366933e-001
 7.9549512885e-001	 7.9549512885e-001	 1.2846599274e+000
 7.8721507736e-001	 8.0368987926e-001	 1.2173538511e+000
 7.7885106335e-001	 8.1179801747e-001	 1.1427812700e+000
 7.7040445210e-001	 8.1981826049e-001	 1.0612933693e+000
 7.6187663485e-001	 8.2774935416e-001	 9.7324424115e-001
 7.5326902808e-001	 8.3559007377e-001	 8.7899043832e-001
 7.4458307267e-001	 8.4333922472e-001	 7.7889053116e-001
 7.3582023314e-001	 8.5099564308e-001	 6.7330466919e-001
 7.2698199683e-001	 8.5855819624e-001	 5.6259414764e-001
 7.1806987305e-001	 8.6602578337e-001	 4.4712098003e-001
 7.0908539221e-001	 8.7339733604e-001	 3.2724747736e-001
 7.9991454623e-001	 7.9991454623e-001	 1.1769018219e+000
 7.9158849445e-001	 8.0815482303e-001	 1.1105593567e+000
 7.8317801370e-001	 8.1630800645e-001	 1.0376188053e+000
 7.7468447683e-001	 8.2437280638e-001	 9.5841830478e-001
 7.6610928282e-001	 8.3234796168e-001	 8.7329824617e-001
 7.5745385601e-001	 8.4023224085e-001	 7.8260084130e-001
 7.4871964529e-001	 8.4802444263e-001	 6.8666969505e-001
 7.3990812332e-001	 8.5572339665e-001	 5.8584938242e-001
 7.3102078570e-001	 8.6332796399e-001	 4.8048503178e-001
 7.2205915012e-001	 8.7083703772e-001	 3.7092191480e-001
 7.1302475550e-001	 8.7824954346e-001	 2.5750504400e-001
 8.0433396361e-001	 8.0433396361e-001	 1.0710002025e+000
 7.9596191155e-001	 8.1261976680e-001	 1.0053572962e+000
 7.8750496405e-001	 8.2081799544e-001	 9.3377917283e-001
 7.7896450156e-001	 8.2892735227e-001	 8.5659107391e-001
 7.7034193079e-001	 8.3694656920e-001	 7.7411984352e-001
 7.6163868394e-001	 8.4487440792e-001	 6.8669350950e-001
 7.5285621791e-001	 8.5270966054e-001	 5.9464086998e-001
 7.4399601350e-001	 8.6045115022e-001	 4.9829108610e-001
 7.3505957457e-001	 8.6809773175e-001	 3.9797328168e-001
 7.2604842718e-001	 8.7564829207e-001	 2.9401615047e-001
 7.1696411878e-001	 8.8310175088e-001	 1.8674757179e-001
 8.0875338099e-001	 8.0875338099e-001	 9.6689957262e-001
 8.0033532864e-001	 8.1708471058e-001	 9.0169631275e-001
 7.9183191440e-001	 8.2532798442e-001	 8.3121527706e-001
 7.8324452629e-001	 8.3348189816e-001	 7.5576896155e-001
 7.7457457876e-001	 8.4154517673e-001	 6.7567081605e-001
 7.6582351187e-001	 8.4951657500e-001	 5.9123483894e-001
 7.5699279054e-001	 8.5739487846e-001	 5.0277517815e-001
 7.4808390368e-001	 8.6517890380e-001	 4.1060573933e-001
 7.3909836344e-001	 8.7286749950e-001	 3.1503980174e-001
 7.3003770425e-001	 8.8045954642e-001	 2.1638964268e-001
 7.2090348207e-001	 8.8795395830e-001	 1.1496617106e-001
 8.1317279837e-001	 8.1317279837e-001	 8.6454513637e-001
 8.0470874574e-001	 8.2154965435e-001	 7.9952565765e-001
 7.9615886475e-001	 8.2983797341e-001	 7.2988053538e-001
 7.8752455102e-001	 8.3803644406e-001	 6.5590966841e-001
 7.7880722673e-001	 8.4614378425e-001	 5.7791326280e-001
 7.7000833980e-001	 8.5415874207e-001	 4.9619143999e-001
 7.6112936316e-001	 8.6208009637e-001	 4.1104385213e-001
 7.5217179387e-001	 8.6990665737e-001	 3.2276930550e-001
 7.4313715231e-001	 8.7763726726e-001	 2.3166539249e-001
 7.3402698132e-001	 8.8527080078e-001	 1.3802813302e-001
 7.2484284536e-001	 8.9280616572e-001	 4.2151625965e-002
 8.1759221576e-001	 8.1759221576e-001	 7.6388277981e-001
 8.0908216284e-001	 8.2601459812e-001	 6.9879517390e-001
 8.0048581510e-001	 8.3434796239e-001	 6.2972886452e-001
 7.9180457576e-001	 8.4259098995e-001	 5.5697129975e-001
 7.8303987470e-001	 8.5074239177e-001	 4.8080959045e-001
 7.7419316774e-001	 8.5880090915e-001	 4.0153013161e-001
 7.6526593579e-001	 8.6676531429e-001	 3.1941823192e-001
 7.5625968405e-001	 8.7463441094e-001	 2.3475775218e-001
 7.4717594118e-001	 8.8240703502e-001	 1.4783075337e-001
 7.3801625840e-001	 8.9008205513e-001	 5.8917154822e-002
 7.2878220865e-001	 8.9765837314e-001	-3.1705596703e-002
 8.2201163314e-001	 8.2201163314e-001	 6.6485905242e-001
 8.1345557993e-001	 8.3047954190e-001	 5.9945528028e-001
 8.0481276545e-001	 8.3885795138e-001	 5.3071466699e-001
 7.9608460049e-001	 8.4714553584e-001	 4.5891235449e-001
 7.8727252267e-001	 8.5534099930e-001	 3.8432250506e-001
 7.7837799567e-001	 8.6344307623e-001	 3.0721793576e-001
 7.6940250841e-001	 8.7145053220e-001	 2.2786976202e-001
 7.6034757423e-001	 8.7936216451e-001	 1.4654705102e-001
 7.5121473005e-001	 8.8717680277e-001	 6.3516485512e-002
 7.4200553547e-001	 8.9489330948e-001	-2.0957961257e-002
 7.3272157194e-001	 9.0251058056e-001	-1.0661533899e-001
 8.2643105052e-001	 8.2643105052e-001	 5.6742114948e-001
 8.1782899703e-001	 8.3494448567e-001	 5.0145695596e-001
 8.0913971581e-001	 8.4336794037e-001	 4.3279281815e-001
 8.0036462523e-001	 8.5170008173e-001	 3.6169171469e-001
 7.9150517064e-001	 8.5993960682e-001	 2.8841500405e-001
 7.8256282360e-001	 8.6808524330e-001	 2.1322207191e-001
 7.7353908104e-001	 8.7613575012e-001	 1.3636998868e-001
 7.6443546442e-001	 8.8408991809e-001	 5.8113177597e-002
 7.5525351892e-001	 8.9194657053e-001	-2.1296905708e-002
 7.4599481254e-001	 8.9970456383e-001	-1.0161208180e-001
 7.3666093523e-001	 9.0736278799e-001	-1.8258774351e-001
 8.3085046791e-001	 8.3085046791e-001	 4.7151689482e-001
 8.2220241413e-001	 8.3940942945e-001	 4.0475172556e-001
 8.1346666616e-001	 8.4787792935e-001	 3.3591865362e-001
 8.0464464996e-001	 8.5625462762e-001	 2.6526863540e-001
 7.9573781862e-001	 8.6453821434e-001	 1.9305036848e-001
 7.8674765154e-001	 8.7272741038e-001	 1.1950995187e-001
 7.7767565367e-001	 8.8082096803e-001	 4.4890557154e-002
 7.6852335461e-001	 8.8881767166e-001	-3.0567888645e-002
 7.5929230779e-001	 8.9671633829e-001	-1.0662900807e-001
 7.4998408962e-001	 9.0451581818e-001	-1.8306026539e-001
 7.4060029852e-001	 9.1221499541e-001	-2.5963324547e-001
 8.3526988529e-001	 8.3526988529e-001	 3.7709472422e-001
 8.2657583123e-001	 8.4387437322e-001	 3.0929164477e-001
 8.1779361651e-001	 8.5238791834e-001	 2.4004795711e-001
 8.0892467470e-001	 8.6080917352e-001	 1.6960273474e-001
 7.9997046659e-001	 8.6913682187e-001	 9.8192155537e-002
 7.9093247948e-001	 8.7736957746e-001	 2.6049174617e-002
 7.8181222629e-001	 8.8550618595e-001	-4.6596790887e-002
 7.7261124479e-001	 8.9354542523e-001	-1.1952016452e-001
 7.6333109667e-001	 9.0148610605e-001	-1.9249950007e-001
 7.5397336669e-001	 9.0932707254e-001	-2.6531775754e-001
 7.4453966181e-001	 9.1706720283e-001	-3.3776256490e-001
 8.3968930268e-001	 8.3968930267e-001	 2.8410366933e-001
 8.3094924832e-001	 8.4833931700e-001	 2.1502928634e-001
 8.2212056687e-001	 8.5689790733e-001	 1.4513694858e-001
 8.1320469944e-001	 8.6536371941e-001	 7.4653984356e-002
 8.0420311456e-001	 8.7373542939e-001	 3.8041912299e-003
 7.9511730741e-001	 8.8201174454e-001	-6.7192478562e-002
 7.8594879892e-001	 8.9019140387e-001	-1.3812021991e-001
 7.7669913498e-001	 8.9827317881e-001	-2.0876766318e-001
 7.6736988554e-001	 9.0625587380e-001	-2.7892814852e-001
 7.5796264377e-001	 9.1413832689e-001	-3.4839998575e-001
 7.4847902511e-001	 9.2191941026e-001	-4.1698669919e-001
 7.0908539221e-001	 8.7339733604e-001	 3.2724747736e-001
 7.0003010501e-001	 8.8067181863e-001	 2.1712768768e-001
 6.9090558152e-001	 8.8784822885e-001	 1.1291981266e-001
 6.8171341027e-001	 8.9492559819e-001	 1.4689109319e-002
 6.7245519741e-001	 9.0190299230e-001	-7.7508346042e-002
 6.6313256573e-001	 9.0877951139e-001	-1.6362567933e-001
 6.5374715377e-001	 9.1555429057e-001	-2.4362522145e-001
 6.4430061488e-001	 9.2222650022e-001	-3.1747849258e-001
 6.3479461629e-001	 9.2879534622e-001	-3.8516616793e-001
 6.2523083815e-001	 9.3526007028e-001	-4.4667802554e-001
 6.1561097257e-001	 9.4161995013e-001	-6.8849435159e-001
 7.1302475550e-001	 8.7824954346e-001	 2.5750504400e-001
 7.0391916115e-001	 8.8556443984e-001	 1.4937438949e-001
 6.9474394585e-001	 8.9278071901e-001	 4.6456461711e-002
 6.8550070699e-001	 8.9989740707e-001	-5.1172619912e-002
 6.7619105961e-001	 9.0691356448e-001	-1.4344539110e-001
 6.6681663553e-001	 9.1382828644e-001	-2.3030307887e-001
 6.5737908239e-001	 9.2064070329e-001	-3.1169561939e-001
 6.4788006274e-001	 9.2734998077e-001	-3.8758165784e-001
 6.3832125305e-001	 9.3395532036e-001	-4.5792853015e-001
 6.2870434280e-001	 9.4045595955e-001	-5.2271222720e-001
 6.1903103352e-001	 9.4685117207e-001	-6.9957429522e-001
 7.1696411878e-001	 8.8310175088e-001	 1.8674757179e-001
 7.0780821728e-001	 8.9045706105e-001	 8.0761515917e-002
 6.9858231019e-001	 8.9771320917e-001	-2.0701802285e-002
 6.8928800371e-001	 9.0486921594e-001	-1.1755548718e-001
 6.7992692181e-001	 9.1192413665e-001	-2.0972077943e-001
 6.7050070534e-001	 9.1887706150e-001	-2.9712710667e-001
 6.6101101102e-001	 9.2572711601e-001	-3.7971211640e-001
 6.5145951059e-001	 9.3247346132e-001	-4.5742169114e-001
 6.4184788980e-001	 9.3911529450e-001	-5.3020994620e-001
 6.3217784745e-001	 9.4565184883e-001	-5.9803920998e-001
 6.2245109448e-001	 9.5208239401e-001	-7.1073937298e-001
 7.2090348207e-001	 8.8795395830e-001	 1.1496617106e-001
 7.1169727342e-001	 8.9534968226e-001	 1.1277762183e-002
 7.0242067453e-001	 9.0264569932e-001	-8.8568816369e-002
 6.9307530043e-001	 9.0984102482e-001	-1.8447597745e-001
 6.8366278402e-001	 9.1693470883e-001	-2.7635375806e-001
 6.7418477514e-001	 9.2392583656e-001	-3.6411988437e-001
 6.6464293965e-001	 9.3081352873e-001	-4.4769981952e-001
 6.5503895845e-001	 9.3759694187e-001	-5.2702679409e-001
 6.4537452655e-001	 9.4427526864e-001	-6.0204181958e-001
 6.3565135211e-001	 9.5084773811e-001	-6.7269368481e-001
 6.2587115543e-001	 9.5731361595e-001	-7.3893893575e-001
 7.2484284536e-001	 8.9280616572e-001	 4.2151625965e-002
 7.1558632955e-001	 9.0024230347e-001	-5.9088449945e-002
 7.0625903887e-001	 9.0757818948e-001	-1.5715863547e-001
 6.9686259715e-001	 9.1481283370e-001	-2.5195073522e-001
 6.8739864622e-001	 9.2194528101e-001	-3.4336367237e-001
 6.7786884495e-001	 9.2897461163e-001	-4.3130356802e-001
 6.6827486828e-001	 9.3589994146e-001	-5.1568380364e-001
 6.5861840631e-001	 9.4272042243e-001	-5.9642506686e-001
 6.4890116331e-001	 9.4943524279e-001	-6.7345538046e-001
 6.3912485676e-001	 9.5604362738e-001	-7.4671011479e-001
 6.2929121639e-001	 9.6254483790e-001	-8.1613198390e-001
 7.2878220865e-001	 8.9765837314e-001	-3.1705596703e-002
 7.1947538569e-001	 9.0513492469e-001	-1.3034896476e-001
 7.1009740321e-001	 9.1251067964e-001	-2.2648552649e-001
 7.0064989387e-001	 9.1978464258e-001	-3.1999656014e-001
 6.9113450843e-001	 9.2695585319e-001	-4.1076996344e-001
 6.8155291476e-001	 9.3402338669e-001	-4.9870034718e-001
 6.7190679691e-001	 9.4098635418e-001	-5.8368911235e-001
 6.6219785417e-001	 9.4784390299e-001	-6.6564451092e-001
 6.5242780006e-001	 9.5459521693e-001	-7.4448169035e-001
 6.4259836142e-001	 9.6123951666e-001	-8.2012272187e-001
 6.3271127735e-001	 9.6777605984e-001	-8.9249661272e-001
 7.3272157194e-001	 9.0251058056e-001	-1.0661533899e-001
 7.2336444183e-001	 9.1002754590e-001	-2.0251588546e-001
 7.1393576755e-001	 9.1744316980e-001	-2.9656396266e-001
 7.0443719060e-001	 9.2475645145e-001	-3.8863040291e-001
 6.9487037064e-001	 9.3196642536e-001	-4.7859216543e-001
 6.8523698457e-001	 9.3907216175e-001	-5.6633244404e-001
 6.7553872554e-001	 9.4607276691e-001	-6.5174075877e-001
 6.6577730203e-001	 9.5296738354e-001	-7.3471303167e-001
 6.5595443682e-001	 9.5975519108e-001	-8.1515164663e-001
 6.4607186607e-001	 9.6643540594e-001	-8.9296549334e-001
 6.3613133830e-001	 9.7300728179e-001	-9.6806999563e-001
 7.3666093523e-001	 9.0736278799e-001	-1.8258774351e-001
 7.2725349797e-001	 9.1492016712e-001	-2.7560156723e-001
 7.1777413189e-001	 9.2237565996e-001	-3.6740861796e-001
 7.0822448732e-001	 9.2972826033e-001	-4.5786936118e-001
 6.9860623285e-001	 9.3697699754e-001	-5.4684990315e-001
 6.8892105438e-001	 9.4412093682e-001	-6.3422211249e-001
 6.7917065417e-001	 9.5115917963e-001	-7.1986372637e-001
 6.6935674989e-001	 9.5809086410e-001	-8.0365844105e-001
 6.5948107358e-001	 9.6491516523e-001	-8.8549598693e-001
 6.4954537073e-001	 9.7163129522e-001	-9.6527218812e-001
 6.3955139926e-001	 9.7823850373e-001	-1.0428890067e+000
 7.4060029852e-001	 9.1221499541e-001	-2.5963324547e-001
 7.3114255411e-001	 9.1981278833e-001	-3.4961861055e-001
 7.2161249624e-001	 9.2730815012e-001	-4.3903436182e-001
 7.1201178405e-001	 9.3470006921e-001	-5.2773067570e-001
 7.0234209505e-001	 9.4198756973e-001	-6.1556288958e-001
 6.9260512419e-001	 9.4916971188e-001	-7.0239163734e-001
 6.8280258281e-001	 9.5624559236e-001	-7.8808296979e-001
 6.7293619775e-001	 9.6321434466e-001	-8.7250845999e-001
 6.6300771033e-001	 9.7007513937e-001	-9.5554529338e-001
 6.5301887538e-001	 9.7682718450e-001	-1.0370763428e+000
 6.4297146022e-001	 9.8346972568e-001	-1.1169902285e+000
 7.4453966181e-001	 9.1706720283e-001	-3.3776256490e-001
 7.3503161025e-001	 9.2470540955e-001	-4.2457985469e-001
 7.2545086058e-001	 9.3224064029e-001	-5.1145625394e-001
 7.1579908077e-001	 9.3967187809e-001	-5.9823172648e-001
 7.0607795726e-001	 9.4699814191e-001	-6.8475092362e-001
 6.9628919400e-001	 9.5421848695e-001	-7.7086333345e-001
 6.8643451144e-001	 9.6133200509e-001	-8.5642341554e-001
 6.7651564561e-001	 9.6833782522e-001	-9.4129072083e-001
 6.6653434709e-001	 9.7523511352e-001	-1.0253299967e+000
 6.5649238004e-001	 9.8202307379e-001	-1.1084112776e+000
 6.4639152118e-001	 9.8870094763e-001	-1.1904099600e+000
 7.4847902511e-001	 9.2191941026e-001	-4.1698669919e-001
 7.3892066640e-001	 9.2959803077e-001	-5.0049837142e-001
 7.2928922493e-001	 9.3717313045e-001	-5.8468953927e-001
 7.1958637750e-001	 9.4464368698e-001	-6.6939002917e-001
 7.0981381948e-001	 9.5200871409e-001	-7.5443388776e-001
 6.9997326381e-001	 9.5926726201e-001	-8.3965954499e-001
 6.9006644007e-001	 9.6641841782e-001	-9.2490996281e-001
 6.8009509347e-001	 9.7346130578e-001	-1.0100327697e+000
 6.7006098385e-001	 9.8039508767e-001	-1.0948803804e+000
 6.5996588470e-001	 9.8721896307e-001	-1.1793101018e+000
 6.4981158214e-001	 9.9393216958e-001	-1.2631842239e+000
 6.1561097257e-001	 9.4161995013e-001	-6.8849435159e-001
 6.0593672269e-001	 9.4787429975e-001	-8.1175903094e-001
 5.9620980171e-001	 9.5402246953e-001	-9.3019999000e-001
 5.8643193193e-001	 9.6006384644e-001	-1.0439376268e+000
 5.7660484378e-001	 9.6599785411e-001	-1.1530951318e+000
 5.6673027487e-001	 9.7182395297e-001	-1.2577980831e+000
 5.5680996904e-001	 9.7754164023e-001	-1.3581740423e+000
 5.4684567537e-001	 9.8315045000e-001	-1.4543521526e+000
 5.3683914727e-001	 9.8864995320e-001	-1.5464627414e+000
 5.2679214149e-001	 9.9403975759e-001	-1.6346369251e+000
 5.1670641720e-001	 9.9931950768e-001	-1.7190062217e+000
 6.1903103352e-001	 9.4685117207e-001	-6.9957429522e-001
 6.0930303781e-001	 9.5314026807e-001	-8.2477897846e-001
 5.9952207839e-001	 9.5932259435e-001	-9.4443634400e-001
 5.8968988710e-001	 9.6539753447e-001	-1.0586939091e+000
 5.7980820402e-001	 9.7136450885e-001	-1.1677024586e+000
 5.6987877640e-001	 9.7722297492e-001	-1.2716156034e+000
 5.5990335775e-001	 9.8297242712e-001	-1.3705893384e+000
 5.4988370690e-001	 9.8861239694e-001	-1.4647816043e+000
 5.3982158698e-001	 9.9414245294e-001	-1.5543518512e+000
 5.2971876450e-001	 9.9956220068e-001	-1.6394606073e+000
 5.1957700841e-001	 1.0048712827e+000	-1.7202690530e+000
 6.2245109448e-001	 9.5208239401e-001	-7.1073937298e-001
 6.1266935294e-001	 9.5840623640e-001	-8.3817741941e-001
 6.0283435506e-001	 9.6462271918e-001	-9.5935041050e-001
 5.9294784228e-001	 9.7073122250e-001	-1.0744328809e+000
 5.8301156426e-001	 9.7673116359e-001	-1.1836031055e+000
 5.7302727792e-001	 9.8262199688e-001	-1.2870426203e+000
 5.6299674647e-001	 9.8840321401e-001	-1.3849357440e+000
 5.5292173843e-001	 9.9407434388e-001	-1.4774691016e+000
 5.4280402668e-001	 9.9963495268e-001	-1.5648311512e+000
 5.3264538750e-001	 1.0050846438e+000	-1.6472117147e+000
 5.2244759961e-001	 1.0104230578e+000	-1.7248015147e+000
 6.2587115543e-001	 9.5731361595e-001	-7.3893893575e-001
 6.1603566806e-001	 9.6367220473e-001	-8.5198793475e-001
 6.0614663173e-001	 9.6992284401e-001	-9.7496952724e-001
 5.9620579745e-001	 9.7606491053e-001	-1.0911755240e+000
 5.8621492450e-001	 9.8209781834e-001	-1.2008115889e+000
 5.7617577944e-001	 9.8802101884e-001	-1.3040870799e+000
 5.6609013518e-001	 9.9383400090e-001	-1.4012145329e+000
 5.5595976995e-001	 9.9953629083e-001	-1.4924091487e+000
 5.4578646638e-001	 1.0051274524e+000	-1.5778882819e+000
 5.3557201051e-001	 1.0106070869e+000	-1.6578709344e+000
 5.2531819082e-001	 1.0159748328e+000	-1.7325772547e+000
 6.2929121639e-001	 9.6254483790e-001	-8.1613198390e-001
 6.1940198318e-001	 9.6893817306e-001	-8.6624390291e-001
 6.0945890840e-001	 9.7522296884e-001	-9.9132095422e-001
 5.9946375263e-001	 9.8139859857e-001	-1.1089428693e+000
 5.8941828474e-001	 9.8746447308e-001	-1.2193426040e+000
 5.7932428097e-001	 9.9342004080e-001	-1.3227572381e+000
 5.6918352389e-001	 9.9926478779e-001	-1.4194274227e+000
 5.5899780148e-001	 1.0049982378e+000	-1.5095968290e+000
 5.4876890609e-001	 1.0106199522e+000	-1.5935116007e+000
 5.3849863351e-001	 1.0161295300e+000	-1.6714198098e+000
 5.2818878202e-001	 1.0215266078e+000	-1.7435709185e+000
 6.3271127735e-001	 9.6777605984e-001	-8.9249661272e-001
 6.2276829831e-001	 9.7420414139e-001	-8.8097850530e-001
 6.1277118508e-001	 9.8052309367e-001	-1.0084318758e+000
 6.0272170780e-001	 9.8673228660e-001	-1.1277559959e+000
 5.9262164498e-001	 9.9283112783e-001	-1.2392110197e+000
 5.8247278249e-001	 9.9881906276e-001	-1.3430616528e+000
 5.7227691261e-001	 1.0046955747e+000	-1.4395765625e+000
 5.6203583301e-001	 1.0104601847e+000	-1.5290277894e+000
 5.5175134579e-001	 1.0161124519e+000	-1.6116901625e+000
 5.4142525652e-001	 1.0216519731e+000	-1.6878407176e+000
 5.3105937322e-001	 1.0270783829e+000	-1.7577581220e+000
 6.3613133830e-001	 9.7300728179e-001	-9.6806999563e-001
 6.2613461343e-001	 9.7947010973e-001	-9.1754711678e-001
 6.1608346175e-001	 9.8582321850e-001	-1.0263294026e+000
 6.0597966298e-001	 9.9206597464e-001	-1.1476360292e+000
 5.9582500522e-001	 9.9819778257e-001	-1.2604318739e+000
 5.8562128402e-001	 1.0042180847e+000	-1.3650091752e+000
 5.7537030132e-001	 1.0101263616e+000	-1.4616645216e+000
 5.6507386453e-001	 1.0159221317e+000	-1.5506982255e+000
 5.5473378550e-001	 1.0216049516e+000	-1.6324137010e+000
 5.4435187952e-001	 1.0271744162e+000	-1.7071168453e+000
 5.3392996443e-001	 1.0326301579e+000	-1.7751154262e+000
 6.3955139926e-001	 9.7823850373e-001	-1.0428890067e+000
 6.2950092855e-001	 9.8473607806e-001	-9.9592917757e-001
 6.1939573843e-001	 9.9112334334e-001	-1.0450405737e+000
 6.0923761815e-001	 9.9739966268e-001	-1.1686041404e+000
 5.9902836546e-001	 1.0035644373e+000	-1.2830203691e+000
 5.8876978554e-001	 1.0096171067e+000	-1.3886089425e+000
 5.7846369004e-001	 1.0155571485e+000	-1.4856942782e+000
 5.6811189606e-001	 1.0213840786e+000	-1.5746048666e+000
 5.5771622520e-001	 1.0270974514e+000	-1.6556726105e+000
 5.4727850253e-001	 1.0326968593e+000	-1.7292321696e+000
 5.3680055563e-001	 1.0381819330e+000	-1.7956203110e+000
 6.4297146022e-001	 9.8346972568e-001	-1.1169902285e+000
 6.3286724368e-001	 9.9000204640e-001	-1.0738842946e+000
 6.2270801510e-001	 9.9642346817e-001	-1.0645923584e+000
 6.1249557333e-001	 1.0027333507e+000	-1.1906815448e+000
 6.0223172570e-001	 1.0089310921e+000	-1.3069918682e+000
 5.9191828706e-001	 1.0150161287e+000	-1.4138703697e+000
 5.8155707875e-001	 1.0209879354e+000	-1.5116692084e+000
 5.7114992759e-001	 1.0268460256e+000	-1.6007449616e+000
 5.6069866490e-001	 1.0325899511e+000	-1.6814579282e+000
 5.5020512553e-001	 1.0382193024e+000	-1.7541714352e+000
 5.3967114683e-001	 1.0437337080e+000	-1.8192511515e+000
 6.4639152118e-001	 9.8870094763e-001	-1.1904099600e+000
 6.3623355880e-001	 9.9526801473e-001	-1.1514436792e+000
 6.2602029177e-001	 1.0017235930e+000	-1.1035781946e+000
 6.1575352850e-001	 1.0080670388e+000	-1.2138895006e+000
 6.0543508594e-001	 1.0142977468e+000	-1.3323618899e+000
 5.9506678859e-001	 1.0204151506e+000	-1.4408031429e+000
 5.8465046746e-001	 1.0264187222e+000	-1.5395930756e+000
 5.7418795911e-001	 1.0323079725e+000	-1.6291162654e+000
 5.6368110461e-001	 1.0380824509e+000	-1.7097613175e+000
 5.5313174854e-001	 1.0437417455e+000	-1.7819201348e+000
 5.4254173804e-001	 1.0492854831e+000	-1.8459871939e+000
 6.4981158214e-001	 9.9393216958e-001	-1.2631842239e+000
 6.3959987393e-001	 1.0005339831e+000	-1.2286383703e+000
 6.2933256845e-001	 1.0070237178e+000	-1.1845293428e+000
 6.1901148368e-001	 1.0134007268e+000	-1.2382493082e+000
 6.0863844618e-001	 1.0196644016e+000	-1.3591461047e+000
 5.9821529011e-001	 1.0258141726e+000	-1.4694172118e+000
 5.8774385618e-001	 1.0318495091e+000	-1.5694700207e+000
 5.7722599064e-001	 1.0377699195e+000	-1.6597170253e+000
 5.6666354431e-001	 1.0435749506e+000	-1.7405750513e+000
 5.5605837155e-001	 1.0492641886e+000	-1.8124644891e+000
 5.4541232924e-001	 1.0548372581e+000	-1.8758085326e+000
 5.1670641720e-001	 9.9931950768e-001	-1.7190062217e+000
 5.0658373506e-001	 1.0044888846e+000	-1.8309579444e+000
 4.9642585624e-001	 1.0095476062e+000	-1.9408486624e+000
 4.8623454157e-001	 1.0144954266e+000	-2.0486535952e+000
 4.7601155059e-001	 1.0193321361e+000	-2.1543474676e+000
 4.6575864062e-001	 1.0240575612e+000	-2.2579043113e+000
 4.5547756593e-001	 1.0286715642e+000	-2.3592972732e+000
 4.4517007681e-001	 1.0331740428e+000	-2.4584984327e+000
 4.3483791872e-001	 1.0375649302e+000	-2.5554786266e+000
 4.2448283146e-001	 1.0418441946e+000	-2.6502072843e+000
 4.1410654827e-001	 1.0460118387e+000	-2.7426522714e+000
 5.1957700841e-001	 1.0048712827e+000	-1.7202690530e+000
 5.0939808914e-001	 1.0100693784e+000	-1.8258087213e+000
 4.9918377766e-001	 1.0151562040e+000	-1.9293896421e+000
 4.8893584458e-001	 1.0201315123e+000	-2.0310068557e+000
 4.7865605920e-001	 1.0249950924e+000	-2.1306546164e+000
 4.6834618862e-001	 1.0297467699e+000	-2.2283261727e+000
 4.5800799685e-001	 1.0343864062e+000	-2.3240135566e+000
 4.4764324390e-001	 1.0389138986e+000	-2.4177073811e+000
 4.3725368494e-001	 1.0433291798e+000	-2.5093966476e+000
 4.2684106941e-001	 1.0476322179e+000	-2.5990685627e+000
 4.1640714020e-001	 1.0518230156e+000	-2.6867083653e+000
 5.2244759961e-001	 1.0104230578e+000	-1.7248015147e+000
 5.1221244322e-001	 1.0156498722e+000	-1.8241519617e+000
 5.0194169908e-001	 1.0207648019e+000	-1.9216449437e+000
 4.9163714759e-001	 1.0257675980e+000	-2.0172952829e+000
 4.8130056781e-001	 1.0306580487e+000	-2.1111167240e+000
 4.7093373662e-001	 1.0354359786e+000	-2.2031216949e+000
 4.6053842777e-001	 1.0401012482e+000	-2.2933210751e+000
 4.5011641099e-001	 1.0446537544e+000	-2.3817239747e+000
 4.3966945115e-001	 1.0490934295e+000	-2.4683375232e+000
 4.2919930736e-001	 1.0534202412e+000	-2.5531666688e+000
 4.1870773214e-001	 1.0576341925e+000	-2.6362139889e+000
 5.2531819082e-001	 1.0159748328e+000	-1.7325772547e+000
 5.1502679730e-001	 1.0212303660e+000	-1.8259562285e+000
 5.0469962050e-001	 1.0263733997e+000	-1.9175780609e+000
 4.9433845059e-001	 1.0314036837e+000	-2.0074773190e+000
 4.8394507642e-001	 1.0363210050e+000	-2.0956872022e+000
 4.7352128463e-001	 1.0411251872e+000	-2.1822392821e+000
 4.6306885869e-001	 1.0458160902e+000	-2.2671632511e+000
 4.5258957808e-001	 1.0503936102e+000	-2.3504866819e+000
 4.4208521737e-001	 1.0548576791e+000	-2.4322347985e+000
 4.3155754531e-001	 1.0592082645e+000	-2.5124302573e+000
 4.2100832407e-001	 1.0634453693e+000	-2.5910929411e+000
 5.2818878202e-001	 1.0215266078e+000	-1.7435709185e+000
 5.1784115138e-001	 1.0268108598e+000	-1.8311911813e+000
 5.0745754192e-001	 1.0319819975e+000	-1.9171536822e+000
 4.9703975360e-001	 1.0370397694e+000	-2.0015126993e+000
 4.8658958504e-001	 1.0419839613e+000	-2.0843208531e+000
 4.7610883263e-001	 1.0468143959e+000	-2.1656288260e+000
 4.6559928961e-001	 1.0515309323e+000	-2.2454850908e+000
 4.5506274518e-001	 1.0561334660e+000	-2.3239356512e+000
 4.4450098358e-001	 1.0606219287e+000	-2.4010237938e+000
 4.3391578326e-001	 1.0649962878e+000	-2.4767898526e+000
 4.2330891601e-001	 1.0692565462e+000	-2.5512709852e+000
 5.3105937322e-001	 1.0270783829e+000	-1.7577581220e+000
 5.2065550546e-001	 1.0323913537e+000	-1.8398275462e+000
 5.1021546334e-001	 1.0375905953e+000	-1.9203376587e+000
 4.9974105661e-001	 1.0426758551e+000	-1.9993624168e+000
 4.8923409365e-001	 1.0476469177e+000	-2.0769738317e+000
 4.7869638063e-001	 1.0525036046e+000	-2.1532416656e+000
 4.6812972053e-001	 1.0572457743e+000	-2.2282331419e+000
 4.5753591227e-001	 1.0618733218e+000	-2.3020126656e+000
 4.4691674979e-001	 1.0663861783e+000	-2.3746415571e+000
 4.3627402121e-001	 1.0707843111e+000	-2.4461777988e+000
 4.2560950794e-001	 1.0750677231e+000	-2.5166757952e+000
 5.3392996443e-001	 1.0326301579e+000	-1.7751154262e+000
 5.2346985954e-001	 1.0379718475e+000	-1.8518370875e+000
 5.1297338477e-001	 1.0431991931e+000	-1.9270969725e+000
 5.0244235961e-001	 1.0483119408e+000	-2.0009886889e+000
 4.9187860226e-001	 1.0533098740e+000	-2.0736036093e+000
 4.8128392863e-001	 1.0581928132e+000	-2.1450305483e+000
 4.7066015145e-001	 1.0629606163e+000	-2.2153554518e+000
 4.6000907936e-001	 1.0676131775e+000	-2.2846610989e+000
 4.4933251601e-001	 1.0721504279e+000	-2.3530268171e+000
 4.3863225916e-001	 1.0765723344e+000	-2.4205282108e+000
 4.2791009987e-001	 1.0808789000e+000	-2.4872369048e+000
 5.3680055563e-001	 1.0381819330e+000	-1.7956203110e+000
 5.2628421362e-001	 1.0435523413e+000	-1.8671925798e+000
 5.1573130619e-001	 1.0488077909e+000	-1.9373997070e+000
 5.0514366262e-001	 1.0539480265e+000	-2.0063549241e+000
 4.9452311087e-001	 1.0589728303e+000	-2.0741689388e+000
 4.8387147663e-001	 1.0638820219e+000	-2.1409495921e+000
 4.7319058237e-001	 1.0686754583e+000	-2.2068015274e+000
 4.6248224645e-001	 1.0733530333e+000	-2.2718258730e+000
 4.5174828222e-001	 1.0779146775e+000	-2.3361199385e+000
 4.4099049711e-001	 1.0823603577e+000	-2.3997769262e+000
 4.3021069180e-001	 1.0866900769e+000	-2.4628856576e+000
 5.3967114683e-001	 1.0437337080e+000	-1.8192511515e+000
 5.2909856770e-001	 1.0491328351e+000	-1.8858677813e+000
 5.1848922761e-001	 1.0544163887e+000	-1.9512150175e+000
 5.0784496562e-001	 1.0595841122e+000	-2.0154256906e+000
 4.9716761948e-001	 1.0646357866e+000	-2.0786298198e+000
 4.8645902463e-001	 1.0695712306e+000	-2.1409542493e+000
 4.7572101329e-001	 1.0743903003e+000	-2.2025222967e+000
 4.6495541354e-001	 1.0790928891e+000	-2.2634534165e+000
 4.5416404843e-001	 1.0836789271e+000	-2.3238628784e+000
 4.4334873506e-001	 1.0881483810e+000	-2.3838614606e+000
 4.3251128374e-001	 1.0925012537e+000	-2.4435551590e+000
 5.4254173804e-001	 1.0492854831e+000	-1.8459871939e+000
 5.3191292178e-001	 1.0547133289e+000	-1.9078374077e+000
 5.2124714903e-001	 1.0600249865e+000	-1.9685131024e+000
 5.1054626863e-001	 1.0652201979e+000	-2.0281666856e+000
 4.9981212810e-001	 1.0702987429e+000	-2.0869474667e+000
 4.8904657263e-001	 1.0752604393e+000	-2.1450012713e+000
 4.7825144421e-001	 1.0801051424e+000	-2.2024700707e+000
 4.6742858063e-001	 1.0848327449e+000	-2.2594916253e+000
 4.5657981464e-001	 1.0894431767e+000	-2.3161991446e+000
 4.4570697301e-001	 1.0939364043e+000	-2.3727209623e+000
 4.3481187567e-001	 1.0983124306e+000	-2.4291802293e+000
 5.4541232924e-001	 1.0548372581e+000	-1.8758085326e+000
 5.3472727586e-001	 1.0602938227e+000	-1.9330771069e+000
 5.2400507045e-001	 1.0656335844e+000	-1.9892651762e+000
 5.1324757164e-001	 1.0708562836e+000	-2.0445447058e+000
 5.0245663671e-001	 1.0759616992e+000	-2.0990842756e+000
 4.9163412063e-001	 1.0809496479e+000	-2.1530486741e+000
 4.8078187512e-001	 1.0858199844e+000	-2.2065985075e+000
 4.6990174772e-001	 1.0905726007e+000	-2.2598898238e+000
 4.5899558085e-001	 1.0952074263e+000	-2.3130737540e+000
 4.4806521096e-001	 1.0997244276e+000	-2.3662961698e+000
 4.3711246760e-001	 1.1041236075e+000	-2.4196973590e+000
 4.1410654827e-001	 1.0460118387e+000	-2.7426522714e+000
 4.0371079507e-001	 1.0500678997e+000	-2.8456372932e+000
 3.9329728962e-001	 1.0540124487e+000	-2.9447088889e+000
 3.8286774073e-001	 1.0578455904e+000	-3.0399146242e+000
 3.7242384746e-001	 1.0615674627e+000	-3.1313005597e+000
 3.6196729843e-001	 1.0651782362e+000	-3.2189110479e+000
 3.5149977099e-001	 1.0686781139e+000	-3.3027885419e+000
 3.4102293057e-001	 1.0720673304e+000	-3.3829734172e+000
 3.3053842993e-001	 1.0753461519e+000	-3.4595038045e+000
 3.2004790850e-001	 1.0785148753e+000	-3.5324154360e+000
 3.0955299171e-001	 1.0815738280e+000	-3.6017415044e+000
 4.1640714020e-001	 1.0518230156e+000	-2.6867083653e+000
 4.0595363282e-001	 1.0559016102e+000	-2.7861880606e+000
 3.9548227457e-001	 1.0598680734e+000	-2.8815845155e+000
 3.8499478373e-001	 1.0637225104e+000	-2.9729463789e+000
 3.7449286884e-001	 1.0674650597e+000	-3.0603209546e+000
 3.6397822787e-001	 1.0710958931e+000	-3.1437539911e+000
 3.5345254750e-001	 1.0746152145e+000	-3.2232894843e+000
 3.4291750241e-001	 1.0780232600e+000	-3.2989694918e+000
 3.3237475454e-001	 1.0813202972e+000	-3.3708339590e+000
 3.2182595244e-001	 1.0845066246e+000	-3.4389205595e+000
 3.1127273056e-001	 1.0875825715e+000	-3.5032645460e+000
 4.1870773214e-001	 1.0576341925e+000	-2.6362139889e+000
 4.0819647057e-001	 1.0617353208e+000	-2.7320533683e+000
 3.9766725951e-001	 1.0657236981e+000	-2.8236439903e+000
 3.8712182674e-001	 1.0695994303e+000	-2.9110356694e+000
 3.7656189022e-001	 1.0733626567e+000	-2.9942770307e+000
 3.6598915731e-001	 1.0770135500e+000	-3.0734152931e+000
 3.5540532401e-001	 1.0805523151e+000	-3.1484960646e+000
 3.4481207425e-001	 1.0839791896e+000	-3.2195631501e+000
 3.3421107916e-001	 1.0872944425e+000	-3.2866583709e+000
 3.2360399638e-001	 1.0904983739e+000	-3.3498213980e+000
 3.1299246940e-001	 1.0935913150e+000	-3.4090895968e+000
 4.2100832407e-001	 1.0634453693e+000	-2.5910929411e+000
 4.1043930832e-001	 1.0675690314e+000	-2.6831578756e+000
 3.9985224445e-001	 1.0715793228e+000	-2.7708127800e+000
 3.8924886974e-001	 1.0754763502e+000	-2.8541087174e+000
 3.7863091159e-001	 1.0792602537e+000	-2.9330957127e+000
 3.6800008674e-001	 1.0829312068e+000	-3.0078225292e+000
 3.5735810051e-001	 1.0864894158e+000	-3.0783364570e+000
 3.4670664608e-001	 1.0899351192e+000	-3.1446831141e+000
 3.3604740377e-001	 1.0932685878e+000	-3.2069062590e+000
 3.2538204031e-001	 1.0964901232e+000	-3.2650476168e+000
 3.1471220824e-001	 1.0996000584e+000	-3.3191467180e+000
 4.2330891601e-001	 1.0692565462e+000	-2.5512709852e+000
 4.1268214607e-001	 1.0734027419e+000	-2.6394281758e+000
 4.0203722939e-001	 1.0774349476e+000	-2.7230182567e+000
 3.9137591275e-001	 1.0813532702e+000	-2.8020936222e+000
 3.8069993297e-001	 1.0851578508e+000	-2.8767057759e+000
 3.7001101618e-001	 1.0888488637e+000	-2.9469051001e+000
 3.5931087702e-001	 1.0924265164e+000	-3.0127406376e+000
 3.4860121792e-001	 1.0958910488e+000	-3.0742598850e+000
 3.3788372838e-001	 1.0992427330e+000	-3.1315085997e+000
 3.2716008425e-001	 1.1024818726e+000	-3.1845306185e+000
 3.1643194709e-001	 1.1056088019e+000	-3.2333676898e+000
 4.2560950794e-001	 1.0750677231e+000	-2.5166757952e+000
 4.1492498382e-001	 1.0792364525e+000	-2.6007927438e+000
 4.0422221433e-001	 1.0832905723e+000	-2.6801896456e+000
 3.9350295575e-001	 1.0872301901e+000	-2.7549203094e+000
 3.8276895434e-001	 1.0910554478e+000	-2.8250377966e+000
 3.7202194561e-001	 1.0947665205e+000	-2.8905941833e+000
 3.6126365352e-001	 1.0983636170e+000	-2.9516403354e+000
 3.5049578976e-001	 1.1018469784e+000	-3.0082256950e+000
 3.3972005299e-001	 1.1052168783e+000	-3.0603980800e+000
 3.2893812818e-001	 1.1084736219e+000	-3.1082034967e+000
 3.1815168593e-001	 1.1116175454e+000	-3.1516859646e+000
 4.2791009987e-001	 1.0808789000e+000	-2.4872369048e+000
 4.1716782157e-001	 1.0850701630e+000	-2.5671818857e+000
 4.0640719928e-001	 1.0891461970e+000	-2.6422579759e+000
 3.9562999875e-001	 1.0931071101e+000	-2.7125204824e+000
 3.8483797571e-001	 1.0969530448e+000	-2.7780241035e+000
 3.7403287505e-001	 1.1006841774e+000	-2.8388226846e+000
 3.6321643003e-001	 1.1043007176e+000	-2.8949689857e+000
 3.5239036159e-001	 1.1078029081e+000	-2.9465144608e+000
 3.4155637759e-001	 1.1111910236e+000	-2.9935090511e+000
 3.3071617212e-001	 1.1144653712e+000	-3.0360009901e+000
 3.1987142477e-001	 1.1176262889e+000	-3.0740366223e+000
 4.3021069180e-001	 1.0866900769e+000	-2.4628856576e+000
 4.1941065932e-001	 1.0909038736e+000	-2.5385276895e+000
 4.0859218421e-001	 1.0950018217e+000	-2.6091560320e+000
 3.9775704175e-001	 1.0989840300e+000	-2.6748275741e+000
 3.8690699709e-001	 1.1028506418e+000	-2.7355987309e+000
 3.7604380448e-001	 1.1066018343e+000	-2.7915251924e+000
 3.6516920653e-001	 1.1102378183e+000	-2.8426616839e+000
 3.5428493342e-001	 1.1137588377e+000	-2.8890617387e+000
 3.4339270220e-001	 1.1171651689e+000	-2.9307774838e+000
 3.3249421605e-001	 1.1204571205e+000	-2.9678594387e+000
 3.2159116361e-001	 1.1236350324e+000	-3.0003563268e+000
 4.3251128374e-001	 1.0925012537e+000	-2.4435551590e+000
 4.2165349707e-001	 1.0967375841e+000	-2.5147639779e+000
 4.1077716915e-001	 1.1008574464e+000	-2.5808183073e+000
 3.9988408475e-001	 1.1048609500e+000	-2.6417767018e+000
 3.8897601846e-001	 1.1087482388e+000	-2.6976973734e+000
 3.7805473391e-001	 1.1125194912e+000	-2.7486379327e+000
 3.6712198303e-001	 1.1161749189e+000	-2.7946551419e+000
 3.5617950526e-001	 1.1197147673e+000	-2.8358046809e+000
 3.4522902681e-001	 1.1231393142e+000	-2.8721409260e+000
 3.3427225998e-001	 1.1264488698e+000	-2.9037167412e+000
 3.2331090244e-001	 1.1296437759e+000	-2.9305832835e+000
 4.3481187567e-001	 1.0983124306e+000	-2.4291802293e+000
 4.2389633481e-001	 1.1025712947e+000	-2.4958262625e+000
 4.1296215409e-001	 1.1067130711e+000	-2.5571809584e+000
 4.0201112775e-001	 1.1107378699e+000	-2.6133046218e+000
 3.9104503983e-001	 1.1146458358e+000	-2.6642573419e+000
 3.8006566334e-001	 1.1184371480e+000	-2.7100987257e+000
 3.6907475953e-001	 1.1221120195e+000	-2.7508876448e+000
 3.5807407709e-001	 1.1256706969e+000	-2.7866819934e+000
 3.4706535141e-001	 1.1291134595e+000	-2.8175384603e+000
 3.3605030391e-001	 1.1324406191e+000	-2.8435123137e+000
 3.2503064128e-001	 1.1356525194e+000	-2.8646571989e+000
 4.3711246760e-001	 1.1041236075e+000	-2.4196973590e+000
 4.2613917256e-001	 1.1084050052e+000	-2.4816516993e+000
 4.1514713903e-001	 1.1125686958e+000	-2.5381817620e+000
 4.0413817075e-001	 1.1166147899e+000	-2.5893496869e+000
 3.9311406120e-001	 1.1205434328e+000	-2.6352175209e+000
 3.8207659277e-001	 1.1243548049e+000	-2.6758469443e+000
 3.7102753603e-001	 1.1280491202e+000	-2.7112990100e+000
 3.5996864892e-001	 1.1316266265e+000	-2.7416338948e+000
 3.4890167602e-001	 1.1350876048e+000	-2.7669106641e+000
 3.3782834784e-001	 1.1384323684e+000	-2.7871870498e+000
 3.2675038012e-001	 1.1416612629e+000	-2.8025192411e+000
 3.0955299171e-001	 1.0815738280e+000	-3.6017415044e+000
 2.9905529034e-001	 1.0845233669e+000	-3.6936205622e+000
 2.8855639991e-001	 1.0873638784e+000	-3.7797539538e+000
 2.7805790004e-001	 1.0900957776e+000	-3.8602134326e+000
 2.6756135393e-001	 1.0927195074e+000	-3.9350692361e+000
 2.5706830774e-001	 1.0952355387e+000	-4.0043899312e+000
 2.4658029007e-001	 1.0976443689e+000	-4.0682422716e+000
 2.3609881147e-001	 1.0999465220e+000	-4.1266910675e+000
 2.2562536389e-001	 1.1021425476e+000	-4.1797990676e+000
 2.1516142026e-001	 1.1042330204e+000	-4.2276268528e+000
 2.0470843400e-001	 1.1062185395e+000	-4.2702327424e+000
 3.1127273056e-001	 1.0875825715e+000	-3.5032645460e+000
 3.0071670863e-001	 1.0905484967e+000	-3.5908399996e+000
 2.9015949102e-001	 1.0934047889e+000	-3.6729629647e+000
 2.7960266616e-001	 1.0961518652e+000	-3.7497024744e+000
 2.6904780590e-001	 1.0987901714e+000	-3.8211258292e+000
 2.5849646500e-001	 1.1013201806e+000	-3.8872984457e+000
 2.4795018057e-001	 1.1037423932e+000	-3.9482837196e+000
 2.3741047153e-001	 1.1060573360e+000	-4.0041428996e+000
 2.2687883814e-001	 1.1082655617e+000	-4.0549349751e+000
 2.1635676149e-001	 1.1103676482e+000	-4.1007165751e+000
 2.0584570308e-001	 1.1123641980e+000	-4.1415418801e+000
 3.1299246940e-001	 1.0935913150e+000	-3.4090895968e+000
 3.0237812691e-001	 1.0965736265e+000	-3.4922449093e+000
 2.9176258213e-001	 1.0994456993e+000	-3.5702409825e+000
 2.8114743227e-001	 1.1022079529e+000	-3.6431442195e+000
 2.7053425786e-001	 1.1048608353e+000	-3.7110190712e+000
 2.5992462227e-001	 1.1074048224e+000	-3.7739278899e+000
 2.4932007107e-001	 1.1098404174e+000	-3.8319307962e+000
 2.3872213160e-001	 1.1121681500e+000	-3.8850855585e+000
 2.2813231238e-001	 1.1143885759e+000	-3.9334474851e+000
 2.1755210271e-001	 1.1165022761e+000	-3.9770693290e+000
 2.0698297216e-001	 1.1185098566e+000	-4.0160012052e+000
 3.1471220824e-001	 1.0996000584e+000	-3.3191467180e+000
 3.0403954519e-001	 1.1025987563e+000	-3.3977661536e+000
 2.9336567324e-001	 1.1054866097e+000	-3.4715197009e+000
 2.8269219838e-001	 1.1082640405e+000	-3.5404712228e+000
 2.7202070983e-001	 1.1109314992e+000	-3.6046824082e+000
 2.6135277953e-001	 1.1134894643e+000	-3.6642126300e+000
 2.5068996157e-001	 1.1159384417e+000	-3.7191188169e+000
 2.4003379166e-001	 1.1182789640e+000	-3.7694553370e+000
 2.2938578662e-001	 1.1205115900e+000	-3.8152738957e+000
 2.1874744393e-001	 1.1226369040e+000	-3.8566234454e+000
 2.0812024123e-001	 1.1246555151e+000	-3.8935501086e+000
 3.1643194709e-001	 1.1056088019e+000	-3.2333676898e+000
 3.0570096346e-001	 1.1086238862e+000	-3.3073362859e+000
 2.9496876435e-001	 1.1115275202e+000	-3.3767324767e+000
 2.8423696449e-001	 1.1143201282e+000	-3.4416176741e+000
 2.7350716179e-001	 1.1170021631e+000	-3.5020508920e+000
 2.6278093680e-001	 1.1195741062e+000	-3.5580886090e+000
 2.5205985207e-001	 1.1220364660e+000	-3.6097846439e+000
 2.4134545172e-001	 1.1243897780e+000	-3.6571900448e+000
 2.3063926086e-001	 1.1266346042e+000	-3.7003529916e+000
 2.1994278515e-001	 1.1287715319e+000	-3.7393187111e+000
 2.0925751031e-001	 1.1308011737e+000	-3.7741294056e+000
 3.1815168593e-001	 1.1116175454e+000	-3.1516859646e+000
 3.0736238174e-001	 1.1146490160e+000	-3.2208895056e+000
 2.9657185546e-001	 1.1175684306e+000	-3.2858142854e+000
 2.8578173060e-001	 1.1203762158e+000	-3.3465193541e+000
 2.7499361376e-001	 1.1230728271e+000	-3.4030611375e+000
 2.6420909406e-001	 1.1256587481e+000	-3.4554933042e+000
 2.5342974257e-001	 1.1281344903e+000	-3.5038666451e+000
 2.4265711178e-001	 1.1305005920e+000	-3.5482289679e+000
 2.3189273510e-001	 1.1327576183e+000	-3.5886250040e+000
 2.2113812637e-001	 1.1349061598e+000	-3.6250963293e+000
 2.1039477938e-001	 1.1369468322e+000	-3.6576812978e+000
 3.1987142477e-001	 1.1176262889e+000	-3.0740366223e+000
 3.0902380002e-001	 1.1206741458e+000	-3.1383616130e+000
 2.9817494657e-001	 1.1236093410e+000	-3.1987016771e+000
 2.8732649670e-001	 1.1264323035e+000	-3.2551135914e+000
 2.7648006572e-001	 1.1291434910e+000	-3.3076512801e+000
 2.6563725132e-001	 1.1317433900e+000	-3.3563656856e+000
 2.5479963306e-001	 1.1342325145e+000	-3.4013046530e+000
 2.4396877184e-001	 1.1366114061e+000	-3.4425128285e+000
 2.3314620934e-001	 1.1388806325e+000	-3.4800315717e+000
 2.2233346759e-001	 1.1410407877e+000	-3.5138988816e+000
 2.1153204846e-001	 1.1430924908e+000	-3.5441493358e+000
 3.2159116361e-001	 1.1236350324e+000	-3.0003563268e+000
 3.1068521829e-001	 1.1266992756e+000	-3.0596899675e+000
 2.9977803767e-001	 1.1296502515e+000	-3.1153327350e+000
 2.8887126281e-001	 1.1324883911e+000	-3.1673392214e+000
 2.7796651768e-001	 1.1352141549e+000	-3.2157609352e+000
 2.6706540858e-001	 1.1378280318e+000	-3.2606461767e+000
 2.5616952356e-001	 1.1403305388e+000	-3.3020399260e+000
 2.4528043190e-001	 1.1427222201e+000	-3.3399837468e+000
 2.3439968358e-001	 1.1450036467e+000	-3.3745157033e+000
 2.2352880881e-001	 1.1471754156e+000	-3.4056702912e+000
 2.1266931753e-001	 1.1492381493e+000	-3.4334783827e+000
 3.2331090244e-001	 1.1296437759e+000	-2.9305832835e+000
 3.1234663657e-001	 1.1327244054e+000	-2.9848134451e+000
 3.0138112878e-001	 1.1356911619e+000	-3.0356470341e+000
 2.9041602892e-001	 1.1385444788e+000	-3.0831365458e+000
 2.7945296964e-001	 1.1412848189e+000	-3.1273311591e+000
 2.6849356584e-001	 1.1439126737e+000	-3.1682766151e+000
 2.5753941405e-001	 1.1464285631e+000	-3.2060151102e+000
 2.4659209196e-001	 1.1488330341e+000	-3.2405852039e+000
 2.3565315782e-001	 1.1511266608e+000	-3.2720217409e+000
 2.2472415003e-001	 1.1533100435e+000	-3.3003557870e+000
 2.1380658661e-001	 1.1553838079e+000	-3.3256145796e+000
 3.2503064128e-001	 1.1356525194e+000	-2.8646571989e+000
 3.1400805484e-001	 1.1387495352e+000	-2.9136723992e+000
 3.0298421988e-001	 1.1417320723e+000	-2.9595856022e+000
 2.9196079502e-001	 1.1446005664e+000	-3.0024472944e+000
 2.8093942160e-001	 1.1473554828e+000	-3.0423044104e+000
 2.6992172310e-001	 1.1499973156e+000	-3.0792002154e+000
 2.5890930455e-001	 1.1525265873e+000	-3.1131742026e+000
 2.4790375202e-001	 1.1549438481e+000	-3.1442620056e+000
 2.3690663206e-001	 1.1572496750e+000	-3.1724953248e+000
 2.2591949125e-001	 1.1594446714e+000	-3.1979018693e+000
 2.1494385568e-001	 1.1615294665e+000	-3.2205053117e+000
 3.2675038012e-001	 1.1416612629e+000	-2.8025192411e+000
 3.1566947311e-001	 1.1447746651e+000	-2.8462086210e+000
 3.0458731099e-001	 1.1477729828e+000	-2.8870908811e+000
 2.9350556113e-001	 1.1506566541e+000	-2.9252145868e+000
 2.8242587356e-001	 1.1534261467e+000	-2.9606245134e+000
 2.7134988036e-001	 1.1560819575e+000	-2.9933615331e+000
 2.6027919504e-001	 1.1586246116e+000	-3.0234625161e+000
 2.4921541207e-001	 1.1610546621e+000	-3.0509602477e+000
 2.3816010630e-001	 1.1633726891e+000	-3.0758833595e+000
 2.2711483247e-001	 1.1655792993e+000	-3.0982562760e+000
 2.1608112475e-001	 1.1676751250e+000	-3.1180991755e+000
 2.0470843400e-001	 1.1062185395e+000	-4.2702327424e+000
 1.9426783861e-001	 1.1080997279e+000	-4.3317602899e+000
 1.8384104723e-001	 1.1098772317e+000	-4.3879336084e+000
 1.7342945231e-001	 1.1115517195e+000	-4.4387587826e+000
 1.6303442519e-001	 1.1131238818e+000	-4.4842404798e+000
 1.5265731578e-001	 1.1145944303e+000	-4.5243819303e+000
 1.4229945226e-001	 1.1159640970e+000	-4.5591849166e+000
 1.3196214072e-001	 1.1172336342e+000	-4.5886497707e+000
 1.2164666495e-001	 1.1184038130e+000	-4.6127753798e+000
 1.1135428614e-001	 1.1194754231e+000	-4.6315591999e+000
 1.0108624265e-001	 1.1204492722e+000	-4.6449972768e+000
 2.0584570308e-001	 1.1123641980e+000	-4.1415418801e+000
 1.9534710438e-001	 1.1142558375e+000	-4.2006994846e+000
 1.8486238638e-001	 1.1160432163e+000	-4.2545491729e+000
 1.7439294926e-001	 1.1177270068e+000	-4.3031125096e+000
 1.6394017199e-001	 1.1193079034e+000	-4.3464092942e+000
 1.5350541198e-001	 1.1207866215e+000	-4.3844575327e+000
 1.4309000477e-001	 1.1221638976e+000	-4.4172734182e+000
 1.3269526372e-001	 1.1234404877e+000	-4.4448713213e+000
 1.2232247975e-001	 1.1246171675e+000	-4.4672637888e+000
 1.1197292106e-001	 1.1256947310e+000	-4.4844615511e+000
 1.0164783288e-001	 1.1266739904e+000	-4.4964735378e+000
 2.0698297216e-001	 1.1185098566e+000	-4.0160012052e+000
 1.9642637014e-001	 1.1204119471e+000	-4.0730564225e+000
 1.8588372553e-001	 1.1222092009e+000	-4.1248521819e+000
 1.7535644622e-001	 1.1239022941e+000	-4.1714254259e+000
 1.6484591880e-001	 1.1254919249e+000	-4.2128109836e+000
 1.5435350818e-001	 1.1269788128e+000	-4.2490415332e+000
 1.4388055728e-001	 1.1283636981e+000	-4.2801475745e+000
 1.3342838672e-001	 1.1296473413e+000	-4.3061574118e+000
 1.2299829456e-001	 1.1308305220e+000	-4.3270971458e+000
 1.1259155598e-001	 1.1319140389e+000	-4.3429906755e+000
 1.0220942312e-001	 1.1328987085e+000	-4.3538597080e+000
 2.0812024123e-001	 1.1246555151e+000	-3.8935501086e+000
 1.9750563591e-001	 1.1265680567e+000	-3.9487653580e+000
 1.8690506468e-001	 1.1283751855e+000	-3.9987717578e+000
 1.7631994318e-001	 1.1300775815e+000	-4.0436215293e+000
 1.6575166560e-001	 1.1316759465e+000	-4.0833644308e+000
 1.5520160437e-001	 1.1331710041e+000	-4.1180477111e+000
 1.4467110979e-001	 1.1345634987e+000	-4.1477160746e+000
 1.3416150973e-001	 1.1358541948e+000	-4.1724116564e+000
 1.2367410936e-001	 1.1370438765e+000	-4.1921740081e+000
 1.1321019090e-001	 1.1381333468e+000	-4.2070400930e+000
 1.0277101336e-001	 1.1391234267e+000	-4.2170442916e+000
 2.0925751031e-001	 1.1308011737e+000	-3.7741294056e+000
 1.9858490168e-001	 1.1327241663e+000	-3.8277620734e+000
 1.8792640383e-001	 1.1345411702e+000	-3.8762386555e+000
 1.7728344013e-001	 1.1362528688e+000	-3.9196265543e+000
 1.6665741241e-001	 1.1378599681e+000	-3.9579903589e+000
 1.5604970057e-001	 1.1393631954e+000	-3.9913917898e+000
 1.4546166230e-001	 1.1407632992e+000	-4.0198896558e+000
 1.3489463273e-001	 1.1420610483e+000	-4.0435398222e+000
 1.2434992416e-001	 1.1432572311e+000	-4.0623951896e+000
 1.1382882582e-001	 1.1443526547e+000	-4.0765056841e+000
 1.0333260359e-001	 1.1453481449e+000	-4.0859182565e+000
 2.1039477938e-001	 1.1369468322e+000	-3.6576812978e+000
 1.9966416745e-001	 1.1388802759e+000	-3.7099838386e+000
 1.8894774298e-001	 1.1407071548e+000	-3.7571852179e+000
 1.7824693709e-001	 1.1424281561e+000	-3.7993679244e+000
 1.6756315921e-001	 1.1440439896e+000	-3.8366112817e+000
 1.5689779677e-001	 1.1455553867e+000	-3.8689913849e+000
 1.4625221481e-001	 1.1469630998e+000	-3.8965810490e+000
 1.3562775573e-001	 1.1482679018e+000	-3.9194497705e+000
 1.2502573897e-001	 1.1494705856e+000	-3.9376636998e+000
 1.1444746075e-001	 1.1505719627e+000	-3.9512856252e+000
 1.0389419383e-001	 1.1515728631e+000	-3.9603749677e+000
 2.1153204846e-001	 1.1430924908e+000	-3.5441493358e+000
 2.0074343321e-001	 1.1450363855e+000	-3.5953693702e+000
 1.8996908213e-001	 1.1468731394e+000	-3.6415453335e+000
 1.7921043404e-001	 1.1486034435e+000	-3.6827747073e+000
 1.6846890602e-001	 1.1502280112e+000	-3.7191514558e+000
 1.5774589297e-001	 1.1517475779e+000	-3.7507659530e+000
 1.4704276732e-001	 1.1531629003e+000	-3.7777049244e+000
 1.3636087873e-001	 1.1544747554e+000	-3.8000514008e+000
 1.2570155377e-001	 1.1556839401e+000	-3.8178846845e+000
 1.1506609567e-001	 1.1567912706e+000	-3.8312803277e+000
 1.0445578406e-001	 1.1577975813e+000	-3.8403101228e+000
 2.1266931753e-001	 1.1492381493e+000	-3.4334783827e+000
 2.0182269898e-001	 1.1511924951e+000	-3.4838587935e+000
 1.9099042127e-001	 1.1530391240e+000	-3.5292543950e+000
 1.8017393100e-001	 1.1547787308e+000	-3.5697775709e+000
 1.6937465282e-001	 1.1564120328e+000	-3.6055368334e+000
 1.5859398916e-001	 1.1579397692e+000	-3.6366367426e+000
 1.4783331983e-001	 1.1593627008e+000	-3.6631778402e+000
 1.3709400174e-001	 1.1606816089e+000	-3.6852565961e+000
 1.2637736858e-001	 1.1618972946e+000	-3.7029653687e+000
 1.1568473059e-001	 1.1630105785e+000	-3.7163923778e+000
 1.0501737430e-001	 1.1640222995e+000	-3.7256216897e+000
 2.1380658661e-001	 1.1553838079e+000	-3.3256145796e+000
 2.0290196475e-001	 1.1573486047e+000	-3.3753936047e+000
 1.9201176042e-001	 1.1592051086e+000	-3.4202492594e+000
 1.8113742795e-001	 1.1609540181e+000	-3.4603087404e+000
 1.7028039962e-001	 1.1625960543e+000	-3.4956950178e+000
 1.5944208536e-001	 1.1641319605e+000	-3.5265267466e+000
 1.4862387234e-001	 1.1655625014e+000	-3.5529181921e+000
 1.3782712474e-001	 1.1668884624e+000	-3.5749791702e+000
 1.2705318338e-001	 1.1681106491e+000	-3.5928150016e+000
 1.1630336551e-001	 1.1692298864e+000	-3.6065264787e+000
 1.0557896453e-001	 1.1702470176e+000	-3.6162098463e+000
 2.1494385568e-001	 1.1615294665e+000	-3.2205053117e+000
 2.0398123051e-001	 1.1635047143e+000	-3.2699166346e+000
 1.9303309957e-001	 1.1653710933e+000	-3.3144682089e+000
 1.8210092490e-001	 1.1671293055e+000	-3.3543019572e+000
 1.7118614643e-001	 1.1687800759e+000	-3.3895552195e+000
 1.6029018155e-001	 1.1703241518e+000	-3.4203606557e+000
 1.4941442485e-001	 1.1717623019e+000	-3.4468461646e+000
 1.3856024774e-001	 1.1730953159e+000	-3.4691348168e+000
 1.2772899818e-001	 1.1743240037e+000	-3.4873448028e+000
 1.1692200043e-001	 1.1754491943e+000	-3.5015893946e+000
 1.0614055477e-001	 1.1764717358e+000	-3.5119769218e+000
 2.1608112475e-001	 1.1676751250e+000	-3.1180991755e+000
 2.0506049628e-001	 1.1696608239e+000	-3.1673720136e+000
 1.9405443872e-001	 1.1715370779e+000	-3.2118509138e+000
 1.8306442186e-001	 1.1733045928e+000	-3.2516924395e+000
 1.7209189323e-001	 1.1749640975e+000	-3.2870482136e+000
 1.6113827775e-001	 1.1765163431e+000	-3.3180648141e+000
 1.5020497736e-001	 1.1779621025e+000	-3.3448836843e+000
 1.3929337074e-001	 1.1793021695e+000	-3.3676410599e+000
 1.2840481299e-001	 1.1805373582e+000	-3.3864679105e+000
 1.1754063535e-001	 1.1816685022e+000	-3.4014898965e+000
 1.0670214501e-001	 1.1826964540e+000	-3.4128273404e+000
 1.0108624265e-001	 1.1204492722e+000	-4.6449972768e+000
 9.0843749807e-002	 1.1213261850e+000	-4.6791607615e+000
 8.0627999707e-002	 1.1221070028e+000	-4.7084319451e+000
 7.0440161024e-002	 1.1227925827e+000	-4.7328385097e+000
 6.0281378872e-002	 1.1233837970e+000	-4.7524056581e+000
 5.0152774663e-002	 1.1238815325e+000	-4.7671561605e+000
 4.0055445990e-002	 1.1242866900e+000	-4.7771104090e+000
 2.9990466533e-002	 1.1246001831e+000	-4.7822864776e+000
 1.9958885978e-002	 1.1248229385e+000	-4.7827001889e+000
 9.9617299555e-003	 1.1249558942e+000	-4.7783651855e+000
 0.0000000000e+000	 1.1250000000e+000	-4.7692930070e+000
 1.0164783288e-001	 1.1266739904e+000	-4.4964735378e+000
 9.1348437305e-002	 1.1275557749e+000	-4.5301798125e+000
 8.1075933037e-002	 1.1283409306e+000	-4.5589961396e+000
 7.0831495251e-002	 1.1290303192e+000	-4.5829533695e+000
 6.0616275421e-002	 1.1296248181e+000	-4.6020797928e+000
 5.0431401188e-002	 1.1301253188e+000	-4.6164011861e+000
 4.0277976245e-002	 1.1305327271e+000	-4.6259408644e+000
 3.0157080236e-002	 1.1308479619e+000	-4.6307197400e+000
 2.0069768678e-002	 1.1310719548e+000	-4.6307563877e+000
 1.0017072900e-002	 1.1312056492e+000	-4.6260671158e+000
 0.0000000000e+000	 1.1312500000e+000	-4.6166660420e+000
 1.0220942312e-001	 1.1328987085e+000	-4.3538597080e+000
 9.1853124803e-002	 1.1337853648e+000	-4.3871577522e+000
 8.1523866368e-002	 1.1345748584e+000	-4.4155720234e+000
 7.1222829478e-002	 1.1352680558e+000	-4.4391364960e+000
 6.0951171969e-002	 1.1358658392e+000	-4.4578825022e+000
 5.0710027713e-002	 1.1363691051e+000	-4.4718387762e+000
 4.0500506500e-002	 1.1367787643e+000	-4.4810315043e+000
 3.0323693939e-002	 1.1370957407e+000	-4.4854843835e+000
 2.0180651377e-002	 1.1373209711e+000	-4.4852186854e+000
 1.0072415844e-002	 1.1374554042e+000	-4.4802533259e+000
 0.0000000000e+000	 1.1375000000e+000	-4.4706049412e+000
 1.0277101336e-001	 1.1391234267e+000	-4.2170442916e+000
 9.2357812301e-002	 1.1400149547e+000	-4.2499819506e+000
 8.1971799699e-002	 1.1408087862e+000	-4.2780458125e+000
 7.1614163705e-002	 1.1415057924e+000	-4.3012729327e+000
 6.1286068518e-002	 1.1421068603e+000	-4.3196976393e+000
 5.0988654239e-002	 1.1426128914e+000	-4.3333515754e+000
 4.0723036755e-002	 1.1430248015e+000	-4.3422637486e+000
 3.0490307641e-002	 1.1433435195e+000	-4.3464605875e+000
 2.0291534077e-002	 1.1435699874e+000	-4.3459660051e+000
 1.0127758788e-002	 1.1437051591e+000	-4.3408014684e+000
 0.0000000000e+000	 1.1437500000e+000	-4.3309860726e+000
 1.0333260359e-001	 1.1453481449e+000	-4.0859182565e+000
 9.2862499799e-002	 1.1462445447e+000	-4.1185422607e+000
 8.2419733030e-002	 1.1470427139e+000	-4.1463062263e+000
 7.2005497933e-002	 1.1477435290e+000	-4.1692502472e+000
 6.1620965067e-002	 1.1483478814e+000	-4.1874116024e+000
 5.1267280764e-002	 1.1488566777e+000	-4.2008247964e+000
 4.0945567011e-002	 1.1492708386e+000	-4.2095216078e+000
 3.0656921344e-002	 1.1495912983e+000	-4.2135311450e+000
 2.0402416777e-002	 1.1498190038e+000	-4.2128799083e+000
 1.0183101732e-002	 1.1499549141e+000	-4.2075918586e+000
 0.0000000000e+000	 1.1500000000e+000	-4.1976884922e+000
 1.0389419383e-001	 1.1515728631e+000	-3.9603749677e+000
 9.3367187297e-002	 1.1524741346e+000	-3.9927309514e+000
 8.2867666361e-002	 1.1532766417e+000	-4.0202444197e+000
 7.2396832160e-002	 1.1539812655e+000	-4.0429584629e+000
 6.1955861616e-002	 1.1545889025e+000	-4.0609132665e+000
 5.1545907290e-002	 1.1551004640e+000	-4.0741461496e+000
 4.1168097266e-002	 1.1555168758e+000	-4.0826916129e+000
 3.0823535047e-002	 1.1558390771e+000	-4.0865813925e+000
 2.0513299477e-002	 1.1560680201e+000	-4.0858445225e+000
 1.0238444676e-002	 1.1562046691e+000	-4.0805074021e+000
 0.0000000000e+000	 1.1562500000e+000	-4.0705938706e+000
 1.0445578406e-001	 1.1577975813e+000	-3.8403101228e+000
 9.3871874795e-002	 1.1587037245e+000	-3.8724426430e+000
 8.3315599692e-002	 1.1595105695e+000	-3.8997539177e+000
 7.2788166387e-002	 1.1602190021e+000	-3.9222899931e+000
 6.2290758164e-002	 1.1608299236e+000	-3.9400939169e+000
 5.1824533815e-002	 1.1613442503e+000	-3.9532057771e+000
 4.1390627521e-002	 1.1617629130e+000	-3.9616627473e+000
 3.0990148750e-002	 1.1620868559e+000	-3.9654991412e+000
 2.0624182176e-002	 1.1623170364e+000	-3.9647464731e+000
 1.0293787620e-002	 1.1624544240e+000	-3.9594335256e+000
 0.0000000000e+000	 1.1625000000e+000	-3.9495864235e+000
 1.0501737430e-001	 1.1640222995e+000	-3.7256216897e+000
 9.4376562293e-002	 1.1649333144e+000	-3.7575742436e+000
 8.3763533023e-002	 1.1657444973e+000	-3.7847305523e+000
 7.3179500615e-002	 1.1664567387e+000	-3.8071395768e+000
 6.2625654713e-002	 1.1670709447e+000	-3.8248471846e+000
 5.2103160341e-002	 1.1675880366e+000	-3.8378961866e+000
 4.1613157776e-002	 1.1680089501e+000	-3.8463263818e+000
 3.1156762452e-002	 1.1683346347e+000	-3.8501746110e+000
 2.0735064876e-002	 1.1685660527e+000	-3.8494748162e+000
 1.0349130564e-002	 1.1687041790e+000	-3.8442581089e+000
 0.0000000000e+000	 1.1687500000e+000	-3.8345528431e+000
 1.0557896453e-001	 1.1702470176e+000	-3.6162098463e+000
 9.4881249791e-002	 1.1711629043e+000	-3.6480248888e+000
 8.4211466354e-002	 1.1719784251e+000	-3.6750724004e+000
 7.3570834842e-002	 1.1726944752e+000	-3.6974042172e+000
 6.2960551262e-002	 1.1733119658e+000	-3.7150689838e+000
 5.2381786866e-002	 1.1738318229e+000	-3.7281121892e+000
 4.1835688031e-002	 1.1742549873e+000	-3.7365762107e+000
 3.1323376155e-002	 1.1745824135e+000	-3.7405003662e+000
 2.0845947576e-002	 1.1748150691e+000	-3.7399209741e+000
 1.0404473509e-002	 1.1749539340e+000	-3.7348714204e+000
 0.0000000000e+000	 1.1750000000e+000	-3.7253822324e+000
 1.0614055477e-001	 1.1764717358e+000	-3.5119769218e+000
 9.5385937289e-002	 1.1773924942e+000	-3.5436958828e+000
 8.4659399685e-002	 1.1782123529e+000	-3.5706797253e+000
 7.3962169069e-002	 1.1789322118e+000	-3.5929831215e+000
 6.3295447811e-002	 1.1795529869e+000	-3.6106574516e+000
 5.2660413392e-002	 1.1800756092e+000	-3.6237508383e+000
 4.2058218287e-002	 1.1805010245e+000	-3.6323081904e+000
 3.1489989858e-002	 1.1808301923e+000	-3.6363712540e+000
 2.0956830276e-002	 1.1810640854e+000	-3.6359786725e+000
 1.0459816453e-002	 1.1812036889e+000	-3.6311660533e+000
 0.0000000000e+000	 1.1812500000e+000	-3.6219660413e+000
 1.0670214501e-001	 1.1826964540e+000	-3.4128273404e+000
 9.5890624787e-002	 1.1836220842e+000	-3.4444906408e+000
 8.5107333016e-002	 1.1844462807e+000	-3.4714549186e+000
 7.4353503296e-002	 1.1851699484e+000	-3.4937776434e+000
 6.3630344359e-002	 1.1857940079e+000	-3.5115128897e+000
 5.2939039917e-002	 1.1863193955e+000	-3.5247113705e+000
 4.2280748542e-002	 1.1867470616e+000	-3.5334204798e+000
 3.1656603561e-002	 1.1870779711e+000	-3.5376843437e+000
 2.1067712975e-002	 1.1873131017e+000	-3.5375438801e+000
 1.0515159397e-002	 1.1874534439e+000	-3.5330368646e+000
 0.0000000000e+000	 1.1875000000e+000	-3.5241980053e+000
 1.1875000000e+000	 0.0000000000e+000	 2.9956002402e+000
 1.1874534439e+000	 1.0515159397e-002	 3.0104067966e+000
 1.1873131017e+000	 2.1067712975e-002	 3.0204905919e+000
 1.1870779711e+000	 3.1656603561e-002	 3.0258275145e+000
 1.1867470616e+000	 4.2280748542e-002	 3.0263900511e+000
 1.1863193955e+000	 5.2939039917e-002	 3.0221471073e+000
 1.1857940079e+000	 6.3630344359e-002	 3.0130638334e+000
 1.1851699484e+000	 7.4353503296e-002	 2.9991014533e+000
 1.1844462807e+000	 8.5107333016e-002	 2.9802170994e+000
 1.1836220842e+000	 9.5890624787e-002	 2.9563636534e+000
 1.1826964540e+000	 1.0670214501e-001	 2.9274895937e+000
 1.1937500000e+000	 0.0000000000e+000	 3.0205047929e+000
 1.1937031989e+000	 1.0570502341e-002	 3.0357834180e+000
 1.1935621180e+000	 2.1178595675e-002	 3.0465413961e+000
 1.1933257499e+000	 3.1823217263e-002	 3.0527573766e+000
 1.1929930988e+000	 4.2503278797e-002	 3.0544064225e+000
 1.1925631818e+000	 5.3217666443e-002	 3.0514598232e+000
 1.1920350290e+000	 6.3965240908e-002	 3.0438849106e+000
 1.1914076850e+000	 7.4744837524e-002	 3.0316448812e+000
 1.1906802085e+000	 8.5555266347e-002	 3.0146986217e+000
 1.1898516741e+000	 9.6395312285e-002	 2.9930005424e+000
 1.1889211722e+000	 1.0726373524e-001	 2.9665004166e+000
 1.2000000000e+000	 0.0000000000e+000	 3.0477625202e+000
 1.1999529538e+000	 1.0625845285e-002	 3.0634675042e+000
 1.1998111344e+000	 2.1289478375e-002	 3.0748553527e+000
 1.1995735287e+000	 3.1989830966e-002	 3.0819075169e+000
 1.1992391360e+000	 4.2725809052e-002	 3.0846016754e+000
 1.1988069681e+000	 5.3496292968e-002	 3.0829115383e+000
 1.1982760501e+000	 6.4300137457e-002	 3.0768066558e+000
 1.1976454215e+000	 7.5136171751e-002	 3.0662522304e+000
 1.1969141363e+000	 8.6003199678e-002	 3.0512089360e+000
 1.1960812640e+000	 9.6899999783e-002	 3.0316327418e+000
 1.1951458904e+000	 1.0782532548e-001	 3.0074747439e+000
 1.2062500000e+000	 0.0000000000e+000	 3.0773490312e+000
 1.2062027088e+000	 1.0681188229e-002	 3.0934345951e+000
 1.2060601507e+000	 2.1400361075e-002	 3.1054079576e+000
 1.2058213075e+000	 3.2156444669e-002	 3.1132534125e+000
 1.2054851731e+000	 4.2948339307e-002	 3.1169512935e+000
 1.2050507543e+000	 5.3774919494e-002	 3.1164777694e+000
 1.2045170712e+000	 6.4635034006e-002	 3.1118046446e+000
 1.2038831581e+000	 7.5527505978e-002	 3.1028991624e+000
 1.2031480641e+000	 8.6451133008e-002	 3.0897238160e+000
 1.2023108539e+000	 9.7404687281e-002	 3.0722361642e+000
 1.2013706085e+000	 1.0838691571e-001	 3.0503886551e+000
 1.2125000000e+000	 0.0000000000e+000	 3.1092404377e+000
 1.2124524638e+000	 1.0736531173e-002	 3.1256607302e+000
 1.2123091670e+000	 2.1511243774e-002	 3.1381752027e+000
 1.2120690863e+000	 3.2323058372e-002	 3.1467710329e+000
 1.2117312103e+000	 4.3170869563e-002	 3.1514312492e+000
 1.2112945406e+000	 5.4053546019e-002	 3.1521345177e+000
 1.2107580923e+000	 6.4969930554e-002	 3.1488549328e+000
 1.2101208947e+000	 7.5918840205e-002	 3.1415618138e+000
 1.2093819919e+000	 8.6899066339e-002	 3.1302195059e+000
 1.2085404438e+000	 9.7909374779e-002	 3.1147871883e+000
 1.2075953267e+000	 1.0894850595e-001	 3.0952186898e+000
 1.2187500000e+000	 0.0000000000e+000	 3.1434133418e+000
 1.2187022187e+000	 1.0791874118e-002	 3.1601224359e+000
 1.2185581833e+000	 2.1622126474e-002	 3.1731335634e+000
 1.2183168651e+000	 3.2489672074e-002	 3.1824368274e+000
 1.2179772475e+000	 4.3393399818e-002	 3.1880179912e+000
 1.2175383269e+000	 5.4332172545e-002	 3.1898582560e+000
 1.2169991134e+000	 6.5304827103e-002	 3.1879340440e+000
 1.2163586312e+000	 7.6310174433e-002	 3.1822167846e+000
 1.2156159197e+000	 8.7346999670e-002	 3.1726727084e+000
 1.2147700337e+000	 9.8414062277e-002	 3.1592626463e+000
 1.2138200449e+000	 1.0951009619e-001	 3.1419418364e+000
 1.2250000000e+000	 0.0000000000e+000	 3.1798448228e+000
 1.2249519737e+000	 1.0847217062e-002	 3.1967967130e+000
 1.2248071996e+000	 2.1733009174e-002	 3.2102599862e+000
 1.2245646439e+000	 3.2656285777e-002	 3.2202277129e+000
 1.2242232846e+000	 4.3615930073e-002	 3.2266884315e+000
 1.2237821132e+000	 5.4610799070e-002	 3.2296259176e+000
 1.2232401345e+000	 6.5639723652e-002	 3.2290189574e+000
 1.2225963678e+000	 7.6701508660e-002	 3.2248411263e+000
 1.2218498475e+000	 8.7794933001e-002	 3.2170605733e+000
 1.2209996237e+000	 9.8918749775e-002	 3.2056398122e+000
 1.2200447631e+000	 1.1007168642e-001	 3.1905355201e+000
 1.2312500000e+000	 0.0000000000e+000	 3.2185124256e+000
 1.2312017287e+000	 1.0902560006e-002	 3.2356610246e+000
 1.2310562160e+000	 2.1843891874e-002	 3.2495318768e+000
 1.2308124227e+000	 3.2822899480e-002	 3.2601210620e+000
 1.2304693218e+000	 4.3838460328e-002	 3.2674199347e+000
 1.2300258995e+000	 5.4889425596e-002	 3.2714148836e+000
 1.2294811556e+000	 6.5974620201e-002	 3.2720870965e+000
 1.2288341044e+000	 7.7092842887e-002	 3.2694123302e+000
 1.2280837753e+000	 8.8242866332e-002	 3.2633606858e+000
 1.2272292136e+000	 9.9423437273e-002	 3.2538963914e+000
 1.2262694812e+000	 1.1063327666e-001	 3.2409775924e+000
 1.2375000000e+000	 0.0000000000e+000	 3.2593941486e+000
 1.2374514836e+000	 1.0957902950e-002	 3.2766932848e+000
 1.2373052323e+000	 2.1954774573e-002	 3.2909270883e+000
 1.2370602015e+000	 3.2989513183e-002	 3.3020946916e+000
 1.2367153590e+000	 4.4060990583e-002	 3.3101903057e+000
 1.2362696858e+000	 5.5168052121e-002	 3.3152029721e+000
 1.2357221767e+000	 6.6309516750e-002	 3.3171163179e+000
 1.2350718410e+000	 7.7484177114e-002	 3.3159083167e+000
 1.2343177031e+000	 8.8690799663e-002	 3.3115510556e+000
 1.2334588035e+000	 9.9928124771e-002	 3.3040105089e+000
 1.2324941994e+000	 1.1119486689e-001	 3.2932463201e+000
 1.2437500000e+000	 0.0000000000e+000	 3.3024684327e+000
 1.2437012386e+000	 1.1013245894e-002	 3.3198718466e+000
 1.2435542486e+000	 2.2065657273e-002	 3.3344239103e+000
 1.2433079802e+000	 3.3156126885e-002	 3.3461268514e+000
 1.2429613961e+000	 4.4283520839e-002	 3.3549777793e+000
 1.2425134721e+000	 5.5446678647e-002	 3.3609684275e+000
 1.2419631978e+000	 6.6644413298e-002	 3.3640849002e+000
 1.2413095775e+000	 7.7875511342e-002	 3.3643074242e+000
 1.2405516308e+000	 8.9138732994e-002	 3.3616101064e+000
 1.2396883934e+000	 1.0043281227e-001	 3.3559606994e+000
 1.2387189176e+000	 1.1175645713e-001	 3.3473203745e+000
 1.2500000000e+000	 0.0000000000e+000	 3.3477141497e+000
 1.2499509936e+000	 1.1068588838e-002	 3.3651754916e+000
 1.2498032649e+000	 2.2176539973e-002	 3.3800010577e+000
 1.2495557590e+000	 3.3322740588e-002	 3.3921962137e+000
 1.2492074333e+000	 4.4506051094e-002	 3.4017610089e+000
 1.2487572584e+000	 5.5725305172e-002	 3.4086899090e+000
 1.2482042189e+000	 6.6979309847e-002	 3.4129715336e+000
 1.2475473141e+000	 7.8266845569e-002	 3.4145883986e+000
 1.2467855586e+000	 8.9586666325e-002	 3.4135166653e+000
 1.2459179833e+000	 1.0093749977e-001	 3.4097258967e+000
 1.2449436358e+000	 1.1231804736e-001	 3.4031788220e+000
 1.1826964540e+000	 1.0670214501e-001	 2.9274895937e+000
 1.1816685022e+000	 1.1754063535e-001	 2.9306872706e+000
 1.1805373582e+000	 1.2840481299e-001	 2.9307255923e+000
 1.1793021695e+000	 1.3929337074e-001	 2.9275664253e+000
 1.1779621025e+000	 1.5020497736e-001	 2.9211656509e+000
 1.1765163431e+000	 1.6113827775e-001	 2.9114730080e+000
 1.1749640975e+000	 1.7209189323e-001	 2.8984319464e+000
 1.1733045928e+000	 1.8306442186e-001	 2.8819794920e+000
 1.1715370779e+000	 1.9405443872e-001	 2.8620461255e+000
 1.1696608239e+000	 2.0506049628e-001	 2.8385556744e+000
 1.1676751250e+000	 2.1608112475e-001	 2.8114252192e+000
 1.1889211722e+000	 1.0726373524e-001	 2.9665004166e+000
 1.1878878101e+000	 1.1815927028e-001	 2.9722896116e+000
 1.1867507127e+000	 1.2908062779e-001	 2.9744321242e+000
 1.1855090230e+000	 1.4002649375e-001	 2.9728884153e+000
 1.1841619030e+000	 1.5099552987e-001	 2.9676132698e+000
 1.1827085343e+000	 1.6198637395e-001	 2.9585556451e+000
 1.1811481190e+000	 1.7299764004e-001	 2.9456585319e+000
 1.1794798801e+000	 1.8402791881e-001	 2.9288588262e+000
 1.1777030625e+000	 1.9507577786e-001	 2.9080872144e+000
 1.1758169335e+000	 2.0613976204e-001	 2.8832680716e+000
 1.1738207836e+000	 2.1721839382e-001	 2.8543193750e+000
 1.1951458904e+000	 1.0782532548e-001	 3.0074747439e+000
 1.1941071180e+000	 1.1877790520e-001	 3.0159161092e+000
 1.1929640672e+000	 1.2975644260e-001	 3.0202328779e+000
 1.1917158765e+000	 1.4075961675e-001	 3.0203841642e+000
 1.1903617035e+000	 1.5178608239e-001	 3.0163237081e+000
 1.1889007256e+000	 1.6283447014e-001	 3.0079997315e+000
 1.1873321406e+000	 1.7390338684e-001	 2.9953548054e+000
 1.1856551675e+000	 1.8499141577e-001	 2.9783257283e+000
 1.1838690471e+000	 1.9609711701e-001	 2.9568434179e+000
 1.1819730431e+000	 2.0721902781e-001	 2.9308328159e+000
 1.1799664421e+000	 2.1835566290e-001	 2.9002128074e+000
 1.2013706085e+000	 1.0838691571e-001	 3.0503886551e+000
 1.2003264259e+000	 1.1939654012e-001	 3.0615416256e+000
 1.1991774217e+000	 1.3043225740e-001	 3.0681014071e+000
 1.1979227300e+000	 1.4149273975e-001	 3.0700258243e+000
 1.1965615041e+000	 1.5257663490e-001	 3.0672676245e+000
 1.1950929169e+000	 1.6368256634e-001	 3.0597743392e+000
 1.1935161622e+000	 1.7480913364e-001	 3.0474881586e+000
 1.1918304548e+000	 1.8595491272e-001	 3.0303458160e+000
 1.1900350318e+000	 1.9711845616e-001	 3.0082784859e+000
 1.1881291527e+000	 2.0829829358e-001	 2.9812116952e+000
 1.1861121007e+000	 2.1949293197e-001	 2.9490652486e+000
 1.2075953267e+000	 1.0894850595e-001	 3.0952186898e+000
 1.2065457338e+000	 1.2001517504e-001	 3.1091415075e+000
 1.2053907762e+000	 1.3110807220e-001	 3.1180117753e+000
 1.2041295836e+000	 1.4222586275e-001	 3.1217860864e+000
 1.2027613046e+000	 1.5336718741e-001	 3.1204162461e+000
 1.2012851082e+000	 1.6453066254e-001	 3.1138491410e+000
 1.1997001837e+000	 1.7571488045e-001	 3.1020266188e+000
 1.1980057421e+000	 1.8691840967e-001	 3.0848853799e+000
 1.1962010164e+000	 1.9813979531e-001	 3.0623568809e+000
 1.1942852623e+000	 2.0937755934e-001	 3.0343672522e+000
 1.1922577592e+000	 2.2063020105e-001	 3.0008372292e+000
 1.2138200449e+000	 1.0951009619e-001	 3.1419418364e+000
 1.2127650417e+000	 1.2063380996e-001	 3.1586915729e+000
 1.2116041308e+000	 1.3178388701e-001	 3.1699385430e+000
 1.2103364371e+000	 1.4295898575e-001	 3.1756381651e+000
 1.2089611052e+000	 1.5415773992e-001	 3.1757413537e+000
 1.2074772995e+000	 1.6537875873e-001	 3.1701943952e+000
 1.2058842053e+000	 1.7662062725e-001	 3.1589388332e+000
 1.2041810295e+000	 1.8788190663e-001	 3.1419113667e+000
 1.2023670010e+000	 1.9916113446e-001	 3.1190437598e+000
 1.2004413719e+000	 2.1045682511e-001	 3.0902627645e+000
 1.1984034178e+000	 2.2176747012e-001	 3.0554900581e+000
 1.2200447631e+000	 1.1007168642e-001	 3.1905355201e+000
 1.2189843496e+000	 1.2125244488e-001	 3.2101680994e+000
 1.2178174853e+000	 1.3245970181e-001	 3.2238567545e+000
 1.2165432906e+000	 1.4369210876e-001	 3.2315557858e+000
 1.2151609057e+000	 1.5494829243e-001	 3.2332152678e+000
 1.2136694907e+000	 1.6622685493e-001	 3.2287809307e+000
 1.2120682269e+000	 1.7752637406e-001	 3.2181940525e+000
 1.2103563168e+000	 1.8884540358e-001	 3.2013913622e+000
 1.2085329856e+000	 2.0018247361e-001	 3.1783049561e+000
 1.2065974815e+000	 2.1153609088e-001	 3.1488622260e+000
 1.2045490763e+000	 2.2290473920e-001	 3.1129858021e+000
 1.2262694812e+000	 1.1063327666e-001	 3.2409775924e+000
 1.2252036575e+000	 1.2187107981e-001	 3.2635478124e+000
 1.2240308398e+000	 1.3313551661e-001	 3.2797419261e+000
 1.2227501441e+000	 1.4442523176e-001	 3.2895131720e+000
 1.2213607062e+000	 1.5573884494e-001	 3.2928108348e+000
 1.2198616820e+000	 1.6707495113e-001	 3.2895801328e+000
 1.2182522484e+000	 1.7843212086e-001	 3.2797621160e+000
 1.2165316041e+000	 1.8980890054e-001	 3.2632935750e+000
 1.2146989702e+000	 2.0120381276e-001	 3.2401069628e+000
 1.2127535911e+000	 2.1261535665e-001	 3.2101303288e+000
 1.2106947349e+000	 2.2404200827e-001	 3.1732872673e+000
 1.2324941994e+000	 1.1119486689e-001	 3.2932463201e+000
 1.2314229654e+000	 1.2248971473e-001	 3.3188078739e+000
 1.2302441943e+000	 1.3381133142e-001	 3.3375700339e+000
 1.2289569977e+000	 1.4515835476e-001	 3.3494850321e+000
 1.2275605068e+000	 1.5652939745e-001	 3.3545014136e+000
 1.2260538733e+000	 1.6792304732e-001	 3.3525639286e+000
 1.2244362700e+000	 1.7933786767e-001	 3.3436134366e+000
 1.2227068915e+000	 1.9077239749e-001	 3.3275868208e+000
 1.2208649549e+000	 2.0222515190e-001	 3.3044169155e+000
 1.2189097007e+000	 2.1369462241e-001	 3.2740324455e+000
 1.2168403934e+000	 2.2517927735e-001	 3.2363579798e+000
 1.2387189176e+000	 1.1175645713e-001	 3.3473203745e+000
 1.2376422733e+000	 1.2310834965e-001	 3.3759258717e+000
 1.2364575488e+000	 1.3448714622e-001	 3.3973175022e+000
 1.2351638512e+000	 1.4589147776e-001	 3.4114465478e+000
 1.2337603073e+000	 1.5731994996e-001	 3.4182608630e+000
 1.2322460646e+000	 1.6877114352e-001	 3.4177047738e+000
 1.2306202916e+000	 1.8024361447e-001	 3.4097189864e+000
 1.2288821788e+000	 1.9173589445e-001	 3.3942405074e+000
 1.2270309395e+000	 2.0324649105e-001	 3.3712025768e+000
 1.2250658103e+000	 2.1477388818e-001	 3.3405346122e+000
 1.2229860520e+000	 2.2631654642e-001	 3.3021621681e+000
 1.2449436358e+000	 1.1231804736e-001	 3.4031788220e+000
 1.2438615812e+000	 1.2372698457e-001	 3.4348798083e+000
 1.2426709033e+000	 1.3516296103e-001	 3.4589611928e+000
 1.2413707047e+000	 1.4662460077e-001	 3.4753733619e+000
 1.2399601078e+000	 1.5811050247e-001	 3.4840635292e+000
 1.2384382558e+000	 1.6961923972e-001	 3.4849756394e+000
 1.2368043131e+000	 1.8114936128e-001	 3.4780502826e+000
 1.2350574661e+000	 1.9269939141e-001	 3.4632246196e+000
 1.2331969241e+000	 2.0426783020e-001	 3.4404323199e+000
 1.2312219199e+000	 2.1585315395e-001	 3.4096035117e+000
 1.2291317105e+000	 2.2745381550e-001	 3.3706647453e+000
 1.1676751250e+000	 2.1608112475e-001	 2.8114252192e+000
 1.1655792993e+000	 2.2711483247e-001	 2.8115417533e+000
 1.1633726891e+000	 2.3816010630e-001	 2.8101490644e+000
 1.1610546621e+000	 2.4921541207e-001	 2.8071779839e+000
 1.1586246116e+000	 2.6027919504e-001	 2.8025508032e+000
 1.1560819575e+000	 2.7134988036e-001	 2.7961811983e+000
 1.1534261467e+000	 2.8242587356e-001	 2.7879741734e+000
 1.1506566541e+000	 2.9350556113e-001	 2.7778260257e+000
 1.1477729828e+000	 3.0458731099e-001	 2.7656243298e+000
 1.1447746651e+000	 3.1566947311e-001	 2.7512479455e+000
 1.1416612629e+000	 3.2675038012e-001	 2.7345670466e+000
 1.1738207836e+000	 2.1721839382e-001	 2.8543193750e+000
 1.1717139272e+000	 2.2831017369e-001	 2.8524526046e+000
 1.1694957033e+000	 2.3941358054e-001	 2.8484066771e+000
 1.1671654761e+000	 2.5052707213e-001	 2.8421133030e+000
 1.1647226359e+000	 2.6164908554e-001	 2.8334961645e+000
 1.1621665994e+000	 2.7277803761e-001	 2.8224708486e+000
 1.1594968107e+000	 2.8391232552e-001	 2.8089448004e+000
 1.1567127418e+000	 2.9505032723e-001	 2.7928172955e+000
 1.1538138932e+000	 3.0619040209e-001	 2.7739794336e+000
 1.1507997949e+000	 3.1733089139e-001	 2.7523141533e+000
 1.1476700064e+000	 3.2847011895e-001	 2.7276962689e+000
 1.1799664421e+000	 2.1835566290e-001	 2.9002128074e+000
 1.1778485551e+000	 2.2950551491e-001	 2.8965251971e+000
 1.1756187174e+000	 2.4066705477e-001	 2.8900001315e+000
 1.1732762901e+000	 2.5183873219e-001	 2.8805702030e+000
 1.1708206602e+000	 2.6301897603e-001	 2.8681604785e+000
 1.1682512413e+000	 2.7420619487e-001	 2.8526884420e+000
 1.1655674746e+000	 2.8539877748e-001	 2.8340639554e+000
 1.1627688294e+000	 2.9659509334e-001	 2.8121892407e+000
 1.1598548037e+000	 3.0779349319e-001	 2.7869588808e+000
 1.1568249247e+000	 3.1899230966e-001	 2.7582598422e+000
 1.1536787498e+000	 3.3018985779e-001	 2.7259715194e+000
 1.1861121007e+000	 2.1949293197e-001	 2.9490652486e+000
 1.1839831830e+000	 2.3070085613e-001	 2.9437170221e+000
 1.1817417316e+000	 2.4192052901e-001	 2.9348845534e+000
 1.1793871042e+000	 2.5315039225e-001	 2.9225013196e+000
 1.1769186844e+000	 2.6438886653e-001	 2.9064937665e+000
 1.1743358832e+000	 2.7563435213e-001	 2.8867812598e+000
 1.1716381385e+000	 2.8688522944e-001	 2.8632760554e+000
 1.1688249171e+000	 2.9813985944e-001	 2.8358832888e+000
 1.1658957141e+000	 3.0939658430e-001	 2.8045009845e+000
 1.1628500545e+000	 3.2065372794e-001	 2.7690200864e+000
 1.1596874933e+000	 3.3190959663e-001	 2.7293245090e+000
 1.1922577592e+000	 2.2063020105e-001	 3.0008372292e+000
 1.1901178109e+000	 2.3189619734e-001	 2.9939864176e+000
 1.1878647458e+000	 2.4317400325e-001	 2.9830159669e+000
 1.1854979182e+000	 2.5446205231e-001	 2.9678602411e+000
 1.1830167087e+000	 2.6575875702e-001	 2.9484470587e+000
 1.1804205250e+000	 2.7706250939e-001	 2.9246976528e+000
 1.1777088025e+000	 2.8837168140e-001	 2.8965266494e+000
 1.1748810047e+000	 2.9968462555e-001	 2.8638420651e+000
 1.1719366245e+000	 3.1099967540e-001	 2.8265453247e+000
 1.1688751843e+000	 3.2231514621e-001	 2.7845312985e+000
 1.1656962368e+000	 3.3362933547e-001	 2.7376883615e+000
 1.1984034178e+000	 2.2176747012e-001	 3.0554900581e+000
 1.1962524387e+000	 2.3309153857e-001	 3.0472925469e+000
 1.1939877599e+000	 2.4442747749e-001	 3.0343512708e+000
 1.1916087322e+000	 2.5577371237e-001	 3.0166014832e+000
 1.1891147330e+000	 2.6712864752e-001	 2.9939723690e+000
 1.1865051669e+000	 2.7849066666e-001	 2.9663870136e+000
 1.1837794664e+000	 2.8985813337e-001	 2.9337623896e+000
 1.1809370924e+000	 3.0122939166e-001	 2.8960093624e+000
 1.1779775350e+000	 3.1260276651e-001	 2.8530327155e+000
 1.1749003141e+000	 3.2397656449e-001	 2.8047311955e+000
 1.1717049803e+000	 3.3534907431e-001	 2.7509975780e+000
 1.2045490763e+000	 2.2290473920e-001	 3.1129858021e+000
 1.2023870666e+000	 2.3428687979e-001	 3.1035953771e+000
 1.2001107741e+000	 2.4568095173e-001	 3.0888482169e+000
 1.1977195462e+000	 2.5708537243e-001	 3.0686804660e+000
 1.1952127573e+000	 2.6849853802e-001	 3.0430226694e+000
 1.1925898088e+000	 2.7991882392e-001	 3.0117997501e+000
 1.1898501303e+000	 2.9134458533e-001	 2.9749310034e+000
 1.1869931800e+000	 3.0277415776e-001	 2.9323301111e+000
 1.1840184454e+000	 3.1420585762e-001	 2.8839051742e+000
 1.1809254440e+000	 3.2563798276e-001	 2.8295587652e+000
 1.1777137238e+000	 3.3706881315e-001	 2.7691880010e+000
 1.2106947349e+000	 2.2404200827e-001	 3.1732872673e+000
 1.2085216945e+000	 2.3548222101e-001	 3.1628556592e+000
 1.2062337882e+000	 2.4693442598e-001	 3.1464653878e+000
 1.2038303602e+000	 2.5839703249e-001	 3.1240534906e+000
 1.2013107815e+000	 2.6986842851e-001	 3.0955518661e+000
 1.1986744507e+000	 2.8134698118e-001	 3.0608872595e+000
 1.1959207943e+000	 2.9283103729e-001	 3.0199812657e+000
 1.1930492677e+000	 3.0431892387e-001	 2.9727503503e+000
 1.1900593558e+000	 3.1580894873e-001	 2.9191058905e+000
 1.1869505738e+000	 3.2729940104e-001	 2.8589542344e+000
 1.1837224673e+000	 3.3878855199e-001	 2.7921967813e+000
 1.2168403934e+000	 2.2517927735e-001	 3.2363579798e+000
 1.2146563224e+000	 2.3667756223e-001	 3.2250349079e+000
 1.2123568024e+000	 2.4818790022e-001	 3.2071621763e+000
 1.2099411742e+000	 2.5970869255e-001	 3.1826777170e+000
 1.2074088058e+000	 2.7123831901e-001	 3.1515147754e+000
 1.2047590926e+000	 2.8277513845e-001	 3.1136019039e+000
 1.2019914582e+000	 2.9431748926e-001	 3.0688629729e+000
 1.1991053553e+000	 3.0586368998e-001	 3.0172171997e+000
 1.1961002663e+000	 3.1741203984e-001	 2.9585791965e+000
 1.1929757036e+000	 3.2896081932e-001	 2.8928590372e+000
 1.1897312108e+000	 3.4050829083e-001	 2.8199623441e+000
 1.2229860520e+000	 2.2631654642e-001	 3.3021621681e+000
 1.2207909503e+000	 2.3787290345e-001	 3.2900953827e+000
 1.2184798165e+000	 2.4944137446e-001	 3.2708987649e+000
 1.2160519882e+000	 2.6102035261e-001	 3.2445111426e+000
 1.2135068301e+000	 2.7260820951e-001	 3.2108671013e+000
 1.2108437344e+000	 2.8420329571e-001	 3.1698969853e+000
 1.2080621221e+000	 2.9580394123e-001	 3.1215269170e+000
 1.2051614430e+000	 3.0740845610e-001	 3.0656788328e+000
 1.2021411767e+000	 3.1901513095e-001	 3.0022705388e+000
 1.1990008334e+000	 3.3062223760e-001	 2.9312157848e+000
 1.1957399543e+000	 3.4222802968e-001	 2.8524243575e+000
 1.2291317105e+000	 2.2745381550e-001	 3.3706647453e+000
 1.2269255782e+000	 2.3906824468e-001	 3.3580000691e+000
 1.2246028307e+000	 2.5069484871e-001	 3.3376361059e+000
 1.2221628022e+000	 2.6233201268e-001	 3.3095125811e+000
 1.2196048543e+000	 2.7397810001e-001	 3.2735654130e+000
 1.2169283763e+000	 2.8563145298e-001	 3.2297267228e+000
 1.2141327860e+000	 2.9729039319e-001	 3.1779248606e+000
 1.2112175306e+000	 3.0895322221e-001	 3.1180844500e+000
 1.2081820871e+000	 3.2061822206e-001	 3.0501264500e+000
 1.2050259632e+000	 3.3228365588e-001	 2.9739682362e+000
 1.2017486977e+000	 3.4394776852e-001	 2.8895237011e+000
 1.1416612629e+000	 3.2675038012e-001	 2.7345670466e+000
 1.1384323684e+000	 3.3782834784e-001	 2.7371670322e+000
 1.1350876048e+000	 3.4890167602e-001	 2.7348857623e+000
 1.1316266265e+000	 3.5996864892e-001	 2.7275694545e+000
 1.1280491202e+000	 3.7102753603e-001	 2.7150578173e+000
 1.1243548049e+000	 3.8207659277e-001	 2.6971842216e+000
 1.1205434328e+000	 3.9311406120e-001	 2.6737758945e+000
 1.1166147899e+000	 4.0413817075e-001	 2.6446541370e+000
 1.1125686958e+000	 4.1514713903e-001	 2.6096345653e+000
 1.1084050052e+000	 4.2613917256e-001	 2.5685273749e+000
 1.1041236075e+000	 4.3711246760e-001	 2.5211376293e+000
 1.1476700064e+000	 3.2847011895e-001	 2.7276962689e+000
 1.1444241177e+000	 3.3960639177e-001	 2.7226674900e+000
 1.1410617501e+000	 3.5073800062e-001	 2.7137272406e+000
 1.1375825561e+000	 3.6186322075e-001	 2.7007138089e+000
 1.1339862208e+000	 3.7298031253e-001	 2.6834578947e+000
 1.1302724618e+000	 3.8408752220e-001	 2.6617827746e+000
 1.1264410299e+000	 3.9518308257e-001	 2.6355044924e+000
 1.1224917098e+000	 4.0626521375e-001	 2.6044320739e+000
 1.1184243206e+000	 4.1733212397e-001	 2.5683677668e+000
 1.1142387158e+000	 4.2838201031e-001	 2.5271073063e+000
 1.1099347844e+000	 4.3941305953e-001	 2.4804402049e+000
 1.1536787498e+000	 3.3018985779e-001	 2.7259715194e+000
 1.1504158670e+000	 3.4138443570e-001	 2.7131396809e+000
 1.1470358953e+000	 3.5257432523e-001	 2.6973594993e+000
 1.1435384857e+000	 3.6375779258e-001	 2.6784613188e+000
 1.1399233214e+000	 3.7493308903e-001	 2.6562668173e+000
 1.1361901186e+000	 3.8609845164e-001	 2.6305891664e+000
 1.1323386269e+000	 3.9725210394e-001	 2.6012332176e+000
 1.1283686298e+000	 4.0839225675e-001	 2.5679957150e+000
 1.1242799453e+000	 4.1951710891e-001	 2.5306655339e+000
 1.1200724263e+000	 4.3062484805e-001	 2.4890239467e+000
 1.1157459613e+000	 4.4171365146e-001	 2.4428449155e+000
 1.1596874933e+000	 3.3190959663e-001	 2.7293245090e+000
 1.1564076163e+000	 3.4316247963e-001	 2.7085188569e+000
 1.1530100406e+000	 3.5441064983e-001	 2.6857214866e+000
 1.1494944153e+000	 3.6565236441e-001	 2.6607547824e+000
 1.1458604221e+000	 3.7688586553e-001	 2.6334313865e+000
 1.1421077755e+000	 3.8810938107e-001	 2.6035543538e+000
 1.1382362239e+000	 3.9932112531e-001	 2.5709173339e+000
 1.1342455497e+000	 4.1051929975e-001	 2.5353047813e+000
 1.1301355700e+000	 4.2170209385e-001	 2.4964921930e+000
 1.1259061369e+000	 4.3286768580e-001	 2.4542463757e+000
 1.1215571382e+000	 4.4401424339e-001	 2.4083257398e+000
 1.1656962368e+000	 3.3362933547e-001	 2.7376883615e+000
 1.1623993656e+000	 3.4494052357e-001	 2.7087416157e+000
 1.1589841859e+000	 3.5624697444e-001	 2.6787534259e+000
 1.1554503450e+000	 3.6754693625e-001	 2.6475382000e+000
 1.1517975227e+000	 3.7883864204e-001	 2.6148995302e+000
 1.1480254324e+000	 3.9012031050e-001	 2.5806303417e+000
 1.1441338209e+000	 4.0139014668e-001	 2.5445130714e+000
 1.1401224697e+000	 4.1264634275e-001	 2.5063198752e+000
 1.1359911947e+000	 4.2388707879e-001	 2.4658128654e+000
 1.1317398474e+000	 4.3511052355e-001	 2.4227443778e+000
 1.1273683150e+000	 4.4631483533e-001	 2.3768572689e+000
 1.1717049803e+000	 3.3534907431e-001	 2.7509975780e+000
 1.1683911149e+000	 3.4671856750e-001	 2.7137458666e+000
 1.1649583312e+000	 3.5808329905e-001	 2.6763967837e+000
 1.1614062746e+000	 3.6944150808e-001	 2.6387567440e+000
 1.1577346233e+000	 3.8079141854e-001	 2.6006202739e+000
 1.1539430892e+000	 3.9213123993e-001	 2.5617701557e+000
 1.1500314179e+000	 4.0345916806e-001	 2.5219776014e+000
 1.1459993896e+000	 4.1477338576e-001	 2.4810024585e+000
 1.1418468194e+000	 4.2607206373e-001	 2.4385934465e+000
 1.1375735580e+000	 4.3735336130e-001	 2.3944884243e+000
 1.1331794919e+000	 4.4861542726e-001	 2.3484146901e+000
 1.1777137238e+000	 3.3706881315e-001	 2.7691880010e+000
 1.1743828642e+000	 3.4849661143e-001	 2.7234707963e+000
 1.1709324765e+000	 3.5991962366e-001	 2.6785942374e+000
 1.1673622042e+000	 3.7133607992e-001	 2.6343567281e+000
 1.1636717240e+000	 3.8274419505e-001	 2.5905437129e+000
 1.1598607461e+000	 3.9414216937e-001	 2.5469278162e+000
 1.1559290149e+000	 4.0552818943e-001	 2.5032690127e+000
 1.1518763095e+000	 4.1690042876e-001	 2.4593148304e+000
 1.1477024441e+000	 4.2825704867e-001	 2.4148005865e+000
 1.1434072685e+000	 4.3959619905e-001	 2.3694496556e+000
 1.1389906688e+000	 4.5091601919e-001	 2.3229737725e+000
 1.1837224673e+000	 3.3878855199e-001	 2.7921967813e+000
 1.1803746136e+000	 3.5027465537e-001	 2.7378568373e+000
 1.1769066218e+000	 3.6175594827e-001	 2.6852896451e+000
 1.1733181338e+000	 3.7323065175e-001	 2.6342855789e+000
 1.1696088246e+000	 3.8469697155e-001	 2.5846209846e+000
 1.1657784030e+000	 3.9615309880e-001	 2.5360583133e+000
 1.1618266120e+000	 4.0759721080e-001	 2.4883462884e+000
 1.1577532295e+000	 4.1902747176e-001	 2.4412201062e+000
 1.1535580688e+000	 4.3044203361e-001	 2.3944016709e+000
 1.1492409791e+000	 4.4183903679e-001	 2.3475998647e+000
 1.1448018457e+000	 4.5321661113e-001	 2.3005108514e+000
 1.1897312108e+000	 3.4050829083e-001	 2.8199623441e+000
 1.1863663629e+000	 3.5205269931e-001	 2.7568456359e+000
 1.1828807671e+000	 3.6359227288e-001	 2.6964280154e+000
 1.1792740634e+000	 3.7512522359e-001	 2.6384918079e+000
 1.1755459252e+000	 3.8664974806e-001	 2.5828042430e+000
 1.1716960598e+000	 3.9816402824e-001	 2.5291175823e+000
 1.1677242090e+000	 4.0966623218e-001	 2.4771692830e+000
 1.1636301494e+000	 4.2115451477e-001	 2.4266821963e+000
 1.1594136936e+000	 4.3262701855e-001	 2.3773648023e+000
 1.1550746897e+000	 4.4408187455e-001	 2.3289114800e+000
 1.1506130226e+000	 4.5551720306e-001	 2.2810028147e+000
 1.1957399543e+000	 3.4222802968e-001	 2.8524243575e+000
 1.1923581122e+000	 3.5383074324e-001	 2.7803800219e+000
 1.1888549124e+000	 3.6542859749e-001	 2.7119554783e+000
 1.1852299930e+000	 3.7701979543e-001	 2.6469249837e+000
 1.1814830259e+000	 3.8860252456e-001	 2.5850466325e+000
 1.1776137167e+000	 4.0017495768e-001	 2.5260624797e+000
 1.1736218060e+000	 4.1173525356e-001	 2.4696987006e+000
 1.1695070694e+000	 4.2328155777e-001	 2.4156657871e+000
 1.1652693183e+000	 4.3481200350e-001	 2.3636587819e+000
 1.1609084002e+000	 4.4632471230e-001	 2.3133575501e+000
 1.1564241995e+000	 4.5781779499e-001	 2.2644270884e+000
 1.2017486977e+000	 3.4394776852e-001	 2.8895237011e+000
 1.1983498615e+000	 3.5560878718e-001	 2.8084039790e+000
 1.1948290576e+000	 3.6726492211e-001	 2.7318192579e+000
 1.1911859226e+000	 3.7891436727e-001	 2.6595357060e+000
 1.1874201265e+000	 3.9055530107e-001	 2.5913022633e+000
 1.1835313736e+000	 4.0218588712e-001	 2.5268507604e+000
 1.1795194030e+000	 4.1380427493e-001	 2.4658960737e+000
 1.1753839893e+000	 4.2540860078e-001	 2.4081363206e+000
 1.1711249430e+000	 4.3699698844e-001	 2.3532530924e+000
 1.1667421108e+000	 4.4856755005e-001	 2.3009117277e+000
 1.1622353763e+000	 4.6011838693e-001	 2.2507616237e+000
 1.1041236075e+000	 4.3711246760e-001	 2.5211376293e+000
 1.0997244276e+000	 4.4806521096e-001	 2.4732097418e+000
 1.0952074263e+000	 4.5899558085e-001	 2.4301241139e+000
 1.0905726007e+000	 4.6990174772e-001	 2.3916793145e+000
 1.0858199844e+000	 4.8078187512e-001	 2.3576589599e+000
 1.0809496479e+000	 4.9163412063e-001	 2.3278319696e+000
 1.0759616992e+000	 5.0245663671e-001	 2.3019528563e+000
 1.0708562836e+000	 5.1324757164e-001	 2.2797620504e+000
 1.0656335844e+000	 5.2400507045e-001	 2.2609862584e+000
 1.0602938227e+000	 5.3472727586e-001	 2.2453388553e+000
 1.0548372581e+000	 5.4541232924e-001	 2.2325203098e+000
 1.1099347844e+000	 4.3941305953e-001	 2.4804402049e+000
 1.1055124509e+000	 4.5042344891e-001	 2.4327471578e+000
 1.1009716760e+000	 4.6141134707e-001	 2.3893221617e+000
 1.0963124565e+000	 4.7237491481e-001	 2.3499620860e+000
 1.0915348264e+000	 4.8331230604e-001	 2.3144492580e+000
 1.0866388566e+000	 4.9422166863e-001	 2.2825517297e+000
 1.0816246555e+000	 5.0510114532e-001	 2.2540235779e+000
 1.0764923693e+000	 5.1594887464e-001	 2.2286052383e+000
 1.0712421822e+000	 5.2676299187e-001	 2.2060238741e+000
 1.0658743165e+000	 5.3754162995e-001	 2.1859937774e+000
 1.0603890332e+000	 5.4828292045e-001	 2.1682168039e+000
 1.1157459613e+000	 4.4171365146e-001	 2.4428449155e+000
 1.1113004742e+000	 4.5278168686e-001	 2.3955724322e+000
 1.1067359256e+000	 4.6382711328e-001	 2.3520027446e+000
 1.1020523123e+000	 4.7484808190e-001	 2.3119309230e+000
 1.0972496684e+000	 4.8584273696e-001	 2.2751378988e+000
 1.0923280653e+000	 4.9680921663e-001	 2.2413907412e+000
 1.0872876119e+000	 5.0774565393e-001	 2.2104429680e+000
 1.0821284550e+000	 5.1865017765e-001	 2.1820348896e+000
 1.0768507800e+000	 5.2952091329e-001	 2.1558939873e+000
 1.0714548103e+000	 5.4035598403e-001	 2.1317353243e+000
 1.0659408082e+000	 5.5115351165e-001	 2.1092619897e+000
 1.1215571382e+000	 4.4401424339e-001	 2.4083257398e+000
 1.1170884975e+000	 4.5513992481e-001	 2.3616579496e+000
 1.1125001752e+000	 4.6624287949e-001	 2.3181365522e+000
 1.1077921681e+000	 4.7732124899e-001	 2.2775547192e+000
 1.1029645105e+000	 4.8837316788e-001	 2.2396918788e+000
 1.0980172740e+000	 4.9939676463e-001	 2.2043140022e+000
 1.0929505682e+000	 5.1039016254e-001	 2.1711739251e+000
 1.0877645407e+000	 5.2135148065e-001	 2.1400117020e+000
 1.0824593778e+000	 5.3227883471e-001	 2.1105549937e+000
 1.0770353041e+000	 5.4317033811e-001	 2.0825194889e+000
 1.0714925832e+000	 5.5402410286e-001	 2.0556093565e+000
 1.1273683150e+000	 4.4631483533e-001	 2.3768572689e+000
 1.1228765208e+000	 4.5749816276e-001	 2.3309767486e+000
 1.1182644248e+000	 4.6865864570e-001	 2.2876949718e+000
 1.1135320239e+000	 4.7979441608e-001	 2.2468031122e+000
 1.1086793525e+000	 4.9090359880e-001	 2.2080789870e+000
 1.1037064826e+000	 5.0198431264e-001	 2.1712873542e+000
 1.0986135245e+000	 5.1303467115e-001	 2.1361802444e+000
 1.0934006264e+000	 5.2405278366e-001	 2.1024973252e+000
 1.0880679756e+000	 5.3503675613e-001	 2.0699662991e+000
 1.0826157979e+000	 5.4598469219e-001	 2.0383033341e+000
 1.0770443583e+000	 5.5689469406e-001	 2.0072135259e+000
 1.1331794919e+000	 4.4861542726e-001	 2.3484146901e+000
 1.1286645441e+000	 4.5985640071e-001	 2.3035025044e+000
 1.1240286744e+000	 4.7107441192e-001	 2.2606500706e+000
 1.1192718797e+000	 4.8226758317e-001	 2.2196464645e+000
 1.1143941945e+000	 4.9343402972e-001	 2.1802677846e+000
 1.1093956913e+000	 5.0457186064e-001	 2.1422774605e+000
 1.1042764808e+000	 5.1567917977e-001	 2.1054265945e+000
 1.0990367122e+000	 5.2675408667e-001	 2.0694543369e+000
 1.0936765734e+000	 5.3779467756e-001	 2.0340882932e+000
 1.0881962917e+000	 5.4879904627e-001	 1.9990449654e+000
 1.0825961333e+000	 5.5976528527e-001	 1.9640302230e+000
 1.1389906688e+000	 4.5091601919e-001	 2.3229737725e+000
 1.1344525674e+000	 4.6221463866e-001	 2.2792095136e+000
 1.1297929240e+000	 4.7349017813e-001	 2.2369745784e+000
 1.1250117355e+000	 4.8474075027e-001	 2.1960558450e+000
 1.1201090366e+000	 4.9596446064e-001	 2.1562275855e+000
 1.1150849000e+000	 5.0715940864e-001	 2.1172517853e+000
 1.1099394371e+000	 5.1832368838e-001	 2.0788784957e+000
 1.1046727979e+000	 5.2945538968e-001	 2.0408462185e+000
 1.0992851713e+000	 5.4055259898e-001	 2.0028823248e+000
 1.0937767855e+000	 5.5161340036e-001	 1.9647035043e+000
 1.0881479084e+000	 5.6263587647e-001	 1.9260162481e+000
 1.1448018457e+000	 4.5321661113e-001	 2.3005108514e+000
 1.1402405908e+000	 4.6457287661e-001	 2.2580726773e+000
 1.1355571736e+000	 4.7590594434e-001	 2.2166418706e+000
 1.1307515913e+000	 4.8721391736e-001	 2.1760030111e+000
 1.1258238786e+000	 4.9849489156e-001	 2.1359284367e+000
 1.1207741087e+000	 5.0974695664e-001	 2.0961785734e+000
 1.1156023934e+000	 5.2096819699e-001	 2.0565022978e+000
 1.1103088836e+000	 5.3215669268e-001	 2.0166373331e+000
 1.1048937691e+000	 5.4331052040e-001	 1.9763106771e+000
 1.0993572793e+000	 5.5442775444e-001	 1.9352390627e+000
 1.0936996834e+000	 5.6550646768e-001	 1.8931294491e+000
 1.1506130226e+000	 4.5551720306e-001	 2.2810028147e+000
 1.1460286141e+000	 4.6693111457e-001	 2.2400674867e+000
 1.1413214233e+000	 4.7832171056e-001	 2.1996259518e+000
 1.1364914471e+000	 4.8968708445e-001	 2.1594603912e+000
 1.1315387206e+000	 5.0102532248e-001	 2.1193411004e+000
 1.1264633174e+000	 5.1233450464e-001	 2.0790268303e+000
 1.1212653497e+000	 5.2361270561e-001	 2.0382651596e+000
 1.1159449693e+000	 5.3485799569e-001	 1.9967929021e+000
 1.1105023669e+000	 5.4606844183e-001	 1.9543365446e+000
 1.1049377731e+000	 5.5724210852e-001	 1.9106127174e+000
 1.0992514585e+000	 5.6837705889e-001	 1.8653286957e+000
 1.1564241995e+000	 4.5781779499e-001	 2.2644270884e+000
 1.1518166374e+000	 4.6928935252e-001	 2.2251700079e+000
 1.1470856729e+000	 4.8073747677e-001	 2.1859014404e+000
 1.1422313029e+000	 4.9216025154e-001	 2.1464010680e+000
 1.1372535626e+000	 5.0355575340e-001	 2.1064370358e+000
 1.1321525260e+000	 5.1492205265e-001	 2.0657663032e+000
 1.1269283061e+000	 5.2625721422e-001	 2.0241350283e+000
 1.1215810550e+000	 5.3755929870e-001	 1.9812789847e+000
 1.1161109647e+000	 5.4882636325e-001	 1.9369240099e+000
 1.1105182669e+000	 5.6005646261e-001	 1.8907864865e+000
 1.1048032335e+000	 5.7124765010e-001	 1.8425738532e+000
 1.1622353763e+000	 4.6011838693e-001	 2.2507616237e+000
 1.1576046607e+000	 4.7164759047e-001	 2.2133568676e+000
 1.1528499225e+000	 4.8315324299e-001	 2.1754435530e+000
 1.1479711587e+000	 4.9463341864e-001	 2.1367987622e+000
 1.1429684047e+000	 5.0608618432e-001	 2.0971883812e+000
 1.1378417347e+000	 5.1750960065e-001	 2.0563674626e+000
 1.1325912624e+000	 5.2890172283e-001	 2.0140806201e+000
 1.1272171407e+000	 5.4026060171e-001	 1.9700624561e+000
 1.1217195625e+000	 5.5158428467e-001	 1.9240380214e+000
 1.1160987607e+000	 5.6287081669e-001	 1.8757233053e+000
 1.1103550086e+000	 5.7411824130e-001	 1.8248257578e+000
 1.0548372581e+000	 5.4541232924e-001	 2.2325203098e+000
 1.0492641886e+000	 5.5605837155e-001	 2.2208700211e+000
 1.0435749506e+000	 5.6666354431e-001	 2.1911126049e+000
 1.0377699195e+000	 5.7722599064e-001	 2.1427202213e+000
 1.0318495091e+000	 5.8774385618e-001	 2.0751717539e+000
 1.0258141726e+000	 5.9821529011e-001	 1.9879537501e+000
 1.0196644016e+000	 6.0863844618e-001	 1.8805613685e+000
 1.0134007268e+000	 6.1901148368e-001	 1.7524993349e+000
 1.0070237178e+000	 6.2933256845e-001	 1.6750487477e+000
 1.0005339831e+000	 6.3959987393e-001	 1.6755100144e+000
 9.9393216958e-001	 6.4981158214e-001	 1.6552156644e+000
 1.0603890332e+000	 5.4828292045e-001	 2.1682168039e+000
 1.0547866317e+000	 5.5898499455e-001	 2.1493657327e+000
 1.0490674504e+000	 5.6964598402e-001	 2.1129161180e+000
 1.0432318664e+000	 5.8026402217e-001	 2.0583327714e+000
 1.0372802960e+000	 5.9083724489e-001	 1.9850866827e+000
 1.0312131945e+000	 6.0136379164e-001	 1.8926559687e+000
 1.0250310563e+000	 6.1184180642e-001	 1.7805268311e+000
 1.0187344148e+000	 6.2226943885e-001	 1.6481945230e+000
 1.0123238427e+000	 6.3264484512e-001	 1.6191065640e+000
 1.0057999514e+000	 6.4296618905e-001	 1.6136891178e+000
 9.9916339153e-001	 6.5323164310e-001	 1.5879855760e+000
 1.0659408082e+000	 5.5115351165e-001	 2.1092619897e+000
 1.0603090748e+000	 5.6191161756e-001	 2.0832461695e+000
 1.0545599501e+000	 5.7262842372e-001	 2.0401363136e+000
 1.0486938133e+000	 5.8330205370e-001	 1.9793897722e+000
 1.0427110829e+000	 5.9393063361e-001	 1.9004695287e+000
 1.0366122165e+000	 6.0451229316e-001	 1.8028451577e+000
 1.0303977111e+000	 6.1504516667e-001	 1.6859937939e+000
 1.0240681029e+000	 6.2552739403e-001	 1.5577346048e+000
 1.0176239675e+000	 6.3595712180e-001	 1.5663169407e+000
 1.0110659197e+000	 6.4633250418e-001	 1.5549276004e+000
 1.0043946135e+000	 6.5665170405e-001	 1.5237172882e+000
 1.0714925832e+000	 5.5402410286e-001	 2.0556093565e+000
 1.0658315179e+000	 5.6483824056e-001	 2.0224658512e+000
 1.0600524498e+000	 5.7561086343e-001	 1.9727288236e+000
 1.0541557603e+000	 5.8634008523e-001	 1.9058480484e+000
 1.0481418698e+000	 5.9702402232e-001	 1.8212783896e+000
 1.0420112385e+000	 6.0766079469e-001	 1.7184807679e+000
 1.0357643658e+000	 6.1824852691e-001	 1.5969231394e+000
 1.0294017909e+000	 6.2878534921e-001	 1.5145538874e+000
 1.0229240923e+000	 6.3926939848e-001	 1.5166131850e+000
 1.0163318881e+000	 6.4969881931e-001	 1.4991595301e+000
 1.0096258354e+000	 6.6007176501e-001	 1.4623457091e+000
 1.0770443583e+000	 5.5689469406e-001	 2.0072135259e+000
 1.0713539610e+000	 5.6776486357e-001	 1.9669804194e+000
 1.0655449496e+000	 5.7859330313e-001	 1.9106503895e+000
 1.0596177072e+000	 5.8937811675e-001	 1.8376655211e+000
 1.0535726567e+000	 6.0011741104e-001	 1.7474724451e+000
 1.0474102604e+000	 6.1080929622e-001	 1.6395233151e+000
 1.0411310206e+000	 6.2145188715e-001	 1.5132767972e+000
 1.0347354790e+000	 6.3204330438e-001	 1.4744807250e+000
 1.0282242172e+000	 6.4258167515e-001	 1.4699296103e+000
 1.0215978564e+000	 6.5306513443e-001	 1.4463199587e+000
 1.0148570574e+000	 6.6349182597e-001	 1.4038067070e+000
 1.0825961333e+000	 5.5976528527e-001	 1.9640302230e+000
 1.0768764041e+000	 5.7069148658e-001	 1.9167466091e+000
 1.0710374493e+000	 5.8157574284e-001	 1.8538588347e+000
 1.0650796542e+000	 5.9241614828e-001	 1.7748011801e+000
 1.0590034436e+000	 6.0321079976e-001	 1.6790119286e+000
 1.0528092824e+000	 6.1395779774e-001	 1.5659343533e+000
 1.0464976753e+000	 6.2465524740e-001	 1.4350177176e+000
 1.0400691670e+000	 6.3530125956e-001	 1.4374497720e+000
 1.0335243420e+000	 6.4589395183e-001	 1.4262015111e+000
 1.0268638247e+000	 6.5643144956e-001	 1.3963448971e+000
 1.0200882793e+000	 6.6691188693e-001	 1.3480370855e+000
 1.0881479084e+000	 5.6263587647e-001	 1.9260162481e+000
 1.0823988472e+000	 5.7361810959e-001	 1.8717222206e+000
 1.0765299491e+000	 5.8455818255e-001	 1.8023130368e+000
 1.0705416011e+000	 5.9545417982e-001	 1.7172150565e+000
 1.0644342305e+000	 6.0630418848e-001	 1.6158581006e+000
 1.0582083044e+000	 6.1710629927e-001	 1.4976764477e+000
 1.0518643301e+000	 6.2785860764e-001	 1.4031212981e+000
 1.0454028550e+000	 6.3855921474e-001	 1.4033966584e+000
 1.0388244668e+000	 6.4920622851e-001	 1.3853651374e+000
 1.0321297931e+000	 6.5979776469e-001	 1.3491712902e+000
 1.0253195013e+000	 6.7033194789e-001	 1.2949745595e+000
 1.0936996834e+000	 5.6550646768e-001	 1.8931294491e+000
 1.0879212903e+000	 5.7654473260e-001	 1.8318660925e+000
 1.0820224488e+000	 5.8754062226e-001	 1.7559729003e+000
 1.0760035481e+000	 5.9849221135e-001	 1.6648681962e+000
 1.0698650174e+000	 6.0939757719e-001	 1.5579732229e+000
 1.0636073263e+000	 6.2025480080e-001	 1.4347131493e+000
 1.0572309848e+000	 6.3106196789e-001	 1.3792905896e+000
 1.0507365431e+000	 6.4181716992e-001	 1.3722579655e+000
 1.0441245917e+000	 6.5251850518e-001	 1.3473576709e+000
 1.0373957614e+000	 6.6316407981e-001	 1.3047369938e+000
 1.0305507232e+000	 6.7375200885e-001	 1.2445577326e+000
 1.0992514585e+000	 5.6837705889e-001	 1.8653286957e+000
 1.0934437334e+000	 5.7947135561e-001	 1.7971380753e+000
 1.0875149485e+000	 5.9052306197e-001	 1.7147993314e+000
 1.0814654950e+000	 6.0153024288e-001	 1.6177226344e+000
 1.0752958043e+000	 6.1249096591e-001	 1.5053205327e+000
 1.0690063483e+000	 6.2340330233e-001	 1.3770089702e+000
 1.0625976395e+000	 6.3426532813e-001	 1.3583926643e+000
 1.0560702311e+000	 6.4507512510e-001	 1.3439712013e+000
 1.0494247165e+000	 6.5583078186e-001	 1.3121172013e+000
 1.0426617297e+000	 6.6653039494e-001	 1.2629807512e+000
 1.0357819452e+000	 6.7717206981e-001	 1.1967260739e+000
 1.1048032335e+000	 5.7124765010e-001	 1.8425738532e+000
 1.0989661765e+000	 5.8239797862e-001	 1.7674990065e+000
 1.0930074483e+000	 5.9350550168e-001	 1.6787542123e+000
 1.0869274420e+000	 6.0456827441e-001	 1.5757413706e+000
 1.0807265912e+000	 6.1558435463e-001	 1.4578642187e+000
 1.0744053702e+000	 6.2655180386e-001	 1.3451157828e+000
 1.0679642943e+000	 6.3746868838e-001	 1.3403654417e+000
 1.0614039191e+000	 6.4833308028e-001	 1.3184747778e+000
 1.0547248413e+000	 6.5914305854e-001	 1.2795827036e+000
 1.0479276981e+000	 6.6989671007e-001	 1.2238421712e+000
 1.0410131671e+000	 6.8059213077e-001	 1.1514198969e+000
 1.1103550086e+000	 5.7411824130e-001	 1.8248257578e+000
 1.1044886196e+000	 5.8532460163e-001	 1.7429106853e+000
 1.0984999480e+000	 5.9648794139e-001	 1.6478003771e+000
 1.0923893889e+000	 6.0760630594e-001	 1.5388883448e+000
 1.0861573781e+000	 6.1867774335e-001	 1.4155693970e+000
 1.0798043922e+000	 6.2970030539e-001	 1.3378710638e+000
 1.0733309490e+000	 6.4067204862e-001	 1.3251477391e+000
 1.0667376072e+000	 6.5159103546e-001	 1.2957079879e+000
 1.0600249662e+000	 6.6245533522e-001	 1.2496940156e+000
 1.0531936664e+000	 6.7326302520e-001	 1.1872617061e+000
 1.0462443890e+000	 6.8401219173e-001	 1.1085803382e+000
 9.9393216958e-001	 6.4981158214e-001	 1.6552156644e+000
 9.8721896307e-001	 6.5996588470e-001	 1.6042931594e+000
 9.8039508767e-001	 6.7006098385e-001	 1.5503167748e+000
 9.7346130578e-001	 6.8009509347e-001	 1.4935814366e+000
 9.6641841782e-001	 6.9006644007e-001	 1.4343837649e+000
 9.5926726201e-001	 6.9997326381e-001	 1.3730215868e+000
 9.5200871409e-001	 7.0981381948e-001	 1.3097934480e+000
 9.4464368698e-001	 7.1958637750e-001	 1.2449981217e+000
 9.3717313045e-001	 7.2928922493e-001	 1.1789341200e+000
 9.2959803077e-001	 7.3892066640e-001	 1.1118992048e+000
 9.2191941026e-001	 7.4847902511e-001	 1.0441899024e+000
 9.9916339153e-001	 6.5323164310e-001	 1.5879855760e+000
 9.9241485235e-001	 6.6343938935e-001	 1.5332159955e+000
 9.8555506182e-001	 6.7358762061e-001	 1.4759874010e+000
 9.7858478634e-001	 6.8367454133e-001	 1.4165959652e+000
 9.7150483055e-001	 6.9369836871e-001	 1.3553389715e+000
 9.6431603708e-001	 7.0365733362e-001	 1.2925143208e+000
 9.5701928627e-001	 7.1354968169e-001	 1.2284200353e+000
 9.4961549586e-001	 7.2337367423e-001	 1.1633537641e+000
 9.4210562061e-001	 7.3312758927e-001	 1.0976122878e+000
 9.3449065198e-001	 7.4280972254e-001	 1.0314910275e+000
 9.2677161768e-001	 7.5241838840e-001	 9.6528355525e-001
 1.0043946135e+000	 6.5665170405e-001	 1.5237172882e+000
 9.9761074164e-001	 6.6691289401e-001	 1.4650016649e+000
 9.9071503597e-001	 6.7711425737e-001	 1.4044163794e+000
 9.8370826690e-001	 6.8725398920e-001	 1.3422589223e+000
 9.7659124328e-001	 6.9733029734e-001	 1.2788273155e+000
 9.6936481214e-001	 7.0734140343e-001	 1.2144196110e+000
 9.6202985845e-001	 7.1728554390e-001	 1.1493333894e+000
 9.5458730474e-001	 7.2716097095e-001	 1.0838652590e+000
 9.4703811077e-001	 7.3696595362e-001	 1.0183103567e+000
 9.3938327320e-001	 7.4669877868e-001	 9.5296185204e-001
 9.3162382511e-001	 7.5635775169e-001	 8.8811045590e-001
 1.0096258354e+000	 6.6007176501e-001	 1.4623457091e+000
 1.0028066309e+000	 6.7038639867e-001	 1.3995859502e+000
 9.9587501012e-001	 6.8064089412e-001	 1.3355404659e+000
 9.8883174746e-001	 6.9083343706e-001	 1.2705081364e+000
 9.8167765600e-001	 7.0096222598e-001	 1.2047877968e+000
 9.7441358721e-001	 7.1102547325e-001	 1.1386777283e+000
 9.6704043063e-001	 7.2102140611e-001	 1.0724751505e+000
 9.5955911362e-001	 7.3094826768e-001	 1.0064757150e+000
 9.5197060093e-001	 7.4080431796e-001	 9.4097300143e-001
 9.4427589441e-001	 7.5058783482e-001	 8.7625801779e-001
 9.3647603253e-001	 7.6029711499e-001	 8.1261870545e-001
 1.0148570574e+000	 6.6349182597e-001	 1.4038067070e+000
 1.0080025202e+000	 6.7385990332e-001	 1.3369055691e+000
 1.0010349843e+000	 6.8416753088e-001	 1.2692973251e+000
 9.9395522802e-001	 6.9441288492e-001	 1.2012823163e+000
 9.8676406873e-001	 7.0459415461e-001	 1.1331602656e+000
 9.7946236227e-001	 7.1470954306e-001	 1.0652297612e+000
 9.7205100281e-001	 7.2475726831e-001	 9.9778774248e-001
 9.6453092250e-001	 7.3473556440e-001	 9.3112898813e-001
 9.5690309110e-001	 7.4464268230e-001	 8.6554560697e-001
 9.4916851563e-001	 7.5447689096e-001	 8.0132653433e-001
 9.4132823995e-001	 7.6423647828e-001	 7.3875703398e-001
 1.0200882793e+000	 6.6691188693e-001	 1.3480370855e+000
 1.0131984095e+000	 6.7733340798e-001	 1.2768981508e+000
 1.0061949584e+000	 6.8769416764e-001	 1.2056255071e+000
 9.9907870857e-001	 6.9799233278e-001	 1.1345210285e+000
 9.9185048145e-001	 7.0822608324e-001	 1.0638854001e+000
 9.8451113734e-001	 7.1839361287e-001	 9.9401759492e-001
 9.7706157499e-001	 7.2849313052e-001	 9.2521435301e-001
 9.6950273138e-001	 7.3852286113e-001	 8.5776966327e-001
 9.6183558126e-001	 7.4848104664e-001	 7.9197424993e-001
 9.5406113684e-001	 7.5836594710e-001	 7.2811506451e-001
 9.4618044737e-001	 7.6817584157e-001	 6.6647478445e-001
 1.0253195013e+000	 6.7033194789e-001	 1.2949745595e+000
 1.0183942988e+000	 6.8080691264e-001	 1.2195022125e+000
 1.0113549326e+000	 6.9122080440e-001	 1.1444644249e+000
 1.0042021891e+000	 7.0157178064e-001	 1.0701646751e+000
 9.9693689418e-001	 7.1185801187e-001	 9.9690468548e-001
 9.8955991240e-001	 7.2207768267e-001	 9.2498389138e-001
 9.8207214717e-001	 7.3222899273e-001	 8.5469891374e-001
 9.7447454025e-001	 7.4231015785e-001	 7.8634303513e-001
 9.6676807141e-001	 7.5231941098e-001	 7.2020568108e-001
 9.5895375806e-001	 7.6225500324e-001	 6.5657190770e-001
 9.5103265480e-001	 7.7211520486e-001	 5.9572189704e-001
 1.0305507232e+000	 6.7375200885e-001	 1.2445577326e+000
 1.0235901880e+000	 6.8428041729e-001	 1.1646571370e+000
 1.0165149067e+000	 6.9474744115e-001	 1.0857543323e+000
 1.0093256697e+000	 7.0515122850e-001	 1.0081544732e+000
 1.0020233069e+000	 7.1548994050e-001	 9.3216039369e-001
 9.9460868746e-001	 7.2576175248e-001	 8.5807206906e-001
 9.8708271935e-001	 7.3596485494e-001	 7.8618608156e-001
 9.7944634913e-001	 7.4609745457e-001	 7.1679509046e-001
 9.7170056157e-001	 7.5615777532e-001	 6.5018730820e-001
 9.6384637927e-001	 7.6614405938e-001	 5.8664598366e-001
 9.5588486222e-001	 7.7605456814e-001	 5.2644889399e-001
 1.0357819452e+000	 6.7717206981e-001	 1.1967260739e+000
 1.0287860773e+000	 6.8775392195e-001	 1.1123031507e+000
 1.0216748808e+000	 6.9827407791e-001	 1.0294363031e+000
 1.0144491502e+000	 7.0873067636e-001	 9.4843243384e-001
 1.0071097196e+000	 7.1912186913e-001	 8.6959556326e-001
 9.9965746252e-001	 7.2944582229e-001	 7.9322628416e-001
 9.9209329153e-001	 7.3970071714e-001	 7.1962122029e-001
 9.8441815801e-001	 7.4988475129e-001	 6.4907249050e-001
 9.7663305173e-001	 7.5999613966e-001	 5.8186717953e-001
 9.6873900048e-001	 7.7003311551e-001	 5.1828681685e-001
 9.6073706964e-001	 7.7999393143e-001	 4.5860686490e-001
 1.0410131671e+000	 6.8059213077e-001	 1.1514198969e+000
 1.0339819666e+000	 6.9122742661e-001	 1.0623813024e+000
 1.0268348550e+000	 7.0180071467e-001	 9.7545221002e-001
 1.0195726308e+000	 7.1231012422e-001	 8.9094134207e-001
 1.0121961323e+000	 7.2275379776e-001	 8.0915398017e-001
 1.0047062376e+000	 7.3312989210e-001	 7.3039141198e-001
 9.9710386370e-001	 7.4343657934e-001	 6.5495038290e-001
 9.8938996688e-001	 7.5367204801e-001	 5.8312255404e-001
 9.8156554189e-001	 7.6383450400e-001	 5.1519396762e-001
 9.7363162170e-001	 7.7392217165e-001	 4.5144452127e-001
 9.6558927706e-001	 7.8393329472e-001	 3.9214745247e-001
 1.0462443890e+000	 6.8401219173e-001	 1.1085803382e+000
 1.0391778559e+000	 6.9470093126e-001	 1.0148334431e+000
 1.0319948291e+000	 7.0532735142e-001	 9.2374470492e-001
 1.0246961113e+000	 7.1588957207e-001	 8.3562473780e-001
 1.0172825451e+000	 7.2638572639e-001	 7.5078015917e-001
 1.0097550126e+000	 7.3681396190e-001	 6.6951302896e-001
 1.0021144359e+000	 7.4717244155e-001	 5.9212029427e-001
 9.9436177576e-001	 7.5745934473e-001	 5.1889324099e-001
 9.8649803205e-001	 7.6767286834e-001	 4.5011695378e-001
 9.7852424291e-001	 7.7781122778e-001	 3.8606978568e-001
 9.7044148448e-001	 7.8787265800e-001	 3.2702283872e-001
 9.2191941026e-001	 7.4847902511e-001	 1.0441899024e+000
 9.1413832689e-001	 7.5796264377e-001	 9.7491858100e-001
 9.0625587380e-001	 7.6736988554e-001	 9.0359371540e-001
 8.9827317881e-001	 7.7669913498e-001	 8.3042706982e-001
 8.9019140387e-001	 7.8594879892e-001	 7.5562905705e-001
 8.8201174454e-001	 7.9511730741e-001	 6.7940836943e-001
 8.7373542939e-001	 8.0420311456e-001	 6.0197161669e-001
 8.6536371941e-001	 8.1320469944e-001	 5.2352297173e-001
 8.5689790733e-001	 8.2212056687e-001	 4.4426382498e-001
 8.4833931700e-001	 8.3094924832e-001	 3.6439244833e-001
 8.3968930268e-001	 8.3968930267e-001	 2.8410366933e-001
 9.2677161768e-001	 7.5241838840e-001	 9.6528355525e-001
 9.1894958125e-001	 7.6195192084e-001	 8.9656649847e-001
 9.1102564156e-001	 7.7140867442e-001	 8.2579400737e-001
 9.0300093238e-001	 7.8078702517e-001	 7.5317744898e-001
 8.9487662178e-001	 7.9008537155e-001	 6.7892680080e-001
 8.8665391161e-001	 7.9930213535e-001	 6.0325027977e-001
 8.7833403692e-001	 8.0843576254e-001	 5.2635397834e-001
 8.6991826530e-001	 8.1748472417e-001	 4.4844150845e-001
 8.6140789632e-001	 8.2644751722e-001	 3.6971365443e-001
 8.5280426077e-001	 8.3532266542e-001	 2.9036803545e-001
 8.4410872006e-001	 8.4410872006e-001	 2.1059877855e-001
 9.3162382511e-001	 7.5635775169e-001	 8.8811045590e-001
 9.2376083560e-001	 7.6594119792e-001	 8.1987625015e-001
 9.1579540932e-001	 7.7544746329e-001	 7.4958616864e-001
 9.0772868596e-001	 7.8487491536e-001	 6.7745124861e-001
 8.9956183970e-001	 7.9422194418e-001	 6.0368109796e-001
 8.9129607869e-001	 8.0348696329e-001	 5.2848352215e-001
 8.8293264444e-001	 8.1266841051e-001	 4.5206415833e-001
 8.7447281119e-001	 8.2176474891e-001	 3.7462611757e-001
 8.6591788530e-001	 8.3077446758e-001	 2.9636963607e-001
 8.5726920455e-001	 8.3969608252e-001	 2.1749173616e-001
 8.4852813744e-001	 8.4852813744e-001	 1.3818589800e-001
 9.3647603253e-001	 7.6029711499e-001	 8.1261870545e-001
 9.2857208995e-001	 7.6993047499e-001	 7.4479656646e-001
 9.2056517708e-001	 7.7948625217e-001	 6.7491956040e-001
 9.1245643953e-001	 7.8896280554e-001	 6.0319846194e-001
 9.0424705761e-001	 7.9835851681e-001	 5.2984257493e-001
 8.9593824577e-001	 8.0767179122e-001	 4.5505935712e-001
 8.8753125196e-001	 8.1690105849e-001	 3.7905405224e-001
 8.7902735709e-001	 8.2604477364e-001	 3.0202933037e-001
 8.7042787429e-001	 8.3510141793e-001	 2.2418493742e-001
 8.6173414832e-001	 8.4406949962e-001	 1.4571735458e-001
 8.5294755483e-001	 8.5294755483e-001	 6.6819468589e-002
 9.4132823995e-001	 7.6423647828e-001	 7.3875703398e-001
 9.3338334430e-001	 7.7391975207e-001	 6.7127678898e-001
 9.2533494483e-001	 7.8352504104e-001	 6.0174413728e-001
 9.1718419310e-001	 7.9305069573e-001	 5.3036965814e-001
 9.0893227553e-001	 8.0249508944e-001	 4.5736241679e-001
 9.0058041285e-001	 8.1185661916e-001	 3.8292958688e-001
 8.9212985949e-001	 8.2113370646e-001	 3.0727608044e-001
 8.8358190298e-001	 8.3032479838e-001	 2.3060418633e-001
 8.7493786328e-001	 8.3942836828e-001	 1.5311321781e-001
 8.6619909210e-001	 8.4844291672e-001	 7.4999170473e-002
 8.5736697221e-001	 8.5736697221e-001	-3.5456090407e-003
 9.4618044737e-001	 7.6817584157e-001	 6.6647478445e-001
 9.3819459866e-001	 7.7790902914e-001	 5.9926685474e-001
 9.3010471259e-001	 7.8756382991e-001	 5.3001043217e-001
 9.2191194667e-001	 7.9713858591e-001	 4.5891596764e-001
 9.1361749344e-001	 8.0663166206e-001	 3.8619235304e-001
 9.0522257992e-001	 8.1604144709e-001	 3.1204654140e-001
 8.9672846701e-001	 8.2536635443e-001	 2.3668317468e-001
 8.8813644887e-001	 8.3460482311e-001	 1.6030422005e-001
 8.7944785226e-001	 8.4375531864e-001	 8.3108615732e-002
 8.7066403587e-001	 8.5281633381e-001	 5.2919270514e-003
 8.6178638959e-001	 8.6178638959e-001	-7.2953986289e-002
 9.5103265480e-001	 7.7211520486e-001	 5.9572189704e-001
 9.4300585301e-001	 7.8189830621e-001	 5.2871728104e-001
 9.3487448035e-001	 7.9160261878e-001	 4.5966954148e-001
 9.2663970025e-001	 8.0122647609e-001	 3.8878906776e-001
 9.1830271136e-001	 8.1076823469e-001	 3.1628464365e-001
 9.0986474700e-001	 8.2022627503e-001	 2.4236306495e-001
 9.0132707453e-001	 8.2959900240e-001	 1.6722876496e-001
 8.9269099476e-001	 8.3888484785e-001	 9.1083448684e-002
 8.8395784125e-001	 8.4808226899e-001	 1.4125736642e-002
 8.7512897964e-001	 8.5718975091e-001	-6.3449180847e-002
 8.6620580698e-001	 8.6620580698e-001	-1.4144987803e-001
 9.5588486222e-001	 7.7605456814e-001	 5.2644889399e-001
 9.4781710736e-001	 7.8588758328e-001	 4.5957915074e-001
 9.3964424810e-001	 7.9564140765e-001	 3.9067311077e-001
 9.3136745382e-001	 8.0531436628e-001	 3.1994116885e-001
 9.2298792927e-001	 8.1490480731e-001	 2.4759206567e-001
 9.1450691408e-001	 8.2441110296e-001	 1.7383250304e-001
 9.0592568206e-001	 8.3383165037e-001	 9.8866766976e-002
 8.9724554065e-001	 8.4316487258e-001	 2.2896359636e-002
 8.8846783023e-001	 8.5240921934e-001	-5.3880358898e-002
 8.7959392342e-001	 8.6156316801e-001	-1.3126851822e-001
 8.7062522436e-001	 8.7062522436e-001	-2.0907707367e-001
 9.6073706964e-001	 7.7999393143e-001	 4.5860686490e-001
 9.5262836171e-001	 7.8987686035e-001	 3.9180409793e-001
 9.4441401586e-001	 7.9968019652e-001	 3.2297332098e-001
 9.3609520739e-001	 8.0940225646e-001	 2.5232500083e-001
 9.2767314719e-001	 8.1904137994e-001	 1.8006790011e-001
 9.1914908115e-001	 8.2859593089e-001	 1.0640868979e-001
 9.1052428958e-001	 8.3806429834e-001	 3.1551569804e-002
 9.0180008654e-001	 8.4744489731e-001	-4.4302101288e-002
 8.9297781922e-001	 8.5673616969e-001	-1.2095416672e-001
 8.8405886719e-001	 8.6593658510e-001	-1.9821002103e-001
 8.7504464174e-001	 8.7504464174e-001	-2.7587894795e-001
 9.6558927706e-001	 7.8393329472e-001	 3.9214745247e-001
 9.5743961606e-001	 7.9386613742e-001	 3.2534429416e-001
 9.4918378362e-001	 8.0371898539e-001	 2.5652287489e-001
 9.4082296096e-001	 8.1349014664e-001	 1.8589380012e-001
 9.3235836510e-001	 8.2317795256e-001	 1.1366591930e-001
 9.2379124823e-001	 8.3278075882e-001	 4.0045935597e-002
 9.1512289710e-001	 8.4229694631e-001	-3.4761975985e-002
 9.0635463244e-001	 8.5172492204e-001	-1.1055654140e-001
 8.9748780820e-001	 8.6106312004e-001	-1.8713975017e-001
 8.8852381096e-001	 8.7031000219e-001	-2.6431720696e-001
 8.7946405912e-001	 8.7946405912e-001	-3.4189847129e-001
 9.7044148448e-001	 7.8787265800e-001	 3.2702283872e-001
 9.6225087041e-001	 7.9785541449e-001	 2.6015243492e-001
 9.5395355137e-001	 8.0775777425e-001	 1.9127498412e-001
 9.4555071453e-001	 8.1757803682e-001	 1.2060129701e-001
 9.3704358302e-001	 8.2731452518e-001	 4.8340374612e-002
 9.2843341530e-001	 8.3696558675e-001	-2.5300984703e-002
 9.1972150462e-001	 8.4652959428e-001	-1.0011856986e-001
 9.1090917833e-001	 8.5600494677e-001	-1.7591113231e-001
 9.0199779719e-001	 8.6539007039e-001	-2.5248075097e-001
 8.9298875473e-001	 8.7468341929e-001	-3.2963318589e-001
 8.8388347650e-001	 8.8388347650e-001	-4.0717821993e-001
 8.3968930268e-001	 8.3968930267e-001	 2.8410366933e-001
 8.3094924832e-001	 8.4833931700e-001	 2.1502928634e-001
 8.2212056687e-001	 8.5689790733e-001	 1.4513694858e-001
 8.1320469944e-001	 8.6536371941e-001	 7.4653984356e-002
 8.0420311456e-001	 8.7373542939e-001	 3.8041912299e-003
 7.9511730741e-001	 8.8201174454e-001	-6.7192478562e-002
 7.8594879892e-001	 8.9019140387e-001	-1.3812021991e-001
 7.7669913498e-001	 8.9827317881e-001	-2.0876766318e-001
 7.6736988554e-001	 9.0625587380e-001	-2.7892814852e-001
 7.5796264377e-001	 9.1413832689e-001	-3.4839998575e-001
 7.4847902511e-001	 9.2191941026e-001	-4.1698669919e-001
 8.4410872006e-001	 8.4410872006e-001	 2.1059877855e-001
 8.3532266542e-001	 8.5280426077e-001	 1.4280704551e-001
 8.2644751722e-001	 8.6140789632e-001	 7.4410810089e-002
 8.1748472417e-001	 8.6991826530e-001	 5.6268858179e-003
 8.0843576254e-001	 8.7833403692e-001	-6.3331693172e-002
 7.9930213535e-001	 8.8665391161e-001	-1.3225597651e-001
 7.9008537155e-001	 8.9487662178e-001	-2.0094138867e-001
 7.8078702517e-001	 9.0300093238e-001	-2.6918800619e-001
 7.7140867442e-001	 9.1102564156e-001	-3.3680082058e-001
 7.6195192084e-001	 9.1894958125e-001	-4.0358998621e-001
 7.5241838840e-001	 9.2677161768e-001	-4.6937105305e-001
 8.4852813744e-001	 8.4852813744e-001	 1.3818589800e-001
 8.3969608252e-001	 8.5726920455e-001	 7.1468415579e-002
 8.3077446758e-001	 8.6591788530e-001	 4.3595903025e-003
 8.2176474891e-001	 8.7447281119e-001	-6.2934156332e-002
 8.1266841051e-001	 8.8293264444e-001	-1.3021043199e-001
 8.0348696329e-001	 8.9129607869e-001	-1.9727116769e-001
 7.9422194418e-001	 8.9956183970e-001	-2.6392289834e-001
 7.8487491536e-001	 9.0772868596e-001	-3.2997702896e-001
 7.7544746329e-001	 9.1579540932e-001	-3.9525008618e-001
 7.6594119792e-001	 9.2376083560e-001	-4.5956395445e-001
 7.5635775169e-001	 9.3162382511e-001	-5.2274609662e-001
 8.5294755483e-001	 8.5294755483e-001	 6.6819468589e-002
 8.4406949962e-001	 8.6173414832e-001	 9.7087239725e-004
 8.3510141793e-001	 8.7042787429e-001	-6.5056163959e-002
 8.2604477364e-001	 8.7902735709e-001	-1.3106548968e-001
 8.1690105849e-001	 8.8753125196e-001	-1.9686523398e-001
 8.0767179122e-001	 8.9593824577e-001	-2.6226809024e-001
 7.9835851681e-001	 9.0424705761e-001	-3.2709158609e-001
 7.8896280554e-001	 9.1245643953e-001	-3.9115833878e-001
 7.7948625217e-001	 9.2056517708e-001	-4.5429629541e-001
 7.6993047499e-001	 9.2857208995e-001	-5.1633895749e-001
 7.6029711499e-001	 9.3647603253e-001	-5.7712558953e-001
 8.5736697221e-001	 8.5736697221e-001	-3.5456090407e-003
 8.4844291672e-001	 8.6619909210e-001	-6.8727713524e-002
 8.3942836828e-001	 8.7493786328e-001	-1.3387557679e-001
 8.3032479838e-001	 8.8358190298e-001	-1.9880319876e-001
 8.2113370646e-001	 8.9212985949e-001	-2.6332911129e-001
 8.1185661916e-001	 9.0058041285e-001	-3.2727665250e-001
 8.0249508944e-001	 9.0893227553e-001	-3.9047422646e-001
 7.9305069573e-001	 9.1718419310e-001	-4.5275554785e-001
 7.8352504104e-001	 9.2533494483e-001	-5.1395987102e-001
 7.7391975207e-001	 9.3338334430e-001	-5.7393220304e-001
 7.6423647828e-001	 9.4132823995e-001	-6.3252350038e-001
 8.6178638959e-001	 8.6178638959e-001	-7.2953986289e-002
 8.5281633381e-001	 8.7066403587e-001	-1.3766908714e-001
 8.4375531864e-001	 8.7944785226e-001	-2.0213745165e-001
 8.3460482311e-001	 8.8813644887e-001	-2.6618311176e-001
 8.2536635443e-001	 8.9672846701e-001	-3.2963488446e-001
 8.1604144709e-001	 9.0522257992e-001	-3.9232663630e-001
 8.0663166206e-001	 9.1361749344e-001	-4.5409753294e-001
 7.9713858591e-001	 9.2191194667e-001	-5.1479227308e-001
 7.8756382991e-001	 9.3010471259e-001	-5.7426130655e-001
 7.7790902914e-001	 9.3819459866e-001	-6.3236103592e-001
 7.6817584157e-001	 9.4618044737e-001	-6.8895400138e-001
 8.6620580698e-001	 8.6620580698e-001	-1.4144987803e-001
 8.5718975091e-001	 8.7512897964e-001	-2.0589461867e-001
 8.4808226899e-001	 8.8395784125e-001	-2.6988027952e-001
 8.3888484785e-001	 8.9269099476e-001	-3.3324080711e-001
 8.2959900240e-001	 9.0132707453e-001	-3.9581518733e-001
 8.2022627503e-001	 9.0986474700e-001	-4.5744770027e-001
 8.1076823469e-001	 9.1830271136e-001	-5.1798815957e-001
 8.0122647609e-001	 9.2663970025e-001	-5.7729213601e-001
 7.9160261878e-001	 9.3487448035e-001	-6.3522116451e-001
 7.8189830621e-001	 9.4300585301e-001	-6.9164293451e-001
 7.7211520486e-001	 9.5103265480e-001	-7.4643146312e-001
 8.7062522436e-001	 8.7062522436e-001	-2.0907707367e-001
 8.6156316801e-001	 8.7959392342e-001	-2.7344531314e-001
 8.5240921934e-001	 8.8846783023e-001	-3.3714224684e-001
 8.4316487258e-001	 8.9724554065e-001	-4.0001161979e-001
 8.3383165037e-001	 9.0592568206e-001	-4.6190247181e-001
 8.2441110296e-001	 9.1450691408e-001	-5.2266938287e-001
 8.1490480731e-001	 9.2298792927e-001	-5.8217270246e-001
 8.0531436628e-001	 9.3136745382e-001	-6.4027876272e-001
 7.9564140765e-001	 9.3964424810e-001	-6.9686007467e-001
 7.8588758328e-001	 9.4781710736e-001	-7.5179550739e-001
 7.7605456814e-001	 9.5588486222e-001	-8.0497044956e-001
 8.7504464174e-001	 8.7504464174e-001	-2.7587894795e-001
 8.6593658510e-001	 8.8405886719e-001	-3.4036181956e-001
 8.5673616969e-001	 8.9297781922e-001	-4.0396124321e-001
 8.4744489731e-001	 9.0180008654e-001	-4.6653064748e-001
 8.3806429834e-001	 9.1052428958e-001	-5.2792901242e-001
 8.2859593089e-001	 9.1914908115e-001	-5.8802110551e-001
 8.1904137994e-001	 9.2767314719e-001	-6.4667770119e-001
 8.0940225646e-001	 9.3609520739e-001	-7.0377578363e-001
 7.9968019652e-001	 9.4441401586e-001	-7.5919873232e-001
 7.8987686035e-001	 9.5262836171e-001	-8.1283649007e-001
 7.7999393143e-001	 9.6073706964e-001	-8.6458571315e-001
 8.7946405912e-001	 8.7946405912e-001	-3.4189847129e-001
 8.7031000219e-001	 8.8852381096e-001	-4.0668443989e-001
 8.6106312004e-001	 8.9748780820e-001	-4.7037486885e-001
 8.5172492204e-001	 9.0635463244e-001	-5.3283275653e-001
 8.4229694631e-001	 9.1512289710e-001	-5.9392691077e-001
 8.3278075882e-001	 9.2379124823e-001	-6.5353217544e-001
 8.2317795256e-001	 9.3235836510e-001	-7.1152964028e-001
 8.1349014664e-001	 9.4082296096e-001	-7.6780683348e-001
 8.0371898539e-001	 9.4918378362e-001	-8.2225789663e-001
 7.9386613742e-001	 9.5743961606e-001	-8.7478374177e-001
 7.8393329472e-001	 9.6558927706e-001	-9.2529219009e-001
 8.8388347650e-001	 8.8388347650e-001	-4.0717821993e-001
 8.7468341929e-001	 8.9298875473e-001	-4.7245313774e-001
 8.6539007039e-001	 9.0199779719e-001	-5.3642044181e-001
 8.5600494677e-001	 9.1090917833e-001	-5.9895258775e-001
 8.4652959428e-001	 9.1972150462e-001	-6.5992809989e-001
 8.3696558675e-001	 9.2843341530e-001	-7.1923178861e-001
 8.2731452518e-001	 9.3704358302e-001	-7.7675495056e-001
 8.1757803682e-001	 9.4555071453e-001	-8.3239555116e-001
 8.0775777425e-001	 9.5395355137e-001	-8.8605838908e-001
 7.9785541449e-001	 9.6225087041e-001	-9.3765524233e-001
 7.8787265800e-001	 9.7044148448e-001	-9.8710499573e-001
 7.4847902511e-001	 9.2191941026e-001	-4.1698669919e-001
 7.3892066640e-001	 9.2959803077e-001	-5.0049837142e-001
 7.2928922493e-001	 9.3717313045e-001	-5.8468953927e-001
 7.1958637750e-001	 9.4464368698e-001	-6.6939002917e-001
 7.0981381948e-001	 9.5200871409e-001	-7.5443388776e-001
 6.9997326381e-001	 9.5926726201e-001	-8.3965954499e-001
 6.9006644007e-001	 9.6641841782e-001	-9.2490996281e-001
 6.8009509347e-001	 9.7346130578e-001	-1.0100327697e+000
 6.7006098385e-001	 9.8039508767e-001	-1.0948803804e+000
 6.5996588470e-001	 9.8721896307e-001	-1.1793101018e+000
 6.4981158214e-001	 9.9393216958e-001	-1.2631842239e+000
 7.5241838840e-001	 9.2677161768e-001	-4.6937105305e-001
 7.4280972254e-001	 9.3449065198e-001	-5.5027063856e-001
 7.3312758927e-001	 9.4210562061e-001	-6.3208109653e-001
 7.2337367423e-001	 9.4961549586e-001	-7.1462482834e-001
 7.1354968169e-001	 9.5701928627e-001	-7.9772834861e-001
 7.0365733362e-001	 9.6431603708e-001	-8.8122245712e-001
 6.9369836871e-001	 9.7150483055e-001	-9.6494239641e-001
 6.8367454133e-001	 9.7858478634e-001	-1.0487279949e+000
 6.7358762061e-001	 9.8555506182e-001	-1.1324237956e+000
 6.6343938935e-001	 9.9241485235e-001	-1.2158791702e+000
 6.5323164310e-001	 9.9916339153e-001	-1.2989484186e+000
 7.5635775169e-001	 9.3162382511e-001	-5.2274609662e-001
 7.4669877868e-001	 9.3938327320e-001	-6.0092882467e-001
 7.3696595362e-001	 9.4703811077e-001	-6.8024960897e-001
 7.2716097095e-001	 9.5458730474e-001	-7.6052347557e-001
 7.1728554390e-001	 9.6202985845e-001	-8.4156946053e-001
 7.0734140343e-001	 9.6936481214e-001	-9.2321079064e-001
 6.9733029734e-001	 9.7659124328e-001	-1.0052750497e+000
 6.8725398920e-001	 9.8370826690e-001	-1.0875943303e+000
 6.7711425737e-001	 9.9071503597e-001	-1.1700053713e+000
 6.6691289401e-001	 9.9761074164e-001	-1.2523496801e+000
 6.5665170405e-001	 1.0043946135e+000	-1.3344736412e+000
 7.6029711499e-001	 9.3647603253e-001	-5.7712558953e-001
 7.5058783482e-001	 9.4427589441e-001	-6.5248818927e-001
 7.4080431796e-001	 9.5197060093e-001	-7.2921186641e-001
 7.3094826768e-001	 9.5955911362e-001	-8.0710432059e-001
 7.2102140611e-001	 9.6704043063e-001	-8.8597716195e-001
 7.1102547325e-001	 9.7441358721e-001	-9.6564610050e-001
 7.0096222598e-001	 9.8167765600e-001	-1.0459311211e+000
 6.9083343706e-001	 9.8883174746e-001	-1.1266566441e+000
 6.8064089412e-001	 9.9587501012e-001	-1.2076516706e+000
 6.7038639867e-001	 1.0028066309e+000	-1.2887499143e+000
 6.6007176501e-001	 1.0096258354e+000	-1.3697899172e+000
 7.6423647828e-001	 9.4132823995e-001	-6.3252350038e-001
 7.5447689096e-001	 9.4916851563e-001	-7.0496416968e-001
 7.4464268230e-001	 9.5690309110e-001	-7.7898480442e-001
 7.3473556440e-001	 9.6453092250e-001	-8.5438582596e-001
 7.2475726831e-001	 9.7205100281e-001	-9.3097147027e-001
 7.1470954306e-001	 9.7946236227e-001	-1.0085499860e+000
 7.0459415461e-001	 9.8676406873e-001	-1.0869338182e+000
 6.9441288492e-001	 9.9395522802e-001	-1.1659397770e+000
 6.8416753088e-001	 1.0010349843e+000	-1.2453891923e+000
 6.7385990332e-001	 1.0080025202e+000	-1.3251080527e+000
 6.6349182597e-001	 1.0148570574e+000	-1.4049271307e+000
 7.6817584157e-001	 9.4618044737e-001	-6.8895400138e-001
 7.5836594710e-001	 9.5406113684e-001	-7.5837237648e-001
 7.4848104664e-001	 9.6183558126e-001	-8.2958550065e-001
 7.3852286113e-001	 9.6950273138e-001	-9.0238656420e-001
 7.2849313052e-001	 9.7706157499e-001	-9.7657247992e-001
 7.1839361287e-001	 9.8451113734e-001	-1.0519440897e+000
 7.0822608324e-001	 9.9185048145e-001	-1.1283063568e+000
 6.9799233278e-001	 9.9907870857e-001	-1.2054685431e+000
 6.8769416764e-001	 1.0061949584e+000	-1.2832443719e+000
 6.7733340798e-001	 1.0131984095e+000	-1.3614521756e+000
 6.6691188693e-001	 1.0200882793e+000	-1.4399150283e+000
 7.7211520486e-001	 9.5103265480e-001	-7.4643146312e-001
 7.6225500324e-001	 9.5895375806e-001	-8.1272858910e-001
 7.5231941098e-001	 9.6676807141e-001	-8.8103117112e-001
 7.4231015785e-001	 9.7447454025e-001	-9.5112521494e-001
 7.3222899273e-001	 9.8207214717e-001	-1.0228003603e+000
 7.2207768267e-001	 9.8955991240e-001	-1.0958500962e+000
 7.1185801187e-001	 9.9693689418e-001	-1.1700719614e+000
 7.0157178064e-001	 1.0042021891e+000	-1.2452677302e+000
 6.9122080440e-001	 1.0113549326e+000	-1.3212435838e+000
 6.8080691264e-001	 1.0183942988e+000	-1.3978102656e+000
 6.7033194789e-001	 1.0253195013e+000	-1.4747832226e+000
 7.7605456814e-001	 9.5588486222e-001	-8.0497044956e-001
 7.6614405938e-001	 9.6384637927e-001	-8.6804875150e-001
 7.5615777532e-001	 9.7170056157e-001	-9.3333916674e-001
 7.4609745457e-001	 9.7944634913e-001	-1.0006205622e+000
 7.3596485494e-001	 9.8708271935e-001	-1.0696753541e+000
 7.2576175248e-001	 9.9460868746e-001	-1.1402897312e+000
 7.1548994050e-001	 1.0020233069e+000	-1.2122538644e+000
 7.0515122850e-001	 1.0093256697e+000	-1.2853621008e+000
 6.9474744115e-001	 1.0165149067e+000	-1.3594131424e+000
 6.8428041729e-001	 1.0235901880e+000	-1.4342102108e+000
 6.7375200885e-001	 1.0305507232e+000	-1.5095611956e+000
 7.7999393143e-001	 9.6073706964e-001	-8.6458571315e-001
 7.7003311551e-001	 9.6873900048e-001	-9.2434896805e-001
 7.5999613966e-001	 9.7663305173e-001	-9.8652696994e-001
 7.4988475129e-001	 9.8441815801e-001	-1.0508914919e+000
 7.3970071714e-001	 9.9209329153e-001	-1.1172177749e+000
 7.2944582229e-001	 9.9965746252e-001	-1.1852847603e+000
 7.1912186913e-001	 1.0071097196e+000	-1.2548753066e+000
 7.0873067636e-001	 1.0144491502e+000	-1.3257763925e+000
 6.9827407791e-001	 1.0216748808e+000	-1.3977793041e+000
 6.8775392195e-001	 1.0287860773e+000	-1.4706798066e+000
 6.7717206981e-001	 1.0357819452e+000	-1.5442783017e+000
 7.8393329472e-001	 9.6558927706e-001	-9.2529219009e-001
 7.7392217165e-001	 9.7363162170e-001	-9.8164549949e-001
 7.6383450400e-001	 9.8156554189e-001	-1.0406121913e+000
 7.5367204801e-001	 9.8938996688e-001	-1.1019569889e+000
 7.4343657934e-001	 9.9710386370e-001	-1.1654480063e+000
 7.3312989210e-001	 1.0047062376e+000	-1.2308569881e+000
 7.2275379776e-001	 1.0121961323e+000	-1.2979595360e+000
 7.1231012422e-001	 1.0195726308e+000	-1.3665353188e+000
 7.0180071467e-001	 1.0268348550e+000	-1.4363682681e+000
 6.9122742661e-001	 1.0339819666e+000	-1.5072467584e+000
 6.8059213077e-001	 1.0410131671e+000	-1.5789637714e+000
 7.8787265800e-001	 9.7044148448e-001	-9.8710499573e-001
 7.7781122778e-001	 9.7852424291e-001	-1.0399547590e+000
 7.6767286834e-001	 9.8649803205e-001	-1.0956125664e+000
 7.5745934473e-001	 9.9436177576e-001	-1.1538361352e+000
 7.4717244155e-001	 1.0021144359e+000	-1.2143864992e+000
 7.3681396190e-001	 1.0097550126e+000	-1.2770282575e+000
 7.2638572639e-001	 1.0172825451e+000	-1.3415298088e+000
 7.1588957207e-001	 1.0246961113e+000	-1.4076635697e+000
 7.0532735142e-001	 1.0319948291e+000	-1.4752061786e+000
 6.9470093126e-001	 1.0391778559e+000	-1.5439386835e+000
 6.8401219173e-001	 1.0462443890e+000	-1.6136467140e+000
 6.4981158214e-001	 9.9393216958e-001	-1.2631842239e+000
 6.3959987393e-001	 1.0005339831e+000	-1.2286383703e+000
 6.2933256845e-001	 1.0070237178e+000	-1.1845293428e+000
 6.1901148368e-001	 1.0134007268e+000	-1.2382493082e+000
 6.0863844618e-001	 1.0196644016e+000	-1.3591461047e+000
 5.9821529011e-001	 1.0258141726e+000	-1.4694172118e+000
 5.8774385618e-001	 1.0318495091e+000	-1.5694700207e+000
 5.7722599064e-001	 1.0377699195e+000	-1.6597170253e+000
 5.6666354431e-001	 1.0435749506e+000	-1.7405750513e+000
 5.5605837155e-001	 1.0492641886e+000	-1.8124644891e+000
 5.4541232924e-001	 1.0548372581e+000	-1.8758085326e+000
 6.5323164310e-001	 9.9916339153e-001	-1.2989484186e+000
 6.4296618905e-001	 1.0057999514e+000	-1.2666999951e+000
 6.3264484512e-001	 1.0123238427e+000	-1.2246685866e+000
 6.2226943885e-001	 1.0187344148e+000	-1.2215102561e+000
 6.1184180642e-001	 1.0250310563e+000	-1.3440258379e+000
 6.0136379164e-001	 1.0312131945e+000	-1.4557820521e+000
 5.9083724489e-001	 1.0372802960e+000	-1.5572183870e+000
 5.8026402217e-001	 1.0432318664e+000	-1.6487793147e+000
 5.6964598402e-001	 1.0490674504e+000	-1.7309134825e+000
 5.5898499455e-001	 1.0547866317e+000	-1.8040729090e+000
 5.4828292045e-001	 1.0603890332e+000	-1.8687121867e+000
 6.5665170405e-001	 1.0043946135e+000	-1.3344736412e+000
 6.4633250418e-001	 1.0110659197e+000	-1.3049169271e+000
 6.3595712180e-001	 1.0176239675e+000	-1.2653572545e+000
 6.2552739403e-001	 1.0240681029e+000	-1.2159527329e+000
 6.1504516667e-001	 1.0303977111e+000	-1.3311520207e+000
 6.0451229316e-001	 1.0366122165e+000	-1.4447540666e+000
 5.9393063361e-001	 1.0427110829e+000	-1.5479344680e+000
 5.8330205370e-001	 1.0486938133e+000	-1.6411695702e+000
 5.7262842372e-001	 1.0545599501e+000	-1.7249397379e+000
 5.6191161756e-001	 1.0603090748e+000	-1.7997285148e+000
 5.5115351165e-001	 1.0659408082e+000	-1.8660217901e+000
 6.6007176501e-001	 1.0096258354e+000	-1.3697899172e+000
 6.4969881931e-001	 1.0163318881e+000	-1.3433125895e+000
 6.3926939848e-001	 1.0229240923e+000	-1.3066121367e+000
 6.2878534921e-001	 1.0294017909e+000	-1.2598726724e+000
 6.1824852691e-001	 1.0357643658e+000	-1.3205283131e+000
 6.0766079469e-001	 1.0420112385e+000	-1.4363298846e+000
 5.9702402232e-001	 1.0481418698e+000	-1.5416078523e+000
 5.8634008523e-001	 1.0541557603e+000	-1.6368703334e+000
 5.7561086343e-001	 1.0600524498e+000	-1.7226293097e+000
 5.6483824056e-001	 1.0658315179e+000	-1.7993997505e+000
 5.5402410286e-001	 1.0714925832e+000	-1.8676987427e+000
 6.6349182597e-001	 1.0148570574e+000	-1.4049271307e+000
 6.5306513443e-001	 1.0215978564e+000	-1.3819103975e+000
 6.4258167515e-001	 1.0282242172e+000	-1.3484501489e+000
 6.3204330438e-001	 1.0347354790e+000	-1.3047563256e+000
 6.2145188715e-001	 1.0411310206e+000	-1.3121587687e+000
 6.1080929622e-001	 1.0474102604e+000	-1.4305066630e+000
 6.0011741104e-001	 1.0535726567e+000	-1.5382287904e+000
 5.8937811675e-001	 1.0596177072e+000	-1.6358649423e+000
 5.7859330313e-001	 1.0655449496e+000	-1.7239586206e+000
 5.6776486357e-001	 1.0713539610e+000	-1.8030561242e+000
 5.5689469406e-001	 1.0770443583e+000	-1.8737056433e+000
 6.6691188693e-001	 1.0200882793e+000	-1.4399150283e+000
 6.5643144956e-001	 1.0268638247e+000	-1.4207337585e+000
 6.4589395183e-001	 1.0335243420e+000	-1.3908883291e+000
 6.3530125956e-001	 1.0400691670e+000	-1.3506143340e+000
 6.2465524740e-001	 1.0464976753e+000	-1.3060478241e+000
 6.1395779774e-001	 1.0528092824e+000	-1.4272820725e+000
 6.0321079976e-001	 1.0590034436e+000	-1.5377881774e+000
 5.9241614828e-001	 1.0650796542e+000	-1.6381375101e+000
 5.8157574284e-001	 1.0710374493e+000	-1.7289049996e+000
 5.7069148658e-001	 1.0768764041e+000	-1.8106681820e+000
 5.5976528527e-001	 1.0825961333e+000	-1.8840062585e+000
 6.7033194789e-001	 1.0253195013e+000	-1.4747832226e+000
 6.5979776469e-001	 1.0321297931e+000	-1.4598060719e+000
 6.4920622851e-001	 1.0388244668e+000	-1.4339438342e+000
 6.3855921474e-001	 1.0454028550e+000	-1.3974575853e+000
 6.2785860764e-001	 1.0518643301e+000	-1.3506204061e+000
 6.1710629927e-001	 1.0582083044e+000	-1.4266542845e+000
 6.0630418848e-001	 1.0644342305e+000	-1.5402775367e+000
 5.9545417982e-001	 1.0705416011e+000	-1.6436729063e+000
 5.8455818255e-001	 1.0765299491e+000	-1.7374466595e+000
 5.7361810959e-001	 1.0823988472e+000	-1.8222074803e+000
 5.6263587647e-001	 1.0881479084e+000	-1.8985654933e+000
 6.7375200885e-001	 1.0305507232e+000	-1.5095611956e+000
 6.6316407981e-001	 1.0373957614e+000	-1.4991507302e+000
 6.5251850518e-001	 1.0441245917e+000	-1.4776339374e+000
 6.4181716992e-001	 1.0507365431e+000	-1.4452972072e+000
 6.3106196789e-001	 1.0572309848e+000	-1.4024390467e+000
 6.2025480080e-001	 1.0636073263e+000	-1.4286219587e+000
 6.0939757719e-001	 1.0698650174e+000	-1.5456890042e+000
 5.9849221135e-001	 1.0760035481e+000	-1.6524567370e+000
 5.8754062226e-001	 1.0820224488e+000	-1.7495626738e+000
 5.7654473260e-001	 1.0879212903e+000	-1.8376465612e+000
 5.6550646768e-001	 1.0936996834e+000	-1.9173493622e+000
 6.7717206981e-001	 1.0357819452e+000	-1.5442783017e+000
 6.6653039494e-001	 1.0426617297e+000	-1.5387911181e+000
 6.5583078186e-001	 1.0494247165e+000	-1.5219760249e+000
 6.4507512510e-001	 1.0560702311e+000	-1.4941445610e+000
 6.3426532813e-001	 1.0625976395e+000	-1.4556204972e+000
 6.2340330233e-001	 1.0690063483e+000	-1.4331842303e+000
 6.1249096591e-001	 1.0752958043e+000	-1.5540153126e+000
 6.0153024288e-001	 1.0814654950e+000	-1.6644753261e+000
 5.9052306197e-001	 1.0875149485e+000	-1.7652329553e+000
 5.7947135561e-001	 1.0934437334e+000	-1.8569589269e+000
 5.6837705889e-001	 1.0992514585e+000	-1.9403249607e+000
 6.8059213077e-001	 1.0410131671e+000	-1.5789637714e+000
 6.6989671007e-001	 1.0479276981e+000	-1.5787506135e+000
 6.5914305854e-001	 1.0547248413e+000	-1.5669875932e+000
 6.4833308028e-001	 1.0614039191e+000	-1.5440112361e+000
 6.3746868838e-001	 1.0679642943e+000	-1.5101704168e+000
 6.2655180386e-001	 1.0744053702e+000	-1.4658258324e+000
 6.1558435463e-001	 1.0807265912e+000	-1.5652497764e+000
 6.0456827441e-001	 1.0869274420e+000	-1.6797156979e+000
 5.9350550168e-001	 1.0930074483e+000	-1.7844382351e+000
 5.8239797862e-001	 1.0989661765e+000	-1.8801190159e+000
 5.7124765010e-001	 1.1048032335e+000	-1.9674604386e+000
 6.8401219173e-001	 1.0462443890e+000	-1.6136467140e+000
 6.7326302520e-001	 1.0531936664e+000	-1.6190525874e+000
 6.6245533522e-001	 1.0600249662e+000	-1.6126862464e+000
 6.5159103546e-001	 1.0667376072e+000	-1.5949090440e+000
 6.4067204862e-001	 1.0733309490e+000	-1.5660948018e+000
 6.2970030539e-001	 1.0798043922e+000	-1.5266292546e+000
 6.1867774335e-001	 1.0861573781e+000	-1.5793862778e+000
 6.0760630594e-001	 1.0923893889e+000	-1.6981655592e+000
 5.9648794139e-001	 1.0984999480e+000	-1.8071600420e+000
 5.8532460163e-001	 1.1044886196e+000	-1.9071021795e+000
 5.7411824131e-001	 1.1103550086e+000	-1.9987249736e+000
 5.4541232924e-001	 1.0548372581e+000	-1.8758085326e+000
 5.3472727586e-001	 1.0602938227e+000	-1.9330771069e+000
 5.2400507045e-001	 1.0656335844e+000	-1.9892651762e+000
 5.1324757164e-001	 1.0708562836e+000	-2.0445447058e+000
 5.0245663671e-001	 1.0759616992e+000	-2.0990842756e+000
 4.9163412063e-001	 1.0809496479e+000	-2.1530486741e+000
 4.8078187512e-001	 1.0858199844e+000	-2.2065985075e+000
 4.6990174772e-001	 1.0905726007e+000	-2.2598898238e+000
 4.5899558085e-001	 1.0952074263e+000	-2.3130737540e+000
 4.4806521096e-001	 1.0997244276e+000	-2.3662961698e+000
 4.3711246760e-001	 1.1041236075e+000	-2.4196973590e+000
 5.4828292045e-001	 1.0603890332e+000	-1.8687121867e+000
 5.3754162995e-001	 1.0658743165e+000	-1.9231299926e+000
 5.2676299187e-001	 1.0712421822e+000	-1.9764791137e+000
 5.1594887464e-001	 1.0764923693e+000	-2.0289101544e+000
 5.0510114532e-001	 1.0816246555e+000	-2.0805705686e+000
 4.9422166863e-001	 1.0866388566e+000	-2.1316042691e+000
 4.8331230604e-001	 1.0915348264e+000	-2.1821512511e+000
 4.7237491481e-001	 1.0963124565e+000	-2.2323472304e+000
 4.6141134707e-001	 1.1009716760e+000	-2.2823232983e+000
 4.5042344891e-001	 1.1055124509e+000	-2.3322055923e+000
 4.3941305953e-001	 1.1099347844e+000	-2.3821149843e+000
 5.5115351165e-001	 1.0659408082e+000	-1.8660217901e+000
 5.4035598403e-001	 1.0714548103e+000	-1.9170620572e+000
 5.2952091329e-001	 1.0768507800e+000	-1.9670467595e+000
 5.1865017765e-001	 1.0821284550e+000	-2.0161054376e+000
 5.0774565393e-001	 1.0872876119e+000	-2.0643647129e+000
 4.9680921663e-001	 1.0923280653e+000	-2.1119479124e+000
 4.8584273696e-001	 1.0972496684e+000	-2.1589747056e+000
 4.7484808190e-001	 1.1020523123e+000	-2.2055607576e+000
 4.6382711328e-001	 1.1067359256e+000	-2.2518173963e+000
 4.5278168686e-001	 1.1113004742e+000	-2.2978512968e+000
 4.4171365146e-001	 1.1157459613e+000	-2.3437641814e+000
 5.5402410286e-001	 1.0714925832e+000	-1.8676987427e+000
 5.4317033811e-001	 1.0770353041e+000	-1.9148414189e+000
 5.3227883471e-001	 1.0824593778e+000	-1.9609429293e+000
 5.2135148065e-001	 1.0877645407e+000	-2.0061120448e+000
 5.1039016254e-001	 1.0929505682e+000	-2.0504548458e+000
 4.9939676463e-001	 1.0980172740e+000	-2.0940743601e+000
 4.8837316788e-001	 1.1029645105e+000	-2.1370702149e+000
 4.7732124899e-001	 1.1077921681e+000	-2.1795383029e+000
 4.6624287949e-001	 1.1125001752e+000	-2.2215704630e+000
 4.5513992481e-001	 1.1170884975e+000	-2.2632541768e+000
 4.4401424339e-001	 1.1215571382e+000	-2.3046722816e+000
 5.5689469406e-001	 1.0770443583e+000	-1.8737056433e+000
 5.4598469219e-001	 1.0826157979e+000	-1.9164372451e+000
 5.3503675613e-001	 1.0880679756e+000	-1.9581433385e+000
 5.2405278366e-001	 1.0934006264e+000	-1.9989122168e+000
 5.1303467115e-001	 1.0986135245e+000	-2.0388297073e+000
 5.0198431264e-001	 1.1037064826e+000	-2.0779788235e+000
 4.9090359880e-001	 1.1086793525e+000	-2.1164394308e+000
 4.7979441608e-001	 1.1135320239e+000	-2.1542879257e+000
 4.6865864570e-001	 1.1182644248e+000	-2.1915969297e+000
 4.5749816276e-001	 1.1228765208e+000	-2.2284349980e+000
 4.4631483533e-001	 1.1273683150e+000	-2.2648663443e+000
 5.5976528527e-001	 1.0825961333e+000	-1.8840062585e+000
 5.4879904627e-001	 1.0881962917e+000	-1.9218197253e+000
 5.3779467756e-001	 1.0936765734e+000	-1.9586245793e+000
 5.2675408667e-001	 1.0990367122e+000	-1.9944889258e+000
 5.1567917977e-001	 1.1042764808e+000	-2.0294786247e+000
 5.0457186064e-001	 1.1093956913e+000	-2.0636569574e+000
 4.9343402972e-001	 1.1143941945e+000	-2.0970843055e+000
 4.8226758317e-001	 1.1192718797e+000	-2.1298178433e+000
 4.7107441192e-001	 1.1240286744e+000	-2.1619112439e+000
 4.5985640071e-001	 1.1286645441e+000	-2.1934144009e+000
 4.4861542726e-001	 1.1331794919e+000	-2.2243731641e+000
 5.6263587647e-001	 1.0881479084e+000	-1.8985654933e+000
 5.5161340036e-001	 1.0937767855e+000	-1.9309600452e+000
 5.4055259898e-001	 1.0992851713e+000	-1.9623640985e+000
 5.2945538968e-001	 1.1046727979e+000	-1.9928258572e+000
 5.1832368838e-001	 1.1099394371e+000	-2.0223914976e+000
 5.0715940864e-001	 1.1150849000e+000	-2.0511048486e+000
 4.9596446064e-001	 1.1201090366e+000	-2.0790070837e+000
 4.8474075027e-001	 1.1250117355e+000	-2.1061364264e+000
 4.7349017813e-001	 1.1297929240e+000	-2.1325278687e+000
 4.6221463866e-001	 1.1344525674e+000	-2.1582129045e+000
 4.5091601919e-001	 1.1389906688e+000	-2.1832192773e+000
 5.6550646768e-001	 1.0936996834e+000	-1.9173493622e+000
 5.5442775444e-001	 1.0993572793e+000	-1.9438303613e+000
 5.4331052040e-001	 1.1048937691e+000	-1.9693401752e+000
 5.3215669268e-001	 1.1103088836e+000	-1.9939073914e+000
 5.2096819699e-001	 1.1156023934e+000	-2.0175587834e+000
 5.0974695664e-001	 1.1207741087e+000	-2.0403190051e+000
 4.9849489156e-001	 1.1258238786e+000	-2.0622102953e+000
 4.8721391736e-001	 1.1307515913e+000	-2.0832521957e+000
 4.7590594434e-001	 1.1355571736e+000	-2.1034612822e+000
 4.6457287661e-001	 1.1402405908e+000	-2.1228509091e+000
 4.5321661113e-001	 1.1448018457e+000	-2.1414309687e+000
 5.6837705889e-001	 1.0992514585e+000	-1.9403249607e+000
 5.5724210852e-001	 1.1049377731e+000	-1.9604037762e+000
 5.4606844183e-001	 1.1105023669e+000	-1.9795319005e+000
 5.3485799569e-001	 1.1159449693e+000	-1.9977185862e+000
 5.2361270561e-001	 1.1212653497e+000	-2.0149714833e+000
 5.1233450464e-001	 1.1264633174e+000	-2.0312963454e+000
 5.0102532248e-001	 1.1315387206e+000	-2.0466967478e+000
 4.8968708445e-001	 1.1364914471e+000	-2.0611738178e+000
 4.7832171056e-001	 1.1413214233e+000	-2.0747259773e+000
 4.6693111457e-001	 1.1460286141e+000	-2.0873486993e+000
 4.5551720306e-001	 1.1506130226e+000	-2.0990342778e+000
 5.7124765010e-001	 1.1048032335e+000	-1.9674604386e+000
 5.6005646261e-001	 1.1105182669e+000	-1.9806543153e+000
 5.4882636325e-001	 1.1161109647e+000	-1.9929191565e+000
 5.3755929870e-001	 1.1215810550e+000	-2.0042451600e+000
 5.2625721422e-001	 1.1269283061e+000	-2.0146211284e+000
 5.1492205265e-001	 1.1321525260e+000	-2.0240341882e+000
 5.0355575340e-001	 1.1372535626e+000	-2.0324695201e+000
 4.9216025154e-001	 1.1422313029e+000	-2.0399101017e+000
 4.8073747677e-001	 1.1470856729e+000	-2.0463364616e+000
 4.6928935252e-001	 1.1518166374e+000	-2.0517264470e+000
 4.5781779499e-001	 1.1564241995e+000	-2.0560550051e+000
 5.7411824131e-001	 1.1103550086e+000	-1.9987249736e+000
 5.6287081669e-001	 1.1160987607e+000	-2.0045569035e+000
 5.5158428467e-001	 1.1217195625e+000	-2.0094825969e+000
 5.4026060171e-001	 1.1272171407e+000	-2.0134734748e+000
 5.2890172283e-001	 1.1325912624e+000	-2.0164997666e+000
 5.1750960065e-001	 1.1378417347e+000	-2.0185302423e+000
 5.0608618432e-001	 1.1429684047e+000	-2.0195319550e+000
 4.9463341864e-001	 1.1479711587e+000	-2.0194699952e+000
 4.8315324299e-001	 1.1528499225e+000	-2.0183072565e+000
 4.7164759047e-001	 1.1576046607e+000	-2.0160042144e+000
 4.6011838693e-001	 1.1622353763e+000	-2.0125187179e+000
 4.3711246760e-001	 1.1041236075e+000	-2.4196973590e+000
 4.2613917256e-001	 1.1084050052e+000	-2.4816516993e+000
 4.1514713903e-001	 1.1125686958e+000	-2.5381817620e+000
 4.0413817075e-001	 1.1166147899e+000	-2.5893496869e+000
 3.9311406120e-001	 1.1205434328e+000	-2.6352175209e+000
 3.8207659277e-001	 1.1243548049e+000	-2.6758469443e+000
 3.7102753603e-001	 1.1280491202e+000	-2.7112990100e+000
 3.5996864892e-001	 1.1316266265e+000	-2.7416338948e+000
 3.4890167602e-001	 1.1350876048e+000	-2.7669106641e+000
 3.3782834784e-001	 1.1384323684e+000	-2.7871870498e+000
 3.2675038012e-001	 1.1416612629e+000	-2.8025192411e+000
 4.3941305953e-001	 1.1099347844e+000	-2.3821149843e+000
 4.2838201031e-001	 1.1142387158e+000	-2.4395019755e+000
 4.1733212397e-001	 1.1184243206e+000	-2.4920734370e+000
 4.0626521375e-001	 1.1224917098e+000	-2.5399291495e+000
 3.9518308257e-001	 1.1264410299e+000	-2.5831677062e+000
 3.8408752220e-001	 1.1302724618e+000	-2.6218862144e+000
 3.7298031253e-001	 1.1339862208e+000	-2.6561800119e+000
 3.6186322075e-001	 1.1375825561e+000	-2.6861423978e+000
 3.5073800062e-001	 1.1410617501e+000	-2.7118643775e+000
 3.3960639177e-001	 1.1444241177e+000	-2.7334344239e+000
 3.2847011895e-001	 1.1476700064e+000	-2.7509382536e+000
 4.4171365146e-001	 1.1157459613e+000	-2.3437641814e+000
 4.3062484805e-001	 1.1200724263e+000	-2.3971855751e+000
 4.1951710891e-001	 1.1242799453e+000	-2.4463938668e+000
 4.0839225675e-001	 1.1283686298e+000	-2.4915263066e+000
 3.9725210394e-001	 1.1323386269e+000	-2.5327178676e+000
 3.8609845164e-001	 1.1361901186e+000	-2.5701009228e+000
 3.7493308903e-001	 1.1399233214e+000	-2.6038049385e+000
 3.6375779258e-001	 1.1435384857e+000	-2.6339561843e+000
 3.5257432523e-001	 1.1470358953e+000	-2.6606774591e+000
 3.4138443570e-001	 1.1504158670e+000	-2.6840878354e+000
 3.3018985779e-001	 1.1536787498e+000	-2.7043024203e+000
 4.4401424339e-001	 1.1215571382e+000	-2.3046722816e+000
 4.3286768580e-001	 1.1259061369e+000	-2.3547190842e+000
 4.2170209385e-001	 1.1301355700e+000	-2.4011490078e+000
 4.1051929975e-001	 1.1342455497e+000	-2.4441366051e+000
 3.9932112531e-001	 1.1382362239e+000	-2.4838530669e+000
 3.8810938107e-001	 1.1421077755e+000	-2.5204658746e+000
 3.7688586553e-001	 1.1458604221e+000	-2.5541384703e+000
 3.6565236441e-001	 1.1494944153e+000	-2.5850299464e+000
 3.5441064983e-001	 1.1530100406e+000	-2.6132947524e+000
 3.4316247963e-001	 1.1564076163e+000	-2.6390824224e+000
 3.3190959663e-001	 1.1596874933e+000	-2.6625373207e+000
 4.4631483533e-001	 1.1273683150e+000	-2.2648663443e+000
 4.3511052355e-001	 1.1317398474e+000	-2.3121190274e+000
 4.2388707879e-001	 1.1359911947e+000	-2.3563449634e+000
 4.1264634275e-001	 1.1401224697e+000	-2.3977558449e+000
 4.0139014668e-001	 1.1441338209e+000	-2.4365589226e+000
 3.9012031050e-001	 1.1480254324e+000	-2.4729566325e+000
 3.7883864204e-001	 1.1517975227e+000	-2.5071462441e+000
 3.6754693625e-001	 1.1554503450e+000	-2.5393195282e+000
 3.5624697444e-001	 1.1589841859e+000	-2.5696624459e+000
 3.4494052357e-001	 1.1623993656e+000	-2.5983548582e+000
 3.3362933547e-001	 1.1656962368e+000	-2.6255702568e+000
 4.4861542726e-001	 1.1331794919e+000	-2.2243731641e+000
 4.3735336130e-001	 1.1375735580e+000	-2.2694018698e+000
 4.2607206373e-001	 1.1418468194e+000	-2.3119879805e+000
 4.1477338576e-001	 1.1459993896e+000	-2.3523801705e+000
 4.0345916806e-001	 1.1500314179e+000	-2.3908215958e+000
 3.9213123993e-001	 1.1539430892e+000	-2.4275494979e+000
 3.8079141854e-001	 1.1577346233e+000	-2.4627948284e+000
 3.6944150808e-001	 1.1614062746e+000	-2.4967818965e+000
 3.5808329905e-001	 1.1649583312e+000	-2.5297280388e+000
 3.4671856750e-001	 1.1683911149e+000	-2.5618433121e+000
 3.3534907431e-001	 1.1717049803e+000	-2.5933302094e+000
 4.5091601919e-001	 1.1389906688e+000	-2.1832192773e+000
 4.3959619905e-001	 1.1434072685e+000	-2.2265840183e+000
 4.2825704867e-001	 1.1477024441e+000	-2.2680844460e+000
 4.1690042876e-001	 1.1518763095e+000	-2.3080060614e+000
 4.0552818943e-001	 1.1559290149e+000	-2.3466277761e+000
 3.9414216937e-001	 1.1598607461e+000	-2.3842214913e+000
 3.8274419505e-001	 1.1636717240e+000	-2.4210516995e+000
 3.7133607992e-001	 1.1673622042e+000	-2.4573751115e+000
 3.5991962366e-001	 1.1709324765e+000	-2.4934403071e+000
 3.4849661143e-001	 1.1743828642e+000	-2.5294874113e+000
 3.3706881315e-001	 1.1777137238e+000	-2.5657477945e+000
 4.5321661113e-001	 1.1448018457e+000	-2.1414309687e+000
 4.4183903679e-001	 1.1492409791e+000	-2.1836818233e+000
 4.3044203361e-001	 1.1535580688e+000	-2.2246408826e+000
 4.1902747176e-001	 1.1577532295e+000	-2.2646303241e+000
 4.0759721080e-001	 1.1618266120e+000	-2.3039646686e+000
 3.9615309880e-001	 1.1657784030e+000	-2.3429503349e+000
 3.8469697155e-001	 1.1696088246e+000	-2.3818852189e+000
 3.7323065175e-001	 1.1733181338e+000	-2.4210582997e+000
 3.6175594827e-001	 1.1769066218e+000	-2.4607492718e+000
 3.5027465537e-001	 1.1803746136e+000	-2.5012282033e+000
 3.3878855199e-001	 1.1837224673e+000	-2.5427552226e+000
 4.5551720306e-001	 1.1506130226e+000	-2.0990342778e+000
 4.4408187455e-001	 1.1550746897e+000	-2.1407115799e+000
 4.3262701855e-001	 1.1594136936e+000	-2.1816639462e+000
 4.2115451477e-001	 1.1636301494e+000	-2.2222500837e+000
 4.0966623218e-001	 1.1677242090e+000	-2.2628199803e+000
 3.9816402824e-001	 1.1716960598e+000	-2.3037144341e+000
 3.8664974806e-001	 1.1755459252e+000	-2.3452646104e+000
 3.7512522359e-001	 1.1792740634e+000	-2.3877916269e+000
 3.6359227288e-001	 1.1828807671e+000	-2.4316061669e+000
 3.5205269931e-001	 1.1863663629e+000	-2.4770081209e+000
 3.4050829083e-001	 1.1897312108e+000	-2.5242862578e+000
 4.5781779499e-001	 1.1564241995e+000	-2.0560550051e+000
 4.4632471230e-001	 1.1609084002e+000	-2.0976895297e+000
 4.3481200350e-001	 1.1652693183e+000	-2.1391604220e+000
 4.2328155777e-001	 1.1695070694e+000	-2.1808627761e+000
 4.1173525356e-001	 1.1736218060e+000	-2.2231819081e+000
 4.0017495768e-001	 1.1776137167e+000	-2.2664928609e+000
 3.8860252456e-001	 1.1814830259e+000	-2.3111599388e+000
 3.7701979543e-001	 1.1852299930e+000	-2.3575362716e+000
 3.6542859749e-001	 1.1888549124e+000	-2.4059634093e+000
 3.5383074324e-001	 1.1923581122e+000	-2.4567709467e+000
 3.4222802968e-001	 1.1957399543e+000	-2.5102761792e+000
 4.6011838693e-001	 1.1622353763e+000	-2.0125187179e+000
 4.4856755005e-001	 1.1667421108e+000	-2.0546318614e+000
 4.3699698844e-001	 1.1711249430e+000	-2.0971372213e+000
 4.2540860078e-001	 1.1753839893e+000	-2.1404661398e+000
 4.1380427493e-001	 1.1795194030e+000	-2.1850391261e+000
 4.0218588712e-001	 1.1835313736e+000	-2.2312653371e+000
 3.9055530107e-001	 1.1874201265e+000	-2.2795420888e+000
 3.7891436727e-001	 1.1911859226e+000	-2.3302544003e+000
 3.6726492211e-001	 1.1948290576e+000	-2.3837745692e+000
 3.5560878718e-001	 1.1983498615e+000	-2.4404617796e+000
 3.4394776852e-001	 1.2017486977e+000	-2.5006617427e+000
 3.2675038012e-001	 1.1416612629e+000	-2.8025192411e+000
 3.1566947311e-001	 1.1447746651e+000	-2.8462086210e+000
 3.0458731099e-001	 1.1477729828e+000	-2.8870908811e+000
 2.9350556113e-001	 1.1506566541e+000	-2.9252145868e+000
 2.8242587356e-001	 1.1534261467e+000	-2.9606245134e+000
 2.7134988036e-001	 1.1560819575e+000	-2.9933615331e+000
 2.6027919504e-001	 1.1586246116e+000	-3.0234625161e+000
 2.4921541207e-001	 1.1610546621e+000	-3.0509602477e+000
 2.3816010630e-001	 1.1633726891e+000	-3.0758833595e+000
 2.2711483247e-001	 1.1655792993e+000	-3.0982562760e+000
 2.1608112475e-001	 1.1676751250e+000	-3.1180991755e+000
 3.2847011895e-001	 1.1476700064e+000	-2.7509382536e+000
 3.1733089139e-001	 1.1507997949e+000	-2.7970226751e+000
 3.0619040209e-001	 1.1538138932e+000	-2.8395246868e+000
 2.9505032723e-001	 1.1567127418e+000	-2.8785107933e+000
 2.8391232552e-001	 1.1594968107e+000	-2.9140441056e+000
 2.7277803761e-001	 1.1621665994e+000	-2.9461841990e+000
 2.6164908554e-001	 1.1647226359e+000	-2.9749869871e+000
 2.5052707213e-001	 1.1671654761e+000	-3.0005046112e+000
 2.3941358054e-001	 1.1694957033e+000	-3.0227853446e+000
 2.2831017369e-001	 1.1717139272e+000	-3.0418735119e+000
 2.1721839382e-001	 1.1738207836e+000	-3.0578094239e+000
 3.3018985779e-001	 1.1536787498e+000	-2.7043024203e+000
 3.1899230966e-001	 1.1568249247e+000	-2.7528947712e+000
 3.0779349319e-001	 1.1598548037e+000	-2.7971404199e+000
 2.9659509334e-001	 1.1627688294e+000	-2.8371237159e+000
 2.8539877748e-001	 1.1655674746e+000	-2.8729260041e+000
 2.7420619487e-001	 1.1682512413e+000	-2.9046254556e+000
 2.6301897603e-001	 1.1708206602e+000	-2.9322969138e+000
 2.5183873219e-001	 1.1732762901e+000	-2.9560117563e+000
 2.4066705477e-001	 1.1756187174e+000	-2.9758377728e+000
 2.2950551491e-001	 1.1778485551e+000	-2.9918390576e+000
 2.1835566290e-001	 1.1799664421e+000	-3.0040759176e+000
 3.3190959663e-001	 1.1596874933e+000	-2.6625373207e+000
 3.2065372794e-001	 1.1628500545e+000	-2.7137475859e+000
 3.0939658430e-001	 1.1658957141e+000	-2.7598577153e+000
 2.9813985944e-001	 1.1688249171e+000	-2.8009698107e+000
 2.8688522944e-001	 1.1716381385e+000	-2.8371833526e+000
 2.7563435213e-001	 1.1743358832e+000	-2.8685950027e+000
 2.6438886653e-001	 1.1769186844e+000	-2.8952984233e+000
 2.5315039225e-001	 1.1793871042e+000	-2.9173841120e+000
 2.4192052901e-001	 1.1817417316e+000	-2.9349392522e+000
 2.3070085613e-001	 1.1839831830e+000	-2.9480475796e+000
 2.1949293197e-001	 1.1861121007e+000	-2.9567892642e+000
 3.3362933547e-001	 1.1656962368e+000	-2.6255702568e+000
 3.2231514621e-001	 1.1688751843e+000	-2.6795055689e+000
 3.1099967540e-001	 1.1719366245e+000	-2.7275980340e+000
 2.9968462555e-001	 1.1748810047e+000	-2.7699674167e+000
 2.8837168140e-001	 1.1777088025e+000	-2.8067312366e+000
 2.7706250939e-001	 1.1804205250e+000	-2.8380045442e+000
 2.6575875702e-001	 1.1830167087e+000	-2.8638997124e+000
 2.5446205231e-001	 1.1854979182e+000	-2.8845262446e+000
 2.4317400325e-001	 1.1878647458e+000	-2.8999905983e+000
 2.3189619734e-001	 1.1901178109e+000	-2.9103960255e+000
 2.2063020105e-001	 1.1922577592e+000	-2.9158424285e+000
 3.3534907431e-001	 1.1717049803e+000	-2.5933302094e+000
 3.2397656449e-001	 1.1749003141e+000	-2.6500948974e+000
 3.1260276651e-001	 1.1779775350e+000	-2.7002846166e+000
 3.0122939166e-001	 1.1809370924e+000	-2.7440367069e+000
 2.8985813337e-001	 1.1837794664e+000	-2.7814866338e+000
 2.7849066666e-001	 1.1865051669e+000	-2.8127677368e+000
 2.6712864752e-001	 1.1891147330e+000	-2.8380109938e+000
 2.5577371237e-001	 1.1916087322e+000	-2.8573448026e+000
 2.4442747749e-001	 1.1939877599e+000	-2.8708947778e+000
 2.3309153857e-001	 1.1962524387e+000	-2.8787835653e+000
 2.2176747012e-001	 1.1984034178e+000	-2.8811306719e+000
 3.3706881315e-001	 1.1777137238e+000	-2.5657477945e+000
 3.2563798276e-001	 1.1809254440e+000	-2.6254434319e+000
 3.1420585762e-001	 1.1840184454e+000	-2.6778424376e+000
 3.0277415776e-001	 1.1869931800e+000	-2.7230996421e+000
 2.9134458533e-001	 1.1898501303e+000	-2.7613683658e+000
 2.7991882392e-001	 1.1925898088e+000	-2.7928001400e+000
 2.6849853802e-001	 1.1952127573e+000	-2.8175444449e+000
 2.5708537243e-001	 1.1977195462e+000	-2.8357484637e+000
 2.4568095173e-001	 1.2001107741e+000	-2.8475568538e+000
 2.3428687979e-001	 1.2023870666e+000	-2.8531115350e+000
 2.2290473920e-001	 1.2045490763e+000	-2.8525514936e+000
 3.3878855199e-001	 1.1837224673e+000	-2.5427552226e+000
 3.2729940104e-001	 1.1869505738e+000	-2.6054806736e+000
 3.1580894873e-001	 1.1900593558e+000	-2.6601981615e+000
 3.0431892387e-001	 1.1930492677e+000	-2.7070799251e+000
 2.9283103729e-001	 1.1959207943e+000	-2.7462970511e+000
 2.8134698118e-001	 1.1986744507e+000	-2.7780191682e+000
 2.6986842851e-001	 1.2013107815e+000	-2.8024141580e+000
 2.5839703249e-001	 1.2038303602e+000	-2.8196478833e+000
 2.4693442598e-001	 1.2062337882e+000	-2.8298839323e+000
 2.3548222101e-001	 1.2085216945e+000	-2.8332833815e+000
 2.2404200827e-001	 1.2106947349e+000	-2.8300045742e+000
 3.4050829083e-001	 1.1897312108e+000	-2.5242862578e+000
 3.2896081932e-001	 1.1929757036e+000	-2.5901377228e+000
 3.1741203984e-001	 1.1961002663e+000	-2.6472801003e+000
 3.0586368998e-001	 1.1991053553e+000	-2.6959029571e+000
 2.9431748926e-001	 1.2019914582e+000	-2.7361950601e+000
 2.8277513845e-001	 1.2047590926e+000	-2.7683440433e+000
 2.7123831901e-001	 1.2074088058e+000	-2.7925360920e+000
 2.5970869255e-001	 1.2099411742e+000	-2.8089556444e+000
 2.4818790022e-001	 1.2123568024e+000	-2.8177851106e+000
 2.3667756223e-001	 1.2146563224e+000	-2.8192046091e+000
 2.2517927735e-001	 1.2168403934e+000	-2.8133917203e+000
 3.4222802968e-001	 1.1957399543e+000	-2.5102761792e+000
 3.3062223760e-001	 1.1990008334e+000	-2.5793472392e+000
 3.1901513095e-001	 1.2021411767e+000	-2.6390181718e+000
 3.0740845610e-001	 1.2051614430e+000	-2.6894957946e+000
 2.9580394123e-001	 1.2080621221e+000	-2.7309864708e+000
 2.8420329571e-001	 1.2108437344e+000	-2.7636957498e+000
 2.7260820951e-001	 1.2135068301e+000	-2.7878280252e+000
 2.6102035261e-001	 1.2160519882e+000	-2.8035862094e+000
 2.4944137446e-001	 1.2184798165e+000	-2.8111714276e+000
 2.3787290345e-001	 1.2207909503e+000	-2.8107827282e+000
 2.2631654642e-001	 1.2229860520e+000	-2.8026168113e+000
 3.4394776852e-001	 1.2017486977e+000	-2.5006617427e+000
 3.3228365588e-001	 1.2050259632e+000	-2.5730434022e+000
 3.2061822206e-001	 1.2081820871e+000	-2.6353438599e+000
 3.0895322221e-001	 1.2112175306e+000	-2.6877871084e+000
 2.9729039319e-001	 1.2141327860e+000	-2.7305970261e+000
 2.8563145298e-001	 1.2169283763e+000	-2.7639969906e+000
 2.7397810001e-001	 1.2196048543e+000	-2.7882095102e+000
 2.6233201268e-001	 1.2221628022e+000	-2.8034558731e+000
 2.5069484871e-001	 1.2246028307e+000	-2.8099558151e+000
 2.3906824468e-001	 1.2269255782e+000	-2.8079272048e+000
 2.2745381550e-001	 1.2291317105e+000	-2.7975857473e+000
 2.1608112475e-001	 1.1676751250e+000	-3.1180991755e+000
 2.0506049628e-001	 1.1696608239e+000	-3.1673720136e+000
 1.9405443872e-001	 1.1715370779e+000	-3.2118509138e+000
 1.8306442186e-001	 1.1733045928e+000	-3.2516924395e+000
 1.7209189323e-001	 1.1749640975e+000	-3.2870482136e+000
 1.6113827775e-001	 1.1765163431e+000	-3.3180648141e+000
 1.5020497736e-001	 1.1779621025e+000	-3.3448836843e+000
 1.3929337074e-001	 1.1793021695e+000	-3.3676410599e+000
 1.2840481299e-001	 1.1805373582e+000	-3.3864679105e+000
 1.1754063535e-001	 1.1816685022e+000	-3.4014898965e+000
 1.0670214501e-001	 1.1826964540e+000	-3.4128273404e+000
 2.1721839382e-001	 1.1738207836e+000	-3.0578094239e+000
 2.0613976204e-001	 1.1758169335e+000	-3.1051398360e+000
 1.9507577786e-001	 1.1777030625e+000	-3.1476186036e+000
 1.8402791881e-001	 1.1794798801e+000	-3.1853848988e+000
 1.7299764004e-001	 1.1811481190e+000	-3.2185733321e+000
 1.6198637395e-001	 1.1827085343e+000	-3.2473138534e+000
 1.5099552987e-001	 1.1841619030e+000	-3.2717316703e+000
 1.4002649375e-001	 1.1855090230e+000	-3.2919471801e+000
 1.2908062779e-001	 1.1867507127e+000	-3.3080759178e+000
 1.1815927028e-001	 1.1878878101e+000	-3.3202285170e+000
 1.0726373524e-001	 1.1889211722e+000	-3.3285106866e+000
 2.1835566290e-001	 1.1799664421e+000	-3.0040759176e+000
 2.0721902781e-001	 1.1819730431e+000	-3.0490236022e+000
 1.9609711701e-001	 1.1838690471e+000	-3.0890680242e+000
 1.8499141577e-001	 1.1856551675e+000	-3.1243311176e+000
 1.7390338684e-001	 1.1873321406e+000	-3.1549306255e+000
 1.6283447014e-001	 1.1889007256e+000	-3.1809800094e+000
 1.5178608239e-001	 1.1903617035e+000	-3.2025883728e+000
 1.4075961675e-001	 1.1917158765e+000	-3.2198604000e+000
 1.2975644260e-001	 1.1929640672e+000	-3.2328963092e+000
 1.1877790520e-001	 1.1941071180e+000	-3.2417918190e+000
 1.0782532548e-001	 1.1951458904e+000	-3.2466381289e+000
 2.1949293197e-001	 1.1861121007e+000	-2.9567892642e+000
 2.0829829358e-001	 1.1881291527e+000	-2.9989199772e+000
 1.9711845616e-001	 1.1900350318e+000	-3.0361018438e+000
 1.8595491272e-001	 1.1918304548e+000	-3.0684397108e+000
 1.7480913364e-001	 1.1935161622e+000	-3.0960345983e+000
 1.6368256634e-001	 1.1950929169e+000	-3.1189836164e+000
 1.5257663490e-001	 1.1965615041e+000	-3.1373798947e+000
 1.4149273975e-001	 1.1979227300e+000	-3.1513125281e+000
 1.3043225740e-001	 1.1991774217e+000	-3.1608665348e+000
 1.1939654012e-001	 1.2003264259e+000	-3.1661228280e+000
 1.0838691571e-001	 1.2013706085e+000	-3.1671582013e+000
 2.2063020105e-001	 1.1922577592e+000	-2.9158424285e+000
 2.0937755934e-001	 1.1942852623e+000	-2.9547278506e+000
 1.9813979531e-001	 1.1962010164e+000	-2.9886248241e+000
 1.8691840967e-001	 1.1980057421e+000	-3.0176212576e+000
 1.7571488045e-001	 1.1997001837e+000	-3.0418015908e+000
 1.6453066254e-001	 1.2012851082e+000	-3.0612467175e+000
 1.5336718741e-001	 1.2027613046e+000	-3.0760339226e+000
 1.4222586275e-001	 1.2041295836e+000	-3.0862368333e+000
 1.3110807220e-001	 1.2053907762e+000	-3.0919253828e+000
 1.2001517504e-001	 1.2065457338e+000	-3.0931657876e+000
 1.0894850595e-001	 1.2075953267e+000	-3.0900205367e+000
 2.2176747012e-001	 1.1984034178e+000	-2.8811306719e+000
 2.1045682511e-001	 1.2004413719e+000	-2.9163482797e+000
 1.9916113446e-001	 1.2023670010e+000	-2.9465437667e+000
 1.8788190663e-001	 1.2041810295e+000	-2.9717882509e+000
 1.7662062725e-001	 1.2058842053e+000	-2.9921497319e+000
 1.6537875873e-001	 1.2074772995e+000	-3.0076930214e+000
 1.5415773992e-001	 1.2089611052e+000	-3.0184796866e+000
 1.4295898575e-001	 1.2103364371e+000	-3.0245680073e+000
 1.3178388701e-001	 1.2116041308e+000	-3.0260129455e+000
 1.2063380996e-001	 1.2127650417e+000	-3.0228661277e+000
 1.0951009619e-001	 1.2138200449e+000	-3.0151758388e+000
 2.2290473920e-001	 1.2045490763e+000	-2.8525514936e+000
 2.1153609088e-001	 1.2065974815e+000	-2.8836844340e+000
 2.0018247361e-001	 1.2085329856e+000	-2.9097674612e+000
 1.8884540358e-001	 1.2103563168e+000	-2.9308550482e+000
 1.7752637406e-001	 1.2120682269e+000	-2.9469988937e+000
 1.6622685493e-001	 1.2136694907e+000	-2.9582478595e+000
 1.5494829243e-001	 1.2151609057e+000	-2.9646479206e+000
 1.4369210876e-001	 1.2165432906e+000	-2.9662421283e+000
 1.3245970181e-001	 1.2178174853e+000	-2.9630705856e+000
 1.2125244488e-001	 1.2189843496e+000	-2.9551704345e+000
 1.1007168642e-001	 1.2200447631e+000	-2.9425758550e+000
 2.2404200827e-001	 1.2106947349e+000	-2.8300045742e+000
 2.1261535665e-001	 1.2127535911e+000	-2.8566415419e+000
 2.0120381276e-001	 1.2146989702e+000	-2.8782066347e+000
 1.8980890054e-001	 1.2165316041e+000	-2.8947378247e+000
 1.7843212086e-001	 1.2182522484e+000	-2.9062706472e+000
 1.6707495113e-001	 1.2198616820e+000	-2.9128381448e+000
 1.5573884494e-001	 1.2213607062e+000	-2.9144708243e+000
 1.4442523176e-001	 1.2227501441e+000	-2.9111966259e+000
 1.3313551661e-001	 1.2240308398e+000	-2.9030409044e+000
 1.2187107981e-001	 1.2252036575e+000	-2.8900264214e+000
 1.1063327666e-001	 1.2262694812e+000	-2.8721733493e+000
 2.2517927735e-001	 1.2168403934e+000	-2.8133917203e+000
 2.1369462241e-001	 1.2189097007e+000	-2.8351268382e+000
 2.0222515190e-001	 1.2208649549e+000	-2.8517739027e+000
 1.9077239749e-001	 1.2227068915e+000	-2.8633545273e+000
 1.7933786767e-001	 1.2244362700e+000	-2.8698882196e+000
 1.6792304732e-001	 1.2260538733e+000	-2.8713923322e+000
 1.5652939745e-001	 1.2275605068e+000	-2.8678820263e+000
 1.4515835476e-001	 1.2289569977e+000	-2.8593702470e+000
 1.3381133142e-001	 1.2302441943e+000	-2.8458677101e+000
 1.2248971473e-001	 1.2314229654e+000	-2.8273828998e+000
 1.1119486689e-001	 1.2324941994e+000	-2.8039220773e+000
 2.2631654642e-001	 1.2229860520e+000	-2.8026168113e+000
 2.1477388818e-001	 1.2250658103e+000	-2.8190495144e+000
 2.0324649105e-001	 1.2270309395e+000	-2.8303837218e+000
 1.9173589445e-001	 1.2288821788e+000	-2.8366248297e+000
 1.8024361447e-001	 1.2306202916e+000	-2.8377764521e+000
 1.6877114352e-001	 1.2322460646e+000	-2.8338403792e+000
 1.5731994996e-001	 1.2337603073e+000	-2.8248165478e+000
 1.4589147776e-001	 1.2351638512e+000	-2.8107030225e+000
 1.3448714622e-001	 1.2364575488e+000	-2.7914959879e+000
 1.2310834965e-001	 1.2376422733e+000	-2.7671897525e+000
 1.1175645713e-001	 1.2387189176e+000	-2.7377767610e+000
 2.2745381550e-001	 1.2291317105e+000	-2.7975857473e+000
 2.1585315395e-001	 1.2312219199e+000	-2.8083206690e+000
 2.0426783020e-001	 1.2331969241e+000	-2.8139523439e+000
 1.9269939141e-001	 1.2350574661e+000	-2.8144700898e+000
 1.8114936128e-001	 1.2368043131e+000	-2.8098617601e+000
 1.6961923972e-001	 1.2384382558e+000	-2.8001137090e+000
 1.5811050247e-001	 1.2399601078e+000	-2.7852107684e+000
 1.4662460077e-001	 1.2413707047e+000	-2.7651362353e+000
 1.3516296103e-001	 1.2426709033e+000	-2.7398718703e+000
 1.2372698457e-001	 1.2438615812e+000	-2.7093979059e+000
 1.1231804736e-001	 1.2449436358e+000	-2.6736930644e+000
 1.0670214501e-001	 1.1826964540e+000	-3.4128273404e+000
 9.5890624787e-002	 1.1836220842e+000	-3.4444906408e+000
 8.5107333016e-002	 1.1844462807e+000	-3.4714549186e+000
 7.4353503296e-002	 1.1851699484e+000	-3.4937776434e+000
 6.3630344359e-002	 1.1857940079e+000	-3.5115128897e+000
 5.2939039917e-002	 1.1863193955e+000	-3.5247113705e+000
 4.2280748542e-002	 1.1867470616e+000	-3.5334204798e+000
 3.1656603561e-002	 1.1870779711e+000	-3.5376843437e+000
 2.1067712975e-002	 1.1873131017e+000	-3.5375438801e+000
 1.0515159397e-002	 1.1874534439e+000	-3.5330368646e+000
 0.0000000000e+000	 1.1875000000e+000	-3.5241980053e+000
 1.0726373524e-001	 1.1889211722e+000	-3.3285106866e+000
 9.6395312285e-002	 1.1898516741e+000	-3.3562215577e+000
 8.5555266347e-002	 1.1906802085e+000	-3.3796511258e+000
 7.4744837524e-002	 1.1914076850e+000	-3.3988558423e+000
 6.3965240908e-002	 1.1920350290e+000	-3.4138884089e+000
 5.3217666443e-002	 1.1925631818e+000	-3.4247978196e+000
 4.2503278797e-002	 1.1929930988e+000	-3.4316294129e+000
 3.1823217263e-002	 1.1933257499e+000	-3.4344249315e+000
 2.1178595675e-002	 1.1935621180e+000	-3.4332225916e+000
 1.0570502341e-002	 1.1937031989e+000	-3.4280571593e+000
 0.0000000000e+000	 1.1937500000e+000	-3.4189600341e+000
 1.0782532548e-001	 1.1951458904e+000	-3.2466381289e+000
 9.6899999783e-002	 1.1960812640e+000	-3.2704292435e+000
 8.6003199678e-002	 1.1969141363e+000	-3.2903562321e+000
 7.5136171751e-002	 1.1976454215e+000	-3.3064745367e+000
 6.4300137457e-002	 1.1982760501e+000	-3.3188354940e+000
 5.3496292968e-002	 1.1988069681e+000	-3.3274863860e+000
 4.2725809052e-002	 1.1992391360e+000	-3.3324705008e+000
 3.1989830966e-002	 1.1995735287e+000	-3.3338272027e+000
 2.1289478375e-002	 1.1998111344e+000	-3.3315920101e+000
 1.0625845285e-002	 1.1999529538e+000	-3.3257966821e+000
 0.0000000000e+000	 1.2000000000e+000	-3.3164693116e+000
 1.0838691571e-001	 1.2013706085e+000	-3.1671582013e+000
 9.7404687281e-002	 1.2023108539e+000	-3.1870613601e+000
 8.6451133008e-002	 1.2031480641e+000	-3.2035170794e+000
 7.5527505978e-002	 1.2038831581e+000	-3.2165798005e+000
 6.4635034006e-002	 1.2045170712e+000	-3.2262995025e+000
 5.3774919494e-002	 1.2050507543e+000	-3.2327217618e+000
 4.2948339307e-002	 1.2054851731e+000	-3.2358878221e+000
 3.2156444669e-002	 1.2058213075e+000	-3.2358346732e+000
 2.1400361075e-002	 1.2060601507e+000	-3.2325951395e+000
 1.0681188229e-002	 1.2062027088e+000	-3.2261979751e+000
 0.0000000000e+000	 1.2062500000e+000	-3.2166679682e+000
 1.0894850595e-001	 1.2075953267e+000	-3.0900205367e+000
 9.7909374779e-002	 1.2085404438e+000	-3.1060666816e+000
 8.6899066339e-002	 1.2093819919e+000	-3.1190816339e+000
 7.5918840205e-002	 1.2101208947e+000	-3.1291188430e+000
 6.4969930554e-002	 1.2107580923e+000	-3.1362269378e+000
 5.4053546019e-002	 1.2112945406e+000	-3.1404497955e+000
 4.3170869563e-002	 1.2117312103e+000	-3.1418266202e+000
 3.2323058372e-002	 1.2120690863e+000	-3.1403920321e+000
 2.1511243774e-002	 1.2123091670e+000	-3.1361761640e+000
 1.0736531173e-002	 1.2124524638e+000	-3.1292047679e+000
 0.0000000000e+000	 1.2125000000e+000	-3.1194993280e+000
 1.0951009619e-001	 1.2138200449e+000	-3.0151758388e+000
 9.8414062277e-002	 1.2147700337e+000	-3.0273950655e+000
 8.7346999670e-002	 1.2156159197e+000	-3.0369989574e+000
 7.6310174433e-002	 1.2163586312e+000	-3.0440399803e+000
 6.5304827103e-002	 1.2169991134e+000	-3.0485654203e+000
 5.4332172545e-002	 1.2175383269e+000	-3.0506174615e+000
 4.3393399818e-002	 1.2179772475e+000	-3.0502332739e+000
 3.2489672074e-002	 1.2183168651e+000	-3.0474451113e+000
 2.1622126474e-002	 1.2185581833e+000	-3.0422804184e+000
 1.0791874118e-002	 1.2187022187e+000	-3.0347619467e+000
 0.0000000000e+000	 1.2187500000e+000	-3.0249078773e+000
 1.1007168642e-001	 1.2200447631e+000	-2.9425758550e+000
 9.8918749775e-002	 1.2209996237e+000	-2.9509974251e+000
 8.7794933001e-002	 1.2218498475e+000	-2.9572191787e+000
 7.6701508660e-002	 1.2225963678e+000	-2.9612926064e+000
 6.5639723652e-002	 1.2232401345e+000	-2.9632636586e+000
 5.4610799070e-002	 1.2237821132e+000	-2.9631728323e+000
 4.3615930073e-002	 1.2242232846e+000	-2.9610552679e+000
 3.2656285777e-002	 1.2245646439e+000	-2.9569408569e+000
 2.1733009174e-002	 1.2248071996e+000	-2.9508543586e+000
 1.0847217062e-002	 1.2249519737e+000	-2.9428155252e+000
 0.0000000000e+000	 1.2250000000e+000	-2.9328392356e+000
 1.1063327666e-001	 1.2262694812e+000	-2.8721733493e+000
 9.9423437273e-002	 1.2272292136e+000	-2.8768257027e+000
 8.8242866332e-002	 1.2280837753e+000	-2.8796934672e+000
 7.7092842887e-002	 1.2288341044e+000	-2.8808271663e+000
 6.5974620201e-002	 1.2294811556e+000	-2.8802714220e+000
 5.4889425596e-002	 1.2300258995e+000	-2.8780650496e+000
 4.3838460328e-002	 1.2304693218e+000	-2.8742411650e+000
 3.2822899480e-002	 1.2308124227e+000	-2.8688273008e+000
 2.1843891874e-002	 1.2310562160e+000	-2.8618455329e+000
 1.0902560006e-002	 1.2312017287e+000	-2.8533126158e+000
 0.0000000000e+000	 1.2312500000e+000	-2.8432401264e+000
 1.1119486689e-001	 1.2324941994e+000	-2.8039220773e+000
 9.9928124771e-002	 1.2334588035e+000	-2.8048328437e+000
 8.8690799663e-002	 1.2343177031e+000	-2.8043740062e+000
 7.7484177114e-002	 1.2350718410e+000	-2.8025951294e+000
 6.6309516750e-002	 1.2357221767e+000	-2.7995395135e+000
 5.5168052121e-002	 1.2362696858e+000	-2.7952442983e+000
 4.4060990583e-002	 1.2367153590e+000	-2.7897405790e+000
 3.2989513183e-002	 1.2370602015e+000	-2.7830535328e+000
 2.1954774573e-002	 1.2373052323e+000	-2.7752025545e+000
 1.0957902950e-002	 1.2374514836e+000	-2.7662014019e+000
 0.0000000000e+000	 1.2375000000e+000	-2.7560583495e+000
 1.1175645713e-001	 1.2387189176e+000	-2.7377767610e+000
 1.0043281227e-001	 1.2396883934e+000	-2.7349727713e+000
 8.9138732994e-002	 1.2405516308e+000	-2.7312139676e+000
 7.7875511342e-002	 1.2413095775e+000	-2.7265489637e+000
 6.6644413298e-002	 1.2419631978e+000	-2.7210197444e+000
 5.5446678647e-002	 1.2425134721e+000	-2.7146617795e+000
 4.4283520839e-002	 1.2429613961e+000	-2.7075041481e+000
 3.3156126885e-002	 1.2433079802e+000	-2.6995696748e+000
 2.2065657273e-002	 1.2435542486e+000	-2.6908750751e+000
 1.1013245894e-002	 1.2437012386e+000	-2.6814311108e+000
 0.0000000000e+000	 1.2437500000e+000	-2.6712427540e+000
 1.1231804736e-001	 1.2449436358e+000	-2.6736930644e+000
 1.0093749977e-001	 1.2459179833e+000	-2.6672003622e+000
 8.9586666325e-002	 1.2467855586e+000	-2.6601674874e+000
 7.8266845569e-002	 1.2475473141e+000	-2.6526421106e+000
 6.6979309847e-002	 1.2482042189e+000	-2.6446649084e+000
 5.5725305172e-002	 1.2487572584e+000	-2.6362696855e+000
 4.4506051094e-002	 1.2492074333e+000	-2.6274835092e+000
 3.3322740588e-002	 1.2495557590e+000	-2.6183268541e+000
 2.2176539973e-002	 1.2498032649e+000	-2.6088137583e+000
 1.1068588838e-002	 1.2499509936e+000	-2.5989519881e+000
 0.0000000000e+000	 1.2500000000e+000	-2.5887432120e+000
 1.2500000000e+000	 0.0000000000e+000	 3.3477141497e+000
 1.2499509936e+000	 1.1068588838e-002	 3.3651754916e+000
 1.2498032649e+000	 2.2176539973e-002	 3.3800010577e+000
 1.2495557590e+000	 3.3322740588e-002	 3.3921962137e+000
 1.2492074333e+000	 4.4506051094e-002	 3.4017610089e+000
 1.2487572584e+000	 5.5725305172e-002	 3.4086899090e+000
 1.2482042189e+000	 6.6979309847e-002	 3.4129715336e+000
 1.2475473141e+000	 7.8266845569e-002	 3.4145883986e+000
 1.2467855586e+000	 8.9586666325e-002	 3.4135166653e+000
 1.2459179833e+000	 1.0093749977e-001	 3.4097258967e+000
 1.2449436358e+000	 1.1231804736e-001	 3.4031788220e+000
 1.2562500000e+000	 0.0000000000e+000	 3.3580540532e+000
 1.2562007485e+000	 1.1123931782e-002	 3.3733092749e+000
 1.2560522813e+000	 2.2287422673e-002	 3.3815279207e+000
 1.2558035378e+000	 3.3489354291e-002	 3.3823846547e+000
 1.2554534705e+000	 4.4728581349e-002	 3.3755643106e+000
 1.2550010447e+000	 5.6003931698e-002	 3.3607625141e+000
 1.2544452400e+000	 6.7314206396e-002	 3.3376862990e+000
 1.2537850507e+000	 7.8658179796e-002	 3.3060547174e+000
 1.2530194864e+000	 9.0034599656e-002	 3.2655994424e+000
 1.2521475732e+000	 1.0144218727e-001	 3.2160653607e+000
 1.2511683539e+000	 1.1287963760e-001	 3.1572111547e+000
 1.2625000000e+000	 0.0000000000e+000	 3.3705383755e+000
 1.2624505035e+000	 1.1179274727e-002	 3.3858749827e+000
 1.2623012976e+000	 2.2398305372e-002	 3.3944707421e+000
 1.2620513166e+000	 3.3655967994e-002	 3.3960025787e+000
 1.2616995076e+000	 4.4951111604e-002	 3.3901575849e+000
 1.2612448310e+000	 5.6282558223e-002	 3.3766336414e+000
 1.2606862611e+000	 6.7649102945e-002	 3.3551400327e+000
 1.2600227872e+000	 7.9049514023e-002	 3.3253980568e+000
 1.2592534142e+000	 9.0482532987e-002	 3.2871416262e+000
 1.2583771631e+000	 1.0194687476e-001	 3.2401178597e+000
 1.2573930721e+000	 1.1344122784e-001	 3.1840876630e+000
 1.2687500000e+000	 0.0000000000e+000	 3.3851299440e+000
 1.2687002585e+000	 1.1234617671e-002	 3.4005989457e+000
 1.2685503139e+000	 2.2509188072e-002	 3.4096178012e+000
 1.2682990954e+000	 3.3822581696e-002	 3.4118656334e+000
 1.2679455448e+000	 4.5173641859e-002	 3.4070317334e+000
 1.2674886173e+000	 5.6561184749e-002	 3.3948161807e+000
 1.2669272822e+000	 6.7983999493e-002	 3.3749304586e+000
 1.2662605238e+000	 7.9440848251e-002	 3.3470980624e+000
 1.2654873420e+000	 9.0930466318e-002	 3.3110550996e+000
 1.2646067531e+000	 1.0245156226e-001	 3.2665508811e+000
 1.2636177903e+000	 1.1400281807e-001	 3.2133484997e+000
 1.2750000000e+000	 0.0000000000e+000	 3.4017923151e+000
 1.2749500134e+000	 1.1289960615e-002	 3.4174443166e+000
 1.2747993302e+000	 2.2620070772e-002	 3.4269318743e+000
 1.2745468742e+000	 3.3989195399e-002	 3.4299362465e+000
 1.2741915820e+000	 4.5396172115e-002	 3.4261488635e+000
 1.2737324035e+000	 5.6839811274e-002	 3.4152719481e+000
 1.2731683033e+000	 6.8318896042e-002	 3.3970191302e+000
 1.2724982604e+000	 7.9832182478e-002	 3.3711160547e+000
 1.2717212698e+000	 9.1378399649e-002	 3.3373009805e+000
 1.2708363430e+000	 1.0295624976e-001	 3.2953253707e+000
 1.2698425085e+000	 1.1456440831e-001	 3.2449544702e+000
 1.2812500000e+000	 0.0000000000e+000	 3.4204897563e+000
 1.2811997684e+000	 1.1345303559e-002	 3.4363749646e+000
 1.2810483466e+000	 2.2730953472e-002	 3.4463764588e+000
 1.2807946530e+000	 3.4155809102e-002	 3.4501775701e+000
 1.2804376191e+000	 4.5618702370e-002	 3.4474718093e+000
 1.2799761898e+000	 5.7118437800e-002	 3.4379634874e+000
 1.2794093244e+000	 6.8653792591e-002	 3.4213683296e+000
 1.2787359969e+000	 8.0223516705e-002	 3.3974140828e+000
 1.2779551976e+000	 9.1826332979e-002	 3.3658411140e+000
 1.2770659329e+000	 1.0346093726e-001	 3.3264029994e+000
 1.2760672267e+000	 1.1512599854e-001	 3.2788671012e+000
 1.2875000000e+000	 0.0000000000e+000	 3.4411872290e+000
 1.2874495234e+000	 1.1400646503e-002	 3.4573554576e+000
 1.2872973629e+000	 2.2841836171e-002	 3.4679157548e+000
 1.2870424318e+000	 3.4322422805e-002	 3.4725534625e+000
 1.2866836563e+000	 4.5841232625e-002	 3.4709641137e+000
 1.2862199761e+000	 5.7397064325e-002	 3.4628540529e+000
 1.2856503455e+000	 6.8988689140e-002	 3.4479410498e+000
 1.2849737335e+000	 8.0614850932e-002	 3.4259549062e+000
 1.2841891254e+000	 9.2274266310e-002	 3.3966380546e+000
 1.2832955228e+000	 1.0396562476e-001	 3.3597461453e+000
 1.2822919448e+000	 1.1568758878e-001	 3.3150486235e+000
 1.2937500000e+000	 0.0000000000e+000	 3.4638503715e+000
 1.2936992784e+000	 1.1455989447e-002	 3.4803510458e+000
 1.2935463792e+000	 2.2952718871e-002	 3.4915146487e+000
 1.2932902106e+000	 3.4489036507e-002	 3.4970284715e+000
 1.2929296935e+000	 4.6063762880e-002	 3.4965900116e+000
 1.2924637624e+000	 5.7675690851e-002	 3.4899075924e+000
 1.2918913665e+000	 6.9323585688e-002	 3.4767009778e+000
 1.2912114701e+000	 8.1006185160e-002	 3.4567019783e+000
 1.2904230532e+000	 9.2722199641e-002	 3.4296550489e+000
 1.2895251127e+000	 1.0447031225e-001	 3.3953178765e+000
 1.2885166630e+000	 1.1624917902e-001	 3.3534619549e+000
 1.3000000000e+000	 0.0000000000e+000	 3.4884454830e+000
 1.2999490333e+000	 1.1511332391e-002	 3.5053276450e+000
 1.2997953955e+000	 2.3063601571e-002	 3.5171386967e+000
 1.2995379894e+000	 3.4655650210e-002	 3.5235678179e+000
 1.2991757306e+000	 4.6286293135e-002	 3.5243144127e+000
 1.2987075487e+000	 5.7954317376e-002	 3.5190887300e+000
 1.2981323876e+000	 6.9658482237e-002	 3.5076124778e+000
 1.2974492066e+000	 8.1397519387e-002	 3.4896194289e+000
 1.2966569810e+000	 9.3170132972e-002	 3.4648560194e+000
 1.2957547026e+000	 1.0497499975e-001	 3.4330819346e+000
 1.2947413812e+000	 1.1681076925e-001	 3.3940706838e+000
 1.3062500000e+000	 0.0000000000e+000	 3.5149395078e+000
 1.3061987883e+000	 1.1566675336e-002	 3.5322518206e+000
 1.3060444119e+000	 2.3174484271e-002	 3.5447541085e+000
 1.3057857682e+000	 3.4822263913e-002	 3.5521373789e+000
 1.3054217678e+000	 4.6508823391e-002	 3.5541028859e+000
 1.3049513350e+000	 5.8232943902e-002	 3.5503627504e+000
 1.3043734087e+000	 6.9993378786e-002	 3.5406405747e+000
 1.3036869432e+000	 8.1788853614e-002	 3.5246720488e+000
 1.3028909088e+000	 9.3618066303e-002	 3.5022055480e+000
 1.3019842926e+000	 1.0547968725e-001	 3.4730027187e+000
 1.3009660994e+000	 1.1737235949e-001	 3.4368390530e+000
 1.3125000000e+000	 0.0000000000e+000	 3.5433000196e+000
 1.3124485433e+000	 1.1622018280e-002	 3.5610907723e+000
 1.3122934282e+000	 2.3285366970e-002	 3.5743277318e+000
 1.3120335470e+000	 3.4988877616e-002	 3.5827036732e+000
 1.3116678050e+000	 4.6731353646e-002	 3.5859216435e+000
 1.3111951213e+000	 5.8511570427e-002	 3.5836955829e+000
 1.3106144298e+000	 7.0328275335e-002	 3.5757509390e+000
 1.3099246798e+000	 8.2180187841e-002	 3.5618252737e+000
 1.3091248366e+000	 9.4065999634e-002	 3.5416688603e+000
 1.3082138825e+000	 1.0598437475e-001	 3.5150452698e+000
 1.3071908176e+000	 1.1793394972e-001	 3.4817319441e+000
 1.2449436358e+000	 1.1231804736e-001	 3.4031788220e+000
 1.2438615812e+000	 1.2372698457e-001	 3.4348798083e+000
 1.2426709033e+000	 1.3516296103e-001	 3.4589611928e+000
 1.2413707047e+000	 1.4662460077e-001	 3.4753733619e+000
 1.2399601078e+000	 1.5811050247e-001	 3.4840635292e+000
 1.2384382558e+000	 1.6961923972e-001	 3.4849756394e+000
 1.2368043131e+000	 1.8114936128e-001	 3.4780502826e+000
 1.2350574661e+000	 1.9269939141e-001	 3.4632246196e+000
 1.2331969241e+000	 2.0426783020e-001	 3.4404323199e+000
 1.2312219199e+000	 2.1585315395e-001	 3.4096035117e+000
 1.2291317105e+000	 2.2745381550e-001	 3.3706647453e+000
 1.2511683539e+000	 1.1287963760e-001	 3.1572111547e+000
 1.2500808892e+000	 1.2434561949e-001	 3.1313227881e+000
 1.2488842578e+000	 1.3583877583e-001	 3.1529523660e+000
 1.2475775582e+000	 1.4735772377e-001	 3.1727638991e+000
 1.2461599084e+000	 1.5890105498e-001	 3.1863255525e+000
 1.2446304471e+000	 1.7046733592e-001	 3.1935799461e+000
 1.2429883347e+000	 1.8205510808e-001	 3.1944649782e+000
 1.2412327534e+000	 1.9366288836e-001	 3.1889137244e+000
 1.2393629087e+000	 2.0528916936e-001	 3.1768543489e+000
 1.2373780295e+000	 2.1693241972e-001	 3.1582100304e+000
 1.2352773691e+000	 2.2859108458e-001	 3.1328989030e+000
 1.2573930721e+000	 1.1344122784e-001	 3.1840876630e+000
 1.2563001971e+000	 1.2496425441e-001	 3.1625847249e+000
 1.2550976124e+000	 1.3651459063e-001	 3.1286495280e+000
 1.2537844117e+000	 1.4809084677e-001	 3.0820910841e+000
 1.2523597089e+000	 1.5969160749e-001	 3.0227372495e+000
 1.2508226384e+000	 1.7131543211e-001	 2.9504352841e+000
 1.2491723562e+000	 1.8296085489e-001	 2.9123010085e+000
 1.2474080408e+000	 1.9462638532e-001	 2.9157137645e+000
 1.2455288933e+000	 2.0631050851e-001	 2.9140664468e+000
 1.2435341391e+000	 2.1801168549e-001	 2.9072753030e+000
 1.2414230276e+000	 2.2972835366e-001	 2.8952500730e+000
 1.2636177903e+000	 1.1400281807e-001	 3.2133484997e+000
 1.2625195050e+000	 1.2558288934e-001	 3.1960138670e+000
 1.2613109669e+000	 1.3719040544e-001	 3.1674334670e+000
 1.2599912653e+000	 1.4882396978e-001	 3.1274154296e+000
 1.2585595094e+000	 1.6048216001e-001	 3.0757859118e+000
 1.2570148297e+000	 1.7216352831e-001	 3.0123896408e+000
 1.2553563778e+000	 1.8386660169e-001	 2.9370904330e+000
 1.2535833281e+000	 1.9558988228e-001	 2.8497716910e+000
 1.2516948779e+000	 2.0733184766e-001	 2.7503368733e+000
 1.2496902486e+000	 2.1909095126e-001	 2.6567980535e+000
 1.2475686862e+000	 2.3086562273e-001	 2.6577222631e+000
 1.2698425085e+000	 1.1456440831e-001	 3.2449544702e+000
 1.2687388129e+000	 1.2620152426e-001	 3.2315740791e+000
 1.2675243214e+000	 1.3786622024e-001	 3.2081196927e+000
 1.2661981188e+000	 1.4955709278e-001	 3.1743985343e+000
 1.2647593100e+000	 1.6127271252e-001	 3.1302350472e+000
 1.2632070209e+000	 1.7301162451e-001	 3.0754714215e+000
 1.2615403994e+000	 1.8477234850e-001	 3.0099680978e+000
 1.2597586154e+000	 1.9655337923e-001	 2.9336042482e+000
 1.2578608626e+000	 2.0835318681e-001	 2.8462782319e+000
 1.2558463582e+000	 2.2017021703e-001	 2.7479080246e+000
 1.2537143447e+000	 2.3200289181e-001	 2.6384316188e+000
 1.2760672267e+000	 1.1512599854e-001	 3.2788671012e+000
 1.2749581208e+000	 1.2682015918e-001	 3.2692298816e+000
 1.2737376759e+000	 1.3854203505e-001	 3.2506758856e+000
 1.2724049723e+000	 1.5029021578e-001	 3.2230114061e+000
 1.2709591105e+000	 1.6206326503e-001	 3.1860591589e+000
 1.2693992122e+000	 1.7385972071e-001	 3.1396587930e+000
 1.2677244209e+000	 1.8567809530e-001	 3.0836673793e+000
 1.2659339027e+000	 1.9751687619e-001	 3.0179598766e+000
 1.2640268472e+000	 2.0937452596e-001	 2.9424295723e+000
 1.2620024678e+000	 2.2124948280e-001	 2.8569884976e+000
 1.2598600033e+000	 2.3314016089e-001	 2.7615678146e+000
 1.2822919448e+000	 1.1568758878e-001	 3.3150486235e+000
 1.2811774287e+000	 1.2743879410e-001	 3.3089464341e+000
 1.2799510304e+000	 1.3921784985e-001	 3.2950702976e+000
 1.2786118258e+000	 1.5102333878e-001	 3.2732255530e+000
 1.2771589111e+000	 1.6285381754e-001	 3.2432331747e+000
 1.2755914035e+000	 1.7470781690e-001	 3.2049302673e+000
 1.2739084425e+000	 1.8658384211e-001	 3.1581705388e+000
 1.2721091901e+000	 1.9848037314e-001	 3.1028247516e+000
 1.2701928318e+000	 2.1039586511e-001	 3.0387811490e+000
 1.2681585774e+000	 2.2232874857e-001	 2.9659458563e+000
 1.2660056618e+000	 2.3427742997e-001	 2.8842432542e+000
 1.2885166630e+000	 1.1624917902e-001	 3.3534619549e+000
 1.2873967366e+000	 1.2805742902e-001	 3.3506895208e+000
 1.2861643849e+000	 1.3989366465e-001	 3.3412717385e+000
 1.2848186793e+000	 1.5175646179e-001	 3.3250129704e+000
 1.2833587116e+000	 1.6364437005e-001	 3.3017324365e+000
 1.2817835948e+000	 1.7555591310e-001	 3.2712646938e+000
 1.2800924641e+000	 1.8748958891e-001	 3.2334600943e+000
 1.2782844774e+000	 1.9944387010e-001	 3.1881852213e+000
 1.2763588164e+000	 2.1141720426e-001	 3.1353233018e+000
 1.2743146870e+000	 2.2340801434e-001	 3.0747745934e+000
 1.2721513204e+000	 2.3541469904e-001	 3.0064567449e+000
 1.2947413812e+000	 1.1681076925e-001	 3.3940706838e+000
 1.2936160445e+000	 1.2867606394e-001	 3.3944255346e+000
 1.2923777395e+000	 1.4056947946e-001	 3.3892495621e+000
 1.2910255329e+000	 1.5248958479e-001	 3.3783461298e+000
 1.2895585121e+000	 1.6443492256e-001	 3.3615326906e+000
 1.2879757861e+000	 1.7640400930e-001	 3.3386412510e+000
 1.2862764856e+000	 1.8839533572e-001	 3.3095188142e+000
 1.2844597647e+000	 2.0040736706e-001	 3.2740278020e+000
 1.2825248010e+000	 2.1243854341e-001	 3.2320464529e+000
 1.2804707966e+000	 2.2448728011e-001	 3.1834691954e+000
 1.2782969789e+000	 2.3655196812e-001	 3.1282069955e+000
 1.3009660994e+000	 1.1737235949e-001	 3.4368390530e+000
 1.2998353524e+000	 1.2929469887e-001	 3.4401214630e+000
 1.2985910940e+000	 1.4124529426e-001	 3.4389736537e+000
 1.2972323864e+000	 1.5322270779e-001	 3.4331979674e+000
 1.2957583127e+000	 1.6522547507e-001	 3.4226100779e+000
 1.2941679773e+000	 1.7725210550e-001	 3.4070394385e+000
 1.2924605072e+000	 1.8930108252e-001	 3.3863297114e+000
 1.2906350521e+000	 2.0137086401e-001	 3.3603391744e+000
 1.2886907857e+000	 2.1345988256e-001	 3.3289411055e+000
 1.2866269062e+000	 2.2556654588e-001	 3.2920241428e+000
 1.2844426375e+000	 2.3768923720e-001	 3.2494926185e+000
 1.3071908176e+000	 1.1793394972e-001	 3.4817319441e+000
 1.3060546603e+000	 1.2991333379e-001	 3.4877448741e+000
 1.3048044485e+000	 1.4192110907e-001	 3.4904144170e+000
 1.3034392399e+000	 1.5395583079e-001	 3.4895418730e+000
 1.3019581132e+000	 1.6601602758e-001	 3.4849411244e+000
 1.3003601686e+000	 1.7810020169e-001	 3.4764390696e+000
 1.2986445288e+000	 1.9020682933e-001	 3.4638760374e+000
 1.2968103394e+000	 2.0233436097e-001	 3.4471061796e+000
 1.2948567703e+000	 2.1448122171e-001	 3.4259978419e+000
 1.2927830158e+000	 2.2664581165e-001	 3.4004339103e+000
 1.2905882961e+000	 2.3882650627e-001	 3.3703121326e+000
 1.2291317105e+000	 2.2745381550e-001	 3.3706647453e+000
 1.2269255782e+000	 2.3906824468e-001	 3.3580000691e+000
 1.2246028307e+000	 2.5069484871e-001	 3.3376361059e+000
 1.2221628022e+000	 2.6233201268e-001	 3.3095125811e+000
 1.2196048543e+000	 2.7397810001e-001	 3.2735654130e+000
 1.2169283763e+000	 2.8563145298e-001	 3.2297267228e+000
 1.2141327860e+000	 2.9729039319e-001	 3.1779248606e+000
 1.2112175306e+000	 3.0895322221e-001	 3.1180844500e+000
 1.2081820871e+000	 3.2061822206e-001	 3.0501264500e+000
 1.2050259632e+000	 3.3228365588e-001	 2.9739682362e+000
 1.2017486977e+000	 3.4394776852e-001	 2.8895237011e+000
 1.2352773691e+000	 2.2859108458e-001	 3.1328989030e+000
 1.2330602061e+000	 2.4026358590e-001	 3.1354517697e+000
 1.2307258448e+000	 2.5194832295e-001	 3.1310341277e+000
 1.2282736162e+000	 2.6364367274e-001	 3.1195724539e+000
 1.2257028786e+000	 2.7534799051e-001	 3.1009884863e+000
 1.2230130182e+000	 2.8705961024e-001	 3.0751992288e+000
 1.2202034500e+000	 2.9877684516e-001	 3.0421169755e+000
 1.2172736183e+000	 3.1049798832e-001	 3.0016493530e+000
 1.2142229976e+000	 3.2222131318e-001	 2.9536993831e+000
 1.2110510930e+000	 3.3394507417e-001	 2.8981655645e+000
 1.2077574412e+000	 3.4566750737e-001	 2.8349419763e+000
 1.2414230276e+000	 2.2972835366e-001	 2.8952500730e+000
 1.2391948340e+000	 2.4145892712e-001	 2.9127612519e+000
 1.2368488590e+000	 2.5320179719e-001	 2.9240274855e+000
 1.2343844302e+000	 2.6495533281e-001	 2.9289620590e+000
 1.2318009029e+000	 2.7671788102e-001	 2.9274725863e+000
 1.2290976601e+000	 2.8848776751e-001	 2.9194610112e+000
 1.2262741139e+000	 3.0026329713e-001	 2.9048236294e+000
 1.2233297059e+000	 3.1204275444e-001	 2.8834511288e+000
 1.2202639080e+000	 3.2382440429e-001	 2.8552286526e+000
 1.2170762228e+000	 3.3560649245e-001	 2.8200358820e+000
 1.2137661847e+000	 3.4738724621e-001	 2.7777471422e+000
 1.2475686862e+000	 2.3086562273e-001	 2.6577222631e+000
 1.2453294618e+000	 2.4265426835e-001	 2.6899366444e+000
 1.2429718731e+000	 2.5445527144e-001	 2.7166285343e+000
 1.2404952442e+000	 2.6626699287e-001	 2.7376980810e+000
 1.2378989271e+000	 2.7808777152e-001	 2.7530388295e+000
 1.2351823020e+000	 2.8991592477e-001	 2.7625377200e+000
 1.2323447778e+000	 3.0174974910e-001	 2.7660751058e+000
 1.2293857936e+000	 3.1358752055e-001	 2.7635247934e+000
 1.2263048184e+000	 3.2542749540e-001	 2.7547541044e+000
 1.2231013527e+000	 3.3726791073e-001	 2.7396239602e+000
 1.2197749282e+000	 3.4910698506e-001	 2.7179889902e+000
 1.2537143447e+000	 2.3200289181e-001	 2.6384316188e+000
 1.2514640897e+000	 2.4384960957e-001	 2.5534471283e+000
 1.2490948873e+000	 2.5570874568e-001	 2.5088493610e+000
 1.2466060583e+000	 2.6757865293e-001	 2.5457968539e+000
 1.2439969514e+000	 2.7945766202e-001	 2.5777078984e+000
 1.2412669438e+000	 2.9134408204e-001	 2.6044544854e+000
 1.2384154417e+000	 3.0323620106e-001	 2.6259010815e+000
 1.2354418812e+000	 3.1513228666e-001	 2.6419046670e+000
 1.2323457289e+000	 3.2703058651e-001	 2.6523147981e+000
 1.2291264825e+000	 3.3892932901e-001	 2.6569736925e+000
 1.2257836717e+000	 3.5082672390e-001	 2.6557163402e+000
 1.2598600033e+000	 2.3314016089e-001	 2.7615678146e+000
 1.2575987176e+000	 2.4504495079e-001	 2.6922780761e+000
 1.2552179014e+000	 2.5696221993e-001	 2.6101034584e+000
 1.2527168723e+000	 2.6889031300e-001	 2.5150571884e+000
 1.2500949757e+000	 2.8082755252e-001	 2.4071756552e+000
 1.2473515857e+000	 2.9277223931e-001	 2.4452359306e+000
 1.2444861057e+000	 3.0472265303e-001	 2.4843306410e+000
 1.2414979689e+000	 3.1667705277e-001	 2.5186243913e+000
 1.2383866393e+000	 3.2863367763e-001	 2.5479490267e+000
 1.2351516123e+000	 3.4059074729e-001	 2.5721281160e+000
 1.2317924152e+000	 3.5254646275e-001	 2.5909770646e+000
 1.2660056618e+000	 2.3427742997e-001	 2.8842432542e+000
 1.2637333455e+000	 2.4624029202e-001	 2.8303839713e+000
 1.2613409156e+000	 2.5821569417e-001	 2.7640775492e+000
 1.2588276863e+000	 2.7020197306e-001	 2.6853275242e+000
 1.2561930000e+000	 2.8219744302e-001	 2.5941602643e+000
 1.2534362276e+000	 2.9420039657e-001	 2.4906252201e+000
 1.2505567696e+000	 3.0620910500e-001	 2.3747951376e+000
 1.2475540565e+000	 3.1822181889e-001	 2.3937169455e+000
 1.2444275497e+000	 3.3023676874e-001	 2.4416943347e+000
 1.2411767421e+000	 3.4225216558e-001	 2.4851294317e+000
 1.2378011587e+000	 3.5426620159e-001	 2.5238181110e+000
 1.2721513204e+000	 2.3541469904e-001	 3.0064567449e+000
 1.2698679734e+000	 2.4743563324e-001	 2.9677668280e+000
 1.2674639297e+000	 2.5946916841e-001	 2.9170601591e+000
 1.2649385003e+000	 2.7151363313e-001	 2.8543306844e+000
 1.2622910242e+000	 2.8356733352e-001	 2.7795948593e+000
 1.2595208695e+000	 2.9562855384e-001	 2.6928919000e+000
 1.2566274335e+000	 3.0769555697e-001	 2.5942839964e+000
 1.2536101442e+000	 3.1976658500e-001	 2.4838564846e+000
 1.2504684602e+000	 3.3183985985e-001	 2.3617179781e+000
 1.2472018719e+000	 3.4391358386e-001	 2.3960190252e+000
 1.2438099022e+000	 3.5598594044e-001	 2.4542855245e+000
 1.2782969789e+000	 2.3655196812e-001	 3.1282069955e+000
 1.2760026013e+000	 2.4863097446e-001	 3.1044284907e+000
 1.2735869439e+000	 2.6072264266e-001	 3.0690563296e+000
 1.2710493143e+000	 2.7282529319e-001	 3.0220749693e+000
 1.2683890485e+000	 2.8493722402e-001	 2.9634910605e+000
 1.2656055114e+000	 2.9705671111e-001	 2.8933337001e+000
 1.2626980975e+000	 3.0918200893e-001	 2.8116546453e+000
 1.2596662318e+000	 3.2131135111e-001	 2.7185284864e+000
 1.2565093706e+000	 3.3344295096e-001	 2.6140527793e+000
 1.2532270017e+000	 3.4557500214e-001	 2.4983481348e+000
 1.2498186456e+000	 3.5770567928e-001	 2.3824244699e+000
 1.2844426375e+000	 2.3768923720e-001	 3.2494926185e+000
 1.2821372292e+000	 2.4982631569e-001	 3.2403706374e+000
 1.2797099580e+000	 2.6197611690e-001	 3.2200708653e+000
 1.2771601283e+000	 2.7413695325e-001	 3.1885683694e+000
 1.2744870728e+000	 2.8630711452e-001	 3.1458601035e+000
 1.2716901532e+000	 2.9848486837e-001	 3.0919651602e+000
 1.2687687614e+000	 3.1066846090e-001	 3.0269249864e+000
 1.2657223195e+000	 3.2285611723e-001	 2.9508035566e+000
 1.2625502811e+000	 3.3504604208e-001	 2.8636875068e+000
 1.2592521316e+000	 3.4723642042e-001	 2.7656862247e+000
 1.2558273891e+000	 3.5942541813e-001	 2.6569318966e+000
 1.2905882961e+000	 2.3882650627e-001	 3.3703121326e+000
 1.2882718571e+000	 2.5102165691e-001	 3.3755947844e+000
 1.2858329722e+000	 2.6322959115e-001	 3.3701083388e+000
 1.2832709423e+000	 2.7544861332e-001	 3.3538185725e+000
 1.2805850971e+000	 2.8767700503e-001	 3.3267128490e+000
 1.2777747951e+000	 2.9991302564e-001	 3.2888003712e+000
 1.2748394253e+000	 3.1215491287e-001	 3.2401123974e+000
 1.2717784072e+000	 3.2440088334e-001	 3.1807024160e+000
 1.2685911915e+000	 3.3664913319e-001	 3.1106462798e+000
 1.2652772614e+000	 3.4889783870e-001	 3.0300422976e+000
 1.2618361326e+000	 3.6114515698e-001	 2.9390112829e+000
 1.2017486977e+000	 3.4394776852e-001	 2.8895237011e+000
 1.1983498615e+000	 3.5560878718e-001	 2.8084039790e+000
 1.1948290576e+000	 3.6726492211e-001	 2.7318192579e+000
 1.1911859226e+000	 3.7891436727e-001	 2.6595357060e+000
 1.1874201265e+000	 3.9055530107e-001	 2.5913022633e+000
 1.1835313736e+000	 4.0218588712e-001	 2.5268507604e+000
 1.1795194030e+000	 4.1380427493e-001	 2.4658960737e+000
 1.1753839893e+000	 4.2540860078e-001	 2.4081363206e+000
 1.1711249430e+000	 4.3699698844e-001	 2.3532530924e+000
 1.1667421108e+000	 4.4856755005e-001	 2.3009117277e+000
 1.1622353763e+000	 4.6011838693e-001	 2.2507616237e+000
 1.2077574412e+000	 3.4566750737e-001	 2.8349419763e+000
 1.2043416108e+000	 3.5738683112e-001	 2.7705952628e+000
 1.2008032029e+000	 3.6910124672e-001	 2.7078421288e+000
 1.1971418522e+000	 3.8080893911e-001	 2.6464655685e+000
 1.1933572271e+000	 3.9250807758e-001	 2.5862341451e+000
 1.1894490304e+000	 4.0419681656e-001	 2.5269021355e+000
 1.1854170000e+000	 4.1587329631e-001	 2.4682097101e+000
 1.1812609093e+000	 4.2753564379e-001	 2.4098831475e+000
 1.1769805677e+000	 4.3918197338e-001	 2.3516350858e+000
 1.1725758213e+000	 4.5081038780e-001	 2.2931648091e+000
 1.1680465532e+000	 4.6241897887e-001	 2.2341585708e+000
 1.2137661847e+000	 3.4738724621e-001	 2.7777471422e+000
 1.2103333601e+000	 3.5916487506e-001	 2.7309711336e+000
 1.2067773482e+000	 3.7093757133e-001	 2.6828820258e+000
 1.2030977819e+000	 3.8270351095e-001	 2.6332794830e+000
 1.1992943278e+000	 3.9446085409e-001	 2.5819515114e+000
 1.1953666873e+000	 4.0620774599e-001	 2.5286746292e+000
 1.1913145970e+000	 4.1794231769e-001	 2.4732140705e+000
 1.1871378292e+000	 4.2966268679e-001	 2.4153240204e+000
 1.1828361924e+000	 4.4136695833e-001	 2.3547478832e+000
 1.1784095319e+000	 4.5305322555e-001	 2.2912185835e+000
 1.1738577301e+000	 4.6471957080e-001	 2.2244589007e+000
 1.2197749282e+000	 3.4910698506e-001	 2.7179889902e+000
 1.2163251094e+000	 3.6094291900e-001	 2.6895704387e+000
 1.2127514935e+000	 3.7277389595e-001	 2.6569663907e+000
 1.2090537115e+000	 3.8459808279e-001	 2.6199930260e+000
 1.2052314284e+000	 3.9641363060e-001	 2.5784576147e+000
 1.2012843442e+000	 4.0821867543e-001	 2.5321587134e+000
 1.1972121940e+000	 4.2001133907e-001	 2.4808863919e+000
 1.1930147492e+000	 4.3178972980e-001	 2.4244224893e+000
 1.1886918171e+000	 4.4355194327e-001	 2.3625408989e+000
 1.1842432424e+000	 4.5529606331e-001	 2.2950078838e+000
 1.1796689070e+000	 4.6702016274e-001	 2.2215824217e+000
 1.2257836717e+000	 3.5082672390e-001	 2.6557163402e+000
 1.2223168587e+000	 3.6272096294e-001	 2.6464312742e+000
 1.2187256388e+000	 3.7461022056e-001	 2.6301221434e+000
 1.2150096411e+000	 3.8649265463e-001	 2.6066214904e+000
 1.2111685290e+000	 3.9836640711e-001	 2.5757556719e+000
 1.2072020010e+000	 4.1022960487e-001	 2.5373450815e+000
 1.2031097911e+000	 4.2208036044e-001	 2.4912043993e+000
 1.1988916691e+000	 4.3391677281e-001	 2.4371428680e+000
 1.1945474418e+000	 4.4573692822e-001	 2.3749645955e+000
 1.1900769530e+000	 4.5753890106e-001	 2.3044688842e+000
 1.1854800839e+000	 4.6932075468e-001	 2.2254505866e+000
 1.2317924152e+000	 3.5254646275e-001	 2.5909770646e+000
 1.2283086080e+000	 3.6449900688e-001	 2.6015910028e+000
 1.2246997841e+000	 3.7644654518e-001	 2.6023756943e+000
 1.2209655707e+000	 3.8838722647e-001	 2.5931798925e+000
 1.2171056296e+000	 4.0031918362e-001	 2.5738488652e+000
 1.2131196579e+000	 4.1224053431e-001	 2.5442246433e+000
 1.2090073881e+000	 4.2414938182e-001	 2.5041462937e+000
 1.2047685891e+000	 4.3604381581e-001	 2.4534502152e+000
 1.2004030666e+000	 4.4792191317e-001	 2.3919704583e+000
 1.1959106635e+000	 4.5978173881e-001	 2.3195390683e+000
 1.1912912607e+000	 4.7162134661e-001	 2.2359864525e+000
 1.2378011587e+000	 3.5426620159e-001	 2.5238181110e+000
 1.2343003573e+000	 3.6627705082e-001	 2.5550862721e+000
 1.2306739294e+000	 3.7828286979e-001	 2.5737529569e+000
 1.2269215003e+000	 3.9028179831e-001	 2.5796829788e+000
 1.2230427303e+000	 4.0227196013e-001	 2.5727403427e+000
 1.2190373148e+000	 4.1425146375e-001	 2.5527885193e+000
 1.2149049851e+000	 4.2621840320e-001	 2.5196907407e+000
 1.2106455090e+000	 4.3817085882e-001	 2.4733103164e+000
 1.2062586913e+000	 4.5010689811e-001	 2.4135109701e+000
 1.2017443741e+000	 4.6202457657e-001	 2.3401571971e+000
 1.1971024376e+000	 4.7392193855e-001	 2.2531146416e+000
 1.2438099022e+000	 3.5598594044e-001	 2.4542855245e+000
 1.2402921066e+000	 3.6805509475e-001	 2.5069530316e+000
 1.2366480747e+000	 3.8011919440e-001	 2.5442793594e+000
 1.2328774299e+000	 3.9217637015e-001	 2.5661452324e+000
 1.2289798309e+000	 4.0422473663e-001	 2.5724332197e+000
 1.2249549716e+000	 4.1626239319e-001	 2.5630280360e+000
 1.2208025821e+000	 4.2828742458e-001	 2.5378168591e+000
 1.2165224290e+000	 4.4029790183e-001	 2.4966896662e+000
 1.2121143160e+000	 4.5229188306e-001	 2.4395395876e+000
 1.2075780846e+000	 4.6426741432e-001	 2.3662632779e+000
 1.2029136145e+000	 4.7622253049e-001	 2.2767613042e+000
 1.2498186456e+000	 3.5770567928e-001	 2.3824244699e+000
 1.2462838559e+000	 3.6983313869e-001	 2.4572265494e+000
 1.2426222199e+000	 3.8195551902e-001	 2.5139798569e+000
 1.2388333595e+000	 3.9407094199e-001	 2.5525808792e+000
 1.2349169315e+000	 4.0617751314e-001	 2.5729305791e+000
 1.2308726285e+000	 4.1827332263e-001	 2.5749347207e+000
 1.2267001791e+000	 4.3035644596e-001	 2.5585042102e+000
 1.2223993489e+000	 4.4242494484e-001	 2.5235554516e+000
 1.2179699407e+000	 4.5447686800e-001	 2.4700107177e+000
 1.2134117952e+000	 4.6651025208e-001	 2.3977985345e+000
 1.2087247914e+000	 4.7852312243e-001	 2.3068540808e+000
 1.2558273891e+000	 3.5942541813e-001	 2.6569318966e+000
 1.2522756052e+000	 3.7161118263e-001	 2.5418698967e+000
 1.2485963652e+000	 3.8379184363e-001	 2.4828789422e+000
 1.2447892891e+000	 3.9596551383e-001	 2.5390038946e+000
 1.2408540322e+000	 4.0813028965e-001	 2.5742354725e+000
 1.2367902854e+000	 4.2028425207e-001	 2.5885002970e+000
 1.2325977761e+000	 4.3242546734e-001	 2.5817327872e+000
 1.2282762688e+000	 4.4455198785e-001	 2.5538755354e+000
 1.2238255654e+000	 4.5666185295e-001	 2.5048796948e+000
 1.2192455057e+000	 4.6875308983e-001	 2.4347053781e+000
 1.2145359683e+000	 4.8082371437e-001	 2.3433220676e+000
 1.2618361326e+000	 3.6114515698e-001	 2.9390112829e+000
 1.2582673545e+000	 3.7338922657e-001	 2.8461890482e+000
 1.2545705105e+000	 3.8562816825e-001	 2.7229145913e+000
 1.2507452188e+000	 3.9786008567e-001	 2.5696228294e+000
 1.2467911328e+000	 4.1008306616e-001	 2.5763509204e+000
 1.2427079422e+000	 4.2229518151e-001	 2.6037166797e+000
 1.2384953731e+000	 4.3449448872e-001	 2.6074830048e+000
 1.2341531888e+000	 4.4667903086e-001	 2.5876184397e+000
 1.2296811901e+000	 4.5884683790e-001	 2.5441027588e+000
 1.2250792163e+000	 4.7099592759e-001	 2.4769273791e+000
 1.2203471451e+000	 4.8312430631e-001	 2.3860957811e+000
 1.1622353763e+000	 4.6011838693e-001	 2.2507616237e+000
 1.1576046607e+000	 4.7164759047e-001	 2.2133568676e+000
 1.1528499225e+000	 4.8315324299e-001	 2.1754435530e+000
 1.1479711587e+000	 4.9463341864e-001	 2.1367987622e+000
 1.1429684047e+000	 5.0608618432e-001	 2.0971883812e+000
 1.1378417347e+000	 5.1750960065e-001	 2.0563674626e+000
 1.1325912624e+000	 5.2890172283e-001	 2.0140806201e+000
 1.1272171407e+000	 5.4026060171e-001	 1.9700624561e+000
 1.1217195625e+000	 5.5158428467e-001	 1.9240380214e+000
 1.1160987607e+000	 5.6287081669e-001	 1.8757233053e+000
 1.1103550086e+000	 5.7411824130e-001	 1.8248257578e+000
 1.1680465532e+000	 4.6241897887e-001	 2.2341585708e+000
 1.1633926840e+000	 4.7400582842e-001	 2.1893122671e+000
 1.1586141721e+000	 4.8556900920e-001	 2.1447584624e+000
 1.1537110145e+000	 4.9710658573e-001	 2.1002480047e+000
 1.1486832467e+000	 5.0861661525e-001	 2.0555194397e+000
 1.1435309434e+000	 5.2009714865e-001	 2.0102993919e+000
 1.1382542187e+000	 5.3154623145e-001	 1.9643029802e+000
 1.1328532264e+000	 5.4296190472e-001	 1.9172342682e+000
 1.1273281603e+000	 5.5434220610e-001	 1.8687867479e+000
 1.1216792545e+000	 5.6568517078e-001	 1.8186438572e+000
 1.1159067836e+000	 5.7698883251e-001	 1.7664795289e+000
 1.1738577301e+000	 4.6471957080e-001	 2.2244589007e+000
 1.1691807073e+000	 4.7636406638e-001	 2.1718180036e+000
 1.1643784217e+000	 4.8798477542e-001	 2.1202654060e+000
 1.1594508703e+000	 4.9957975282e-001	 2.0695257850e+000
 1.1543980887e+000	 5.1114704617e-001	 2.0193104114e+000
 1.1492201521e+000	 5.2268469666e-001	 1.9693175491e+000
 1.1439171750e+000	 5.3419074006e-001	 1.9192328921e+000
 1.1384893121e+000	 5.4566320773e-001	 1.8687300369e+000
 1.1329367581e+000	 5.5710012752e-001	 1.8174709912e+000
 1.1272597483e+000	 5.6849952486e-001	 1.7651067172e+000
 1.1214585586e+000	 5.7985942372e-001	 1.7112777097e+000
 1.1796689070e+000	 4.6702016274e-001	 2.2215824217e+000
 1.1749687306e+000	 4.7872230433e-001	 2.1608004150e+000
 1.1701426713e+000	 4.9040054163e-001	 2.1018973679e+000
 1.1651907261e+000	 5.0205291992e-001	 2.0445718475e+000
 1.1601129307e+000	 5.1367747709e-001	 1.9885079121e+000
 1.1549093607e+000	 5.2527224466e-001	 1.9333755299e+000
 1.1495801313e+000	 5.3683524868e-001	 1.8788310366e+000
 1.1441253978e+000	 5.4836451074e-001	 1.8245176307e+000
 1.1385453559e+000	 5.5985804895e-001	 1.7700659063e+000
 1.1328402422e+000	 5.7131387895e-001	 1.7150944234e+000
 1.1270103337e+000	 5.8273001493e-001	 1.6592103134e+000
 1.1854800839e+000	 4.6932075468e-001	 2.2254505866e+000
 1.1807567539e+000	 4.8108054229e-001	 2.1561873638e+000
 1.1759069209e+000	 4.9281630785e-001	 2.0895887352e+000
 1.1709305819e+000	 5.0452608701e-001	 2.0253272157e+000
 1.1658277727e+000	 5.1620790801e-001	 1.9630597110e+000
 1.1605985694e+000	 5.2785979266e-001	 1.9024279557e+000
 1.1552430876e+000	 5.3947975730e-001	 1.8430589909e+000
 1.1497614835e+000	 5.5106581375e-001	 1.7845656828e+000
 1.1441539538e+000	 5.6261597037e-001	 1.7265472802e+000
 1.1384207360e+000	 5.7412823303e-001	 1.6685900104e+000
 1.1325621087e+000	 5.8560060614e-001	 1.6102677138e+000
 1.1912912607e+000	 4.7162134661e-001	 2.2359864525e+000
 1.1865447772e+000	 4.8343878024e-001	 2.1579082002e+000
 1.1816711706e+000	 4.9523207407e-001	 2.0832752636e+000
 1.1766704376e+000	 5.0699925411e-001	 2.0117341608e+000
 1.1715426148e+000	 5.1873833894e-001	 1.9429147025e+000
 1.1662877781e+000	 5.3044734067e-001	 1.8764304483e+000
 1.1609060439e+000	 5.4212426591e-001	 1.8118792062e+000
 1.1553975692e+000	 5.5376711676e-001	 1.7488435730e+000
 1.1497625516e+000	 5.6537389180e-001	 1.6868915165e+000
 1.1440012298e+000	 5.7694258712e-001	 1.6255769984e+000
 1.1381138838e+000	 5.8847119735e-001	 1.5644406366e+000
 1.1971024376e+000	 4.7392193855e-001	 2.2531146416e+000
 1.1923328005e+000	 4.8579701820e-001	 2.1658937255e+000
 1.1874354202e+000	 4.9764784029e-001	 2.0828940440e+000
 1.1824102934e+000	 5.0947242120e-001	 2.0037361718e+000
 1.1772574568e+000	 5.2126876986e-001	 1.9280228787e+000
 1.1719769867e+000	 5.3303488868e-001	 1.8553396063e+000
 1.1665690002e+000	 5.4476877453e-001	 1.7852549871e+000
 1.1610336549e+000	 5.5646841977e-001	 1.7173214087e+000
 1.1553711494e+000	 5.6813181322e-001	 1.6510756199e+000
 1.1495817236e+000	 5.7975694121e-001	 1.5860393803e+000
 1.1436656588e+000	 5.9134178856e-001	 1.5217201509e+000
 1.2029136145e+000	 4.7622253049e-001	 2.2767613042e+000
 1.1981208238e+000	 4.8815525615e-001	 2.1800761574e+000
 1.1931996698e+000	 5.0006360651e-001	 2.0883834709e+000
 1.1881501492e+000	 5.1194558830e-001	 2.0012779257e+000
 1.1829722988e+000	 5.2379920079e-001	 1.9183353033e+000
 1.1776661954e+000	 5.3562243668e-001	 1.8391129807e+000
 1.1722319565e+000	 5.4741328315e-001	 1.7631504706e+000
 1.1666697406e+000	 5.5916972278e-001	 1.6899700082e+000
 1.1609797472e+000	 5.7088973465e-001	 1.6190771824e+000
 1.1551622174e+000	 5.8257129529e-001	 1.5499616112e+000
 1.1492174338e+000	 5.9421237977e-001	 1.4820976609e+000
 1.2087247914e+000	 4.7852312243e-001	 2.3068540808e+000
 1.2039088471e+000	 4.9051349411e-001	 2.2003890959e+000
 1.1989639194e+000	 5.0247937273e-001	 2.0996832101e+000
 1.1938900050e+000	 5.1441875540e-001	 2.0043052591e+000
 1.1886871408e+000	 5.2632963172e-001	 1.9138040855e+000
 1.1833554041e+000	 5.3820998469e-001	 1.8277090526e+000
 1.1778949128e+000	 5.5005779176e-001	 1.7455306061e+000
 1.1723058263e+000	 5.6187102579e-001	 1.6667608833e+000
 1.1665883450e+000	 5.7364765608e-001	 1.5908743687e+000
 1.1607427112e+000	 5.8538564938e-001	 1.5173285965e+000
 1.1547692089e+000	 5.9708297098e-001	 1.4455648979e+000
 1.2145359683e+000	 4.8082371437e-001	 2.3433220676e+000
 1.2096968704e+000	 4.9287173207e-001	 2.2267674901e+000
 1.2047281690e+000	 5.0489513895e-001	 2.1167341693e+000
 1.1996298608e+000	 5.1689192250e-001	 2.0127651407e+000
 1.1944019828e+000	 5.2886006264e-001	 1.9143823551e+000
 1.1890446128e+000	 5.4079753270e-001	 1.8210872108e+000
 1.1835578692e+000	 5.5270230038e-001	 1.7323611363e+000
 1.1779419120e+000	 5.6457232881e-001	 1.6476662224e+000
 1.1721969428e+000	 5.7640557750e-001	 1.5664459026e+000
 1.1663232050e+000	 5.8820000346e-001	 1.4881256818e+000
 1.1603209839e+000	 5.9995356218e-001	 1.4121139123e+000
 1.2203471451e+000	 4.8312430631e-001	 2.3860957811e+000
 1.2154848937e+000	 4.9522997003e-001	 2.2591476064e+000
 1.2104924186e+000	 5.0731090517e-001	 2.1394784677e+000
 1.2053697166e+000	 5.1936508960e-001	 2.0266056438e+000
 1.2001168249e+000	 5.3139049357e-001	 1.9200242382e+000
 1.1947338214e+000	 5.4338508071e-001	 1.8192077299e+000
 1.1892208255e+000	 5.5534680900e-001	 1.7236085778e+000
 1.1835779977e+000	 5.6727363182e-001	 1.6326588748e+000
 1.1778055406e+000	 5.7916349893e-001	 1.5457710537e+000
 1.1719036988e+000	 5.9101435755e-001	 1.4623386420e+000
 1.1658727590e+000	 6.0282415339e-001	 1.3817370660e+000
 1.1103550086e+000	 5.7411824130e-001	 1.8248257578e+000
 1.1044886196e+000	 5.8532460163e-001	 1.7429106853e+000
 1.0984999480e+000	 5.9648794139e-001	 1.6478003771e+000
 1.0923893889e+000	 6.0760630594e-001	 1.5388883448e+000
 1.0861573781e+000	 6.1867774335e-001	 1.4155693970e+000
 1.0798043922e+000	 6.2970030539e-001	 1.3378710638e+000
 1.0733309490e+000	 6.4067204862e-001	 1.3251477391e+000
 1.0667376072e+000	 6.5159103546e-001	 1.2957079879e+000
 1.0600249662e+000	 6.6245533522e-001	 1.2496940156e+000
 1.0531936664e+000	 6.7326302520e-001	 1.1872617061e+000
 1.0462443890e+000	 6.8401219173e-001	 1.1085803382e+000
 1.1159067836e+000	 5.7698883251e-001	 1.7664795289e+000
 1.1100110627e+000	 5.8825122464e-001	 1.6799763326e+000
 1.1039924478e+000	 5.9947038110e-001	 1.5808979955e+000
 1.0978513359e+000	 6.1064433748e-001	 1.4686441486e+000
 1.0915881649e+000	 6.2177113207e-001	 1.3426151428e+000
 1.0852034142e+000	 6.3284880692e-001	 1.3005539542e+000
 1.0786976038e+000	 6.4387540887e-001	 1.2828789954e+000
 1.0720712952e+000	 6.5484899064e-001	 1.2491289489e+000
 1.0653250910e+000	 6.6576761190e-001	 1.1994636568e+000
 1.0584596347e+000	 6.7662934032e-001	 1.1340561633e+000
 1.0514756110e+000	 6.8743225269e-001	 1.0530924065e+000
 1.1214585586e+000	 5.7985942372e-001	 1.7112777097e+000
 1.1155335058e+000	 5.9117784765e-001	 1.6204627998e+000
 1.1094849475e+000	 6.0245282081e-001	 1.5176881524e+000
 1.1033132828e+000	 6.1368236901e-001	 1.4023592859e+000
 1.0970189518e+000	 6.2486452079e-001	 1.2738818614e+000
 1.0906024361e+000	 6.3599730845e-001	 1.2653526427e+000
 1.0840642585e+000	 6.4707876912e-001	 1.2428734800e+000
 1.0774049832e+000	 6.5810694582e-001	 1.2049547718e+000
 1.0706252158e+000	 6.6907988858e-001	 1.1517739498e+000
 1.0637256030e+000	 6.7999565545e-001	 1.0835211753e+000
 1.0567068329e+000	 6.9085231365e-001	 1.0003990049e+000
 1.1270103337e+000	 5.8273001493e-001	 1.6592103134e+000
 1.1210559489e+000	 5.9410447066e-001	 1.5643576313e+000
 1.1149774472e+000	 6.0543526052e-001	 1.4581560114e+000
 1.1087752297e+000	 6.1672040054e-001	 1.3400166285e+000
 1.1024497387e+000	 6.2795790951e-001	 1.2443645177e+000
 1.0960014581e+000	 6.3914580998e-001	 1.2322177387e+000
 1.0894309133e+000	 6.5028212936e-001	 1.2050788761e+000
 1.0827386713e+000	 6.6136490100e-001	 1.1631303070e+000
 1.0759253406e+000	 6.7239216525e-001	 1.1065670085e+000
 1.0689915714e+000	 6.8336197058e-001	 1.0355962166e+000
 1.0619380549e+000	 6.9427237461e-001	 9.5043706811e-001
 1.1325621087e+000	 5.8560060614e-001	 1.6102677138e+000
 1.1265783920e+000	 5.9703109367e-001	 1.5116487908e+000
 1.1204699470e+000	 6.0841770023e-001	 1.4022872128e+000
 1.1142371767e+000	 6.1975843208e-001	 1.2815995807e+000
 1.1078805256e+000	 6.3105129823e-001	 1.2183716253e+000
 1.1014004800e+000	 6.4229431151e-001	 1.2011004899e+000
 1.0947975680e+000	 6.5348548961e-001	 1.1694435553e+000
 1.0880723593e+000	 6.6462285618e-001	 1.1236011427e+000
 1.0812254655e+000	 6.7570444193e-001	 1.0637857311e+000
 1.0742575397e+000	 6.8672828571e-001	 9.9022159162e-001
 1.0671692768e+000	 6.9769243556e-001	 9.0314440406e-001
 1.1381138838e+000	 5.8847119735e-001	 1.5644406366e+000
 1.1321008350e+000	 5.9995771668e-001	 1.4623246513e+000
 1.1259624467e+000	 6.1140013993e-001	 1.3500678616e+000
 1.1196991236e+000	 6.2279646361e-001	 1.2270920658e+000
 1.1133113125e+000	 6.3414468695e-001	 1.1942039807e+000
 1.1067995020e+000	 6.4544281304e-001	 1.1719527666e+000
 1.1001642227e+000	 6.5668884985e-001	 1.1359165615e+000
 1.0934060473e+000	 6.6788081136e-001	 1.0863135864e+000
 1.0865255903e+000	 6.7901671861e-001	 1.0233737813e+000
 1.0795235080e+000	 6.9009460083e-001	 9.4733841413e-001
 1.0724004987e+000	 7.0111249652e-001	 8.5845967247e-001
 1.1436656588e+000	 5.9134178856e-001	 1.5217201509e+000
 1.1376232781e+000	 6.0288433969e-001	 1.4163739851e+000
 1.1314549465e+000	 6.1438257964e-001	 1.3014845169e+000
 1.1251610706e+000	 6.2583449514e-001	 1.1854928384e+000
 1.1187420994e+000	 6.3723807567e-001	 1.1718169273e+000
 1.1121985240e+000	 6.4859131457e-001	 1.1447270469e+000
 1.1055308775e+000	 6.5989221010e-001	 1.1044475942e+000
 1.0987397354e+000	 6.7113876654e-001	 1.0512146481e+000
 1.0918257151e+000	 6.8232899529e-001	 9.8527556986e-001
 1.0847894764e+000	 6.9346091596e-001	 9.0688858794e-001
 1.0776317207e+000	 7.0453255748e-001	 8.1632236430e-001
 1.1492174338e+000	 5.9421237977e-001	 1.4820976609e+000
 1.1431457212e+000	 6.0581096270e-001	 1.3737859541e+000
 1.1369474462e+000	 6.1736501935e-001	 1.2565241803e+000
 1.1306230175e+000	 6.2887252667e-001	 1.1701142250e+000
 1.1241728863e+000	 6.4033146439e-001	 1.1511663529e+000
 1.1175975459e+000	 6.5173981610e-001	 1.1193764016e+000
 1.1108975322e+000	 6.6309557034e-001	 1.0749869929e+000
 1.1040734234e+000	 6.7439672171e-001	 1.0182520226e+000
 1.0971258399e+000	 6.8564127196e-001	 9.4943623616e-001
 1.0900554447e+000	 6.9682723109e-001	 8.6881478764e-001
 1.0828629426e+000	 7.0795261844e-001	 7.7667278158e-001
 1.1547692089e+000	 5.9708297098e-001	 1.4455648979e+000
 1.1486681643e+000	 6.0873758571e-001	 1.3345501006e+000
 1.1424399459e+000	 6.2034745906e-001	 1.2151742855e+000
 1.1360849644e+000	 6.3191055820e-001	 1.1562875049e+000
 1.1296036732e+000	 6.4342485311e-001	 1.1322086767e+000
 1.1229965679e+000	 6.5488831762e-001	 1.0958544805e+000
 1.1162641870e+000	 6.6629893058e-001	 1.0474857214e+000
 1.1094071114e+000	 6.7765467689e-001	 9.8737407366e-001
 1.1024259648e+000	 6.8895354864e-001	 9.1580163100e-001
 1.0953214130e+000	 7.0019354621e-001	 8.3306044013e-001
 1.0880941646e+000	 7.1137267940e-001	 7.3945201798e-001
 1.1603209839e+000	 5.9995356218e-001	 1.4121139123e+000
 1.1541906074e+000	 6.1166420872e-001	 1.2986563380e+000
 1.1479324457e+000	 6.2332989877e-001	 1.1774226882e+000
 1.1415469114e+000	 6.3494858973e-001	 1.1439724196e+000
 1.1350344600e+000	 6.4651824182e-001	 1.1149008364e+000
 1.1283955898e+000	 6.5803681915e-001	 1.0741154980e+000
 1.1216308417e+000	 6.6950229083e-001	 1.0218953532e+000
 1.1147407995e+000	 6.8091263207e-001	 9.5852981770e-001
 1.1077260896e+000	 6.9226582531e-001	 8.8431829948e-001
 1.1005873814e+000	 7.0355986134e-001	 7.9956970658e-001
 1.0933253865e+000	 7.1479274036e-001	 7.0460193984e-001
 1.1658727590e+000	 6.0282415339e-001	 1.3817370660e+000
 1.1597130505e+000	 6.1459083173e-001	 1.2660949419e+000
 1.1534249454e+000	 6.2631233847e-001	 1.1556143992e+000
 1.1470088583e+000	 6.3798662126e-001	 1.1331291704e+000
 1.1404652469e+000	 6.4961163054e-001	 1.0992002762e+000
 1.1337946118e+000	 6.6118532068e-001	 1.0541142201e+000
 1.1269974965e+000	 6.7270565107e-001	 9.9816805671e-001
 1.1200744875e+000	 6.8417058724e-001	 9.3166890829e-001
 1.1130262144e+000	 6.9557810199e-001	 8.5493346444e-001
 1.1058533497e+000	 7.0692617646e-001	 7.6828746502e-001
 1.0985566085e+000	 7.1821280132e-001	 6.7206516778e-001
 1.0462443890e+000	 6.8401219173e-001	 1.1085803382e+000
 1.0391778559e+000	 6.9470093126e-001	 1.0148334431e+000
 1.0319948291e+000	 7.0532735142e-001	 9.2374470492e-001
 1.0246961113e+000	 7.1588957207e-001	 8.3562473780e-001
 1.0172825451e+000	 7.2638572639e-001	 7.5078015917e-001
 1.0097550126e+000	 7.3681396190e-001	 6.6951302896e-001
 1.0021144359e+000	 7.4717244155e-001	 5.9212029427e-001
 9.9436177576e-001	 7.5745934473e-001	 5.1889324099e-001
 9.8649803205e-001	 7.6767286834e-001	 4.5011695378e-001
 9.7852424291e-001	 7.7781122778e-001	 3.8606978568e-001
 9.7044148448e-001	 7.8787265800e-001	 3.2702283872e-001
 1.0514756110e+000	 6.8743225269e-001	 1.0530924065e+000
 1.0443737451e+000	 6.9817443592e-001	 9.5843337857e-001
 1.0371548033e+000	 7.0885398818e-001	 8.6665118250e-001
 1.0298195919e+000	 7.1946901993e-001	 7.7805105125e-001
 1.0223689578e+000	 7.3001765502e-001	 6.9293395270e-001
 1.0148037877e+000	 7.4049803171e-001	 6.1159602986e-001
 1.0071250081e+000	 7.5090830375e-001	 5.3432804714e-001
 9.9933358463e-001	 7.6124664145e-001	 4.6141484394e-001
 9.9143052220e-001	 7.7151123267e-001	 3.9313479708e-001
 9.8341686412e-001	 7.8170028391e-001	 3.2975929327e-001
 9.7529369190e-001	 7.9181202129e-001	 2.7155221294e-001
 1.0567068329e+000	 6.9085231365e-001	 1.0003990049e+000
 1.0495696344e+000	 7.0164794057e-001	 9.0464254039e-001
 1.0423147774e+000	 7.1238062493e-001	 8.1198023036e-001
 1.0349430724e+000	 7.2304846779e-001	 7.2271205157e-001
 1.0274553705e+000	 7.3364958365e-001	 6.3713344803e-001
 1.0198525628e+000	 7.4418210151e-001	 5.5553477219e-001
 1.0121355802e+000	 7.5464416596e-001	 4.7820073261e-001
 1.0043053935e+000	 7.6503393817e-001	 4.0540984948e-001
 9.9636301236e-001	 7.7534959701e-001	 3.3743391924e-001
 9.8830948533e-001	 7.8558934005e-001	 2.7453748975e-001
 9.8014589932e-001	 7.9575138457e-001	 2.1697734733e-001
 1.0619380549e+000	 6.9427237461e-001	 9.5043706811e-001
 1.0547655237e+000	 7.0512144523e-001	 8.5339990703e-001
 1.0474747516e+000	 7.1590726169e-001	 7.5967290487e-001
 1.0400665530e+000	 7.2662791565e-001	 6.6955090645e-001
 1.0325417832e+000	 7.3728151228e-001	 5.8332395684e-001
 1.0249013378e+000	 7.4786617132e-001	 5.0127674356e-001
 1.0171461524e+000	 7.5838002816e-001	 4.2368804546e-001
 1.0092772024e+000	 7.6882123489e-001	 3.5083018992e-001
 1.0012955025e+000	 7.7918796135e-001	 2.8296851966e-001
 9.9320210654e-001	 7.8947839618e-001	 2.2036087039e-001
 9.8499810674e-001	 7.9969074786e-001	 1.6325706084e-001
 1.0671692768e+000	 6.9769243556e-001	 9.0314440406e-001
 1.0599614130e+000	 7.0859494989e-001	 8.0464528376e-001
 1.0526347257e+000	 7.1943389845e-001	 7.0967104229e-001
 1.0451900336e+000	 7.3020736351e-001	 6.1851151599e-001
 1.0376281960e+000	 7.4091344091e-001	 5.3145147534e-001
 1.0299501129e+000	 7.5155024113e-001	 4.4877006777e-001
 1.0221567246e+000	 7.6211589037e-001	 3.7074026779e-001
 1.0142490113e+000	 7.7260853161e-001	 2.9762833567e-001
 1.0062279927e+000	 7.8302632569e-001	 2.2969328621e-001
 9.9809472776e-001	 7.9336745232e-001	 1.6718636885e-001
 9.8985031416e-001	 8.0363011115e-001	 1.1035056046e-001
 1.0724004987e+000	 7.0111249652e-001	 8.5845967247e-001
 1.0651573022e+000	 7.1206845454e-001	 7.5831928248e-001
 1.0577946998e+000	 7.2296053520e-001	 6.6191723972e-001
 1.0503135141e+000	 7.3378681137e-001	 5.6953849494e-001
 1.0427146087e+000	 7.4454536954e-001	 4.8146266759e-001
 1.0349988879e+000	 7.5523431094e-001	 3.9796348927e-001
 1.0271672968e+000	 7.6585175257e-001	 3.1930825473e-001
 1.0192208201e+000	 7.7639582833e-001	 2.4575728208e-001
 1.0111604828e+000	 7.8686469003e-001	 1.7756338326e-001
 1.0029873490e+000	 7.9725650846e-001	 1.1497134647e-001
 9.9470252158e-001	 8.0756947444e-001	 5.8217431663e-002
 1.0776317207e+000	 7.0453255748e-001	 8.1632236430e-001
 1.0703531915e+000	 7.1554195920e-001	 7.1436330215e-001
 1.0629546740e+000	 7.2648717196e-001	 6.1635483666e-001
 1.0554369947e+000	 7.3736625923e-001	 5.2257715525e-001
 1.0478010214e+000	 7.4817729817e-001	 4.3330484930e-001
 1.0400476630e+000	 7.5891838075e-001	 3.4880635807e-001
 1.0321778689e+000	 7.6958761478e-001	 2.6934342051e-001
 1.0241926290e+000	 7.8018312506e-001	 1.9517053671e-001
 1.0160929730e+000	 7.9070305437e-001	 1.2653444011e-001
 1.0078799702e+000	 8.0114556460e-001	 6.3673581950e-002
 9.9955472900e-001	 8.1150883773e-001	 6.8176293035e-003
 1.0828629426e+000	 7.0795261844e-001	 7.7667278158e-001
 1.0755490808e+000	 7.1901546386e-001	 6.7271950973e-001
 1.0681146481e+000	 7.3001380872e-001	 5.7292789708e-001
 1.0605604752e+000	 7.4094570709e-001	 4.7757348931e-001
 1.0528874341e+000	 7.5180922681e-001	 3.8692597209e-001
 1.0450964381e+000	 7.6260245056e-001	 3.0124861516e-001
 1.0371884411e+000	 7.7332347699e-001	 2.2079772494e-001
 1.0291644379e+000	 7.8397042178e-001	 1.4582210700e-001
 1.0210254632e+000	 7.9454141872e-001	 7.6562539809e-002
 1.0127725914e+000	 8.0503462074e-001	 1.3251261180e-002
 1.0044069364e+000	 8.1544820102e-001	-4.3888531354e-002
 1.0880941646e+000	 7.1137267940e-001	 7.3945201798e-001
 1.0807449701e+000	 7.2248896851e-001	 6.3333082179e-001
 1.0732746223e+000	 7.3354044548e-001	 5.3158119197e-001
 1.0656839558e+000	 7.4452515495e-001	 4.3447415356e-001
 1.0579738469e+000	 7.5544115544e-001	 3.4227460817e-001
 1.0501452131e+000	 7.6628652037e-001	 2.5524077829e-001
 1.0421990133e+000	 7.7705933920e-001	 1.7362366034e-001
 1.0341362468e+000	 7.8775771851e-001	 9.7666488178e-002
 1.0259579533e+000	 7.9837978306e-001	 2.7604208189e-002
 1.0176652126e+000	 8.0892367688e-001	-3.6337032481e-002
 1.0092591439e+000	 8.1938756431e-001	-9.3940383285e-002
 1.0933253865e+000	 7.1479274036e-001	 7.0460193984e-001
 1.0859408594e+000	 7.2596247317e-001	 5.9614088650e-001
 1.0784345964e+000	 7.3706708223e-001	 4.9226018247e-001
 1.0708074363e+000	 7.4810460281e-001	 3.9322645258e-001
 1.0630602596e+000	 7.5907308407e-001	 2.9929993555e-001
 1.0551939882e+000	 7.6997059018e-001	 2.1073392815e-001
 1.0472095855e+000	 7.8079520141e-001	 1.2777423877e-001
 1.0391080557e+000	 7.9154501523e-001	 5.0658651666e-002
 1.0308904435e+000	 8.0221814740e-001	-2.0383596688e-002
 1.0225578338e+000	 8.1281273302e-001	-8.5132327740e-002
 1.0141113513e+000	 8.2332692760e-001	-1.4337691612e-001
 1.0985566085e+000	 7.1821280132e-001	 6.7206516778e-001
 1.0911367486e+000	 7.2943597783e-001	 5.6109406628e-001
 1.0835945706e+000	 7.4059371899e-001	 4.5491100340e-001
 1.0759309169e+000	 7.5168405068e-001	 3.5377832373e-001
 1.0681466723e+000	 7.6270501271e-001	 2.5795172356e-001
 1.0602427633e+000	 7.7365465999e-001	 1.6767969497e-001
 1.0522201577e+000	 7.8453106362e-001	 8.3202979639e-002
 1.0440798645e+000	 7.9533231196e-001	 4.7540336875e-003
 1.0358229336e+000	 8.0605651175e-001	-6.7443494837e-002
 1.0274504550e+000	 8.1670178916e-001	-1.3317527460e-001
 1.0189635587e+000	 8.2726629090e-001	-1.9223678431e-001
 9.7044148448e-001	 7.8787265800e-001	 3.2702283872e-001
 9.6225087041e-001	 7.9785541449e-001	 2.6015243492e-001
 9.5395355137e-001	 8.0775777425e-001	 1.9127498412e-001
 9.4555071453e-001	 8.1757803682e-001	 1.2060129701e-001
 9.3704358302e-001	 8.2731452518e-001	 4.8340374612e-002
 9.2843341530e-001	 8.3696558675e-001	-2.5300984703e-002
 9.1972150462e-001	 8.4652959428e-001	-1.0011856986e-001
 9.1090917833e-001	 8.5600494677e-001	-1.7591113231e-001
 9.0199779719e-001	 8.6539007039e-001	-2.5248075097e-001
 8.9298875473e-001	 8.7468341929e-001	-3.2963318589e-001
 8.8388347650e-001	 8.8388347650e-001	-4.0717821993e-001
 9.7529369190e-001	 7.9181202129e-001	 2.7155221294e-001
 9.6706212476e-001	 8.0184469155e-001	 2.0513031107e-001
 9.5872331913e-001	 8.1179656312e-001	 1.3678168975e-001
 9.5027846810e-001	 8.2166592700e-001	 6.6715428666e-002
 9.4172880093e-001	 8.3145109780e-001	-4.8613321261e-003
 9.3307558238e-001	 8.4115041468e-001	-7.7743786204e-002
 9.2432011215e-001	 8.5076224224e-001	-1.5172984607e-001
 9.1546372422e-001	 8.6028497150e-001	-2.2662051881e-001
 9.0650778617e-001	 8.6971702074e-001	-3.0222027114e-001
 8.9745369851e-001	 8.7905683638e-001	-3.7833738297e-001
 8.8830289388e-001	 8.8830289388e-001	-4.5478428859e-001
 9.8014589932e-001	 7.9575138457e-001	 2.1697734733e-001
 9.7187337911e-001	 8.0583396862e-001	 1.5090818934e-001
 9.6349308688e-001	 8.1583535199e-001	 8.2993338521e-002
 9.5500622168e-001	 8.2575381718e-001	 1.3440223682e-002
 9.4641401884e-001	 8.3558767042e-001	-5.7545797248e-002
 9.3771774945e-001	 8.4533524261e-001	-1.2976183226e-001
 9.2891871967e-001	 8.5499489021e-001	-2.0300784139e-001
 9.2001827011e-001	 8.6456499623e-001	-2.7708701282e-001
 9.1101777516e-001	 8.7404397109e-001	-3.5180612824e-001
 9.0191864228e-001	 8.8343025348e-001	-4.2697591631e-001
 8.9272231126e-001	 8.9272231126e-001	-5.0241139348e-001
 9.8499810674e-001	 7.9969074786e-001	 1.6325706084e-001
 9.7668463346e-001	 8.0982324569e-001	 9.7445800216e-002
 9.6826285464e-001	 8.1987414085e-001	 2.9870586896e-002
 9.5973397525e-001	 8.2984170736e-001	-3.9262721324e-002
 9.5109923676e-001	 8.3972424305e-001	-1.0975047004e-001
 9.4235991653e-001	 8.4952007054e-001	-1.8139160444e-001
 9.3351732719e-001	 8.5922753818e-001	-2.5398805629e-001
 9.2457281600e-001	 8.6884502097e-001	-3.2734512075e-001
 9.1552776414e-001	 8.7837092144e-001	-4.0127182192e-001
 9.0638358605e-001	 8.8780367057e-001	-4.7558126643e-001
 8.9714172864e-001	 8.9714172864e-001	-5.5009098399e-001
 9.8985031416e-001	 8.0363011115e-001	 1.1035056046e-001
 9.8149588781e-001	 8.1381252276e-001	 4.4703239664e-002
 9.7303262239e-001	 8.2391292972e-001	-2.2625565777e-002
 9.6446172882e-001	 8.3392959754e-001	-9.1431489492e-002
 9.5578445467e-001	 8.4386081567e-001	-1.6151250227e-001
 9.4700208361e-001	 8.5370489847e-001	-2.3266930953e-001
 9.3811593471e-001	 8.6346018615e-001	-3.0470573934e-001
 9.2912736189e-001	 8.7312504570e-001	-3.7742911989e-001
 9.2003775313e-001	 8.8269787179e-001	-4.5065064553e-001
 9.1084852982e-001	 8.9217708767e-001	-5.2418573042e-001
 9.0156114602e-001	 9.0156114602e-001	-5.9785434897e-001
 9.9470252158e-001	 8.0756947444e-001	 5.8217431663e-002
 9.8630714216e-001	 8.1780179983e-001	-7.3590397725e-003
 9.7780239015e-001	 8.2795171859e-001	-7.4533785614e-002
 9.6918948239e-001	 8.3801748772e-001	-1.4310385154e-001
 9.6046967259e-001	 8.4799738830e-001	-2.1286875544e-001
 9.5164425068e-001	 8.5788972641e-001	-2.8363088630e-001
 9.4271454224e-001	 8.6769283412e-001	-3.5519589328e-001
 9.3368190778e-001	 8.7740507043e-001	-4.2737306403e-001
 9.2454774211e-001	 8.8702482214e-001	-4.9997569123e-001
 9.1531347360e-001	 8.9655050476e-001	-5.7282142648e-001
 9.0598056341e-001	 9.0598056341e-001	-6.4573262063e-001
 9.9955472900e-001	 8.1150883773e-001	 6.8176293035e-003
 9.9111839652e-001	 8.2179107691e-001	-5.8780237630e-002
 9.8257215791e-001	 8.3199050747e-001	-1.2589241231e-001
 9.7391723597e-001	 8.4210537791e-001	-1.9431727332e-001
 9.6515489050e-001	 8.5213396092e-001	-2.6385580783e-001
 9.5628641776e-001	 8.6207455434e-001	-3.3431201195e-001
 9.4731314976e-001	 8.7192548209e-001	-4.0549328103e-001
 9.3823645367e-001	 8.8168509517e-001	-4.7721078885e-001
 9.2905773110e-001	 8.9135177249e-001	-5.4927985483e-001
 9.1977841737e-001	 9.0092392186e-001	-6.2152029820e-001
 9.1039998079e-001	 9.1039998079e-001	-6.9375677836e-001
 1.0044069364e+000	 8.1544820102e-001	-4.3888531354e-002
 9.9592965087e-001	 8.2578035398e-001	-1.0959921393e-001
 9.8734192566e-001	 8.3602929634e-001	-1.7673946703e-001
 9.7864498954e-001	 8.4619326809e-001	-2.4510892323e-001
 9.6984010842e-001	 8.5627053355e-001	-3.1450996136e-001
 9.6092858484e-001	 8.6625938227e-001	-3.8474810849e-001
 9.5191175728e-001	 8.7615813007e-001	-4.5563243146e-001
 9.4279099956e-001	 8.8596511990e-001	-5.2697591720e-001
 9.3356772009e-001	 8.9567872284e-001	-5.9859584052e-001
 9.2424336115e-001	 9.0529733896e-001	-6.7031411882e-001
 9.1481939817e-001	 9.1481939817e-001	-7.4195765242e-001
 1.0092591439e+000	 8.1938756431e-001	-9.3940383285e-002
 1.0007409052e+000	 8.2976963106e-001	-1.5985449734e-001
 9.9211169342e-001	 8.4006808521e-001	-2.2711266007e-001
 9.8337274311e-001	 8.5028115828e-001	-2.9551567932e-001
 9.7452532634e-001	 8.6040710618e-001	-3.6486724821e-001
 9.6557075191e-001	 8.7044421021e-001	-4.3497434880e-001
 9.5651036481e-001	 8.8039077804e-001	-5.0564764505e-001
 9.4734554546e-001	 8.9024514464e-001	-5.7670186423e-001
 9.3807770907e-001	 9.0000567320e-001	-6.4795616554e-001
 9.2870830492e-001	 9.0967075605e-001	-7.1923449530e-001
 9.1923881556e-001	 9.1923881556e-001	-7.9036592750e-001
 1.0141113513e+000	 8.2332692760e-001	-1.4337691612e-001
 1.0055521596e+000	 8.3375890813e-001	-2.0958429310e-001
 9.9688146118e-001	 8.4410687409e-001	-2.7704939828e-001
 9.8810049669e-001	 8.5436904847e-001	-3.4557413625e-001
 9.7921054425e-001	 8.6454367881e-001	-4.1496343727e-001
 9.7021291899e-001	 8.7462903815e-001	-4.8502566265e-001
 9.6110897233e-001	 8.8462342601e-001	-5.5557299932e-001
 9.5190009135e-001	 8.9452516937e-001	-6.2642184235e-001
 9.4258769806e-001	 9.0433262355e-001	-6.9739316458e-001
 9.3317324870e-001	 9.1404417315e-001	-7.6831287232e-001
 9.2365823294e-001	 9.2365823294e-001	-8.3901214623e-001
 1.0189635587e+000	 8.2726629090e-001	-1.9223678431e-001
 1.0103634139e+000	 8.3774818521e-001	-2.5882649072e-001
 1.0016512289e+000	 8.4814566296e-001	-3.2658679229e-001
 9.9282825026e-001	 8.5845693866e-001	-3.9532061206e-001
 9.8389576217e-001	 8.6868025144e-001	-4.6483404042e-001
 9.7485508607e-001	 8.7881386608e-001	-5.3493674247e-001
 9.6570757986e-001	 8.8885607399e-001	-6.0544235415e-001
 9.5645463724e-001	 8.9880519411e-001	-6.7616886606e-001
 9.4709768705e-001	 9.0865957391e-001	-7.4693899417e-001
 9.3763819247e-001	 9.1841759025e-001	-8.1758053612e-001
 9.2807765033e-001	 9.2807765033e-001	-8.8792671254e-001
 8.8388347650e-001	 8.8388347650e-001	-4.0717821993e-001
 8.7468341929e-001	 8.9298875473e-001	-4.7245313774e-001
 8.6539007039e-001	 9.0199779719e-001	-5.3642044181e-001
 8.5600494677e-001	 9.1090917833e-001	-5.9895258775e-001
 8.4652959428e-001	 9.1972150462e-001	-6.5992809989e-001
 8.3696558675e-001	 9.2843341530e-001	-7.1923178861e-001
 8.2731452518e-001	 9.3704358302e-001	-7.7675495056e-001
 8.1757803682e-001	 9.4555071453e-001	-8.3239555116e-001
 8.0775777425e-001	 9.5395355137e-001	-8.8605838908e-001
 7.9785541449e-001	 9.6225087041e-001	-9.3765524233e-001
 7.8787265800e-001	 9.7044148448e-001	-9.8710499573e-001
 8.8830289388e-001	 8.8830289388e-001	-4.5478428859e-001
 8.7905683638e-001	 8.9745369851e-001	-5.1959082546e-001
 8.6971702074e-001	 9.0650778617e-001	-5.8309128758e-001
 8.6028497150e-001	 9.1546372422e-001	-6.4515496294e-001
 8.5076224224e-001	 9.2432011215e-001	-7.0565728798e-001
 8.4115041468e-001	 9.3307558238e-001	-7.6448006971e-001
 8.3145109780e-001	 9.4172880093e-001	-8.2151169043e-001
 8.2166592700e-001	 9.5027846810e-001	-8.7664729448e-001
 8.1179656312e-001	 9.5872331913e-001	-9.2978895668e-001
 8.0184469155e-001	 9.6706212476e-001	-9.8084583215e-001
 7.9181202129e-001	 9.7529369190e-001	-1.0297342872e+000
 8.9272231126e-001	 8.9272231126e-001	-5.0241139348e-001
 8.8343025348e-001	 9.0191864228e-001	-5.6673866911e-001
 8.7404397109e-001	 9.1101777516e-001	-6.2975938177e-001
 8.6456499623e-001	 9.2001827011e-001	-6.9133963541e-001
 8.5499489021e-001	 9.2891871967e-001	-7.5135176465e-001
 8.4533524261e-001	 9.3771774945e-001	-8.0967456176e-001
 8.3558767042e-001	 9.4641401884e-001	-8.6619348583e-001
 8.2575381718e-001	 9.5500622168e-001	-9.2080085383e-001
 8.1583535199e-001	 9.6349308688e-001	-9.7339601303e-001
 8.0583396862e-001	 9.7187337911e-001	-1.0238854945e+000
 7.9575138457e-001	 9.8014589932e-001	-1.0721831476e+000
 8.9714172864e-001	 8.9714172864e-001	-5.5009098399e-001
 8.8780367057e-001	 9.0638358605e-001	-6.1392849724e-001
 8.7837092144e-001	 9.1552776414e-001	-6.7645692964e-001
 8.6884502097e-001	 9.2457281600e-001	-7.3753918438e-001
 8.5922753818e-001	 9.3351732719e-001	-7.9704448007e-001
 8.4952007054e-001	 9.4235991653e-001	-8.5484858256e-001
 8.3972424305e-001	 9.5109923676e-001	-9.1083401861e-001
 8.2984170736e-001	 9.5973397525e-001	-9.6489027127e-001
 8.1987414085e-001	 9.6826285464e-001	-1.0169139563e+000
 8.0982324569e-001	 9.7668463346e-001	-1.0668089795e+000
 7.9969074786e-001	 9.8499810674e-001	-1.1144866741e+000
 9.0156114602e-001	 9.0156114602e-001	-5.9785434897e-001
 8.9217708767e-001	 9.1084852982e-001	-6.6119197279e-001
 8.8269787179e-001	 9.2003775313e-001	-7.2321596559e-001
 8.7312504570e-001	 9.2912736189e-001	-7.8378601277e-001
 8.6346018615e-001	 9.3811593471e-001	-8.4276820248e-001
 8.5370489847e-001	 9.4700208361e-001	-9.0003526215e-001
 8.4386081567e-001	 9.5578445467e-001	-9.5546677685e-001
 8.3392959754e-001	 9.6446172882e-001	-1.0089493889e+000
 8.2391292972e-001	 9.7303262239e-001	-1.0603769784e+000
 8.1381252276e-001	 9.8149588781e-001	-1.1096508240e+000
 8.0363011115e-001	 9.8985031416e-001	-1.1566797443e+000
 9.0598056341e-001	 9.0598056341e-001	-6.4573262063e-001
 8.9655050476e-001	 9.1531347360e-001	-7.0856059717e-001
 8.8702482214e-001	 9.2454774211e-001	-7.7006835735e-001
 8.7740507043e-001	 9.3368190778e-001	-8.3011235154e-001
 8.6769283412e-001	 9.4271454224e-001	-8.8855552262e-001
 8.5788972641e-001	 9.5164425068e-001	-9.4526754741e-001
 8.4799738830e-001	 9.6046967259e-001	-1.0001250596e+000
 8.3801748772e-001	 9.6918948239e-001	-1.0530118538e+000
 8.2795171859e-001	 9.7780239015e-001	-1.1038190697e+000
 8.1780179983e-001	 9.8630714216e-001	-1.1524453574e+000
 8.0756947444e-001	 9.9470252158e-001	-1.1987970215e+000
 9.1039998079e-001	 9.1039998079e-001	-6.9375677836e-001
 9.0092392186e-001	 9.1977841737e-001	-7.5606571413e-001
 8.9135177249e-001	 9.2905773110e-001	-8.1704581004e-001
 8.8168509517e-001	 9.3823645367e-001	-8.7655026383e-001
 8.7192548209e-001	 9.4731314976e-001	-9.3443885807e-001
 8.6207455434e-001	 9.5628641776e-001	-9.9057820648e-001
 8.5213396092e-001	 9.6515489050e-001	-1.0448419815e+000
 8.4210537791e-001	 9.7391723597e-001	-1.0971111225e+000
 8.3199050747e-001	 9.8257215791e-001	-1.1472740245e+000
 8.2179107691e-001	 9.9111839652e-001	-1.1952267065e+000
 8.1150883773e-001	 9.9955472900e-001	-1.2408729596e+000
 9.1481939817e-001	 9.1481939817e-001	-7.4195765242e-001
 9.0529733896e-001	 9.2424336115e-001	-8.0373851362e-001
 8.9567872284e-001	 9.3356772009e-001	-8.6417987006e-001
 8.8596511990e-001	 9.4279099956e-001	-9.2313164903e-001
 8.7615813007e-001	 9.5191175728e-001	-9.8045045744e-001
 8.6625938227e-001	 9.6092858484e-001	-1.0359998331e+000
 8.5627053355e-001	 9.6984010842e-001	-1.0896504770e+000
 8.4619326809e-001	 9.7864498954e-001	-1.1412804659e+000
 8.3602929634e-001	 9.8734192566e-001	-1.1907754449e+000
 8.2578035398e-001	 9.9592965087e-001	-1.2380287999e+000
 8.1544820102e-001	 1.0044069364e+000	-1.2829418087e+000
 9.1923881556e-001	 9.1923881556e-001	-7.9036592750e-001
 9.0967075605e-001	 9.2870830492e-001	-8.5161003543e-001
 9.0000567320e-001	 9.3807770907e-001	-9.1150192895e-001
 8.9024514464e-001	 9.4734554546e-001	-9.6988824671e-001
 8.8039077804e-001	 9.5651036481e-001	-1.0266224044e+000
 8.7044421021e-001	 9.6557075191e-001	-1.0815648509e+000
 8.6040710618e-001	 9.7452532634e-001	-1.1345833052e+000
 8.5028115828e-001	 9.8337274311e-001	-1.1855529737e+000
 8.4006808521e-001	 9.9211169342e-001	-1.2343567464e+000
 8.2976963106e-001	 1.0007409052e+000	-1.2808853734e+000
 8.1938756431e-001	 1.0092591439e+000	-1.3250376197e+000
 9.2365823294e-001	 9.2365823294e-001	-8.3901214623e-001
 9.1404417315e-001	 9.3317324870e-001	-8.9971117286e-001
 9.0433262355e-001	 9.4258769806e-001	-9.5904322707e-001
 8.9452516937e-001	 9.5190009135e-001	-1.0168516405e+000
 8.8462342601e-001	 9.6110897233e-001	-1.0729866216e+000
 8.7462903815e-001	 9.7021291899e-001	-1.1273055171e+000
 8.6454367881e-001	 9.7921054425e-001	-1.1796730535e+000
 8.5436904847e-001	 9.8810049669e-001	-1.2299615584e+000
 8.4410687409e-001	 9.9688146118e-001	-1.2780511616e+000
 8.3375890813e-001	 1.0055521596e+000	-1.3238299746e+000
 8.2332692760e-001	 1.0141113513e+000	-1.3671942491e+000
 9.2807765033e-001	 9.2807765033e-001	-8.8792671254e-001
 9.1841759025e-001	 9.3763819247e-001	-9.4807267612e-001
 9.0865957391e-001	 9.4709768705e-001	-1.0068348572e+000
 8.9880519411e-001	 9.5645463724e-001	-1.0640532616e+000
 8.8885607399e-001	 9.6570757986e-001	-1.1195748746e+000
 8.7881386608e-001	 9.7485508607e-001	-1.1732539270e+000
 8.6868025144e-001	 9.8389576217e-001	-1.2249521419e+000
 8.5845693866e-001	 9.9282825026e-001	-1.2745389600e+000
 8.4814566296e-001	 1.0016512289e+000	-1.3218917449e+000
 8.3774818521e-001	 1.0103634139e+000	-1.3668959667e+000
 8.2726629090e-001	 1.0189635587e+000	-1.4094453637e+000
 7.8787265800e-001	 9.7044148448e-001	-9.8710499573e-001
 7.7781122778e-001	 9.7852424291e-001	-1.0399547590e+000
 7.6767286834e-001	 9.8649803205e-001	-1.0956125664e+000
 7.5745934473e-001	 9.9436177576e-001	-1.1538361352e+000
 7.4717244155e-001	 1.0021144359e+000	-1.2143864992e+000
 7.3681396190e-001	 1.0097550126e+000	-1.2770282575e+000
 7.2638572639e-001	 1.0172825451e+000	-1.3415298088e+000
 7.1588957207e-001	 1.0246961113e+000	-1.4076635697e+000
 7.0532735142e-001	 1.0319948291e+000	-1.4752061786e+000
 6.9470093126e-001	 1.0391778559e+000	-1.5439386835e+000
 6.8401219173e-001	 1.0462443890e+000	-1.6136467140e+000
 7.9181202129e-001	 9.7529369190e-001	-1.0297342872e+000
 7.8170028391e-001	 9.8341686412e-001	-1.0794481592e+000
 7.7151123267e-001	 9.9143052220e-001	-1.1317050341e+000
 7.6124664145e-001	 9.9933358463e-001	-1.1862857262e+000
 7.5090830375e-001	 1.0071250081e+000	-1.2429745856e+000
 7.4049803171e-001	 1.0148037877e+000	-1.3015597218e+000
 7.3001765502e-001	 1.0223689578e+000	-1.3618332119e+000
 7.1946901993e-001	 1.0298195919e+000	-1.4235912937e+000
 7.0885398818e-001	 1.0371548033e+000	-1.4866345433e+000
 6.9817443592e-001	 1.0443737451e+000	-1.5507680368e+000
 6.8743225269e-001	 1.0514756110e+000	-1.6158014963e+000
 7.9575138457e-001	 9.8014589932e-001	-1.0721831476e+000
 7.8558934005e-001	 9.8830948533e-001	-1.1191181819e+000
 7.7534959701e-001	 9.9636301236e-001	-1.1683313316e+000
 7.6503393817e-001	 1.0043053935e+000	-1.2196263261e+000
 7.5464416596e-001	 1.0121355802e+000	-1.2728106516e+000
 7.4418210151e-001	 1.0198525628e+000	-1.3276957493e+000
 7.3364958365e-001	 1.0274553705e+000	-1.3840971987e+000
 7.2304846779e-001	 1.0349430724e+000	-1.4418348849e+000
 7.1238062493e-001	 1.0423147774e+000	-1.5007331501e+000
 7.0164794057e-001	 1.0495696344e+000	-1.5606209294e+000
 6.9085231365e-001	 1.0567068329e+000	-1.6213318716e+000
 7.9969074786e-001	 9.8499810674e-001	-1.1144866741e+000
 7.8947839618e-001	 9.9320210654e-001	-1.1589945231e+000
 7.7918796135e-001	 1.0012955025e+000	-1.2055157160e+000
 7.6882123489e-001	 1.0092772024e+000	-1.2538767177e+000
 7.5838002816e-001	 1.0171461524e+000	-1.3039079727e+000
 7.4786617132e-001	 1.0249013378e+000	-1.3554440784e+000
 7.3728151228e-001	 1.0325417832e+000	-1.4083239432e+000
 7.2662791565e-001	 1.0400665530e+000	-1.4623909280e+000
 7.1590726169e-001	 1.0474747516e+000	-1.5174929724e+000
 7.0512144523e-001	 1.0547655237e+000	-1.5734827046e+000
 6.9427237461e-001	 1.0619380549e+000	-1.6302175359e+000
 8.0363011115e-001	 9.8985031416e-001	-1.1566797443e+000
 7.9336745232e-001	 9.9809472776e-001	-1.1991067650e+000
 7.8302632569e-001	 1.0062279927e+000	-1.2432824366e+000
 7.7260853161e-001	 1.0142490113e+000	-1.2890557825e+000
 7.6211589037e-001	 1.0221567246e+000	-1.3362800304e+000
 7.5155024113e-001	 1.0299501129e+000	-1.3848127608e+000
 7.4091344091e-001	 1.0376281960e+000	-1.4345160400e+000
 7.3020736351e-001	 1.0451900336e+000	-1.4852565362e+000
 7.1943389845e-001	 1.0526347257e+000	-1.5369056203e+000
 7.0859494989e-001	 1.0599614130e+000	-1.5893394500e+000
 6.9769243556e-001	 1.0671692768e+000	-1.6424390382e+000
 8.0756947444e-001	 9.9470252158e-001	-1.1987970215e+000
 7.9725650846e-001	 1.0029873490e+000	-1.2394843786e+000
 7.8686469003e-001	 1.0111604828e+000	-1.2816557352e+000
 7.7639582833e-001	 1.0192208201e+000	-1.3251824985e+000
 7.6585175257e-001	 1.0271672968e+000	-1.3699405068e+000
 7.5523431094e-001	 1.0349988879e+000	-1.4158101534e+000
 7.4454536954e-001	 1.0427146087e+000	-1.4626764940e+000
 7.3378681137e-001	 1.0503135141e+000	-1.5104293383e+000
 7.2296053520e-001	 1.0577946998e+000	-1.5589633247e+000
 7.1206845454e-001	 1.0651573022e+000	-1.6081779793e+000
 7.0111249652e-001	 1.0724004987e+000	-1.6579777588e+000
 8.1150883773e-001	 9.9955472900e-001	-1.2408729596e+000
 8.0114556460e-001	 1.0078799702e+000	-1.2801567263e+000
 7.9070305437e-001	 1.0160929730e+000	-1.3206598459e+000
 7.8018312506e-001	 1.0241926290e+000	-1.3622759376e+000
 7.6958761478e-001	 1.0321778689e+000	-1.4049032801e+000
 7.5891838075e-001	 1.0400476630e+000	-1.4484449113e+000
 7.4817729817e-001	 1.0478010214e+000	-1.4928087108e+000
 7.3736625923e-001	 1.0554369947e+000	-1.5379074660e+000
 7.2648717196e-001	 1.0629546740e+000	-1.5836589220e+000
 7.1554195920e-001	 1.0703531915e+000	-1.6299858152e+000
 7.0453255748e-001	 1.0776317207e+000	-1.6768158899e+000
 8.1544820102e-001	 1.0044069364e+000	-1.2829418087e+000
 8.0503462074e-001	 1.0127725914e+000	-1.3211530650e+000
 7.9454141872e-001	 1.0210254632e+000	-1.3603189960e+000
 7.8397042178e-001	 1.0291644379e+000	-1.4003552636e+000
 7.7332347699e-001	 1.0371884411e+000	-1.4411824194e+000
 7.6260245056e-001	 1.0450964381e+000	-1.4827259804e+000
 7.5180922681e-001	 1.0528874341e+000	-1.5249164864e+000
 7.4094570709e-001	 1.0605604752e+000	-1.5676895419e+000
 7.3001380872e-001	 1.0681146481e+000	-1.6109858402e+000
 7.1901546386e-001	 1.0755490808e+000	-1.6547511717e+000
 7.0795261844e-001	 1.0828629426e+000	-1.6989364156e+000
 8.1938756431e-001	 1.0092591439e+000	-1.3250376197e+000
 8.0892367688e-001	 1.0176652126e+000	-1.3625025477e+000
 7.9837978306e-001	 1.0259579533e+000	-1.4006574054e+000
 7.8775771851e-001	 1.0341362468e+000	-1.4394397299e+000
 7.7705933920e-001	 1.0421990133e+000	-1.4787921807e+000
 7.6628652037e-001	 1.0501452131e+000	-1.5186625903e+000
 7.5544115544e-001	 1.0579738469e+000	-1.5590039985e+000
 7.4452515495e-001	 1.0656839558e+000	-1.5997746679e+000
 7.3354044548e-001	 1.0732746223e+000	-1.6409380840e+000
 7.2248896851e-001	 1.0807449701e+000	-1.6824629380e+000
 7.1137267940e-001	 1.0880941646e+000	-1.7243230931e+000
 8.2332692760e-001	 1.0141113513e+000	-1.3671942491e+000
 8.1281273302e-001	 1.0225578338e+000	-1.4042342269e+000
 8.0221814740e-001	 1.0308904435e+000	-1.4416992873e+000
 7.9154501523e-001	 1.0391080557e+000	-1.4795486774e+000
 7.8079520141e-001	 1.0472095855e+000	-1.5177470017e+000
 7.6997059018e-001	 1.0551939882e+000	-1.5562642480e+000
 7.5907308407e-001	 1.0630602596e+000	-1.5950757969e+000
 7.4810460281e-001	 1.0708074363e+000	-1.6341624133e+000
 7.3706708223e-001	 1.0784345964e+000	-1.6735102213e+000
 7.2596247317e-001	 1.0859408594e+000	-1.7131106617e+000
 7.1479274036e-001	 1.0933253865e+000	-1.7529604337e+000
 8.2726629090e-001	 1.0189635587e+000	-1.4094453637e+000
 8.1670178916e-001	 1.0274504550e+000	-1.4463770567e+000
 8.0605651175e-001	 1.0358229336e+000	-1.4834688478e+000
 7.9533231196e-001	 1.0440798645e+000	-1.5207015322e+000
 7.8453106362e-001	 1.0522201577e+000	-1.5580614982e+000
 7.7365465999e-001	 1.0602427633e+000	-1.5955407305e+000
 7.6270501271e-001	 1.0681466723e+000	-1.6331367946e+000
 7.5168405068e-001	 1.0759309169e+000	-1.6708528039e+000
 7.4059371899e-001	 1.0835945706e+000	-1.7086973697e+000
 7.2943597783e-001	 1.0911367486e+000	-1.7466845340e+000
 7.1821280132e-001	 1.0985566085e+000	-1.7848336857e+000
 6.8401219173e-001	 1.0462443890e+000	-1.6136467140e+000
 6.7326302520e-001	 1.0531936664e+000	-1.6190525874e+000
 6.6245533522e-001	 1.0600249662e+000	-1.6126862464e+000
 6.5159103546e-001	 1.0667376072e+000	-1.5949090440e+000
 6.4067204862e-001	 1.0733309490e+000	-1.5660948018e+000
 6.2970030539e-001	 1.0798043922e+000	-1.5266292546e+000
 6.1867774335e-001	 1.0861573781e+000	-1.5793862778e+000
 6.0760630594e-001	 1.0923893889e+000	-1.6981655592e+000
 5.9648794139e-001	 1.0984999480e+000	-1.8071600420e+000
 5.8532460163e-001	 1.1044886196e+000	-1.9071021795e+000
 5.7411824131e-001	 1.1103550086e+000	-1.9987249736e+000
 6.8743225269e-001	 1.0514756110e+000	-1.6158014963e+000
 6.7662934032e-001	 1.0584596347e+000	-1.6242419785e+000
 6.6576761190e-001	 1.0653250910e+000	-1.6215460809e+000
 6.5484899064e-001	 1.0720712952e+000	-1.6080337217e+000
 6.4387540887e-001	 1.0786976038e+000	-1.5840371384e+000
 6.3284880692e-001	 1.0852034142e+000	-1.5499003756e+000
 6.2177113207e-001	 1.0915881649e+000	-1.5578752792e+000
 6.1064433748e-001	 1.0978513359e+000	-1.6825012595e+000
 5.9947038110e-001	 1.1039924478e+000	-1.7977599554e+000
 5.8825122464e-001	 1.1100110627e+000	-1.9043479115e+000
 5.7698883251e-001	 1.1159067836e+000	-2.0029621526e+000
 6.9085231365e-001	 1.0567068329e+000	-1.6213318716e+000
 6.7999565545e-001	 1.0637256030e+000	-1.6321467143e+000
 6.6907988858e-001	 1.0706252158e+000	-1.6324537207e+000
 6.5810694582e-001	 1.0774049832e+000	-1.6225317162e+000
 6.4707876912e-001	 1.0840642585e+000	-1.6026716995e+000
 6.3599730845e-001	 1.0906024361e+000	-1.5731763740e+000
 6.2486452079e-001	 1.0970189518e+000	-1.5365187224e+000
 6.1368236901e-001	 1.1033132828e+000	-1.6662591675e+000
 6.0245282081e-001	 1.1094849475e+000	-1.7870455718e+000
 5.9117784765e-001	 1.1155335058e+000	-1.8995389984e+000
 5.7985942372e-001	 1.1214585586e+000	-2.0044009219e+000
 6.9427237461e-001	 1.0619380549e+000	-1.6302175359e+000
 6.8336197058e-001	 1.0689915714e+000	-1.6427557694e+000
 6.7239216525e-001	 1.0759253406e+000	-1.6454074926e+000
 6.6136490100e-001	 1.0827386713e+000	-1.6384107750e+000
 6.5028212936e-001	 1.0894309133e+000	-1.6220157176e+000
 6.3914580998e-001	 1.0960014581e+000	-1.5964840268e+000
 6.2795790951e-001	 1.1024497387e+000	-1.5620885688e+000
 6.1672040054e-001	 1.1087752297e+000	-1.6494845733e+000
 6.0543526052e-001	 1.1149774472e+000	-1.7750715761e+000
 5.9410447066e-001	 1.1210559489e+000	-1.8927395698e+000
 5.8273001493e-001	 1.1270103337e+000	-2.0031149015e+000
 6.9769243556e-001	 1.0671692768e+000	-1.6424390382e+000
 6.8672828571e-001	 1.0742575397e+000	-1.6560587864e+000
 6.7570444193e-001	 1.0812254655e+000	-1.6604062045e+000
 6.6462285618e-001	 1.0880723593e+000	-1.6556789388e+000
 6.5348548961e-001	 1.0947975680e+000	-1.6420865289e+000
 6.4229431151e-001	 1.1014004800e+000	-1.6198500236e+000
 6.3105129823e-001	 1.1078805256e+000	-1.5892015783e+000
 6.1975843208e-001	 1.1142371767e+000	-1.6322222936e+000
 6.0841770023e-001	 1.1204699470e+000	-1.7618919852e+000
 5.9703109367e-001	 1.1265783920e+000	-1.8840128916e+000
 5.8560060614e-001	 1.1325621087e+000	-1.9991766511e+000
 7.0111249652e-001	 1.0724004987e+000	-1.6579777588e+000
 6.9009460083e-001	 1.0795235080e+000	-1.6720460591e+000
 6.7901671861e-001	 1.0865255903e+000	-1.6774491340e+000
 6.6788081136e-001	 1.0934060473e+000	-1.6743445346e+000
 6.5668884985e-001	 1.1001642227e+000	-1.6629015706e+000
 6.4544281304e-001	 1.1067995020e+000	-1.6433009689e+000
 6.3414468695e-001	 1.1133113125e+000	-1.6157345119e+000
 6.2279646361e-001	 1.1196991236e+000	-1.6145166836e+000
 6.1140013993e-001	 1.1259624467e+000	-1.7475601643e+000
 5.9995771668e-001	 1.1321008350e+000	-1.8734213872e+000
 5.8847119735e-001	 1.1381138838e+000	-1.9926576957e+000
 7.0453255748e-001	 1.0776317207e+000	-1.6768158899e+000
 6.9346091596e-001	 1.0847894764e+000	-1.6907085174e+000
 6.8232899529e-001	 1.0918257151e+000	-1.6965360169e+000
 6.7113876654e-001	 1.0987397354e+000	-1.6944161681e+000
 6.5989221010e-001	 1.1055308775e+000	-1.6844783786e+000
 6.4859131457e-001	 1.1121985240e+000	-1.6668633839e+000
 6.3723807567e-001	 1.1187420994e+000	-1.6417229272e+000
 6.2583449514e-001	 1.1251610706e+000	-1.6092194197e+000
 6.1438257964e-001	 1.1314549465e+000	-1.7321288428e+000
 6.0288433969e-001	 1.1376232781e+000	-1.8610266576e+000
 5.9134178856e-001	 1.1436656588e+000	-1.9836285511e+000
 7.0795261844e-001	 1.0828629426e+000	-1.6989364156e+000
 6.9682723109e-001	 1.0900554447e+000	-1.7120377112e+000
 6.8564127196e-001	 1.0971258399e+000	-1.7176670359e+000
 6.7439672171e-001	 1.1040734234e+000	-1.7159027177e+000
 6.6309557034e-001	 1.1108975322e+000	-1.7068345850e+000
 6.5173981610e-001	 1.1175975459e+000	-1.6905637084e+000
 6.4033146439e-001	 1.1241728863e+000	-1.6672021215e+000
 6.2887252667e-001	 1.1306230175e+000	-1.6368725220e+000
 6.1736501935e-001	 1.1369474462e+000	-1.7156501294e+000
 6.0581096270e-001	 1.1431457212e+000	-1.8468895017e+000
 5.9421237977e-001	 1.1492174338e+000	-1.9721587481e+000
 7.1137267940e-001	 1.0880941646e+000	-1.7243230931e+000
 7.0019354621e-001	 1.0953214130e+000	-1.7360257958e+000
 6.8895354864e-001	 1.1024259648e+000	-1.7408428104e+000
 6.7765467689e-001	 1.1094071114e+000	-1.7388133277e+000
 6.6629893058e-001	 1.1162641870e+000	-1.7299879160e+000
 6.5488831762e-001	 1.1229965679e+000	-1.7144283032e+000
 6.4342485311e-001	 1.1296036732e+000	-1.6922071390e+000
 6.3191055820e-001	 1.1360849644e+000	-1.6634077351e+000
 6.2034745906e-001	 1.1424399459e+000	-1.6981755275e+000
 6.0873758571e-001	 1.1486681643e+000	-1.8310699350e+000
 5.9708297098e-001	 1.1547692089e+000	-1.9583168558e+000
 7.1479274036e-001	 1.0933253865e+000	-1.7529604337e+000
 7.0355986134e-001	 1.1005873814e+000	-1.7626655179e+000
 6.9226582531e-001	 1.1077260896e+000	-1.7660643854e+000
 6.8091263207e-001	 1.1147407995e+000	-1.7631574016e+000
 6.6950229083e-001	 1.1216308417e+000	-1.7539561892e+000
 6.5803681915e-001	 1.1283955898e+000	-1.7384834519e+000
 6.4651824182e-001	 1.1350344600e+000	-1.7167727759e+000
 6.3494858973e-001	 1.1415469114e+000	-1.6888684114e+000
 6.2332989877e-001	 1.1479324457e+000	-1.6797559490e+000
 6.1166420872e-001	 1.1541906074e+000	-1.8136272090e+000
 5.9995356218e-001	 1.1603209839e+000	-1.9421705053e+000
 7.1821280132e-001	 1.0985566085e+000	-1.7848336857e+000
 7.0692617646e-001	 1.1058533497e+000	-1.7919502005e+000
 6.9557810199e-001	 1.1130262144e+000	-1.7933332218e+000
 6.8417058724e-001	 1.1200744875e+000	-1.7889445963e+000
 6.7270565107e-001	 1.1269974965e+000	-1.7787573120e+000
 6.6118532068e-001	 1.1337946118e+000	-1.7627553622e+000
 6.4961163054e-001	 1.1404652469e+000	-1.7409335870e+000
 6.3798662126e-001	 1.1470088583e+000	-1.7132974948e+000
 6.2631233847e-001	 1.1534249454e+000	-1.6798630617e+000
 6.1459083173e-001	 1.1597130505e+000	-1.7946198289e+000
 6.0282415339e-001	 1.1658727590e+000	-1.9237864114e+000
 5.7411824131e-001	 1.1103550086e+000	-1.9987249736e+000
 5.6287081669e-001	 1.1160987607e+000	-2.0045569035e+000
 5.5158428467e-001	 1.1217195625e+000	-2.0094825969e+000
 5.4026060171e-001	 1.1272171407e+000	-2.0134734748e+000
 5.2890172283e-001	 1.1325912624e+000	-2.0164997666e+000
 5.1750960065e-001	 1.1378417347e+000	-2.0185302423e+000
 5.0608618432e-001	 1.1429684047e+000	-2.0195319550e+000
 4.9463341864e-001	 1.1479711587e+000	-2.0194699952e+000
 4.8315324299e-001	 1.1528499225e+000	-2.0183072565e+000
 4.7164759047e-001	 1.1576046607e+000	-2.0160042144e+000
 4.6011838693e-001	 1.1622353763e+000	-2.0125187179e+000
 5.7698883251e-001	 1.1159067836e+000	-2.0029621526e+000
 5.6568517078e-001	 1.1216792545e+000	-2.0048475490e+000
 5.5434220610e-001	 1.1273281603e+000	-2.0057915209e+000
 5.4296190472e-001	 1.1328532264e+000	-2.0058533729e+000
 5.3154623145e-001	 1.1382542187e+000	-2.0050902671e+000
 5.2009714865e-001	 1.1435309434e+000	-2.0035568710e+000
 5.0861661525e-001	 1.1486832467e+000	-2.0013050185e+000
 4.9710658573e-001	 1.1537110145e+000	-1.9983833852e+000
 4.8556900920e-001	 1.1586141721e+000	-1.9948371784e+000
 4.7400582842e-001	 1.1633926840e+000	-1.9907078420e+000
 4.6241897887e-001	 1.1680465532e+000	-1.9860327780e+000
 5.7985942372e-001	 1.1214585586e+000	-2.0044009219e+000
 5.6849952486e-001	 1.1272597483e+000	-2.0036076886e+000
 5.5710012752e-001	 1.1329367581e+000	-2.0018356402e+000
 5.4566320773e-001	 1.1384893121e+000	-1.9992314576e+000
 5.3419074006e-001	 1.1439171750e+000	-1.9959387332e+000
 5.2268469666e-001	 1.1492201521e+000	-1.9920975350e+000
 5.1114704617e-001	 1.1543980887e+000	-1.9878439870e+000
 4.9957975282e-001	 1.1594508703e+000	-1.9833098656e+000
 4.8798477542e-001	 1.1643784217e+000	-1.9786222134e+000
 4.7636406638e-001	 1.1691807073e+000	-1.9739029719e+000
 4.6471957080e-001	 1.1738577301e+000	-1.9692686316e+000
 5.8273001493e-001	 1.1270103337e+000	-2.0031149015e+000
 5.7131387895e-001	 1.1328402422e+000	-2.0008907007e+000
 5.5985804895e-001	 1.1385453559e+000	-1.9976481234e+000
 5.4836451074e-001	 1.1441253978e+000	-1.9936207288e+000
 5.3683524868e-001	 1.1495801313e+000	-1.9890380464e+000
 5.2527224466e-001	 1.1549093607e+000	-1.9841250576e+000
 5.1367747709e-001	 1.1601129307e+000	-1.9791016944e+000
 5.0205291992e-001	 1.1651907261e+000	-1.9741823586e+000
 4.9040054163e-001	 1.1701426713e+000	-1.9695754594e+000
 4.7872230433e-001	 1.1749687306e+000	-1.9654829729e+000
 4.6702016274e-001	 1.1796689070e+000	-1.9621000231e+000
 5.8560060614e-001	 1.1325621087e+000	-1.9991766511e+000
 5.7412823303e-001	 1.1384207360e+000	-1.9967492896e+000
 5.6261597037e-001	 1.1441539538e+000	-1.9932618507e+000
 5.5106581375e-001	 1.1497614835e+000	-1.9890342827e+000
 5.3947975730e-001	 1.1552430876e+000	-1.9843815687e+000
 5.2785979266e-001	 1.1605985694e+000	-1.9796131247e+000
 5.1620790801e-001	 1.1658277727e+000	-1.9750322188e+000
 5.0452608701e-001	 1.1709305819e+000	-1.9709354109e+000
 4.9281630785e-001	 1.1759069209e+000	-1.9676120164e+000
 4.8108054229e-001	 1.1807567539e+000	-1.9653435926e+000
 4.6932075468e-001	 1.1854800839e+000	-1.9644034499e+000
 5.8847119735e-001	 1.1381138838e+000	-1.9926576957e+000
 5.7694258712e-001	 1.1440012298e+000	-1.9912355021e+000
 5.6537389180e-001	 1.1497625516e+000	-1.9887094208e+000
 5.5376711676e-001	 1.1553975692e+000	-1.9854853096e+000
 5.4212426591e-001	 1.1609060439e+000	-1.9819631302e+000
 5.3044734067e-001	 1.1662877781e+000	-1.9785362644e+000
 5.1873833894e-001	 1.1715426148e+000	-1.9755908518e+000
 5.0699925411e-001	 1.1766704376e+000	-1.9735051530e+000
 4.9523207407e-001	 1.1816711706e+000	-1.9726489378e+000
 4.8343878024e-001	 1.1865447772e+000	-1.9733828991e+000
 4.7162134661e-001	 1.1912912607e+000	-1.9760580951e+000
 5.9134178856e-001	 1.1436656588e+000	-1.9836285511e+000
 5.7975694121e-001	 1.1495817236e+000	-1.9844007430e+000
 5.6813181322e-001	 1.1553711494e+000	-1.9840231576e+000
 5.5646841977e-001	 1.1610336549e+000	-1.9829870912e+000
 5.4476877453e-001	 1.1665690002e+000	-1.9817770185e+000
 5.3303488868e-001	 1.1719769867e+000	-1.9808698259e+000
 5.2126876986e-001	 1.1772574568e+000	-1.9807340698e+000
 5.0947242120e-001	 1.1824102934e+000	-1.9818292620e+000
 4.9764784029e-001	 1.1874354202e+000	-1.9846051831e+000
 4.8579701820e-001	 1.1923328005e+000	-1.9895012248e+000
 4.7392193855e-001	 1.1971024376e+000	-1.9969457624e+000
 5.9421237977e-001	 1.1492174338e+000	-1.9721587481e+000
 5.8257129529e-001	 1.1551622174e+000	-1.9762957913e+000
 5.7088973465e-001	 1.1609797472e+000	-1.9792351172e+000
 5.5916972278e-001	 1.1666697406e+000	-1.9815529989e+000
 5.4741328315e-001	 1.1722319565e+000	-1.9838179668e+000
 5.3562243668e-001	 1.1776661954e+000	-1.9865899599e+000
 5.2379920079e-001	 1.1829722988e+000	-1.9904195047e+000
 5.1194558830e-001	 1.1881501492e+000	-1.9958469230e+000
 5.0006360651e-001	 1.1931996698e+000	-2.0034015715e+000
 4.8815525615e-001	 1.1981208238e+000	-2.0136011115e+000
 4.7622253049e-001	 1.2029136145e+000	-2.0269508129e+000
 5.9708297098e-001	 1.1547692089e+000	-1.9583168558e+000
 5.8538564938e-001	 1.1607427112e+000	-1.9669708145e+000
 5.7364765608e-001	 1.1665883450e+000	-1.9743770943e+000
 5.6187102579e-001	 1.1723058263e+000	-1.9811964916e+000
 5.5005779176e-001	 1.1778949128e+000	-1.9880811441e+000
 5.3820998469e-001	 1.1833554041e+000	-1.9956735997e+000
 5.2632963172e-001	 1.1886871408e+000	-2.0046059165e+000
 5.1441875540e-001	 1.1938900050e+000	-2.0154987941e+000
 5.0247937273e-001	 1.1989639194e+000	-2.0289607377e+000
 4.9051349411e-001	 1.2039088471e+000	-2.0455872576e+000
 4.7852312243e-001	 1.2087247914e+000	-2.0659601037e+000
 5.9995356218e-001	 1.1603209839e+000	-1.9421705053e+000
 5.8820000346e-001	 1.1663232050e+000	-1.9564753837e+000
 5.7640557750e-001	 1.1721969428e+000	-1.9694806281e+000
 5.6457232881e-001	 1.1779419120e+000	-1.9819311133e+000
 5.5270230038e-001	 1.1835578692e+000	-1.9945621438e+000
 5.4079753270e-001	 1.1890446128e+000	-2.0080984416e+000
 5.2886006264e-001	 1.1944019828e+000	-2.0232531662e+000
 5.1689192250e-001	 1.1996298608e+000	-2.0407269700e+000
 5.0489513895e-001	 1.2047281690e+000	-2.0612070879e+000
 4.9287173207e-001	 1.2096968704e+000	-2.0853664662e+000
 4.8082371437e-001	 1.2145359683e+000	-2.1138629278e+000
 6.0282415339e-001	 1.1658727590e+000	-1.9237864114e+000
 5.9101435755e-001	 1.1719036988e+000	-1.9448584876e+000
 5.7916349893e-001	 1.1778055406e+000	-1.9645770086e+000
 5.6727363182e-001	 1.1835779977e+000	-1.9837704911e+000
 5.5534680900e-001	 1.1892208255e+000	-2.0032569746e+000
 5.4338508071e-001	 1.1947338214e+000	-2.0238429278e+000
 5.3139049357e-001	 1.2001168249e+000	-2.0463221897e+000
 5.1936508960e-001	 1.2053697166e+000	-2.0714749485e+000
 5.0731090517e-001	 1.2104924186e+000	-2.1000667583e+000
 4.9522997003e-001	 1.2154848937e+000	-2.1328475953e+000
 4.8312430631e-001	 1.2203471451e+000	-2.1705509565e+000
 4.6011838693e-001	 1.1622353763e+000	-2.0125187179e+000
 4.4856755005e-001	 1.1667421108e+000	-2.0546318614e+000
 4.3699698844e-001	 1.1711249430e+000	-2.0971372213e+000
 4.2540860078e-001	 1.1753839893e+000	-2.1404661398e+000
 4.1380427493e-001	 1.1795194030e+000	-2.1850391261e+000
 4.0218588712e-001	 1.1835313736e+000	-2.2312653371e+000
 3.9055530107e-001	 1.1874201265e+000	-2.2795420888e+000
 3.7891436727e-001	 1.1911859226e+000	-2.3302544003e+000
 3.6726492211e-001	 1.1948290576e+000	-2.3837745692e+000
 3.5560878718e-001	 1.1983498615e+000	-2.4404617796e+000
 3.4394776852e-001	 1.2017486977e+000	-2.5006617427e+000
 4.6241897887e-001	 1.1680465532e+000	-1.9860327780e+000
 4.5081038780e-001	 1.1725758213e+000	-2.0331953595e+000
 4.3918197338e-001	 1.1769805677e+000	-2.0778968363e+000
 4.2753564379e-001	 1.1812609093e+000	-2.1205229231e+000
 4.1587329631e-001	 1.1854170000e+000	-2.1614517733e+000
 4.0419681656e-001	 1.1894490304e+000	-2.2010534509e+000
 3.9250807758e-001	 1.1933572271e+000	-2.2396894302e+000
 3.8080893911e-001	 1.1971418522e+000	-2.2777121228e+000
 3.6910124672e-001	 1.2008032029e+000	-2.3154644341e+000
 3.5738683112e-001	 1.2043416108e+000	-2.3532793476e+000
 3.4566750737e-001	 1.2077574412e+000	-2.3914795384e+000
 4.6471957080e-001	 1.1738577301e+000	-1.9692686316e+000
 4.5305322555e-001	 1.1784095319e+000	-2.0202038604e+000
 4.4136695833e-001	 1.1828361924e+000	-2.0658584110e+000
 4.2966268679e-001	 1.1871378292e+000	-2.1065727682e+000
 4.1794231769e-001	 1.1913145970e+000	-2.1426831010e+000
 4.0620774599e-001	 1.1953666873e+000	-2.1745207270e+000
 3.9446085409e-001	 1.1992943278e+000	-2.2024115989e+000
 3.8270351095e-001	 1.2030977819e+000	-2.2266758165e+000
 3.7093757133e-001	 1.2067773482e+000	-2.2476271624e+000
 3.5916487506e-001	 1.2103333601e+000	-2.2655726637e+000
 3.4738724621e-001	 1.2137661847e+000	-2.2808121789e+000
 4.6702016274e-001	 1.1796689070e+000	-1.9621000231e+000
 4.5529606331e-001	 1.1842432424e+000	-2.0155485501e+000
 4.4355194327e-001	 1.1886918171e+000	-2.0609300922e+000
 4.3178972980e-001	 1.1930147492e+000	-2.0985402970e+000
 4.2001133907e-001	 1.1972121940e+000	-2.1286737172e+000
 4.0821867543e-001	 1.2012843442e+000	-2.1516232664e+000
 3.9641363060e-001	 1.2052314284e+000	-2.1676796933e+000
 3.8459808279e-001	 1.2090537115e+000	-2.1771310778e+000
 3.7277389595e-001	 1.2127514935e+000	-2.1802623471e+000
 3.6094291900e-001	 1.2163251094e+000	-2.1773548139e+000
 3.4910698506e-001	 1.2197749282e+000	-2.1686857371e+000
 4.6932075468e-001	 1.1854800839e+000	-1.9644034499e+000
 4.5753890106e-001	 1.1900769530e+000	-2.0191230154e+000
 4.4573692822e-001	 1.1945474418e+000	-2.0630220845e+000
 4.3391677281e-001	 1.1988916691e+000	-2.0963518563e+000
 4.2208036044e-001	 1.2031097911e+000	-2.1193656312e+000
 4.1022960487e-001	 1.2072020010e+000	-2.1323182577e+000
 3.9836640711e-001	 1.2111685290e+000	-2.1354655952e+000
 3.8649265463e-001	 1.2150096411e+000	-2.1290639928e+000
 3.7461022056e-001	 1.2187256388e+000	-2.1133697869e+000
 3.6272096294e-001	 1.2223168587e+000	-2.0886388158e+000
 3.5082672390e-001	 1.2257836717e+000	-2.0551259539e+000
 4.7162134661e-001	 1.1912912607e+000	-1.9760580951e+000
 4.5978173881e-001	 1.1959106635e+000	-2.0308231852e+000
 4.4792191317e-001	 1.2004030666e+000	-2.0720466001e+000
 4.3604381581e-001	 1.2047685891e+000	-2.0999354752e+000
 4.2414938182e-001	 1.2090073881e+000	-2.1147022188e+000
 4.1224053431e-001	 1.2131196579e+000	-2.1165639505e+000
 4.0031918362e-001	 1.2171056296e+000	-2.1057419508e+000
 3.8838722647e-001	 1.2209655707e+000	-2.0824611252e+000
 3.7644654518e-001	 1.2246997841e+000	-2.0469494811e+000
 3.6449900688e-001	 1.2283086080e+000	-1.9994376202e+000
 3.5254646275e-001	 1.2317924152e+000	-1.9401582458e+000
 4.7392193855e-001	 1.1971024376e+000	-1.9969457624e+000
 4.6202457657e-001	 1.2017443741e+000	-2.0505472736e+000
 4.5010689811e-001	 1.2062586913e+000	-2.0879178101e+000
 4.3817085882e-001	 1.2106455090e+000	-2.1092208246e+000
 4.2621840320e-001	 1.2149049851e+000	-2.1146281901e+000
 4.1425146375e-001	 1.2190373148e+000	-2.1043196292e+000
 4.0227196013e-001	 1.2230427303e+000	-2.0784821522e+000
 3.9028179831e-001	 1.2269215003e+000	-2.0373095045e+000
 3.7828286979e-001	 1.2306739294e+000	-1.9810016246e+000
 3.6627705082e-001	 1.2343003573e+000	-1.9097641129e+000
 3.5426620159e-001	 1.2378011587e+000	-1.8238077133e+000
 4.7622253049e-001	 1.2029136145e+000	-2.0269508129e+000
 4.6426741432e-001	 1.2075780846e+000	-2.0781957246e+000
 4.5229188306e-001	 1.2121143160e+000	-2.1105517972e+000
 4.4029790183e-001	 1.2165224290e+000	-2.1241391776e+000
 4.2828742458e-001	 1.2208025821e+000	-2.1190895565e+000
 4.1626239319e-001	 1.2249549716e+000	-2.0955455887e+000
 4.0422473663e-001	 1.2289798309e+000	-2.0536603194e+000
 3.9217637015e-001	 1.2328774299e+000	-1.9935966153e+000
 3.8011919440e-001	 1.2366480747e+000	-1.9155266032e+000
 3.6805509475e-001	 1.2402921066e+000	-1.8196311159e+000
 3.5598594044e-001	 1.2438099022e+000	-1.7060991478e+000
 4.7852312243e-001	 1.2087247914e+000	-2.0659601037e+000
 4.6651025208e-001	 1.2134117952e+000	-2.1136711589e+000
 4.5447686800e-001	 1.2179699407e+000	-2.1398665098e+000
 4.4242494484e-001	 1.2223993489e+000	-2.1446233708e+000
 4.3035644596e-001	 1.2267001791e+000	-2.1280335995e+000
 4.1827332263e-001	 1.2308726285e+000	-2.0902031094e+000
 4.0617751314e-001	 1.2349169315e+000	-2.0312512826e+000
 3.9407094199e-001	 1.2388333595e+000	-1.9513103859e+000
 3.8195551902e-001	 1.2426222199e+000	-1.8505249893e+000
 3.6983313869e-001	 1.2462838559e+000	-1.7290513897e+000
 3.5770567928e-001	 1.2498186456e+000	-1.5870570399e+000
 4.8082371437e-001	 1.2145359683e+000	-2.1138629278e+000
 4.6875308983e-001	 1.2192455057e+000	-2.1568783213e+000
 4.5666185295e-001	 1.2238255654e+000	-2.1757817172e+000
 4.4455198785e-001	 1.2282762688e+000	-2.1706077667e+000
 4.3242546734e-001	 1.2325977761e+000	-2.1414088409e+000
 4.2028425207e-001	 1.2367902854e+000	-2.0882544342e+000
 4.0813028965e-001	 1.2408540322e+000	-2.0112305656e+000
 3.9596551383e-001	 1.2447892891e+000	-1.9104391777e+000
 3.8379184363e-001	 1.2485963652e+000	-1.7859975369e+000
 3.7161118263e-001	 1.2522756052e+000	-1.7898558196e+000
 3.5942541813e-001	 1.2558273891e+000	-1.8551623314e+000
 4.8312430631e-001	 1.2203471451e+000	-2.1705509565e+000
 4.7099592759e-001	 1.2250792163e+000	-2.2077240306e+000
 4.5884683790e-001	 1.2296811901e+000	-2.2182189665e+000
 4.4667903086e-001	 1.2341531888e+000	-2.2020282180e+000
 4.3449448872e-001	 1.2384953731e+000	-2.1591650125e+000
 4.2229518151e-001	 1.2427079422e+000	-2.0896627454e+000
 4.1008306616e-001	 1.2467911328e+000	-1.9935743688e+000
 3.9786008567e-001	 1.2507452188e+000	-1.9207600637e+000
 3.8562816825e-001	 1.2545705105e+000	-2.0273553026e+000
 3.7338922657e-001	 1.2582673545e+000	-2.0988856010e+000
 3.6114515698e-001	 1.2618361326e+000	-2.1351682000e+000
 3.4394776852e-001	 1.2017486977e+000	-2.5006617427e+000
 3.3228365588e-001	 1.2050259632e+000	-2.5730434022e+000
 3.2061822206e-001	 1.2081820871e+000	-2.6353438599e+000
 3.0895322221e-001	 1.2112175306e+000	-2.6877871084e+000
 2.9729039319e-001	 1.2141327860e+000	-2.7305970261e+000
 2.8563145298e-001	 1.2169283763e+000	-2.7639969906e+000
 2.7397810001e-001	 1.2196048543e+000	-2.7882095102e+000
 2.6233201268e-001	 1.2221628022e+000	-2.8034558731e+000
 2.5069484871e-001	 1.2246028307e+000	-2.8099558151e+000
 2.3906824468e-001	 1.2269255782e+000	-2.8079272048e+000
 2.2745381550e-001	 1.2291317105e+000	-2.7975857473e+000
 3.4566750737e-001	 1.2077574412e+000	-2.3914795384e+000
 3.3394507417e-001	 1.2110510930e+000	-2.4377088484e+000
 3.2222131318e-001	 1.2142229976e+000	-2.4750251722e+000
 3.1049798832e-001	 1.2172736183e+000	-2.5036534927e+000
 2.9877684516e-001	 1.2202034500e+000	-2.5238176362e+000
 2.8705961024e-001	 1.2230130182e+000	-2.5357399023e+000
 2.7534799051e-001	 1.2257028786e+000	-2.5396407132e+000
 2.6364367274e-001	 1.2282736162e+000	-2.5357382817e+000
 2.5194832295e-001	 1.2307258448e+000	-2.5242482977e+000
 2.4026358590e-001	 1.2330602061e+000	-2.5053836347e+000
 2.2859108458e-001	 1.2352773691e+000	-2.4793540745e+000
 3.4738724621e-001	 1.2137661847e+000	-2.2808121789e+000
 3.3560649245e-001	 1.2170762228e+000	-2.3008856891e+000
 3.2382440429e-001	 1.2202639080e+000	-2.3132059463e+000
 3.1204275444e-001	 1.2233297059e+000	-2.3179990392e+000
 3.0026329713e-001	 1.2262741139e+000	-2.3154888597e+000
 2.8848776751e-001	 1.2290976601e+000	-2.3058967500e+000
 2.7671788102e-001	 1.2318009029e+000	-2.2894411684e+000
 2.6495533281e-001	 1.2343844302e+000	-2.2663373763e+000
 2.5320179719e-001	 1.2368488590e+000	-2.2367971440e+000
 2.4145892712e-001	 1.2391948340e+000	-2.2010284774e+000
 2.2972835366e-001	 1.2414230276e+000	-2.1592353638e+000
 3.4910698506e-001	 1.2197749282e+000	-2.1686857371e+000
 3.3726791073e-001	 1.2231013527e+000	-2.1625988658e+000
 3.2542749540e-001	 1.2263048184e+000	-2.1499101491e+000
 3.1358752055e-001	 1.2293857936e+000	-2.1308468967e+000
 3.0174974910e-001	 1.2323447778e+000	-2.1056331837e+000
 2.8991592477e-001	 1.2351823020e+000	-2.0744895141e+000
 2.7808777152e-001	 1.2378989271e+000	-2.0376325040e+000
 2.6626699287e-001	 1.2404952442e+000	-1.9952745866e+000
 2.5445527144e-001	 1.2429718731e+000	-1.9476237375e+000
 2.4265426835e-001	 1.2453294618e+000	-1.8948832216e+000
 2.3086562273e-001	 1.2475686862e+000	-1.8372513595e+000
 3.5082672390e-001	 1.2257836717e+000	-2.0551259539e+000
 3.3892932901e-001	 1.2291264825e+000	-2.0228730005e+000
 3.2703058651e-001	 1.2323457289e+000	-1.9851614384e+000
 3.1513228666e-001	 1.2354418812e+000	-1.9422199125e+000
 3.0323620106e-001	 1.2384154417e+000	-1.8942727981e+000
 2.9134408204e-001	 1.2412669438e+000	-1.8415398796e+000
 2.7945766202e-001	 1.2439969514e+000	-1.7842360515e+000
 2.6757865293e-001	 1.2466060583e+000	-1.7225710413e+000
 2.5570874568e-001	 1.2490948873e+000	-1.6567491540e+000
 2.4384960957e-001	 1.2514640897e+000	-1.6808766187e+000
 2.3200289181e-001	 1.2537143447e+000	-1.7502784024e+000
 3.5254646275e-001	 1.2317924152e+000	-1.9401582458e+000
 3.4059074729e-001	 1.2351516123e+000	-1.8817324041e+000
 3.2863367763e-001	 1.2383866393e+000	-1.8189831706e+000
 3.1667705277e-001	 1.2414979689e+000	-1.7521406397e+000
 3.0472265303e-001	 1.2444861057e+000	-1.6814296028e+000
 2.9277223931e-001	 1.2473515857e+000	-1.6070692428e+000
 2.8082755252e-001	 1.2500949757e+000	-1.5354658932e+000
 2.6889031300e-001	 1.2527168723e+000	-1.6246384253e+000
 2.5696221993e-001	 1.2552179014e+000	-1.7013351276e+000
 2.4504495079e-001	 1.2575987176e+000	-1.7656842980e+000
 2.3314016089e-001	 1.2598600033e+000	-1.8178302993e+000
 3.5426620159e-001	 1.2378011587e+000	-1.8238077133e+000
 3.4225216558e-001	 1.2411767421e+000	-1.7392010834e+000
 3.3023676874e-001	 1.2444275497e+000	-1.6513984079e+000
 3.1822181889e-001	 1.2475540565e+000	-1.5606313440e+000
 3.0620910500e-001	 1.2505567696e+000	-1.5037588802e+000
 2.9420039657e-001	 1.2534362276e+000	-1.5964371773e+000
 2.8219744302e-001	 1.2561930000e+000	-1.6773393373e+000
 2.7020197306e-001	 1.2588276863e+000	-1.7465541463e+000
 2.5821569417e-001	 1.2613409156e+000	-1.8041865669e+000
 2.4624029202e-001	 1.2637333455e+000	-1.8503574454e+000
 2.3427742997e-001	 1.2660056618e+000	-1.8852031968e+000
 3.5598594044e-001	 1.2438099022e+000	-1.7060991478e+000
 3.4391358386e-001	 1.2472018719e+000	-1.5953027489e+000
 3.3183985985e-001	 1.2504684602e+000	-1.5134660644e+000
 3.1976658500e-001	 1.2536101442e+000	-1.6063295960e+000
 3.0769555697e-001	 1.2566274335e+000	-1.6881965324e+000
 2.9562855384e-001	 1.2595208695e+000	-1.7591172875e+000
 2.8356733352e-001	 1.2622910242e+000	-1.8191583975e+000
 2.7151363313e-001	 1.2649385003e+000	-1.8684022966e+000
 2.5946916841e-001	 1.2674639297e+000	-1.9069470665e+000
 2.4743563324e-001	 1.2698679734e+000	-1.9349061636e+000
 2.3541469904e-001	 1.2721513204e+000	-1.9524081226e+000
 3.5770567928e-001	 1.2498186456e+000	-1.5870570399e+000
 3.4557500214e-001	 1.2532270017e+000	-1.6645802015e+000
 3.3344295096e-001	 1.2565093706e+000	-1.7440332216e+000
 3.2131135111e-001	 1.2596662318e+000	-1.8133574764e+000
 3.0918200893e-001	 1.2626980975e+000	-1.8725824324e+000
 2.9705671111e-001	 1.2656055114e+000	-1.9217532994e+000
 2.8493722402e-001	 1.2683890485e+000	-1.9609308500e+000
 2.7282529319e-001	 1.2710493143e+000	-1.9901912131e+000
 2.6072264266e-001	 1.2735869439e+000	-2.0096256436e+000
 2.4863097446e-001	 1.2760026013e+000	-2.0193402675e+000
 2.3655196812e-001	 1.2782969789e+000	-2.0194558052e+000
 3.5942541813e-001	 1.2558273891e+000	-1.8551623314e+000
 3.4723642042e-001	 1.2592521316e+000	-1.9194590130e+000
 3.3504604208e-001	 1.2625502811e+000	-1.9745091497e+000
 3.2285611723e-001	 1.2657223195e+000	-2.0203223011e+000
 3.1066846090e-001	 1.2687687614e+000	-2.0569233341e+000
 2.9848486837e-001	 1.2716901532e+000	-2.0843522872e+000
 2.8630711452e-001	 1.2744870728e+000	-2.1026642082e+000
 2.7413695325e-001	 1.2771601283e+000	-2.1119289669e+000
 2.6197611690e-001	 1.2797099580e+000	-2.1122310431e+000
 2.4982631569e-001	 1.2821372292e+000	-2.1036692911e+000
 2.3768923720e-001	 1.2844426375e+000	-2.0863566813e+000
 3.6114515698e-001	 1.2618361326e+000	-2.1351682000e+000
 3.4889783870e-001	 1.2652772614e+000	-2.1742145267e+000
 3.3664913319e-001	 1.2685911915e+000	-2.2049000586e+000
 3.2440088334e-001	 1.2717784072e+000	-2.2272303639e+000
 3.1215491287e-001	 1.2748394253e+000	-2.2412257346e+000
 2.9991302564e-001	 1.2777747951e+000	-2.2469210692e+000
 2.8767700503e-001	 1.2805850971e+000	-2.2443657289e+000
 2.7544861332e-001	 1.2832709423e+000	-2.2336233686e+000
 2.6322959115e-001	 1.2858329722e+000	-2.2147717438e+000
 2.5102165691e-001	 1.2882718571e+000	-2.1879024939e+000
 2.3882650627e-001	 1.2905882961e+000	-2.1531209027e+000
 2.2745381550e-001	 1.2291317105e+000	-2.7975857473e+000
 2.1585315395e-001	 1.2312219199e+000	-2.8083206690e+000
 2.0426783020e-001	 1.2331969241e+000	-2.8139523439e+000
 1.9269939141e-001	 1.2350574661e+000	-2.8144700898e+000
 1.8114936128e-001	 1.2368043131e+000	-2.8098617601e+000
 1.6961923972e-001	 1.2384382558e+000	-2.8001137090e+000
 1.5811050247e-001	 1.2399601078e+000	-2.7852107684e+000
 1.4662460077e-001	 1.2413707047e+000	-2.7651362353e+000
 1.3516296103e-001	 1.2426709033e+000	-2.7398718703e+000
 1.2372698457e-001	 1.2438615812e+000	-2.7093979059e+000
 1.1231804736e-001	 1.2449436358e+000	-2.6736930644e+000
 2.2859108458e-001	 1.2352773691e+000	-2.4793540745e+000
 2.1693241972e-001	 1.2373780295e+000	-2.4724582562e+000
 2.0528916936e-001	 1.2393629087e+000	-2.4618942388e+000
 1.9366288836e-001	 1.2412327534e+000	-2.4476737772e+000
 1.8205510808e-001	 1.2429883347e+000	-2.4298054930e+000
 1.7046733592e-001	 1.2446304471e+000	-2.4082948524e+000
 1.5890105498e-001	 1.2461599084e+000	-2.3831441567e+000
 1.4735772377e-001	 1.2475775582e+000	-2.3543525465e+000
 1.3583877583e-001	 1.2488842578e+000	-2.3219160174e+000
 1.2434561949e-001	 1.2500808892e+000	-2.2905754615e+000
 1.1287963760e-001	 1.2511683539e+000	-2.3138910780e+000
 2.2972835366e-001	 1.2414230276e+000	-2.1592353638e+000
 2.1801168549e-001	 1.2435341391e+000	-2.1352713000e+000
 2.0631050851e-001	 1.2455288933e+000	-2.1090621432e+000
 1.9462638532e-001	 1.2474080408e+000	-2.0806419978e+000
 1.8296085489e-001	 1.2491723562e+000	-2.0500401727e+000
 1.7131543211e-001	 1.2508226384e+000	-2.0676177231e+000
 1.5969160749e-001	 1.2523597089e+000	-2.1254841577e+000
 1.4809084677e-001	 1.2537844117e+000	-2.1726911126e+000
 1.3651459063e-001	 1.2550976124e+000	-2.2093765582e+000
 1.2496425441e-001	 1.2563001971e+000	-2.2356924195e+000
 1.1344122784e-001	 1.2573930721e+000	-2.2518041490e+000
 2.3086562273e-001	 1.2475686862e+000	-1.8372513595e+000
 2.1909095126e-001	 1.2496902486e+000	-1.7967724125e+000
 2.0733184766e-001	 1.2516948779e+000	-1.8618945322e+000
 1.9558988228e-001	 1.2535833281e+000	-1.9367430123e+000
 1.8386660169e-001	 1.2553563778e+000	-2.0018300381e+000
 1.7216352831e-001	 1.2570148297e+000	-2.0572677773e+000
 1.6048216001e-001	 1.2585595094e+000	-2.1031823031e+000
 1.4882396978e-001	 1.2599912653e+000	-2.1397132233e+000
 1.3719040544e-001	 1.2613109669e+000	-2.1670132936e+000
 1.2558288934e-001	 1.2625195050e+000	-2.1852480165e+000
 1.1400281807e-001	 1.2636177903e+000	-2.1945952263e+000
 2.3200289181e-001	 1.2537143447e+000	-1.7502784024e+000
 2.2017021703e-001	 1.2558463582e+000	-1.8274322333e+000
 2.0835318681e-001	 1.2578608626e+000	-1.8958120082e+000
 1.9655337923e-001	 1.2597586154e+000	-1.9555219022e+000
 1.8477234850e-001	 1.2615403994e+000	-2.0066794397e+000
 1.7301162451e-001	 1.2632070209e+000	-2.0494151663e+000
 1.6127271252e-001	 1.2647593100e+000	-2.0838723027e+000
 1.4955709278e-001	 1.2661981188e+000	-2.1102063842e+000
 1.3786622024e-001	 1.2675243214e+000	-2.1285848846e+000
 1.2620152426e-001	 1.2687388129e+000	-2.1391868270e+000
 1.1456440831e-001	 1.2698425085e+000	-2.1422023821e+000
 2.3314016089e-001	 1.2598600033e+000	-1.8178302993e+000
 2.2124948280e-001	 1.2620024678e+000	-1.8780490845e+000
 2.0937452596e-001	 1.2640268472e+000	-1.9306478002e+000
 1.9751687619e-001	 1.2659339027e+000	-1.9757513621e+000
 1.8567809530e-001	 1.2677244209e+000	-2.0134968003e+000
 1.7385972071e-001	 1.2693992122e+000	-2.0440329385e+000
 1.6206326503e-001	 1.2709591105e+000	-2.0675200569e+000
 1.5029021578e-001	 1.2724049723e+000	-2.0841295408e+000
 1.3854203505e-001	 1.2737376759e+000	-2.0940435158e+000
 1.2682015918e-001	 1.2749581208e+000	-2.0974544697e+000
 1.1512599854e-001	 1.2760672267e+000	-2.0945648640e+000
 2.3427742997e-001	 1.2660056618e+000	-1.8852031968e+000
 2.2232874857e-001	 1.2681585774e+000	-1.9290406439e+000
 2.1039586511e-001	 1.2701928318e+000	-1.9663975589e+000
 1.9848037314e-001	 1.2721091901e+000	-1.9974194773e+000
 1.8658384211e-001	 1.2739084425e+000	-2.0222628258e+000
 1.7470781690e-001	 1.2755914035e+000	-2.0410946080e+000
 1.6285381754e-001	 1.2771589111e+000	-2.0540920761e+000
 1.5102333878e-001	 1.2786118258e+000	-2.0614423891e+000
 1.3921784985e-001	 1.2799510304e+000	-2.0633422584e+000
 1.2743879410e-001	 1.2811774287e+000	-2.0599975817e+000
 1.1568758878e-001	 1.2822919448e+000	-2.0516230667e+000
 2.3541469904e-001	 1.2721513204e+000	-1.9524081226e+000
 2.2340801434e-001	 1.2743146870e+000	-1.9804101655e+000
 2.1141720426e-001	 1.2763588164e+000	-2.0030569441e+000
 1.9944387010e-001	 1.2782844774e+000	-2.0205144948e+000
 1.8748958891e-001	 1.2800924641e+000	-2.0329585325e+000
 1.7555591310e-001	 1.2817835948e+000	-2.0405741435e+000
 1.6364437005e-001	 1.2833587116e+000	-2.0435554659e+000
 1.5175646179e-001	 1.2848186793e+000	-2.0421053569e+000
 1.3989366465e-001	 1.2861643849e+000	-2.0364350488e+000
 1.2805742902e-001	 1.2873967366e+000	-2.0267637946e+000
 1.1624917902e-001	 1.2885166630e+000	-2.0133185039e+000
 2.3655196812e-001	 1.2782969789e+000	-2.0194558052e+000
 2.2448728011e-001	 1.2804707966e+000	-2.0321607600e+000
 2.1243854341e-001	 1.2825248010e+000	-2.0406216249e+000
 2.0040736706e-001	 1.2844597647e+000	-2.0450248191e+000
 1.8839533572e-001	 1.2862764856e+000	-2.0455652388e+000
 1.7640400930e-001	 1.2879757861e+000	-2.0424459572e+000
 1.6443492256e-001	 1.2895585121e+000	-2.0358779129e+000
 1.5248958479e-001	 1.2910255329e+000	-2.0260795866e+000
 1.4056947946e-001	 1.2923777395e+000	-2.0132766674e+000
 1.2867606394e-001	 1.2936160445e+000	-1.9977017097e+000
 1.1681076925e-001	 1.2947413812e+000	-1.9795937818e+000
 2.3768923720e-001	 1.2844426375e+000	-2.0863566813e+000
 2.2556654588e-001	 1.2866269062e+000	-2.0842953986e+000
 2.1345988256e-001	 1.2886907857e+000	-2.0790872791e+000
 2.0137086401e-001	 1.2906350521e+000	-2.0709390086e+000
 1.8930108252e-001	 1.2924605072e+000	-2.0600645587e+000
 1.7725210550e-001	 1.2941679773e+000	-2.0466848945e+000
 1.6522547507e-001	 1.2957583127e+000	-2.0310276708e+000
 1.5322270779e-001	 1.2972323864e+000	-2.0133269180e+000
 1.4124529426e-001	 1.2985910940e+000	-1.9938227187e+000
 1.2929469887e-001	 1.2998353524e+000	-1.9727608757e+000
 1.1737235949e-001	 1.3009660994e+000	-1.9503925728e+000
 2.3882650627e-001	 1.2905882961e+000	-2.1531209027e+000
 2.2664581165e-001	 1.2927830158e+000	-2.1368169160e+000
 2.1448122171e-001	 1.2948567703e+000	-2.1184495934e+000
 2.0233436097e-001	 1.2968103394e+000	-2.0982457719e+000
 1.9020682933e-001	 1.2986445288e+000	-2.0764383941e+000
 1.7810020169e-001	 1.3003601686e+000	-2.0532662232e+000
 1.6601602758e-001	 1.3019581132e+000	-2.0289735467e+000
 1.5395583079e-001	 1.3034392399e+000	-2.0038098718e+000
 1.4192110907e-001	 1.3048044485e+000	-1.9780296118e+000
 1.2991333379e-001	 1.3060546603e+000	-1.9518917656e+000
 1.1793394972e-001	 1.3071908176e+000	-1.9256595901e+000
 1.1231804736e-001	 1.2449436358e+000	-2.6736930644e+000
 1.0093749977e-001	 1.2459179833e+000	-2.6672003622e+000
 8.9586666325e-002	 1.2467855586e+000	-2.6601674874e+000
 7.8266845569e-002	 1.2475473141e+000	-2.6526421106e+000
 6.6979309847e-002	 1.2482042189e+000	-2.6446649084e+000
 5.5725305172e-002	 1.2487572584e+000	-2.6362696855e+000
 4.4506051094e-002	 1.2492074333e+000	-2.6274835092e+000
 3.3322740588e-002	 1.2495557590e+000	-2.6183268541e+000
 2.2176539973e-002	 1.2498032649e+000	-2.6088137583e+000
 1.1068588838e-002	 1.2499509936e+000	-2.5989519881e+000
 0.0000000000e+000	 1.2500000000e+000	-2.5887432120e+000
 1.1287963760e-001	 1.2511683539e+000	-2.3138910780e+000
 1.0144218727e-001	 1.2521475732e+000	-2.3622613991e+000
 9.0034599656e-002	 1.2530194864e+000	-2.4033237693e+000
 7.8658179796e-002	 1.2537850507e+000	-2.4373299320e+000
 6.7314206396e-002	 1.2544452400e+000	-2.4645398582e+000
 5.6003931698e-002	 1.2550010447e+000	-2.4852212995e+000
 4.4728581349e-002	 1.2554534705e+000	-2.4996493372e+000
 3.3489354291e-002	 1.2558035378e+000	-2.5081059283e+000
 2.2287422673e-002	 1.2560522813e+000	-2.5108794493e+000
 1.1123931782e-002	 1.2562007485e+000	-2.5082642379e+000
 0.0000000000e+000	 1.2562500000e+000	-2.5005601355e+000
 1.1344122784e-001	 1.2573930721e+000	-2.2518041490e+000
 1.0194687476e-001	 1.2583771631e+000	-2.2957617913e+000
 9.0482532987e-002	 1.2592534142e+000	-2.3329175536e+000
 7.9049514023e-002	 1.2600227872e+000	-2.3635161960e+000
 6.7649102945e-002	 1.2606862611e+000	-2.3878105886e+000
 5.6282558223e-002	 1.2612448310e+000	-2.4060612735e+000
 4.4951111604e-002	 1.2616995076e+000	-2.4185360223e+000
 3.3655967994e-002	 1.2620513166e+000	-2.4255093904e+000
 2.2398305372e-002	 1.2623012976e+000	-2.4272622682e+000
 1.1179274727e-002	 1.2624505035e+000	-2.4240814318e+000
 0.0000000000e+000	 1.2625000000e+000	-2.4162590917e+000
 1.1400281807e-001	 1.2636177903e+000	-2.1945952263e+000
 1.0245156226e-001	 1.2646067531e+000	-2.2340609622e+000
 9.0930466318e-002	 1.2654873420e+000	-2.2672250410e+000
 7.9440848251e-002	 1.2662605238e+000	-2.2943253161e+000
 6.7983999493e-002	 1.2669272822e+000	-2.3156076364e+000
 5.6561184749e-002	 1.2674886173e+000	-2.3313254173e+000
 4.5173641859e-002	 1.2679455448e+000	-2.3417392062e+000
 3.3822581696e-002	 1.2682990954e+000	-2.3471162450e+000
 2.2509188072e-002	 1.2685503139e+000	-2.3477300294e+000
 1.1234617671e-002	 1.2687002585e+000	-2.3438598670e+000
 0.0000000000e+000	 1.2687500000e+000	-2.3357904335e+000
 1.1456440831e-001	 1.2698425085e+000	-2.1422023821e+000
 1.0295624976e-001	 1.2708363430e+000	-2.1770980765e+000
 9.1378399649e-002	 1.2717212698e+000	-2.2061865437e+000
 7.9832182478e-002	 1.2724982604e+000	-2.2296988053e+000
 6.8318896042e-002	 1.2731683033e+000	-2.2478737680e+000
 5.6839811274e-002	 1.2737324035e+000	-2.2609578018e+000
 4.5396172115e-002	 1.2741915820e+000	-2.2692043146e+000
 3.3989195399e-002	 1.2745468742e+000	-2.2728733221e+000
 2.2620070772e-002	 1.2747993302e+000	-2.2722310150e+000
 1.1289960615e-002	 1.2749500134e+000	-2.2675493248e+000
 0.0000000000e+000	 1.2750000000e+000	-2.2591054874e+000
 1.1512599854e-001	 1.2760672267e+000	-2.0945648640e+000
 1.0346093726e-001	 1.2770659329e+000	-2.1248134577e+000
 9.1826332979e-002	 1.2779551976e+000	-2.1497435138e+000
 8.0223516705e-002	 1.2787359969e+000	-2.1695792971e+000
 6.8653792591e-002	 1.2794093244e+000	-2.1845528492e+000
 5.7118437800e-002	 1.2799761898e+000	-2.1949035756e+000
 4.5618702370e-002	 1.2804376191e+000	-2.2008778278e+000
 3.4155809102e-002	 1.2807946530e+000	-2.2027284815e+000
 2.2730953472e-002	 1.2810483466e+000	-2.2007145115e+000
 1.1345303559e-002	 1.2811997684e+000	-2.1951005642e+000
 0.0000000000e+000	 1.2812500000e+000	-2.1861565294e+000
 1.1568758878e-001	 1.2822919448e+000	-2.0516230667e+000
 1.0396562476e-001	 1.2832955228e+000	-2.0771485594e+000
 9.2274266310e-002	 1.2841891254e+000	-2.0978385163e+000
 8.0614850932e-002	 1.2849737335e+000	-2.1139105185e+000
 6.8988689140e-002	 1.2856503455e+000	-2.1255898192e+000
 5.7397064325e-002	 1.2862199761e+000	-2.1331089387e+000
 4.5841232625e-002	 1.2866836563e+000	-2.1367072547e+000
 3.4322422805e-002	 1.2870424318e+000	-2.1366305882e+000
 2.2841836171e-002	 1.2872973629e+000	-2.1331307852e+000
 1.1400646503e-002	 1.2874495234e+000	-2.1264652980e+000
 0.0000000000e+000	 1.2875000000e+000	-2.1168967625e+000
 1.1624917902e-001	 1.2885166630e+000	-2.0133185039e+000
 1.0447031225e-001	 1.2895251127e+000	-2.0340459382e+000
 9.2722199641e-002	 1.2904230532e+000	-2.0504152015e+000
 8.1006185160e-002	 1.2912114701e+000	-2.0626372634e+000
 6.9323585688e-002	 1.2918913665e+000	-2.0709306642e+000
 5.7675690851e-002	 1.2924637624e+000	-2.0755211175e+000
 4.6063762880e-002	 1.2929296935e+000	-2.0766411087e+000
 3.4489036507e-002	 1.2932902106e+000	-2.0745294876e+000
 2.2952718871e-002	 1.2935463792e+000	-2.0694310592e+000
 1.1455989447e-002	 1.2936992784e+000	-2.0615961698e+000
 0.0000000000e+000	 1.2937500000e+000	-2.0512802937e+000
 1.1681076925e-001	 1.2947413812e+000	-1.9795937818e+000
 1.0497499975e-001	 1.2957547026e+000	-1.9954492275e+000
 9.3170132972e-002	 1.2966569810e+000	-2.0074182793e+000
 8.1397519387e-002	 1.2974492066e+000	-2.0157053671e+000
 6.9658482237e-002	 1.2981323876e+000	-2.0205223924e+000
 5.7954317376e-002	 1.2987075487e+000	-2.0220883398e+000
 4.6286293135e-002	 1.2991757306e+000	-2.0206288825e+000
 3.4655650210e-002	 1.2995379894e+000	-2.0163759828e+000
 2.3063601571e-002	 1.2997953955e+000	-2.0095674894e+000
 1.1511332391e-002	 1.2999490333e+000	-2.0004467318e+000
 0.0000000000e+000	 1.3000000000e+000	-1.9892621127e+000
 1.1737235949e-001	 1.3009660994e+000	-1.9503925728e+000
 1.0547968725e-001	 1.3019842926e+000	-1.9613031112e+000
 9.3618066303e-002	 1.3028909088e+000	-1.9687934939e+000
 8.1788853614e-002	 1.3036869432e+000	-1.9730616811e+000
 6.9993378786e-002	 1.3043734087e+000	-1.9743130095e+000
 5.8232943902e-002	 1.3049513350e+000	-1.9727598109e+000
 4.6508823391e-002	 1.3054217678e+000	-1.9686210256e+000
 3.4822263913e-002	 1.3057857682e+000	-1.9621218105e+000
 2.3174484271e-002	 1.3060444119e+000	-1.9534931431e+000
 1.1566675336e-002	 1.3061987883e+000	-1.9429714229e+000
 0.0000000000e+000	 1.3062500000e+000	-1.9307980706e+000
 1.1793394972e-001	 1.3071908176e+000	-1.9256595901e+000
 1.0598437475e-001	 1.3082138825e+000	-1.9315532992e+000
 9.4065999634e-002	 1.3091248366e+000	-1.9344875990e+000
 8.2180187841e-002	 1.3099246798e+000	-1.9346540496e+000
 7.0328275335e-002	 1.3106144298e+000	-1.9322514951e+000
 5.8511570427e-002	 1.3111951213e+000	-1.9274856903e+000
 4.6731353646e-002	 1.3116678050e+000	-1.9205689212e+000
 3.4988877616e-002	 1.3120335470e+000	-1.9117196199e+000
 2.3285366970e-002	 1.3122934282e+000	-1.9011619768e+000
 1.1622018280e-002	 1.3124485433e+000	-1.8891255476e+000
 0.0000000000e+000	 1.3125000000e+000	-1.8758448595e+000
 1.3125000000e+000	 0.0000000000e+000	 3.5433000196e+000
 1.3124485433e+000	 1.1622018280e-002	 3.5610907723e+000
 1.3122934282e+000	 2.3285366970e-002	 3.5743277318e+000
 1.3120335470e+000	 3.4988877616e-002	 3.5827036732e+000
 1.3116678050e+000	 4.6731353646e-002	 3.5859216435e+000
 1.3111951213e+000	 5.8511570427e-002	 3.5836955829e+000
 1.3106144298e+000	 7.0328275335e-002	 3.5757509390e+000
 1.3099246798e+000	 8.2180187841e-002	 3.5618252737e+000
 1.3091248366e+000	 9.4065999634e-002	 3.5416688603e+000
 1.3082138825e+000	 1.0598437475e-001	 3.5150452698e+000
 1.3071908176e+000	 1.1793394972e-001	 3.4817319441e+000
 1.3187500000e+000	 0.0000000000e+000	 3.5469924779e+000
 1.3186982982e+000	 1.1677361224e-002	 3.5642240027e+000
 1.3185424445e+000	 2.3396249670e-002	 3.5768614557e+000
 1.3182813258e+000	 3.5155491318e-002	 3.5845963270e+000
 1.3179138421e+000	 4.6953883901e-002	 3.5871305840e+000
 1.3174389076e+000	 5.8790196953e-002	 3.5841772993e+000
 1.3168554509e+000	 7.0663171883e-002	 3.5754612730e+000
 1.3161624164e+000	 8.2571522069e-002	 3.5607196467e+000
 1.3153587644e+000	 9.4513932965e-002	 3.5397025070e+000
 1.3144434724e+000	 1.0648906225e-001	 3.5121734789e+000
 1.3134155357e+000	 1.1849553996e-001	 3.4779103048e+000
 1.3250000000e+000	 0.0000000000e+000	 3.5521006482e+000
 1.3249480532e+000	 1.1732704168e-002	 3.5688177113e+000
 1.3247914608e+000	 2.3507132370e-002	 3.5808982752e+000
 1.3245291046e+000	 3.5322105021e-002	 3.5880325149e+000
 1.3241598793e+000	 4.7176414156e-002	 3.5899212901e+000
 1.3236826939e+000	 5.9068823478e-002	 3.5862767810e+000
 1.3230964720e+000	 7.0998068432e-002	 3.5768231181e+000
 1.3224001529e+000	 8.2962856296e-002	 3.5612970028e+000
 1.3215926922e+000	 9.4961866296e-002	 3.5394483189e+000
 1.3206730623e+000	 1.0699374974e-001	 3.5110407317e+000
 1.3196402539e+000	 1.1905713019e-001	 3.4758522743e+000
 1.3312500000e+000	 0.0000000000e+000	 3.5585993667e+000
 1.3311978082e+000	 1.1788047112e-002	 3.5748464127e+000
 1.3310404772e+000	 2.3618015070e-002	 3.5864123657e+000
 1.3307768834e+000	 3.5488718724e-002	 3.5929860553e+000
 1.3304059165e+000	 4.7398944411e-002	 3.5942672058e+000
 1.3299264802e+000	 5.9347450004e-002	 3.5899670801e+000
 1.3293374931e+000	 7.1332964981e-002	 3.5798091164e+000
 1.3286378895e+000	 8.3354190523e-002	 3.5635295571e+000
 1.3278266199e+000	 9.5409799627e-002	 3.5408780665e+000
 1.3269026522e+000	 1.0749843724e-001	 3.5116183370e+000
 1.3258649721e+000	 1.1961872043e-001	 3.4755286818e+000
 1.3375000000e+000	 0.0000000000e+000	 3.5664639400e+000
 1.3374475631e+000	 1.1843390056e-002	 3.5822850952e+000
 1.3372894935e+000	 2.3728897769e-002	 3.5933783799e+000
 1.3370246622e+000	 3.5655332427e-002	 3.5994312475e+000
 1.3366519536e+000	 4.7621474667e-002	 3.6001422594e+000
 1.3361702665e+000	 5.9626076529e-002	 3.5952217358e+000
 1.3355785142e+000	 7.1667861530e-002	 3.5843924011e+000
 1.3348756261e+000	 8.3745524751e-002	 3.5673900190e+000
 1.3340605477e+000	 9.5857732958e-002	 3.5439640178e+000
 1.3331322421e+000	 1.0800312474e-001	 3.5138781038e+000
 1.3320896903e+000	 1.2018031067e-001	 3.4769108606e+000
 1.3437500000e+000	 0.0000000000e+000	 3.5756701340e+000
 1.3436973181e+000	 1.1898733000e-002	 3.5911092102e+000
 1.3435385098e+000	 2.3839780469e-002	 3.6017714364e+000
 1.3432724410e+000	 3.5821946129e-002	 3.6073428602e+000
 1.3428979908e+000	 4.7844004922e-002	 3.6075208517e+000
 1.3424140528e+000	 5.9904703055e-002	 3.6020147640e+000
 1.3418195353e+000	 7.2002758079e-002	 3.5905465848e+000
 1.3411133626e+000	 8.4136858978e-002	 3.5728515802e+000
 1.3402944755e+000	 9.6305666289e-002	 3.5486789264e+000
 1.3393618321e+000	 1.0850781224e-001	 3.5177923305e+000
 1.3383144085e+000	 1.2074190090e-001	 3.4799706361e+000
 1.3500000000e+000	 0.0000000000e+000	 3.5861941634e+000
 1.3499470731e+000	 1.1954075944e-002	 3.6012946608e+000
 1.3497875261e+000	 2.3950663169e-002	 3.6115671096e+000
 1.3495202198e+000	 3.5988559832e-002	 3.6166961206e+000
 1.3491440280e+000	 4.8066535177e-002	 3.6163778456e+000
 1.3486578391e+000	 6.0183329580e-002	 3.6103206450e+000
 1.3480605564e+000	 7.2337654627e-002	 3.5982457482e+000
 1.3473510992e+000	 8.4528193205e-002	 3.5798879040e+000
 1.3465284033e+000	 9.6753599620e-002	 3.5549960207e+000
 1.3455914220e+000	 1.0901249974e-001	 3.5233337928e+000
 1.3445391266e+000	 1.2130349114e-001	 3.4846803143e+000
 1.3562500000e+000	 0.0000000000e+000	 3.5980126813e+000
 1.3561968280e+000	 1.2009418889e-002	 3.6128177920e+000
 1.3560365425e+000	 2.4061545869e-002	 3.6227414185e+000
 1.3557679986e+000	 3.6155173535e-002	 3.6274667043e+000
 1.3553900651e+000	 4.8289065432e-002	 3.6266885552e+000
 1.3549016253e+000	 6.0461956106e-002	 3.6201143140e+000
 1.3543015775e+000	 7.2672551176e-002	 3.6074644296e+000
 1.3535888358e+000	 8.4919527432e-002	 3.5884731145e+000
 1.3527623311e+000	 9.7201532950e-002	 3.5628889926e+000
 1.3518210119e+000	 1.0951718723e-001	 3.5304757332e+000
 1.3507638448e+000	 1.2186508137e-001	 3.4910126709e+000
 1.3625000000e+000	 0.0000000000e+000	 3.6111027694e+000
 1.3624465830e+000	 1.2064761833e-002	 3.6256553804e+000
 1.3622855588e+000	 2.4172428568e-002	 3.6352708167e+000
 1.3620157774e+000	 3.6321787238e-002	 3.6396307246e+000
 1.3616361023e+000	 4.8511595687e-002	 3.6384287354e+000
 1.3611454116e+000	 6.0740582631e-002	 3.6313711500e+000
 1.3605425986e+000	 7.3007447725e-002	 3.6181776142e+000
 1.3598265724e+000	 8.5310861660e-002	 3.5985817854e+000
 1.3589962589e+000	 9.7649466281e-002	 3.5723319870e+000
 1.3580506018e+000	 1.1002187473e-001	 3.5391918503e+000
 1.3569885630e+000	 1.2242667161e-001	 3.4989409405e+000
 1.3687500000e+000	 0.0000000000e+000	 3.6254419277e+000
 1.3686963380e+000	 1.2120104777e-002	 3.6397846240e+000
 1.3685345751e+000	 2.4283311268e-002	 3.6491321828e+000
 1.3682635562e+000	 3.6488400940e-002	 3.6531647223e+000
 1.3678821395e+000	 4.8734125943e-002	 3.6515745721e+000
 1.3673891979e+000	 6.1019209157e-002	 3.6440669657e+000
 1.3667836197e+000	 7.3342344274e-002	 3.6303607242e+000
 1.3660643089e+000	 8.5702195887e-002	 3.6101889304e+000
 1.3652301867e+000	 9.8097399612e-002	 3.5832995916e+000
 1.3642801917e+000	 1.1052656223e-001	 3.5494562879e+000
 1.3632132812e+000	 1.2298826185e-001	 3.5084388060e+000
 1.3750000000e+000	 0.0000000000e+000	 3.6410080656e+000
 1.3749460929e+000	 1.2175447721e-002	 3.6551831332e+000
 1.3747835914e+000	 2.4394193968e-002	 3.6643028103e+000
 1.3745113349e+000	 3.6655014643e-002	 3.6680456566e+000
 1.3741281766e+000	 4.8956656198e-002	 3.6661026721e+000
 1.3736329842e+000	 6.1297835682e-002	 3.6581779979e+000
 1.3730246408e+000	 7.3677240822e-002	 3.6439896083e+000
 1.3723020455e+000	 8.6093530114e-002	 3.6232699928e+000
 1.3714641145e+000	 9.8545332943e-002	 3.5957668264e+000
 1.3705097817e+000	 1.1103124973e-001	 3.5612436255e+000
 1.3694379994e+000	 1.2354985208e-001	 3.5194803887e+000
 1.3071908176e+000	 1.1793394972e-001	 3.4817319441e+000
 1.3060546603e+000	 1.2991333379e-001	 3.4877448741e+000
 1.3048044485e+000	 1.4192110907e-001	 3.4904144170e+000
 1.3034392399e+000	 1.5395583079e-001	 3.4895418730e+000
 1.3019581132e+000	 1.6601602758e-001	 3.4849411244e+000
 1.3003601686e+000	 1.7810020169e-001	 3.4764390696e+000
 1.2986445288e+000	 1.9020682933e-001	 3.4638760374e+000
 1.2968103394e+000	 2.0233436097e-001	 3.4471061796e+000
 1.2948567703e+000	 2.1448122171e-001	 3.4259978419e+000
 1.2927830158e+000	 2.2664581165e-001	 3.4004339103e+000
 1.2905882961e+000	 2.3882650627e-001	 3.3703121326e+000
 1.3134155357e+000	 1.1849553996e-001	 3.4779103048e+000
 1.3122739682e+000	 1.3053196871e-001	 3.4819570578e+000
 1.3110178030e+000	 1.4259692387e-001	 3.4823434430e+000
 1.3096460934e+000	 1.5468895380e-001	 3.4788757171e+000
 1.3081579138e+000	 1.6680658009e-001	 3.4713732892e+000
 1.3065523599e+000	 1.7894829789e-001	 3.4596691607e+000
 1.3048285503e+000	 1.9111257613e-001	 3.4436103468e+000
 1.3029856267e+000	 2.0329785792e-001	 3.4230582745e+000
 1.3010227549e+000	 2.1550256086e-001	 3.3978891580e+000
 1.2989391255e+000	 2.2772507742e-001	 3.3679943492e+000
 1.2967339546e+000	 2.3996377535e-001	 3.3332806620e+000
 1.3196402539e+000	 1.1905713019e-001	 3.4758522743e+000
 1.3184932761e+000	 1.3115060363e-001	 3.4780745844e+000
 1.3172311575e+000	 1.4327273867e-001	 3.4763201871e+000
 1.3158529470e+000	 1.5542207680e-001	 3.4704002756e+000
 1.3143577143e+000	 1.6759713261e-001	 3.4601397665e+000
 1.3127445512e+000	 1.7979639409e-001	 3.4453777475e+000
 1.3110125719e+000	 1.9201832294e-001	 3.4259679043e+000
 1.3091609141e+000	 2.0426135488e-001	 3.4017789247e+000
 1.3071887395e+000	 2.1652390001e-001	 3.3726948791e+000
 1.3050952351e+000	 2.2880434318e-001	 3.3386155741e+000
 1.3028796132e+000	 2.4110104443e-001	 3.2994568807e+000
 1.3258649721e+000	 1.1961872043e-001	 3.4755286818e+000
 1.3247125840e+000	 1.3176923855e-001	 3.4760661041e+000
 1.3234445120e+000	 1.4394855348e-001	 3.4723110616e+000
 1.3220598005e+000	 1.5615519980e-001	 3.4640796643e+000
 1.3205575148e+000	 1.6838768512e-001	 3.4512023184e+000
 1.3189367425e+000	 1.8064449029e-001	 3.4335241808e+000
 1.3171965935e+000	 1.9292406975e-001	 3.4109055928e+000
 1.3153362014e+000	 2.0522485184e-001	 3.3832224898e+000
 1.3133547241e+000	 2.1754523916e-001	 3.3503667858e+000
 1.3112513447e+000	 2.2988360895e-001	 3.3122467326e+000
 1.3090252717e+000	 2.4223831351e-001	 3.2687872495e+000
 1.3320896903e+000	 1.2018031067e-001	 3.4769108606e+000
 1.3309318919e+000	 1.3238787348e-001	 3.4759008054e+000
 1.3296578666e+000	 1.4462436828e-001	 3.4702830525e+000
 1.3282666540e+000	 1.5688832280e-001	 3.4598786093e+000
 1.3267573154e+000	 1.6917823763e-001	 3.4445233537e+000
 1.3251289338e+000	 1.8149258648e-001	 3.4240684960e+000
 1.3233806150e+000	 1.9382981655e-001	 3.3983810184e+000
 1.3215114887e+000	 2.0618834879e-001	 3.3673440908e+000
 1.3195207088e+000	 2.1856657831e-001	 3.3308574603e+000
 1.3174074543e+000	 2.3096287472e-001	 3.2888378138e+000
 1.3151709303e+000	 2.4337558258e-001	 3.2412191116e+000
 1.3383144085e+000	 1.2074190090e-001	 3.4799706361e+000
 1.3371511998e+000	 1.3300650840e-001	 3.4775484030e+000
 1.3358712211e+000	 1.4530018309e-001	 3.4702037062e+000
 1.3344735075e+000	 1.5762144581e-001	 3.4577624321e+000
 1.3329571159e+000	 1.6996879014e-001	 3.4400659129e+000
 1.3313211250e+000	 1.8234068268e-001	 3.4169713966e+000
 1.3295646366e+000	 1.9473556336e-001	 3.3883524925e+000
 1.3276867761e+000	 2.0715184575e-001	 3.3540995928e+000
 1.3256866934e+000	 2.1958791746e-001	 3.3141202671e+000
 1.3235635639e+000	 2.3204214049e-001	 3.2683396289e+000
 1.3213165888e+000	 2.4451285166e-001	 3.2167006725e+000
 1.3445391266e+000	 1.2130349114e-001	 3.4846803143e+000
 1.3433705078e+000	 1.3362514332e-001	 3.4809791250e+000
 1.3420845756e+000	 1.4597599789e-001	 3.4720411169e+000
 1.3406803611e+000	 1.5835456881e-001	 3.4576970364e+000
 1.3391569165e+000	 1.7075934265e-001	 3.4377936538e+000
 1.3375133163e+000	 1.8318877888e-001	 3.4121942393e+000
 1.3357486582e+000	 1.9564131016e-001	 3.3807790163e+000
 1.3338620634e+000	 2.0811534270e-001	 3.3434455875e+000
 1.3318526780e+000	 2.2060925661e-001	 3.3001093354e+000
 1.3297196735e+000	 2.3312140626e-001	 3.2507037920e+000
 1.3274622474e+000	 2.4565012074e-001	 3.1951809797e+000
 1.3507638448e+000	 1.2186508137e-001	 3.4910126709e+000
 1.3495898157e+000	 1.3424377824e-001	 3.4861637018e+000
 1.3482979301e+000	 1.4665181269e-001	 3.4757639133e+000
 1.3468872146e+000	 1.5908769181e-001	 3.4596488944e+000
 1.3453567170e+000	 1.7154989516e-001	 3.4376708367e+000
 1.3437055076e+000	 1.8403687508e-001	 3.4096990186e+000
 1.3419326797e+000	 1.9654705697e-001	 3.3756202643e+000
 1.3400373507e+000	 2.0907883966e-001	 3.3353393765e+000
 1.3380186626e+000	 2.2163059576e-001	 3.2887795411e+000
 1.3358757831e+000	 2.3420067203e-001	 3.2358827018e+000
 1.3336079059e+000	 2.4678738982e-001	 3.1766099034e+000
 1.3569885630e+000	 1.2242667161e-001	 3.4989409405e+000
 1.3558091236e+000	 1.3486241316e-001	 3.4930733540e+000
 1.3545112846e+000	 1.4732762750e-001	 3.4813412471e+000
 1.3530940681e+000	 1.5982081481e-001	 3.4635850338e+000
 1.3515565176e+000	 1.7234044767e-001	 3.4396623114e+000
 1.3498976989e+000	 1.8488497127e-001	 3.4094483523e+000
 1.3481167013e+000	 1.9745280377e-001	 3.3728365694e+000
 1.3462126381e+000	 2.1004233662e-001	 3.3297389550e+000
 1.3441846473e+000	 2.2265193491e-001	 3.2800864901e+000
 1.3420318927e+000	 2.3527993780e-001	 3.2238295234e+000
 1.3397535645e+000	 2.4792465889e-001	 3.1609381176e+000
 1.3632132812e+000	 1.2298826185e-001	 3.5084388060e+000
 1.3620284315e+000	 1.3548104808e-001	 3.5016797813e+000
 1.3607246392e+000	 1.4800344230e-001	 3.4887427805e+000
 1.3593009216e+000	 1.6055393782e-001	 3.4694730252e+000
 1.3577563181e+000	 1.7313100018e-001	 3.4437335031e+000
 1.3560898902e+000	 1.8573306747e-001	 3.4114054671e+000
 1.3543007229e+000	 1.9835855058e-001	 3.3723889074e+000
 1.3523879254e+000	 2.1100583357e-001	 3.3266029959e+000
 1.3503506319e+000	 2.2367327406e-001	 3.2739865012e+000
 1.3481880023e+000	 2.3635920357e-001	 3.2144981709e+000
 1.3458992230e+000	 2.4906192797e-001	 3.1481170820e+000
 1.3694379994e+000	 1.2354985208e-001	 3.5194803887e+000
 1.3682477394e+000	 1.3609968301e-001	 3.5119551521e+000
 1.3669379937e+000	 1.4867925710e-001	 3.4979386748e+000
 1.3655077752e+000	 1.6128706082e-001	 3.4772809695e+000
 1.3639561186e+000	 1.7392155269e-001	 3.4498503995e+000
 1.3622820814e+000	 1.8658116367e-001	 3.4155341851e+000
 1.3604847444e+000	 1.9926429738e-001	 3.3742388826e+000
 1.3585632127e+000	 2.1196933053e-001	 3.3258908347e+000
 1.3565166165e+000	 2.2469461321e-001	 3.2704365900e+000
 1.3543441119e+000	 2.3743846934e-001	 3.2078432903e+000
 1.3520448816e+000	 2.5019919705e-001	 3.1380990239e+000
 1.2905882961e+000	 2.3882650627e-001	 3.3703121326e+000
 1.2882718571e+000	 2.5102165691e-001	 3.3755947844e+000
 1.2858329722e+000	 2.6322959115e-001	 3.3701083388e+000
 1.2832709423e+000	 2.7544861332e-001	 3.3538185725e+000
 1.2805850971e+000	 2.8767700503e-001	 3.3267128490e+000
 1.2777747951e+000	 2.9991302564e-001	 3.2888003712e+000
 1.2748394253e+000	 3.1215491287e-001	 3.2401123974e+000
 1.2717784072e+000	 3.2440088334e-001	 3.1807024160e+000
 1.2685911915e+000	 3.3664913319e-001	 3.1106462798e+000
 1.2652772614e+000	 3.4889783870e-001	 3.0300422976e+000
 1.2618361326e+000	 3.6114515698e-001	 2.9390112829e+000
 1.2967339546e+000	 2.3996377535e-001	 3.3332806620e+000
 1.2944064850e+000	 2.5221699813e-001	 3.3352965223e+000
 1.2919559863e+000	 2.6448306539e-001	 3.3270977061e+000
 1.2893817563e+000	 2.7676027338e-001	 3.3086528407e+000
 1.2866831213e+000	 2.8904689553e-001	 3.2799519176e+000
 1.2838594370e+000	 3.0134118291e-001	 3.2410065369e+000
 1.2809100893e+000	 3.1364136484e-001	 3.1918501142e+000
 1.2778344948e+000	 3.2594564945e-001	 3.1325380462e+000
 1.2746321019e+000	 3.3825222430e-001	 3.0631478363e+000
 1.2713023912e+000	 3.5055925699e-001	 2.9837791767e+000
 1.2678448761e+000	 3.6286489582e-001	 2.8945539874e+000
 1.3028796132e+000	 2.4110104443e-001	 3.2994568807e+000
 1.3005411129e+000	 2.5341233936e-001	 3.2981022586e+000
 1.2980790005e+000	 2.6573653963e-001	 3.2870796566e+000
 1.2954925704e+000	 2.7807193345e-001	 3.2663605857e+000
 1.2927811456e+000	 2.9041678603e-001	 3.2359377056e+000
 1.2899440789e+000	 3.0276934017e-001	 3.1958250611e+000
 1.2869807532e+000	 3.1512781680e-001	 3.1460582792e+000
 1.2838905825e+000	 3.2749041557e-001	 3.0866947268e+000
 1.2806730124e+000	 3.3985531541e-001	 3.0178136264e+000
 1.2773275210e+000	 3.5222067527e-001	 2.9395161294e+000
 1.2738536196e+000	 3.6458463467e-001	 2.8519253459e+000
 1.3090252717e+000	 2.4223831351e-001	 3.2687872495e+000
 1.3066757408e+000	 2.5460768058e-001	 3.2639592511e+000
 1.3042020147e+000	 2.6699001388e-001	 3.2500023092e+000
 1.3016033844e+000	 2.7938359351e-001	 3.2268908522e+000
 1.2988791699e+000	 2.9178667653e-001	 3.1946202488e+000
 1.2960287208e+000	 3.0419749744e-001	 3.1532070357e+000
 1.2930514171e+000	 3.1661426877e-001	 3.1026891066e+000
 1.2899466701e+000	 3.2903518168e-001	 3.0431258600e+000
 1.2867139228e+000	 3.4145840653e-001	 2.9745983068e+000
 1.2833526508e+000	 3.5388209355e-001	 2.8972091339e+000
 1.2798623631e+000	 3.6630437351e-001	 2.8110827249e+000
 1.3151709303e+000	 2.4337558258e-001	 3.2412191116e+000
 1.3128103687e+000	 2.5580302181e-001	 3.2328156158e+000
 1.3103250288e+000	 2.6824348812e-001	 3.2158146154e+000
 1.3077141984e+000	 2.8069525358e-001	 3.1901934901e+000
 1.3049771942e+000	 2.9315656703e-001	 3.1559503587e+000
 1.3021133627e+000	 3.0562565470e-001	 3.1131042981e+000
 1.2991220811e+000	 3.1810072074e-001	 3.0616955235e+000
 1.2960027578e+000	 3.3057994779e-001	 3.0017855276e+000
 1.2927548332e+000	 3.4306149764e-001	 2.9334571790e+000
 1.2893777806e+000	 3.5554351183e-001	 2.8568147766e+000
 1.2858711066e+000	 3.6802411235e-001	 2.7719840611e+000
 1.3213165888e+000	 2.4451285166e-001	 3.2167006725e+000
 1.3189449966e+000	 2.5699836303e-001	 3.2046203069e+000
 1.3164480430e+000	 2.6949696237e-001	 3.1844663392e+000
 1.3138250124e+000	 2.8200691364e-001	 3.1562191351e+000
 1.3110752184e+000	 2.9452645753e-001	 3.1198796047e+000
 1.3081980045e+000	 3.0705381197e-001	 3.0754694135e+000
 1.3051927450e+000	 3.1958717271e-001	 3.0230311540e+000
 1.3020588454e+000	 3.3212471390e-001	 2.9626284755e+000
 1.2987957437e+000	 3.4466458875e-001	 2.8943461741e+000
 1.2954029105e+000	 3.5720493011e-001	 2.8182902376e+000
 1.2918798501e+000	 3.6974385120e-001	 2.7345878478e+000
 1.3274622474e+000	 2.4565012074e-001	 3.1951809797e+000
 1.3250796245e+000	 2.5819370425e-001	 3.1793230975e+000
 1.3225710571e+000	 2.7075043661e-001	 3.1559080391e+000
 1.3199358264e+000	 2.8331857370e-001	 3.1249191908e+000
 1.3171732427e+000	 2.9589634803e-001	 3.0863602962e+000
 1.3142826464e+000	 3.0848196923e-001	 3.0402556584e+000
 1.3112634089e+000	 3.2107362467e-001	 2.9866503026e+000
 1.3081149331e+000	 3.3366948001e-001	 2.9256100982e+000
 1.3048366541e+000	 3.4626767986e-001	 2.8572218385e+000
 1.3014280403e+000	 3.5886634839e-001	 2.7815932775e+000
 1.2978885936e+000	 3.7146359004e-001	 2.6988531223e+000
 1.3336079059e+000	 2.4678738982e-001	 3.1766099034e+000
 1.3312142523e+000	 2.5938904548e-001	 3.1568745607e+000
 1.3286940713e+000	 2.7200391085e-001	 3.1300910491e+000
 1.3260466404e+000	 2.8463023377e-001	 3.0962458111e+000
 1.3232712670e+000	 2.9726623853e-001	 3.0553454661e+000
 1.3203672883e+000	 3.0991012650e-001	 3.0074170038e+000
 1.3173340729e+000	 3.2256007664e-001	 2.9525079389e+000
 1.3141710207e+000	 3.3521424613e-001	 2.8906864236e+000
 1.3108775646e+000	 3.4787077097e-001	 2.8220413194e+000
 1.3074531701e+000	 3.6052776667e-001	 2.7466822236e+000
 1.3038973370e+000	 3.7318332888e-001	 2.6647394535e+000
 1.3397535645e+000	 2.4792465889e-001	 3.1609381176e+000
 1.3373488802e+000	 2.6058438670e-001	 3.1372260510e+000
 1.3348170854e+000	 2.7325738510e-001	 3.1069674612e+000
 1.3321574544e+000	 2.8594189383e-001	 3.0701518829e+000
 1.3293692912e+000	 2.9863612903e-001	 3.0267888537e+000
 1.3264519302e+000	 3.1133828377e-001	 2.9769080998e+000
 1.3234047368e+000	 3.2404652861e-001	 2.9205596819e+000
 1.3202271084e+000	 3.3675901224e-001	 2.8578140991e+000
 1.3169184750e+000	 3.4947386208e-001	 2.7887623512e+000
 1.3134782999e+000	 3.6218918495e-001	 2.7135159572e+000
 1.3099060805e+000	 3.7490306772e-001	 2.6322069291e+000
 1.3458992230e+000	 2.4906192797e-001	 3.1481170820e+000
 1.3434835081e+000	 2.6177972792e-001	 3.1203296870e+000
 1.3409400996e+000	 2.7451085934e-001	 3.0864901083e+000
 1.3382682684e+000	 2.8725355389e-001	 3.0465910092e+000
 1.3354673155e+000	 3.0000601953e-001	 3.0006448887e+000
 1.3325365721e+000	 3.1276644103e-001	 2.9486842597e+000
 1.3294754007e+000	 3.2553298057e-001	 2.8907617857e+000
 1.3262831960e+000	 3.3830377835e-001	 2.8269503767e+000
 1.3229593854e+000	 3.5107695319e-001	 2.7573432423e+000
 1.3195034297e+000	 3.6385060323e-001	 2.6820539008e+000
 1.3159148240e+000	 3.7662280657e-001	 2.6012161444e+000
 1.3520448816e+000	 2.5019919705e-001	 3.1380990239e+000
 1.3496181360e+000	 2.6297506915e-001	 3.1061383333e+000
 1.3470631137e+000	 2.7576433358e-001	 3.0686125470e+000
 1.3443790825e+000	 2.8856521396e-001	 3.0255174931e+000
 1.3415653398e+000	 3.0137591003e-001	 2.9768686758e+000
 1.3386212140e+000	 3.1419459830e-001	 2.9227014450e+000
 1.3355460646e+000	 3.2701943254e-001	 2.8630711246e+000
 1.3323392837e+000	 3.3984854446e-001	 2.7980530999e+000
 1.3290002958e+000	 3.5268004430e-001	 2.7277428615e+000
 1.3255285595e+000	 3.6551202150e-001	 2.6522560058e+000
 1.3219235675e+000	 3.7834254541e-001	 2.5717281905e+000
 1.2618361326e+000	 3.6114515698e-001	 2.9390112829e+000
 1.2582673545e+000	 3.7338922657e-001	 2.8461890482e+000
 1.2545705105e+000	 3.8562816825e-001	 2.7229145913e+000
 1.2507452188e+000	 3.9786008567e-001	 2.5696228294e+000
 1.2467911328e+000	 4.1008306616e-001	 2.5763509204e+000
 1.2427079422e+000	 4.2229518151e-001	 2.6037166797e+000
 1.2384953731e+000	 4.3449448872e-001	 2.6074830048e+000
 1.2341531888e+000	 4.4667903086e-001	 2.5876184397e+000
 1.2296811901e+000	 4.5884683790e-001	 2.5441027588e+000
 1.2250792163e+000	 4.7099592759e-001	 2.4769273791e+000
 1.2203471451e+000	 4.8312430631e-001	 2.3860957811e+000
 1.2678448761e+000	 3.6286489582e-001	 2.8945539874e+000
 1.2642591038e+000	 3.7516727051e-001	 2.8113331767e+000
 1.2605446558e+000	 3.8746449286e-001	 2.7009478826e+000
 1.2567011484e+000	 3.9975465750e-001	 2.5638009434e+000
 1.2527282334e+000	 4.1203584267e-001	 2.4003359195e+000
 1.2486255991e+000	 4.2430611095e-001	 2.2916815999e+000
 1.2443929701e+000	 4.3656351010e-001	 2.3236098762e+000
 1.2400301087e+000	 4.4880607386e-001	 2.3351814778e+000
 1.2355368148e+000	 4.6103182285e-001	 2.3263149239e+000
 1.2309129268e+000	 4.7323876534e-001	 2.2969365411e+000
 1.2261583220e+000	 4.8542489825e-001	 2.2469808957e+000
 1.2738536196e+000	 3.6458463467e-001	 2.8519253459e+000
 1.2702508532e+000	 3.7694531445e-001	 2.7772874757e+000
 1.2665188011e+000	 3.8930081747e-001	 2.6787381096e+000
 1.2626570780e+000	 4.0164922934e-001	 2.5566482878e+000
 1.2586653341e+000	 4.1398861918e-001	 2.4114266089e+000
 1.2545432560e+000	 4.2631704039e-001	 2.2435190833e+000
 1.2502905672e+000	 4.3863253147e-001	 2.0534089188e+000
 1.2459070287e+000	 4.5093311687e-001	 2.0783691483e+000
 1.2413924395e+000	 4.6321680779e-001	 2.1029911865e+000
 1.2367466374e+000	 4.7548160310e-001	 2.1102199198e+000
 1.2319694989e+000	 4.8772549019e-001	 2.0999212820e+000
 1.2798623631e+000	 3.6630437351e-001	 2.8110827249e+000
 1.2762426025e+000	 3.7872335839e-001	 2.7440225967e+000
 1.2724929464e+000	 3.9113714208e-001	 2.6562696666e+000
 1.2686130076e+000	 4.0354380118e-001	 2.5481634545e+000
 1.2646024347e+000	 4.1594139569e-001	 2.4200779011e+000
 1.2604609128e+000	 4.2832796983e-001	 2.2724211998e+000
 1.2561881642e+000	 4.4070155285e-001	 2.1056355653e+000
 1.2517839486e+000	 4.5306015988e-001	 1.9201969381e+000
 1.2472480643e+000	 4.6540179274e-001	 1.8742284764e+000
 1.2425803479e+000	 4.7772444085e-001	 1.9168924498e+000
 1.2377806758e+000	 4.9002608213e-001	 1.9450503313e+000
 1.2858711066e+000	 3.6802411235e-001	 2.7719840611e+000
 1.2822343518e+000	 3.8050140232e-001	 2.7115095010e+000
 1.2784670917e+000	 3.9297346670e-001	 2.6335269877e+000
 1.2745689372e+000	 4.0543837302e-001	 2.5383447972e+000
 1.2705395353e+000	 4.1789417219e-001	 2.4263025130e+000
 1.2663785697e+000	 4.3033889926e-001	 2.2977708378e+000
 1.2620857612e+000	 4.4277057423e-001	 2.1531513452e+000
 1.2576608686e+000	 4.5518720288e-001	 1.9928761696e+000
 1.2531036890e+000	 4.6758677768e-001	 1.8174076359e+000
 1.2484140585e+000	 4.7996727860e-001	 1.7170669783e+000
 1.2435918526e+000	 4.9232667407e-001	 1.7824990105e+000
 1.2918798501e+000	 3.6974385120e-001	 2.7345878478e+000
 1.2882261011e+000	 3.8227944626e-001	 2.6797194519e+000
 1.2844412370e+000	 3.9480979131e-001	 2.6104945462e+000
 1.2805248668e+000	 4.0733294486e-001	 2.5271904366e+000
 1.2764766360e+000	 4.1984694870e-001	 2.4301126483e+000
 1.2722962266e+000	 4.3234982870e-001	 2.3195947170e+000
 1.2679833582e+000	 4.4483959560e-001	 2.1959979232e+000
 1.2635377885e+000	 4.5731424589e-001	 2.0597109691e+000
 1.2589593137e+000	 4.6977176262e-001	 1.9111495969e+000
 1.2542477690e+000	 4.8221011635e-001	 1.7507561502e+000
 1.2494030295e+000	 4.9462726600e-001	 1.6123959181e+000
 1.2978885936e+000	 3.7146359004e-001	 2.6988531223e+000
 1.2942178504e+000	 3.8405749020e-001	 2.6486240078e+000
 1.2904153822e+000	 3.9664611592e-001	 2.5871568533e+000
 1.2864807964e+000	 4.0922751669e-001	 2.5146982663e+000
 1.2824137366e+000	 4.2179972520e-001	 2.4315200098e+000
 1.2782138834e+000	 4.3436075813e-001	 2.3379187736e+000
 1.2738809552e+000	 4.4690861698e-001	 2.2342158908e+000
 1.2694147085e+000	 4.5944128889e-001	 2.1207570011e+000
 1.2648149384e+000	 4.7195674757e-001	 1.9979116593e+000
 1.2600814796e+000	 4.8445295410e-001	 1.8660728893e+000
 1.2552142064e+000	 4.9692785794e-001	 1.7256566840e+000
 1.3038973370e+000	 3.7318332888e-001	 2.6647394535e+000
 1.3002095997e+000	 3.8583553413e-001	 2.6181950155e+000
 1.2963895275e+000	 3.9848244053e-001	 2.5634984572e+000
 1.2924367260e+000	 4.1112208853e-001	 2.5008659573e+000
 1.2883508372e+000	 4.2375250171e-001	 2.4305358107e+000
 1.2841315403e+000	 4.3637168757e-001	 2.3527681790e+000
 1.2797785522e+000	 4.4897763835e-001	 2.2678447910e+000
 1.2752916284e+000	 4.6156833189e-001	 2.1760685909e+000
 1.2706705631e+000	 4.7414173251e-001	 2.0777633372e+000
 1.2659151902e+000	 4.8669579185e-001	 1.9732731496e+000
 1.2610253833e+000	 4.9922844987e-001	 1.8629620060e+000
 1.3099060805e+000	 3.7490306772e-001	 2.6322069291e+000
 1.3062013490e+000	 3.8761357806e-001	 2.5884046036e+000
 1.3023636728e+000	 4.0031876514e-001	 2.5395039428e+000
 1.2983926557e+000	 4.1301666036e-001	 2.4856909640e+000
 1.2942879379e+000	 4.2570527821e-001	 2.4271707856e+000
 1.2900491972e+000	 4.3838261700e-001	 2.3641673572e+000
 1.2856761492e+000	 4.5104665972e-001	 2.2969231425e+000
 1.2811685483e+000	 4.6369537490e-001	 2.2256987544e+000
 1.2765261878e+000	 4.7632671745e-001	 2.1507725430e+000
 1.2717489007e+000	 4.8893862960e-001	 2.0724401358e+000
 1.2668365602e+000	 5.0152904180e-001	 1.9910139314e+000
 1.3159148240e+000	 3.7662280657e-001	 2.6012161444e+000
 1.3121930983e+000	 3.8939162200e-001	 2.5592251761e+000
 1.3083378181e+000	 4.0215508974e-001	 2.5151579303e+000
 1.3043485853e+000	 4.1491123220e-001	 2.4691705285e+000
 1.3002250385e+000	 4.2765805471e-001	 2.4214352020e+000
 1.2959668540e+000	 4.4039354643e-001	 2.3721400015e+000
 1.2915737463e+000	 4.5311568109e-001	 2.3214884629e+000
 1.2870454683e+000	 4.6582241790e-001	 2.2696992285e+000
 1.2823818125e+000	 4.7851170239e-001	 2.2170056248e+000
 1.2775826113e+000	 4.9118146735e-001	 2.1636551952e+000
 1.2726477371e+000	 5.0382963374e-001	 2.1099091908e+000
 1.3219235675e+000	 3.7834254541e-001	 2.5717281905e+000
 1.3181848476e+000	 3.9116966593e-001	 2.5306294059e+000
 1.3143119634e+000	 4.0399141435e-001	 2.4904450744e+000
 1.3103045149e+000	 4.1680580403e-001	 2.4513016855e+000
 1.3061621391e+000	 4.2961083122e-001	 2.4133388703e+000
 1.3018845109e+000	 4.4240447586e-001	 2.3767090915e+000
 1.2974713433e+000	 4.5518470246e-001	 2.3415772916e+000
 1.2929223882e+000	 4.6794946090e-001	 2.3081205003e+000
 1.2882374373e+000	 4.8069668732e-001	 2.2765274014e+000
 1.2834163218e+000	 4.9342430510e-001	 2.2469978595e+000
 1.2784589139e+000	 5.0613022567e-001	 2.2197424062e+000
 1.2203471451e+000	 4.8312430631e-001	 2.3860957811e+000
 1.2154848937e+000	 4.9522997003e-001	 2.2591476064e+000
 1.2104924186e+000	 5.0731090517e-001	 2.1394784677e+000
 1.2053697166e+000	 5.1936508960e-001	 2.0266056438e+000
 1.2001168249e+000	 5.3139049357e-001	 1.9200242382e+000
 1.1947338214e+000	 5.4338508071e-001	 1.8192077299e+000
 1.1892208255e+000	 5.5534680900e-001	 1.7236085778e+000
 1.1835779977e+000	 5.6727363182e-001	 1.6326588748e+000
 1.1778055406e+000	 5.7916349893e-001	 1.5457710537e+000
 1.1719036988e+000	 5.9101435755e-001	 1.4623386420e+000
 1.1658727590e+000	 6.0282415339e-001	 1.3817370660e+000
 1.2261583220e+000	 4.8542489825e-001	 2.2469808957e+000
 1.2212729170e+000	 4.9758820799e-001	 2.1505817555e+000
 1.2162566682e+000	 5.0972667139e-001	 2.0568466299e+000
 1.2111095724e+000	 5.2183825670e-001	 1.9653310431e+000
 1.2058316669e+000	 5.3392092450e-001	 1.8755729023e+000
 1.2004230301e+000	 5.4597262872e-001	 1.7870930660e+000
 1.1948837818e+000	 5.5799131762e-001	 1.6993959602e+000
 1.1892140834e+000	 5.6997493483e-001	 1.6119702388e+000
 1.1834141384e+000	 5.8192142036e-001	 1.5242894894e+000
 1.1774841926e+000	 5.9382871164e-001	 1.4358129833e+000
 1.1714245340e+000	 6.0569474460e-001	 1.3459864683e+000
 1.2319694989e+000	 4.8772549019e-001	 2.0999212820e+000
 1.2270609403e+000	 4.9994644594e-001	 2.0353281033e+000
 1.2220209178e+000	 5.1214243761e-001	 1.9688319177e+000
 1.2168494282e+000	 5.2431142379e-001	 1.9000261183e+000
 1.2115465089e+000	 5.3645135542e-001	 1.8284910046e+000
 1.2061122388e+000	 5.4856017673e-001	 1.7537943693e+000
 1.2005467381e+000	 5.6063582624e-001	 1.6754921253e+000
 1.1948501691e+000	 5.7267623785e-001	 1.5931289724e+000
 1.1890227362e+000	 5.8467934178e-001	 1.5062391044e+000
 1.1830646864e+000	 5.9664306572e-001	 1.4143469531e+000
 1.1769763090e+000	 6.0856533581e-001	 1.3169679708e+000
 1.2377806758e+000	 4.9002608213e-001	 1.9450503313e+000
 1.2328489636e+000	 5.0230468390e-001	 1.9135036679e+000
 1.2277851674e+000	 5.1455820383e-001	 1.8755343392e+000
 1.2225892840e+000	 5.2678459089e-001	 1.8307732342e+000
 1.2172613509e+000	 5.3898178635e-001	 1.7788426383e+000
 1.2118014474e+000	 5.5114772473e-001	 1.7193568367e+000
 1.2062096944e+000	 5.6328033486e-001	 1.6519227537e+000
 1.2004862548e+000	 5.7537754086e-001	 1.5761406259e+000
 1.1946313340e+000	 5.8743726321e-001	 1.4916047095e+000
 1.1886451802e+000	 5.9945741981e-001	 1.3979040202e+000
 1.1825280841e+000	 6.1143592702e-001	 1.2946231038e+000
 1.2435918526e+000	 4.9232667407e-001	 1.7824990105e+000
 1.2386369869e+000	 5.0466292185e-001	 1.7852233565e+000
 1.2335494170e+000	 5.1697397005e-001	 1.7770521177e+000
 1.2283291398e+000	 5.2925775799e-001	 1.7576533097e+000
 1.2229761929e+000	 5.4151221727e-001	 1.7266908003e+000
 1.2174906561e+000	 5.5373527274e-001	 1.6838249306e+000
 1.2118726507e+000	 5.6592484348e-001	 1.6287131655e+000
 1.2061223405e+000	 5.7807884387e-001	 1.5610107740e+000
 1.2002399318e+000	 5.9019518464e-001	 1.4803715373e+000
 1.1942256740e+000	 6.0227177389e-001	 1.3864484833e+000
 1.1880798591e+000	 6.1430651822e-001	 1.2788946477e+000
 1.2494030295e+000	 4.9462726600e-001	 1.6123959181e+000
 1.2444250102e+000	 5.0702115981e-001	 1.6506000147e+000
 1.2393136666e+000	 5.1938973626e-001	 1.6734817333e+000
 1.2340689955e+000	 5.3173092508e-001	 1.6807458501e+000
 1.2286910350e+000	 5.4404264820e-001	 1.6720974164e+000
 1.2231798648e+000	 5.5632282074e-001	 1.6472423959e+000
 1.2175356070e+000	 5.6856935209e-001	 1.6058883284e+000
 1.2117584262e+000	 5.8078014688e-001	 1.5477450161e+000
 1.2058485297e+000	 5.9295310606e-001	 1.4725252324e+000
 1.1998061678e+000	 6.0508612798e-001	 1.3799454527e+000
 1.1936316342e+000	 6.1717710943e-001	 1.2697266041e+000
 1.2552142064e+000	 4.9692785794e-001	 1.7256566840e+000
 1.2502130335e+000	 5.0937939776e-001	 1.5215000068e+000
 1.2450779163e+000	 5.2180550248e-001	 1.5649179634e+000
 1.2398088513e+000	 5.3420409218e-001	 1.6001289812e+000
 1.2344058770e+000	 5.4657307912e-001	 1.6151233663e+000
 1.2288690734e+000	 5.5891036875e-001	 1.6096522770e+000
 1.2231985633e+000	 5.7121386071e-001	 1.5834728663e+000
 1.2173945119e+000	 5.8348144989e-001	 1.5363489750e+000
 1.2114571275e+000	 5.9571102748e-001	 1.4680518420e+000
 1.2053866616e+000	 6.0790048206e-001	 1.3783608304e+000
 1.1991834092e+000	 6.2004770064e-001	 1.2670641671e+000
 1.2610253833e+000	 4.9922844987e-001	 1.8629620060e+000
 1.2560010568e+000	 5.1173763571e-001	 1.6927902191e+000
 1.2508421659e+000	 5.2422126869e-001	 1.4972281944e+000
 1.2455487071e+000	 5.3667725927e-001	 1.5158794800e+000
 1.2401207190e+000	 5.4910351004e-001	 1.5558285078e+000
 1.2345582821e+000	 5.6149791675e-001	 1.5710969336e+000
 1.2288615196e+000	 5.7385836932e-001	 1.5614910665e+000
 1.2230305976e+000	 5.8618275290e-001	 1.5268282966e+000
 1.2170657253e+000	 5.9846894891e-001	 1.4669378064e+000
 1.2109671554e+000	 6.1071483614e-001	 1.3816612926e+000
 1.2047351842e+000	 6.2291829184e-001	 1.2708536961e+000
 1.2668365602e+000	 5.0152904180e-001	 1.9910139314e+000
 1.2617890801e+000	 5.1409587366e-001	 1.8558806178e+000
 1.2566064155e+000	 5.2663703491e-001	 1.6909402472e+000
 1.2512885629e+000	 5.3915042636e-001	 1.4969556109e+000
 1.2458355610e+000	 5.5163394096e-001	 1.4942717000e+000
 1.2402474908e+000	 5.6408546475e-001	 1.5316180566e+000
 1.2345244759e+000	 5.7650287793e-001	 1.5399668883e+000
 1.2286666833e+000	 5.8888405590e-001	 1.5191886497e+000
 1.2226743231e+000	 6.0122687033e-001	 1.4691699502e+000
 1.2165476492e+000	 6.1352919023e-001	 1.3898142717e+000
 1.2102869593e+000	 6.2578888305e-001	 1.2863456276e+000
 1.2726477371e+000	 5.0382963374e-001	 2.1099091908e+000
 1.2675771034e+000	 5.1645411161e-001	 2.0108521554e+000
 1.2623706651e+000	 5.2905280112e-001	 1.8776125561e+000
 1.2570284187e+000	 5.4162359346e-001	 1.7110059226e+000
 1.2515504031e+000	 5.5416437188e-001	 1.5118956886e+000
 1.2459366995e+000	 5.6667301276e-001	 1.4912566831e+000
 1.2401874323e+000	 5.7914738655e-001	 1.5189239697e+000
 1.2343027690e+000	 5.9158535891e-001	 1.5134357250e+000
 1.2282829209e+000	 6.0398479175e-001	 1.4747354734e+000
 1.2221281430e+000	 6.1634354431e-001	 1.4027879391e+000
 1.2158387343e+000	 6.2865947425e-001	 1.3207417593e+000
 1.2784589139e+000	 5.0613022567e-001	 2.2197424062e+000
 1.2733651267e+000	 5.1881234956e-001	 2.1577839490e+000
 1.2681349147e+000	 5.3146856733e-001	 2.0573081568e+000
 1.2627682745e+000	 5.4409676055e-001	 1.9191831561e+000
 1.2572652451e+000	 5.5669480280e-001	 1.7443297841e+000
 1.2516259081e+000	 5.6926056076e-001	 1.5337207690e+000
 1.2458503886e+000	 5.8179189516e-001	 1.4983856352e+000
 1.2399388547e+000	 5.9428666192e-001	 1.5095752347e+000
 1.2338915187e+000	 6.0674271317e-001	 1.4836219429e+000
 1.2277086368e+000	 6.1915789839e-001	 1.4205511882e+000
 1.2213905094e+000	 6.3153006546e-001	 1.3591629913e+000
 1.1658727590e+000	 6.0282415339e-001	 1.3817370660e+000
 1.1597130505e+000	 6.1459083173e-001	 1.2660949419e+000
 1.1534249454e+000	 6.2631233847e-001	 1.1556143992e+000
 1.1470088583e+000	 6.3798662126e-001	 1.1331291704e+000
 1.1404652469e+000	 6.4961163054e-001	 1.0992002762e+000
 1.1337946118e+000	 6.6118532068e-001	 1.0541142201e+000
 1.1269974965e+000	 6.7270565107e-001	 9.9816805671e-001
 1.1200744875e+000	 6.8417058724e-001	 9.3166890829e-001
 1.1130262144e+000	 6.9557810199e-001	 8.5493346444e-001
 1.1058533497e+000	 7.0692617646e-001	 7.6828746502e-001
 1.0985566085e+000	 7.1821280132e-001	 6.7206516778e-001
 1.1714245340e+000	 6.0569474460e-001	 1.3459864683e+000
 1.1652354936e+000	 6.1751745474e-001	 1.2213228220e+000
 1.1589174451e+000	 6.2929477818e-001	 1.1303758811e+000
 1.1524708053e+000	 6.4102465279e-001	 1.0985981071e+000
 1.1458960338e+000	 6.5270501926e-001	 1.0574010528e+000
 1.1391936337e+000	 6.6433382220e-001	 1.0070621539e+000
 1.1323641512e+000	 6.7590901131e-001	 9.4786742651e-001
 1.1254081755e+000	 6.8742854242e-001	 8.8011097573e-001
 1.1183263393e+000	 6.9889037867e-001	 8.0409448775e-001
 1.1111193180e+000	 7.1029249159e-001	 7.2012670905e-001
 1.1037878304e+000	 7.2163286228e-001	 6.2852291254e-001
 1.1769763090e+000	 6.0856533581e-001	 1.3169679708e+000
 1.1707579367e+000	 6.2044407775e-001	 1.1830628988e+000
 1.1644099449e+000	 6.3227721789e-001	 1.1091054755e+000
 1.1579327522e+000	 6.4406268432e-001	 1.0676667296e+000
 1.1513268207e+000	 6.5579840797e-001	 1.0188139058e+000
 1.1445926557e+000	 6.6748232373e-001	 9.6281551706e-001
 1.1377308059e+000	 6.7911237155e-001	 8.9994669974e-001
 1.1307418636e+000	 6.9068649760e-001	 8.3048871235e-001
 1.1236264641e+000	 7.0220265534e-001	 7.5472842130e-001
 1.1163852863e+000	 7.1365880671e-001	 6.7295777568e-001
 1.1090190524e+000	 7.2505292324e-001	 5.8547327186e-001
 1.1825280841e+000	 6.1143592702e-001	 1.2946231038e+000
 1.1762803798e+000	 6.2337070076e-001	 1.1512614392e+000
 1.1699024446e+000	 6.3525965760e-001	 1.0917292347e+000
 1.1633946992e+000	 6.4710071585e-001	 1.0402654824e+000
 1.1567576076e+000	 6.5889179669e-001	 9.8337394676e-001
 1.1499916777e+000	 6.7063082525e-001	 9.2131436291e-001
 1.1430974607e+000	 6.8231573179e-001	 8.5435114464e-001
 1.1360755516e+000	 6.9394445277e-001	 7.8275287370e-001
 1.1289265889e+000	 7.0551493201e-001	 7.0679177883e-001
 1.1216512547e+000	 7.1702512184e-001	 6.2674320614e-001
 1.1142502743e+000	 7.2847298419e-001	 5.4288508205e-001
 1.1880798591e+000	 6.1430651822e-001	 1.2788946477e+000
 1.1818028229e+000	 6.2629732376e-001	 1.1363148198e+000
 1.1753949443e+000	 6.3824209730e-001	 1.0781742986e+000
 1.1688566461e+000	 6.5013874738e-001	 1.0163258083e+000
 1.1621883945e+000	 6.6198518540e-001	 9.5101719189e-001
 1.1553906996e+000	 6.7377932678e-001	 8.8249955037e-001
 1.1484641154e+000	 6.8551909204e-001	 8.1102673124e-001
 1.1414092396e+000	 6.9720240795e-001	 7.3685480810e-001
 1.1342267138e+000	 7.0882720869e-001	 6.6024155284e-001
 1.1269172230e+000	 7.2039143696e-001	 5.8144590152e-001
 1.1194814962e+000	 7.3189304515e-001	 5.0072741550e-001
 1.1936316342e+000	 6.1717710943e-001	 1.2697266041e+000
 1.1873252660e+000	 6.2922394677e-001	 1.1392055116e+000
 1.1808874441e+000	 6.4122453701e-001	 1.0683688695e+000
 1.1743185930e+000	 6.5317677891e-001	 9.9578012604e-001
 1.1676191814e+000	 6.6507857412e-001	 9.2168054131e-001
 1.1607897216e+000	 6.7692782830e-001	 8.4631272547e-001
 1.1538307702e+000	 6.8872245228e-001	 7.6992011500e-001
 1.1467429277e+000	 7.0046036312e-001	 6.9274644283e-001
 1.1395268386e+000	 7.1213948536e-001	 6.1503520347e-001
 1.1321831913e+000	 7.2375775209e-001	 5.3702911441e-001
 1.1247127182e+000	 7.3531310611e-001	 4.5896957517e-001
 1.1991834092e+000	 6.2004770064e-001	 1.2670641671e+000
 1.1928477091e+000	 6.3215056978e-001	 1.1461080920e+000
 1.1863799438e+000	 6.4420697671e-001	 1.0622421875e+000
 1.1797805400e+000	 6.5621481043e-001	 9.7856180701e-001
 1.1730499683e+000	 6.6817196283e-001	 8.9530175837e-001
 1.1661887435e+000	 6.8007632983e-001	 8.1269630309e-001
 1.1591974249e+000	 6.9192581252e-001	 7.3097862100e-001
 1.1520766157e+000	 7.0371831830e-001	 6.5038027072e-001
 1.1448269634e+000	 7.1545176204e-001	 5.7113064766e-001
 1.1374491597e+000	 7.2712406721e-001	 4.9345644074e-001
 1.1299439401e+000	 7.3873316706e-001	 4.1758108927e-001
 1.2047351842e+000	 6.2291829184e-001	 1.2708536961e+000
 1.1983701522e+000	 6.3507719279e-001	 1.1569490225e+000
 1.1918724436e+000	 6.4718941642e-001	 1.0597245062e+000
 1.1852424869e+000	 6.5925284196e-001	 9.6460515370e-001
 1.1784807552e+000	 6.7126535155e-001	 8.7181944986e-001
 1.1715877655e+000	 6.8322483135e-001	 7.8159344921e-001
 1.1645640797e+000	 6.9512917276e-001	 6.9415022842e-001
 1.1574103037e+000	 7.0697627347e-001	 6.0970933714e-001
 1.1501270883e+000	 7.1876403871e-001	 5.2848624866e-001
 1.1427151280e+000	 7.3049038233e-001	 4.5069181191e-001
 1.1351751621e+000	 7.4215322802e-001	 3.7653170606e-001
 1.2102869593e+000	 6.2578888305e-001	 1.2863456276e+000
 1.2038925953e+000	 6.3800381579e-001	 1.1716558313e+000
 1.1973649433e+000	 6.5017185612e-001	 1.0607470701e+000
 1.1907044339e+000	 6.6229087349e-001	 9.5384537820e-001
 1.1839115421e+000	 6.7435874026e-001	 8.5117304661e-001
 1.1769867875e+000	 6.8637333288e-001	 7.5294806371e-001
 1.1699307344e+000	 6.9833253300e-001	 6.5938355566e-001
 1.1627439918e+000	 7.1023422865e-001	 5.7068722734e-001
 1.1554272131e+000	 7.2207631538e-001	 4.8706080575e-001
 1.1479810964e+000	 7.3385669746e-001	 4.0869948705e-001
 1.1404063840e+000	 7.4557328898e-001	 3.3579138880e-001
 1.2158387343e+000	 6.2865947425e-001	 1.3207417593e+000
 1.2094150384e+000	 6.4093043880e-001	 1.1901570890e+000
 1.2028574431e+000	 6.5315429583e-001	 1.0652420915e+000
 1.1961663808e+000	 6.6532890502e-001	 9.4621858147e-001
 1.1893423289e+000	 6.7745212897e-001	 8.3330278469e-001
 1.1823858094e+000	 6.8952183440e-001	 7.2670476362e-001
 1.1752973892e+000	 7.0153589324e-001	 6.2662784561e-001
 1.1680776798e+000	 7.1349218382e-001	 5.3326805407e-001
 1.1607273379e+000	 7.2538859206e-001	 4.4681354431e-001
 1.1532470647e+000	 7.3722301258e-001	 3.6744404559e-001
 1.1456376060e+000	 7.4899334993e-001	 2.9533031086e-001
 1.2213905094e+000	 6.3153006546e-001	 1.3591629913e+000
 1.2149374815e+000	 6.4385706180e-001	 1.2123823855e+000
 1.2083499428e+000	 6.5613673553e-001	 1.0731427287e+000
 1.2016283278e+000	 6.6836693654e-001	 9.4166173311e-001
 1.1947731158e+000	 6.8054551769e-001	 8.1814968712e-001
 1.1877848314e+000	 6.9267033593e-001	 7.0280886678e-001
 1.1806640439e+000	 7.0473925348e-001	 5.9583295158e-001
 1.1734113679e+000	 7.1675013899e-001	 4.9740644567e-001
 1.1660274628e+000	 7.2870086873e-001	 4.0770410613e-001
 1.1585130330e+000	 7.4058932770e-001	 3.2689037991e-001
 1.1508688279e+000	 7.5241341089e-001	 2.5511885091e-001
 1.0985566085e+000	 7.1821280132e-001	 6.7206516778e-001
 1.0911367486e+000	 7.2943597783e-001	 5.6109406628e-001
 1.0835945706e+000	 7.4059371899e-001	 4.5491100340e-001
 1.0759309169e+000	 7.5168405068e-001	 3.5377832373e-001
 1.0681466723e+000	 7.6270501271e-001	 2.5795172356e-001
 1.0602427633e+000	 7.7365465999e-001	 1.6767969497e-001
 1.0522201577e+000	 7.8453106362e-001	 8.3202979639e-002
 1.0440798645e+000	 7.9533231196e-001	 4.7540336875e-003
 1.0358229336e+000	 8.0605651175e-001	-6.7443494837e-002
 1.0274504550e+000	 8.1670178916e-001	-1.3317527460e-001
 1.0189635587e+000	 8.2726629090e-001	-1.9223678431e-001
 1.1037878304e+000	 7.2163286228e-001	 6.2852291254e-001
 1.0963326379e+000	 7.3290948248e-001	 5.2122753985e-001
 1.0887545447e+000	 7.4412035575e-001	 4.1804452857e-001
 1.0810543975e+000	 7.5526349854e-001	 3.1924040233e-001
 1.0732330850e+000	 7.6633694134e-001	 2.2507564793e-001
 1.0652915383e+000	 7.7733872981e-001	 1.3580415424e-001
 1.0572307298e+000	 7.8826692583e-001	 5.1672660139e-002
 1.0490516734e+000	 7.9911960869e-001	-2.7079787347e-002
 1.0407554238e+000	 8.0989487609e-001	-1.0022236301e-001
 1.0323430763e+000	 8.2059084531e-001	-1.6753298033e-001
 1.0238157661e+000	 8.3120565419e-001	-2.2879879368e-001
 1.1090190524e+000	 7.2505292324e-001	 5.8547327186e-001
 1.1015285272e+000	 7.3638298714e-001	 4.8185439361e-001
 1.0939145189e+000	 7.4764699251e-001	 3.8167939970e-001
 1.0861778780e+000	 7.5884294640e-001	 2.8521905231e-001
 1.0783194978e+000	 7.6996886998e-001	 1.9273868329e-001
 1.0703403134e+000	 7.8102279962e-001	 1.0449762788e-001
 1.0622413020e+000	 7.9200278804e-001	 2.0748666508e-002
 1.0540234823e+000	 8.0290690542e-001	-5.8262523749e-002
 1.0456879140e+000	 8.1373324044e-001	-1.3229790676e-001
 1.0372356975e+000	 8.2447990145e-001	-2.0112761248e-001
 1.0286679735e+000	 8.3514501748e-001	-2.6453044820e-001
 1.1142502743e+000	 7.2847298419e-001	 5.4288508205e-001
 1.1067244165e+000	 7.3985649180e-001	 4.4294273066e-001
 1.0990744930e+000	 7.5117362927e-001	 3.4578290001e-001
 1.0913013586e+000	 7.6242239426e-001	 2.5168065069e-001
 1.0834059105e+000	 7.7360079861e-001	 1.6090621456e-001
 1.0753890885e+000	 7.8470686943e-001	 7.3724423173e-002
 1.0672518742e+000	 7.9573865025e-001	-9.6058565665e-003
 1.0589952912e+000	 8.0669420214e-001	-8.8832277885e-002
 1.0506204041e+000	 8.1757160478e-001	-1.6370955936e-001
 1.0421283187e+000	 8.2836895759e-001	-2.3400001843e-001
 1.0335201810e+000	 8.3908438078e-001	-2.9947409181e-001
 1.1194814962e+000	 7.3189304515e-001	 5.0072741550e-001
 1.1119203058e+000	 7.4332999645e-001	 4.0446089786e-001
 1.1042344672e+000	 7.5470026602e-001	 3.1032256596e-001
 1.0964248391e+000	 7.6600184212e-001	 2.1859183892e-001
 1.0884923232e+000	 7.7723272724e-001	 1.2954390400e-001
 1.0804378635e+000	 7.8839093924e-001	 4.3449139479e-002
 1.0722624464e+000	 7.9947451246e-001	-3.9427455904e-002
 1.0639671001e+000	 8.1048149886e-001	-1.1882682545e-001
 1.0555528943e+000	 8.2140996912e-001	-1.9449640748e-001
 1.0470209399e+000	 8.3225801373e-001	-2.6619067731e-001
 1.0383723884e+000	 8.4302374407e-001	-3.3367167689e-001
 1.1247127182e+000	 7.3531310611e-001	 4.5896957517e-001
 1.1171161950e+000	 7.4680350111e-001	 3.6637748017e-001
 1.1093944413e+000	 7.5822690278e-001	 2.7526618129e-001
 1.1015483197e+000	 7.6958128998e-001	 1.8591951670e-001
 1.0935787359e+000	 7.8086465587e-001	 9.8617684783e-002
 1.0854866386e+000	 7.9207500905e-001	 1.3636661405e-002
 1.0772730186e+000	 8.0321037467e-001	-6.8752377006e-002
 1.0689389089e+000	 8.1426879559e-001	-1.4828362307e-001
 1.0604853845e+000	 8.2524833347e-001	-2.2469719928e-001
 1.0519135611e+000	 8.3614706987e-001	-2.9773970858e-001
 1.0432245958e+000	 8.4696310736e-001	-3.6716477329e-001
 1.1299439401e+000	 7.3873316706e-001	 4.1758108927e-001
 1.1223120843e+000	 7.5027700576e-001	 3.2866129514e-001
 1.1145544155e+000	 7.6175353953e-001	 2.4058177138e-001
 1.1066718002e+000	 7.7316073784e-001	 1.5363083603e-001
 1.0986651487e+000	 7.8449658450e-001	 6.8093754729e-002
 1.0905354137e+000	 7.9575907885e-001	-1.5747847782e-002
 1.0822835908e+000	 8.0694623687e-001	-9.7616571034e-002
 1.0739107178e+000	 8.1805609231e-001	-1.7723981567e-001
 1.0654178746e+000	 8.2908669781e-001	-2.5435035222e-001
 1.0568061823e+000	 8.4003612601e-001	-3.2868688038e-001
 1.0480768032e+000	 8.5090247065e-001	-3.9999457722e-001
 1.1351751621e+000	 7.4215322802e-001	 3.7653170606e-001
 1.1275079736e+000	 7.5375051041e-001	 2.9128138756e-001
 1.1197143896e+000	 7.6528017629e-001	 2.0623759762e-001
 1.1117952808e+000	 7.7674018570e-001	 1.2169319538e-001
 1.1037515614e+000	 7.8812851313e-001	 3.7938570192e-002
 1.0955841887e+000	 7.9944314866e-001	-4.4738952576e-002
 1.0872941629e+000	 8.1068209908e-001	-1.2605570159e-001
 1.0788825267e+000	 8.2184338903e-001	-2.0573224368e-001
 1.0703503648e+000	 8.3292506215e-001	-2.8349396070e-001
 1.0616988036e+000	 8.4392518214e-001	-3.5907161756e-001
 1.0529290107e+000	 8.5484183393e-001	-4.3220191989e-001
 1.1404063840e+000	 7.4557328898e-001	 3.3579138880e-001
 1.1327038629e+000	 7.5722401507e-001	 2.5420702421e-001
 1.1248743638e+000	 7.6880681304e-001	 1.7220215205e-001
 1.1169187614e+000	 7.8031963356e-001	 9.0074234017e-002
 1.1088379741e+000	 7.9176044176e-001	 8.1188401342e-003
 1.1006329638e+000	 8.0312721847e-001	-7.3370951478e-002
 1.0923047351e+000	 8.1441796128e-001	-1.5410515130e-001
 1.0838543356e+000	 8.2563068575e-001	-2.3379745000e-001
 1.0752828549e+000	 8.3676342649e-001	-3.1216580345e-001
 1.0665914248e+000	 8.4781423828e-001	-3.8893300962e-001
 1.0577812181e+000	 8.5878119722e-001	-4.6382727580e-001
 1.1456376060e+000	 7.4899334993e-001	 2.9533031086e-001
 1.1378997522e+000	 7.6069751972e-001	 2.1740768884e-001
 1.1300343379e+000	 7.7233344980e-001	 1.3844415204e-001
 1.1220422419e+000	 7.8389908141e-001	 5.8741826562e-002
 1.1139243869e+000	 7.9539237039e-001	-2.1398479635e-002
 1.1056817389e+000	 8.0681128827e-001	-1.0167788307e-001
 1.0973153073e+000	 8.1815382349e-001	-1.8180002825e-001
 1.0888261445e+000	 8.2941798247e-001	-2.6147168680e-001
 1.0802153451e+000	 8.4060179082e-001	-3.4040335075e-001
 1.0714840460e+000	 8.5170329441e-001	-4.1830981834e-001
 1.0626334255e+000	 8.6272056051e-001	-4.9491077098e-001
 1.1508688279e+000	 7.5241341089e-001	 2.5511885091e-001
 1.1430956415e+000	 7.6417102437e-001	 1.8085307721e-001
 1.1351943121e+000	 7.7586008655e-001	 1.0493253520e-001
 1.1271657225e+000	 7.8747852927e-001	 2.7664077587e-002
 1.1190107996e+000	 7.9902429902e-001	-5.0646192075e-002
 1.1107305139e+000	 8.1049535808e-001	-1.2969353192e-001
 1.1023258795e+000	 8.2188968569e-001	-2.0917517222e-001
 1.0937979534e+000	 8.3320527919e-001	-2.8879092214e-001
 1.0851478353e+000	 8.4444015516e-001	-3.6824377142e-001
 1.0763766672e+000	 8.5559235055e-001	-4.4724048523e-001
 1.0674856329e+000	 8.6665992379e-001	-5.2549219083e-001
 1.0189635587e+000	 8.2726629090e-001	-1.9223678431e-001
 1.0103634139e+000	 8.3774818521e-001	-2.5882649072e-001
 1.0016512289e+000	 8.4814566296e-001	-3.2658679229e-001
 9.9282825026e-001	 8.5845693866e-001	-3.9532061206e-001
 9.8389576217e-001	 8.6868025144e-001	-4.6483404042e-001
 9.7485508607e-001	 8.7881386608e-001	-5.3493674247e-001
 9.6570757986e-001	 8.8885607399e-001	-6.0544235415e-001
 9.5645463724e-001	 8.9880519411e-001	-6.7616886606e-001
 9.4709768705e-001	 9.0865957391e-001	-7.4693899417e-001
 9.3763819247e-001	 9.1841759025e-001	-8.1758053612e-001
 9.2807765033e-001	 9.2807765033e-001	-8.8792671254e-001
 1.0238157661e+000	 8.3120565419e-001	-2.2879879368e-001
 1.0151746683e+000	 8.4173746228e-001	-2.9738963680e-001
 1.0064209967e+000	 8.5218445184e-001	-3.6671718359e-001
 9.9755600383e-001	 8.6254482884e-001	-4.3658160087e-001
 9.8858098008e-001	 8.7281682407e-001	-5.0678668903e-001
 9.7949725315e-001	 8.8299869402e-001	-5.7714029573e-001
 9.7030618738e-001	 8.9308872196e-001	-6.4745471779e-001
 9.6100918314e-001	 9.0308521885e-001	-7.1754708994e-001
 9.5160767604e-001	 9.1298652426e-001	-7.8723975972e-001
 9.4210313625e-001	 9.2279100735e-001	-8.5636064726e-001
 9.3249706771e-001	 9.3249706771e-001	-9.2474358923e-001
 1.0286679735e+000	 8.3514501748e-001	-2.6453044820e-001
 1.0199859226e+000	 8.4572673936e-001	-3.3516231828e-001
 1.0111907645e+000	 8.5622324071e-001	-4.0609933697e-001
 1.0022837574e+000	 8.6663271903e-001	-4.7713886267e-001
 9.9326619800e-001	 8.7695339670e-001	-5.4808235291e-001
 9.8413942022e-001	 8.8718352196e-001	-6.1873578457e-001
 9.7490479490e-001	 8.9732136994e-001	-6.8891006150e-001
 9.6556372903e-001	 9.0736524358e-001	-7.5842140835e-001
 9.5611766502e-001	 9.1731347462e-001	-8.2709174972e-001
 9.4656808002e-001	 9.2716442445e-001	-8.9474907347e-001
 9.3691648509e-001	 9.3691648509e-001	-9.6122777740e-001
 1.0335201810e+000	 8.3908438078e-001	-2.9947409181e-001
 1.0247971770e+000	 8.4971601643e-001	-3.7218684167e-001
 1.0159605322e+000	 8.6026202958e-001	-4.4477546301e-001
 1.0070115110e+000	 8.7072060922e-001	-5.1703445343e-001
 9.9795141592e-001	 8.8108996932e-001	-5.8876287462e-001
 9.8878158730e-001	 8.9136834989e-001	-6.5976477919e-001
 9.7950340243e-001	 9.0155401791e-001	-7.2984962412e-001
 9.7011827492e-001	 9.1164526832e-001	-7.9883266974e-001
 9.6062765401e-001	 9.2164042497e-001	-8.6653536317e-001
 9.5103302380e-001	 9.3153784155e-001	-9.3278570533e-001
 9.4133590248e-001	 9.4133590248e-001	-9.9741860033e-001
 1.0383723884e+000	 8.4302374407e-001	-3.3367167689e-001
 1.0296084313e+000	 8.5370529351e-001	-4.0850512697e-001
 1.0207303000e+000	 8.6430081846e-001	-4.8278739181e-001
 1.0117392646e+000	 8.7480849940e-001	-5.5631005559e-001
 1.0026366338e+000	 8.8522654195e-001	-6.2886973101e-001
 9.9342375438e-001	 8.9555317783e-001	-7.0026849280e-001
 9.8410200995e-001	 9.0578666588e-001	-7.7031429709e-001
 9.7467282081e-001	 9.1592529305e-001	-8.3882138560e-001
 9.6513764300e-001	 9.2596737532e-001	-9.0561067350e-001
 9.5549796757e-001	 9.3591125865e-001	-9.7051012008e-001
 9.4575531986e-001	 9.4575531986e-001	-1.0333550811e+000
 1.0432245958e+000	 8.4696310736e-001	-3.6716477329e-001
 1.0344196857e+000	 8.5769457058e-001	-4.4415871671e-001
 1.0255000677e+000	 8.6833960733e-001	-5.2017658188e-001
 1.0164670181e+000	 8.7889638959e-001	-5.9500698672e-001
 1.0073218517e+000	 8.8936311458e-001	-6.6844404167e-001
 9.9806592146e-001	 8.9973800576e-001	-7.4028778984e-001
 9.8870061748e-001	 9.1001931385e-001	-8.1034463247e-001
 9.7922736671e-001	 9.2020531779e-001	-8.7842773832e-001
 9.6964763198e-001	 9.3029432567e-001	-9.4435743612e-001
 9.5996291134e-001	 9.4028467574e-001	-1.0079615889e+000
 9.5017473724e-001	 9.5017473724e-001	-1.0690759496e+000
 1.0480768032e+000	 8.5090247065e-001	-3.9999457722e-001
 1.0392309401e+000	 8.6168384765e-001	-4.7918878464e-001
 1.0302698355e+000	 8.7237839620e-001	-5.5698412867e-001
 1.0211947717e+000	 8.8298427977e-001	-6.3316620798e-001
 1.0120070697e+000	 8.9349968720e-001	-7.0752657725e-001
 1.0027080885e+000	 9.0392283370e-001	-7.7986319414e-001
 9.9329922500e-001	 9.1425196183e-001	-8.4998085083e-001
 9.8378191260e-001	 9.2448534252e-001	-9.1769158879e-001
 9.7415762097e-001	 9.3462127603e-001	-9.8281509580e-001
 9.6442785512e-001	 9.4465809284e-001	-1.0451790842e+000
 9.5459415463e-001	 9.5459415463e-001	-1.1046196491e+000
 1.0529290107e+000	 8.5484183393e-001	-4.3220191989e-001
 1.0440421944e+000	 8.6567312472e-001	-5.1363614426e-001
 1.0350396032e+000	 8.7641718507e-001	-5.9325077301e-001
 1.0259225253e+000	 8.8707216995e-001	-6.7082833233e-001
 1.0166922876e+000	 8.9763625983e-001	-7.4615776748e-001
 1.0073502556e+000	 9.0810766163e-001	-8.1903489671e-001
 9.9789783252e-001	 9.1848460980e-001	-8.8926284891e-001
 9.8833645849e-001	 9.2876536725e-001	-9.5665248384e-001
 9.7866760995e-001	 9.3894822638e-001	-1.0210227938e+000
 9.6889279889e-001	 9.4903150993e-001	-1.0822012859e+000
 9.5901357201e-001	 9.5901357201e-001	-1.1400243432e+000
 1.0577812181e+000	 8.5878119722e-001	-4.6382727580e-001
 1.0488534488e+000	 8.6966240179e-001	-5.4754125708e-001
 1.0398093710e+000	 8.8045597393e-001	-6.2901690921e-001
 1.0306502789e+000	 8.9116006013e-001	-7.0803363249e-001
 1.0213775055e+000	 9.0177283245e-001	-7.8437770898e-001
 1.0119924227e+000	 9.1229248956e-001	-8.5784276339e-001
 1.0024964400e+000	 9.2271725776e-001	-9.2823020700e-001
 9.9289100438e-001	 9.3304539199e-001	-9.9534966340e-001
 9.8317759894e-001	 9.4327517673e-001	-1.0590193750e+000
 9.7335774266e-001	 9.5340492703e-001	-1.1190665889e+000
 9.6343298939e-001	 9.6343298939e-001	-1.1753279220e+000
 1.0626334255e+000	 8.6272056051e-001	-4.9491077098e-001
 1.0536647031e+000	 8.7365167886e-001	-5.8094424063e-001
 1.0445791388e+000	 8.8449476280e-001	-6.6432259297e-001
 1.0353780324e+000	 8.9524795031e-001	-7.4482204877e-001
 1.0260627234e+000	 9.0590940507e-001	-8.2222617289e-001
 1.0166345898e+000	 9.1647731749e-001	-8.9632634228e-001
 1.0070950476e+000	 9.2694990573e-001	-9.6692219618e-001
 9.9744555027e-001	 9.3732541672e-001	-1.0338220675e+000
 9.8768758792e-001	 9.4760212708e-001	-1.0968433942e+000
 9.7782268644e-001	 9.5777834412e-001	-1.1558131092e+000
 9.6785240677e-001	 9.6785240677e-001	-1.2105680085e+000
 1.0674856329e+000	 8.6665992379e-001	-5.2549219083e-001
 1.0584759575e+000	 8.7764095593e-001	-6.1388487630e-001
 1.0493489065e+000	 8.8853355167e-001	-6.9920754909e-001
 1.0401057860e+000	 8.9933584049e-001	-7.8123319656e-001
 1.0307479413e+000	 9.1004597769e-001	-8.5974261225e-001
 1.0212767568e+000	 9.2066214542e-001	-9.3452487095e-001
 1.0116936551e+000	 9.3118255370e-001	-1.0053777854e+000
 1.0020000962e+000	 9.4160544145e-001	-1.0721083433e+000
 9.9219757691e-001	 9.5192907742e-001	-1.1345331234e+000
 9.8228763021e-001	 9.6215176122e-001	-1.1924786901e+000
 9.7227182415e-001	 9.7227182415e-001	-1.2457819643e+000
 9.2807765033e-001	 9.2807765033e-001	-8.8792671254e-001
 9.1841759025e-001	 9.3763819247e-001	-9.4807267612e-001
 9.0865957391e-001	 9.4709768705e-001	-1.0068348572e+000
 8.9880519411e-001	 9.5645463724e-001	-1.0640532616e+000
 8.8885607399e-001	 9.6570757986e-001	-1.1195748746e+000
 8.7881386608e-001	 9.7485508607e-001	-1.1732539270e+000
 8.6868025144e-001	 9.8389576217e-001	-1.2249521419e+000
 8.5845693866e-001	 9.9282825026e-001	-1.2745389600e+000
 8.4814566296e-001	 1.0016512289e+000	-1.3218917449e+000
 8.3774818521e-001	 1.0103634139e+000	-1.3668959667e+000
 8.2726629090e-001	 1.0189635587e+000	-1.4094453637e+000
 9.3249706771e-001	 9.3249706771e-001	-9.2474358923e-001
 9.2279100735e-001	 9.4210313625e-001	-9.8265545622e-001
 9.1298652426e-001	 9.5160767604e-001	-1.0392189063e+000
 9.0308521885e-001	 9.6100918314e-001	-1.0942938984e+000
 8.9308872196e-001	 9.7030618738e-001	-1.1477473874e+000
 8.8299869402e-001	 9.7949725315e-001	-1.1994535707e+000
 8.7281682407e-001	 9.8858098008e-001	-1.2492941154e+000
 8.6254482884e-001	 9.9755600383e-001	-1.2971583636e+000
 8.5218445184e-001	 1.0064209967e+000	-1.3429435179e+000
 8.4173746228e-001	 1.0151746683e+000	-1.3865548052e+000
 8.3120565419e-001	 1.0238157661e+000	-1.4279056187e+000
 9.3691648509e-001	 9.3691648509e-001	-9.6122777740e-001
 9.2716442445e-001	 9.4656808002e-001	-1.0172361274e+000
 9.1731347462e-001	 9.5611766502e-001	-1.0719287815e+000
 9.0736524358e-001	 9.6556372903e-001	-1.1251854698e+000
 8.9732136994e-001	 9.7490479490e-001	-1.1768929381e+000
 8.8718352196e-001	 9.8413942022e-001	-1.2269451753e+000
 8.7695339670e-001	 9.9326619800e-001	-1.2752436201e+000
 8.6663271903e-001	 1.0022837574e+000	-1.3216973480e+000
 8.5622324071e-001	 1.0111907645e+000	-1.3662232364e+000
 8.4572673936e-001	 1.0199859226e+000	-1.4087461083e+000
 8.3514501748e-001	 1.0286679735e+000	-1.4491988551e+000
 9.4133590248e-001	 9.4133590248e-001	-9.9741860033e-001
 9.3153784155e-001	 9.5103302380e-001	-1.0518495879e+000
 9.2164042497e-001	 9.6062765401e-001	-1.1049949600e+000
 9.1164526832e-001	 9.7011827492e-001	-1.1567540379e+000
 9.0155401791e-001	 9.7950340243e-001	-1.2070331819e+000
 8.9136834989e-001	 9.8878158730e-001	-1.2557459986e+000
 8.8108996932e-001	 9.9795141592e-001	-1.3028135291e+000
 8.7072060922e-001	 1.0070115110e+000	-1.3481644157e+000
 8.6026202958e-001	 1.0159605322e+000	-1.3917350479e+000
 8.4971601643e-001	 1.0247971770e+000	-1.4334696866e+000
 8.3908438078e-001	 1.0335201810e+000	-1.4733205672e+000
 9.4575531986e-001	 9.4575531986e-001	-1.0333550811e+000
 9.3591125865e-001	 9.5549796757e-001	-1.0865305207e+000
 9.2596737532e-001	 9.6513764300e-001	-1.1384477882e+000
 9.1592529305e-001	 9.7467282081e-001	-1.1890256186e+000
 9.0578666588e-001	 9.8410200995e-001	-1.2381898115e+000
 8.9555317783e-001	 9.9342375438e-001	-1.2858734201e+000
 8.8522654195e-001	 1.0026366338e+000	-1.3320169198e+000
 8.7480849940e-001	 1.0117392646e+000	-1.3765683556e+000
 8.6430081846e-001	 1.0207303000e+000	-1.4194834686e+000
 8.5370529351e-001	 1.0296084313e+000	-1.4607258011e+000
 8.4302374407e-001	 1.0383723884e+000	-1.5002667798e+000
 9.5017473724e-001	 9.5017473724e-001	-1.0690759496e+000
 9.4028467574e-001	 9.5996291134e-001	-1.1213133986e+000
 9.3029432567e-001	 9.6964763198e-001	-1.1723174853e+000
 9.2020531779e-001	 9.7922736671e-001	-1.2220261824e+000
 9.1001931385e-001	 9.8870061748e-001	-1.2703845563e+000
 8.9973800576e-001	 9.9806592146e-001	-1.3173449374e+000
 8.8936311458e-001	 1.0073218517e+000	-1.3628670691e+000
 8.7889638959e-001	 1.0164670181e+000	-1.4069182368e+000
 8.6833960733e-001	 1.0255000677e+000	-1.4494733748e+000
 8.5769457058e-001	 1.0344196857e+000	-1.4905151521e+000
 8.4696310736e-001	 1.0432245958e+000	-1.5300340364e+000
 9.5459415463e-001	 9.5459415463e-001	-1.1046196491e+000
 9.4465809284e-001	 9.6442785512e-001	-1.1562324889e+000
 9.3462127603e-001	 9.7415762097e-001	-1.2066341458e+000
 9.2448534252e-001	 9.8378191260e-001	-1.2557816561e+000
 9.1425196183e-001	 9.9329922500e-001	-1.3036391821e+000
 9.0392283370e-001	 1.0027080885e+000	-1.3501781637e+000
 8.9349968720e-001	 1.0120070697e+000	-1.3953774486e+000
 8.8298427977e-001	 1.0211947717e+000	-1.4392234020e+000
 8.7237839620e-001	 1.0302698355e+000	-1.4817099947e+000
 8.6168384765e-001	 1.0392309401e+000	-1.5228388698e+000
 8.5090247065e-001	 1.0480768032e+000	-1.5626193869e+000
 9.5901357201e-001	 9.5901357201e-001	-1.1400243432e+000
 9.4903150993e-001	 9.6889279889e-001	-1.1913218585e+000
 9.3894822638e-001	 9.7866760995e-001	-1.2414277426e+000
 9.2876536725e-001	 9.8833645849e-001	-1.2903179232e+000
 9.1848460980e-001	 9.9789783252e-001	-1.3379754896e+000
 9.0810766163e-001	 1.0073502556e+000	-1.3843908254e+000
 8.9763625983e-001	 1.0166922876e+000	-1.4295617204e+000
 8.8707216995e-001	 1.0259225253e+000	-1.4734934612e+000
 8.7641718507e-001	 1.0350396032e+000	-1.5161989002e+000
 8.6567312472e-001	 1.0440421944e+000	-1.5576985035e+000
 8.5484183393e-001	 1.0529290107e+000	-1.5980203762e+000
 9.6343298939e-001	 9.6343298939e-001	-1.1753279220e+000
 9.5340492703e-001	 9.7335774266e-001	-1.2266153781e+000
 9.4327517673e-001	 9.8317759894e-001	-1.2767281295e+000
 9.3304539199e-001	 9.9289100438e-001	-1.3256608249e+000
 9.2271725776e-001	 1.0024964400e+000	-1.3734153136e+000
 9.1229248956e-001	 1.0119924227e+000	-1.4200007591e+000
 9.0177283245e-001	 1.0213775055e+000	-1.4654337328e+000
 8.9116006013e-001	 1.0306502789e+000	-1.5097382857e+000
 8.8045597393e-001	 1.0398093710e+000	-1.5529459990e+000
 8.6966240179e-001	 1.0488534488e+000	-1.5950960126e+000
 8.5878119722e-001	 1.0577812181e+000	-1.6362350324e+000
 9.6785240677e-001	 9.6785240677e-001	-1.2105680085e+000
 9.5777834412e-001	 9.7782268644e-001	-1.2621467269e+000
 9.4760212708e-001	 9.8768758792e-001	-1.3125650442e+000
 9.3732541672e-001	 9.9744555027e-001	-1.3618361617e+000
 9.2694990573e-001	 1.0070950476e+000	-1.4099805230e+000
 9.1647731749e-001	 1.0166345898e+000	-1.4570259095e+000
 9.0590940507e-001	 1.0260627234e+000	-1.5030075155e+000
 8.9524795031e-001	 1.0353780324e+000	-1.5479680017e+000
 8.8449476280e-001	 1.0445791388e+000	-1.5919575267e+000
 8.7365167886e-001	 1.0536647031e+000	-1.6350337573e+000
 8.6272056051e-001	 1.0626334255e+000	-1.6772618562e+000
 9.7227182415e-001	 9.7227182415e-001	-1.2457819643e+000
 9.6215176122e-001	 9.8228763021e-001	-1.2979493970e+000
 9.5192907742e-001	 9.9219757691e-001	-1.3489681110e+000
 9.4160544145e-001	 1.0020000962e+000	-1.3988696936e+000
 9.3118255370e-001	 1.0116936551e+000	-1.4476930190e+000
 9.2066214542e-001	 1.0212767568e+000	-1.4954843263e+000
 9.1004597769e-001	 1.0307479413e+000	-1.5422972760e+000
 8.9933584049e-001	 1.0401057860e+000	-1.5881929850e+000
 8.8853355167e-001	 1.0493489065e+000	-1.6332400400e+000
 8.7764095593e-001	 1.0584759575e+000	-1.6775144888e+000
 8.6665992379e-001	 1.0674856329e+000	-1.7210998100e+000
 8.2726629090e-001	 1.0189635587e+000	-1.4094453637e+000
 8.1670178916e-001	 1.0274504550e+000	-1.4463770567e+000
 8.0605651175e-001	 1.0358229336e+000	-1.4834688478e+000
 7.9533231196e-001	 1.0440798645e+000	-1.5207015322e+000
 7.8453106362e-001	 1.0522201577e+000	-1.5580614982e+000
 7.7365465999e-001	 1.0602427633e+000	-1.5955407305e+000
 7.6270501271e-001	 1.0681466723e+000	-1.6331367946e+000
 7.5168405068e-001	 1.0759309169e+000	-1.6708528039e+000
 7.4059371899e-001	 1.0835945706e+000	-1.7086973697e+000
 7.2943597783e-001	 1.0911367486e+000	-1.7466845340e+000
 7.1821280132e-001	 1.0985566085e+000	-1.7848336857e+000
 8.3120565419e-001	 1.0238157661e+000	-1.4279056187e+000
 8.2059084531e-001	 1.0323430763e+000	-1.4644136890e+000
 8.0989487609e-001	 1.0407554238e+000	-1.5011264257e+000
 7.9911960869e-001	 1.0490516734e+000	-1.5379909049e+000
 7.8826692583e-001	 1.0572307298e+000	-1.5749600187e+000
 7.7733872981e-001	 1.0652915383e+000	-1.6119925129e+000
 7.6633694134e-001	 1.0732330850e+000	-1.6490530056e+000
 7.5526349854e-001	 1.0810543975e+000	-1.6861119882e+000
 7.4412035575e-001	 1.0887545447e+000	-1.7231458077e+000
 7.3290948248e-001	 1.0963326379e+000	-1.7601366319e+000
 7.2163286228e-001	 1.1037878304e+000	-1.7970723962e+000
 8.3514501748e-001	 1.0286679735e+000	-1.4491988551e+000
 8.2447990145e-001	 1.0372356975e+000	-1.4847878389e+000
 8.1373324044e-001	 1.0456879140e+000	-1.5206238305e+000
 8.0290690542e-001	 1.0540234823e+000	-1.5566204186e+000
 7.9200278804e-001	 1.0622413020e+000	-1.5926972322e+000
 7.8102279962e-001	 1.0703403134e+000	-1.6287800131e+000
 7.6996886998e-001	 1.0783194978e+000	-1.6648006687e+000
 7.5884294640e-001	 1.0861778780e+000	-1.7006973059e+000
 7.4764699251e-001	 1.0939145189e+000	-1.7364142465e+000
 7.3638298714e-001	 1.1015285272e+000	-1.7719020236e+000
 7.2505292324e-001	 1.1090190524e+000	-1.8071173594e+000
 8.3908438078e-001	 1.0335201810e+000	-1.4733205672e+000
 8.2836895759e-001	 1.0421283187e+000	-1.5075018583e+000
 8.1757160478e-001	 1.0506204041e+000	-1.5419702669e+000
 8.0669420214e-001	 1.0589952912e+000	-1.5766061220e+000
 7.9573865025e-001	 1.0672518742e+000	-1.6112960196e+000
 7.8470686943e-001	 1.0753890885e+000	-1.6459329292e+000
 7.7360079861e-001	 1.0834059105e+000	-1.6804162805e+000
 7.6242239426e-001	 1.0913013586e+000	-1.7146520308e+000
 7.5117362927e-001	 1.0990744930e+000	-1.7485527121e+000
 7.3985649180e-001	 1.1067244165e+000	-1.7820374594e+000
 7.2847298419e-001	 1.1142502743e+000	-1.8150320188e+000
 8.4302374407e-001	 1.0383723884e+000	-1.5002667798e+000
 8.3225801373e-001	 1.0470209399e+000	-1.5325585018e+000
 8.2140996912e-001	 1.0555528943e+000	-1.5651752135e+000
 8.1048149886e-001	 1.0639671001e+000	-1.5979642092e+000
 7.9947451246e-001	 1.0722624464e+000	-1.6307792785e+000
 7.8839093924e-001	 1.0804378635e+000	-1.6634808470e+000
 7.7723272724e-001	 1.0884923232e+000	-1.6959360971e+000
 7.6600184212e-001	 1.0964248391e+000	-1.7280190677e+000
 7.5470026602e-001	 1.1042344672e+000	-1.7596107334e+000
 7.4332999645e-001	 1.1119203058e+000	-1.7905990645e+000
 7.3189304515e-001	 1.1194814962e+000	-1.8208790650e+000
 8.4696310736e-001	 1.0432245958e+000	-1.5300340364e+000
 8.3614706987e-001	 1.0519135611e+000	-1.5599609169e+000
 8.2524833347e-001	 1.0604853845e+000	-1.5902484164e+000
 8.1426879559e-001	 1.0689389089e+000	-1.6207110161e+000
 8.0321037467e-001	 1.0772730186e+000	-1.6511699227e+000
 7.9207500905e-001	 1.0854866386e+000	-1.6814532434e+000
 7.8086465587e-001	 1.0935787359e+000	-1.7113961399e+000
 7.6958128998e-001	 1.1015483197e+000	-1.7408409610e+000
 7.5822690278e-001	 1.1093944413e+000	-1.7696373537e+000
 7.4680350111e-001	 1.1171161950e+000	-1.7976423536e+000
 7.3531310611e-001	 1.1247127182e+000	-1.8247204540e+000
 8.5090247065e-001	 1.0480768032e+000	-1.5626193869e+000
 8.4003612601e-001	 1.0568061823e+000	-1.5897126351e+000
 8.2908669781e-001	 1.0654178746e+000	-1.6171998831e+000
 8.1805609231e-001	 1.0739107178e+000	-1.6448630172e+000
 8.0694623687e-001	 1.0822835908e+000	-1.6724908818e+000
 7.9575907885e-001	 1.0905354137e+000	-1.6998794879e+000
 7.8449658450e-001	 1.0986651487e+000	-1.7268322005e+000
 7.7316073784e-001	 1.1066718002e+000	-1.7531599033e+000
 7.6175353953e-001	 1.1145544155e+000	-1.7786811419e+000
 7.5027700576e-001	 1.1223120843e+000	-1.8032222451e+000
 7.3873316706e-001	 1.1299439401e+000	-1.8266174232e+000
 8.5484183393e-001	 1.0529290107e+000	-1.5980203762e+000
 8.4392518214e-001	 1.0616988036e+000	-1.6218175632e+000
 8.3292506215e-001	 1.0703503648e+000	-1.6460398763e+000
 8.2184338903e-001	 1.0788825267e+000	-1.6704368226e+000
 8.1068209908e-001	 1.0872941629e+000	-1.6947651011e+000
 7.9944314866e-001	 1.0955841887e+000	-1.7187888460e+000
 7.8812851313e-001	 1.1037515614e+000	-1.7422798462e+000
 7.7674018570e-001	 1.1117952808e+000	-1.7650177429e+000
 7.6528017629e-001	 1.1197143896e+000	-1.7867902037e+000
 7.5375051041e-001	 1.1275079736e+000	-1.8073930746e+000
 7.4215322802e-001	 1.1351751621e+000	-1.8266305088e+000
 8.5878119722e-001	 1.0577812181e+000	-1.6362350324e+000
 8.4781423828e-001	 1.0665914248e+000	-1.6562799744e+000
 8.3676342649e-001	 1.0752828549e+000	-1.6767789085e+000
 8.2563068575e-001	 1.0838543356e+000	-1.6974491745e+000
 8.1441796128e-001	 1.0923047351e+000	-1.7180155409e+000
 8.0312721847e-001	 1.1006329638e+000	-1.7382104810e+000
 7.9176044176e-001	 1.1088379741e+000	-1.7577744255e+000
 7.8031963356e-001	 1.1169187614e+000	-1.7764559923e+000
 7.6880681304e-001	 1.1248743638e+000	-1.7940121917e+000
 7.5722401507e-001	 1.1327038629e+000	-1.8102086087e+000
 7.4557328898e-001	 1.1404063840e+000	-1.8248195613e+000
 8.6272056051e-001	 1.0626334255e+000	-1.6772618562e+000
 8.5170329441e-001	 1.0714840460e+000	-1.6931045001e+000
 8.4060179082e-001	 1.0802153451e+000	-1.7094277356e+000
 8.2941798247e-001	 1.0888261445e+000	-1.7259169446e+000
 8.1815382349e-001	 1.0973153073e+000	-1.7422651763e+000
 8.0681128827e-001	 1.1056817389e+000	-1.7581734565e+000
 7.9539237039e-001	 1.1139243869e+000	-1.7733510727e+000
 7.8389908141e-001	 1.1220422419e+000	-1.7875158358e+000
 7.7233344980e-001	 1.1300343379e+000	-1.8003943164e+000
 7.6069751972e-001	 1.1378997522e+000	-1.8117220575e+000
 7.4899334993e-001	 1.1456376060e+000	-1.8212437614e+000
 8.6665992379e-001	 1.0674856329e+000	-1.7210998100e+000
 8.5559235055e-001	 1.0763766672e+000	-1.7322961219e+000
 8.4444015516e-001	 1.0851478353e+000	-1.7439973520e+000
 8.3320527919e-001	 1.0937979534e+000	-1.7558571310e+000
 8.2188968569e-001	 1.1023258795e+000	-1.7675369970e+000
 8.1049535808e-001	 1.1107305139e+000	-1.7787067387e+000
 7.9902429902e-001	 1.1190107996e+000	-1.7890447127e+000
 7.8747852927e-001	 1.1271657225e+000	-1.7982381364e+000
 7.7586008655e-001	 1.1351943121e+000	-1.8059833558e+000
 7.6417102437e-001	 1.1430956415e+000	-1.8119860874e+000
 7.5241341089e-001	 1.1508688279e+000	-1.8159616354e+000
 7.1821280132e-001	 1.0985566085e+000	-1.7848336857e+000
 7.0692617646e-001	 1.1058533497e+000	-1.7919502005e+000
 6.9557810199e-001	 1.1130262144e+000	-1.7933332218e+000
 6.8417058724e-001	 1.1200744875e+000	-1.7889445963e+000
 6.7270565107e-001	 1.1269974965e+000	-1.7787573120e+000
 6.6118532068e-001	 1.1337946118e+000	-1.7627553622e+000
 6.4961163054e-001	 1.1404652469e+000	-1.7409335870e+000
 6.3798662126e-001	 1.1470088583e+000	-1.7132974948e+000
 6.2631233847e-001	 1.1534249454e+000	-1.6798630617e+000
 6.1459083173e-001	 1.1597130505e+000	-1.7946198289e+000
 6.0282415339e-001	 1.1658727590e+000	-1.9237864114e+000
 7.2163286228e-001	 1.1037878304e+000	-1.7970723962e+000
 7.1029249159e-001	 1.1111193180e+000	-1.8022241229e+000
 6.9889037867e-001	 1.1183263393e+000	-1.8020594625e+000
 6.8742854242e-001	 1.1254081755e+000	-1.7966090939e+000
 6.7590901131e-001	 1.1323641512e+000	-1.7859139893e+000
 6.6433382220e-001	 1.1391936337e+000	-1.7700252114e+000
 6.5270501926e-001	 1.1458960338e+000	-1.7490036915e+000
 6.4102465279e-001	 1.1524708053e+000	-1.7229199874e+000
 6.2929477818e-001	 1.1589174451e+000	-1.6918540227e+000
 6.1751745474e-001	 1.1652354936e+000	-1.7656351114e+000
 6.0569474460e-001	 1.1714245340e+000	-1.8984051876e+000
 7.2505292324e-001	 1.1090190524e+000	-1.8071173594e+000
 7.1365880671e-001	 1.1163852863e+000	-1.8113329407e+000
 7.0220265534e-001	 1.1236264641e+000	-1.8106414421e+000
 6.9068649760e-001	 1.1307418636e+000	-1.8051419220e+000
 6.7911237155e-001	 1.1377308059e+000	-1.7949428922e+000
 6.6748232373e-001	 1.1445926557e+000	-1.7801620502e+000
 6.5579840797e-001	 1.1513268207e+000	-1.7609259928e+000
 6.4406268432e-001	 1.1579327522e+000	-1.7373699117e+000
 6.3227721789e-001	 1.1644099449e+000	-1.7096372727e+000
 6.2044407775e-001	 1.1707579367e+000	-1.7441288350e+000
 6.0856533581e-001	 1.1769763090e+000	-1.8814120446e+000
 7.2847298419e-001	 1.1142502743e+000	-1.8150320188e+000
 7.1702512184e-001	 1.1216512547e+000	-1.8193251256e+000
 7.0551493201e-001	 1.1289265889e+000	-1.8191127356e+000
 6.9394445277e-001	 1.1360755516e+000	-1.8145618401e+000
 6.8231573179e-001	 1.1430974607e+000	-1.8058480532e+000
 6.7063082525e-001	 1.1499916777e+000	-1.7931552786e+000
 6.5889179669e-001	 1.1567576076e+000	-1.7766753599e+000
 6.4710071585e-001	 1.1633946992e+000	-1.7566077135e+000
 6.3525965760e-001	 1.1699024446e+000	-1.7331589479e+000
 6.2337070076e-001	 1.1762803798e+000	-1.7300316205e+000
 6.1143592702e-001	 1.1825280841e+000	-1.8727232594e+000
 7.3189304515e-001	 1.1194814962e+000	-1.8208790650e+000
 7.2039143696e-001	 1.1269172230e+000	-1.8262486740e+000
 7.0882720869e-001	 1.1342267138e+000	-1.8275067179e+000
 6.9720240795e-001	 1.1414092396e+000	-1.8248876815e+000
 6.8551909204e-001	 1.1484641154e+000	-1.8186338500e+000
 6.7377932678e-001	 1.1553906996e+000	-1.8089949119e+000
 6.6198518540e-001	 1.1621883945e+000	-1.7962275446e+000
 6.5013874738e-001	 1.1688566461e+000	-1.7805949867e+000
 6.3824209730e-001	 1.1753949443e+000	-1.7623665966e+000
 6.2629732376e-001	 1.1818028229e+000	-1.7418173992e+000
 6.1430651822e-001	 1.1880798591e+000	-1.8722570391e+000
 7.3531310611e-001	 1.1247127182e+000	-1.8247204540e+000
 7.2375775209e-001	 1.1321831913e+000	-1.8321511176e+000
 7.1213948536e-001	 1.1395268386e+000	-1.8358565685e+000
 7.0046036312e-001	 1.1467429277e+000	-1.8361383512e+000
 6.8872245228e-001	 1.1538307702e+000	-1.8333049980e+000
 6.7692782830e-001	 1.1607897216e+000	-1.8276715663e+000
 6.6507857412e-001	 1.1676191814e+000	-1.8195591615e+000
 6.5317677891e-001	 1.1743185930e+000	-1.8092944474e+000
 6.4122453701e-001	 1.1808874441e+000	-1.7972091454e+000
 6.2922394677e-001	 1.1873252660e+000	-1.7836395233e+000
 6.1717710943e-001	 1.1936316342e+000	-1.8799334761e+000
 7.3873316706e-001	 1.1299439401e+000	-1.8266174232e+000
 7.2712406721e-001	 1.1374491597e+000	-1.8370795348e+000
 7.1545176204e-001	 1.1448269634e+000	-1.8441952760e+000
 7.0371831830e-001	 1.1520766157e+000	-1.8483328247e+000
 6.9192581252e-001	 1.1591974249e+000	-1.8498665421e+000
 6.8007632983e-001	 1.1661887435e+000	-1.8491764452e+000
 6.6817196283e-001	 1.1730499683e+000	-1.8466476673e+000
 6.5621481043e-001	 1.1797805400e+000	-1.8426699070e+000
 6.4420697671e-001	 1.1863799438e+000	-1.8376368677e+000
 6.3215056978e-001	 1.1928477091e+000	-1.8319456894e+000
 6.2004770064e-001	 1.1991834092e+000	-1.8956745045e+000
 7.4215322802e-001	 1.1351751621e+000	-1.8266305088e+000
 7.3049038233e-001	 1.1427151280e+000	-1.8410805604e+000
 7.1876403871e-001	 1.1501270883e+000	-1.8525556427e+000
 7.0697627347e-001	 1.1574103037e+000	-1.8614901463e+000
 6.9512917276e-001	 1.1645640797e+000	-1.8683238492e+000
 6.8322483135e-001	 1.1715877655e+000	-1.8735013255e+000
 6.7126535155e-001	 1.1784807552e+000	-1.8774713420e+000
 6.5925284196e-001	 1.1852424869e+000	-1.8806862476e+000
 6.4718941642e-001	 1.1918724436e+000	-1.8836013529e+000
 6.3507719279e-001	 1.1983701522e+000	-1.8866743045e+000
 6.2291829184e-001	 1.2047351842e+000	-1.9194038575e+000
 7.4557328898e-001	 1.1404063840e+000	-1.8248195613e+000
 7.3385669746e-001	 1.1479810964e+000	-1.8442003964e+000
 7.2207631538e-001	 1.1554272131e+000	-1.8609702885e+000
 7.1023422865e-001	 1.1627439918e+000	-1.8756294271e+000
 6.9833253300e-001	 1.1699307344e+000	-1.8886826012e+000
 6.8637333288e-001	 1.1769867875e+000	-1.9006385445e+000
 6.7435874026e-001	 1.1839115421e+000	-1.9120092699e+000
 6.6229087349e-001	 1.1907044339e+000	-1.9233093975e+000
 6.5017185612e-001	 1.1973649433e+000	-1.9350554758e+000
 6.3800381579e-001	 1.2038925953e+000	-1.9477652987e+000
 6.2578888305e-001	 1.2102869593e+000	-1.9619572187e+000
 7.4899334993e-001	 1.1456376060e+000	-1.8212437614e+000
 7.3722301258e-001	 1.1532470647e+000	-1.8464848212e+000
 7.2538859206e-001	 1.1607273379e+000	-1.8694716555e+000
 7.1349218382e-001	 1.1680776798e+000	-1.8907698440e+000
 7.0153589324e-001	 1.1752973892e+000	-1.9109487872e+000
 6.8952183440e-001	 1.1823858094e+000	-1.9305809873e+000
 6.7745212897e-001	 1.1893423289e+000	-1.9502413210e+000
 6.6532890502e-001	 1.1961663808e+000	-1.9705063067e+000
 6.5315429583e-001	 1.2028574431e+000	-1.9919533674e+000
 6.4093043880e-001	 1.2094150384e+000	-2.0151600901e+000
 6.2865947425e-001	 1.2158387343e+000	-2.0407034850e+000
 7.5241341089e-001	 1.1508688279e+000	-1.8159616354e+000
 7.4058932770e-001	 1.1585130330e+000	-1.8479792002e+000
 7.2870086873e-001	 1.1660274628e+000	-1.8780920117e+000
 7.1675013899e-001	 1.1734113679e+000	-1.9069306379e+000
 7.0473925348e-001	 1.1806640439e+000	-1.9351286969e+000
 6.9267033593e-001	 1.1877848314e+000	-1.9633220740e+000
 6.8054551769e-001	 1.1947731158e+000	-1.9921481333e+000
 6.6836693654e-001	 1.2016283278e+000	-2.0222449244e+000
 6.5613673553e-001	 1.2083499428e+000	-2.0542503864e+000
 6.4385706180e-001	 1.2149374815e+000	-2.0888015514e+000
 6.3153006546e-001	 1.2213905094e+000	-2.1265337481e+000
 6.0282415339e-001	 1.1658727590e+000	-1.9237864114e+000
 5.9101435755e-001	 1.1719036988e+000	-1.9448584876e+000
 5.7916349893e-001	 1.1778055406e+000	-1.9645770086e+000
 5.6727363182e-001	 1.1835779977e+000	-1.9837704911e+000
 5.5534680900e-001	 1.1892208255e+000	-2.0032569746e+000
 5.4338508071e-001	 1.1947338214e+000	-2.0238429278e+000
 5.3139049357e-001	 1.2001168249e+000	-2.0463221897e+000
 5.1936508960e-001	 1.2053697166e+000	-2.0714749485e+000
 5.0731090517e-001	 1.2104924186e+000	-2.1000667583e+000
 4.9522997003e-001	 1.2154848937e+000	-2.1328475953e+000
 4.8312430631e-001	 1.2203471451e+000	-2.1705509565e+000
 6.0569474460e-001	 1.1714245340e+000	-1.8984051876e+000
 5.9382871164e-001	 1.1774841926e+000	-1.9268977949e+000
 5.8192142036e-001	 1.1834141384e+000	-1.9495914411e+000
 5.6997493483e-001	 1.1892140834e+000	-1.9672276104e+000
 5.5799131762e-001	 1.1948837818e+000	-1.9805424424e+000
 5.4597262872e-001	 1.2004230301e+000	-1.9902656605e+000
 5.3392092450e-001	 1.2058316669e+000	-1.9971195287e+000
 5.2183825670e-001	 1.2111095724e+000	-2.0018178378e+000
 5.0972667139e-001	 1.2162566682e+000	-2.0050649239e+000
 4.9758820799e-001	 1.2212729170e+000	-2.0075547200e+000
 4.8542489825e-001	 1.2261583220e+000	-2.0099698420e+000
 6.0856533581e-001	 1.1769763090e+000	-1.8814120446e+000
 5.9664306572e-001	 1.1830646864e+000	-1.9153821365e+000
 5.8467934178e-001	 1.1890227362e+000	-1.9391538026e+000
 5.7267623785e-001	 1.1948501691e+000	-1.9533822100e+000
 5.6063582624e-001	 1.2005467381e+000	-1.9587222794e+000
 5.4856017673e-001	 1.2061122388e+000	-1.9558276351e+000
 5.3645135542e-001	 1.2115465089e+000	-1.9453495761e+000
 5.2431142379e-001	 1.2168494282e+000	-1.9279360707e+000
 5.1214243761e-001	 1.2220209178e+000	-1.9042307761e+000
 4.9994644594e-001	 1.2270609403e+000	-1.8748720849e+000
 4.8772549019e-001	 1.2319694989e+000	-1.8404921993e+000
 6.1143592702e-001	 1.1825280841e+000	-1.8727232594e+000
 5.9945741981e-001	 1.1886451802e+000	-1.9102536213e+000
 5.8743726321e-001	 1.1946313340e+000	-1.9332313854e+000
 5.7537754086e-001	 1.2004862548e+000	-1.9422261097e+000
 5.6328033486e-001	 1.2062096944e+000	-1.9378121692e+000
 5.5114772473e-001	 1.2118014474e+000	-1.9205677278e+000
 5.3898178635e-001	 1.2172613509e+000	-1.8910737231e+000
 5.2678459089e-001	 1.2225892840e+000	-1.8499128697e+000
 5.1455820383e-001	 1.2277851674e+000	-1.7976686791e+000
 5.0230468390e-001	 1.2328489636e+000	-1.7349245010e+000
 4.9002608213e-001	 1.2377806758e+000	-1.6622625865e+000
 6.1430651822e-001	 1.1880798591e+000	-1.8722570391e+000
 6.0227177389e-001	 1.1942256740e+000	-1.9114557950e+000
 5.9019518464e-001	 1.2002399318e+000	-1.9317924382e+000
 5.7807884387e-001	 1.2061223405e+000	-1.9337516170e+000
 5.6592484348e-001	 1.2118726507e+000	-1.9178278269e+000
 5.5373527274e-001	 1.2174906561e+000	-1.8845244026e+000
 5.4151221727e-001	 1.2229761929e+000	-1.8343525181e+000
 5.2925775799e-001	 1.2283291398e+000	-1.7678301963e+000
 5.1697397005e-001	 1.2335494170e+000	-1.6854813306e+000
 5.0466292185e-001	 1.2386369869e+000	-1.5878347209e+000
 4.9232667407e-001	 1.2435918526e+000	-1.4754231241e+000
 6.1717710943e-001	 1.1936316342e+000	-1.8799334761e+000
 6.0508612798e-001	 1.1998061678e+000	-1.9189336075e+000
 5.9295310606e-001	 1.2058485297e+000	-1.9348061438e+000
 5.8078014688e-001	 1.2117584262e+000	-1.9279515159e+000
 5.6856935209e-001	 1.2175356070e+000	-1.8987849981e+000
 5.5632282074e-001	 1.2231798648e+000	-1.8477357212e+000
 5.4404264820e-001	 1.2286910350e+000	-1.7752456858e+000
 5.3173092508e-001	 1.2340689955e+000	-1.6817687799e+000
 5.1938973626e-001	 1.2393136666e+000	-1.5677698009e+000
 5.0702115981e-001	 1.2444250102e+000	-1.4337234862e+000
 4.9462726600e-001	 1.2494030295e+000	-1.2801135520e+000
 6.2004770064e-001	 1.1991834092e+000	-1.8956745045e+000
 6.0790048206e-001	 1.2053866616e+000	-1.9326333797e+000
 5.9571102748e-001	 1.2114571275e+000	-1.9422425975e+000
 5.8348144989e-001	 1.2173945119e+000	-1.9248190557e+000
 5.7121386071e-001	 1.2231985633e+000	-1.8806994590e+000
 5.5891036875e-001	 1.2288690734e+000	-1.8102393520e+000
 5.4657307912e-001	 1.2344058770e+000	-1.7138121466e+000
 5.3420409218e-001	 1.2398088513e+000	-1.5918081465e+000
 5.2180550248e-001	 1.2450779163e+000	-1.4446335699e+000
 5.0937939776e-001	 1.2502130335e+000	-1.2867099242e+000
 4.9692785794e-001	 1.2552142064e+000	-1.4207031108e+000
 6.2291829184e-001	 1.2047351842e+000	-1.9194038575e+000
 6.1071483614e-001	 1.2109671554e+000	-1.9525027722e+000
 5.9846894891e-001	 1.2170657253e+000	-1.9540727859e+000
 5.8618275290e-001	 1.2230305976e+000	-1.9243479403e+000
 5.7385836932e-001	 1.2288615196e+000	-1.8635870148e+000
 5.6149791675e-001	 1.2345582821e+000	-1.7720725792e+000
 5.4910351004e-001	 1.2401207190e+000	-1.6501100350e+000
 5.3667725927e-001	 1.2455487071e+000	-1.4980266466e+000
 5.2422126869e-001	 1.2508421659e+000	-1.3712390744e+000
 5.1173763571e-001	 1.2560010568e+000	-1.4993419028e+000
 4.9922844987e-001	 1.2610253833e+000	-1.5926879907e+000
 6.2578888305e-001	 1.2102869593e+000	-1.9619572187e+000
 6.1352919023e-001	 1.2165476492e+000	-1.9784907547e+000
 6.0122687033e-001	 1.2226743231e+000	-1.9702685669e+000
 5.8888405590e-001	 1.2286666833e+000	-1.9265323180e+000
 5.7650287793e-001	 1.2345244759e+000	-1.8474634995e+000
 5.6408546475e-001	 1.2402474908e+000	-1.7332723116e+000
 5.5163394096e-001	 1.2458355610e+000	-1.5841967177e+000
 5.3915042636e-001	 1.2512885629e+000	-1.4842706907e+000
 5.2663703491e-001	 1.2566064155e+000	-1.6144500696e+000
 5.1409587366e-001	 1.2617890801e+000	-1.7053775946e+000
 5.0152904180e-001	 1.2668365602e+000	-1.7567739341e+000
 6.2865947425e-001	 1.2158387343e+000	-2.0407034850e+000
 6.1634354431e-001	 1.2221281430e+000	-2.0105475757e+000
 6.0398479175e-001	 1.2282829209e+000	-1.9908026491e+000
 5.9158535891e-001	 1.2343027690e+000	-1.9313667709e+000
 5.7914738655e-001	 1.2401874323e+000	-1.8323447752e+000
 5.6667301276e-001	 1.2459366995e+000	-1.6938750914e+000
 5.5416437188e-001	 1.2515504031e+000	-1.6162543690e+000
 5.4162359346e-001	 1.2570284187e+000	-1.7561332532e+000
 5.2905280112e-001	 1.2623706651e+000	-1.8524785581e+000
 5.1645411161e-001	 1.2675771034e+000	-1.9049020047e+000
 5.0382963374e-001	 1.2726477371e+000	-1.9130645646e+000
 6.3153006546e-001	 1.2213905094e+000	-2.1265337481e+000
 6.1915789839e-001	 1.2277086368e+000	-2.0486247341e+000
 6.0674271317e-001	 1.2338915187e+000	-2.0156485734e+000
 5.9428666192e-001	 1.2399388547e+000	-1.9388463055e+000
 5.8179189516e-001	 1.2458503886e+000	-1.8182467315e+000
 5.6926056076e-001	 1.2516259081e+000	-1.7581381861e+000
 5.5669480280e-001	 1.2572652451e+000	-1.9149787062e+000
 5.4409676055e-001	 1.2627682745e+000	-2.0242313337e+000
 5.3146856733e-001	 1.2681349147e+000	-2.0853888457e+000
 5.1881234956e-001	 1.2733651267e+000	-2.0979983482e+000
 5.0613022567e-001	 1.2784589139e+000	-2.0616613857e+000
 4.8312430631e-001	 1.2203471451e+000	-2.1705509565e+000
 4.7099592759e-001	 1.2250792163e+000	-2.2077240306e+000
 4.5884683790e-001	 1.2296811901e+000	-2.2182189665e+000
 4.4667903086e-001	 1.2341531888e+000	-2.2020282180e+000
 4.3449448872e-001	 1.2384953731e+000	-2.1591650125e+000
 4.2229518151e-001	 1.2427079422e+000	-2.0896627454e+000
 4.1008306616e-001	 1.2467911328e+000	-1.9935743688e+000
 3.9786008567e-001	 1.2507452188e+000	-1.9207600637e+000
 3.8562816825e-001	 1.2545705105e+000	-2.0273553026e+000
 3.7338922657e-001	 1.2582673545e+000	-2.0988856010e+000
 3.6114515698e-001	 1.2618361326e+000	-2.1351682000e+000
 4.8542489825e-001	 1.2261583220e+000	-2.0099698420e+000
 4.7323876534e-001	 1.2309129268e+000	-1.9974656303e+000
 4.6103182285e-001	 1.2355368148e+000	-1.9619834556e+000
 4.4880607386e-001	 1.2400301087e+000	-1.9035985280e+000
 4.3656351010e-001	 1.2443929701e+000	-1.8224023634e+000
 4.2430611095e-001	 1.2486255991e+000	-1.7185021613e+000
 4.1203584267e-001	 1.2527282334e+000	-1.7743667318e+000
 3.9975465750e-001	 1.2567011484e+000	-1.8913000066e+000
 3.8746449286e-001	 1.2605446558e+000	-1.9773362432e+000
 3.7516727051e-001	 1.2642591038e+000	-2.0322994260e+000
 3.6286489582e-001	 1.2678448761e+000	-2.0560507244e+000
 4.8772549019e-001	 1.2319694989e+000	-1.8404921993e+000
 4.7548160310e-001	 1.2367466374e+000	-1.7798081457e+000
 4.6321680779e-001	 1.2413924395e+000	-1.6998094711e+000
 4.5093311687e-001	 1.2459070287e+000	-1.6006537840e+000
 4.3863253147e-001	 1.2502905672e+000	-1.5018922425e+000
 4.2631704039e-001	 1.2545432560e+000	-1.6491360372e+000
 4.1398861918e-001	 1.2586653341e+000	-1.7697426442e+000
 4.0164922934e-001	 1.2626570780e+000	-1.8635168740e+000
 3.8930081747e-001	 1.2665188011e+000	-1.9302970260e+000
 3.7694531445e-001	 1.2702508532e+000	-1.9699547475e+000
 3.6458463467e-001	 1.2738536196e+000	-1.9823948422e+000
 4.9002608213e-001	 1.2377806758e+000	-1.6622625865e+000
 4.7772444085e-001	 1.2425803479e+000	-1.5548735853e+000
 4.6540179274e-001	 1.2472480643e+000	-1.4317970079e+000
 4.5306015988e-001	 1.2517839486e+000	-1.4120873206e+000
 4.4070155285e-001	 1.2561881642e+000	-1.5526426480e+000
 4.2832796983e-001	 1.2604609128e+000	-1.6704859327e+000
 4.1594139569e-001	 1.2646024347e+000	-1.7654478470e+000
 4.0354380118e-001	 1.2686130076e+000	-1.8373885982e+000
 3.9113714208e-001	 1.2724929464e+000	-1.8861978484e+000
 3.7872335839e-001	 1.2762426025e+000	-1.9117945878e+000
 3.6630437351e-001	 1.2798623631e+000	-1.9141269647e+000
 4.9232667407e-001	 1.2435918526e+000	-1.4754231241e+000
 4.7996727860e-001	 1.2484140585e+000	-1.3227819315e+000
 4.6758677768e-001	 1.2531036890e+000	-1.3642997488e+000
 4.5518720288e-001	 1.2576608686e+000	-1.4921016966e+000
 4.4277057423e-001	 1.2620857612e+000	-1.6009850940e+000
 4.3033889926e-001	 1.2663785697e+000	-1.6908141062e+000
 4.1789417219e-001	 1.2705395353e+000	-1.7614784455e+000
 4.0543837302e-001	 1.2745689372e+000	-1.8128933430e+000
 3.9297346670e-001	 1.2784670917e+000	-1.8449994785e+000
 3.8050140232e-001	 1.2822343518e+000	-1.8577628699e+000
 3.6802411235e-001	 1.2858711066e+000	-1.8511747220e+000
 4.9462726600e-001	 1.2494030295e+000	-1.2801135520e+000
 4.8221011635e-001	 1.2542477690e+000	-1.3651102131e+000
 4.6977176262e-001	 1.2589593137e+000	-1.4743561612e+000
 4.5731424589e-001	 1.2635377885e+000	-1.5683351230e+000
 4.4483959560e-001	 1.2679833582e+000	-1.6469523617e+000
 4.3234982870e-001	 1.2722962266e+000	-1.7101346786e+000
 4.1984694870e-001	 1.2764766360e+000	-1.7578304288e+000
 4.0733294486e-001	 1.2805248668e+000	-1.7900094977e+000
 3.9480979131e-001	 1.2844412370e+000	-1.8066632424e+000
 3.8227944626e-001	 1.2882261011e+000	-1.8078043958e+000
 3.6974385120e-001	 1.2918798501e+000	-1.7934669349e+000
 4.9692785794e-001	 1.2552142064e+000	-1.4207031108e+000
 4.8445295410e-001	 1.2600814796e+000	-1.5058644178e+000
 4.7195674757e-001	 1.2648149384e+000	-1.5792582032e+000
 4.5944128889e-001	 1.2694147085e+000	-1.6408383890e+000
 4.4690861698e-001	 1.2738809552e+000	-1.6905764201e+000
 4.3436075813e-001	 1.2782138834e+000	-1.7284613130e+000
 4.2179972520e-001	 1.2824137366e+000	-1.7544996721e+000
 4.0922751669e-001	 1.2864807964e+000	-1.7687156724e+000
 3.9664611592e-001	 1.2904153822e+000	-1.7711510112e+000
 3.8405749020e-001	 1.2942178504e+000	-1.7618648268e+000
 3.7146359004e-001	 1.2978885936e+000	-1.7409335873e+000
 4.9922844987e-001	 1.2610253833e+000	-1.5926879907e+000
 4.8669579185e-001	 1.2659151902e+000	-1.6400912965e+000
 4.7414173251e-001	 1.2706705631e+000	-1.6790744796e+000
 4.6156833189e-001	 1.2752916284e+000	-1.7096611349e+000
 4.4897763835e-001	 1.2797785522e+000	-1.7318884449e+000
 4.3637168757e-001	 1.2841315403e+000	-1.7458072248e+000
 4.2375250171e-001	 1.2883508372e+000	-1.7514819396e+000
 4.1112208853e-001	 1.2924367260e+000	-1.7489906928e+000
 3.9848244053e-001	 1.2963895275e+000	-1.7384251880e+000
 3.8583553413e-001	 1.3002095997e+000	-1.7198906632e+000
 3.7318332888e-001	 1.3038973370e+000	-1.6935057989e+000
 5.0152904180e-001	 1.2668365602e+000	-1.7567739341e+000
 4.8893862960e-001	 1.2717489007e+000	-1.7678770681e+000
 4.7632671745e-001	 1.2765261878e+000	-1.7738721158e+000
 4.6369537490e-001	 1.2811685483e+000	-1.7748518782e+000
 4.5104665972e-001	 1.2856761492e+000	-1.7709188364e+000
 4.3838261700e-001	 1.2900491972e+000	-1.7621851925e+000
 4.2570527821e-001	 1.2942879379e+000	-1.7487728872e+000
 4.1301666036e-001	 1.2983926557e+000	-1.7308135951e+000
 4.0031876514e-001	 1.3023636728e+000	-1.7084486962e+000
 3.8761357806e-001	 1.3062013490e+000	-1.6818292255e+000
 3.7490306772e-001	 1.3099060805e+000	-1.6511157999e+000
 5.0382963374e-001	 1.2726477371e+000	-1.9130645646e+000
 4.9118146735e-001	 1.2775826113e+000	-1.8893061485e+000
 4.7851170239e-001	 1.2823818125e+000	-1.8637167914e+000
 4.6582241790e-001	 1.2870454683e+000	-1.8364580394e+000
 4.5311568109e-001	 1.2915737463e+000	-1.8076972376e+000
 4.4039354643e-001	 1.2959668540e+000	-1.7776075672e+000
 4.2765805471e-001	 1.3002250385e+000	-1.7463680645e+000
 4.1491123220e-001	 1.3043485853e+000	-1.7141636213e+000
 4.0215508974e-001	 1.3083378181e+000	-1.6811849676e+000
 3.8939162200e-001	 1.3121930983e+000	-1.6476286353e+000
 3.7662280657e-001	 1.3159148240e+000	-1.6136969051e+000
 5.0613022567e-001	 1.2784589139e+000	-2.0616613857e+000
 4.9342430510e-001	 1.2834163218e+000	-2.0044611915e+000
 4.8069668732e-001	 1.2882374373e+000	-1.9486727736e+000
 4.6794946090e-001	 1.2929223882e+000	-1.8945259669e+000
 4.5518470246e-001	 1.2974713433e+000	-1.8422525509e+000
 4.4240447586e-001	 1.3018845109e+000	-1.7920862827e+000
 4.2961083122e-001	 1.3061621391e+000	-1.7442629174e+000
 4.1680580403e-001	 1.3103045149e+000	-1.6990202146e+000
 4.0399141435e-001	 1.3143119634e+000	-1.6565979304e+000
 3.9116966593e-001	 1.3181848476e+000	-1.6172377973e+000
 3.7834254541e-001	 1.3219235675e+000	-1.5811834895e+000
 3.6114515698e-001	 1.2618361326e+000	-2.1351682000e+000
 3.4889783870e-001	 1.2652772614e+000	-2.1742145267e+000
 3.3664913319e-001	 1.2685911915e+000	-2.2049000586e+000
 3.2440088334e-001	 1.2717784072e+000	-2.2272303639e+000
 3.1215491287e-001	 1.2748394253e+000	-2.2412257346e+000
 2.9991302564e-001	 1.2777747951e+000	-2.2469210692e+000
 2.8767700503e-001	 1.2805850971e+000	-2.2443657289e+000
 2.7544861332e-001	 1.2832709423e+000	-2.2336233686e+000
 2.6322959115e-001	 1.2858329722e+000	-2.2147717438e+000
 2.5102165691e-001	 1.2882718571e+000	-2.1879024939e+000
 2.3882650627e-001	 1.2905882961e+000	-2.1531209027e+000
 3.6286489582e-001	 1.2678448761e+000	-2.0560507244e+000
 3.5055925699e-001	 1.2713023912e+000	-2.0896655464e+000
 3.3825222430e-001	 1.2746321019e+000	-2.1158018165e+000
 3.2594564945e-001	 1.2778344948e+000	-2.1344510161e+000
 3.1364136484e-001	 1.2809100893e+000	-2.1456189659e+000
 3.0134118291e-001	 1.2838594370e+000	-2.1493257313e+000
 2.8904689553e-001	 1.2866831213e+000	-2.1456055011e+000
 2.7676027338e-001	 1.2893817563e+000	-2.1345064420e+000
 2.6448306539e-001	 1.2919559863e+000	-2.1160905272e+000
 2.5221699813e-001	 1.2944064850e+000	-2.0904333418e+000
 2.3996377535e-001	 1.2967339546e+000	-2.0576238656e+000
 3.6458463467e-001	 1.2738536196e+000	-1.9823948422e+000
 3.5222067527e-001	 1.2773275210e+000	-2.0105053891e+000
 3.3985531541e-001	 1.2806730124e+000	-2.0320109322e+000
 3.2749041557e-001	 1.2838905825e+000	-2.0468889247e+000
 3.1512781680e-001	 1.2869807532e+000	-2.0551307796e+000
 3.0276934017e-001	 1.2899440789e+000	-2.0567417986e+000
 2.9041678603e-001	 1.2927811456e+000	-2.0517410730e+000
 2.7807193345e-001	 1.2954925704e+000	-2.0401613608e+000
 2.6573653963e-001	 1.2980790005e+000	-2.0220489376e+000
 2.5341233936e-001	 1.3005411129e+000	-1.9974634240e+000
 2.4110104443e-001	 1.3028796132e+000	-1.9664775902e+000
 3.6630437351e-001	 1.2798623631e+000	-1.9141269647e+000
 3.5388209355e-001	 1.2833526508e+000	-1.9366620416e+000
 3.4145840653e-001	 1.2867139228e+000	-1.9534570670e+000
 3.2903518168e-001	 1.2899466701e+000	-1.9644755224e+000
 3.1661426877e-001	 1.2930514171e+000	-1.9696944757e+000
 3.0419749744e-001	 1.2960287208e+000	-1.9691045321e+000
 2.9178667653e-001	 1.2988791699e+000	-1.9627097584e+000
 2.7938359351e-001	 1.3016033844e+000	-1.9505275817e+000
 2.6699001388e-001	 1.3042020147e+000	-1.9325886629e+000
 2.5460768058e-001	 1.3066757408e+000	-1.9089367462e+000
 2.4223831351e-001	 1.3090252717e+000	-1.8796284846e+000
 3.6802411235e-001	 1.2858711066e+000	-1.8511747220e+000
 3.5554351183e-001	 1.2893777806e+000	-1.8680646882e+000
 3.4306149764e-001	 1.2927548332e+000	-1.8800710561e+000
 3.3057994779e-001	 1.2960027578e+000	-1.8871433908e+000
 3.1810072074e-001	 1.2991220811e+000	-1.8892444753e+000
 3.0562565470e-001	 1.3021133627e+000	-1.8863502845e+000
 2.9315656703e-001	 1.3049771942e+000	-1.8784499314e+000
 2.8069525358e-001	 1.3077141984e+000	-1.8655455886e+000
 2.6824348812e-001	 1.3103250288e+000	-1.8476523836e+000
 2.5580302181e-001	 1.3128103687e+000	-1.8247982699e+000
 2.4337558258e-001	 1.3151709303e+000	-1.7970238741e+000
 3.6974385120e-001	 1.2918798501e+000	-1.7934669349e+000
 3.5720493011e-001	 1.2954029105e+000	-1.8046436828e+000
 3.4466458875e-001	 1.2987957437e+000	-1.8117848814e+000
 3.3212471390e-001	 1.3020588454e+000	-1.8148262329e+000
 3.1958717271e-001	 1.3051927450e+000	-1.8137162945e+000
 3.0705381197e-001	 1.3081980045e+000	-1.8084164745e+000
 2.9452645753e-001	 1.3110752184e+000	-1.7989010019e+000
 2.8200691364e-001	 1.3138250124e+000	-1.7851568691e+000
 2.6949696237e-001	 1.3164480430e+000	-1.7671837494e+000
 2.5699836303e-001	 1.3189449966e+000	-1.7449938898e+000
 2.4451285166e-001	 1.3213165888e+000	-1.7186119797e+000
 3.7146359004e-001	 1.2978885936e+000	-1.7409335873e+000
 3.5886634839e-001	 1.3014280403e+000	-1.7463305215e+000
 3.4626767986e-001	 1.3048366541e+000	-1.7485316447e+000
 3.3366948001e-001	 1.3081149331e+000	-1.7474588476e+000
 3.2107362467e-001	 1.3112634089e+000	-1.7430465187e+000
 3.0848196923e-001	 1.3142826464e+000	-1.7352415627e+000
 2.9589634803e-001	 1.3171732427e+000	-1.7240033917e+000
 2.8331857370e-001	 1.3199358264e+000	-1.7093038907e+000
 2.7075043661e-001	 1.3225710571e+000	-1.6911273568e+000
 2.5819370425e-001	 1.3250796245e+000	-1.6694704128e+000
 2.4565012074e-001	 1.3274622474e+000	-1.6443418979e+000
 3.7318332888e-001	 1.3038973370e+000	-1.6935057989e+000
 3.6052776667e-001	 1.3074531701e+000	-1.6930578169e+000
 3.4787077097e-001	 1.3108775646e+000	-1.6902455420e+000
 3.3521424613e-001	 1.3141710207e+000	-1.6849771041e+000
 3.2256007664e-001	 1.3173340729e+000	-1.6771727786e+000
 3.0991012650e-001	 1.3203672883e+000	-1.6667650270e+000
 2.9726623853e-001	 1.3232712670e+000	-1.6536985109e+000
 2.8463023377e-001	 1.3260466404e+000	-1.6379300790e+000
 2.7200391085e-001	 1.3286940713e+000	-1.6194287275e+000
 2.5938904548e-001	 1.3312142523e+000	-1.5981755364e+000
 2.4678738982e-001	 1.3336079059e+000	-1.5741635797e+000
 3.7490306772e-001	 1.3099060805e+000	-1.6511157999e+000
 3.6218918495e-001	 1.3134782999e+000	-1.6447592718e+000
 3.4947386208e-001	 1.3169184750e+000	-1.6368618386e+000
 3.3675901224e-001	 1.3202271084e+000	-1.6273179178e+000
 3.2404652861e-001	 1.3234047368e+000	-1.6160337255e+000
 3.1133828377e-001	 1.3264519302e+000	-1.6029273397e+000
 2.9863612903e-001	 1.3293692912e+000	-1.5879287356e+000
 2.8594189383e-001	 1.3321574544e+000	-1.5709797947e+000
 2.7325738510e-001	 1.3348170854e+000	-1.5520342872e+000
 2.6058438670e-001	 1.3373488802e+000	-1.5310578286e+000
 2.4792465889e-001	 1.3397535645e+000	-1.5080278119e+000
 3.7662280657e-001	 1.3159148240e+000	-1.6136969051e+000
 3.6385060323e-001	 1.3195034297e+000	-1.6013696550e+000
 3.5107695319e-001	 1.3229593854e+000	-1.5883168444e+000
 3.3830377835e-001	 1.3262831960e+000	-1.5744192258e+000
 3.2553298057e-001	 1.3294754007e+000	-1.5595690086e+000
 3.1276644103e-001	 1.3325365721e+000	-1.5436699446e+000
 3.0000601953e-001	 1.3354673155e+000	-1.5266373854e+000
 2.8725355389e-001	 1.3382682684e+000	-1.5083983132e+000
 2.7451085934e-001	 1.3409400996e+000	-1.4888913445e+000
 2.6177972792e-001	 1.3434835081e+000	-1.4680667080e+000
 2.4906192797e-001	 1.3458992230e+000	-1.4458861974e+000
 3.7834254541e-001	 1.3219235675e+000	-1.5811834895e+000
 3.6551202150e-001	 1.3255285595e+000	-1.5628247763e+000
 3.5268004430e-001	 1.3290002958e+000	-1.5445478904e+000
 3.3984854446e-001	 1.3323392837e+000	-1.5262199644e+000
 3.2701943254e-001	 1.3355460646e+000	-1.5077192521e+000
 3.1419459830e-001	 1.3386212140e+000	-1.4889352350e+000
 3.0137591003e-001	 1.3415653398e+000	-1.4697687025e+000
 2.8856521396e-001	 1.3443790825e+000	-1.4501318034e+000
 2.7576433358e-001	 1.3470631137e+000	-1.4299480715e+000
 2.6297506915e-001	 1.3496181360e+000	-1.4091524244e+000
 2.5019919705e-001	 1.3520448816e+000	-1.3876911368e+000
 2.3882650627e-001	 1.2905882961e+000	-2.1531209027e+000
 2.2664581165e-001	 1.2927830158e+000	-2.1368169160e+000
 2.1448122171e-001	 1.2948567703e+000	-2.1184495934e+000
 2.0233436097e-001	 1.2968103394e+000	-2.0982457719e+000
 1.9020682933e-001	 1.2986445288e+000	-2.0764383941e+000
 1.7810020169e-001	 1.3003601686e+000	-2.0532662232e+000
 1.6601602758e-001	 1.3019581132e+000	-2.0289735467e+000
 1.5395583079e-001	 1.3034392399e+000	-2.0038098718e+000
 1.4192110907e-001	 1.3048044485e+000	-1.9780296118e+000
 1.2991333379e-001	 1.3060546603e+000	-1.9518917656e+000
 1.1793394972e-001	 1.3071908176e+000	-1.9256595901e+000
 2.3996377535e-001	 1.2967339546e+000	-2.0576238656e+000
 2.2772507742e-001	 1.2989391255e+000	-2.0460498422e+000
 2.1550256086e-001	 1.3010227549e+000	-2.0322189223e+000
 2.0329785792e-001	 1.3029856267e+000	-2.0163409504e+000
 1.9111257613e-001	 1.3048285503e+000	-1.9986324936e+000
 1.7894829789e-001	 1.3065523599e+000	-1.9793165592e+000
 1.6680658009e-001	 1.3081579138e+000	-1.9586223025e+000
 1.5468895380e-001	 1.3096460934e+000	-1.9367847234e+000
 1.4259692387e-001	 1.3110178030e+000	-1.9140443543e+000
 1.3053196871e-001	 1.3122739682e+000	-1.8906469394e+000
 1.1849553996e-001	 1.3134155357e+000	-1.8668431067e+000
 2.4110104443e-001	 1.3028796132e+000	-1.9664775902e+000
 2.2880434318e-001	 1.3050952351e+000	-1.9593113417e+000
 2.1652390001e-001	 1.3071887395e+000	-1.9496958520e+000
 2.0426135488e-001	 1.3091609141e+000	-1.9378240643e+000
 1.9201832294e-001	 1.3110125719e+000	-1.9238962596e+000
 1.7979639409e-001	 1.3127445512e+000	-1.9081197789e+000
 1.6759713261e-001	 1.3143577143e+000	-1.8907087333e+000
 1.5542207680e-001	 1.3158529470e+000	-1.8718837029e+000
 1.4327273867e-001	 1.3172311575e+000	-1.8518714254e+000
 1.3115060363e-001	 1.3184932761e+000	-1.8309044762e+000
 1.1905713019e-001	 1.3196402539e+000	-1.8092209385e+000
 2.4223831351e-001	 1.3090252717e+000	-1.8796284846e+000
 2.2988360895e-001	 1.3112513447e+000	-1.8765526418e+000
 2.1754523916e-001	 1.3133547241e+000	-1.8708363822e+000
 2.0522485184e-001	 1.3153362014e+000	-1.8626558362e+000
 1.9292406975e-001	 1.3171965935e+000	-1.8521950875e+000
 1.8064449029e-001	 1.3189367425e+000	-1.8396458982e+000
 1.6838768512e-001	 1.3205575148e+000	-1.8252074220e+000
 1.5615519980e-001	 1.3220598005e+000	-1.8090859050e+000
 1.4394855348e-001	 1.3234445120e+000	-1.7914943757e+000
 1.3176923855e-001	 1.3247125840e+000	-1.7726523241e+000
 1.1961872043e-001	 1.3258649721e+000	-1.7527853725e+000
 2.4337558258e-001	 1.3151709303e+000	-1.7970238741e+000
 2.3096287472e-001	 1.3174074543e+000	-1.7977258034e+000
 2.1856657831e-001	 1.3195207088e+000	-1.7955972625e+000
 2.0618834879e-001	 1.3215114887e+000	-1.7907976568e+000
 1.9382981655e-001	 1.3233806150e+000	-1.7834949590e+000
 1.8149258648e-001	 1.3251289338e+000	-1.7738654383e+000
 1.6917823763e-001	 1.3267573154e+000	-1.7620933765e+000
 1.5688832280e-001	 1.3282666540e+000	-1.7483707704e+000
 1.4462436828e-001	 1.3296578666e+000	-1.7328970226e+000
 1.3238787348e-001	 1.3309318919e+000	-1.7158786209e+000
 1.2018031067e-001	 1.3320896903e+000	-1.6975288083e+000
 2.4451285166e-001	 1.3213165888e+000	-1.7186119797e+000
 2.3204214049e-001	 1.3235635639e+000	-1.7227837012e+000
 2.1958791746e-001	 1.3256866934e+000	-1.7239359755e+000
 2.0715184575e-001	 1.3276867761e+000	-1.7222115687e+000
 1.9473556336e-001	 1.3295646366e+000	-1.7177624277e+000
 1.8234068268e-001	 1.3313211250e+000	-1.7107494136e+000
 1.6996879014e-001	 1.3329571159e+000	-1.7013420199e+000
 1.5762144581e-001	 1.3344735075e+000	-1.6897180771e+000
 1.4530018309e-001	 1.3358712211e+000	-1.6760634445e+000
 1.3300650840e-001	 1.3371511998e+000	-1.6605716893e+000
 1.2074190090e-001	 1.3383144085e+000	-1.6434437556e+000
 2.4565012074e-001	 1.3274622474e+000	-1.6443418979e+000
 2.3312140626e-001	 1.3297196735e+000	-1.6516800051e+000
 2.2060925661e-001	 1.3318526780e+000	-1.6558107194e+000
 2.0811534270e-001	 1.3338620634e+000	-1.6568602516e+000
 1.9564131016e-001	 1.3357486582e+000	-1.6549646066e+000
 1.8318877888e-001	 1.3375133163e+000	-1.6502693202e+000
 1.7075934265e-001	 1.3391569165e+000	-1.6429291802e+000
 1.5835456881e-001	 1.3406803611e+000	-1.6331079328e+000
 1.4597599789e-001	 1.3420845756e+000	-1.6209779747e+000
 1.3362514332e-001	 1.3433705078e+000	-1.6067200327e+000
 1.2130349114e-001	 1.3445391266e+000	-1.5905228318e+000
 2.4678738982e-001	 1.3336079059e+000	-1.5741635797e+000
 2.3420067203e-001	 1.3358757831e+000	-1.5843691618e+000
 2.2163059576e-001	 1.3380186626e+000	-1.5911803917e+000
 2.0907883966e-001	 1.3400373507e+000	-1.5947070077e+000
 1.9654705697e-001	 1.3419326797e+000	-1.5950691548e+000
 1.8403687508e-001	 1.3437055076e+000	-1.5923971252e+000
 1.7154989516e-001	 1.3453567170e+000	-1.5868310821e+000
 1.5908769181e-001	 1.3468872146e+000	-1.5785207673e+000
 1.4665181269e-001	 1.3482979301e+000	-1.5676251951e+000
 1.3424377824e-001	 1.3495898157e+000	-1.5543123311e+000
 1.2186508137e-001	 1.3507638448e+000	-1.5387587590e+000
 2.4792465889e-001	 1.3397535645e+000	-1.5080278119e+000
 2.3527993780e-001	 1.3420318927e+000	-1.5208063769e+000
 2.2265193491e-001	 1.3441846473e+000	-1.5300045731e+000
 2.1004233662e-001	 1.3462126381e+000	-1.5357157474e+000
 1.9745280377e-001	 1.3481167013e+000	-1.5380442653e+000
 1.8488497127e-001	 1.3498976989e+000	-1.5371052557e+000
 1.7234044767e-001	 1.3515565176e+000	-1.5330243367e+000
 1.5982081481e-001	 1.3530940681e+000	-1.5259373252e+000
 1.4732762750e-001	 1.3545112846e+000	-1.5159899312e+000
 1.3486241316e-001	 1.3558091236e+000	-1.5033374369e+000
 1.2242667161e-001	 1.3569885630e+000	-1.4881443623e+000
 2.4906192797e-001	 1.3458992230e+000	-1.4458861974e+000
 2.3635920357e-001	 1.3481880023e+000	-1.4609475977e+000
 2.2367327406e-001	 1.3503506319e+000	-1.4722435120e+000
 2.1100583357e-001	 1.3523879254e+000	-1.4798509751e+000
 1.9835855058e-001	 1.3543007229e+000	-1.4838586525e+000
 1.8573306747e-001	 1.3560898902e+000	-1.4843665881e+000
 1.7313100018e-001	 1.3577563181e+000	-1.4814859335e+000
 1.6055393782e-001	 1.3593009216e+000	-1.4753386584e+000
 1.4800344230e-001	 1.3607246392e+000	-1.4660572459e+000
 1.3548104808e-001	 1.3620284315e+000	-1.4537843713e+000
 1.2298826185e-001	 1.3632132812e+000	-1.4386725667e+000
 2.5019919705e-001	 1.3520448816e+000	-1.3876911368e+000
 2.3743846934e-001	 1.3543441119e+000	-1.4047494965e+000
 2.2469461321e-001	 1.3565166165e+000	-1.4178581093e+000
 2.1196933053e-001	 1.3585632127e+000	-1.4270777762e+000
 1.9926429738e-001	 1.3604847444e+000	-1.4324815403e+000
 1.8658116367e-001	 1.3622820814e+000	-1.4341544382e+000
 1.7392155269e-001	 1.3639561186e+000	-1.4321932316e+000
 1.6128706082e-001	 1.3655077752e+000	-1.4267061197e+000
 1.4867925710e-001	 1.3669379937e+000	-1.4178124346e+000
 1.3609968301e-001	 1.3682477394e+000	-1.4056423201e+000
 1.2354985208e-001	 1.3694379994e+000	-1.3903363954e+000
 1.1793394972e-001	 1.3071908176e+000	-1.9256595901e+000
 1.0598437475e-001	 1.3082138825e+000	-1.9315532992e+000
 9.4065999634e-002	 1.3091248366e+000	-1.9344875990e+000
 8.2180187841e-002	 1.3099246798e+000	-1.9346540496e+000
 7.0328275335e-002	 1.3106144298e+000	-1.9322514951e+000
 5.8511570427e-002	 1.3111951213e+000	-1.9274856903e+000
 4.6731353646e-002	 1.3116678050e+000	-1.9205689212e+000
 3.4988877616e-002	 1.3120335470e+000	-1.9117196199e+000
 2.3285366970e-002	 1.3122934282e+000	-1.9011619768e+000
 1.1622018280e-002	 1.3124485433e+000	-1.8891255476e+000
 0.0000000000e+000	 1.3125000000e+000	-1.8758448595e+000
 1.1849553996e-001	 1.3134155357e+000	-1.8668431067e+000
 1.0648906225e-001	 1.3144434724e+000	-1.8729414805e+000
 9.4513932965e-002	 1.3153587644e+000	-1.8760516142e+000
 8.2571522069e-002	 1.3161624164e+000	-1.8763687675e+000
 7.0663171883e-002	 1.3168554509e+000	-1.8740955545e+000
 5.8790196953e-002	 1.3174389076e+000	-1.8694415655e+000
 4.6953883901e-002	 1.3179138421e+000	-1.8626229812e+000
 3.5155491318e-002	 1.3182813258e+000	-1.8538621835e+000
 2.3396249670e-002	 1.3185424445e+000	-1.8433873603e+000
 1.1677361224e-002	 1.3186982982e+000	-1.8314321086e+000
 0.0000000000e+000	 1.3187500000e+000	-1.8182350345e+000
 1.1905713019e-001	 1.3196402539e+000	-1.8092209385e+000
 1.0699374974e-001	 1.3206730623e+000	-1.8155613946e+000
 9.4961866296e-002	 1.3215926922e+000	-1.8188829341e+000
 8.2962856296e-002	 1.3224001529e+000	-1.8193845049e+000
 7.0998068432e-002	 1.3230964720e+000	-1.8172724826e+000
 5.9068823478e-002	 1.3236826939e+000	-1.8127602860e+000
 4.7176414156e-002	 1.3241598793e+000	-1.8060679870e+000
 3.5322105021e-002	 1.3245291046e+000	-1.7974219146e+000
 2.3507132370e-002	 1.3247914608e+000	-1.7870542554e+000
 1.1732704168e-002	 1.3249480532e+000	-1.7752026499e+000
 0.0000000000e+000	 1.3250000000e+000	-1.7621097875e+000
 1.1961872043e-001	 1.3258649721e+000	-1.7527853725e+000
 1.0749843724e-001	 1.3269026522e+000	-1.7594047694e+000
 9.5409799627e-002	 1.3278266199e+000	-1.7629727216e+000
 8.3354190523e-002	 1.3286378895e+000	-1.7636918540e+000
 7.1332964981e-002	 1.3293374931e+000	-1.7617722948e+000
 5.9347450004e-002	 1.3299264802e+000	-1.7574312855e+000
 4.7398944411e-002	 1.3304059165e+000	-1.7508927849e+000
 3.5488718724e-002	 1.3307768834e+000	-1.7423870679e+000
 2.3618015070e-002	 1.3310404772e+000	-1.7321503198e+000
 1.1788047112e-002	 1.3311978082e+000	-1.7204242276e+000
 0.0000000000e+000	 1.3312500000e+000	-1.7074555691e+000
 1.2018031067e-001	 1.3320896903e+000	-1.6975288083e+000
 1.0800312474e-001	 1.3331322421e+000	-1.7044634602e+000
 9.5857732958e-002	 1.3340605477e+000	-1.7083122814e+000
 8.3745524751e-002	 1.3348756261e+000	-1.7092815630e+000
 7.1667861530e-002	 1.3355785142e+000	-1.7075851772e+000
 5.9626076529e-002	 1.3361702665e+000	-1.7034441823e+000
 4.7621474667e-002	 1.3366519536e+000	-1.6970864201e+000
 3.5655332427e-002	 1.3370246622e+000	-1.6887461101e+000
 2.3728897769e-002	 1.3372894935e+000	-1.6786634372e+000
 1.1843390056e-002	 1.3374475631e+000	-1.6670841379e+000
 0.0000000000e+000	 1.3375000000e+000	-1.6542590834e+000
 1.2074190090e-001	 1.3383144085e+000	-1.6434437556e+000
 1.0850781224e-001	 1.3393618321e+000	-1.6507294467e+000
 9.6305666289e-002	 1.3402944755e+000	-1.6548930567e+000
 8.4136858978e-002	 1.3411133626e+000	-1.6561445325e+000
 7.2002758079e-002	 1.3418195353e+000	-1.6547014822e+000
 5.9904703055e-002	 1.3424140528e+000	-1.6507887746e+000
 4.7844004922e-002	 1.3428979908e+000	-1.6446381316e+000
 3.5821946129e-002	 1.3432724410e+000	-1.6364877156e+000
 2.3839780469e-002	 1.3435385098e+000	-1.6265817124e+000
 1.1898733000e-002	 1.3436973181e+000	-1.6151699112e+000
 0.0000000000e+000	 1.3437500000e+000	-1.6025072819e+000
 1.2130349114e-001	 1.3445391266e+000	-1.5905228318e+000
 1.0901249974e-001	 1.3455914220e+000	-1.5981948297e+000
 9.6753599620e-002	 1.3465284033e+000	-1.6027066259e+000
 8.4528193205e-002	 1.3473510992e+000	-1.6042718121e+000
 7.2337654627e-002	 1.3480605564e+000	-1.6031117245e+000
 6.0183329580e-002	 1.3486578391e+000	-1.5994550369e+000
 4.8066535177e-002	 1.3491440280e+000	-1.5935373477e+000
 3.5988559832e-002	 1.3495202198e+000	-1.5856007613e+000
 2.3950663169e-002	 1.3497875261e+000	-1.5758934658e+000
 1.1954075944e-002	 1.3499470731e+000	-1.5646693064e+000
 0.0000000000e+000	 1.3500000000e+000	-1.5521873574e+000
 1.2186508137e-001	 1.3507638448e+000	-1.5387587590e+000
 1.0951718723e-001	 1.3518210119e+000	-1.5468518290e+000
 9.7201532950e-002	 1.3527623311e+000	-1.5517446995e+000
 8.4919527432e-002	 1.3535888358e+000	-1.5536545971e+000
 7.2672551176e-002	 1.3543015775e+000	-1.5528065780e+000
 6.0461956106e-002	 1.3549016253e+000	-1.5494331156e+000
 4.8289065432e-002	 1.3553900651e+000	-1.5437736818e+000
 3.6155173535e-002	 1.3557679986e+000	-1.5360743224e+000
 2.4061545869e-002	 1.3560365425e+000	-1.5265872289e+000
 1.2009418889e-002	 1.3561968280e+000	-1.5155703063e+000
 0.0000000000e+000	 1.3562500000e+000	-1.5032867392e+000
 1.2242667161e-001	 1.3569885630e+000	-1.4881443623e+000
 1.1002187473e-001	 1.3580506018e+000	-1.4966927799e+000
 9.7649466281e-002	 1.3589962589e+000	-1.5019991170e+000
 8.5310861660e-002	 1.3598265724e+000	-1.5042842246e+000
 7.3007447725e-002	 1.3605425986e+000	-1.5037768714e+000
 6.0740582631e-002	 1.3611454116e+000	-1.5007133251e+000
 4.8511595687e-002	 1.3616361023e+000	-1.4953369280e+000
 3.6321787238e-002	 1.3620157774e+000	-1.4878976670e+000
 2.4172428568e-002	 1.3622855588e+000	-1.4786517387e+000
 1.2064761833e-002	 1.3624465830e+000	-1.4678611118e+000
 0.0000000000e+000	 1.3625000000e+000	-1.4557930870e+000
 1.2298826185e-001	 1.3632132812e+000	-1.4386725667e+000
 1.1052656223e-001	 1.3642801917e+000	-1.4477101314e+000
 9.8097399612e-002	 1.3652301867e+000	-1.4534618442e+000
 8.5702195887e-002	 1.3660643089e+000	-1.4561521710e+000
 7.3342344274e-002	 1.3667836197e+000	-1.4560135852e+000
 6.1019209157e-002	 1.3673891979e+000	-1.4532861439e+000
 4.8734125943e-002	 1.3678821395e+000	-1.4482170574e+000
 3.6488400940e-002	 1.3682635562e+000	-1.4410602528e+000
 2.4283311268e-002	 1.3685345751e+000	-1.4320759338e+000
 1.2120104777e-002	 1.3686963380e+000	-1.4215301372e+000
 0.0000000000e+000	 1.3687500000e+000	-1.4096942859e+000
 1.2354985208e-001	 1.3694379994e+000	-1.3903363954e+000
 1.1103124973e-001	 1.3705097817e+000	-1.3998964428e+000
 9.8545332943e-002	 1.3714641145e+000	-1.4061249702e+000
 8.6093530114e-002	 1.3723020455e+000	-1.4092500482e+000
 7.3677240822e-002	 1.3730246408e+000	-1.4095078481e+000
 6.1297835682e-002	 1.3736329842e+000	-1.4071422113e+000
 4.8956656198e-002	 1.3741281766e+000	-1.4024042133e+000
 3.6655014643e-002	 1.3745113349e+000	-1.3955517217e+000
 2.4394193968e-002	 1.3747835914e+000	-1.3868489496e+000
 1.2175447721e-002	 1.3749460929e+000	-1.3765660054e+000
 0.0000000000e+000	 1.3750000000e+000	-1.3649784413e+000
 1.3750000000e+000	 0.0000000000e+000	 3.6410080656e+000
 1.3749460929e+000	 1.2175447721e-002	 3.6551831332e+000
 1.3747835914e+000	 2.4394193968e-002	 3.6643028103e+000
 1.3745113349e+000	 3.6655014643e-002	 3.6680456566e+000
 1.3741281766e+000	 4.8956656198e-002	 3.6661026721e+000
 1.3736329842e+000	 6.1297835682e-002	 3.6581779979e+000
 1.3730246408e+000	 7.3677240822e-002	 3.6439896083e+000
 1.3723020455e+000	 8.6093530114e-002	 3.6232699928e+000
 1.3714641145e+000	 9.8545332943e-002	 3.5957668264e+000
 1.3705097817e+000	 1.1103124973e-001	 3.5612436255e+000
 1.3694379994e+000	 1.2354985208e-001	 3.5194803887e+000
 1.3812500000e+000	 0.0000000000e+000	 3.6388221592e+000
 1.3811958479e+000	 1.2230790665e-002	 3.6529010080e+000
 1.3810326078e+000	 2.4505076668e-002	 3.6618735483e+000
 1.3807591137e+000	 3.6821628346e-002	 3.6654185713e+000
 1.3803742138e+000	 4.9179186453e-002	 3.6632275691e+000
 1.3798767705e+000	 6.1576462208e-002	 3.6550054430e+000
 1.3792656619e+000	 7.4012137371e-002	 3.6404712031e+000
 1.3785397821e+000	 8.6484864341e-002	 3.6193586571e+000
 1.3776980423e+000	 9.8993266274e-002	 3.5914170870e+000
 1.3767393716e+000	 1.1153593723e-001	 3.5564119113e+000
 1.3756627175e+000	 1.2411144232e-001	 3.5141253320e+000
 1.3875000000e+000	 0.0000000000e+000	 3.6377409887e+000
 1.3874456029e+000	 1.2286133609e-002	 3.6517973554e+000
 1.3872816241e+000	 2.4615959367e-002	 3.6606941886e+000
 1.3870068925e+000	 3.6988242049e-002	 3.6641104681e+000
 1.3866202510e+000	 4.9401716708e-002	 3.6617381383e+000
 1.3861205568e+000	 6.1855088734e-002	 3.6532828237e+000
 1.3855066830e+000	 7.4347033920e-002	 3.6384645355e+000
 1.3847775186e+000	 8.6876198569e-002	 3.6170183681e+000
 1.3839319701e+000	 9.9441199606e-002	 3.5886951817e+000
 1.3829689615e+000	 1.1204062472e-001	 3.5532622718e+000
 1.3818874357e+000	 1.2467303255e-001	 3.5105040209e+000
 1.3937500000e+000	 0.0000000000e+000	 3.6377447021e+000
 1.3936953578e+000	 1.2341476553e-002	 3.6518516023e+000
 1.3935306404e+000	 2.4726842067e-002	 3.6607434185e+000
 1.3932546713e+000	 3.7154855752e-002	 3.6640992770e+000
 1.3928662881e+000	 4.9624246964e-002	 3.6616115348e+000
 1.3923643431e+000	 6.2133715259e-002	 3.6529865022e+000
 1.3917477041e+000	 7.4681930469e-002	 3.6379451577e+000
 1.3910152552e+000	 8.7267532797e-002	 3.6162238505e+000
 1.3901658979e+000	 9.9889132937e-002	 3.5875749911e+000
 1.3891985514e+000	 1.1254531222e-001	 3.5517677262e+000
 1.3881121539e+000	 1.2523462279e-001	 3.5085885970e+000
 1.4000000000e+000	 0.0000000000e+000	 3.6388138022e+000
 1.3999451128e+000	 1.2396819498e-002	 3.6530435405e+000
 1.3997796567e+000	 2.4837724767e-002	 3.6620003008e+000
 1.3995024501e+000	 3.7321469455e-002	 3.6653633140e+000
 1.3991123253e+000	 4.9846777219e-002	 3.6628253097e+000
 1.3986081294e+000	 6.2412341785e-002	 3.6540932474e+000
 1.3979887252e+000	 7.5016827019e-002	 3.6388890385e+000
 1.3972529918e+000	 8.7658867025e-002	 3.6169502563e+000
 1.3963998257e+000	 1.0033706627e-001	 3.5880308331e+000
 1.3954281413e+000	 1.1304999972e-001	 3.5519017417e+000
 1.3943368721e+000	 1.2579621303e-001	 3.5083516602e+000
 1.4062500000e+000	 0.0000000000e+000	 3.6409291381e+000
 1.4061948678e+000	 1.2452162442e-002	 3.6553533185e+000
 1.4060286731e+000	 2.4948607467e-002	 3.6644442654e+000
 1.4057502289e+000	 3.7488083158e-002	 3.6678812721e+000
 1.4053583625e+000	 5.0069307475e-002	 3.6653574016e+000
 1.4048519157e+000	 6.2690968311e-002	 3.6565802257e+000
 1.4042297463e+000	 7.5351723568e-002	 3.6412725548e+000
 1.4034907284e+000	 8.8050201253e-002	 3.6191731553e+000
 1.4026337535e+000	 1.0078499960e-001	 3.5900374532e+000
 1.4016577312e+000	 1.1355468722e-001	 3.5536382230e+000
 1.4005615903e+000	 1.2635780327e-001	 3.5097662578e+000
 1.4125000000e+000	 0.0000000000e+000	 3.6440718982e+000
 1.4124446227e+000	 1.2507505386e-002	 3.6587614338e+000
 1.4122776894e+000	 2.5059490167e-002	 3.6680551011e+000
 1.4119980077e+000	 3.7654696861e-002	 3.6716322135e+000
 1.4116043996e+000	 5.0291837730e-002	 3.6691861279e+000
 1.4110957020e+000	 6.2969594837e-002	 3.6604249922e+000
 1.4104707673e+000	 7.5686620118e-002	 3.6450724819e+000
 1.4097284649e+000	 8.8441535482e-002	 3.6228685255e+000
 1.4088676813e+000	 1.0123293293e-001	 3.5935700155e+000
 1.4078873212e+000	 1.1405937472e-001	 3.5569515030e+000
 1.4067863084e+000	 1.2691939350e-001	 3.5128058751e+000
 1.4187500000e+000	 0.0000000000e+000	 3.6482236020e+000
 1.4186943777e+000	 1.2562848330e-002	 3.6632487252e+000
 1.4185267057e+000	 2.5170372867e-002	 3.6728129475e+000
 1.4182457865e+000	 3.7821310564e-002	 3.6765955607e+000
 1.4178504368e+000	 5.0514367986e-002	 3.6742901766e+000
 1.4173394883e+000	 6.3248221364e-002	 3.6656054822e+000
 1.4167117884e+000	 7.6021516668e-002	 3.6502659849e+000
 1.4159662015e+000	 8.8832869711e-002	 3.6280127448e+000
 1.4151016091e+000	 1.0168086627e-001	 3.5986040930e+000
 1.4141169111e+000	 1.1456406222e-001	 3.5618163333e+000
 1.4130110266e+000	 1.2748098374e-001	 3.5174444256e+000
 1.4250000000e+000	 0.0000000000e+000	 3.6533660935e+000
 1.4249441327e+000	 1.2618191274e-002	 3.6687963654e+000
 1.4247757220e+000	 2.5281255566e-002	 3.6786982880e+000
 1.4244935653e+000	 3.7987924267e-002	 3.6827510896e+000
 1.4240964740e+000	 5.0736898242e-002	 3.6806485978e+000
 1.4235832746e+000	 6.3526847890e-002	 3.6721000028e+000
 1.4229528095e+000	 7.6356413218e-002	 3.6568306103e+000
 1.4222039381e+000	 8.9224203940e-002	 3.6345825815e+000
 1.4213355368e+000	 1.0212879960e-001	 3.6051156590e+000
 1.4203465010e+000	 1.1506874972e-001	 3.5682078749e+000
 1.4192357448e+000	 1.2804257398e-001	 3.5236562414e+000
 1.4312500000e+000	 0.0000000000e+000	 3.6594815337e+000
 1.4311938876e+000	 1.2673534218e-002	 3.6753858533e+000
 1.4310247384e+000	 2.5392138266e-002	 3.6856919412e+000
 1.4307413441e+000	 3.8154537970e-002	 3.6900789208e+000
 1.4303425111e+000	 5.0959428498e-002	 3.6882407964e+000
 1.4298270608e+000	 6.3805474417e-002	 3.6798872250e+000
 1.4291938306e+000	 7.6691309768e-002	 3.6647442775e+000
 1.4284416746e+000	 8.9615538169e-002	 3.6425551862e+000
 1.4275694646e+000	 1.0257673293e-001	 3.6130810779e+000
 1.4265760909e+000	 1.1557343723e-001	 3.5761016895e+000
 1.4254604630e+000	 1.2860416422e-001	 3.5314160644e+000
 1.4375000000e+000	 0.0000000000e+000	 3.6665523940e+000
 1.4374436426e+000	 1.2728877163e-002	 3.6829990074e+000
 1.4372737547e+000	 2.5503020966e-002	 3.6937750548e+000
 1.4369891229e+000	 3.8321151673e-002	 3.6985595128e+000
 1.4365885483e+000	 5.1181958753e-002	 3.6970465237e+000
 1.4360708471e+000	 6.4084100943e-002	 3.6889461754e+000
 1.4354348517e+000	 7.7026206319e-002	 3.6739852709e+000
 1.4346794112e+000	 9.0006872399e-002	 3.6519080835e+000
 1.4338033924e+000	 1.0302466627e-001	 3.6224770974e+000
 1.4328056808e+000	 1.1607812473e-001	 3.5854737304e+000
 1.4316851811e+000	 1.2916575446e-001	 3.5406990371e+000
 1.3694379994e+000	 1.2354985208e-001	 3.5194803887e+000
 1.3682477394e+000	 1.3609968301e-001	 3.5119551521e+000
 1.3669379937e+000	 1.4867925710e-001	 3.4979386748e+000
 1.3655077752e+000	 1.6128706082e-001	 3.4772809695e+000
 1.3639561186e+000	 1.7392155269e-001	 3.4498503995e+000
 1.3622820814e+000	 1.8658116367e-001	 3.4155341851e+000
 1.3604847444e+000	 1.9926429738e-001	 3.3742388826e+000
 1.3585632127e+000	 2.1196933053e-001	 3.3258908347e+000
 1.3565166165e+000	 2.2469461321e-001	 3.2704365900e+000
 1.3543441119e+000	 2.3743846934e-001	 3.2078432903e+000
 1.3520448816e+000	 2.5019919705e-001	 3.1380990239e+000
 1.3756627175e+000	 1.2411144232e-001	 3.5141253320e+000
 1.3744670473e+000	 1.3671831793e-001	 3.5062992521e+000
 1.3731513482e+000	 1.4935507191e-001	 3.4920848887e+000
 1.3717146287e+000	 1.6202018382e-001	 3.4713330787e+000
 1.3701559192e+000	 1.7471210521e-001	 3.4439131639e+000
 1.3684742727e+000	 1.8742925987e-001	 3.4097134989e+000
 1.3666687660e+000	 2.0017004419e-001	 3.3686419325e+000
 1.3647385001e+000	 2.1293282749e-001	 3.3206262592e+000
 1.3626826011e+000	 2.2571595236e-001	 3.2656146405e+000
 1.3605002215e+000	 2.3851773511e-001	 3.2035759926e+000
 1.3581905401e+000	 2.5133646613e-001	 3.1345003393e+000
 1.3818874357e+000	 1.2467303255e-001	 3.5105040209e+000
 1.3806863552e+000	 1.3733695285e-001	 3.5023628666e+000
 1.3793647027e+000	 1.5003088671e-001	 3.4879323184e+000
 1.3779214822e+000	 1.6275330683e-001	 3.4670640366e+000
 1.3763557197e+000	 1.7550265772e-001	 3.4396283448e+000
 1.3746664640e+000	 1.8827735606e-001	 3.4055147398e+000
 1.3728527876e+000	 2.0107579100e-001	 3.3646323756e+000
 1.3709137874e+000	 2.1389632444e-001	 3.3169105164e+000
 1.3688485857e+000	 2.2673729151e-001	 3.2622989584e+000
 1.3666563311e+000	 2.3959700088e-001	 3.2007684190e+000
 1.3643361987e+000	 2.5247373520e-001	 3.1323108900e+000
 1.3881121539e+000	 1.2523462279e-001	 3.5085885970e+000
 1.3869056631e+000	 1.3795558777e-001	 3.5001180955e+000
 1.3855780572e+000	 1.5070670152e-001	 3.4854530258e+000
 1.3841283357e+000	 1.6348642983e-001	 3.4644458711e+000
 1.3825555203e+000	 1.7629321023e-001	 3.4369679401e+000
 1.3808586553e+000	 1.8912545226e-001	 3.4029098806e+000
 1.3790368091e+000	 2.0198153780e-001	 3.3621821645e+000
 1.3770890747e+000	 2.1485982140e-001	 3.3147155431e+000
 1.3750145704e+000	 2.2775863067e-001	 3.2604614701e+000
 1.3728124407e+000	 2.4067626665e-001	 3.1993924911e+000
 1.3704818573e+000	 2.5361100428e-001	 3.1315025982e+000
 1.3943368721e+000	 1.2579621303e-001	 3.5083516602e+000
 1.3931249710e+000	 1.3857422270e-001	 3.4995374914e+000
 1.3917914117e+000	 1.5138251633e-001	 3.4846195201e+000
 1.3903351893e+000	 1.6421955284e-001	 3.4634510513e+000
 1.3887553208e+000	 1.7708376275e-001	 3.4359043831e+000
 1.3870508466e+000	 1.8997354846e-001	 3.4018713226e+000
 1.3852208307e+000	 2.0288728461e-001	 3.3612636728e+000
 1.3832643621e+000	 2.1582331836e-001	 3.3140136899e+000
 1.3811805550e+000	 2.2877996982e-001	 3.2600745077e+000
 1.3789685503e+000	 2.4175553242e-001	 3.1994205279e+000
 1.3766275158e+000	 2.5474827336e-001	 3.1320477750e+000
 1.4005615903e+000	 1.2635780327e-001	 3.5097662578e+000
 1.3993442789e+000	 1.3919285762e-001	 3.5005940499e+000
 1.3980047663e+000	 1.5205833113e-001	 3.4854047478e+000
 1.3965420428e+000	 1.6495267584e-001	 3.4640524782e+000
 1.3949551213e+000	 1.7787431526e-001	 3.4364105326e+000
 1.3932430378e+000	 1.9082164466e-001	 3.4023718860e+000
 1.3914048523e+000	 2.0379303142e-001	 3.3618496860e+000
 1.3894396494e+000	 2.1678681532e-001	 3.3147777118e+000
 1.3873465396e+000	 2.2980130897e-001	 3.2611108002e+000
 1.3851246599e+000	 2.4283479819e-001	 3.2008252368e+000
 1.3827731744e+000	 2.5588554244e-001	 3.1339191113e+000
 1.4067863084e+000	 1.2691939350e-001	 3.5128058751e+000
 1.4055635868e+000	 1.3981149255e-001	 3.5032611993e+000
 1.4042181208e+000	 1.5273414594e-001	 3.4877820832e+000
 1.4027488963e+000	 1.6568579885e-001	 3.4662234747e+000
 1.4011549219e+000	 1.7866486778e-001	 3.4384596633e+000
 1.3994352291e+000	 1.9166974087e-001	 3.4043848006e+000
 1.3975888738e+000	 2.0469877823e-001	 3.3639133924e+000
 1.3956149367e+000	 2.1775031228e-001	 3.3169807594e+000
 1.3935125242e+000	 2.3082264813e-001	 3.2635434644e+000
 1.3912807695e+000	 2.4391406397e-001	 3.2035797051e+000
 1.3889188329e+000	 2.5702281152e-001	 3.1370896694e+000
 1.4130110266e+000	 1.2748098374e-001	 3.5174444256e+000
 1.4117828947e+000	 1.4043012747e-001	 3.5075127915e+000
 1.4104314753e+000	 1.5340996075e-001	 3.4917253188e+000
 1.4089557498e+000	 1.6641892185e-001	 3.4699377767e+000
 1.4073547224e+000	 1.7945542029e-001	 3.4420254568e+000
 1.4056274204e+000	 1.9251783707e-001	 3.4078836966e+000
 1.4037728954e+000	 2.0560452504e-001	 3.3674283742e+000
 1.4017902240e+000	 2.1871380924e-001	 3.3205963700e+000
 1.3996785088e+000	 2.3184398728e-001	 3.2673459966e+000
 1.3974368791e+000	 2.4499332974e-001	 3.2076573919e+000
 1.3950644915e+000	 2.5816008060e-001	 3.1415328751e+000
 1.4192357448e+000	 1.2804257398e-001	 3.5236562414e+000
 1.4180022026e+000	 1.4104876240e-001	 3.5133230925e+000
 1.4166448298e+000	 1.5408577556e-001	 3.4972086563e+000
 1.4151626034e+000	 1.6715204486e-001	 3.4751695234e+000
 1.4135545229e+000	 1.8024597281e-001	 3.4470819925e+000
 1.4118196117e+000	 1.9336593327e-001	 3.4128425963e+000
 1.4099569170e+000	 2.0651027185e-001	 3.3723685989e+000
 1.4079655114e+000	 2.1967730620e-001	 3.3255984595e+000
 1.4058444935e+000	 2.3286532644e-001	 3.2724922642e+000
 1.4035929887e+000	 2.4607259551e-001	 3.2130321193e+000
 1.4012101500e+000	 2.5929734968e-001	 3.1472225094e+000
 1.4254604630e+000	 1.2860416422e-001	 3.5314160644e+000
 1.4242215105e+000	 1.4166739733e-001	 3.5206667734e+000
 1.4228581843e+000	 1.5476159037e-001	 3.5042066975e+000
 1.4213694569e+000	 1.6788516787e-001	 3.4818932494e+000
 1.4197543235e+000	 1.8103652533e-001	 3.4536037393e+000
 1.4180118029e+000	 1.9421402948e-001	 3.4192359051e+000
 1.4161409385e+000	 2.0741601866e-001	 3.3787084108e+000
 1.4141407987e+000	 2.2064080316e-001	 3.3319613138e+000
 1.4120104781e+000	 2.3388666559e-001	 3.2789564972e+000
 1.4097490982e+000	 2.4715186129e-001	 3.2196780652e+000
 1.4073558086e+000	 2.6043461877e-001	 3.1541327010e+000
 1.4316851811e+000	 1.2916575446e-001	 3.5406990371e+000
 1.4304408184e+000	 1.4228603225e-001	 3.5295189015e+000
 1.4290715388e+000	 1.5543740518e-001	 3.5126944358e+000
 1.4275763104e+000	 1.6861829088e-001	 3.4900838752e+000
 1.4259541240e+000	 1.8182707784e-001	 3.4615655469e+000
 1.4242039942e+000	 1.9506212568e-001	 3.4270384031e+000
 1.4223249601e+000	 2.0832176547e-001	 3.3864225229e+000
 1.4203160860e+000	 2.2160430013e-001	 3.3396595808e+000
 1.4181764627e+000	 2.3490800475e-001	 3.2867132812e+000
 1.4159052078e+000	 2.4823112706e-001	 3.2275697550e+000
 1.4135014671e+000	 2.6157188785e-001	 3.1622379184e+000
 1.3520448816e+000	 2.5019919705e-001	 3.1380990239e+000
 1.3496181360e+000	 2.6297506915e-001	 3.1061383333e+000
 1.3470631137e+000	 2.7576433358e-001	 3.0686125470e+000
 1.3443790825e+000	 2.8856521396e-001	 3.0255174931e+000
 1.3415653398e+000	 3.0137591003e-001	 2.9768686758e+000
 1.3386212140e+000	 3.1419459830e-001	 2.9227014450e+000
 1.3355460646e+000	 3.2701943254e-001	 2.8630711246e+000
 1.3323392837e+000	 3.3984854446e-001	 2.7980530999e+000
 1.3290002958e+000	 3.5268004430e-001	 2.7277428615e+000
 1.3255285595e+000	 3.6551202150e-001	 2.6522560058e+000
 1.3219235675e+000	 3.7834254541e-001	 2.5717281905e+000
 1.3581905401e+000	 2.5133646613e-001	 3.1345003393e+000
 1.3557527639e+000	 2.6417041037e-001	 3.1022620545e+000
 1.3531861279e+000	 2.7701780783e-001	 3.0644674225e+000
 1.3504898965e+000	 2.8987687402e-001	 3.0211172446e+000
 1.3476633640e+000	 3.0274580053e-001	 2.9722322908e+000
 1.3447058558e+000	 3.1562275556e-001	 2.9178534667e+000
 1.3416167286e+000	 3.2850588450e-001	 2.8580419397e+000
 1.3383953713e+000	 3.4139331057e-001	 2.7928792222e+000
 1.3350412063e+000	 3.5428313541e-001	 2.7224672122e+000
 1.3315536893e+000	 3.6717343978e-001	 2.6469281880e+000
 1.3279323110e+000	 3.8006228425e-001	 2.5664047586e+000
 1.3643361987e+000	 2.5247373520e-001	 3.1323108900e+000
 1.3618873918e+000	 2.6536575159e-001	 3.0997994584e+000
 1.3593091420e+000	 2.7827128207e-001	 3.0617376999e+000
 1.3566007105e+000	 2.9118853409e-001	 3.0181314206e+000
 1.3537613883e+000	 3.0411569103e-001	 2.9690066918e+000
 1.3507904977e+000	 3.1705091283e-001	 2.9144100147e+000
 1.3476873925e+000	 3.2999233647e-001	 2.8544084443e+000
 1.3444514590e+000	 3.4293807668e-001	 2.7890896687e+000
 1.3410821167e+000	 3.5588622652e-001	 2.7185620453e+000
 1.3375788192e+000	 3.6883485806e-001	 2.6429545911e+000
 1.3339410545e+000	 3.8178202309e-001	 2.5624169272e+000
 1.3704818573e+000	 2.5361100428e-001	 3.1315025982e+000
 1.3680220197e+000	 2.6656109282e-001	 3.0987216826e+000
 1.3654321562e+000	 2.7952475632e-001	 3.0603937232e+000
 1.3627115245e+000	 2.9250019415e-001	 3.0165295627e+000
 1.3598594126e+000	 3.0548558154e-001	 2.9671606100e+000
 1.3568751396e+000	 3.1847907009e-001	 2.9123390027e+000
 1.3537580564e+000	 3.3147878844e-001	 2.8521377277e+000
 1.3505075466e+000	 3.4448284279e-001	 2.7866506977e+000
 1.3471230271e+000	 3.5748931763e-001	 2.7159927827e+000
 1.3436039490e+000	 3.7049627634e-001	 2.6402997956e+000
 1.3399497980e+000	 3.8350176193e-001	 2.5597284310e+000
 1.3766275158e+000	 2.5474827336e-001	 3.1320477750e+000
 1.3741566476e+000	 2.6775643404e-001	 3.0990002583e+000
 1.3715551703e+000	 2.8077823056e-001	 3.0604062344e+000
 1.3688223385e+000	 2.9381185422e-001	 3.0162816153e+000
 1.3659574369e+000	 3.0685547204e-001	 2.9666631842e+000
 1.3629597815e+000	 3.1990722736e-001	 2.9116087560e+000
 1.3598287204e+000	 3.3296524040e-001	 2.8511972949e+000
 1.3565636343e+000	 3.4602760890e-001	 2.7855289875e+000
 1.3531639376e+000	 3.5909240874e-001	 2.7147252701e+000
 1.3496290788e+000	 3.7215769462e-001	 2.6389288095e+000
 1.3459585415e+000	 3.8522150077e-001	 2.5583034354e+000
 1.3827731744e+000	 2.5588554244e-001	 3.1339191113e+000
 1.3802912755e+000	 2.6895177527e-001	 3.1006071013e+000
 1.3776781845e+000	 2.8203170481e-001	 3.0617463650e+000
 1.3749331525e+000	 2.9512351428e-001	 3.0173579167e+000
 1.3720554611e+000	 3.0822536254e-001	 2.9674839513e+000
 1.3690444233e+000	 3.2133538462e-001	 2.9121880024e+000
 1.3658993843e+000	 3.3445169237e-001	 2.8515550574e+000
 1.3626197219e+000	 3.4757237501e-001	 2.7856916267e+000
 1.3592048480e+000	 3.6069549985e-001	 2.7147257674e+000
 1.3556542086e+000	 3.7381911290e-001	 2.6388070583e+000
 1.3519672849e+000	 3.8694123961e-001	 2.5581065275e+000
 1.3889188329e+000	 2.5702281152e-001	 3.1370896694e+000
 1.3864259034e+000	 2.7014711649e-001	 3.1035145037e+000
 1.3838011986e+000	 2.8328517905e-001	 3.0643856273e+000
 1.3810439665e+000	 2.9643517435e-001	 3.0197291906e+000
 1.3781534854e+000	 3.0959525304e-001	 2.9695928378e+000
 1.3751290652e+000	 3.2276354189e-001	 2.9140458635e+000
 1.3719700482e+000	 3.3593814434e-001	 2.8531793244e+000
 1.3686758096e+000	 3.4911714113e-001	 2.7871061056e+000
 1.3652457585e+000	 3.6229859096e-001	 2.7159609395e+000
 1.3616793384e+000	 3.7548053118e-001	 2.6399003764e+000
 1.3579760284e+000	 3.8866097846e-001	 2.5591027059e+000
 1.3950644915e+000	 2.5816008060e-001	 3.1415328751e+000
 1.3925605312e+000	 2.7134245772e-001	 3.1076951255e+000
 1.3899242128e+000	 2.8453865330e-001	 3.0682959060e+000
 1.3871547805e+000	 2.9774683441e-001	 3.0233665372e+000
 1.3842515097e+000	 3.1096514354e-001	 2.9729601510e+000
 1.3812137071e+000	 3.2419169916e-001	 2.9171518455e+000
 1.3780407121e+000	 3.3742459631e-001	 2.8560387938e+000
 1.3747318972e+000	 3.5066190724e-001	 2.7897403067e+000
 1.3712866689e+000	 3.6390168207e-001	 2.7183978476e+000
 1.3677044682e+000	 3.7714194946e-001	 2.6421749979e+000
 1.3639847719e+000	 3.9038071730e-001	 2.5612573727e+000
 1.4012101500e+000	 2.5929734968e-001	 3.1472225094e+000
 1.3986951591e+000	 2.7253779895e-001	 3.1131219863e+000
 1.3960472270e+000	 2.8579212755e-001	 3.0734494499e+000
 1.3932655945e+000	 2.9905849448e-001	 3.0282414252e+000
 1.3903495339e+000	 3.1233503404e-001	 2.9775565709e+000
 1.3872983490e+000	 3.2561985642e-001	 2.9214758315e+000
 1.3841113761e+000	 3.3891104827e-001	 2.8601025440e+000
 1.3807879849e+000	 3.5220667335e-001	 2.7935624969e+000
 1.3773275793e+000	 3.6550477319e-001	 2.7220039405e+000
 1.3737295981e+000	 3.7880336774e-001	 2.6455975476e+000
 1.3699935154e+000	 3.9210045615e-001	 2.5645363235e+000
 1.4073558086e+000	 2.6043461877e-001	 3.1541327010e+000
 1.4048297870e+000	 2.7373314017e-001	 3.1197684580e+000
 1.4021702411e+000	 2.8704560179e-001	 3.0798188640e+000
 1.3993764085e+000	 3.0037015454e-001	 3.0343256837e+000
 1.3964475582e+000	 3.1370492455e-001	 2.9833531415e+000
 1.3933829909e+000	 3.2704801369e-001	 2.9269880725e+000
 1.3901820400e+000	 3.4039750024e-001	 2.8653400253e+000
 1.3868440726e+000	 3.5375143947e-001	 2.7985413184e+000
 1.3833684898e+000	 3.6710786430e-001	 2.7267470457e+000
 1.3797547279e+000	 3.8046478602e-001	 2.6501350327e+000
 1.3760022589e+000	 3.9382019499e-001	 2.5689057398e+000
 1.4135014671e+000	 2.6157188785e-001	 3.1622379184e+000
 1.4109644149e+000	 2.7492848140e-001	 3.1276082568e+000
 1.4082932553e+000	 2.8829907604e-001	 3.0873771022e+000
 1.4054872226e+000	 3.0168181461e-001	 3.0415914944e+000
 1.4025455825e+000	 3.1507481505e-001	 2.9903212638e+000
 1.3994676328e+000	 3.2847617096e-001	 2.9336591799e+000
 1.3962527039e+000	 3.4188395221e-001	 2.8717210519e+000
 1.3929001602e+000	 3.5529620558e-001	 2.8046457809e+000
 1.3894094002e+000	 3.6871095541e-001	 2.7325953619e+000
 1.3857798577e+000	 3.8212620431e-001	 2.6557548344e+000
 1.3820110024e+000	 3.9553993384e-001	 2.5743321800e+000
 1.3219235675e+000	 3.7834254541e-001	 2.5717281905e+000
 1.3181848476e+000	 3.9116966593e-001	 2.5306294059e+000
 1.3143119634e+000	 4.0399141435e-001	 2.4904450744e+000
 1.3103045149e+000	 4.1680580403e-001	 2.4513016855e+000
 1.3061621391e+000	 4.2961083122e-001	 2.4133388703e+000
 1.3018845109e+000	 4.4240447586e-001	 2.3767090915e+000
 1.2974713433e+000	 4.5518470246e-001	 2.3415772916e+000
 1.2929223882e+000	 4.6794946090e-001	 2.3081205003e+000
 1.2882374373e+000	 4.8069668732e-001	 2.2765274014e+000
 1.2834163218e+000	 4.9342430510e-001	 2.2469978595e+000
 1.2784589139e+000	 5.0613022567e-001	 2.2197424062e+000
 1.3279323110e+000	 3.8006228425e-001	 2.5664047586e+000
 1.3241765969e+000	 3.9294770987e-001	 2.5234538791e+000
 1.3202861087e+000	 4.0582773896e-001	 2.4805524184e+000
 1.3162604445e+000	 4.1870037586e-001	 2.4378401046e+000
 1.3120992398e+000	 4.3156360772e-001	 2.3954709634e+000
 1.3078021678e+000	 4.4441540530e-001	 2.3536130065e+000
 1.3033689403e+000	 4.5725372383e-001	 2.3124478771e+000
 1.2987993082e+000	 4.7007650390e-001	 2.2721704535e+000
 1.2940930620e+000	 4.8288167226e-001	 2.2329884096e+000
 1.2892500324e+000	 4.9566714284e-001	 2.1951217331e+000
 1.2842700908e+000	 5.0843081760e-001	 2.1588022025e+000
 1.3339410545e+000	 3.8178202309e-001	 2.5624169272e+000
 1.3301683462e+000	 3.9472575380e-001	 2.5177799728e+000
 1.3262602540e+000	 4.0766406357e-001	 2.4723340651e+000
 1.3222163741e+000	 4.2059494769e-001	 2.4262322240e+000
 1.3180363404e+000	 4.3351638422e-001	 2.3796429204e+000
 1.3137198246e+000	 4.4642633473e-001	 2.3327497644e+000
 1.3092665373e+000	 4.5932274521e-001	 2.2857511478e+000
 1.3046762281e+000	 4.7220354690e-001	 2.2388598427e+000
 1.2999486867e+000	 4.8506665720e-001	 2.1923025564e+000
 1.2950837429e+000	 4.9790998059e-001	 2.1463194409e+000
 1.2900812677e+000	 5.1073140953e-001	 2.1011635601e+000
 1.3399497980e+000	 3.8350176193e-001	 2.5597284310e+000
 1.3361600955e+000	 3.9650379773e-001	 2.5135680572e+000
 1.3322343993e+000	 4.0950038818e-001	 2.4657468981e+000
 1.3281723037e+000	 4.2248951953e-001	 2.4164313186e+000
 1.3239734410e+000	 4.3546916072e-001	 2.3658042874e+000
 1.3196374815e+000	 4.4843726416e-001	 2.3140650632e+000
 1.3151641343e+000	 4.6139176658e-001	 2.2614288351e+000
 1.3105531481e+000	 4.7433058990e-001	 2.2081263161e+000
 1.3058043114e+000	 4.8725164214e-001	 2.1544032916e+000
 1.3009174535e+000	 5.0015281834e-001	 2.1005201205e+000
 1.2958924446e+000	 5.1303200146e-001	 2.0467511927e+000
 1.3459585415e+000	 3.8522150077e-001	 2.5583034354e+000
 1.3421518448e+000	 3.9828184167e-001	 2.5107789819e+000
 1.3382085445e+000	 4.1133671279e-001	 2.4607483302e+000
 1.3341282333e+000	 4.2438409136e-001	 2.4083912449e+000
 1.3299105416e+000	 4.3742193723e-001	 2.3539052459e+000
 1.3255551384e+000	 4.5044819360e-001	 2.2975052922e+000
 1.3210617313e+000	 4.6346078795e-001	 2.2394234200e+000
 1.3164300680e+000	 4.7645763290e-001	 2.1799083316e+000
 1.3116599361e+000	 4.8943662708e-001	 2.1192249364e+000
 1.3067511640e+000	 5.0239565608e-001	 2.0576538447e+000
 1.3017036215e+000	 5.1533259339e-001	 1.9954908141e+000
 1.3519672849e+000	 3.8694123961e-001	 2.5581065275e+000
 1.3481435941e+000	 4.0005988561e-001	 2.5093740649e+000
 1.3441826898e+000	 4.1317303740e-001	 2.4572962917e+000
 1.3400841629e+000	 4.2627866320e-001	 2.4020664282e+000
 1.3358476423e+000	 4.3937471373e-001	 2.3438965992e+000
 1.3314727952e+000	 4.5245912303e-001	 2.2830175172e+000
 1.3269593283e+000	 4.6552980932e-001	 2.2196781167e+000
 1.3223069880e+000	 4.7858467590e-001	 2.1541451385e+000
 1.3175155608e+000	 4.9162161202e-001	 2.0867026640e+000
 1.3125848746e+000	 5.0463849383e-001	 2.0176516005e+000
 1.3075147983e+000	 5.1763318533e-001	 1.9473091167e+000
 1.3579760284e+000	 3.8866097846e-001	 2.5591027059e+000
 1.3541353434e+000	 4.0183792954e-001	 2.5093150822e+000
 1.3501568351e+000	 4.1500936201e-001	 2.4553492193e+000
 1.3460400925e+000	 4.2817323504e-001	 2.3974118496e+000
 1.3417847429e+000	 4.4132749024e-001	 2.3357297584e+000
 1.3373904521e+000	 4.5447005247e-001	 2.2705494654e+000
 1.3328569254e+000	 4.6759883070e-001	 2.2021368560e+000
 1.3281839079e+000	 4.8071171891e-001	 2.1307767603e+000
 1.3233711855e+000	 4.9380659696e-001	 2.0567724808e+000
 1.3184185851e+000	 5.0688133158e-001	 1.9804452689e+000
 1.3133259752e+000	 5.1993377726e-001	 1.9021337497e+000
 1.3639847719e+000	 3.9038071730e-001	 2.5612573727e+000
 1.3601270927e+000	 4.0361597348e-001	 2.5105642581e+000
 1.3561309804e+000	 4.1684568662e-001	 2.4548660446e+000
 1.3519960222e+000	 4.3006780687e-001	 2.3943830342e+000
 1.3477218435e+000	 4.4328026674e-001	 2.3293567288e+000
 1.3433081090e+000	 4.5648098190e-001	 2.2600495107e+000
 1.3387545224e+000	 4.6966785207e-001	 2.1867442697e+000
 1.3340608279e+000	 4.8283876191e-001	 2.1097439775e+000
 1.3292268103e+000	 4.9599158191e-001	 2.0293712081e+000
 1.3242522957e+000	 5.0912416933e-001	 1.9459676053e+000
 1.3191371521e+000	 5.2223436920e-001	 1.8598932978e+000
 1.3699935154e+000	 3.9210045615e-001	 2.5645363235e+000
 1.3661188421e+000	 4.0539401742e-001	 2.5130842550e+000
 1.3621051257e+000	 4.1868201123e-001	 2.4558061833e+000
 1.3579519518e+000	 4.3196237871e-001	 2.3929360386e+000
 1.3536589442e+000	 4.4523304325e-001	 2.3247300972e+000
 1.3492257658e+000	 4.5849191134e-001	 2.2514666598e+000
 1.3446521194e+000	 4.7173687345e-001	 2.1734456756e+000
 1.3399377478e+000	 4.8496580491e-001	 2.0909883111e+000
 1.3350824350e+000	 4.9817656685e-001	 2.0044364637e+000
 1.3300860062e+000	 5.1136700708e-001	 1.9141522202e+000
 1.3249483290e+000	 5.2453496113e-001	 1.8205172606e+000
 1.3760022589e+000	 3.9382019499e-001	 2.5689057398e+000
 1.3721105914e+000	 4.0717206135e-001	 2.5168381639e+000
 1.3680792710e+000	 4.2051833584e-001	 2.4581295247e+000
 1.3639078814e+000	 4.3385695055e-001	 2.3930274402e+000
 1.3595960448e+000	 4.4718581976e-001	 2.3218030191e+000
 1.3551434227e+000	 4.6050284078e-001	 2.2447505380e+000
 1.3505497164e+000	 4.7380589483e-001	 2.1621870617e+000
 1.3458146678e+000	 4.8709284792e-001	 2.0744520062e+000
 1.3409380597e+000	 5.0036155179e-001	 1.9819066455e+000
 1.3359197168e+000	 5.1360984483e-001	 1.8849335608e+000
 1.3307595059e+000	 5.2683555306e-001	 1.7839360331e+000
 1.3820110024e+000	 3.9553993384e-001	 2.5743321800e+000
 1.3781023407e+000	 4.0895010529e-001	 2.5217894951e+000
 1.3740534163e+000	 4.2235466046e-001	 2.4617964214e+000
 1.3698638110e+000	 4.3575152239e-001	 2.3946143248e+000
 1.3655331454e+000	 4.4913859626e-001	 2.3205292061e+000
 1.3610610796e+000	 4.6251377021e-001	 2.2398513761e+000
 1.3564473134e+000	 4.7587491620e-001	 2.1529150724e+000
 1.3516915877e+000	 4.8921989093e-001	 2.0600780166e+000
 1.3467936844e+000	 5.0254653674e-001	 1.9617209137e+000
 1.3417534274e+000	 5.1585268258e-001	 1.8582468922e+000
 1.3365706828e+000	 5.2913614500e-001	 1.7500808860e+000
 1.2784589139e+000	 5.0613022567e-001	 2.2197424062e+000
 1.2733651267e+000	 5.1881234956e-001	 2.1577839490e+000
 1.2681349147e+000	 5.3146856733e-001	 2.0573081568e+000
 1.2627682745e+000	 5.4409676055e-001	 1.9191831561e+000
 1.2572652451e+000	 5.5669480280e-001	 1.7443297841e+000
 1.2516259081e+000	 5.6926056076e-001	 1.5337207690e+000
 1.2458503886e+000	 5.8179189516e-001	 1.4983856352e+000
 1.2399388547e+000	 5.9428666192e-001	 1.5095752347e+000
 1.2338915187e+000	 6.0674271317e-001	 1.4836219429e+000
 1.2277086368e+000	 6.1915789839e-001	 1.4205511882e+000
 1.2213905094e+000	 6.3153006546e-001	 1.3591629913e+000
 1.2842700908e+000	 5.0843081760e-001	 2.1588022025e+000
 1.2791531500e+000	 5.2117058751e-001	 2.1012823459e+000
 1.2738991643e+000	 5.3388433354e-001	 2.0094073702e+000
 1.2685081303e+000	 5.4656992764e-001	 1.8839888776e+000
 1.2629800871e+000	 5.5922523372e-001	 1.7258869340e+000
 1.2573151168e+000	 5.7184810876e-001	 1.5360092494e+000
 1.2515133449e+000	 5.8443640377e-001	 1.3153102699e+000
 1.2455749404e+000	 5.9698796492e-001	 1.2836026508e+000
 1.2395001165e+000	 6.0950063459e-001	 1.2947335318e+000
 1.2332891306e+000	 6.2197225247e-001	 1.2724213651e+000
 1.2269422844e+000	 6.3440065666e-001	 1.2686492674e+000
 1.2900812677e+000	 5.1073140953e-001	 2.1011635601e+000
 1.2849411733e+000	 5.2352882546e-001	 2.0466930506e+000
 1.2796634139e+000	 5.3630009976e-001	 1.9619897931e+000
 1.2742479861e+000	 5.4904309473e-001	 1.8478093737e+000
 1.2686949291e+000	 5.6175566464e-001	 1.7049516255e+000
 1.2630043255e+000	 5.7443565676e-001	 1.5342598088e+000
 1.2571763012e+000	 5.8708091238e-001	 1.3366197087e+000
 1.2512110261e+000	 5.9968926793e-001	 1.1129586500e+000
 1.2451087144e+000	 6.1225855601e-001	 1.1000869624e+000
 1.2388696244e+000	 6.2478660655e-001	 1.1169697165e+000
 1.2324940595e+000	 6.3727124786e-001	 1.1668962497e+000
 1.2958924446e+000	 5.1303200146e-001	 2.0467511927e+000
 1.2907291966e+000	 5.2588706341e-001	 1.9939580901e+000
 1.2854276635e+000	 5.3871586597e-001	 1.9150152890e+000
 1.2799878419e+000	 5.5151626182e-001	 1.8106228629e+000
 1.2744097712e+000	 5.6428609556e-001	 1.6815209456e+000
 1.2686935342e+000	 5.7702320476e-001	 1.5284889110e+000
 1.2628392575e+000	 5.8972542099e-001	 1.3523444758e+000
 1.2568471118e+000	 6.0239057094e-001	 1.1539427247e+000
 1.2507173122e+000	 6.1501647744e-001	 9.3417505980e-001
 1.2444501182e+000	 6.2760096063e-001	 9.6740571497e-001
 1.2380458345e+000	 6.4014183907e-001	 1.0540367279e+000
 1.3017036215e+000	 5.1533259339e-001	 1.9954908141e+000
 1.2965172199e+000	 5.2824530136e-001	 1.9430201693e+000
 1.2911919132e+000	 5.4113163218e-001	 1.8684440670e+000
 1.2857276977e+000	 5.5398942891e-001	 1.7724075677e+000
 1.2801246132e+000	 5.6681652648e-001	 1.6555916346e+000
 1.2743827428e+000	 5.7961075276e-001	 1.5187123134e+000
 1.2685022138e+000	 5.9236992961e-001	 1.3625198392e+000
 1.2624831975e+000	 6.0509187394e-001	 1.1877976724e+000
 1.2563259100e+000	 6.1777439886e-001	 9.9536146354e-001
 1.2500306120e+000	 6.3041531472e-001	 8.1112139473e-001
 1.2435976096e+000	 6.4301243027e-001	 9.3020085242e-001
 1.3075147983e+000	 5.1763318533e-001	 1.9473091167e+000
 1.3023052432e+000	 5.3060353931e-001	 1.8938226557e+000
 1.2969561628e+000	 5.4354739839e-001	 1.8222366742e+000
 1.2914675535e+000	 5.5646259600e-001	 1.7331417147e+000
 1.2858394552e+000	 5.6934695740e-001	 1.6271600939e+000
 1.2800719515e+000	 5.8219830076e-001	 1.5049450821e+000
 1.2741651701e+000	 5.9501443822e-001	 1.3671800148e+000
 1.2681192833e+000	 6.0779317695e-001	 1.2145773381e+000
 1.2619345078e+000	 6.2053232028e-001	 1.0478775891e+000
 1.2556111058e+000	 6.3322966880e-001	 9.0271931432e-001
 1.2491493846e+000	 6.4588302148e-001	 7.9551619283e-001
 1.3133259752e+000	 5.1993377726e-001	 1.9021337497e+000
 1.3080932665e+000	 5.3296177726e-001	 1.8463095650e+000
 1.3027204124e+000	 5.4596316461e-001	 1.7763539880e+000
 1.2972074093e+000	 5.5893576309e-001	 1.6928035341e+000
 1.2915542972e+000	 5.7187738832e-001	 1.5962223930e+000
 1.2857611602e+000	 5.8478584876e-001	 1.4872016076e+000
 1.2798281265e+000	 5.9765894683e-001	 1.3663581902e+000
 1.2737553690e+000	 6.1049447996e-001	 1.2343341771e+000
 1.2675431056e+000	 6.2329024170e-001	 1.0917956240e+000
 1.2611915996e+000	 6.3604402288e-001	 9.8198293785e-001
 1.2547011597e+000	 6.4875361269e-001	 8.6175304074e-001
 1.3191371521e+000	 5.2223436920e-001	 1.8598932978e+000
 1.3138812898e+000	 5.3532001521e-001	 1.8004255466e+000
 1.3084846620e+000	 5.4837893082e-001	 1.7307572092e+000
 1.3029472651e+000	 5.6140893018e-001	 1.6513712602e+000
 1.2972691393e+000	 5.7440781924e-001	 1.5627742774e+000
 1.2914503689e+000	 5.8737339677e-001	 1.4654956196e+000
 1.2854910828e+000	 6.0030345545e-001	 1.3600865470e+000
 1.2793914547e+000	 6.1319578297e-001	 1.2471192854e+000
 1.2731517034e+000	 6.2604816313e-001	 1.1311638204e+000
 1.2667720934e+000	 6.3885837696e-001	 1.0490589631e+000
 1.2602529347e+000	 6.5162420389e-001	 9.5276340026e-001
 1.3249483290e+000	 5.2453496113e-001	 1.8205172606e+000
 1.3196693131e+000	 5.3767825317e-001	 1.7561158699e+000
 1.3142489116e+000	 5.5079469704e-001	 1.6854078545e+000
 1.3086871209e+000	 5.6388209727e-001	 1.6088231308e+000
 1.3029839813e+000	 5.7693825016e-001	 1.5268111752e+000
 1.2971395776e+000	 5.8996094477e-001	 1.4398402011e+000
 1.2911540391e+000	 6.0294796406e-001	 1.3483962830e+000
 1.2850275404e+000	 6.1589708597e-001	 1.2529824292e+000
 1.2787603012e+000	 6.2880608455e-001	 1.1671478078e+000
 1.2723525872e+000	 6.4167273105e-001	 1.1040920429e+000
 1.2658047097e+000	 6.5449479510e-001	 1.0301739740e+000
 1.3307595059e+000	 5.2683555306e-001	 1.7839360331e+000
 1.3254573364e+000	 5.4003649112e-001	 1.7133264106e+000
 1.3200131612e+000	 5.5321046325e-001	 1.6402677498e+000
 1.3144269767e+000	 5.6635526437e-001	 1.5651373873e+000
 1.3086988233e+000	 5.7946868108e-001	 1.4883282045e+000
 1.3028287862e+000	 5.9254849277e-001	 1.4102478033e+000
 1.2968169954e+000	 6.0559247267e-001	 1.3313176334e+000
 1.2906636261e+000	 6.1859838898e-001	 1.2519720747e+000
 1.2843688991e+000	 6.3156400597e-001	 1.1927347723e+000
 1.2779330810e+000	 6.4448708513e-001	 1.1472248305e+000
 1.2713564848e+000	 6.5736538631e-001	 1.0941482054e+000
 1.3365706828e+000	 5.2913614500e-001	 1.7500808860e+000
 1.3312453597e+000	 5.4239472907e-001	 1.6720036378e+000
 1.3257774108e+000	 5.5562622946e-001	 1.5952990236e+000
 1.3201668325e+000	 5.6882843146e-001	 1.5202922746e+000
 1.3144136653e+000	 5.8199911200e-001	 1.4473201797e+000
 1.3085179949e+000	 5.9513604077e-001	 1.3767302584e+000
 1.3024799517e+000	 6.0823698129e-001	 1.3088798923e+000
 1.2962997118e+000	 6.2129969199e-001	 1.2441354156e+000
 1.2899774969e+000	 6.3432192740e-001	 1.2080453800e+000
 1.2835135748e+000	 6.4730143922e-001	 1.1785980219e+000
 1.2769082598e+000	 6.6023597752e-001	 1.1448472281e+000
 1.2213905094e+000	 6.3153006546e-001	 1.3591629913e+000
 1.2149374815e+000	 6.4385706180e-001	 1.2123823855e+000
 1.2083499428e+000	 6.5613673553e-001	 1.0731427287e+000
 1.2016283278e+000	 6.6836693654e-001	 9.4166173311e-001
 1.1947731158e+000	 6.8054551769e-001	 8.1814968712e-001
 1.1877848314e+000	 6.9267033593e-001	 7.0280886678e-001
 1.1806640439e+000	 7.0473925348e-001	 5.9583295158e-001
 1.1734113679e+000	 7.1675013899e-001	 4.9740644567e-001
 1.1660274628e+000	 7.2870086873e-001	 4.0770410613e-001
 1.1585130330e+000	 7.4058932770e-001	 3.2689037991e-001
 1.1508688279e+000	 7.5241341089e-001	 2.5511885091e-001
 1.2269422844e+000	 6.3440065666e-001	 1.2686492674e+000
 1.2204599246e+000	 6.4678368481e-001	 1.1461820604e+000
 1.2138424425e+000	 6.5911917524e-001	 1.0272098424e+000
 1.2070902747e+000	 6.7140496807e-001	 9.1203512488e-001
 1.2002039027e+000	 6.8363890640e-001	 8.0095736511e-001
 1.1931838534e+000	 6.9581883745e-001	 6.9427231962e-001
 1.1860306987e+000	 7.0794261372e-001	 5.9227139582e-001
 1.1787450559e+000	 7.2000809417e-001	 4.9524100271e-001
 1.1713275876e+000	 7.3201314540e-001	 4.0346190243e-001
 1.1637790014e+000	 7.4395564282e-001	 3.1720856438e-001
 1.1561000499e+000	 7.5583347184e-001	 2.3674852340e-001
 1.2324940595e+000	 6.3727124786e-001	 1.1668962497e+000
 1.2259823677e+000	 6.4971030782e-001	 1.0701526503e+000
 1.2193349423e+000	 6.6210161494e-001	 9.7289481398e-001
 1.2125522217e+000	 6.7444299960e-001	 8.7550958795e-001
 1.2056346896e+000	 6.8673229512e-001	 7.7838510856e-001
 1.1985828753e+000	 6.9896733897e-001	 6.8191009716e-001
 1.1913973534e+000	 7.1114597396e-001	 5.8647314759e-001
 1.1840787440e+000	 7.2326604934e-001	 4.9246200660e-001
 1.1766277124e+000	 7.3532542207e-001	 4.0026284904e-001
 1.1690449697e+000	 7.4732195795e-001	 3.1025954937e-001
 1.1613312718e+000	 7.5925353280e-001	 2.2283295125e-001
 1.2380458345e+000	 6.4014183907e-001	 1.0540367279e+000
 1.2315048108e+000	 6.5263693082e-001	 9.8440713989e-001
 1.2248274420e+000	 6.6508405465e-001	 9.1029033184e-001
 1.2180141686e+000	 6.7748103113e-001	 8.3215703067e-001
 1.2110654765e+000	 6.8982568383e-001	 7.5048356997e-001
 1.2039818973e+000	 7.0211584050e-001	 6.6575112841e-001
 1.1967640082e+000	 7.1434933420e-001	 5.7844495325e-001
 1.1894124320e+000	 7.2652400452e-001	 4.8905357084e-001
 1.1819278373e+000	 7.3863769875e-001	 3.9806798553e-001
 1.1743109380e+000	 7.5068827307e-001	 3.0598086896e-001
 1.1665624938e+000	 7.6267359375e-001	 2.1328574142e-001
 1.2435976096e+000	 6.4301243027e-001	 9.3020085242e-001
 1.2370272539e+000	 6.5556355383e-001	 8.8905622138e-001
 1.2303199418e+000	 6.6806649435e-001	 8.3948714774e-001
 1.2234761156e+000	 6.8051906265e-001	 7.8204778938e-001
 1.2164962634e+000	 6.9291907255e-001	 7.1730220303e-001
 1.2093809193e+000	 7.0526434203e-001	 6.4582352513e-001
 1.2021306629e+000	 7.1755269444e-001	 5.6819313183e-001
 1.1947461200e+000	 7.2978195970e-001	 4.8499977955e-001
 1.1872279621e+000	 7.4194997542e-001	 3.9683872803e-001
 1.1795769064e+000	 7.5405458820e-001	 3.0431084762e-001
 1.1717937157e+000	 7.6609365471e-001	 2.0802171266e-001
 1.2491493846e+000	 6.4588302148e-001	 7.9551619283e-001
 1.2425496970e+000	 6.5849017684e-001	 7.8420834549e-001
 1.2358124415e+000	 6.7104893406e-001	 7.6057411989e-001
 1.2289380625e+000	 6.8355709418e-001	 7.2525066340e-001
 1.2219270503e+000	 6.9601246127e-001	 6.7888928921e-001
 1.2147799412e+000	 7.0841284355e-001	 6.2215460001e-001
 1.2074973177e+000	 7.2075605469e-001	 5.5572358444e-001
 1.2000798081e+000	 7.3303991487e-001	 4.8028468811e-001
 1.1925280869e+000	 7.4526225210e-001	 3.9653686090e-001
 1.1848428747e+000	 7.5742090332e-001	 3.0518858258e-001
 1.1770249377e+000	 7.6951371567e-001	 2.0695686853e-001
 1.2547011597e+000	 6.4875361269e-001	 8.6175304074e-001
 1.2480721401e+000	 6.6141679985e-001	 6.6996977098e-001
 1.2413049413e+000	 6.7403137377e-001	 6.7363825490e-001
 1.2344000095e+000	 6.8659512571e-001	 6.6183294898e-001
 1.2273578372e+000	 6.9910584998e-001	 6.3529196375e-001
 1.2201789632e+000	 7.1156134508e-001	 5.9477088431e-001
 1.2128639724e+000	 7.2395941493e-001	 5.4104180356e-001
 1.2054134961e+000	 7.3629787005e-001	 4.7489232380e-001
 1.1978282118e+000	 7.4857452878e-001	 3.9712452855e-001
 1.1901088430e+000	 7.6078721845e-001	 3.0855392678e-001
 1.1822561596e+000	 7.7293377663e-001	 2.1000837126e-001
 1.2602529347e+000	 6.5162420389e-001	 9.5276340026e-001
 1.2535945832e+000	 6.6434342286e-001	 7.0366633202e-001
 1.2467974410e+000	 6.7701381348e-001	 5.7876474846e-001
 1.2398619564e+000	 6.8963315725e-001	 5.9186047244e-001
 1.2327886241e+000	 7.0219923870e-001	 5.8655624086e-001
 1.2255779852e+000	 7.1470984661e-001	 5.6369814511e-001
 1.2182306272e+000	 7.2716277518e-001	 5.2415288204e-001
 1.2107471841e+000	 7.3955582523e-001	 4.6880668641e-001
 1.2031283366e+000	 7.5188680546e-001	 3.9856422753e-001
 1.1953748114e+000	 7.6415353358e-001	 3.1434747221e-001
 1.1874873816e+000	 7.7635383759e-001	 2.1709451614e-001
 1.2658047097e+000	 6.5449479510e-001	 1.0301739740e+000
 1.2591170263e+000	 6.6727004587e-001	 8.0995540234e-001
 1.2522899407e+000	 6.7999625318e-001	 5.7331683972e-001
 1.2453239034e+000	 6.9267118878e-001	 5.1539762239e-001
 1.2382194110e+000	 7.0529262742e-001	 5.3272703836e-001
 1.2309770071e+000	 7.1785834814e-001	 5.2896140205e-001
 1.2235972819e+000	 7.3036613542e-001	 5.0506152184e-001
 1.2160808722e+000	 7.4281378041e-001	 4.6201174889e-001
 1.2084284614e+000	 7.5519908214e-001	 4.0081879880e-001
 1.2006407797e+000	 7.6751984871e-001	 3.2251053368e-001
 1.1927186035e+000	 7.7977389855e-001	 2.2813470677e-001
 1.2713564848e+000	 6.5736538631e-001	 1.0941482054e+000
 1.2646394694e+000	 6.7019666888e-001	 9.0411820083e-001
 1.2577824405e+000	 6.8297869289e-001	 6.9401895715e-001
 1.2507858503e+000	 6.9570922031e-001	 4.6492248025e-001
 1.2436501979e+000	 7.0838601614e-001	 4.7384820154e-001
 1.2363760291e+000	 7.2100684967e-001	 4.9058494365e-001
 1.2289639366e+000	 7.3356949567e-001	 4.8377204259e-001
 1.2214145602e+000	 7.4607173559e-001	 4.5449145785e-001
 1.2137285862e+000	 7.5851135882e-001	 4.0385142021e-001
 1.2059067480e+000	 7.7088616384e-001	 3.3298513309e-001
 1.1979498255e+000	 7.8319395951e-001	 2.4304943075e-001
 1.2769082598e+000	 6.6023597752e-001	 1.1448472281e+000
 1.2701619125e+000	 6.7312329189e-001	 9.8629915331e-001
 1.2632749402e+000	 6.8596113260e-001	 8.0406500188e-001
 1.2562477972e+000	 6.9874725185e-001	 5.9929381705e-001
 1.2490809848e+000	 7.1147940486e-001	 4.0996252655e-001
 1.2417750510e+000	 7.2415535120e-001	 4.4859234322e-001
 1.2343305914e+000	 7.3677285592e-001	 4.6028838990e-001
 1.2267482482e+000	 7.4932969078e-001	 4.4622973422e-001
 1.2190287111e+000	 7.6182363550e-001	 4.0762559916e-001
 1.2111727164e+000	 7.7425247897e-001	 3.4571398400e-001
 1.2031810474e+000	 7.8661402048e-001	 2.6176023623e-001
 1.1508688279e+000	 7.5241341089e-001	 2.5511885091e-001
 1.1430956415e+000	 7.6417102437e-001	 1.8085307721e-001
 1.1351943121e+000	 7.7586008655e-001	 1.0493253520e-001
 1.1271657225e+000	 7.8747852927e-001	 2.7664077587e-002
 1.1190107996e+000	 7.9902429902e-001	-5.0646192075e-002
 1.1107305139e+000	 8.1049535808e-001	-1.2969353192e-001
 1.1023258795e+000	 8.2188968569e-001	-2.0917517222e-001
 1.0937979534e+000	 8.3320527919e-001	-2.8879092214e-001
 1.0851478353e+000	 8.4444015516e-001	-3.6824377142e-001
 1.0763766672e+000	 8.5559235055e-001	-4.4724048523e-001
 1.0674856329e+000	 8.6665992379e-001	-5.2549219083e-001
 1.1561000499e+000	 7.5583347184e-001	 2.3674852340e-001
 1.1482915307e+000	 7.6764452902e-001	 1.5480302099e-001
 1.1403542862e+000	 7.7938672330e-001	 7.2681566422e-002
 1.1322892031e+000	 7.9105797712e-001	-9.3306510915e-003
 1.1240972123e+000	 8.0265622764e-001	-9.0950716316e-002
 1.1157792890e+000	 8.1417942788e-001	-1.7189858867e-001
 1.1073364517e+000	 8.2562554789e-001	-2.5189769866e-001
 1.0987697622e+000	 8.3699257591e-001	-3.3067553851e-001
 1.0900803254e+000	 8.4827851950e-001	-4.0796424554e-001
 1.0812692884e+000	 8.5948140668e-001	-4.8350117657e-001
 1.0723378404e+000	 8.7059928708e-001	-5.5702947207e-001
 1.1613312718e+000	 7.5925353280e-001	 2.2283295125e-001
 1.1534874200e+000	 7.7111803368e-001	 1.3273571528e-001
 1.1455142603e+000	 7.8291336005e-001	 4.3929177838e-002
 1.1374126836e+000	 7.9463742498e-001	-4.3322896835e-002
 1.1291836250e+000	 8.0628815627e-001	-1.2876053519e-001
 1.1208280641e+000	 8.1786349769e-001	-2.1212814343e-001
 1.1123470239e+000	 8.2936141010e-001	-2.9317509014e-001
 1.1037415711e+000	 8.4077987263e-001	-3.7165628105e-001
 1.0950128156e+000	 8.5211688383e-001	-4.4733272431e-001
 1.0861619096e+000	 8.6337046282e-001	-5.1997208479e-001
 1.0771900478e+000	 8.7453865036e-001	-5.8934922588e-001
 1.1665624938e+000	 7.6267359375e-001	 2.1328574142e-001
 1.1586833093e+000	 7.7459153833e-001	 1.1457036921e-001
 1.1506742345e+000	 7.8643999681e-001	 1.8600359734e-002
 1.1425361642e+000	 7.9821687284e-001	-7.4381711221e-002
 1.1342700378e+000	 8.0992008490e-001	-1.6413856732e-001
 1.1258768391e+000	 8.2154756749e-001	-2.5043880931e-001
 1.1173575960e+000	 8.3309727230e-001	-3.3305748410e-001
 1.1087133800e+000	 8.4456716935e-001	-4.1177664388e-001
 1.0999453058e+000	 8.5595524817e-001	-4.8638589354e-001
 1.0910545309e+000	 8.6725951895e-001	-5.5668292510e-001
 1.0820422552e+000	 8.7847801365e-001	-6.2247403752e-001
 1.1717937157e+000	 7.6609365471e-001	 2.0802171266e-001
 1.1638791986e+000	 7.7806504299e-001	 1.0022729790e-001
 1.1558342086e+000	 7.8996663357e-001	-3.3789004576e-003
 1.1476596447e+000	 8.0179632070e-001	-1.0257526057e-001
 1.1393564505e+000	 8.1355201353e-001	-1.9714696093e-001
 1.1309256142e+000	 8.2523163730e-001	-2.8688654683e-001
 1.1223681682e+000	 8.3683313451e-001	-3.7159448609e-001
 1.1136851889e+000	 8.4835446607e-001	-4.5107971275e-001
 1.1048777959e+000	 8.5979361251e-001	-5.2516015696e-001
 1.0959471521e+000	 8.7114857509e-001	-5.9366325972e-001
 1.0868944626e+000	 8.8241737694e-001	-6.5642647093e-001
 1.1770249377e+000	 7.6951371567e-001	 2.0695686853e-001
 1.1690750879e+000	 7.8153854764e-001	 8.9627897888e-002
 1.1609941828e+000	 7.9349327032e-001	-2.2081640324e-002
 1.1527831253e+000	 8.0537576856e-001	-1.2797084560e-001
 1.1444428632e+000	 8.1718394216e-001	-2.2784711097e-001
 1.1359743892e+000	 8.2891570711e-001	-3.2152667841e-001
 1.1273787404e+000	 8.4056899671e-001	-4.0883518155e-001
 1.1186569978e+000	 8.5214176279e-001	-4.8960817412e-001
 1.1098102861e+000	 8.6363197685e-001	-5.6369164253e-001
 1.1008397733e+000	 8.7503763123e-001	-6.3094250124e-001
 1.0917466701e+000	 8.8635674023e-001	-6.9122906928e-001
 1.1822561596e+000	 7.7293377663e-001	 2.1000837126e-001
 1.1742709771e+000	 7.8501205230e-001	 8.2694623198e-002
 1.1661541569e+000	 7.9701990708e-001	-3.7579944038e-002
 1.1579066058e+000	 8.0895521642e-001	-1.5063492061e-001
 1.1495292760e+000	 8.2081587079e-001	-2.5629967577e-001
 1.1410231643e+000	 8.3259977692e-001	-3.5441390251e-001
 1.1323893126e+000	 8.4430485892e-001	-4.4482814738e-001
 1.1236288066e+000	 8.5592905952e-001	-5.2740432398e-001
 1.1147427762e+000	 8.6747034119e-001	-6.0201620853e-001
 1.1057323945e+000	 8.7892668736e-001	-6.6854991597e-001
 1.0965988775e+000	 8.9029610352e-001	-7.2690435534e-001
 1.1874873816e+000	 7.7635383759e-001	 2.1709451614e-001
 1.1794668664e+000	 7.8848555696e-001	 7.9350962052e-002
 1.1713141311e+000	 8.0054654384e-001	-4.9944963359e-002
 1.1630300864e+000	 8.1253466428e-001	-1.7063311209e-001
 1.1546156887e+000	 8.2444779943e-001	-2.8256459329e-001
 1.1460719394e+000	 8.3628384673e-001	-3.8560230733e-001
 1.1373998847e+000	 8.4804072113e-001	-4.7962146307e-001
 1.1286006155e+000	 8.5971635624e-001	-5.6451007648e-001
 1.1196752664e+000	 8.7130870554e-001	-6.4016944949e-001
 1.1106250157e+000	 8.8281574350e-001	-7.0651462714e-001
 1.1014510849e+000	 8.9423546681e-001	-7.6347483202e-001
 1.1927186035e+000	 7.7977389855e-001	 2.2813470677e-001
 1.1846627557e+000	 7.9195906162e-001	 7.9521414191e-002
 1.1764741052e+000	 8.0407318060e-001	-5.9246938083e-002
 1.1681535669e+000	 8.1611411214e-001	-1.8803023689e-001
 1.1597021014e+000	 8.2807972806e-001	-3.0670109687e-001
 1.1511207144e+000	 8.3996791654e-001	-4.1514538427e-001
 1.1424104569e+000	 8.5177658334e-001	-5.1326272167e-001
 1.1335724244e+000	 8.6350365297e-001	-6.0096697227e-001
 1.1246077566e+000	 8.7514706988e-001	-6.7818670198e-001
 1.1155176369e+000	 8.8670479965e-001	-7.4486561805e-001
 1.1063032923e+000	 8.9817483010e-001	-8.0096298273e-001
 1.1979498255e+000	 7.8319395951e-001	 2.4304943075e-001
 1.1898586450e+000	 7.9543256628e-001	 8.3131468785e-002
 1.1816340794e+000	 8.0759981736e-001	-6.5555215951e-002
 1.1732770475e+000	 8.1969356001e-001	-2.0289031989e-001
 1.1647885141e+000	 8.3171165670e-001	-3.2876773068e-001
 1.1561694895e+000	 8.4365198636e-001	-4.4309604085e-001
 1.1474210291e+000	 8.5551244555e-001	-5.4579904039e-001
 1.1385442333e+000	 8.6729094969e-001	-6.3681618666e-001
 1.1295402467e+000	 8.7898543423e-001	-7.1610305024e-001
 1.1204102581e+000	 8.9059385579e-001	-7.8363173512e-001
 1.1111554997e+000	 9.0211419339e-001	-8.3939127185e-001
 1.2031810474e+000	 7.8661402048e-001	 2.6176023623e-001
 1.1950545342e+000	 7.9890607094e-001	 9.0107582926e-002
 1.1867940535e+000	 8.1112645412e-001	-6.8938272043e-002
 1.1784005281e+000	 8.2327300787e-001	-2.1527661123e-001
 1.1698749268e+000	 8.3534358533e-001	-3.4882236464e-001
 1.1612182645e+000	 8.4733605617e-001	-4.6950661353e-001
 1.1524316013e+000	 8.5924830776e-001	-5.7727707092e-001
 1.1435160421e+000	 8.7107824642e-001	-6.7209853758e-001
 1.1344727369e+000	 8.8282379857e-001	-7.5395333168e-001
 1.1253028794e+000	 8.9448291193e-001	-8.2284169085e-001
 1.1160077072e+000	 9.0605355669e-001	-8.7878214514e-001
 1.0674856329e+000	 8.6665992379e-001	-5.2549219083e-001
 1.0584759575e+000	 8.7764095593e-001	-6.1388487630e-001
 1.0493489065e+000	 8.8853355167e-001	-6.9920754909e-001
 1.0401057860e+000	 8.9933584049e-001	-7.8123319656e-001
 1.0307479413e+000	 9.1004597769e-001	-8.5974261225e-001
 1.0212767568e+000	 9.2066214542e-001	-9.3452487095e-001
 1.0116936551e+000	 9.3118255370e-001	-1.0053777854e+000
 1.0020000962e+000	 9.4160544145e-001	-1.0721083433e+000
 9.9219757691e-001	 9.5192907742e-001	-1.1345331234e+000
 9.8228763021e-001	 9.6215176122e-001	-1.1924786901e+000
 9.7227182415e-001	 9.7227182415e-001	-1.2457819643e+000
 1.0723378404e+000	 8.7059928708e-001	-5.5702947207e-001
 1.0632872118e+000	 8.8163023299e-001	-6.4085869450e-001
 1.0541186743e+000	 8.9257234054e-001	-7.2223237279e-001
 1.0448335396e+000	 9.0342373067e-001	-8.0093029576e-001
 1.0354331592e+000	 9.1418255031e-001	-8.7673956438e-001
 1.0259189239e+000	 9.2484697335e-001	-9.4945506211e-001
 1.0162922626e+000	 9.3541520167e-001	-1.0188799075e+000
 1.0065546421e+000	 9.4588546618e-001	-1.0848258877e+000
 9.9670756589e-001	 9.5625602777e-001	-1.1471138712e+000
 9.8675257398e-001	 9.6652517831e-001	-1.2055742000e+000
 9.7669124153e-001	 9.7669124153e-001	-1.2600470590e+000
 1.0771900478e+000	 8.7453865036e-001	-5.8934922588e-001
 1.0680984662e+000	 8.8561951006e-001	-6.6877204438e-001
 1.0588884420e+000	 8.9661112940e-001	-7.4634663616e-001
 1.0495612931e+000	 9.0751162085e-001	-8.2185947288e-001
 1.0401183772e+000	 9.1831912294e-001	-8.9510384967e-001
 1.0305610910e+000	 9.2903180128e-001	-9.6588035110e-001
 1.0208908701e+000	 9.3964784964e-001	-1.0339972996e+000
 1.0111091879e+000	 9.5016549091e-001	-1.0992711856e+000
 1.0012175549e+000	 9.6058297812e-001	-1.1615270773e+000
 9.9121751775e-001	 9.7089859540e-001	-1.2205990106e+000
 9.8111065891e-001	 9.8111065891e-001	-1.2763303560e+000
 1.0820422552e+000	 8.7847801365e-001	-6.2247403752e-001
 1.0729097205e+000	 8.8960878713e-001	-6.9764594154e-001
 1.0636582098e+000	 9.0064991827e-001	-7.7156985511e-001
 1.0542890467e+000	 9.1159951103e-001	-8.4403881469e-001
 1.0448035951e+000	 9.2245569556e-001	-9.1485219703e-001
 1.0352032581e+000	 9.3321662921e-001	-9.8381618067e-001
 1.0254894777e+000	 9.4388049761e-001	-1.0507441906e+000
 1.0156637338e+000	 9.5444551564e-001	-1.1154573249e+000
 1.0057275439e+000	 9.6490992847e-001	-1.1777847620e+000
 9.9568246153e-001	 9.7527201250e-001	-1.2375641479e+000
 9.8553007629e-001	 9.8553007629e-001	-1.2946419615e+000
 1.0868944626e+000	 8.8241737694e-001	-6.5642647093e-001
 1.0777209749e+000	 8.9359806420e-001	-7.2750141255e-001
 1.0684279776e+000	 9.0468870714e-001	-7.9792158730e-001
 1.0590168003e+000	 9.1568740122e-001	-8.6748647915e-001
 1.0494888130e+000	 9.2659226818e-001	-9.3600143441e-001
 1.0398454251e+000	 9.3740145714e-001	-1.0032781191e+000
 1.0300880852e+000	 9.4811314558e-001	-1.0691349599e+000
 1.0202182797e+000	 9.5872554037e-001	-1.1333975675e+000
 1.0102375328e+000	 9.6923687882e-001	-1.1958991413e+000
 1.0001474053e+000	 9.7964542959e-001	-1.2564808541e+000
 9.8994949367e-001	 9.8994949367e-001	-1.3149922165e+000
 1.0917466701e+000	 8.8635674023e-001	-6.9122906928e-001
 1.0825322292e+000	 8.9758734127e-001	-7.5835949468e-001
 1.0731977453e+000	 9.0872749601e-001	-8.2542143129e-001
 1.0637445539e+000	 9.1977529140e-001	-8.9222069376e-001
 1.0541740309e+000	 9.3072884081e-001	-9.5856848660e-001
 1.0444875922e+000	 9.4158628508e-001	-1.0242818574e+000
 1.0346866927e+000	 9.5234579355e-001	-1.0891841340e+000
 1.0247728256e+000	 9.6300556511e-001	-1.1531053451e+000
 1.0147475218e+000	 9.7356382918e-001	-1.2158826224e+000
 1.0046123491e+000	 9.8401884669e-001	-1.2773605828e+000
 9.9436891106e-001	 9.9436891106e-001	-1.3373916915e+000
 1.0965988775e+000	 8.9029610352e-001	-7.2690435534e-001
 1.0873434836e+000	 9.0157661835e-001	-7.9024123570e-001
 1.0779675131e+000	 9.1276628488e-001	-8.5408902554e-001
 1.0684723074e+000	 9.2386318158e-001	-9.1825975409e-001
 1.0588592488e+000	 9.3486541344e-001	-9.8257037314e-001
 1.0491297593e+000	 9.4577111301e-001	-1.0468432063e+000
 1.0392853002e+000	 9.5657844152e-001	-1.1109063830e+000
 1.0293273715e+000	 9.6728558984e-001	-1.1745942557e+000
 1.0192575108e+000	 9.7789077953e-001	-1.2377477998e+000
 1.0090772928e+000	 9.8839226379e-001	-1.3002149940e+000
 9.9878832844e-001	 9.9878832844e-001	-1.3618511820e+000
 1.1014510849e+000	 8.9423546681e-001	-7.6347483202e-001
 1.0921547379e+000	 9.0556589542e-001	-8.2316769364e-001
 1.0827372808e+000	 9.1680507375e-001	-8.8394404761e-001
 1.0732000610e+000	 9.2795107177e-001	-9.4562202218e-001
 1.0635444667e+000	 9.3900198606e-001	-1.0080242061e+000
 1.0537719264e+000	 9.4995594094e-001	-1.0709780942e+000
 1.0438839078e+000	 9.6081108949e-001	-1.1343165179e+000
 1.0338819174e+000	 9.7156561457e-001	-1.1978780598e+000
 1.0237674998e+000	 9.8221772988e-001	-1.2615074509e+000
 1.0135422366e+000	 9.9276568088e-001	-1.3250559500e+000
 1.0032077458e+000	 1.0032077458e+000	-1.3883817027e+000
 1.1063032923e+000	 8.9817483010e-001	-8.0096298273e-001
 1.0969659923e+000	 9.0955517249e-001	-8.5715993654e-001
 1.0875070486e+000	 9.2084386263e-001	-9.1500621327e-001
 1.0779278146e+000	 9.3203896196e-001	-9.7432592521e-001
 1.0682296846e+000	 9.4313855869e-001	-1.0349471883e+000
 1.0584140935e+000	 9.5414076888e-001	-1.0967025641e+000
 1.0484825153e+000	 9.6504373746e-001	-1.1594294871e+000
 1.0384364633e+000	 9.7584563931e-001	-1.2229706767e+000
 1.0282774888e+000	 9.8654468023e-001	-1.2871745323e+000
 1.0180071804e+000	 9.9713909798e-001	-1.3518955105e+000
 1.0076271632e+000	 1.0076271632e+000	-1.4169944836e+000
 1.1111554997e+000	 9.0211419339e-001	-8.3939127185e-001
 1.1017772466e+000	 9.1354444957e-001	-8.9223904227e-001
 1.0922768163e+000	 9.2488265150e-001	-9.4729527566e-001
 1.0826555682e+000	 9.3612685214e-001	-1.0043899539e+000
 1.0729149026e+000	 9.4727513132e-001	-1.0633566110e+000
 1.0630562605e+000	 9.5832559682e-001	-1.1240327712e+000
 1.0530811228e+000	 9.6927638544e-001	-1.1862603737e+000
 1.0429910092e+000	 9.8012566405e-001	-1.2498861816e+000
 1.0327874778e+000	 9.9087163059e-001	-1.3147621755e+000
 1.0224721242e+000	 1.0015125151e+000	-1.3807459287e+000
 1.0120465806e+000	 1.0120465806e+000	-1.4477009646e+000
 1.1160077072e+000	 9.0605355669e-001	-8.7878214514e-001
 1.1065885010e+000	 9.1753372665e-001	-9.2842609826e-001
 1.0970465841e+000	 9.2892144038e-001	-9.8083102449e-001
 1.0873833217e+000	 9.4021474233e-001	-1.0358326615e+000
 1.0776001205e+000	 9.5141170395e-001	-1.0932698523e+000
 1.0676984276e+000	 9.6251042475e-001	-1.1529849806e+000
 1.0576797303e+000	 9.7350903341e-001	-1.2148243921e+000
 1.0475455551e+000	 9.8440568878e-001	-1.2786388014e+000
 1.0372974668e+000	 9.9519858094e-001	-1.3442836834e+000
 1.0269370679e+000	 1.0058859322e+000	-1.4116196468e+000
 1.0164659980e+000	 1.0164659980e+000	-1.4805127913e+000
 9.7227182415e-001	 9.7227182415e-001	-1.2457819643e+000
 9.6215176122e-001	 9.8228763021e-001	-1.2979493970e+000
 9.5192907742e-001	 9.9219757691e-001	-1.3489681110e+000
 9.4160544145e-001	 1.0020000962e+000	-1.3988696936e+000
 9.3118255370e-001	 1.0116936551e+000	-1.4476930190e+000
 9.2066214542e-001	 1.0212767568e+000	-1.4954843263e+000
 9.1004597769e-001	 1.0307479413e+000	-1.5422972760e+000
 8.9933584049e-001	 1.0401057860e+000	-1.5881929850e+000
 8.8853355167e-001	 1.0493489065e+000	-1.6332400400e+000
 8.7764095593e-001	 1.0584759575e+000	-1.6775144888e+000
 8.6665992379e-001	 1.0674856329e+000	-1.7210998100e+000
 9.7669124153e-001	 9.7669124153e-001	-1.2600470590e+000
 9.6652517831e-001	 9.8675257398e-001	-1.3156021865e+000
 9.5625602777e-001	 9.9670756589e-001	-1.3696053627e+000
 9.4588546618e-001	 1.0065546421e+000	-1.4220498104e+000
 9.3541520167e-001	 1.0162922626e+000	-1.4729365836e+000
 9.2484697335e-001	 1.0259189239e+000	-1.5222746871e+000
 9.1418255031e-001	 1.0354331592e+000	-1.5700811739e+000
 9.0342373067e-001	 1.0448335396e+000	-1.6163812193e+000
 8.9257234054e-001	 1.0541186743e+000	-1.6612081732e+000
 8.8163023299e-001	 1.0632872118e+000	-1.7046035883e+000
 8.7059928708e-001	 1.0723378404e+000	-1.7466172255e+000
 9.8111065891e-001	 9.8111065891e-001	-1.2763303560e+000
 9.7089859540e-001	 9.9121751775e-001	-1.3347715932e+000
 9.6058297812e-001	 1.0012175549e+000	-1.3912590565e+000
 9.5016549091e-001	 1.0111091879e+000	-1.4457478198e+000
 9.3964784964e-001	 1.0208908701e+000	-1.4982013327e+000
 9.2903180128e-001	 1.0305610910e+000	-1.5485915815e+000
 9.1831912294e-001	 1.0401183772e+000	-1.5968992267e+000
 9.0751162085e-001	 1.0495612931e+000	-1.6431137174e+000
 8.9661112940e-001	 1.0588884420e+000	-1.6872333809e+000
 8.8561951006e-001	 1.0680984662e+000	-1.7292654883e+000
 8.7453865036e-001	 1.0771900478e+000	-1.7692262961e+000
 9.8553007629e-001	 9.8553007629e-001	-1.2946419615e+000
 9.7527201250e-001	 9.9568246153e-001	-1.3554747133e+000
 9.6490992847e-001	 1.0057275439e+000	-1.4139532259e+000
 9.5444551564e-001	 1.0156637338e+000	-1.4699946363e+000
 9.4388049761e-001	 1.0254894777e+000	-1.5235250019e+000
 9.3321662921e-001	 1.0352032581e+000	-1.5744795025e+000
 9.2245569556e-001	 1.0448035951e+000	-1.6228026188e+000
 9.1159951103e-001	 1.0542890467e+000	-1.6684482850e+000
 9.0064991827e-001	 1.0636582098e+000	-1.7113800171e+000
 8.8960878713e-001	 1.0729097205e+000	-1.7515710154e+000
 8.7847801365e-001	 1.0820422552e+000	-1.7890042415e+000
 9.8994949367e-001	 9.8994949367e-001	-1.3149922165e+000
 9.7964542959e-001	 1.0001474053e+000	-1.3777287553e+000
 9.6923687882e-001	 1.0102375328e+000	-1.4377118947e+000
 9.5872554037e-001	 1.0202182797e+000	-1.4948210433e+000
 9.4811314558e-001	 1.0300880852e+000	-1.5489450752e+000
 9.3740145714e-001	 1.0398454251e+000	-1.5999825728e+000
 9.2659226818e-001	 1.0494888130e+000	-1.6478420455e+000
 9.1568740122e-001	 1.0590168003e+000	-1.6924421213e+000
 9.0468870714e-001	 1.0684279776e+000	-1.7337117132e+000
 8.9359806420e-001	 1.0777209749e+000	-1.7715901580e+000
 8.8241737694e-001	 1.0868944626e+000	-1.8060273290e+000
 9.9436891106e-001	 9.9436891106e-001	-1.3373916915e+000
 9.8401884669e-001	 1.0046123491e+000	-1.4015510378e+000
 9.7356382918e-001	 1.0147475218e+000	-1.4625590775e+000
 9.6300556511e-001	 1.0247728256e+000	-1.5202576966e+000
 9.5234579355e-001	 1.0346866927e+000	-1.5744987913e+000
 9.4158628508e-001	 1.0444875922e+000	-1.6251445525e+000
 9.3072884081e-001	 1.0541740309e+000	-1.6720677238e+000
 9.1977529140e-001	 1.0637445539e+000	-1.7151518327e+000
 9.0872749601e-001	 1.0731977453e+000	-1.7542913937e+000
 8.9758734127e-001	 1.0825322292e+000	-1.7893920849e+000
 8.8635674023e-001	 1.0917466701e+000	-1.8203708950e+000
 9.9878832844e-001	 9.9878832844e-001	-1.3618511820e+000
 9.8839226379e-001	 1.0090772928e+000	-1.4269589862e+000
 9.7789077953e-001	 1.0192575108e+000	-1.4885187794e+000
 9.6728558984e-001	 1.0293273715e+000	-1.5463351266e+000
 9.5657844152e-001	 1.0392853002e+000	-1.6002231487e+000
 9.4577111301e-001	 1.0491297593e+000	-1.6500088475e+000
 9.3486541344e-001	 1.0588592488e+000	-1.6955294034e+000
 9.2386318158e-001	 1.0684723074e+000	-1.7366334454e+000
 9.1276628488e-001	 1.0779675131e+000	-1.7731812920e+000
 9.0157661835e-001	 1.0873434836e+000	-1.8050451636e+000
 8.9029610352e-001	 1.0965988775e+000	-1.8321093653e+000
 1.0032077458e+000	 1.0032077458e+000	-1.3883817027e+000
 9.9276568088e-001	 1.0135422366e+000	-1.4539701314e+000
 9.8221772988e-001	 1.0237674998e+000	-1.5156149968e+000
 9.7156561457e-001	 1.0338819174e+000	-1.5730837418e+000
 9.6081108949e-001	 1.0438839078e+000	-1.6261549113e+000
 9.4995594094e-001	 1.0537719264e+000	-1.6746185172e+000
 9.3900198606e-001	 1.0635444667e+000	-1.7182763765e+000
 9.2795107177e-001	 1.0732000610e+000	-1.7569424187e+000
 9.1680507375e-001	 1.0827372808e+000	-1.7904429654e+000
 9.0556589542e-001	 1.0921547379e+000	-1.8186169778e+000
 8.9423546681e-001	 1.1014510849e+000	-1.8413162753e+000
 1.0076271632e+000	 1.0076271632e+000	-1.4169944836e+000
 9.9713909798e-001	 1.0180071804e+000	-1.4826021067e+000
 9.8654468023e-001	 1.0282774888e+000	-1.5438717168e+000
 9.7584563931e-001	 1.0384364633e+000	-1.6005338307e+000
 9.6504373746e-001	 1.0484825153e+000	-1.6523306130e+000
 9.5414076888e-001	 1.0584140935e+000	-1.6990162823e+000
 9.4313855869e-001	 1.0682296846e+000	-1.7403574881e+000
 9.3203896196e-001	 1.0779278146e+000	-1.7761336573e+000
 9.2084386263e-001	 1.0875070486e+000	-1.8061373102e+000
 9.0955517249e-001	 1.0969659923e+000	-1.8301743448e+000
 8.9817483010e-001	 1.1063032923e+000	-1.8480642896e+000
 1.0120465806e+000	 1.0120465806e+000	-1.4477009646e+000
 1.0015125151e+000	 1.0224721242e+000	-1.5128726459e+000
 9.9087163059e-001	 1.0327874778e+000	-1.5733129183e+000
 9.8012566405e-001	 1.0429910092e+000	-1.6287155648e+000
 9.6927638544e-001	 1.0530811228e+000	-1.6787865632e+000
 9.5832559682e-001	 1.0630562605e+000	-1.7232445317e+000
 9.4727513132e-001	 1.0729149026e+000	-1.7618211460e+000
 9.3612685214e-001	 1.0826555682e+000	-1.7942615233e+000
 9.2488265150e-001	 1.0922768163e+000	-1.8203245761e+000
 9.1354444957e-001	 1.1017772466e+000	-1.8397833319e+000
 9.0211419339e-001	 1.1111554997e+000	-1.8524252207e+000
 1.0164659980e+000	 1.0164659980e+000	-1.4805127913e+000
 1.0058859322e+000	 1.0269370679e+000	-1.5447995810e+000
 9.9519858094e-001	 1.0372974668e+000	-1.6039625714e+000
 9.8440568878e-001	 1.0475455551e+000	-1.6576590014e+000
 9.7350903341e-001	 1.0576797303e+000	-1.7055588515e+000
 9.6251042475e-001	 1.0676984276e+000	-1.7473453302e+000
 9.5141170395e-001	 1.0776001205e+000	-1.7827153295e+000
 9.4021474233e-001	 1.0873833217e+000	-1.8113798479e+000
 9.2892144038e-001	 1.0970465841e+000	-1.8330643800e+000
 9.1753372665e-001	 1.1065885010e+000	-1.8475092730e+000
 9.0605355669e-001	 1.1160077072e+000	-1.8544700480e+000
 8.6665992379e-001	 1.0674856329e+000	-1.7210998100e+000
 8.5559235055e-001	 1.0763766672e+000	-1.7322961219e+000
 8.4444015516e-001	 1.0851478353e+000	-1.7439973520e+000
 8.3320527919e-001	 1.0937979534e+000	-1.7558571310e+000
 8.2188968569e-001	 1.1023258795e+000	-1.7675369970e+000
 8.1049535808e-001	 1.1107305139e+000	-1.7787067387e+000
 7.9902429902e-001	 1.1190107996e+000	-1.7890447127e+000
 7.8747852927e-001	 1.1271657225e+000	-1.7982381364e+000
 7.7586008655e-001	 1.1351943121e+000	-1.8059833558e+000
 7.6417102437e-001	 1.1430956415e+000	-1.8119860874e+000
 7.5241341089e-001	 1.1508688279e+000	-1.8159616354e+000
 8.7059928708e-001	 1.0723378404e+000	-1.7466172255e+000
 8.5948140668e-001	 1.0812692884e+000	-1.7506207008e+000
 8.4827851950e-001	 1.0900803254e+000	-1.7557964667e+000
 8.3699257591e-001	 1.0987697622e+000	-1.7618874727e+000
 8.2562554789e-001	 1.1073364517e+000	-1.7686435864e+000
 8.1417942788e-001	 1.1157792890e+000	-1.7758218471e+000
 8.0265622764e-001	 1.1240972123e+000	-1.7831866963e+000
 7.9105797712e-001	 1.1322892031e+000	-1.7905101852e+000
 7.7938672330e-001	 1.1403542862e+000	-1.7975721592e+000
 7.6764452902e-001	 1.1482915307e+000	-1.8041604181e+000
 7.5583347184e-001	 1.1561000499e+000	-1.8100708550e+000
 8.7453865036e-001	 1.0771900478e+000	-1.7692262961e+000
 8.6337046282e-001	 1.0861619096e+000	-1.7673280096e+000
 8.5211688383e-001	 1.0950128156e+000	-1.7672594502e+000
 8.4077987263e-001	 1.1037415711e+000	-1.7688522788e+000
 8.2936141010e-001	 1.1123470239e+000	-1.7719440948e+000
 8.1786349769e-001	 1.1208280641e+000	-1.7763786013e+000
 8.0628815627e-001	 1.1291836250e+000	-1.7820057487e+000
 7.9463742498e-001	 1.1374126836e+000	-1.7886818572e+000
 7.8291336005e-001	 1.1455142603e+000	-1.7962697183e+000
 7.7111803368e-001	 1.1534874200e+000	-1.8046386751e+000
 7.5925353280e-001	 1.1613312718e+000	-1.8136646812e+000
 8.7847801365e-001	 1.0820422552e+000	-1.7890042415e+000
 8.6725951895e-001	 1.0910545309e+000	-1.7824777823e+000
 8.5595524817e-001	 1.0999453058e+000	-1.7784286470e+000
 8.4456716935e-001	 1.1087133800e+000	-1.7767766087e+000
 8.3309727230e-001	 1.1173575960e+000	-1.7774464093e+000
 8.2154756749e-001	 1.1258768391e+000	-1.7803678362e+000
 8.0992008490e-001	 1.1342700378e+000	-1.7854757805e+000
 7.9821687284e-001	 1.1425361642e+000	-1.7927102745e+000
 7.8643999681e-001	 1.1506742345e+000	-1.8020165107e+000
 7.7459153833e-001	 1.1586833093e+000	-1.8133448419e+000
 7.6267359375e-001	 1.1665624938e+000	-1.8266507619e+000
 8.8241737694e-001	 1.0868944626e+000	-1.8060273290e+000
 8.7114857509e-001	 1.0959471521e+000	-1.7961291126e+000
 8.5979361251e-001	 1.1048777959e+000	-1.7893460717e+000
 8.4835446607e-001	 1.1136851889e+000	-1.7856855001e+000
 8.3683313451e-001	 1.1223681682e+000	-1.7851587003e+000
 8.2523163730e-001	 1.1309256142e+000	-1.7877809733e+000
 8.1355201353e-001	 1.1393564505e+000	-1.7935715899e+000
 8.0179632070e-001	 1.1476596447e+000	-1.8025537452e+000
 7.8996663357e-001	 1.1558342086e+000	-1.8147544949e+000
 7.7806504299e-001	 1.1638791986e+000	-1.8302046757e+000
 7.6609365471e-001	 1.1717937157e+000	-1.8489388082e+000
 8.8635674023e-001	 1.0917466701e+000	-1.8203708950e+000
 8.7503763123e-001	 1.1008397733e+000	-1.8083404685e+000
 8.6363197685e-001	 1.1098102861e+000	-1.8000534161e+000
 8.5214176279e-001	 1.1186569978e+000	-1.7956039687e+000
 8.4056899671e-001	 1.1273787404e+000	-1.7950894159e+000
 8.2891570711e-001	 1.1359743892e+000	-1.7986100082e+000
 8.1718394216e-001	 1.1444428632e+000	-1.8062688434e+000
 8.0537576856e-001	 1.1527831253e+000	-1.8181717371e+000
 7.9349327032e-001	 1.1609941828e+000	-1.8344270780e+000
 7.8153854764e-001	 1.1690750879e+000	-1.8551456681e+000
 7.6951371567e-001	 1.1770249377e+000	-1.8804405486e+000
 8.9029610352e-001	 1.0965988775e+000	-1.8321093653e+000
 8.7892668736e-001	 1.1057323945e+000	-1.8191697057e+000
 8.6747034119e-001	 1.1147427762e+000	-1.8105920562e+000
 8.5592905952e-001	 1.1236288066e+000	-1.8065570093e+000
 8.4430485892e-001	 1.1323893126e+000	-1.8072472751e+000
 8.3259977692e-001	 1.1410231643e+000	-1.8128474977e+000
 8.2081587079e-001	 1.1495292760e+000	-1.8235440560e+000
 8.0895521642e-001	 1.1579066058e+000	-1.8395248517e+000
 7.9701990708e-001	 1.1661541569e+000	-1.8609790833e+000
 7.8501205230e-001	 1.1742709771e+000	-1.8880970064e+000
 7.7293377663e-001	 1.1822561596e+000	-1.9210696836e+000
 8.9423546681e-001	 1.1014510849e+000	-1.8413162753e+000
 8.8281574350e-001	 1.1106250157e+000	-1.8286740812e+000
 8.7130870554e-001	 1.1196752664e+000	-1.8210030596e+000
 8.5971635624e-001	 1.1286006155e+000	-1.8185695960e+000
 8.4804072113e-001	 1.1373998847e+000	-1.8216412624e+000
 8.3628384673e-001	 1.1460719394e+000	-1.8304865474e+000
 8.2444779943e-001	 1.1546156887e+000	-1.8453745731e+000
 8.1253466428e-001	 1.1630300864e+000	-1.8665747998e+000
 8.0054654384e-001	 1.1713141311e+000	-1.8943567192e+000
 7.8848555696e-001	 1.1794668664e+000	-1.9289895367e+000
 7.7635383759e-001	 1.1874873816e+000	-1.9707418434e+000
 8.9817483010e-001	 1.1063032923e+000	-1.8480642896e+000
 8.8670479965e-001	 1.1155176369e+000	-1.8369102667e+000
 8.7514706988e-001	 1.1246077566e+000	-1.8313271918e+000
 8.6350365297e-001	 1.1335724244e+000	-1.8316666826e+000
 8.5177658334e-001	 1.1424104569e+000	-1.8382806214e+000
 8.3996791654e-001	 1.1511207144e+000	-1.8515208000e+000
 8.2807972806e-001	 1.1597021014e+000	-1.8717385522e+000
 8.1611411214e-001	 1.1681535669e+000	-1.8992843766e+000
 8.0407318060e-001	 1.1764741052e+000	-1.9345075491e+000
 7.9195906162e-001	 1.1846627557e+000	-1.9777557270e+000
 7.7977389855e-001	 1.1927186035e+000	-2.0293745447e+000
 9.0211419339e-001	 1.1111554997e+000	-1.8524252207e+000
 8.9059385579e-001	 1.1204102581e+000	-1.8439343610e+000
 8.7898543423e-001	 1.1295402467e+000	-1.8416049232e+000
 8.6729094969e-001	 1.1385442333e+000	-1.8458732032e+000
 8.5551244555e-001	 1.1474210291e+000	-1.8571748496e+000
 8.4365198636e-001	 1.1561694895e+000	-1.8759444229e+000
 8.3171165670e-001	 1.1647885141e+000	-1.9026149447e+000
 8.1969356001e-001	 1.1732770475e+000	-1.9376174382e+000
 8.0759981736e-001	 1.1816340794e+000	-1.9813804613e+000
 7.9543256628e-001	 1.1898586450e+000	-2.0343296323e+000
 7.8319395951e-001	 1.1979498255e+000	-2.0968871498e+000
 9.0605355669e-001	 1.1160077072e+000	-1.8544700480e+000
 8.9448291193e-001	 1.1253028794e+000	-1.8498019029e+000
 8.8282379857e-001	 1.1344727369e+000	-1.8518764351e+000
 8.7107824642e-001	 1.1435160421e+000	-1.8612140726e+000
 8.5924830776e-001	 1.1524316013e+000	-1.8783336929e+000
 8.4733605617e-001	 1.1612182645e+000	-1.9037520978e+000
 8.3534358533e-001	 1.1698749268e+000	-1.9379834792e+000
 8.2327300787e-001	 1.1784005281e+000	-1.9815388787e+000
 8.1112645412e-001	 1.1867940535e+000	-2.0349256406e+000
 7.9890607094e-001	 1.1950545342e+000	-2.0986468597e+000
 7.8661402048e-001	 1.2031810474e+000	-2.1732008266e+000
 7.5241341089e-001	 1.1508688279e+000	-1.8159616354e+000
 7.4058932770e-001	 1.1585130330e+000	-1.8479792002e+000
 7.2870086873e-001	 1.1660274628e+000	-1.8780920117e+000
 7.1675013899e-001	 1.1734113679e+000	-1.9069306379e+000
 7.0473925348e-001	 1.1806640439e+000	-1.9351286969e+000
 6.9267033593e-001	 1.1877848314e+000	-1.9633220740e+000
 6.8054551769e-001	 1.1947731158e+000	-1.9921481333e+000
 6.6836693654e-001	 1.2016283278e+000	-2.0222449244e+000
 6.5613673553e-001	 1.2083499428e+000	-2.0542503864e+000
 6.4385706180e-001	 1.2149374815e+000	-2.0888015514e+000
 6.3153006546e-001	 1.2213905094e+000	-2.1265337481e+000
 7.5583347184e-001	 1.1561000499e+000	-1.8100708550e+000
 7.4395564282e-001	 1.1637790014e+000	-1.8537316864e+000
 7.3201314540e-001	 1.1713275876e+000	-1.8910436538e+000
 7.2000809417e-001	 1.1787450559e+000	-1.9224953079e+000
 7.0794261372e-001	 1.1860306987e+000	-1.9485837432e+000
 6.9581883745e-001	 1.1931838534e+000	-1.9698139140e+000
 6.8363890640e-001	 1.2002039027e+000	-1.9866979361e+000
 6.7140496807e-001	 1.2070902747e+000	-1.9997543758e+000
 6.5911917524e-001	 1.2138424425e+000	-2.0095075271e+000
 6.4678368481e-001	 1.2204599246e+000	-2.0164866801e+000
 6.3440065666e-001	 1.2269422844e+000	-2.0212253810e+000
 7.5925353280e-001	 1.1613312718e+000	-1.8136646812e+000
 7.4732195795e-001	 1.1690449697e+000	-1.8666113543e+000
 7.3532542207e-001	 1.1766277124e+000	-1.9088062716e+000
 7.2326604934e-001	 1.1840787440e+000	-1.9405969209e+000
 7.1114597396e-001	 1.1913973534e+000	-1.9623447974e+000
 6.9896733897e-001	 1.1985828753e+000	-1.9744248172e+000
 6.8673229512e-001	 1.2056346896e+000	-1.9772247092e+000
 6.7444299960e-001	 1.2125522217e+000	-1.9711443853e+000
 6.6210161494e-001	 1.2193349423e+000	-1.9565952908e+000
 6.4971030782e-001	 1.2259823677e+000	-1.9339997370e+000
 6.3727124786e-001	 1.2324940595e+000	-1.9037902174e+000
 7.6267359375e-001	 1.1665624938e+000	-1.8266507619e+000
 7.5068827307e-001	 1.1743109380e+000	-1.8865570780e+000
 7.3863769875e-001	 1.1819278373e+000	-1.9313493748e+000
 7.2652400452e-001	 1.1894124320e+000	-1.9612350197e+000
 7.1434933420e-001	 1.1967640082e+000	-1.9764408201e+000
 7.0211584050e-001	 1.2039818973e+000	-1.9772125358e+000
 6.8982568383e-001	 1.2110654765e+000	-1.9638143589e+000
 6.7748103113e-001	 1.2180141686e+000	-1.9365283655e+000
 6.6508405465e-001	 1.2248274420e+000	-1.8956539384e+000
 6.5263693082e-001	 1.2315048108e+000	-1.8415071636e+000
 6.4014183907e-001	 1.2380458345e+000	-1.7744202023e+000
 7.6609365471e-001	 1.1717937157e+000	-1.8489388082e+000
 7.5405458820e-001	 1.1795769064e+000	-1.9135092345e+000
 7.4194997542e-001	 1.1872279621e+000	-1.9586434263e+000
 7.2978195970e-001	 1.1947461200e+000	-1.9844095603e+000
 7.1755269444e-001	 1.2021306629e+000	-1.9909006569e+000
 7.0526434203e-001	 1.2093809193e+000	-1.9782341894e+000
 6.9291907255e-001	 1.2164962634e+000	-1.9465516527e+000
 6.8051906265e-001	 1.2234761156e+000	-1.8960180949e+000
 6.6806649435e-001	 1.2303199418e+000	-1.8268216129e+000
 6.5556355383e-001	 1.2370272539e+000	-1.7391728115e+000
 6.4301243027e-001	 1.2435976096e+000	-1.6333042311e+000
 7.6951371567e-001	 1.1770249377e+000	-1.8804405486e+000
 7.5742090332e-001	 1.1848428747e+000	-1.9474096702e+000
 7.4526225210e-001	 1.1925280869e+000	-1.9906598204e+000
 7.3303991487e-001	 1.2000798081e+000	-2.0101209032e+000
 7.2075605469e-001	 1.2074973177e+000	-2.0057530408e+000
 7.0841284355e-001	 1.2147799412e+000	-1.9775462788e+000
 6.9601246127e-001	 1.2219270503e+000	-1.9255202436e+000
 6.8355709418e-001	 1.2289380625e+000	-1.8497237538e+000
 6.7104893406e-001	 1.2358124415e+000	-1.7502343862e+000
 6.5849017684e-001	 1.2425496970e+000	-1.6271579997e+000
 6.4588302148e-001	 1.2491493846e+000	-1.4806282166e+000
 7.7293377663e-001	 1.1822561596e+000	-1.9210696836e+000
 7.6078721845e-001	 1.1901088430e+000	-1.9882016684e+000
 7.4857452878e-001	 1.1978282118e+000	-2.0273708629e+000
 7.3629787005e-001	 1.2054134961e+000	-2.0383698045e+000
 7.2395941493e-001	 1.2128639724e+000	-2.0210265948e+000
 7.1156134508e-001	 1.2201789632e+000	-1.9752046999e+000
 6.9910584998e-001	 1.2273578372e+000	-1.9008026960e+000
 6.8659512571e-001	 1.2344000095e+000	-1.7977539596e+000
 6.7403137377e-001	 1.2413049413e+000	-1.6660263052e+000
 6.6141679985e-001	 1.2480721401e+000	-1.5056215712e+000
 6.4875361269e-001	 1.2547011597e+000	-1.6026930762e+000
 7.7635383759e-001	 1.1874873816e+000	-1.9707418434e+000
 7.6415353358e-001	 1.1953748114e+000	-2.0358299177e+000
 7.5188680546e-001	 1.2031283366e+000	-2.0687497502e+000
 7.3955582523e-001	 1.2107471841e+000	-2.0691574068e+000
 7.2716277518e-001	 1.2182306272e+000	-2.0367498342e+000
 7.1470984661e-001	 1.2255779852e+000	-1.9712647568e+000
 7.0219923870e-001	 1.2327886241e+000	-1.8724805084e+000
 6.8963315725e-001	 1.2398619564e+000	-1.7402158017e+000
 6.7701381348e-001	 1.2467974410e+000	-1.5743294362e+000
 6.6434342286e-001	 1.2535945832e+000	-1.5908367966e+000
 6.5162420389e-001	 1.2602529347e+000	-1.7643610930e+000
 7.7977389855e-001	 1.1927186035e+000	-2.0293745447e+000
 7.6751984871e-001	 1.2006407797e+000	-2.0902404810e+000
 7.5519908214e-001	 1.2084284614e+000	-2.1147705507e+000
 7.4281378041e-001	 1.2160808722e+000	-2.1024852309e+000
 7.3036613542e-001	 1.2235972819e+000	-2.0529511693e+000
 7.1785834814e-001	 1.2309770071e+000	-1.9657811751e+000
 7.0529262742e-001	 1.2382194110e+000	-1.8406341378e+000
 6.9267118878e-001	 1.2453239034e+000	-1.6772148746e+000
 6.7999625318e-001	 1.2522899407e+000	-1.6112207282e+000
 6.6727004587e-001	 1.2591170263e+000	-1.7818054082e+000
 6.5449479510e-001	 1.2658047097e+000	-1.9139312992e+000
 7.8319395951e-001	 1.1979498255e+000	-2.0968871498e+000
 7.7088616384e-001	 1.2059067480e+000	-2.1513807658e+000
 7.5851135882e-001	 1.2137285862e+000	-2.1654081850e+000
 7.4607173559e-001	 1.2214145602e+000	-2.1383551678e+000
 7.3356949567e-001	 1.2289639366e+000	-2.0696589073e+000
 7.2100684967e-001	 1.2363760291e+000	-1.9588081143e+000
 7.0838601614e-001	 1.2436501979e+000	-1.8053430219e+000
 6.9570922031e-001	 1.2507858503e+000	-1.6549010981e+000
 6.8297869289e-001	 1.2577824405e+000	-1.8301314078e+000
 6.7019666888e-001	 1.2646394694e+000	-1.9625440008e+000
 6.5736538631e-001	 1.2713564848e+000	-2.0515483058e+000
 7.8661402048e-001	 1.2031810474e+000	-2.1732008266e+000
 7.7425247897e-001	 1.2111727164e+000	-2.2191994949e+000
 7.6182363550e-001	 1.2190287111e+000	-2.2206384078e+000
 7.4932969078e-001	 1.2267482482e+000	-2.1767694701e+000
 7.3677285592e-001	 1.2343305914e+000	-2.0869012547e+000
 7.2415535120e-001	 1.2417750510e+000	-1.9503991801e+000
 7.1147940486e-001	 1.2490809848e+000	-1.7666856013e+000
 6.9874725185e-001	 1.2562477972e+000	-1.9005601292e+000
 6.8596113260e-001	 1.2632749402e+000	-2.0406760881e+000
 6.7312329189e-001	 1.2701619125e+000	-2.1331715520e+000
 6.6023597752e-001	 1.2769082598e+000	-2.1773540550e+000
 6.3153006546e-001	 1.2213905094e+000	-2.1265337481e+000
 6.1915789839e-001	 1.2277086368e+000	-2.0486247341e+000
 6.0674271317e-001	 1.2338915187e+000	-2.0156485734e+000
 5.9428666192e-001	 1.2399388547e+000	-1.9388463055e+000
 5.8179189516e-001	 1.2458503886e+000	-1.8182467315e+000
 5.6926056076e-001	 1.2516259081e+000	-1.7581381861e+000
 5.5669480280e-001	 1.2572652451e+000	-1.9149787062e+000
 5.4409676055e-001	 1.2627682745e+000	-2.0242313337e+000
 5.3146856733e-001	 1.2681349147e+000	-2.0853888457e+000
 5.1881234956e-001	 1.2733651267e+000	-2.0979983482e+000
 5.0613022567e-001	 1.2784589139e+000	-2.0616613857e+000
 6.3440065666e-001	 1.2269422844e+000	-2.0212253810e+000
 6.2197225247e-001	 1.2332891306e+000	-1.8527184218e+000
 6.0950063459e-001	 1.2395001165e+000	-1.7711034536e+000
 5.9698796492e-001	 1.2455749404e+000	-1.6498809137e+000
 5.8443640377e-001	 1.2515133449e+000	-1.5854271825e+000
 5.7184810876e-001	 1.2573151168e+000	-1.7579845158e+000
 5.5922523372e-001	 1.2629800871e+000	-1.8880862456e+000
 5.4656992764e-001	 1.2685081303e+000	-1.9752865355e+000
 5.3388433354e-001	 1.2738991643e+000	-2.0191882868e+000
 5.2117058751e-001	 1.2791531500e+000	-2.0194432887e+000
 5.0843081760e-001	 1.2842700908e+000	-1.9757522939e+000
 6.3727124786e-001	 1.2324940595e+000	-1.9037902174e+000
 6.2478660655e-001	 1.2388696244e+000	-1.6476701702e+000
 6.1225855601e-001	 1.2451087144e+000	-1.5196769715e+000
 5.9968926793e-001	 1.2512110261e+000	-1.4325299913e+000
 5.8708091238e-001	 1.2571763012e+000	-1.6135645976e+000
 5.7443565676e-001	 1.2630043255e+000	-1.7570437435e+000
 5.6175566464e-001	 1.2686949291e+000	-1.8625931119e+000
 5.4904309473e-001	 1.2742479861e+000	-1.9298815821e+000
 5.3630009976e-001	 1.2796634139e+000	-1.9586214059e+000
 5.2352882546e-001	 1.2849411733e+000	-1.9485683172e+000
 5.1073140953e-001	 1.2900812677e+000	-1.8995215759e+000
 6.4014183907e-001	 1.2380458345e+000	-1.7744202023e+000
 6.2760096063e-001	 1.2444501182e+000	-1.4682302064e+000
 6.1501647744e-001	 1.2507173122e+000	-1.3062199208e+000
 6.0239057094e-001	 1.2568471118e+000	-1.4889170384e+000
 5.8972542099e-001	 1.2628392575e+000	-1.6387136684e+000
 5.7702320476e-001	 1.2686935342e+000	-1.7553169669e+000
 5.6428609556e-001	 1.2744097712e+000	-1.8384718155e+000
 5.5151626182e-001	 1.2799878419e+000	-1.8879610087e+000
 5.3871586597e-001	 1.2854276635e+000	-1.9036053835e+000
 5.2588706341e-001	 1.2907291966e+000	-1.8852638892e+000
 5.1303200146e-001	 1.2958924446e+000	-1.8328335990e+000
 6.4301243027e-001	 1.2435976096e+000	-1.6333042311e+000
 6.3041531472e-001	 1.2500306120e+000	-1.2840675414e+000
 6.1777439886e-001	 1.2563259100e+000	-1.3906480197e+000
 6.0509187394e-001	 1.2624831975e+000	-1.5401284418e+000
 5.9236992961e-001	 1.2685022138e+000	-1.6609038569e+000
 5.7961075276e-001	 1.2743827428e+000	-1.7528049885e+000
 5.6681652648e-001	 1.2801246132e+000	-1.8156950909e+000
 5.5398942891e-001	 1.2857276977e+000	-1.8494700827e+000
 5.4113163218e-001	 1.2911919132e+000	-1.8540586296e+000
 5.2824530136e-001	 1.2965172199e+000	-1.8294221754e+000
 5.1533259339e-001	 1.3017036215e+000	-1.7755549208e+000
 6.4588302148e-001	 1.2491493846e+000	-1.4806282166e+000
 6.3322966880e-001	 1.2556111058e+000	-1.4323503726e+000
 6.2053232028e-001	 1.2619345078e+000	-1.4677281347e+000
 6.0779317695e-001	 1.2681192833e+000	-1.5862215692e+000
 5.9501443822e-001	 1.2741651701e+000	-1.6801638179e+000
 5.8219830076e-001	 1.2800719515e+000	-1.7495083218e+000
 5.6934695740e-001	 1.2858394552e+000	-1.7942358915e+000
 5.5646259600e-001	 1.2914675535e+000	-1.8143547877e+000
 5.4354739839e-001	 1.2969561628e+000	-1.8099007570e+000
 5.3060353931e-001	 1.3023052432e+000	-1.7809370244e+000
 5.1763318533e-001	 1.3075147983e+000	-1.7275542405e+000
 6.4875361269e-001	 1.2547011597e+000	-1.6026930762e+000
 6.3604402288e-001	 1.2611915996e+000	-1.5705119209e+000
 6.2329024170e-001	 1.2675431056e+000	-1.5375450749e+000
 6.1049447996e-001	 1.2737553690e+000	-1.6272524821e+000
 5.9765894683e-001	 1.2798281265e+000	-1.6965214170e+000
 5.8478584876e-001	 1.2857611602e+000	-1.7454271980e+000
 5.7187738832e-001	 1.2915542972e+000	-1.7740673851e+000
 5.5893576309e-001	 1.2972074093e+000	-1.7825618075e+000
 5.4596316461e-001	 1.3027204124e+000	-1.7710525537e+000
 5.3296177726e-001	 1.3080932665e+000	-1.7397039249e+000
 5.1993377726e-001	 1.3133259752e+000	-1.6887023512e+000
 6.5162420389e-001	 1.2602529347e+000	-1.7643610930e+000
 6.3885837696e-001	 1.2667720934e+000	-1.6986727521e+000
 6.2604816313e-001	 1.2731517034e+000	-1.6137330956e+000
 6.1319578297e-001	 1.2793914547e+000	-1.6632759642e+000
 6.0030345545e-001	 1.2854910828e+000	-1.7100037477e+000
 5.8737339677e-001	 1.2914503689e+000	-1.7405615720e+000
 5.7440781924e-001	 1.2972691393e+000	-1.7551629487e+000
 5.6140893018e-001	 1.3029472651e+000	-1.7540385108e+000
 5.4837893082e-001	 1.3084846620e+000	-1.7374359577e+000
 5.3532001521e-001	 1.3138812898e+000	-1.7056199700e+000
 5.2223436920e-001	 1.3191371521e+000	-1.6588720943e+000
 6.5449479510e-001	 1.2658047097e+000	-1.9139312992e+000
 6.4167273105e-001	 1.2723525872e+000	-1.8169511653e+000
 6.2880608455e-001	 1.2787603012e+000	-1.7045098614e+000
 6.1589708597e-001	 1.2850275404e+000	-1.6943455500e+000
 6.0294796406e-001	 1.2911540391e+000	-1.7206371488e+000
 5.8996094477e-001	 1.2971395776e+000	-1.7349111287e+000
 5.7693825016e-001	 1.3029839813e+000	-1.7374961641e+000
 5.6388209727e-001	 1.3086871209e+000	-1.7287329360e+000
 5.5079469704e-001	 1.3142489116e+000	-1.7089740317e+000
 5.3767825317e-001	 1.3196693131e+000	-1.6785838218e+000
 5.2453496113e-001	 1.3249483290e+000	-1.6379383139e+000
 6.5736538631e-001	 1.2713564848e+000	-2.0515483058e+000
 6.4448708513e-001	 1.2779330810e+000	-1.9254632418e+000
 6.3156400597e-001	 1.2843688991e+000	-1.7876696035e+000
 6.1859838898e-001	 1.2906636261e+000	-1.7205135515e+000
 6.0559247267e-001	 1.2968169954e+000	-1.7284472203e+000
 5.9254849277e-001	 1.3028287862e+000	-1.7284752886e+000
 5.7946868108e-001	 1.3086988233e+000	-1.7210408137e+000
 5.6635526437e-001	 1.3144269767e+000	-1.7065937768e+000
 5.5321046325e-001	 1.3200131612e+000	-1.6855909384e+000
 5.4003649112e-001	 1.3254573364e+000	-1.6584956774e+000
 5.2683555306e-001	 1.3307595059e+000	-1.6257778138e+000
 6.6023597752e-001	 1.2769082598e+000	-2.1773540550e+000
 6.4730143922e-001	 1.2835135748e+000	-2.0243228941e+000
 6.3432192740e-001	 1.2899774969e+000	-1.8632986998e+000
 6.2129969199e-001	 1.2962997118e+000	-1.7418310853e+000
 6.0823698129e-001	 1.3024799517e+000	-1.7334588398e+000
 5.9513604077e-001	 1.3085179949e+000	-1.7212532138e+000
 5.8199911200e-001	 1.3144136653e+000	-1.7057708757e+000
 5.6882843146e-001	 1.3201668325e+000	-1.6875703677e+000
 5.5562622946e-001	 1.3257774108e+000	-1.6672119166e+000
 5.4239472907e-001	 1.3312453597e+000	-1.6452572350e+000
 5.2913614500e-001	 1.3365706828e+000	-1.6222693145e+000
 5.0613022567e-001	 1.2784589139e+000	-2.0616613857e+000
 4.9342430510e-001	 1.2834163218e+000	-2.0044611915e+000
 4.8069668732e-001	 1.2882374373e+000	-1.9486727736e+000
 4.6794946090e-001	 1.2929223882e+000	-1.8945259669e+000
 4.5518470246e-001	 1.2974713433e+000	-1.8422525509e+000
 4.4240447586e-001	 1.3018845109e+000	-1.7920862827e+000
 4.2961083122e-001	 1.3061621391e+000	-1.7442629174e+000
 4.1680580403e-001	 1.3103045149e+000	-1.6990202146e+000
 4.0399141435e-001	 1.3143119634e+000	-1.6565979304e+000
 3.9116966593e-001	 1.3181848476e+000	-1.6172377973e+000
 3.7834254541e-001	 1.3219235675e+000	-1.5811834895e+000
 5.0843081760e-001	 1.2842700908e+000	-1.9757522939e+000
 4.9566714284e-001	 1.2892500324e+000	-1.9254566107e+000
 4.8288167226e-001	 1.2940930620e+000	-1.8768712845e+000
 4.7007650390e-001	 1.2987993082e+000	-1.8301408879e+000
 4.5725372383e-001	 1.3033689403e+000	-1.7854129763e+000
 4.4441540530e-001	 1.3078021678e+000	-1.7428381959e+000
 4.3156360772e-001	 1.3120992398e+000	-1.7025703737e+000
 4.1870037586e-001	 1.3162604445e+000	-1.6647665928e+000
 4.0582773896e-001	 1.3202861087e+000	-1.6295872499e+000
 3.9294770987e-001	 1.3241765969e+000	-1.5971960968e+000
 3.8006228425e-001	 1.3279323110e+000	-1.5677602650e+000
 5.1073140953e-001	 1.2900812677e+000	-1.8995215759e+000
 4.9790998059e-001	 1.2950837429e+000	-1.8549317349e+000
 4.8506665720e-001	 1.2999486867e+000	-1.8123512596e+000
 4.7220354690e-001	 1.3046762281e+000	-1.7718399343e+000
 4.5932274521e-001	 1.3092665373e+000	-1.7334615606e+000
 4.4642633473e-001	 1.3137198246e+000	-1.6972841384e+000
 4.3351638422e-001	 1.3180363404e+000	-1.6633800273e+000
 4.2059494769e-001	 1.3222163741e+000	-1.6318260887e+000
 4.0766406357e-001	 1.3262602540e+000	-1.6027038087e+000
 3.9472575380e-001	 1.3301683462e+000	-1.5760994020e+000
 3.8178202309e-001	 1.3339410545e+000	-1.5521038953e+000
 5.1303200146e-001	 1.2958924446e+000	-1.8328335990e+000
 5.0015281834e-001	 1.3009174535e+000	-1.7927678406e+000
 4.8725164214e-001	 1.3058043114e+000	-1.7550108659e+000
 4.7433058990e-001	 1.3105531481e+000	-1.7195381375e+000
 4.6139176658e-001	 1.3151641343e+000	-1.6863301656e+000
 4.4843726416e-001	 1.3196374815e+000	-1.6553727617e+000
 4.3546916072e-001	 1.3239734410e+000	-1.6266572703e+000
 4.2248951953e-001	 1.3281723037e+000	-1.6001807789e+000
 4.0950038818e-001	 1.3322343993e+000	-1.5759463054e+000
 3.9650379773e-001	 1.3361600955e+000	-1.5539629635e+000
 3.8350176193e-001	 1.3399497980e+000	-1.5342461053e+000
 5.1533259339e-001	 1.3017036215e+000	-1.7755549208e+000
 5.0239565608e-001	 1.3067511640e+000	-1.7388481011e+000
 4.8943662708e-001	 1.3116599361e+000	-1.7047498742e+000
 4.7645763290e-001	 1.3164300680e+000	-1.6731518401e+000
 4.6346078795e-001	 1.3210617313e+000	-1.6439516724e+000
 4.5044819360e-001	 1.3255551384e+000	-1.6170534445e+000
 4.3742193723e-001	 1.3299105416e+000	-1.5923679315e+000
 4.2438409136e-001	 1.3341282333e+000	-1.5698128873e+000
 4.1133671279e-001	 1.3382085445e+000	-1.5493132967e+000
 3.9828184167e-001	 1.3421518448e+000	-1.5308016020e+000
 3.8522150077e-001	 1.3459585415e+000	-1.5142179042e+000
 5.1763318533e-001	 1.3075147983e+000	-1.7275542405e+000
 5.0463849383e-001	 1.3125848746e+000	-1.6930575446e+000
 4.9162161202e-001	 1.3175155608e+000	-1.6614696235e+000
 4.7858467590e-001	 1.3223069880e+000	-1.6325986665e+000
 4.6552980932e-001	 1.3269593283e+000	-1.6062599583e+000
 4.5245912303e-001	 1.3314727952e+000	-1.5822762770e+000
 4.3937471373e-001	 1.3358476423e+000	-1.5604782667e+000
 4.2627866320e-001	 1.3400841629e+000	-1.5407047814e+000
 4.1317303740e-001	 1.3441826898e+000	-1.5228032006e+000
 4.0005988561e-001	 1.3481435941e+000	-1.5066297180e+000
 3.8694123961e-001	 1.3519672849e+000	-1.4920496008e+000
 5.1993377726e-001	 1.3133259752e+000	-1.6887023512e+000
 5.0688133158e-001	 1.3184185851e+000	-1.6552830126e+000
 4.9380659696e-001	 1.3233711855e+000	-1.6250729862e+000
 4.8071171891e-001	 1.3281839079e+000	-1.5977974951e+000
 4.6759883070e-001	 1.3328569254e+000	-1.5731898748e+000
 4.5447005247e-001	 1.3373904521e+000	-1.5509920448e+000
 4.4132749024e-001	 1.3417847429e+000	-1.5309549494e+000
 4.2817323504e-001	 1.3460400925e+000	-1.5128389688e+000
 4.1500936201e-001	 1.3501568351e+000	-1.4964142992e+000
 4.0183792954e-001	 1.3541353434e+000	-1.4814613014e+000
 3.8866097846e-001	 1.3579760284e+000	-1.4677708190e+000
 5.2223436920e-001	 1.3191371521e+000	-1.6588720943e+000
 5.0912416933e-001	 1.3242522957e+000	-1.6254131208e+000
 4.9599158191e-001	 1.3292268103e+000	-1.5954643346e+000
 4.8283876191e-001	 1.3340608279e+000	-1.5686684299e+000
 4.6966785207e-001	 1.3387545224e+000	-1.5446772265e+000
 4.5648098190e-001	 1.3433081090e+000	-1.5231522139e+000
 4.4328026674e-001	 1.3477218435e+000	-1.5037650613e+000
 4.3006780687e-001	 1.3519960222e+000	-1.4861980949e+000
 4.1684568662e-001	 1.3561309804e+000	-1.4701447419e+000
 4.0361597348e-001	 1.3601270927e+000	-1.4553099401e+000
 3.9038071730e-001	 1.3639847719e+000	-1.4414105134e+000
 5.2453496113e-001	 1.3249483290e+000	-1.6379383139e+000
 5.1136700708e-001	 1.3300860062e+000	-1.6033382192e+000
 4.9817656685e-001	 1.3350824350e+000	-1.5725495077e+000
 4.8496580491e-001	 1.3399377478e+000	-1.5451327743e+000
 4.7173687345e-001	 1.3446521194e+000	-1.5206587498e+000
 4.5849191134e-001	 1.3492257658e+000	-1.4987089158e+000
 4.4523304325e-001	 1.3536589442e+000	-1.4788760837e+000
 4.3196237871e-001	 1.3579519518e+000	-1.4607649392e+000
 4.1868201123e-001	 1.3621051257e+000	-1.4439925485e+000
 4.0539401742e-001	 1.3661188421e+000	-1.4281888292e+000
 3.9210045615e-001	 1.3699935154e+000	-1.4129969833e+000
 5.2683555306e-001	 1.3307595059e+000	-1.6257778138e+000
 5.1360984483e-001	 1.3359197168e+000	-1.5889503553e+000
 5.0036155179e-001	 1.3409380597e+000	-1.5562357791e+000
 4.8709284792e-001	 1.3458146678e+000	-1.5271130047e+000
 4.7380589483e-001	 1.3505497164e+000	-1.5010720928e+000
 4.6050284078e-001	 1.3551434227e+000	-1.4776149324e+000
 4.4718581976e-001	 1.3595960448e+000	-1.4562558886e+000
 4.3385695055e-001	 1.3639078814e+000	-1.4365224126e+000
 4.2051833584e-001	 1.3680792710e+000	-1.4179556115e+000
 4.0717206135e-001	 1.3721105914e+000	-1.4001107794e+000
 3.9382019499e-001	 1.3760022589e+000	-1.3825578877e+000
 5.2913614500e-001	 1.3365706828e+000	-1.6222693145e+000
 5.1585268258e-001	 1.3417534274e+000	-1.5821432362e+000
 5.0254653674e-001	 1.3467936844e+000	-1.5464318263e+000
 4.8921989093e-001	 1.3516915877e+000	-1.5145327448e+000
 4.7587491620e-001	 1.3564473134e+000	-1.4858557952e+000
 4.6251377021e-001	 1.3610610796e+000	-1.4598236826e+000
 4.4913859626e-001	 1.3655331454e+000	-1.4358727302e+000
 4.3575152239e-001	 1.3698638110e+000	-1.4134535547e+000
 4.2235466046e-001	 1.3740534163e+000	-1.3920316995e+000
 4.0895010529e-001	 1.3781023407e+000	-1.3710882254e+000
 3.9553993384e-001	 1.3820110024e+000	-1.3501202586e+000
 3.7834254541e-001	 1.3219235675e+000	-1.5811834895e+000
 3.6551202150e-001	 1.3255285595e+000	-1.5628247763e+000
 3.5268004430e-001	 1.3290002958e+000	-1.5445478904e+000
 3.3984854446e-001	 1.3323392837e+000	-1.5262199644e+000
 3.2701943254e-001	 1.3355460646e+000	-1.5077192521e+000
 3.1419459830e-001	 1.3386212140e+000	-1.4889352350e+000
 3.0137591003e-001	 1.3415653398e+000	-1.4697687025e+000
 2.8856521396e-001	 1.3443790825e+000	-1.4501318034e+000
 2.7576433358e-001	 1.3470631137e+000	-1.4299480715e+000
 2.6297506915e-001	 1.3496181360e+000	-1.4091524244e+000
 2.5019919705e-001	 1.3520448816e+000	-1.3876911368e+000
 3.8006228425e-001	 1.3279323110e+000	-1.5677602650e+000
 3.6717343978e-001	 1.3315536893e+000	-1.5496485887e+000
 3.5428313541e-001	 1.3350412063e+000	-1.5311329782e+000
 3.4139331057e-001	 1.3383953713e+000	-1.5121073818e+000
 3.2850588450e-001	 1.3416167286e+000	-1.4924769451e+000
 3.1562275556e-001	 1.3447058558e+000	-1.4721580923e+000
 3.0274580053e-001	 1.3476633640e+000	-1.4510785814e+000
 2.8987687402e-001	 1.3504898965e+000	-1.4291775318e+000
 2.7701780783e-001	 1.3531861279e+000	-1.4064054250e+000
 2.6417041037e-001	 1.3557527639e+000	-1.3827240798e+000
 2.5133646613e-001	 1.3581905401e+000	-1.3581066023e+000
 3.8178202309e-001	 1.3339410545e+000	-1.5521038953e+000
 3.6883485806e-001	 1.3375788192e+000	-1.5346751980e+000
 3.5588622652e-001	 1.3410821167e+000	-1.5163579417e+000
 3.4293807668e-001	 1.3444514590e+000	-1.4970726488e+000
 3.2999233647e-001	 1.3476873925e+000	-1.4767511182e+000
 3.1705091283e-001	 1.3507904977e+000	-1.4553364824e+000
 3.0411569103e-001	 1.3537613883e+000	-1.4327832376e+000
 2.9118853409e-001	 1.3566007105e+000	-1.4090572469e+000
 2.7827128207e-001	 1.3593091420e+000	-1.3841357169e+000
 2.6536575159e-001	 1.3618873918e+000	-1.3580071498e+000
 2.5247373520e-001	 1.3643361987e+000	-1.3306712694e+000
 3.8350176193e-001	 1.3399497980e+000	-1.5342461053e+000
 3.7049627634e-001	 1.3436039490e+000	-1.5179310667e+000
 3.5748931763e-001	 1.3471230271e+000	-1.5002439417e+000
 3.4448284279e-001	 1.3505075466e+000	-1.4811315875e+000
 3.3147878844e-001	 1.3537580564e+000	-1.4605522205e+000
 3.1847907009e-001	 1.3568751396e+000	-1.4384754492e+000
 3.0548558154e-001	 1.3598594126e+000	-1.4148822798e+000
 2.9250019415e-001	 1.3627115245e+000	-1.3897650947e+000
 2.7952475632e-001	 1.3654321562e+000	-1.3631276060e+000
 2.6656109282e-001	 1.3680220197e+000	-1.3349847829e+000
 2.5361100428e-001	 1.3704818573e+000	-1.3053627559e+000
 3.8522150077e-001	 1.3459585415e+000	-1.5142179042e+000
 3.7215769462e-001	 1.3496290788e+000	-1.4994420429e+000
 3.5909240874e-001	 1.3531639376e+000	-1.4828116267e+000
 3.4602760890e-001	 1.3565636343e+000	-1.4642996103e+000
 3.3296524040e-001	 1.3598287204e+000	-1.4438903943e+000
 3.1990722736e-001	 1.3629597815e+000	-1.4215798333e+000
 3.0685547204e-001	 1.3659574369e+000	-1.3973752174e+000
 2.9381185422e-001	 1.3688223385e+000	-1.3712952266e+000
 2.8077823056e-001	 1.3715551703e+000	-1.3433698603e+000
 2.6775643404e-001	 1.3741566476e+000	-1.3136403417e+000
 2.5474827336e-001	 1.3766275158e+000	-1.2821589982e+000
 3.8694123961e-001	 1.3519672849e+000	-1.4920496008e+000
 3.7381911290e-001	 1.3556542086e+000	-1.4792333737e+000
 3.6069549985e-001	 1.3592048480e+000	-1.4640811441e+000
 3.4757237501e-001	 1.3626197219e+000	-1.4465917290e+000
 3.3445169237e-001	 1.3658993843e+000	-1.4267754821e+000
 3.2133538462e-001	 1.3690444233e+000	-1.4046542766e+000
 3.0822536254e-001	 1.3720554611e+000	-1.3802614628e+000
 2.9512351428e-001	 1.3749331525e+000	-1.3536417984e+000
 2.8203170481e-001	 1.3776781845e+000	-1.3248513548e+000
 2.6895177527e-001	 1.3802912755e+000	-1.2939573978e+000
 2.5588554244e-001	 1.3827731744e+000	-1.2610382451e+000
 3.8866097846e-001	 1.3579760284e+000	-1.4677708190e+000
 3.7548053118e-001	 1.3616793384e+000	-1.4573297186e+000
 3.6229859096e-001	 1.3652457585e+000	-1.4440721510e+000
 3.4911714113e-001	 1.3686758096e+000	-1.4280225634e+000
 3.3593814434e-001	 1.3719700482e+000	-1.4092170330e+000
 3.2276354189e-001	 1.3751290652e+000	-1.3877032267e+000
 3.0959525304e-001	 1.3781534854e+000	-1.3635403331e+000
 2.9643517435e-001	 1.3810439665e+000	-1.3367989707e+000
 2.8328517905e-001	 1.3838011986e+000	-1.3075610691e+000
 2.7014711649e-001	 1.3864259034e+000	-1.2759197276e+000
 2.5702281152e-001	 1.3889188329e+000	-1.2419790498e+000
 3.9038071730e-001	 1.3639847719e+000	-1.4414105134e+000
 3.7714194946e-001	 1.3677044682e+000	-1.4337551626e+000
 3.6390168207e-001	 1.3712866689e+000	-1.4228038259e+000
 3.5066190724e-001	 1.3747318972e+000	-1.4086063501e+000
 3.3742459631e-001	 1.3780407121e+000	-1.3912243096e+000
 3.2419169916e-001	 1.3812137071e+000	-1.3707309411e+000
 3.1096514354e-001	 1.3842515097e+000	-1.3472110530e+000
 2.9774683441e-001	 1.3871547805e+000	-1.3207609085e+000
 2.8453865330e-001	 1.3899242128e+000	-1.2914880848e+000
 2.7134245772e-001	 1.3925605312e+000	-1.2595113079e+000
 2.5816008060e-001	 1.3950644915e+000	-1.2249602640e+000
 3.9210045615e-001	 1.3699935154e+000	-1.4129969833e+000
 3.7880336774e-001	 1.3737295981e+000	-1.4085332284e+000
 3.6550477319e-001	 1.3773275793e+000	-1.4002948781e+000
 3.5220667335e-001	 1.3807879849e+000	-1.3883569510e+000
 3.3891104827e-001	 1.3841113761e+000	-1.3728062935e+000
 3.2561985642e-001	 1.3872983490e+000	-1.3537414916e+000
 3.1233503404e-001	 1.3903495339e+000	-1.3312727559e+000
 2.9905849448e-001	 1.3932655945e+000	-1.3055217815e+000
 2.8579212755e-001	 1.3960472270e+000	-1.2766215840e+000
 2.7253779895e-001	 1.3986951591e+000	-1.2447163108e+000
 2.5929734968e-001	 1.4012101500e+000	-1.2099610313e+000
 3.9382019499e-001	 1.3760022589e+000	-1.3825578877e+000
 3.8046478602e-001	 1.3797547279e+000	-1.3816868889e+000
 3.6710786430e-001	 1.3833684898e+000	-1.3765635588e+000
 3.5375143947e-001	 1.3868440726e+000	-1.3672878613e+000
 3.4039750024e-001	 1.3901820400e+000	-1.3539716923e+000
 3.2704801369e-001	 1.3933829909e+000	-1.3367387682e+000
 3.1370492455e-001	 1.3964475582e+000	-1.3157244866e+000
 3.0037015454e-001	 1.3993764085e+000	-1.2910757637e+000
 2.8704560179e-001	 1.4021702411e+000	-1.2629508460e+000
 2.7373314017e-001	 1.4048297870e+000	-1.2315191004e+000
 2.6043461877e-001	 1.4073558086e+000	-1.1969607803e+000
 3.9553993384e-001	 1.3820110024e+000	-1.3501202586e+000
 3.8212620431e-001	 1.3857798577e+000	-1.3532385792e+000
 3.6871095541e-001	 1.3894094002e+000	-1.3516276706e+000
 3.5529620558e-001	 1.3929001602e+000	-1.3454122175e+000
 3.4188395221e-001	 1.3962527039e+000	-1.3347289451e+000
 3.2847617096e-001	 1.3994676328e+000	-1.3197264829e+000
 3.1507481505e-001	 1.4025455825e+000	-1.3005652030e+000
 3.0168181461e-001	 1.4054872226e+000	-1.2774170331e+000
 2.8829907604e-001	 1.4082932553e+000	-1.2504652464e+000
 2.7492848140e-001	 1.4109644149e+000	-1.2199042278e+000
 2.6157188785e-001	 1.4135014671e+000	-1.1859392188e+000
 2.5019919705e-001	 1.3520448816e+000	-1.3876911368e+000
 2.3743846934e-001	 1.3543441119e+000	-1.4047494965e+000
 2.2469461321e-001	 1.3565166165e+000	-1.4178581093e+000
 2.1196933053e-001	 1.3585632127e+000	-1.4270777762e+000
 1.9926429738e-001	 1.3604847444e+000	-1.4324815403e+000
 1.8658116367e-001	 1.3622820814e+000	-1.4341544382e+000
 1.7392155269e-001	 1.3639561186e+000	-1.4321932316e+000
 1.6128706082e-001	 1.3655077752e+000	-1.4267061197e+000
 1.4867925710e-001	 1.3669379937e+000	-1.4178124346e+000
 1.3609968301e-001	 1.3682477394e+000	-1.4056423201e+000
 1.2354985208e-001	 1.3694379994e+000	-1.3903363954e+000
 2.5133646613e-001	 1.3581905401e+000	-1.3581066023e+000
 2.3851773511e-001	 1.3605002215e+000	-1.3727105577e+000
 2.2571595236e-001	 1.3626826011e+000	-1.3835336910e+000
 2.1293282749e-001	 1.3647385001e+000	-1.3906357505e+000
 2.0017004419e-001	 1.3666687660e+000	-1.3940887454e+000
 1.8742925987e-001	 1.3684742727e+000	-1.3939766985e+000
 1.7471210521e-001	 1.3701559192e+000	-1.3903953788e+000
 1.6202018382e-001	 1.3717146287e+000	-1.3834520158e+000
 1.4935507191e-001	 1.3731513482e+000	-1.3732649951e+000
 1.3671831793e-001	 1.3744670473e+000	-1.3599635389e+000
 1.2411144232e-001	 1.3756627175e+000	-1.3436873692e+000
 2.5247373520e-001	 1.3643361987e+000	-1.3306712694e+000
 2.3959700088e-001	 1.3666563311e+000	-1.3428488544e+000
 2.2673729151e-001	 1.3688485857e+000	-1.3514110783e+000
 2.1389632444e-001	 1.3709137874e+000	-1.3564166267e+000
 2.0107579100e-001	 1.3728527876e+000	-1.3579364680e+000
 1.8827735606e-001	 1.3746664640e+000	-1.3560536074e+000
 1.7550265772e-001	 1.3763557197e+000	-1.3508628213e+000
 1.6275330683e-001	 1.3779214822e+000	-1.3424703724e+000
 1.5003088671e-001	 1.3793647027e+000	-1.3309937065e+000
 1.3733695285e-001	 1.3806863552e+000	-1.3165611333e+000
 1.2467303255e-001	 1.3818874357e+000	-1.2993114906e+000
 2.5361100428e-001	 1.3704818573e+000	-1.3053627559e+000
 2.4067626665e-001	 1.3728124407e+000	-1.3151419555e+000
 2.2775863067e-001	 1.3750145704e+000	-1.3214678076e+000
 2.1485982140e-001	 1.3770890747e+000	-1.3243979243e+000
 2.0198153780e-001	 1.3790368091e+000	-1.3240022259e+000
 1.8912545226e-001	 1.3808586553e+000	-1.3203626964e+000
 1.7629321023e-001	 1.3825555203e+000	-1.3135731191e+000
 1.6348642983e-001	 1.3841283357e+000	-1.3037387927e+000
 1.5070670152e-001	 1.3855780572e+000	-1.2909762293e+000
 1.3795558777e-001	 1.3869056631e+000	-1.2754128352e+000
 1.2523462279e-001	 1.3881121539e+000	-1.2571865766e+000
 2.5474827336e-001	 1.3766275158e+000	-1.2821589982e+000
 2.4175553242e-001	 1.3789685503e+000	-1.2895677560e+000
 2.2877996982e-001	 1.3811805550e+000	-1.2936817476e+000
 2.1582331836e-001	 1.3832643621e+000	-1.2945575009e+000
 2.0288728461e-001	 1.3852208307e+000	-1.2922638806e+000
 1.8997354846e-001	 1.3870508466e+000	-1.2868818455e+000
 1.7708376275e-001	 1.3887553208e+000	-1.2785041851e+000
 1.6421955284e-001	 1.3903351893e+000	-1.2672352366e+000
 1.5138251633e-001	 1.3917914117e+000	-1.2531905842e+000
 1.3857422270e-001	 1.3931249710e+000	-1.2364967401e+000
 1.2579621303e-001	 1.3943368721e+000	-1.2172908105e+000
 2.5588554244e-001	 1.3827731744e+000	-1.2610382451e+000
 2.4283479819e-001	 1.3851246599e+000	-1.2661044694e+000
 2.2980130897e-001	 1.3873465396e+000	-1.2680310917e+000
 2.1678681532e-001	 1.3894396494e+000	-1.2668735445e+000
 2.0379303142e-001	 1.3914048523e+000	-1.2626996293e+000
 1.9082164466e-001	 1.3932430378e+000	-1.2555892752e+000
 1.7787431526e-001	 1.3949551213e+000	-1.2456342770e+000
 1.6495267584e-001	 1.3965420428e+000	-1.2329380128e+000
 1.5205833113e-001	 1.3980047663e+000	-1.2176151444e+000
 1.3919285762e-001	 1.3993442789e+000	-1.1997912985e+000
 1.2635780327e-001	 1.4005615903e+000	-1.1796027334e+000
 2.5702281152e-001	 1.3889188329e+000	-1.2419790498e+000
 2.4391406397e-001	 1.3912807695e+000	-1.2447306205e+000
 2.3082264813e-001	 1.3935125242e+000	-1.2444943508e+000
 2.1775031228e-001	 1.3956149367e+000	-1.2413245663e+000
 2.0469877823e-001	 1.3975888738e+000	-1.2352879974e+000
 1.9166974087e-001	 1.3994352291e+000	-1.2264635390e+000
 1.7866486778e-001	 1.4011549219e+000	-1.2149419898e+000
 1.6568579885e-001	 1.4027488963e+000	-1.2008257711e+000
 1.5273414594e-001	 1.4042181208e+000	-1.1842286274e+000
 1.3981149255e-001	 1.4055635868e+000	-1.1652753086e+000
 1.2691939350e-001	 1.4067863084e+000	-1.1441012365e+000
 2.5816008060e-001	 1.3950644915e+000	-1.2249602640e+000
 2.4499332974e-001	 1.3974368791e+000	-1.2254250387e+000
 2.3184398728e-001	 1.3996785088e+000	-1.2230503461e+000
 2.1871380924e-001	 1.4017902240e+000	-1.2178893934e+000
 2.0560452504e-001	 1.4037728954e+000	-1.2100078314e+000
 1.9251783707e-001	 1.4056274204e+000	-1.1994835160e+000
 1.7945542029e-001	 1.4073547224e+000	-1.1864062485e+000
 1.6641892185e-001	 1.4089557498e+000	-1.1708774950e+000
 1.5340996075e-001	 1.4104314753e+000	-1.1530100878e+000
 1.4043012747e-001	 1.4117828947e+000	-1.1329279083e+000
 1.2748098374e-001	 1.4130110266e+000	-1.1107655531e+000
 2.5929734968e-001	 1.4012101500e+000	-1.2099610313e+000
 2.4607259551e-001	 1.4035929887e+000	-1.2081668516e+000
 2.3286532644e-001	 1.4058444935e+000	-1.2036782030e+000
 2.1967730620e-001	 1.4079655114e+000	-1.1965471620e+000
 2.0651027185e-001	 1.4099569170e+000	-1.1868382918e+000
 1.9336593327e-001	 1.4118196117e+000	-1.1746284040e+000
 1.8024597281e-001	 1.4135545229e+000	-1.1600063006e+000
 1.6715204486e-001	 1.4151626034e+000	-1.1430724941e+000
 1.5408577556e-001	 1.4166448298e+000	-1.1239389097e+000
 1.4104876240e-001	 1.4180022026e+000	-1.1027285678e+000
 1.2804257398e-001	 1.4192357448e+000	-1.0795752512e+000
 2.6043461877e-001	 1.4073558086e+000	-1.1969607803e+000
 2.4715186129e-001	 1.4097490982e+000	-1.1929354780e+000
 2.3388666559e-001	 1.4120104781e+000	-1.1863573435e+000
 2.2064080316e-001	 1.4141407987e+000	-1.1772773109e+000
 2.0741601866e-001	 1.4161409385e+000	-1.1657588463e+000
 1.9421402948e-001	 1.4180118029e+000	-1.1518777122e+000
 1.8103652533e-001	 1.4197543235e+000	-1.1357217091e+000
 1.6788516787e-001	 1.4213694569e+000	-1.1173903974e+000
 1.5476159037e-001	 1.4228581843e+000	-1.0969947993e+000
 1.4166739733e-001	 1.4242215105e+000	-1.0746570825e+000
 1.2860416422e-001	 1.4254604630e+000	-1.0505102266e+000
 2.6157188785e-001	 1.4135014671e+000	-1.1859392188e+000
 2.4823112706e-001	 1.4159052078e+000	-1.1797106217e+000
 2.3490800475e-001	 1.4181764627e+000	-1.1710674806e+000
 2.2160430013e-001	 1.4203160860e+000	-1.1600595742e+000
 2.0832176547e-001	 1.4223249601e+000	-1.1467492631e+000
 1.9506212568e-001	 1.4242039942e+000	-1.1312112547e+000
 1.8182707784e-001	 1.4259541240e+000	-1.1135323459e+000
 1.6861829088e-001	 1.4275763104e+000	-1.0938111459e+000
 1.5543740518e-001	 1.4290715388e+000	-1.0721577785e+000
 1.4228603225e-001	 1.4304408184e+000	-1.0486935658e+000
 1.2916575446e-001	 1.4316851811e+000	-1.0235506951e+000
 1.2354985208e-001	 1.3694379994e+000	-1.3903363954e+000
 1.1103124973e-001	 1.3705097817e+000	-1.3998964428e+000
 9.8545332943e-002	 1.3714641145e+000	-1.4061249702e+000
 8.6093530114e-002	 1.3723020455e+000	-1.4092500482e+000
 7.3677240822e-002	 1.3730246408e+000	-1.4095078481e+000
 6.1297835682e-002	 1.3736329842e+000	-1.4071422113e+000
 4.8956656198e-002	 1.3741281766e+000	-1.4024042133e+000
 3.6655014643e-002	 1.3745113349e+000	-1.3955517217e+000
 2.4394193968e-002	 1.3747835914e+000	-1.3868489496e+000
 1.2175447721e-002	 1.3749460929e+000	-1.3765660054e+000
 0.0000000000e+000	 1.3750000000e+000	-1.3649784413e+000
 1.2411144232e-001	 1.3756627175e+000	-1.3436873692e+000
 1.1153593723e-001	 1.3767393716e+000	-1.3533702899e+000
 9.8993266274e-002	 1.3776980423e+000	-1.3596887496e+000
 8.6484864341e-002	 1.3785397821e+000	-1.3628704071e+000
 7.4012137371e-002	 1.3792656619e+000	-1.3631511991e+000
 6.1576462208e-002	 1.3798767705e+000	-1.3607749052e+000
 4.9179186453e-002	 1.3803742138e+000	-1.3559927080e+000
 3.6821628346e-002	 1.3807591137e+000	-1.3490627459e+000
 2.4505076668e-002	 1.3810326078e+000	-1.3402496621e+000
 1.2230790665e-002	 1.3811958479e+000	-1.3298241497e+000
 0.0000000000e+000	 1.3812500000e+000	-1.3180624944e+000
 1.2467303255e-001	 1.3818874357e+000	-1.2993114906e+000
 1.1204062472e-001	 1.3829689615e+000	-1.3090782841e+000
 9.9441199606e-002	 1.3839319701e+000	-1.3154460661e+000
 8.6876198569e-002	 1.3847775186e+000	-1.3186420988e+000
 7.4347033920e-002	 1.3855066830e+000	-1.3189021010e+000
 6.1855088734e-002	 1.3861205568e+000	-1.3164698099e+000
 4.9401716708e-002	 1.3866202510e+000	-1.3115965357e+000
 3.6988242049e-002	 1.3870068925e+000	-1.3045407102e+000
 2.4615959367e-002	 1.3872816241e+000	-1.2955674310e+000
 1.2286133609e-002	 1.3874456029e+000	-1.2849480016e+000
 0.0000000000e+000	 1.3875000000e+000	-1.2729594687e+000
 1.2523462279e-001	 1.3881121539e+000	-1.2571865766e+000
 1.1254531222e-001	 1.3891985514e+000	-1.2669987765e+000
 9.9889132937e-002	 1.3901658979e+000	-1.2733757936e+000
 8.7267532797e-002	 1.3910152552e+000	-1.2765445085e+000
 7.4681930469e-002	 1.3917477041e+000	-1.2767404394e+000
 6.2133715259e-002	 1.3923643431e+000	-1.2742072996e+000
 4.9624246964e-002	 1.3928662881e+000	-1.2691965476e+000
 3.7154855752e-002	 1.3932546713e+000	-1.2619669311e+000
 2.4726842067e-002	 1.3935306404e+000	-1.2527840263e+000
 1.2341476553e-002	 1.3936953578e+000	-1.2419197726e+000
 0.0000000000e+000	 1.3937500000e+000	-1.2296520053e+000
 1.2579621303e-001	 1.3943368721e+000	-1.2172908105e+000
 1.1304999972e-001	 1.3954281413e+000	-1.2271104784e+000
 1.0033706627e-001	 1.3963998257e+000	-1.2334571606e+000
 8.7658867025e-002	 1.3972529918e+000	-1.2365573708e+000
 7.5016827019e-002	 1.3979887252e+000	-1.2366464434e+000
 6.2412341785e-002	 1.3986081294e+000	-1.2339680864e+000
 4.9846777219e-002	 1.3991123253e+000	-1.2287739273e+000
 3.7321469455e-002	 1.3995024501e+000	-1.2213230520e+000
 2.4837724767e-002	 1.3997796567e+000	-1.2118815391e+000
 1.2396819498e-002	 1.3999451128e+000	-1.2007219899e+000
 0.0000000000e+000	 1.4000000000e+000	-1.1881230554e+000
 1.2635780327e-001	 1.4005615903e+000	-1.1796027334e+000
 1.1355468722e-001	 1.4016577312e+000	-1.1893924538e+000
 1.0078499960e-001	 1.4026337535e+000	-1.1956697426e+000
 8.8050201253e-002	 1.4034907284e+000	-1.1986607617e+000
 7.5351723568e-002	 1.4042297463e+000	-1.1986006780e+000
 6.2690968311e-002	 1.4048519157e+000	-1.1957332131e+000
 5.0069307475e-002	 1.4053583625e+000	-1.1903101836e+000
 3.7488083158e-002	 1.4057502289e+000	-1.1825910358e+000
 2.4948607467e-002	 1.4060286731e+000	-1.1728423748e+000
 1.2452162442e-002	 1.4061948678e+000	-1.1613374893e+000
 0.0000000000e+000	 1.4062500000e+000	-1.1483558732e+000
 1.2691939350e-001	 1.4067863084e+000	-1.1441012365e+000
 1.1405937472e-001	 1.4078873212e+000	-1.1538241111e+000
 1.0123293293e-001	 1.4088676813e+000	-1.1599934547e+000
 8.8441535482e-002	 1.4097284649e+000	-1.1628350912e+000
 7.5686620118e-002	 1.4104707673e+000	-1.1625840372e+000
 6.2969594837e-002	 1.4110957020e+000	-1.1594840457e+000
 5.0291837730e-002	 1.4116043996e+000	-1.1537871429e+000
 3.7654696861e-002	 1.4119980077e+000	-1.1457531578e+000
 2.5059490167e-002	 1.4122776894e+000	-1.1356492458e+000
 1.2507505386e-002	 1.4124446227e+000	-1.1237494083e+000
 0.0000000000e+000	 1.4125000000e+000	-1.1103340094e+000
 1.2748098374e-001	 1.4130110266e+000	-1.1107655531e+000
 1.1456406222e-001	 1.4141169111e+000	-1.1203851960e+000
 1.0168086627e-001	 1.4151016091e+000	-1.1264085434e+000
 8.8832869711e-002	 1.4159662015e+000	-1.1290610960e+000
 7.6021516668e-002	 1.4167117884e+000	-1.1285777358e+000
 6.3248221364e-002	 1.4173394883e+000	-1.1252022660e+000
 5.0514367986e-002	 1.4178504368e+000	-1.1191869427e+000
 3.7821310564e-002	 1.4182457865e+000	-1.1107919991e+000
 2.5170372867e-002	 1.4185267057e+000	-1.1002851647e+000
 1.2562848330e-002	 1.4186943777e+000	-1.0879411794e+000
 0.0000000000e+000	 1.4187500000e+000	-1.0740413045e+000
 1.2804257398e-001	 1.4192357448e+000	-1.0795752512e+000
 1.1506874972e-001	 1.4203465010e+000	-1.0890557837e+000
 1.0212879960e-001	 1.4213355368e+000	-1.0948955801e+000
 8.9224203940e-002	 1.4222039381e+000	-1.0973198320e+000
 7.6356413218e-002	 1.4229528095e+000	-1.0965633033e+000
 6.3526847890e-002	 1.4235832746e+000	-1.0928698655e+000
 5.0736898242e-002	 1.4240964740e+000	-1.0864920243e+000
 3.7987924267e-002	 1.4244935653e+000	-1.0776904394e+000
 2.5281255566e-002	 1.4247757220e+000	-1.0667334380e+000
 1.2618191274e-002	 1.4249441327e+000	-1.0538965239e+000
 0.0000000000e+000	 1.4250000000e+000	-1.0394618824e+000
 1.2860416422e-001	 1.4254604630e+000	-1.0505102266e+000
 1.1557343723e-001	 1.4265760909e+000	-1.0598162718e+000
 1.0257673293e-001	 1.4275694646e+000	-1.0654354534e+000
 8.9615538169e-002	 1.4284416746e+000	-1.0675926676e+000
 7.6691309768e-002	 1.4291938306e+000	-1.0665225765e+000
 6.3805474417e-002	 1.4298270608e+000	-1.0624691376e+000
 5.0959428498e-002	 1.4303425111e+000	-1.0556851264e+000
 3.8154537970e-002	 1.4307413441e+000	-1.0464316509e+000
 2.5392138266e-002	 1.4310247384e+000	-1.0349776596e+000
 1.2673534218e-002	 1.4311938876e+000	-1.0215994452e+000
 0.0000000000e+000	 1.4312500000e+000	-1.0065801445e+000
 1.2916575446e-001	 1.4316851811e+000	-1.0235506951e+000
 1.1607812473e-001	 1.4328056808e+000	-1.0326473736e+000
 1.0302466627e-001	 1.4338033924e+000	-1.0380093625e+000
 9.0006872399e-002	 1.4346794112e+000	-1.0398612770e+000
 7.7026206319e-002	 1.4354348517e+000	-1.0384376928e+000
 6.4084100943e-002	 1.4360708471e+000	-1.0339826717e+000
 5.1181958753e-002	 1.4365885483e+000	-1.0267492789e+000
 3.8321151673e-002	 1.4369891229e+000	-1.0169990920e+000
 2.5503020966e-002	 1.4372737547e+000	-1.0050017044e+000
 1.2728877163e-002	 1.4374436426e+000	-9.9103422327e-001
 0.0000000000e+000	 1.4375000000e+000	-9.7538076334e-001
 1.4375000000e+000	 0.0000000000e+000	 3.6665523940e+000
 1.4374436426e+000	 1.2728877163e-002	 3.6829990074e+000
 1.4372737547e+000	 2.5503020966e-002	 3.6937750548e+000
 1.4369891229e+000	 3.8321151673e-002	 3.6985595128e+000
 1.4365885483e+000	 5.1181958753e-002	 3.6970465237e+000
 1.4360708471e+000	 6.4084100943e-002	 3.6889461754e+000
 1.4354348517e+000	 7.7026206319e-002	 3.6739852709e+000
 1.4346794112e+000	 9.0006872399e-002	 3.6519080835e+000
 1.4338033924e+000	 1.0302466627e-001	 3.6224770974e+000
 1.4328056808e+000	 1.1607812473e-001	 3.5854737304e+000
 1.4316851811e+000	 1.2916575446e-001	 3.5406990371e+000
 1.4437500000e+000	 0.0000000000e+000	 3.6617234594e+000
 1.4436933976e+000	 1.2784220107e-002	 3.6776217181e+000
 1.4435227710e+000	 2.5613903666e-002	 3.6878792630e+000
 1.4432369017e+000	 3.8487765376e-002	 3.6921759108e+000
 1.4428345855e+000	 5.1404489009e-002	 3.6902068618e+000
 1.4423146334e+000	 6.4362727470e-002	 3.6816834857e+000
 1.4416758728e+000	 7.7361102869e-002	 3.6663340969e+000
 1.4409171478e+000	 9.0398206628e-002	 3.6439047154e+000
 1.4400373202e+000	 1.0347259960e-001	 3.6141598119e+000
 1.4390352707e+000	 1.1658281223e-001	 3.5768830358e+000
 1.4379098993e+000	 1.2972734470e-001	 3.5318779227e+000
 1.4500000000e+000	 0.0000000000e+000	 3.6577242428e+000
 1.4499431525e+000	 1.2839563051e-002	 3.6731374087e+000
 1.4497717873e+000	 2.5724786366e-002	 3.6829362671e+000
 1.4494846805e+000	 3.8654379079e-002	 3.6868014247e+000
 1.4490806226e+000	 5.1627019265e-002	 3.6844290927e+000
 1.4485584197e+000	 6.4641353996e-002	 3.6755318791e+000
 1.4479168939e+000	 7.7695999419e-002	 3.6598395696e+000
 1.4471548843e+000	 9.0789540857e-002	 3.6370998938e+000
 1.4462712480e+000	 1.0392053294e-001	 3.6070792762e+000
 1.4452648606e+000	 1.1708749973e-001	 3.5695635682e+000
 1.4441346175e+000	 1.3028893494e-001	 3.5243587608e+000
 1.4562500000e+000	 0.0000000000e+000	 3.6545392853e+000
 1.4561929075e+000	 1.2894905995e-002	 3.6695300416e+000
 1.4560208037e+000	 2.5835669066e-002	 3.6789294448e+000
 1.4557324593e+000	 3.8820992782e-002	 3.6824188416e+000
 1.4553266598e+000	 5.1849549521e-002	 3.6796954078e+000
 1.4548022060e+000	 6.4919980523e-002	 3.6704729461e+000
 1.4541579150e+000	 7.8030895969e-002	 3.6544826734e+000
 1.4533926209e+000	 9.1180875086e-002	 3.6314739926e+000
 1.4525051758e+000	 1.0436846627e-001	 3.6012152490e+000
 1.4514944506e+000	 1.1759218723e-001	 3.5634944673e+000
 1.4503593357e+000	 1.3085052518e-001	 3.5181200681e+000
 1.4625000000e+000	 0.0000000000e+000	 3.6521533925e+000
 1.4624426625e+000	 1.2950248939e-002	 3.6667838509e+000
 1.4622698200e+000	 2.5946551766e-002	 3.6758424526e+000
 1.4619802381e+000	 3.8987606485e-002	 3.6790112351e+000
 1.4615726970e+000	 5.2072079777e-002	 3.6759882917e+000
 1.4610459923e+000	 6.5198607049e-002	 3.6664885769e+000
 1.4603989361e+000	 7.8365792519e-002	 3.6502446990e+000
 1.4596303575e+000	 9.1572209315e-002	 3.6270076981e+000
 1.4587391036e+000	 1.0481639960e-001	 3.5965478076e+000
 1.4577240405e+000	 1.1809687473e-001	 3.5586551964e+000
 1.4565840538e+000	 1.3141211542e-001	 3.5131406906e+000
 1.4687500000e+000	 0.0000000000e+000	 3.6505516282e+000
 1.4686924175e+000	 1.3005591883e-002	 3.6648833367e+000
 1.4685188363e+000	 2.6057434466e-002	 3.6736592207e+000
 1.4682280169e+000	 3.9154220188e-002	 3.6765619588e+000
 1.4678187341e+000	 5.2294610032e-002	 3.6732905158e+000
 1.4672897786e+000	 6.5477233575e-002	 3.6635609551e+000
 1.4666399572e+000	 7.8700689069e-002	 3.6471072367e+000
 1.4658680940e+000	 9.1963543544e-002	 3.6236820021e+000
 1.4649730314e+000	 1.0526433293e-001	 3.5930573404e+000
 1.4639536304e+000	 1.1860156223e-001	 3.5550255364e+000
 1.4628087720e+000	 1.3197370566e-001	 3.5093997966e+000
 1.4750000000e+000	 0.0000000000e+000	 3.6497193098e+000
 1.4749421724e+000	 1.3060934828e-002	 3.6638132595e+000
 1.4747678526e+000	 2.6168317166e-002	 3.6723639464e+000
 1.4744757957e+000	 3.9320833891e-002	 3.6750546406e+000
 1.4740647713e+000	 5.2517140288e-002	 3.6715851327e+000
 1.4735335649e+000	 6.5755860101e-002	 3.6616725517e+000
 1.4728809783e+000	 7.9035585619e-002	 3.6450521705e+000
 1.4721058306e+000	 9.2354877772e-002	 3.6214781959e+000
 1.4712069592e+000	 1.0571226627e-001	 3.5907245409e+000
 1.4701832203e+000	 1.1910624973e-001	 3.5525855780e+000
 1.4690334902e+000	 1.3253529590e-001	 3.5068768700e+000
 1.4812500000e+000	 0.0000000000e+000	 3.6496420021e+000
 1.4811919274e+000	 1.3116277772e-002	 3.6635586348e+000
 1.4810168690e+000	 2.6279199865e-002	 3.6719410888e+000
 1.4807235745e+000	 3.9487447594e-002	 3.6744731770e+000
 1.4803108085e+000	 5.2739670543e-002	 3.6708554695e+000
 1.4797773512e+000	 6.6034486627e-002	 3.6608061187e+000
 1.4791219994e+000	 7.9370482168e-002	 3.6440616712e+000
 1.4783435672e+000	 9.2746212000e-002	 3.6203778637e+000
 1.4774408870e+000	 1.0616019960e-001	 3.5895304014e+000
 1.4764128102e+000	 1.1961093723e-001	 3.5513157162e+000
 1.4752582084e+000	 1.3309688614e-001	 3.5055517035e+000
 1.4875000000e+000	 0.0000000000e+000	 3.6503055128e+000
 1.4874416824e+000	 1.3171620716e-002	 3.6641047276e+000
 1.4872658853e+000	 2.6390082565e-002	 3.6723753636e+000
 1.4869713533e+000	 3.9654061297e-002	 3.6748017273e+000
 1.4865568456e+000	 5.2962200799e-002	 3.6710851227e+000
 1.4860211375e+000	 6.6313113153e-002	 3.6609446835e+000
 1.4853630205e+000	 7.9705378717e-002	 3.6441181910e+000
 1.4845813038e+000	 9.3137546228e-002	 3.6203628765e+000
 1.4836748148e+000	 1.0660813293e-001	 3.5894562059e+000
 1.4826424001e+000	 1.2011562473e-001	 3.5511966432e+000
 1.4814829266e+000	 1.3365847637e-001	 3.5054043921e+000
 1.4937500000e+000	 0.0000000000e+000	 3.6516958871e+000
 1.4936914373e+000	 1.3226963660e-002	 3.6654370473e+000
 1.4935149016e+000	 2.6500965265e-002	 3.6736517371e+000
 1.4932191321e+000	 3.9820675000e-002	 3.6760247080e+000
 1.4928028828e+000	 5.3184731054e-002	 3.6722579525e+000
 1.4922649238e+000	 6.6591739679e-002	 3.6620715431e+000
 1.4916040416e+000	 8.0040275266e-002	 3.6452044573e+000
 1.4908190403e+000	 9.3528880456e-002	 3.6214153862e+000
 1.4899087426e+000	 1.0705606626e-001	 3.5904835250e+000
 1.4888719901e+000	 1.2062031223e-001	 3.5522093424e+000
 1.4877076447e+000	 1.3422006661e-001	 3.5064153270e+000
 1.5000000000e+000	 0.0000000000e+000	 3.6537994026e+000
 1.4999411923e+000	 1.3282306604e-002	 3.6675413424e+000
 1.4997639179e+000	 2.6611847965e-002	 3.6757554215e+000
 1.4994669109e+000	 3.9987288703e-002	 3.6781267877e+000
 1.4990489200e+000	 5.3407261309e-002	 3.6743580767e+000
 1.4985087101e+000	 6.6870366204e-002	 3.6641702580e+000
 1.4978450627e+000	 8.0375171815e-002	 3.6473034669e+000
 1.4970567769e+000	 9.3920214683e-002	 3.6235178195e+000
 1.4961426704e+000	 1.0750399959e-001	 3.5925942093e+000
 1.4951015800e+000	 1.2112499973e-001	 3.5543350824e+000
 1.4939323629e+000	 1.3478165685e-001	 3.5085651893e+000
 1.4316851811e+000	 1.2916575446e-001	 3.5406990371e+000
 1.4304408184e+000	 1.4228603225e-001	 3.5295189015e+000
 1.4290715388e+000	 1.5543740518e-001	 3.5126944358e+000
 1.4275763104e+000	 1.6861829088e-001	 3.4900838752e+000
 1.4259541240e+000	 1.8182707784e-001	 3.4615655469e+000
 1.4242039942e+000	 1.9506212568e-001	 3.4270384031e+000
 1.4223249601e+000	 2.0832176547e-001	 3.3864225229e+000
 1.4203160860e+000	 2.2160430013e-001	 3.3396595808e+000
 1.4181764627e+000	 2.3490800475e-001	 3.2867132812e+000
 1.4159052078e+000	 2.4823112706e-001	 3.2275697550e+000
 1.4135014671e+000	 2.6157188785e-001	 3.1622379184e+000
 1.4379098993e+000	 1.2972734470e-001	 3.5318779227e+000
 1.4366601263e+000	 1.4290466718e-001	 3.5201187074e+000
 1.4352848933e+000	 1.5611321999e-001	 3.5027118614e+000
 1.4337831639e+000	 1.6935141389e-001	 3.4795186433e+000
 1.4321539245e+000	 1.8261763036e-001	 3.4504207013e+000
 1.4303961855e+000	 1.9591022188e-001	 3.4153206083e+000
 1.4285089816e+000	 2.0922751229e-001	 3.3741423668e+000
 1.4264913733e+000	 2.2256779709e-001	 3.3268318792e+000
 1.4243424473e+000	 2.3592934390e-001	 3.2733573835e+000
 1.4220613174e+000	 2.4931039284e-001	 3.2137098509e+000
 1.4196471257e+000	 2.6270915693e-001	 3.1479033444e+000
 1.4441346175e+000	 1.3028893494e-001	 3.5243587608e+000
 1.4428794342e+000	 1.4352330211e-001	 3.5120524154e+000
 1.4414982479e+000	 1.5678903480e-001	 3.4940918017e+000
 1.4399900174e+000	 1.7008453690e-001	 3.4703411911e+000
 1.4383537251e+000	 1.8340818288e-001	 3.4406855454e+000
 1.4365883768e+000	 1.9675831809e-001	 3.4050310554e+000
 1.4346930032e+000	 2.1013325910e-001	 3.3633056483e+000
 1.4326666607e+000	 2.2353129405e-001	 3.3154594598e+000
 1.4305084319e+000	 2.3695068306e-001	 3.2614652712e+000
 1.4282174270e+000	 2.5038965861e-001	 3.2013189083e+000
 1.4257927842e+000	 2.6384642601e-001	 3.1350395996e+000
 1.4503593357e+000	 1.3085052518e-001	 3.5181200681e+000
 1.4490987421e+000	 1.4414193703e-001	 3.5052978512e+000
 1.4477116024e+000	 1.5746484961e-001	 3.4868113828e+000
 1.4461968710e+000	 1.7081765991e-001	 3.4625279362e+000
 1.4445535256e+000	 1.8419873540e-001	 3.4323357802e+000
 1.4427805681e+000	 1.9760641429e-001	 3.3961447210e+000
 1.4408770248e+000	 2.1103900591e-001	 3.3538866118e+000
 1.4388419480e+000	 2.2449479101e-001	 3.3055158276e+000
 1.4366744166e+000	 2.3797202222e-001	 3.2510097036e+000
 1.4343735366e+000	 2.5146892439e-001	 3.1903689344e+000
 1.4319384428e+000	 2.6498369509e-001	 3.1236179333e+000
 1.4565840538e+000	 1.3141211542e-001	 3.5131406906e+000
 1.4553180500e+000	 1.4476057196e-001	 3.4998331764e+000
 1.4539249569e+000	 1.5814066441e-001	 3.4808480725e+000
 1.4524037245e+000	 1.7155078291e-001	 3.4560556440e+000
 1.4507533262e+000	 1.8498928791e-001	 3.4253474601e+000
 1.4489727593e+000	 1.9845451049e-001	 3.3886369402e+000
 1.4470610463e+000	 2.1194475272e-001	 3.3458598657e+000
 1.4450172353e+000	 2.2545828797e-001	 3.2969748572e+000
 1.4428404012e+000	 2.3899336137e-001	 3.2419638143e+000
 1.4405296462e+000	 2.5254819016e-001	 3.1808323157e+000
 1.4380841013e+000	 2.6612096417e-001	 3.1136099788e+000
 1.4628087720e+000	 1.3197370566e-001	 3.5093997966e+000
 1.4615373580e+000	 1.4537920688e-001	 3.4956368807e+000
 1.4601383114e+000	 1.5881647922e-001	 3.4761796729e+000
 1.4586105780e+000	 1.7228390592e-001	 3.4509014197e+000
 1.4569531267e+000	 1.8577984043e-001	 3.4196969849e+000
 1.4551649506e+000	 1.9930260670e-001	 3.3824833993e+000
 1.4532450679e+000	 2.1285049953e-001	 3.3392003748e+000
 1.4511925227e+000	 2.2642178493e-001	 3.2898107844e+000
 1.4490063858e+000	 2.4001470052e-001	 3.2343011029e+000
 1.4466857558e+000	 2.5362745593e-001	 3.1726818090e+000
 1.4442297599e+000	 2.6725823325e-001	 3.1049877441e+000
 1.4690334902e+000	 1.3253529590e-001	 3.5068768700e+000
 1.4677566659e+000	 1.4599784181e-001	 3.4926877755e+000
 1.4663516659e+000	 1.5949229403e-001	 3.4727843134e+000
 1.4648174315e+000	 1.7301702893e-001	 3.4470427016e+000
 1.4631529272e+000	 1.8657039294e-001	 3.4153610931e+000
 1.4613571419e+000	 2.0015070290e-001	 3.3776601284e+000
 1.4594290895e+000	 2.1375624634e-001	 3.3338834528e+000
 1.4573678100e+000	 2.2738528189e-001	 3.2839981986e+000
 1.4551723704e+000	 2.4103603968e-001	 3.2279954277e+000
 1.4528418654e+000	 2.5470672170e-001	 3.1658905344e+000
 1.4503754184e+000	 2.6839550233e-001	 3.0977236049e+000
 1.4752582084e+000	 1.3309688614e-001	 3.5055517035e+000
 1.4739759738e+000	 1.4661647673e-001	 3.4909649870e+000
 1.4725650204e+000	 1.6016810883e-001	 3.4706404438e+000
 1.4710242850e+000	 1.7375015193e-001	 3.4444572540e+000
 1.4693527278e+000	 1.8736094545e-001	 3.4123168543e+000
 1.4675493332e+000	 2.0099879910e-001	 3.3741434938e+000
 1.4656131110e+000	 2.1466199314e-001	 3.3298847545e+000
 1.4635430973e+000	 2.2834877885e-001	 3.2795120355e+000
 1.4613383550e+000	 2.4205737883e-001	 3.2230209977e+000
 1.4589979750e+000	 2.5578598747e-001	 3.1604319673e+000
 1.4565210770e+000	 2.6953277141e-001	 3.0917902963e+000
 1.4814829266e+000	 1.3365847637e-001	 3.5054043921e+000
 1.4801952817e+000	 1.4723511165e-001	 3.4904479492e+000
 1.4787783749e+000	 1.6084392364e-001	 3.4697268274e+000
 1.4772311386e+000	 1.7448327494e-001	 3.4431231600e+000
 1.4755525283e+000	 1.8815149797e-001	 3.4105416624e+000
 1.4737415244e+000	 2.0184689530e-001	 3.3719101914e+000
 1.4717971326e+000	 2.1556773995e-001	 3.3271802692e+000
 1.4697183847e+000	 2.2931227581e-001	 3.2763275698e+000
 1.4675043397e+000	 2.4307871798e-001	 3.2193523653e+000
 1.4651540846e+000	 2.5686525325e-001	 3.1562799309e+000
 1.4626667355e+000	 2.7067004049e-001	 3.0871609056e+000
 1.4877076447e+000	 1.3422006661e-001	 3.5064153270e+000
 1.4864145896e+000	 1.4785374658e-001	 3.4911163979e+000
 1.4849917295e+000	 1.6151973844e-001	 3.4700225349e+000
 1.4834379921e+000	 1.7521639794e-001	 3.4430188153e+000
 1.4817523289e+000	 1.8894205048e-001	 3.4100132287e+000
 1.4799337157e+000	 2.0269499149e-001	 3.3709372393e+000
 1.4779811542e+000	 2.1647348676e-001	 3.3257463134e+000
 1.4758936720e+000	 2.3027577277e-001	 3.2744204081e+000
 1.4736703243e+000	 2.4410005713e-001	 3.2169644195e+000
 1.4713101942e+000	 2.5794451902e-001	 3.1534085890e+000
 1.4688123941e+000	 2.7180730957e-001	 3.0838088646e+000
 1.4939323629e+000	 1.3478165685e-001	 3.5085651893e+000
 1.4926338975e+000	 1.4847238150e-001	 3.4929503644e+000
 1.4912050840e+000	 1.6219555325e-001	 3.4715069374e+000
 1.4896448456e+000	 1.7594952094e-001	 3.4441229214e+000
 1.4879521294e+000	 1.8973260299e-001	 3.4107095755e+000
 1.4861259070e+000	 2.0354308769e-001	 3.3712019715e+000
 1.4841651757e+000	 2.1737923356e-001	 3.3255595240e+000
 1.4820689593e+000	 2.3123926972e-001	 3.2737664818e+000
 1.4798363089e+000	 2.4512139628e-001	 3.2158323783e+000
 1.4774663038e+000	 2.5902378478e-001	 3.1517924388e+000
 1.4749580526e+000	 2.7294457865e-001	 3.0817079425e+000
 1.4135014671e+000	 2.6157188785e-001	 3.1622379184e+000
 1.4109644149e+000	 2.7492848140e-001	 3.1276082568e+000
 1.4082932553e+000	 2.8829907604e-001	 3.0873771022e+000
 1.4054872226e+000	 3.0168181461e-001	 3.0415914944e+000
 1.4025455825e+000	 3.1507481505e-001	 2.9903212638e+000
 1.3994676328e+000	 3.2847617096e-001	 2.9336591799e+000
 1.3962527039e+000	 3.4188395221e-001	 2.8717210519e+000
 1.3929001602e+000	 3.5529620558e-001	 2.8046457809e+000
 1.3894094002e+000	 3.6871095541e-001	 2.7325953619e+000
 1.3857798577e+000	 3.8212620431e-001	 2.6557548344e+000
 1.3820110024e+000	 3.9553993384e-001	 2.5743321800e+000
 1.4196471257e+000	 2.6270915693e-001	 3.1479033444e+000
 1.4170990428e+000	 2.7612382263e-001	 3.1123845539e+000
 1.4144162694e+000	 2.8955255029e-001	 3.0713928692e+000
 1.4115980366e+000	 3.0299347468e-001	 3.0249807291e+000
 1.4086436068e+000	 3.1644470555e-001	 2.9732235708e+000
 1.4055522746e+000	 3.2990432823e-001	 2.9162199744e+000
 1.4023233679e+000	 3.4337040418e-001	 2.8540917587e+000
 1.3989562479e+000	 3.5684097169e-001	 2.7869840277e+000
 1.3954503106e+000	 3.7031404652e-001	 2.7150651662e+000
 1.3918049875e+000	 3.8378762259e-001	 2.6385267834e+000
 1.3880197459e+000	 3.9725967268e-001	 2.5575836034e+000
 1.4257927842e+000	 2.6384642601e-001	 3.1350395996e+000
 1.4232336707e+000	 2.7731916386e-001	 3.0986097688e+000
 1.4205392836e+000	 2.9080602453e-001	 3.0568315510e+000
 1.4177088506e+000	 3.0430513474e-001	 3.0097628173e+000
 1.4147416310e+000	 3.1781459606e-001	 2.9574846509e+000
 1.4116369165e+000	 3.3133248549e-001	 2.9001014867e+000
 1.4083940318e+000	 3.4485685615e-001	 2.8377412023e+000
 1.4050123355e+000	 3.5838573781e-001	 2.7705551589e+000
 1.4014912211e+000	 3.7191713764e-001	 2.6987181906e+000
 1.3978301173e+000	 3.8544904087e-001	 2.6224285411e+000
 1.3940284894e+000	 3.9897941153e-001	 2.5419077467e+000
 1.4319384428e+000	 2.6498369509e-001	 3.1236179333e+000
 1.4293682986e+000	 2.7851450508e-001	 3.0862546520e+000
 1.4266622977e+000	 2.9205949878e-001	 3.0436634047e+000
 1.4238196646e+000	 3.0561679481e-001	 2.9959075295e+000
 1.4208396553e+000	 3.1918448656e-001	 2.9430737951e+000
 1.4177215584e+000	 3.3276064276e-001	 2.8852725359e+000
 1.4144646957e+000	 3.4634330811e-001	 2.8226377379e+000
 1.4110684232e+000	 3.5993050392e-001	 2.7553270745e+000
 1.4075321315e+000	 3.7352022875e-001	 2.6835218893e+000
 1.4038552471e+000	 3.8711045915e-001	 2.6074271258e+000
 1.4000372329e+000	 4.0069915037e-001	 2.5272712026e+000
 1.4380841013e+000	 2.6612096417e-001	 3.1136099788e+000
 1.4355029265e+000	 2.7970984631e-001	 3.0752903371e+000
 1.4327853119e+000	 2.9331297303e-001	 3.0318590702e+000
 1.4299304786e+000	 3.0692845488e-001	 2.9833850181e+000
 1.4269376796e+000	 3.2055437706e-001	 2.9299606749e+000
 1.4238062003e+000	 3.3418880003e-001	 2.8717023196e+000
 1.4205353597e+000	 3.4782976008e-001	 2.8087500971e+000
 1.4171245108e+000	 3.6147527003e-001	 2.7412680485e+000
 1.4135730420e+000	 3.7512331986e-001	 2.6694440875e+000
 1.4098803770e+000	 3.8877187743e-001	 2.5934899229e+000
 1.4060459764e+000	 4.0241888921e-001	 2.5136409271e+000
 1.4442297599e+000	 2.6725823325e-001	 3.1049877441e+000
 1.4416375544e+000	 2.8090518754e-001	 3.0656883329e+000
 1.4389083260e+000	 2.9456644727e-001	 3.0213895620e+000
 1.4360412926e+000	 3.0824011494e-001	 2.9721658090e+000
 1.4330357039e+000	 3.2192426756e-001	 2.9181153339e+000
 1.4298908422e+000	 3.3561695729e-001	 2.8593604059e+000
 1.4266060236e+000	 3.4931621205e-001	 2.7960473800e+000
 1.4231805985e+000	 3.6302003614e-001	 2.7283467206e+000
 1.4196139524e+000	 3.7672641097e-001	 2.6564529729e+000
 1.4159055068e+000	 3.9043329571e-001	 2.5805846777e+000
 1.4120547198e+000	 4.0413862806e-001	 2.5009842323e+000
 1.4503754184e+000	 2.6839550233e-001	 3.0977236049e+000
 1.4477721823e+000	 2.8210052876e-001	 3.0574205152e+000
 1.4450313402e+000	 2.9581992152e-001	 3.0122262612e+000
 1.4421521066e+000	 3.0955177501e-001	 2.9622207939e+000
 1.4391337281e+000	 3.2329415806e-001	 2.9075081802e+000
 1.4359754841e+000	 3.3704511456e-001	 2.8482167259e+000
 1.4326766875e+000	 3.5080266402e-001	 2.7844990471e+000
 1.4292366861e+000	 3.6456480225e-001	 2.7165320887e+000
 1.4256548628e+000	 3.7832950208e-001	 2.6445170888e+000
 1.4219306366e+000	 3.9209471399e-001	 2.5686794874e+000
 1.4180634633e+000	 4.0585836690e-001	 2.4892687787e+000
 1.4565210770e+000	 2.6953277141e-001	 3.0917902963e+000
 1.4539068102e+000	 2.8329586999e-001	 3.0504591193e+000
 1.4511543543e+000	 2.9707339576e-001	 3.0043409078e+000
 1.4482629206e+000	 3.1086343507e-001	 2.9535212223e+000
 1.4452317524e+000	 3.2466404856e-001	 2.8981099785e+000
 1.4420601259e+000	 3.3847327183e-001	 2.8382415653e+000
 1.4387473515e+000	 3.5228911598e-001	 2.7740749121e+000
 1.4352927738e+000	 3.6610956837e-001	 2.7057935013e+000
 1.4316957733e+000	 3.7993259319e-001	 2.6336053263e+000
 1.4279557664e+000	 3.9375613227e-001	 2.5577427937e+000
 1.4240722068e+000	 4.0757810574e-001	 2.4784625676e+000
 1.4626667355e+000	 2.7067004049e-001	 3.0871609056e+000
 1.4600414380e+000	 2.8449121121e-001	 3.0447767326e+000
 1.4572773685e+000	 2.9832687001e-001	 2.9977055931e+000
 1.4543737347e+000	 3.1217509514e-001	 2.9460386944e+000
 1.4513297767e+000	 3.2603393907e-001	 2.8898918426e+000
 1.4481447678e+000	 3.3990142909e-001	 2.8294055576e+000
 1.4448180154e+000	 3.5377556795e-001	 2.7647451342e+000
 1.4413488614e+000	 3.6765433448e-001	 2.6961006500e+000
 1.4377366837e+000	 3.8153568430e-001	 2.6236869168e+000
 1.4339808962e+000	 3.9541755055e-001	 2.5477433757e+000
 1.4300809503e+000	 4.0929784458e-001	 2.4685339342e+000
 1.4688123941e+000	 2.7180730957e-001	 3.0838088646e+000
 1.4661760659e+000	 2.8568655243e-001	 3.0403462865e+000
 1.4634003826e+000	 2.9958034425e-001	 2.9922927523e+000
 1.4604845487e+000	 3.1348675520e-001	 2.9397451532e+000
 1.4574278009e+000	 3.2740382957e-001	 2.8828252286e+000
 1.4542294097e+000	 3.4132958636e-001	 2.8216796766e+000
 1.4508886793e+000	 3.5526201992e-001	 2.7564802110e+000
 1.4474049491e+000	 3.6919910059e-001	 2.6874235625e+000
 1.4437775941e+000	 3.8313877541e-001	 2.6147314250e+000
 1.4400060260e+000	 3.9707896883e-001	 2.5386503430e+000
 1.4360896938e+000	 4.1101758342e-001	 2.4594515407e+000
 1.4749580526e+000	 2.7294457865e-001	 3.0817079425e+000
 1.4723106938e+000	 2.8688189366e-001	 3.0371410502e+000
 1.4695233968e+000	 3.0083381850e-001	 2.9880751576e+000
 1.4665953627e+000	 3.1479841526e-001	 2.9346128779e+000
 1.4635258252e+000	 3.2877372007e-001	 2.8768819268e+000
 1.4603140516e+000	 3.4275774362e-001	 2.8150352293e+000
 1.4569593432e+000	 3.5674847188e-001	 2.7492509712e+000
 1.4534610367e+000	 3.7074386670e-001	 2.6797325956e+000
 1.4498185046e+000	 3.8474186652e-001	 2.6067087423e+000
 1.4460311559e+000	 3.9874038711e-001	 2.5304331281e+000
 1.4420984373e+000	 4.1273732227e-001	 2.4511843691e+000
 1.3820110024e+000	 3.9553993384e-001	 2.5743321800e+000
 1.3781023407e+000	 4.0895010529e-001	 2.5217894951e+000
 1.3740534163e+000	 4.2235466046e-001	 2.4617964214e+000
 1.3698638110e+000	 4.3575152239e-001	 2.3946143248e+000
 1.3655331454e+000	 4.4913859626e-001	 2.3205292061e+000
 1.3610610796e+000	 4.6251377021e-001	 2.2398513761e+000
 1.3564473134e+000	 4.7587491620e-001	 2.1529150724e+000
 1.3516915877e+000	 4.8921989093e-001	 2.0600780166e+000
 1.3467936844e+000	 5.0254653674e-001	 1.9617209137e+000
 1.3417534274e+000	 5.1585268258e-001	 1.8582468922e+000
 1.3365706828e+000	 5.2913614500e-001	 1.7500808860e+000
 1.3880197459e+000	 3.9725967268e-001	 2.5575836034e+000
 1.3840940900e+000	 4.1072814923e-001	 2.5057702457e+000
 1.3800275616e+000	 4.2419098507e-001	 2.4464689063e+000
 1.3758197406e+000	 4.3764609423e-001	 2.3799455424e+000
 1.3714702461e+000	 4.5109137277e-001	 2.3064910619e+000
 1.3669787364e+000	 4.6452469965e-001	 2.2264209933e+000
 1.3623449104e+000	 4.7794393758e-001	 2.1400750957e+000
 1.3575685076e+000	 4.9134693393e-001	 2.0478169098e+000
 1.3526493091e+000	 5.0473152168e-001	 1.9500332490e+000
 1.3475871379e+000	 5.1809552034e-001	 1.8471336311e+000
 1.3423818596e+000	 5.3143673694e-001	 1.7395496507e+000
 1.3940284894e+000	 3.9897941153e-001	 2.5419077467e+000
 1.3900858393e+000	 4.1250619317e-001	 2.4907457339e+000
 1.3860017068e+000	 4.2602730968e-001	 2.4320565529e+000
 1.3817756702e+000	 4.3954066607e-001	 2.3661108580e+000
 1.3774073467e+000	 4.5304414928e-001	 2.2932045743e+000
 1.3728963933e+000	 4.6653562909e-001	 2.2136585615e+000
 1.3682425074e+000	 4.8001295896e-001	 2.1278182181e+000
 1.3634454276e+000	 4.9347397694e-001	 2.0360530250e+000
 1.3585049338e+000	 5.0691650662e-001	 1.9387560289e+000
 1.3534208485e+000	 5.2033835809e-001	 1.8363432653e+000
 1.3481930365e+000	 5.3373732887e-001	 1.7292531214e+000
 1.4000372329e+000	 4.0069915037e-001	 2.5272712026e+000
 1.3960775886e+000	 4.1428423711e-001	 2.4766823604e+000
 1.3919758521e+000	 4.2786363429e-001	 2.4185255567e+000
 1.3877315998e+000	 4.4143523790e-001	 2.3530762493e+000
 1.3833444473e+000	 4.5499692579e-001	 2.2806354905e+000
 1.3788140502e+000	 4.6854655853e-001	 2.2015295854e+000
 1.3741401045e+000	 4.8208198033e-001	 2.1161096901e+000
 1.3693223475e+000	 4.9560101994e-001	 2.0247513475e+000
 1.3643605586e+000	 5.0910149157e-001	 1.9278539628e+000
 1.3592545590e+000	 5.2258119584e-001	 1.8258402179e+000
 1.3540042134e+000	 5.3603792080e-001	 1.7191554248e+000
 1.4060459764e+000	 4.0241888921e-001	 2.5136409271e+000
 1.4020693379e+000	 4.1606228104e-001	 2.4635468813e+000
 1.3979499974e+000	 4.2969995891e-001	 2.4058424607e+000
 1.3936875295e+000	 4.4332980974e-001	 2.3408080333e+000
 1.3892815480e+000	 4.5694970229e-001	 2.2687498891e+000
 1.3847317070e+000	 4.7055748796e-001	 2.1899998935e+000
 1.3800377015e+000	 4.8415100171e-001	 2.1049150782e+000
 1.3751992675e+000	 4.9772806295e-001	 2.0138771703e+000
 1.3702161833e+000	 5.1128647651e-001	 1.9172920595e+000
 1.3650882696e+000	 5.2482403359e-001	 1.8155892035e+000
 1.3598153903e+000	 5.3833851274e-001	 1.7092209715e+000
 1.4120547198e+000	 4.0413862806e-001	 2.5009842323e+000
 1.4080610872e+000	 4.1784032498e-001	 2.4513064008e+000
 1.4039241427e+000	 4.3153628352e-001	 2.3939741483e+000
 1.3996434591e+000	 4.4522438158e-001	 2.3292728595e+000
 1.3952186486e+000	 4.5890247880e-001	 2.2575141735e+000
 1.3906493639e+000	 4.7256841740e-001	 2.1790356307e+000
 1.3859352985e+000	 4.8622002308e-001	 2.0942002574e+000
 1.3810761874e+000	 4.9985510595e-001	 2.0033960875e+000
 1.3760718080e+000	 5.1347146145e-001	 1.9070356215e+000
 1.3709219801e+000	 5.2706687134e-001	 1.8055552225e+000
 1.3656265672e+000	 5.4063910467e-001	 1.6994144501e+000
 1.4180634633e+000	 4.0585836690e-001	 2.4892687787e+000
 1.4140528365e+000	 4.1961836892e-001	 2.4399283639e+000
 1.4098982880e+000	 4.3337260813e-001	 2.3828878356e+000
 1.4055993887e+000	 4.4711895341e-001	 2.3184377028e+000
 1.4011557492e+000	 4.6085525530e-001	 2.2468950646e+000
 1.3965670208e+000	 4.7457934683e-001	 2.1686032521e+000
 1.3918328955e+000	 4.8828904445e-001	 2.0839314053e+000
 1.3869531074e+000	 5.0198214895e-001	 1.9932739882e+000
 1.3819274327e+000	 5.1565644639e-001	 1.8970502385e+000
 1.3767556907e+000	 5.2930970909e-001	 1.7957035551e+000
 1.3714377440e+000	 5.4293969660e-001	 1.6897008217e+000
 1.4240722068e+000	 4.0757810574e-001	 2.4784625676e+000
 1.4200445858e+000	 4.2139641285e-001	 2.4293805489e+000
 1.4158724333e+000	 4.3520893274e-001	 2.3725510649e+000
 1.4115553183e+000	 4.4901352525e-001	 2.3082698562e+000
 1.4070928499e+000	 4.6280803181e-001	 2.2368595942e+000
 1.4024846776e+000	 4.7659027627e-001	 2.1586695160e+000
 1.3977304925e+000	 4.9035806583e-001	 2.0740749955e+000
 1.3928300273e+000	 5.0410919195e-001	 1.9834770497e+000
 1.3877830574e+000	 5.1784143133e-001	 1.8873017812e+000
 1.3825894012e+000	 5.3155254683e-001	 1.7859997551e+000
 1.3772489209e+000	 5.4524028854e-001	 1.6800453133e+000
 1.4300809503e+000	 4.0929784458e-001	 2.4685339342e+000
 1.4260363351e+000	 4.2317445679e-001	 2.4196310606e+000
 1.4218465786e+000	 4.3704525735e-001	 2.3629316972e+000
 1.4175112479e+000	 4.5090809708e-001	 2.2987369247e+000
 1.4130299505e+000	 4.6476080831e-001	 2.2273750985e+000
 1.4084023345e+000	 4.7860120570e-001	 2.1492014781e+000
 1.4036280895e+000	 4.9242708720e-001	 2.0645977911e+000
 1.3987069473e+000	 5.0623623495e-001	 1.9739717320e+000
 1.3936386821e+000	 5.2002641627e-001	 1.8777563954e+000
 1.3884231118e+000	 5.3379538458e-001	 1.7764096442e+000
 1.3830600978e+000	 5.4754088047e-001	 1.6704134131e+000
 1.4360896938e+000	 4.1101758342e-001	 2.4594515407e+000
 1.4320280844e+000	 4.2495250072e-001	 2.4106483234e+000
 1.4278207239e+000	 4.3888158195e-001	 2.3539979064e+000
 1.4234671775e+000	 4.5280266892e-001	 2.2898068184e+000
 1.4189670511e+000	 4.6671358481e-001	 2.2184092116e+000
 1.4143199914e+000	 4.8061213513e-001	 2.1401664846e+000
 1.4095256865e+000	 4.9449610857e-001	 2.0554668392e+000
 1.4045838672e+000	 5.0836327795e-001	 1.9647247716e+000
 1.3994943068e+000	 5.2221140121e-001	 1.8683804968e+000
 1.3942568223e+000	 5.3603822233e-001	 1.7668993069e+000
 1.3888712747e+000	 5.4984147240e-001	 1.6607708645e+000
 1.4420984373e+000	 4.1273732227e-001	 2.4511843691e+000
 1.4380198337e+000	 4.2673054465e-001	 2.4024010749e+000
 1.4337948691e+000	 4.4071790656e-001	 2.3457181720e+000
 1.4294231071e+000	 4.5469724075e-001	 2.2814477463e+000
 1.4249041518e+000	 4.6866636131e-001	 2.2099298596e+000
 1.4202376482e+000	 4.8262306456e-001	 2.1315321666e+000
 1.4154232836e+000	 4.9656512994e-001	 2.0466494645e+000
 1.4104607872e+000	 5.1049032095e-001	 1.9557031758e+000
 1.4053499315e+000	 5.2439638615e-001	 1.8591407644e+000
 1.4000905329e+000	 5.3828106007e-001	 1.7574350841e+000
 1.3946824516e+000	 5.5214206433e-001	 1.6510836609e+000
 1.3365706828e+000	 5.2913614500e-001	 1.7500808860e+000
 1.3312453597e+000	 5.4239472907e-001	 1.6720036378e+000
 1.3257774108e+000	 5.5562622946e-001	 1.5952990236e+000
 1.3201668325e+000	 5.6882843146e-001	 1.5202922746e+000
 1.3144136653e+000	 5.8199911200e-001	 1.4473201797e+000
 1.3085179949e+000	 5.9513604077e-001	 1.3767302584e+000
 1.3024799517e+000	 6.0823698129e-001	 1.3088798923e+000
 1.2962997118e+000	 6.2129969199e-001	 1.2441354156e+000
 1.2899774969e+000	 6.3432192740e-001	 1.2080453800e+000
 1.2835135748e+000	 6.4730143922e-001	 1.1785980219e+000
 1.2769082598e+000	 6.6023597752e-001	 1.1448472281e+000
 1.3423818596e+000	 5.3143673694e-001	 1.7395496507e+000
 1.3370333831e+000	 5.4475296702e-001	 1.6596256743e+000
 1.3315416605e+000	 5.5804199568e-001	 1.5813962428e+000
 1.3259066883e+000	 5.7130159855e-001	 1.5051979505e+000
 1.3201285074e+000	 5.8452954292e-001	 1.4313789183e+000
 1.3142072036e+000	 5.9772358878e-001	 1.3602979482e+000
 1.3081429080e+000	 6.1088148990e-001	 1.2923236327e+000
 1.3019357975e+000	 6.2400099500e-001	 1.2278334250e+000
 1.2955860947e+000	 6.3707984882e-001	 1.1955887572e+000
 1.2890940687e+000	 6.5011579330e-001	 1.1618738311e+000
 1.2824600349e+000	 6.6310656873e-001	 1.1242350597e+000
 1.3481930365e+000	 5.3373732887e-001	 1.7292531214e+000
 1.3428214064e+000	 5.4711120498e-001	 1.6474341934e+000
 1.3373059101e+000	 5.6045776189e-001	 1.5676288082e+000
 1.3316465441e+000	 5.7377476565e-001	 1.4901850310e+000
 1.3258433494e+000	 5.8705997384e-001	 1.4154624278e+000
 1.3198964123e+000	 6.0031113678e-001	 1.3438311984e+000
 1.3138058643e+000	 6.1352599851e-001	 1.2756712663e+000
 1.3075718832e+000	 6.2670229801e-001	 1.2153125973e+000
 1.3011946925e+000	 6.3983777024e-001	 1.1810659178e+000
 1.2946745625e+000	 6.5293014739e-001	 1.1430663351e+000
 1.2880118099e+000	 6.6597715993e-001	 1.1015195134e+000
 1.3540042134e+000	 5.3603792080e-001	 1.7191554248e+000
 1.3486094297e+000	 5.4946944293e-001	 1.6353924949e+000
 1.3430701597e+000	 5.6287352811e-001	 1.5539592168e+000
 1.3373863999e+000	 5.7624793274e-001	 1.4752152358e+000
 1.3315581914e+000	 5.8959040476e-001	 1.3995316756e+000
 1.3255856209e+000	 6.0289868478e-001	 1.3272902513e+000
 1.3194688206e+000	 6.1617050713e-001	 1.2588823380e+000
 1.3132079689e+000	 6.2940360102e-001	 1.2034106938e+000
 1.3068032903e+000	 6.4259569167e-001	 1.1644902386e+000
 1.3002550563e+000	 6.5574450147e-001	 1.1221895725e+000
 1.2935635850e+000	 6.6884775114e-001	 1.0767153067e+000
 1.3598153903e+000	 5.3833851274e-001	 1.7092209715e+000
 1.3543974530e+000	 5.5182768088e-001	 1.6234641642e+000
 1.3488344093e+000	 5.6528929432e-001	 1.5403502518e+000
 1.3431262556e+000	 5.7872109983e-001	 1.4602505700e+000
 1.3372730334e+000	 5.9212083569e-001	 1.3835479146e+000
 1.3312748296e+000	 6.0548623278e-001	 1.3106356339e+000
 1.3251317770e+000	 6.1881501574e-001	 1.2419166760e+000
 1.3188440546e+000	 6.3210490402e-001	 1.1894824690e+000
 1.3124118881e+000	 6.4535361309e-001	 1.1458753749e+000
 1.3058355501e+000	 6.5855885555e-001	 1.0992578573e+000
 1.2991153600e+000	 6.7171834235e-001	 1.0498374292e+000
 1.3656265672e+000	 5.4063910467e-001	 1.6994144501e+000
 1.3601854763e+000	 5.5418591883e-001	 1.6116130653e+000
 1.3545986589e+000	 5.6770506054e-001	 1.5267649758e+000
 1.3488661114e+000	 5.8119426692e-001	 1.4452533188e+000
 1.3429878755e+000	 5.9465126661e-001	 1.3674726773e+000
 1.3369640383e+000	 6.0807378079e-001	 1.2938281515e+000
 1.3307947333e+000	 6.2145952435e-001	 1.2247343853e+000
 1.3244801403e+000	 6.3480620703e-001	 1.1735412116e+000
 1.3180204859e+000	 6.4811153451e-001	 1.1252352546e+000
 1.3114160439e+000	 6.6137320964e-001	 1.0742857731e+000
 1.3046671350e+000	 6.7458893356e-001	 1.0209011363e+000
 1.3714377440e+000	 5.4293969660e-001	 1.6897008217e+000
 1.3659734996e+000	 5.5654415678e-001	 1.5998033357e+000
 1.3603629085e+000	 5.7012082675e-001	 1.5131667254e+000
 1.3546059672e+000	 5.8366743401e-001	 1.4301860412e+000
 1.3487027175e+000	 5.9718169753e-001	 1.3512677693e+000
 1.3426532469e+000	 6.1066132879e-001	 1.2768288819e+000
 1.3364576896e+000	 6.2410403297e-001	 1.2072958420e+000
 1.3301162260e+000	 6.3750751004e-001	 1.1556004797e+000
 1.3236290837e+000	 6.5086945593e-001	 1.1025840722e+000
 1.3169965377e+000	 6.6418756372e-001	 1.0472881670e+000
 1.3102189101e+000	 6.7745952476e-001	 9.8992194385e-001
 1.3772489209e+000	 5.4524028854e-001	 1.6800453133e+000
 1.3717615229e+000	 5.5890239473e-001	 1.5879993805e+000
 1.3661271581e+000	 5.7253659296e-001	 1.4995191051e+000
 1.3603458230e+000	 5.8614060110e-001	 1.4150115643e+000
 1.3544175595e+000	 5.9971212844e-001	 1.3348952644e+000
 1.3483424556e+000	 6.1324887679e-001	 1.2595991700e+000
 1.3421206459e+000	 6.2674854158e-001	 1.1912863912e+000
 1.3357523117e+000	 6.4020881304e-001	 1.1356740949e+000
 1.3292376816e+000	 6.5362737736e-001	 1.0779362835e+000
 1.3225770315e+000	 6.6700191780e-001	 1.0182801448e+000
 1.3157706851e+000	 6.8033011597e-001	 9.5691562253e-001
 1.3830600978e+000	 5.4754088047e-001	 1.6704134131e+000
 1.3775495462e+000	 5.6126063268e-001	 1.5761658663e+000
 1.3718914077e+000	 5.7495235917e-001	 1.4857859820e+000
 1.3660856788e+000	 5.8861376819e-001	 1.3996929778e+000
 1.3601324015e+000	 6.0224255936e-001	 1.3183174979e+000
 1.3540316643e+000	 6.1583642479e-001	 1.2421006214e+000
 1.3477836022e+000	 6.2939305019e-001	 1.1744775908e+000
 1.3413883974e+000	 6.4291011605e-001	 1.1137761368e+000
 1.3348462794e+000	 6.5638529878e-001	 1.0513065998e+000
 1.3281575253e+000	 6.6981627188e-001	 9.8727706477e-001
 1.3213224602e+000	 6.8320070717e-001	 9.2189819258e-001
 1.3888712747e+000	 5.4984147240e-001	 1.6607708645e+000
 1.3833375695e+000	 5.6361887063e-001	 1.5642677163e+000
 1.3776556573e+000	 5.7736812539e-001	 1.4719314799e+000
 1.3718255346e+000	 5.9108693528e-001	 1.3841936282e+000
 1.3658472435e+000	 6.0477299028e-001	 1.3014970622e+000
 1.3597208729e+000	 6.1842397279e-001	 1.2242950980e+000
 1.3534465585e+000	 6.3203755880e-001	 1.1557184645e+000
 1.3470244831e+000	 6.4561141906e-001	 1.0899209374e+000
 1.3404548772e+000	 6.5914322020e-001	 1.0227099829e+000
 1.3337380191e+000	 6.7263062596e-001	 9.5429453290e-001
 1.3268742352e+000	 6.8607129838e-001	 8.8488591851e-001
 1.3946824516e+000	 5.5214206433e-001	 1.6510836609e+000
 1.3891255928e+000	 5.6597710858e-001	 1.5522701047e+000
 1.3834199070e+000	 5.7978389160e-001	 1.4579199743e+000
 1.3775653904e+000	 5.9356010237e-001	 1.3684771138e+000
 1.3715620856e+000	 6.0730342120e-001	 1.2843968007e+000
 1.3654100816e+000	 6.2101152079e-001	 1.2061447117e+000
 1.3591095148e+000	 6.3468206741e-001	 1.1350229789e+000
 1.3526605688e+000	 6.4831272206e-001	 1.0641230762e+000
 1.3460634750e+000	 6.6190114162e-001	 9.9216163958e-001
 1.3393185129e+000	 6.7544498005e-001	 9.1934839755e-001
 1.3324260102e+000	 6.8894188958e-001	 8.4589530405e-001
 1.2769082598e+000	 6.6023597752e-001	 1.1448472281e+000
 1.2701619125e+000	 6.7312329189e-001	 9.8629915331e-001
 1.2632749402e+000	 6.8596113260e-001	 8.0406500188e-001
 1.2562477972e+000	 6.9874725185e-001	 5.9929381705e-001
 1.2490809848e+000	 7.1147940486e-001	 4.0996252655e-001
 1.2417750510e+000	 7.2415535120e-001	 4.4859234322e-001
 1.2343305914e+000	 7.3677285592e-001	 4.6028838990e-001
 1.2267482482e+000	 7.4932969078e-001	 4.4622973422e-001
 1.2190287111e+000	 7.6182363550e-001	 4.0762559916e-001
 1.2111727164e+000	 7.7425247897e-001	 3.4571398400e-001
 1.2031810474e+000	 7.8661402048e-001	 2.6176023623e-001
 1.2824600349e+000	 6.6310656873e-001	 1.1242350597e+000
 1.2756843556e+000	 6.7604991490e-001	 9.7632623818e-001
 1.2687674400e+000	 6.8894357232e-001	 8.0662982523e-001
 1.2617097442e+000	 7.0178528338e-001	 6.1624426349e-001
 1.2545117716e+000	 7.1457279358e-001	 4.0629672865e-001
 1.2471740730e+000	 7.2730385274e-001	 2.8774507778e-001
 1.2396972461e+000	 7.3997621617e-001	 3.2331761823e-001
 1.2320819363e+000	 7.5258764596e-001	 3.3466603213e-001
 1.2243288359e+000	 7.6513591218e-001	 3.2294313328e-001
 1.2164386847e+000	 7.7761879410e-001	 2.8932866161e-001
 1.2084122693e+000	 7.9003408144e-001	 2.3502789552e-001
 1.2880118099e+000	 6.6597715993e-001	 1.1015195134e+000
 1.2812067987e+000	 6.7897653791e-001	 9.6340892217e-001
 1.2742599397e+000	 6.9192601203e-001	 8.0539187522e-001
 1.2671716911e+000	 7.0482331491e-001	 6.2851650310e-001
 1.2599425585e+000	 7.1766618231e-001	 4.3385770046e-001
 1.2525730949e+000	 7.3045235427e-001	 2.2251655601e-001
 1.2450639009e+000	 7.4317957641e-001	 1.8168763529e-001
 1.2374156243e+000	 7.5584560114e-001	 2.1747414890e-001
 1.2296289607e+000	 7.6844818886e-001	 2.3164935622e-001
 1.2217046530e+000	 7.8098510923e-001	 2.2533519953e-001
 1.2136434913e+000	 7.9345414240e-001	 1.9967736054e-001
 1.2935635850e+000	 6.6884775114e-001	 1.0767153067e+000
 1.2867292418e+000	 6.8190316092e-001	 9.4757315026e-001
 1.2797524394e+000	 6.9490845173e-001	 8.0038852458e-001
 1.2726336381e+000	 7.0786134644e-001	 6.3615953226e-001
 1.2653733454e+000	 7.2075957102e-001	 4.5590908503e-001
 1.2579721169e+000	 7.3360085580e-001	 2.6068437348e-001
 1.2504305556e+000	 7.4638293666e-001	 5.1556289123e-002
 1.2427493123e+000	 7.5910355632e-001	 9.4700436047e-002
 1.2349290856e+000	 7.7176046554e-001	 1.3380246681e-001
 1.2269706213e+000	 7.8435142436e-001	 1.5380383242e-001
 1.2188747132e+000	 7.9687420337e-001	 1.5579108555e-001
 1.2991153600e+000	 6.7171834235e-001	 1.0498374292e+000
 1.2922516849e+000	 6.8482978393e-001	 9.2884495500e-001
 1.2852449392e+000	 6.9789089144e-001	 7.9165704581e-001
 1.2780955850e+000	 7.1089937798e-001	 6.3922205571e-001
 1.2708041323e+000	 7.2385295974e-001	 4.7251120697e-001
 1.2633711389e+000	 7.3674935733e-001	 2.9251809938e-001
 1.2557972103e+000	 7.4958629691e-001	 1.0025817460e-001
 1.2480830004e+000	 7.6236151150e-001	-3.3609846928e-002
 1.2402292104e+000	 7.7507274222e-001	 2.9459363503e-002
 1.2322365897e+000	 7.8771773949e-001	 7.4803283157e-002
 1.2241059352e+000	 8.0029426433e-001	 1.0344979852e-001
 1.3046671350e+000	 6.7458893356e-001	 1.0209011363e+000
 1.2977741280e+000	 6.8775640693e-001	 9.0725045474e-001
 1.2907374389e+000	 7.0087333115e-001	 7.7923461331e-001
 1.2835575320e+000	 7.1393740951e-001	 6.3775249271e-001
 1.2762349192e+000	 7.2694634846e-001	 4.8372391460e-001
 1.2687701608e+000	 7.3989785886e-001	 3.1808919053e-001
 1.2611638651e+000	 7.5278965715e-001	 1.4180862853e-001
 1.2534166884e+000	 7.6561946668e-001	-4.4138002714e-002
 1.2455293352e+000	 7.7838501890e-001	-8.1324327929e-002
 1.2375025580e+000	 7.9108405462e-001	-1.1599205032e-002
 1.2293371571e+000	 8.0371432529e-001	 4.2732537840e-002
 1.3102189101e+000	 6.7745952476e-001	 9.8992194385e-001
 1.3032965711e+000	 6.9068302994e-001	 8.8281585175e-001
 1.2962299386e+000	 7.0385577086e-001	 7.6315830550e-001
 1.2890194789e+000	 7.1697544104e-001	 6.3179898310e-001
 1.2816657061e+000	 7.3003973718e-001	 4.8960659002e-001
 1.2741691828e+000	 7.4304636038e-001	 3.3746844746e-001
 1.2665305198e+000	 7.5599301740e-001	 1.7629004123e-001
 1.2587503764e+000	 7.6887742186e-001	 6.9945306362e-003
 1.2508294600e+000	 7.8169729558e-001	-1.6947778275e-001
 1.2427685263e+000	 7.9445036975e-001	-1.0533783721e-001
 1.2345683790e+000	 8.0713438625e-001	-2.6283311847e-002
 1.3157706851e+000	 6.8033011597e-001	 9.5691562253e-001
 1.3088190142e+000	 6.9360965295e-001	 8.5556743045e-001
 1.3017224384e+000	 7.0683821056e-001	 7.4346510677e-001
 1.2944814258e+000	 7.2001347257e-001	 6.2140939321e-001
 1.2870964930e+000	 7.3313312590e-001	 4.9021815894e-001
 1.2795682047e+000	 7.4619486191e-001	 3.5072602823e-001
 1.2718971746e+000	 7.5919637764e-001	 2.0378397131e-001
 1.2640840645e+000	 7.7213537704e-001	 5.0258858006e-002
 1.2561295849e+000	 7.8500957225e-001	-1.0896702617e-001
 1.2480344947e+000	 7.9781668488e-001	-2.0634823619e-001
 1.2397996010e+000	 8.1055444721e-001	-1.0352198479e-001
 1.3213224602e+000	 6.8320070717e-001	 9.2189819258e-001
 1.3143414573e+000	 6.9653627596e-001	 8.2553155575e-001
 1.3072149381e+000	 7.0982065027e-001	 7.2019190954e-001
 1.2999433728e+000	 7.2305150410e-001	 6.0663132158e-001
 1.2925272799e+000	 7.3622651461e-001	 4.8561710032e-001
 1.2849672267e+000	 7.4934336344e-001	 3.5793146192e-001
 1.2772638293e+000	 7.6239973788e-001	 2.2437116310e-001
 1.2694177525e+000	 7.7539333222e-001	 8.5747099349e-002
 1.2614297097e+000	 7.8832184893e-001	-5.7116131813e-002
 1.2533004630e+000	 8.0118300000e-001	-2.0338070303e-001
 1.2450308229e+000	 8.1397450817e-001	-1.8890930010e-001
 1.3268742352e+000	 6.8607129838e-001	 8.8488591851e-001
 1.3198639004e+000	 6.9946289896e-001	 7.9273467127e-001
 1.3127074379e+000	 7.1280308997e-001	 6.9337551611e-001
 1.3054053197e+000	 7.2608953562e-001	 5.8751210459e-001
 1.2979580667e+000	 7.3931990333e-001	 4.7586145565e-001
 1.2903662486e+000	 7.5249186496e-001	 3.5915366180e-001
 1.2826304841e+000	 7.6560309813e-001	 2.3813156372e-001
 1.2747514405e+000	 7.7865128740e-001	 1.1355039303e-001
 1.2667298345e+000	 7.9163412561e-001	-1.3822617473e-002
 1.2585664313e+000	 8.0454931513e-001	-1.4320865643e-001
 1.2502620449e+000	 8.1739456913e-001	-2.7381778973e-001
 1.3324260102e+000	 6.8894188958e-001	 8.4589530405e-001
 1.3253863434e+000	 7.0238952197e-001	 7.5720329778e-001
 1.3181999376e+000	 7.1578552968e-001	 6.6305264061e-001
 1.3108672667e+000	 7.2912756715e-001	 5.6409882189e-001
 1.3033888536e+000	 7.4241329204e-001	 4.6100883812e-001
 1.2957652706e+000	 7.5564036649e-001	 3.5446093815e-001
 1.2879971388e+000	 7.6880645837e-001	 2.4514433968e-001
 1.2800851286e+000	 7.8190924257e-001	 1.3375891626e-001
 1.2720299594e+000	 7.9494640228e-001	 2.1014854539e-002
 1.2638323996e+000	 8.0791563026e-001	-9.2367719037e-002
 1.2554932668e+000	 8.2081463009e-001	-2.0565914216e-001
 1.2031810474e+000	 7.8661402048e-001	 2.6176023623e-001
 1.1950545342e+000	 7.9890607094e-001	 9.0107582926e-002
 1.1867940535e+000	 8.1112645412e-001	-6.8938272043e-002
 1.1784005281e+000	 8.2327300787e-001	-2.1527661123e-001
 1.1698749268e+000	 8.3534358533e-001	-3.4882236464e-001
 1.1612182645e+000	 8.4733605617e-001	-4.6950661353e-001
 1.1524316013e+000	 8.5924830776e-001	-5.7727707092e-001
 1.1435160421e+000	 8.7107824642e-001	-6.7209853758e-001
 1.1344727369e+000	 8.8282379857e-001	-7.5395333168e-001
 1.1253028794e+000	 8.9448291193e-001	-8.2284169085e-001
 1.1160077072e+000	 9.0605355669e-001	-8.7878214514e-001
 1.2084122693e+000	 7.9003408144e-001	 2.3502789552e-001
 1.2002504235e+000	 8.0237957560e-001	 7.5422375057e-002
 1.1919540276e+000	 8.1465309088e-001	-7.4203524011e-002
 1.1835240086e+000	 8.2685245574e-001	-2.1367562723e-001
 1.1749613396e+000	 8.3897551397e-001	-3.4283270558e-001
 1.1662670396e+000	 8.5102012598e-001	-4.6152704890e-001
 1.1574421734e+000	 8.6298416998e-001	-5.6962502000e-001
 1.1484878510e+000	 8.7486554315e-001	-6.6700758791e-001
 1.1394052270e+000	 8.8666216292e-001	-7.5357083861e-001
 1.1301955006e+000	 8.9837196807e-001	-8.2922646166e-001
 1.1208599146e+000	 9.0999291998e-001	-8.9390221118e-001
 1.2136434913e+000	 7.9345414240e-001	 1.9967736054e-001
 1.2054463128e+000	 8.0585308026e-001	 5.3130973153e-002
 1.1971140018e+000	 8.1817972764e-001	-8.6039675242e-002
 1.1886474892e+000	 8.3043190360e-001	-2.1758733111e-001
 1.1800477523e+000	 8.4260744261e-001	-3.4127500126e-001
 1.1713158147e+000	 8.5470419580e-001	-4.5687659568e-001
 1.1624527456e+000	 8.6672003219e-001	-5.6417755498e-001
 1.1534596599e+000	 8.7865283988e-001	-6.6297546073e-001
 1.1443377172e+000	 8.9050052726e-001	-7.5308062694e-001
 1.1350881218e+000	 9.0226102422e-001	-8.3431667095e-001
 1.1257121220e+000	 9.1393228327e-001	-9.0652106211e-001
 1.2188747132e+000	 7.9687420337e-001	 1.5579108555e-001
 1.2106422021e+000	 8.0932658492e-001	 2.3302030674e-002
 1.2022739759e+000	 8.2170636441e-001	-1.0439215714e-001
 1.1937709697e+000	 8.3401135146e-001	-2.2697151715e-001
 1.1851341650e+000	 8.4623937124e-001	-3.4412368055e-001
 1.1763645897e+000	 8.5838826561e-001	-4.5554458260e-001
 1.1674633178e+000	 8.7045589440e-001	-5.6093916308e-001
 1.1584314688e+000	 8.8244013661e-001	-6.6002205354e-001
 1.1492702073e+000	 8.9433889161e-001	-7.5251824919e-001
 1.1399807430e+000	 9.0615008036e-001	-8.3816376378e-001
 1.1305643294e+000	 9.1787164657e-001	-9.1670626575e-001
 1.2241059352e+000	 8.0029426433e-001	 1.0344979852e-001
 1.2158380914e+000	 8.1280008958e-001	-1.3997294799e-002
 1.2074339501e+000	 8.2523300117e-001	-1.2920766161e-001
 1.1988944503e+000	 8.3759079933e-001	-2.4178899983e-001
 1.1902205777e+000	 8.4987129988e-001	-3.5135394751e-001
 1.1814133648e+000	 8.6207233542e-001	-4.5752086386e-001
 1.1724738900e+000	 8.7419175661e-001	-5.5991460273e-001
 1.1634032776e+000	 8.8622743333e-001	-6.5816727630e-001
 1.1542026975e+000	 8.9817725595e-001	-7.5191900723e-001
 1.1448733642e+000	 9.1003913650e-001	-8.4081866733e-001
 1.1354165368e+000	 9.2181100986e-001	-9.2452460059e-001
 1.2293371571e+000	 8.0371432529e-001	 4.2732537840e-002
 1.2210339806e+000	 8.1627359424e-001	-5.8701309731e-002
 1.2125939242e+000	 8.2875963793e-001	-1.6043411419e-001
 1.2040179308e+000	 8.4117024719e-001	-2.6200159216e-001
 1.1953069905e+000	 8.5350322851e-001	-3.6294176485e-001
 1.1864621398e+000	 8.6575640524e-001	-4.6279580796e-001
 1.1774844622e+000	 8.7792761882e-001	-5.6110889775e-001
 1.1683750865e+000	 8.9001473006e-001	-6.5743105111e-001
 1.1591351877e+000	 9.0201562030e-001	-7.5131795767e-001
 1.1497659854e+000	 9.1392819264e-001	-8.4233180183e-001
 1.1402687443e+000	 9.2575037315e-001	-9.3004207264e-001
 1.2345683790e+000	 8.0713438625e-001	-2.6283311847e-002
 1.2262298699e+000	 8.1974709890e-001	-1.1074575362e-001
 1.2177538984e+000	 8.3228627469e-001	-1.9802064798e-001
 1.2091414114e+000	 8.4474969506e-001	-2.8757208449e-001
 1.2003934032e+000	 8.5713515715e-001	-3.7886383791e-001
 1.1915109149e+000	 8.6944047505e-001	-4.7136028674e-001
 1.1824950343e+000	 8.8166348103e-001	-5.6452733173e-001
 1.1733468954e+000	 8.9380202679e-001	-6.5783331203e-001
 1.1640676778e+000	 9.0585398464e-001	-7.5074991700e-001
 1.1546586066e+000	 9.1781724878e-001	-8.4275309140e-001
 1.1451209517e+000	 9.2968973644e-001	-9.3332393174e-001
 1.2397996010e+000	 8.1055444721e-001	-1.0352198479e-001
 1.2314257592e+000	 8.2322060356e-001	-1.7006776876e-001
 1.2229138725e+000	 8.3581291145e-001	-2.4191757812e-001
 1.2142648919e+000	 8.4832914292e-001	-3.1846422390e-001
 1.2054798159e+000	 8.6076708578e-001	-3.9909759895e-001
 1.1965596900e+000	 8.7312454486e-001	-4.8320566483e-001
 1.1875056065e+000	 8.8539934324e-001	-5.7017544258e-001
 1.1783187043e+000	 8.9758932351e-001	-6.5939400476e-001
 1.1690001680e+000	 9.0969234899e-001	-7.5024946668e-001
 1.1595512278e+000	 9.2170630492e-001	-8.4213197445e-001
 1.1499731591e+000	 9.3362909974e-001	-9.3443468753e-001
 1.2450308229e+000	 8.1397450817e-001	-1.8890930010e-001
 1.2366216485e+000	 8.2669410822e-001	-2.3660587079e-001
 1.2280738466e+000	 8.3933954821e-001	-2.9207637696e-001
 1.2193883725e+000	 8.5190859078e-001	-3.5464269413e-001
 1.2105662286e+000	 8.6439901442e-001	-4.2362119190e-001
 1.2016084650e+000	 8.7680861467e-001	-4.9832378925e-001
 1.1925161787e+000	 8.8913520545e-001	-5.7805901716e-001
 1.1832905132e+000	 9.0137662024e-001	-6.6213308644e-001
 1.1739326581e+000	 9.1353071333e-001	-7.4985095808e-001
 1.1644438491e+000	 9.2559536106e-001	-8.4051741389e-001
 1.1548253665e+000	 9.3756846303e-001	-9.3343812501e-001
 1.2502620449e+000	 8.1739456913e-001	-2.7381778973e-001
 1.2418175377e+000	 8.3016761288e-001	-3.1029991991e-001
 1.2332338208e+000	 8.4286618497e-001	-3.4844964987e-001
 1.2245118530e+000	 8.5548803865e-001	-3.9607309592e-001
 1.2156526414e+000	 8.6803094305e-001	-4.5241345748e-001
 1.2066572401e+000	 8.8049268449e-001	-5.1670697933e-001
 1.1975267509e+000	 8.9287106766e-001	-5.8818408610e-001
 1.1882623220e+000	 9.0516391696e-001	-6.6607052540e-001
 1.1788651483e+000	 9.1736907767e-001	-7.4958851728e-001
 1.1693364703e+000	 9.2948441720e-001	-8.3795790711e-001
 1.1596775740e+000	 9.4150782632e-001	-9.3039731972e-001
 1.2554932668e+000	 8.2081463009e-001	-2.0565914216e-001
 1.2470134270e+000	 8.3364111753e-001	-3.9109109294e-001
 1.2383937949e+000	 8.4639282172e-001	-4.1099111164e-001
 1.2296353336e+000	 8.5906748651e-001	-4.4272192798e-001
 1.2207390541e+000	 8.7166287169e-001	-4.8545391865e-001
 1.2117060152e+000	 8.8417675430e-001	-5.3834801691e-001
 1.2025373231e+000	 8.9660692987e-001	-6.0055691866e-001
 1.1932341309e+000	 9.0895121369e-001	-6.7122630091e-001
 1.1837976385e+000	 9.2120744202e-001	-7.4949604978e-001
 1.1742290915e+000	 9.3337347334e-001	-8.3450149563e-001
 1.1645297814e+000	 9.4544718961e-001	-9.2537465244e-001
 1.1160077072e+000	 9.0605355669e-001	-8.7878214514e-001
 1.1065885010e+000	 9.1753372665e-001	-9.2842609826e-001
 1.0970465841e+000	 9.2892144038e-001	-9.8083102449e-001
 1.0873833217e+000	 9.4021474233e-001	-1.0358326615e+000
 1.0776001205e+000	 9.5141170395e-001	-1.0932698523e+000
 1.0676984276e+000	 9.6251042475e-001	-1.1529849806e+000
 1.0576797303e+000	 9.7350903341e-001	-1.2148243921e+000
 1.0475455551e+000	 9.8440568878e-001	-1.2786388014e+000
 1.0372974668e+000	 9.9519858094e-001	-1.3442836834e+000
 1.0269370679e+000	 1.0058859322e+000	-1.4116196468e+000
 1.0164659980e+000	 1.0164659980e+000	-1.4805127913e+000
 1.1208599146e+000	 9.0999291998e-001	-8.9390221118e-001
 1.1113997553e+000	 9.2152300372e-001	-9.4999604831e-001
 1.1018163518e+000	 9.3296022925e-001	-1.0074299637e+000
 1.0921110753e+000	 9.4430263252e-001	-1.0660511816e+000
 1.0822853384e+000	 9.5554827658e-001	-1.1257114507e+000
 1.0723405947e+000	 9.6669525269e-001	-1.1862674715e+000
 1.0622783378e+000	 9.7774168139e-001	-1.2475813095e+000
 1.0521001010e+000	 9.8868571352e-001	-1.3095207906e+000
 1.0418074558e+000	 9.9952553130e-001	-1.3719598793e+000
 1.0314020117e+000	 1.0102593493e+000	-1.4347790376e+000
 1.0208854154e+000	 1.0208854154e+000	-1.4978655644e+000
 1.1257121220e+000	 9.1393228327e-001	-9.0652106211e-001
 1.1162110097e+000	 9.2551228080e-001	-9.6932184701e-001
 1.1065861196e+000	 9.3699901813e-001	-1.0320516381e+000
 1.0968388289e+000	 9.4839052271e-001	-1.0945689929e+000
 1.0869705563e+000	 9.5968484921e-001	-1.1567384064e+000
 1.0769827618e+000	 9.7088008063e-001	-1.2184307322e+000
 1.0668769454e+000	 9.8197432936e-001	-1.2795235860e+000
 1.0566546469e+000	 9.9296573826e-001	-1.3399017308e+000
 1.0463174447e+000	 1.0038524817e+000	-1.3994574414e+000
 1.0358669555e+000	 1.0146327664e+000	-1.4580908495e+000
 1.0253048327e+000	 1.0253048327e+000	-1.5157102650e+000
 1.1305643294e+000	 9.1787164657e-001	-9.1670626575e-001
 1.1210222640e+000	 9.2950155788e-001	-9.8646831285e-001
 1.1113558874e+000	 9.4103780700e-001	-1.0547579634e+000
 1.1015665824e+000	 9.5247841289e-001	-1.1214449559e+000
 1.0916557742e+000	 9.6382142184e-001	-1.1864063740e+000
 1.0816249288e+000	 9.7506490856e-001	-1.2495270611e+000
 1.0714755529e+000	 9.8620697733e-001	-1.3107000152e+000
 1.0612091928e+000	 9.9724576299e-001	-1.3698267632e+000
 1.0508274337e+000	 1.0081794320e+000	-1.4268177132e+000
 1.0403318993e+000	 1.0190061835e+000	-1.4815924840e+000
 1.0297242501e+000	 1.0297242501e+000	-1.5340802105e+000
 1.1354165368e+000	 9.2181100986e-001	-9.2452460059e-001
 1.1258335184e+000	 9.3349083495e-001	-1.0014995261e+000
 1.1161256551e+000	 9.4507659588e-001	-1.0756101709e+000
 1.1062943360e+000	 9.5656630308e-001	-1.1467373028e+000
 1.0963409921e+000	 9.6795799446e-001	-1.2147704375e+000
 1.0862670959e+000	 9.7924973650e-001	-1.2796082465e+000
 1.0760741604e+000	 9.9043962531e-001	-1.3411589434e+000
 1.0657637386e+000	 1.0015257877e+000	-1.3993406476e+000
 1.0553374227e+000	 1.0125063824e+000	-1.4540817241e+000
 1.0447968430e+000	 1.0233796006e+000	-1.5053210986e+000
 1.0341436675e+000	 1.0341436675e+000	-1.5530085462e+000
 1.1402687443e+000	 9.2575037315e-001	-9.3004207264e-001
 1.1306447727e+000	 9.3748011202e-001	-1.0144788444e+000
 1.1208954229e+000	 9.4911538475e-001	-1.0946688211e+000
 1.1110220896e+000	 9.6065419326e-001	-1.1705036497e+000
 1.1010262101e+000	 9.7209456709e-001	-1.2418851223e+000
 1.0909092630e+000	 9.8343456443e-001	-1.3087255777e+000
 1.0806727679e+000	 9.9467227328e-001	-1.3709482797e+000
 1.0703182845e+000	 1.0058058125e+000	-1.4284877702e+000
 1.0598474117e+000	 1.0168333327e+000	-1.4812901965e+000
 1.0492617868e+000	 1.0277530177e+000	-1.5293136121e+000
 1.0385630849e+000	 1.0385630849e+000	-1.5725282494e+000
 1.1451209517e+000	 9.2968973644e-001	-9.3332393174e-001
 1.1354560271e+000	 9.4146938910e-001	-1.0254689181e+000
 1.1256651906e+000	 9.5315417362e-001	-1.1119938190e+000
 1.1157498432e+000	 9.6474208345e-001	-1.1928010107e+000
 1.1057114280e+000	 9.7623113972e-001	-1.2678044073e+000
 1.0955514301e+000	 9.8761939237e-001	-1.3369298556e+000
 1.0852713755e+000	 9.9890492125e-001	-1.4001155053e+000
 1.0748728304e+000	 1.0100858372e+000	-1.4573121518e+000
 1.0643574007e+000	 1.0211602831e+000	-1.5084835518e+000
 1.0537267306e+000	 1.0321264348e+000	-1.5536067093e+000
 1.0429825023e+000	 1.0429825023e+000	-1.5926721325e+000
 1.1499731591e+000	 9.3362909974e-001	-9.3443468753e-001
 1.1402672814e+000	 9.4545866617e-001	-1.0345317053e+000
 1.1304349584e+000	 9.5719296249e-001	-1.1276444271e+000
 1.1204775967e+000	 9.6882997363e-001	-1.2136858100e+000
 1.1103966459e+000	 9.8036771234e-001	-1.2925817364e+000
 1.1001935971e+000	 9.9180422030e-001	-1.3642714029e+000
 1.0898699830e+000	 1.0031375692e+000	-1.4287076820e+000
 1.0794273763e+000	 1.0143658619e+000	-1.4858574554e+000
 1.0688673897e+000	 1.0254872334e+000	-1.5357019173e+000
 1.0581916744e+000	 1.0364998519e+000	-1.5782368464e+000
 1.0474019197e+000	 1.0474019197e+000	-1.6134728469e+000
 1.1548253665e+000	 9.3756846303e-001	-9.3343812501e-001
 1.1450785358e+000	 9.4944794324e-001	-1.0417284864e+000
 1.1352047261e+000	 9.6123175136e-001	-1.1416792793e+000
 1.1252053503e+000	 9.7291786382e-001	-1.2332138943e+000
 1.1150818638e+000	 9.8450428497e-001	-1.3162700296e+000
 1.1048357642e+000	 9.9598904823e-001	-1.3908000741e+000
 1.0944685905e+000	 1.0073702172e+000	-1.4567714616e+000
 1.0839819222e+000	 1.0186458867e+000	-1.5141669939e+000
 1.0733773787e+000	 1.0298141838e+000	-1.5629851321e+000
 1.0626566181e+000	 1.0408732690e+000	-1.6032402555e+000
 1.0518213370e+000	 1.0518213370e+000	-1.6349628860e+000
 1.1596775740e+000	 9.4150782632e-001	-9.3039731972e-001
 1.1498897901e+000	 9.5343722032e-001	-1.0471198780e+000
 1.1399744939e+000	 9.6527054023e-001	-1.1541563941e+000
 1.1299331039e+000	 9.7700575400e-001	-1.2514405453e+000
 1.1197670817e+000	 9.8864085759e-001	-1.3389216940e+000
 1.1094779313e+000	 1.0001738762e+000	-1.4165652655e+000
 1.0990671980e+000	 1.0116028652e+000	-1.4843530941e+000
 1.0885364681e+000	 1.0229259114e+000	-1.5422837368e+000
 1.0778873676e+000	 1.0341411341e+000	-1.5903727531e+000
 1.0671215619e+000	 1.0452466861e+000	-1.6286529494e+000
 1.0562407544e+000	 1.0562407544e+000	-1.6571745889e+000
 1.1645297814e+000	 9.4544718961e-001	-9.2537465244e-001
 1.1547010445e+000	 9.5742649739e-001	-1.0507658470e+000
 1.1447442617e+000	 9.6930932910e-001	-1.1651331871e+000
 1.1346608574e+000	 9.8109364418e-001	-1.2684204909e+000
 1.1244522996e+000	 9.9277743021e-001	-1.3605886346e+000
 1.1141200984e+000	 1.0043587041e+000	-1.4416159245e+000
 1.1036658056e+000	 1.0158355131e+000	-1.5114984362e+000
 1.0930910140e+000	 1.0272059361e+000	-1.5702503183e+000
 1.0823973566e+000	 1.0384680845e+000	-1.6179040608e+000
 1.0715865057e+000	 1.0496201031e+000	-1.6545107261e+000
 1.0606601718e+000	 1.0606601718e+000	-1.6801401433e+000
 1.0164659980e+000	 1.0164659980e+000	-1.4805127913e+000
 1.0058859322e+000	 1.0269370679e+000	-1.5447995810e+000
 9.9519858094e-001	 1.0372974668e+000	-1.6039625714e+000
 9.8440568878e-001	 1.0475455551e+000	-1.6576590014e+000
 9.7350903341e-001	 1.0576797303e+000	-1.7055588515e+000
 9.6251042475e-001	 1.0676984276e+000	-1.7473453302e+000
 9.5141170395e-001	 1.0776001205e+000	-1.7827153295e+000
 9.4021474233e-001	 1.0873833217e+000	-1.8113798479e+000
 9.2892144038e-001	 1.0970465841e+000	-1.8330643800e+000
 9.1753372665e-001	 1.1065885010e+000	-1.8475092730e+000
 9.0605355669e-001	 1.1160077072e+000	-1.8544700480e+000
 1.0208854154e+000	 1.0208854154e+000	-1.4978655644e+000
 1.0102593493e+000	 1.0314020117e+000	-1.5533769708e+000
 9.9952553130e-001	 1.0418074558e+000	-1.6052903605e+000
 9.8868571352e-001	 1.0521001010e+000	-1.6533003287e+000
 9.7774168139e-001	 1.0622783378e+000	-1.6971127974e+000
 9.6669525269e-001	 1.0723405947e+000	-1.7364454671e+000
 9.5554827658e-001	 1.0822853384e+000	-1.7710282390e+000
 9.4430263252e-001	 1.0921110753e+000	-1.8006036068e+000
 9.3296022925e-001	 1.1018163518e+000	-1.8249270175e+000
 9.2152300372e-001	 1.1113997553e+000	-1.8437671999e+000
 9.0999291998e-001	 1.1208599146e+000	-1.8569064614e+000
 1.0253048327e+000	 1.0253048327e+000	-1.5157102650e+000
 1.0146327664e+000	 1.0358669555e+000	-1.5630062557e+000
 1.0038524817e+000	 1.0463174447e+000	-1.6082142297e+000
 9.9296573826e-001	 1.0566546469e+000	-1.6510658532e+000
 9.8197432936e-001	 1.0668769454e+000	-1.6913027166e+000
 9.7088008063e-001	 1.0769827618e+000	-1.7286767506e+000
 9.5968484921e-001	 1.0869705563e+000	-1.7629506167e+000
 9.4839052271e-001	 1.0968388289e+000	-1.7938980674e+000
 9.3699901813e-001	 1.1065861196e+000	-1.8213042781e+000
 9.2551228080e-001	 1.1162110097e+000	-1.8449661486e+000
 9.1393228327e-001	 1.1257121220e+000	-1.8646925743e+000
 1.0297242501e+000	 1.0297242501e+000	-1.5340802105e+000
 1.0190061835e+000	 1.0403318993e+000	-1.5737137961e+000
 1.0081794320e+000	 1.0508274337e+000	-1.6127537509e+000
 9.9724576299e-001	 1.0612091928e+000	-1.6509685303e+000
 9.8620697733e-001	 1.0714755529e+000	-1.6881351220e+000
 9.7506490856e-001	 1.0816249288e+000	-1.7240394290e+000
 9.6382142184e-001	 1.0916557742e+000	-1.7584766265e+000
 9.5247841289e-001	 1.1015665824e+000	-1.7912514921e+000
 9.4103780700e-001	 1.1113558874e+000	-1.8221787082e+000
 9.2950155788e-001	 1.1210222640e+000	-1.8510831372e+000
 9.1787164657e-001	 1.1305643294e+000	-1.8778000675e+000
 1.0341436675e+000	 1.0341436675e+000	-1.5530085462e+000
 1.0233796006e+000	 1.0447968430e+000	-1.5855259015e+000
 1.0125063824e+000	 1.0553374227e+000	-1.6189285632e+000
 1.0015257877e+000	 1.0657637386e+000	-1.6530214967e+000
 9.9043962531e-001	 1.0760741604e+000	-1.6876168198e+000
 9.7924973650e-001	 1.0862670959e+000	-1.7225341520e+000
 9.6795799446e-001	 1.0963409921e+000	-1.7576009387e+000
 9.5656630308e-001	 1.1062943360e+000	-1.7926527512e+000
 9.4507659588e-001	 1.1161256551e+000	-1.8275335605e+000
 9.3349083495e-001	 1.1258335184e+000	-1.8620959855e+000
 9.2181100986e-001	 1.1354165368e+000	-1.8962015141e+000
 1.0385630849e+000	 1.0385630849e+000	-1.5725282494e+000
 1.0277530177e+000	 1.0492617868e+000	-1.5984688317e+000
 1.0168333327e+000	 1.0598474117e+000	-1.6267583713e+000
 1.0058058125e+000	 1.0703182845e+000	-1.6572380673e+000
 9.9467227328e-001	 1.0806727679e+000	-1.6897549034e+000
 9.8343456443e-001	 1.0909092630e+000	-1.7241619624e+000
 9.7209456709e-001	 1.1010262101e+000	-1.7603187193e+000
 9.6065419326e-001	 1.1110220896e+000	-1.7980913105e+000
 9.4911538475e-001	 1.1208954229e+000	-1.8373527792e+000
 9.3748011202e-001	 1.1306447727e+000	-1.8779832971e+000
 9.2575037315e-001	 1.1402687443e+000	-1.9198703611e+000
 1.0429825023e+000	 1.0429825023e+000	-1.5926721325e+000
 1.0321264348e+000	 1.0537267306e+000	-1.6125687975e+000
 1.0211602831e+000	 1.0643574007e+000	-1.6362629438e+000
 1.0100858372e+000	 1.0748728304e+000	-1.6636317311e+000
 9.9890492125e-001	 1.0852713755e+000	-1.6945567470e+000
 9.8761939237e-001	 1.0955514301e+000	-1.7289242878e+000
 9.7623113972e-001	 1.1057114280e+000	-1.7666256199e+000
 9.6474208345e-001	 1.1157498432e+000	-1.8075572184e+000
 9.5315417362e-001	 1.1256651906e+000	-1.8516209851e+000
 9.4146938910e-001	 1.1354560271e+000	-1.8987244434e+000
 9.2968973644e-001	 1.1451209517e+000	-1.9487809101e+000
 1.0474019197e+000	 1.0474019197e+000	-1.6134728469e+000
 1.0364998519e+000	 1.0581916744e+000	-1.6278519623e+000
 1.0254872334e+000	 1.0688673897e+000	-1.6474621124e+000
 1.0143658619e+000	 1.0794273763e+000	-1.6722161475e+000
 1.0031375692e+000	 1.0898699830e+000	-1.7020300001e+000
 9.9180422030e-001	 1.1001935971e+000	-1.7368229325e+000
 9.8036771234e-001	 1.1103966459e+000	-1.7765177668e+000
 9.6882997363e-001	 1.1204775967e+000	-1.8210410936e+000
 9.5719296249e-001	 1.1304349584e+000	-1.8703234619e+000
 9.4545866617e-001	 1.1402672814e+000	-1.9242995472e+000
 9.3362909974e-001	 1.1499731591e+000	-1.9829083000e+000
 1.0518213370e+000	 1.0518213370e+000	-1.6349628860e+000
 1.0408732690e+000	 1.0626566181e+000	-1.6443444425e+000
 1.0298141838e+000	 1.0733773787e+000	-1.6603757703e+000
 1.0186458867e+000	 1.0839819222e+000	-1.6830051428e+000
 1.0073702172e+000	 1.0944685905e+000	-1.7121825812e+000
 9.9598904823e-001	 1.1048357642e+000	-1.7478600693e+000
 9.8450428497e-001	 1.1150818638e+000	-1.7899917517e+000
 9.7291786382e-001	 1.1252053503e+000	-1.8385341135e+000
 9.6123175136e-001	 1.1352047261e+000	-1.8934461413e+000
 9.4944794324e-001	 1.1450785358e+000	-1.9546894667e+000
 9.3756846303e-001	 1.1548253665e+000	-2.0222284891e+000
 1.0562407544e+000	 1.0562407544e+000	-1.6571745889e+000
 1.0452466861e+000	 1.0671215619e+000	-1.6620723090e+000
 1.0341411341e+000	 1.0778873676e+000	-1.6750238710e+000
 1.0229259114e+000	 1.0885364681e+000	-1.6960127068e+000
 1.0116028652e+000	 1.0990671980e+000	-1.7250226727e+000
 1.0001738762e+000	 1.1094779313e+000	-1.7620382321e+000
 9.8864085759e-001	 1.1197670817e+000	-1.8070446216e+000
 9.7700575400e-001	 1.1299331039e+000	-1.8600280018e+000
 9.6527054023e-001	 1.1399744939e+000	-1.9209755906e+000
 9.5343722032e-001	 1.1498897901e+000	-1.9898757805e+000
 9.4150782632e-001	 1.1596775740e+000	-2.0667182379e+000
 1.0606601718e+000	 1.0606601718e+000	-1.6801401433e+000
 1.0496201031e+000	 1.0715865057e+000	-1.6810615877e+000
 1.0384680845e+000	 1.0823973566e+000	-1.6914264268e+000
 1.0272059361e+000	 1.0930910140e+000	-1.7112529889e+000
 1.0158355131e+000	 1.1036658056e+000	-1.7405587151e+000
 1.0043587041e+000	 1.1141200984e+000	-1.7793603084e+000
 9.9277743021e-001	 1.1244522996e+000	-1.8276738694e+000
 9.8109364418e-001	 1.1346608574e+000	-1.8855150178e+000
 9.6930932910e-001	 1.1447442617e+000	-1.9528989984e+000
 9.5742649739e-001	 1.1547010445e+000	-2.0298407722e+000
 9.4544718961e-001	 1.1645297814e+000	-2.1163550924e+000
 9.0605355669e-001	 1.1160077072e+000	-1.8544700480e+000
 8.9448291193e-001	 1.1253028794e+000	-1.8498019029e+000
 8.8282379857e-001	 1.1344727369e+000	-1.8518764351e+000
 8.7107824642e-001	 1.1435160421e+000	-1.8612140726e+000
 8.5924830776e-001	 1.1524316013e+000	-1.8783336929e+000
 8.4733605617e-001	 1.1612182645e+000	-1.9037520978e+000
 8.3534358533e-001	 1.1698749268e+000	-1.9379834792e+000
 8.2327300787e-001	 1.1784005281e+000	-1.9815388787e+000
 8.1112645412e-001	 1.1867940535e+000	-2.0349256406e+000
 7.9890607094e-001	 1.1950545342e+000	-2.0986468597e+000
 7.8661402048e-001	 1.2031810474e+000	-2.1732008266e+000
 9.0999291998e-001	 1.1208599146e+000	-1.8569064614e+000
 8.9837196807e-001	 1.1301955006e+000	-1.8668881499e+000
 8.8666216292e-001	 1.1394052270e+000	-1.8796955196e+000
 8.7486554315e-001	 1.1484878510e+000	-1.8957610957e+000
 8.6298416998e-001	 1.1574421734e+000	-1.9155201344e+000
 8.5102012598e-001	 1.1662670396e+000	-1.9394101679e+000
 8.3897551397e-001	 1.1749613396e+000	-1.9678705332e+000
 8.2685245574e-001	 1.1835240086e+000	-2.0013418890e+000
 8.1465309088e-001	 1.1919540276e+000	-2.0402657189e+000
 8.0237957560e-001	 1.2002504235e+000	-2.0850838242e+000
 7.9003408144e-001	 1.2084122693e+000	-2.1362378060e+000
 9.1393228327e-001	 1.1257121220e+000	-1.8646925743e+000
 9.0226102422e-001	 1.1350881218e+000	-1.8880007100e+000
 8.9050052726e-001	 1.1443377172e+000	-1.9102496437e+000
 8.7865283988e-001	 1.1534596599e+000	-1.9317845448e+000
 8.6672003219e-001	 1.1624527456e+000	-1.9529575752e+000
 8.5470419580e-001	 1.1713158147e+000	-1.9741275018e+000
 8.4260744261e-001	 1.1800477523e+000	-1.9956592899e+000
 8.3043190360e-001	 1.1886474892e+000	-2.0179236762e+000
 8.1817972764e-001	 1.1971140018e+000	-2.0412967224e+000
 8.0585308026e-001	 1.2054463128e+000	-2.0661593519e+000
 7.9345414240e-001	 1.2136434913e+000	-2.0928968691e+000
 9.1787164657e-001	 1.1305643294e+000	-1.8778000675e+000
 9.0615008036e-001	 1.1399807430e+000	-1.9131281896e+000
 8.9433889161e-001	 1.1492702073e+000	-1.9435438875e+000
 8.8244013661e-001	 1.1584314688e+000	-1.9693055157e+000
 8.7045589440e-001	 1.1674633178e+000	-1.9906826605e+000
 8.5838826561e-001	 1.1763645897e+000	-2.0079558225e+000
 8.4623937124e-001	 1.1851341650e+000	-2.0214160720e+000
 8.3401135146e-001	 1.1937709697e+000	-2.0313646789e+000
 8.2170636441e-001	 1.2022739759e+000	-2.0381127160e+000
 8.0932658492e-001	 1.2106422021e+000	-2.0419806394e+000
 7.9687420337e-001	 1.2188747132e+000	-2.0432978451e+000
 9.2181100986e-001	 1.1354165368e+000	-1.8962015141e+000
 9.1003913650e-001	 1.1448733642e+000	-1.9422597980e+000
 8.9817725595e-001	 1.1542026975e+000	-1.9795836525e+000
 8.8622743333e-001	 1.1634032776e+000	-2.0083451505e+000
 8.7419175661e-001	 1.1724738900e+000	-2.0287318157e+000
 8.6207233542e-001	 1.1814133648e+000	-2.0409463743e+000
 8.4987129988e-001	 1.1902205777e+000	-2.0452064726e+000
 8.3759079933e-001	 1.1988944503e+000	-2.0417443630e+000
 8.2523300117e-001	 1.2074339501e+000	-2.0308065572e+000
 8.1280008958e-001	 1.2158380914e+000	-2.0126534496e+000
 8.0029426433e-001	 1.2241059352e+000	-1.9875589110e+000
 9.2575037315e-001	 1.1402687443e+000	-1.9198703611e+000
 9.1392819264e-001	 1.1497659854e+000	-1.9753853346e+000
 9.0201562030e-001	 1.1591351877e+000	-2.0183746543e+000
 8.9001473006e-001	 1.1683750865e+000	-2.0489246371e+000
 8.7792761882e-001	 1.1774844622e+000	-2.0671412508e+000
 8.6575640524e-001	 1.1864621398e+000	-2.0731499327e+000
 8.5350322851e-001	 1.1953069905e+000	-2.0670953704e+000
 8.4117024719e-001	 1.2040179308e+000	-2.0491412423e+000
 8.2875963793e-001	 1.2125939242e+000	-2.0194699216e+000
 8.1627359424e-001	 1.2210339806e+000	-1.9782821417e+000
 8.0371432529e-001	 1.2293371571e+000	-1.9257966268e+000
 9.2968973644e-001	 1.1451209517e+000	-1.9487809101e+000
 9.1781724878e-001	 1.1546586066e+000	-2.0124951769e+000
 9.0585398464e-001	 1.1640676778e+000	-2.0599229158e+000
 8.9380202679e-001	 1.1733468954e+000	-2.0910652080e+000
 8.8166348103e-001	 1.1824950343e+000	-2.1059469647e+000
 8.6944047505e-001	 1.1915109149e+000	-2.1046168144e+000
 8.5713515715e-001	 1.2003934032e+000	-2.0871469447e+000
 8.4474969506e-001	 1.2091414114e+000	-2.0536328989e+000
 8.3228627469e-001	 1.2177538984e+000	-2.0041933283e+000
 8.1974709890e-001	 1.2262298699e+000	-1.9389697013e+000
 8.0713438625e-001	 1.2345683790e+000	-1.8581259699e+000
 9.3362909974e-001	 1.1499731591e+000	-1.9829083000e+000
 9.2170630492e-001	 1.1595512278e+000	-2.0535802676e+000
 9.0969234899e-001	 1.1690001680e+000	-2.1042347612e+000
 8.9758932351e-001	 1.1783187043e+000	-2.1347881394e+000
 8.8539934324e-001	 1.1875056065e+000	-2.1451847503e+000
 8.7312454486e-001	 1.1965596900e+000	-2.1353968871e+000
 8.6076708578e-001	 1.2054798159e+000	-2.1054246909e+000
 8.4832914292e-001	 1.2142648919e+000	-2.0552960025e+000
 8.3581291145e-001	 1.2229138725e+000	-1.9850661639e+000
 8.2322060356e-001	 1.2314257592e+000	-1.8948177693e+000
 8.1055444721e-001	 1.2397996010e+000	-1.7846603681e+000
 9.3756846303e-001	 1.1548253665e+000	-2.0222284891e+000
 9.2559536106e-001	 1.1644438491e+000	-2.0986321029e+000
 9.1353071333e-001	 1.1739326581e+000	-2.1513168093e+000
 9.0137662024e-001	 1.1832905132e+000	-2.1801147502e+000
 8.8913520545e-001	 1.1925161787e+000	-2.1848901981e+000
 8.7680861467e-001	 1.2016084650e+000	-2.1655395785e+000
 8.6439901442e-001	 1.2105662286e+000	-2.1219914338e+000
 8.5190859078e-001	 1.2193883725e+000	-2.0542063300e+000
 8.3933954821e-001	 1.2280738466e+000	-1.9621767066e+000
 8.2669410822e-001	 1.2366216485e+000	-1.8459266700e+000
 8.1397450817e-001	 1.2450308229e+000	-1.7055117326e+000
 9.4150782632e-001	 1.1596775740e+000	-2.0667182379e+000
 9.2948441720e-001	 1.1693364703e+000	-2.1476427215e+000
 9.1736907767e-001	 1.1788651483e+000	-2.2011759675e+000
 9.0516391696e-001	 1.1882623220e+000	-2.2270664013e+000
 8.9287106766e-001	 1.1975267509e+000	-2.2250987010e+000
 8.8049268449e-001	 1.2066572401e+000	-2.1950938860e+000
 8.6803094305e-001	 1.2156526414e+000	-2.1369093425e+000
 8.5548803865e-001	 1.2245118530e+000	-2.0504387838e+000
 8.4286618497e-001	 1.2332338208e+000	-1.9356121491e+000
 8.3016761288e-001	 1.2418175377e+000	-1.7923954390e+000
 8.1739456913e-001	 1.2502620449e+000	-1.6344582891e+000
 9.4544718961e-001	 1.1645297814e+000	-2.1163550924e+000
 9.3337347334e-001	 1.1742290915e+000	-2.2006046924e+000
 9.2120744202e-001	 1.1837976385e+000	-2.2538194256e+000
 9.0895121369e-001	 1.1932341309e+000	-2.2756644946e+000
 8.9660692987e-001	 1.2025373231e+000	-2.2658454580e+000
 8.8417675430e-001	 1.2117060152e+000	-2.2241083856e+000
 8.7166287169e-001	 1.2207390541e+000	-2.1502399436e+000
 8.5906748651e-001	 1.2296353336e+000	-2.0440674102e+000
 8.4639282172e-001	 1.2383937949e+000	-1.9054586217e+000
 8.3364111753e-001	 1.2470134270e+000	-1.7343218495e+000
 8.2081463009e-001	 1.2554932668e+000	-1.8160632720e+000
 7.8661402048e-001	 1.2031810474e+000	-2.1732008266e+000
 7.7425247897e-001	 1.2111727164e+000	-2.2191994949e+000
 7.6182363550e-001	 1.2190287111e+000	-2.2206384078e+000
 7.4932969078e-001	 1.2267482482e+000	-2.1767694701e+000
 7.3677285592e-001	 1.2343305914e+000	-2.0869012547e+000
 7.2415535120e-001	 1.2417750510e+000	-1.9503991801e+000
 7.1147940486e-001	 1.2490809848e+000	-1.7666856013e+000
 6.9874725185e-001	 1.2562477972e+000	-1.9005601292e+000
 6.8596113260e-001	 1.2632749402e+000	-2.0406760881e+000
 6.7312329189e-001	 1.2701619125e+000	-2.1331715520e+000
 6.6023597752e-001	 1.2769082598e+000	-2.1773540550e+000
 7.9003408144e-001	 1.2084122693e+000	-2.1362378060e+000
 7.7761879410e-001	 1.2164386847e+000	-2.1380414316e+000
 7.6513591218e-001	 1.2243288359e+000	-2.0973197199e+000
 7.5258764596e-001	 1.2320819363e+000	-2.0134208758e+000
 7.3997621617e-001	 1.2396972461e+000	-1.8857472877e+000
 7.2730385274e-001	 1.2471740730e+000	-1.7137556288e+000
 7.1457279358e-001	 1.2545117716e+000	-1.7571609657e+000
 7.0178528338e-001	 1.2617097442e+000	-1.9181588910e+000
 6.8894357232e-001	 1.2687674400e+000	-2.0349728733e+000
 6.7604991490e-001	 1.2756843556e+000	-2.1069370206e+000
 6.6310656873e-001	 1.2824600349e+000	-2.1334298453e+000
 7.9345414240e-001	 1.2136434913e+000	-2.0928968691e+000
 7.8098510923e-001	 1.2217046530e+000	-2.0518679122e+000
 7.6844818886e-001	 1.2296289607e+000	-1.9703254749e+000
 7.5584560114e-001	 1.2374156243e+000	-1.8477135086e+000
 7.4317957641e-001	 1.2450639009e+000	-1.6835276837e+000
 7.3045235427e-001	 1.2525730949e+000	-1.6236111763e+000
 7.1766618231e-001	 1.2599425585e+000	-1.8007647939e+000
 7.0482331491e-001	 1.2671716911e+000	-1.9370408962e+000
 6.9192601203e-001	 1.2742599397e+000	-2.0318062119e+000
 6.7897653791e-001	 1.2812067987e+000	-2.0844683856e+000
 6.6597715993e-001	 1.2880118099e+000	-2.0944764157e+000
 7.9687420337e-001	 1.2188747132e+000	-2.0432978451e+000
 7.8435142436e-001	 1.2269706213e+000	-1.9607807313e+000
 7.7176046554e-001	 1.2349290856e+000	-1.8397396864e+000
 7.5910355632e-001	 1.2427493123e+000	-1.6797138631e+000
 7.4638293666e-001	 1.2504305556e+000	-1.5044128402e+000
 7.3360085580e-001	 1.2579721169e+000	-1.6932402378e+000
 7.2075957102e-001	 1.2653733454e+000	-1.8443588404e+000
 7.0786134644e-001	 1.2726336381e+000	-1.9571739178e+000
 6.9490845173e-001	 1.2797524394e+000	-2.0311282187e+000
 6.8190316092e-001	 1.2867292418e+000	-2.0657024197e+000
 6.6884775114e-001	 1.2935635850e+000	-2.0604155186e+000
 8.0029426433e-001	 1.2241059352e+000	-1.9875589110e+000
 7.8771773949e-001	 1.2322365897e+000	-1.8648803370e+000
 7.7507274222e-001	 1.2402292104e+000	-1.7056453233e+000
 7.6236151150e-001	 1.2480830004e+000	-1.5094876851e+000
 7.4958629691e-001	 1.2557972103e+000	-1.5999893669e+000
 7.3674935733e-001	 1.2633711389e+000	-1.7615759404e+000
 7.2385295974e-001	 1.2708041323e+000	-1.8879269585e+000
 7.1089937798e-001	 1.2780955850e+000	-1.9785261168e+000
 6.9789089144e-001	 1.2852449392e+000	-2.0328916679e+000
 6.8482978393e-001	 1.2922516849e+000	-2.0505768210e+000
 6.7171834235e-001	 1.2991153600e+000	-2.0311700924e+000
 8.0371432529e-001	 1.2293371571e+000	-1.9257966268e+000
 7.9108405462e-001	 1.2375025580e+000	-1.7642658599e+000
 7.7838501890e-001	 1.2455293352e+000	-1.5681243312e+000
 7.6561946668e-001	 1.2534166884e+000	-1.5250658705e+000
 7.5278965715e-001	 1.2611638651e+000	-1.6929989954e+000
 7.3989785886e-001	 1.2687701608e+000	-1.8286179624e+000
 7.2694634846e-001	 1.2762349192e+000	-1.9314531107e+000
 7.1393740951e-001	 1.2835575320e+000	-2.0010660345e+000
 7.0087333115e-001	 1.2907374389e+000	-2.0370499791e+000
 6.8775640693e-001	 1.2977741280e+000	-2.0390301934e+000
 6.7458893356e-001	 1.3046671350e+000	-2.0066642364e+000
 8.0713438625e-001	 1.2345683790e+000	-1.8581259699e+000
 7.9445036975e-001	 1.2427685263e+000	-1.6590351407e+000
 7.8169729558e-001	 1.2508294600e+000	-1.4721651917e+000
 7.6887742186e-001	 1.2587503764e+000	-1.6425842678e+000
 7.5599301740e-001	 1.2665305198e+000	-1.7834569700e+000
 7.4304636038e-001	 1.2741691828e+000	-1.8943658187e+000
 7.3003973718e-001	 1.2816657061e+000	-1.9749213665e+000
 7.1697544104e-001	 1.2890194789e+000	-2.0247625839e+000
 7.0385577086e-001	 1.2962299386e+000	-2.0435572040e+000
 6.9068302994e-001	 1.3032965711e+000	-2.0310020275e+000
 6.7745952476e-001	 1.3102189101e+000	-1.9868231858e+000
 8.1055444721e-001	 1.2397996010e+000	-1.7846603681e+000
 7.9781668488e-001	 1.2480344947e+000	-1.5492847575e+000
 7.8500957225e-001	 1.2561295849e+000	-1.6139297492e+000
 7.7213537704e-001	 1.2640840645e+000	-1.7563033895e+000
 7.5919637764e-001	 1.2718971746e+000	-1.8713781060e+000
 7.4619486191e-001	 1.2795682047e+000	-1.9588188650e+000
 7.3313312590e-001	 1.2870964930e+000	-2.0183159001e+000
 7.2001347257e-001	 1.2944814258e+000	-2.0495850421e+000
 7.0683821056e-001	 1.3017224384e+000	-2.0523680126e+000
 6.9360965295e-001	 1.3088190142e+000	-2.0264326818e+000
 6.8033011597e-001	 1.3157706851e+000	-1.9715732881e+000
 8.1397450817e-001	 1.2450308229e+000	-1.7055117326e+000
 8.0118300000e-001	 1.2533004630e+000	-1.6102678158e+000
 7.8832184893e-001	 1.2614297097e+000	-1.7506583208e+000
 7.7539333222e-001	 1.2694177525e+000	-1.8662530963e+000
 7.6239973788e-001	 1.2772638293e+000	-1.9567767996e+000
 7.4934336344e-001	 1.2849672267e+000	-2.0219763009e+000
 7.3622651461e-001	 1.2925272799e+000	-2.0616209882e+000
 7.2305150410e-001	 1.2999433728e+000	-2.0755030427e+000
 7.0982065027e-001	 1.3072149381e+000	-2.0634376807e+000
 6.9653627596e-001	 1.3143414573e+000	-2.0252633644e+000
 6.8320070717e-001	 1.3213224602e+000	-1.9608419797e+000
 8.1739456913e-001	 1.2502620449e+000	-1.6344582891e+000
 8.0454931513e-001	 1.2585664313e+000	-1.7696572700e+000
 7.9163412561e-001	 1.2667298345e+000	-1.8823955538e+000
 7.7865128740e-001	 1.2747514405e+000	-1.9724625759e+000
 7.6560309813e-001	 1.2826304841e+000	-2.0396670363e+000
 7.5249186496e-001	 1.2903662486e+000	-2.0838371728e+000
 7.3931990333e-001	 1.2979580667e+000	-2.1048210079e+000
 7.2608953562e-001	 1.3054053197e+000	-2.1024865684e+000
 7.1280308997e-001	 1.3127074379e+000	-2.0767220767e+000
 6.9946289896e-001	 1.3198639004e+000	-2.0274361156e+000
 6.8607129838e-001	 1.3268742352e+000	-1.9545577629e+000
 8.2081463009e-001	 1.2554932668e+000	-1.8160632720e+000
 8.0791563026e-001	 1.2638323996e+000	-1.9228446575e+000
 7.9494640228e-001	 1.2720299594e+000	-2.0091851759e+000
 7.8190924257e-001	 1.2800851286e+000	-2.0749603573e+000
 7.6880645837e-001	 1.2879971388e+000	-2.1200623993e+000
 7.5564036649e-001	 1.2957652706e+000	-2.1444003778e+000
 7.4241329204e-001	 1.3033888536e+000	-2.1479004347e+000
 7.2912756715e-001	 1.3108672667e+000	-2.1305059434e+000
 7.1578552968e-001	 1.3181999376e+000	-2.0921776497e+000
 7.0238952197e-001	 1.3253863434e+000	-2.0328937899e+000
 6.8894188958e-001	 1.3324260102e+000	-1.9526501840e+000
 6.6023597752e-001	 1.2769082598e+000	-2.1773540550e+000
 6.4730143922e-001	 1.2835135748e+000	-2.0243228941e+000
 6.3432192740e-001	 1.2899774969e+000	-1.8632986998e+000
 6.2129969199e-001	 1.2962997118e+000	-1.7418310853e+000
 6.0823698129e-001	 1.3024799517e+000	-1.7334588398e+000
 5.9513604077e-001	 1.3085179949e+000	-1.7212532138e+000
 5.8199911200e-001	 1.3144136653e+000	-1.7057708757e+000
 5.6882843146e-001	 1.3201668325e+000	-1.6875703677e+000
 5.5562622946e-001	 1.3257774108e+000	-1.6672119166e+000
 5.4239472907e-001	 1.3312453597e+000	-1.6452572350e+000
 5.2913614500e-001	 1.3365706828e+000	-1.6222693145e+000
 6.6310656873e-001	 1.2824600349e+000	-2.1334298453e+000
 6.5011579330e-001	 1.2890940687e+000	-1.9843587049e+000
 6.3707984882e-001	 1.2955860947e+000	-1.8288811787e+000
 6.2400099500e-001	 1.3019357975e+000	-1.6801302146e+000
 6.1088148990e-001	 1.3081429080e+000	-1.6793584293e+000
 5.9772358878e-001	 1.3142072036e+000	-1.6760849912e+000
 5.8452954292e-001	 1.3201285074e+000	-1.6707855462e+000
 5.7130159855e-001	 1.3259066883e+000	-1.6639373865e+000
 5.5804199568e-001	 1.3315416605e+000	-1.6560193516e+000
 5.4475296702e-001	 1.3370333831e+000	-1.6475117201e+000
 5.3143673694e-001	 1.3423818596e+000	-1.6388960911e+000
 6.6597715993e-001	 1.2880118099e+000	-2.0944764157e+000
 6.5293014739e-001	 1.2946745625e+000	-1.9484283556e+000
 6.3983777024e-001	 1.3011946925e+000	-1.7975499013e+000
 6.2670229801e-001	 1.3075718832e+000	-1.6423450985e+000
 6.1352599851e-001	 1.3138058643e+000	-1.6270060991e+000
 6.0031113678e-001	 1.3198964123e+000	-1.6316950307e+000
 5.8705997384e-001	 1.3258433494e+000	-1.6355994565e+000
 5.7377476565e-001	 1.3316465441e+000	-1.6391158492e+000
 5.6045776189e-001	 1.3373059101e+000	-1.6426420941e+000
 5.4711120498e-001	 1.3428214064e+000	-1.6465774707e+000
 5.3373732887e-001	 1.3481930365e+000	-1.6513226223e+000
 6.6884775114e-001	 1.2935635850e+000	-2.0604155186e+000
 6.5574450147e-001	 1.3002550563e+000	-1.9164661617e+000
 6.4259569167e-001	 1.3068032903e+000	-1.7692518887e+000
 6.2940360102e-001	 1.3132079689e+000	-1.6192005738e+000
 6.1617050713e-001	 1.3194688206e+000	-1.5763667262e+000
 6.0289868478e-001	 1.3255856209e+000	-1.5880615770e+000
 5.8959040476e-001	 1.3315581914e+000	-1.6002043330e+000
 5.7624793274e-001	 1.3373863999e+000	-1.6131110710e+000
 5.6287352811e-001	 1.3430701597e+000	-1.6270991484e+000
 5.4946944293e-001	 1.3486094297e+000	-1.6424872732e+000
 5.3603792080e-001	 1.3540042134e+000	-1.6595955625e+000
 6.7171834235e-001	 1.2991153600e+000	-2.0311700924e+000
 6.5855885555e-001	 1.3058355501e+000	-1.8884074136e+000
 6.4535361309e-001	 1.3124118881e+000	-1.7439349237e+000
 6.3210490402e-001	 1.3188440546e+000	-1.5981047729e+000
 6.1881501574e-001	 1.3251317770e+000	-1.5274055155e+000
 6.0548623278e-001	 1.3312748296e+000	-1.5451629825e+000
 5.9212083569e-001	 1.3372730334e+000	-1.5645917878e+000
 5.7872109983e-001	 1.3431262556e+000	-1.5859280293e+000
 5.6528929432e-001	 1.3488344093e+000	-1.6094089551e+000
 5.5182768088e-001	 1.3543974530e+000	-1.6352731232e+000
 5.3833851274e-001	 1.3598153903e+000	-1.6637605467e+000
 6.7458893356e-001	 1.3046671350e+000	-2.0066642364e+000
 6.6137320964e-001	 1.3114160439e+000	-1.8641883562e+000
 6.4811153451e-001	 1.3180204859e+000	-1.7215475346e+000
 6.3480620703e-001	 1.3244801403e+000	-1.5790186386e+000
 6.2145952435e-001	 1.3307947333e+000	-1.4800879930e+000
 6.0807378079e-001	 1.3369640383e+000	-1.5029777053e+000
 5.9465126661e-001	 1.3429878755e+000	-1.5287533215e+000
 5.8119426692e-001	 1.3488661114e+000	-1.5575713706e+000
 5.6770506054e-001	 1.3545986589e+000	-1.5895894037e+000
 5.5418591883e-001	 1.3601854763e+000	-1.6249662425e+000
 5.4063910467e-001	 1.3656265672e+000	-1.6638622121e+000
 6.7745952476e-001	 1.3102189101e+000	-1.9868231858e+000
 6.6418756372e-001	 1.3169965377e+000	-1.8437461682e+000
 6.5086945593e-001	 1.3236290837e+000	-1.7020389788e+000
 6.3750751004e-001	 1.3301162260e+000	-1.5619036368e+000
 6.2410403297e-001	 1.3364576896e+000	-1.4343799986e+000
 6.1066132879e-001	 1.3426532469e+000	-1.4614843068e+000
 5.9718169753e-001	 1.3487027175e+000	-1.4926803255e+000
 5.8366743401e-001	 1.3546059672e+000	-1.5280454177e+000
 5.7012082675e-001	 1.3603629085e+000	-1.5676578434e+000
 5.5654415678e-001	 1.3659734996e+000	-1.6115970954e+000
 5.4293969660e-001	 1.3714377440e+000	-1.6599442195e+000
 6.8033011597e-001	 1.3157706851e+000	-1.9715732881e+000
 6.6700191780e-001	 1.3225770315e+000	-1.8270189426e+000
 6.5362737736e-001	 1.3292376816e+000	-1.6853592285e+000
 6.4020881304e-001	 1.3357523117e+000	-1.5467217451e+000
 6.2674854158e-001	 1.3421206459e+000	-1.4112284979e+000
 6.1324887679e-001	 1.3483424556e+000	-1.4206614497e+000
 5.9971212844e-001	 1.3544175595e+000	-1.4563640840e+000
 5.8614060110e-001	 1.3603458230e+000	-1.4973541768e+000
 5.7253659296e-001	 1.3661271581e+000	-1.5436310954e+000
 5.5890239473e-001	 1.3717615229e+000	-1.5951954046e+000
 5.4524028854e-001	 1.3772489209e+000	-1.6520492734e+000
 6.8320070717e-001	 1.3213224602e+000	-1.9608419797e+000
 6.6981627188e-001	 1.3281575253e+000	-1.8139456676e+000
 6.5638529878e-001	 1.3348462794e+000	-1.6714589545e+000
 6.4291011605e-001	 1.3413883974e+000	-1.5334354423e+000
 6.2939305019e-001	 1.3477836022e+000	-1.3999225769e+000
 6.1583642479e-001	 1.3540316643e+000	-1.3804878956e+000
 6.0224255936e-001	 1.3601324015e+000	-1.4197957766e+000
 5.8861376819e-001	 1.3660856788e+000	-1.4655013434e+000
 5.7495235917e-001	 1.3718914077e+000	-1.5175254632e+000
 5.6126063268e-001	 1.3775495462e+000	-1.5757901669e+000
 5.4754088047e-001	 1.3830600978e+000	-1.6402191425e+000
 6.8607129838e-001	 1.3268742352e+000	-1.9545577629e+000
 6.7263062596e-001	 1.3337380191e+000	-1.8044662078e+000
 6.5914322020e-001	 1.3404548772e+000	-1.6602895124e+000
 6.4561141906e-001	 1.3470244831e+000	-1.5220076979e+000
 6.3203755880e-001	 1.3534465585e+000	-1.3895940692e+000
 6.1842397279e-001	 1.3597208729e+000	-1.3409425032e+000
 6.0477299028e-001	 1.3658472435e+000	-1.3829664804e+000
 5.9108693528e-001	 1.3718255346e+000	-1.4324903098e+000
 5.7736812539e-001	 1.3776556573e+000	-1.4893567441e+000
 5.6361887063e-001	 1.3833375695e+000	-1.5534096684e+000
 5.4984147240e-001	 1.3888712747e+000	-1.6244946794e+000
 6.8894188958e-001	 1.3324260102e+000	-1.9526501840e+000
 6.7544498005e-001	 1.3393185129e+000	-1.7985212858e+000
 6.6190114162e-001	 1.3460634750e+000	-1.6518029282e+000
 6.4831272206e-001	 1.3526605688e+000	-1.5124019616e+000
 6.3468206741e-001	 1.3591095148e+000	-1.3802179632e+000
 6.2101152079e-001	 1.3654100816e+000	-1.3020042262e+000
 6.0730342120e-001	 1.3715620856e+000	-1.3458671721e+000
 5.9356010237e-001	 1.3775653904e+000	-1.3983241705e+000
 5.7978389160e-001	 1.3834199070e+000	-1.4591402393e+000
 5.6597710858e-001	 1.3891255928e+000	-1.5280814994e+000
 5.5214206433e-001	 1.3946824516e+000	-1.6049158390e+000
 5.2913614500e-001	 1.3365706828e+000	-1.6222693145e+000
 5.1585268258e-001	 1.3417534274e+000	-1.5821432362e+000
 5.0254653674e-001	 1.3467936844e+000	-1.5464318263e+000
 4.8921989093e-001	 1.3516915877e+000	-1.5145327448e+000
 4.7587491620e-001	 1.3564473134e+000	-1.4858557952e+000
 4.6251377021e-001	 1.3610610796e+000	-1.4598236826e+000
 4.4913859626e-001	 1.3655331454e+000	-1.4358727302e+000
 4.3575152239e-001	 1.3698638110e+000	-1.4134535547e+000
 4.2235466046e-001	 1.3740534163e+000	-1.3920316995e+000
 4.0895010529e-001	 1.3781023407e+000	-1.3710882254e+000
 3.9553993384e-001	 1.3820110024e+000	-1.3501202586e+000
 5.3143673694e-001	 1.3423818596e+000	-1.6388960911e+000
 5.1809552034e-001	 1.3475871379e+000	-1.5970370645e+000
 5.0473152168e-001	 1.3526493091e+000	-1.5586082177e+000
 4.9134693393e-001	 1.3575685076e+000	-1.5230601108e+000
 4.7794393758e-001	 1.3623449104e+000	-1.4898556678e+000
 4.6452469965e-001	 1.3669787364e+000	-1.4584708812e+000
 4.5109137277e-001	 1.3714702461e+000	-1.4283954780e+000
 4.3764609423e-001	 1.3758197406e+000	-1.3991335435e+000
 4.2419098507e-001	 1.3800275616e+000	-1.3702041045e+000
 4.1072814923e-001	 1.3840940900e+000	-1.3411416696e+000
 3.9725967268e-001	 1.3880197459e+000	-1.3114967288e+000
 5.3373732887e-001	 1.3481930365e+000	-1.6513226223e+000
 5.2033835809e-001	 1.3534208485e+000	-1.6085300306e+000
 5.0691650662e-001	 1.3585049338e+000	-1.5681884188e+000
 4.9347397694e-001	 1.3634454276e+000	-1.5298007944e+000
 4.8001295896e-001	 1.3682425074e+000	-1.4928827509e+000
 4.6653562909e-001	 1.3728963933e+000	-1.4569631212e+000
 4.5304414928e-001	 1.3774073467e+000	-1.4215845913e+000
 4.3954066607e-001	 1.3817756702e+000	-1.3863042746e+000
 4.2602730968e-001	 1.3860017068e+000	-1.3506942440e+000
 4.1250619317e-001	 1.3900858393e+000	-1.3143420239e+000
 3.9897941153e-001	 1.3940284894e+000	-1.2768510399e+000
 5.3603792080e-001	 1.3540042134e+000	-1.6595955625e+000
 5.2258119584e-001	 1.3592545590e+000	-1.6166593293e+000
 5.0910149157e-001	 1.3643605586e+000	-1.5752000838e+000
 4.9560101994e-001	 1.3693223475e+000	-1.5347728326e+000
 4.8208198033e-001	 1.3741401045e+000	-1.4949453928e+000
 4.6854655853e-001	 1.3788140502e+000	-1.4552989942e+000
 4.5499692579e-001	 1.3833444473e+000	-1.4154288423e+000
 4.4143523790e-001	 1.3877315998e+000	-1.3749446422e+000
 4.2786363429e-001	 1.3919758521e+000	-1.3334710808e+000
 4.1428423711e-001	 1.3960775886e+000	-1.2906482697e+000
 4.0069915037e-001	 1.4000372329e+000	-1.2461321474e+000
 5.3833851274e-001	 1.3598153903e+000	-1.6637605467e+000
 5.2482403359e-001	 1.3650882696e+000	-1.6214613060e+000
 5.1128647651e-001	 1.3702161833e+000	-1.5796701888e+000
 4.9772806295e-001	 1.3751992675e+000	-1.5379937569e+000
 4.8415100171e-001	 1.3800377015e+000	-1.4960516094e+000
 4.7055748796e-001	 1.3847317070e+000	-1.4534769344e+000
 4.5694970229e-001	 1.3892815480e+000	-1.4099170217e+000
 4.4332980974e-001	 1.3936875295e+000	-1.3650337358e+000
 4.2969995891e-001	 1.3979499974e+000	-1.3185039498e+000
 4.1606228104e-001	 1.4020693379e+000	-1.2700199393e+000
 4.0241888921e-001	 1.4060459764e+000	-1.2192897360e+000
 5.4063910467e-001	 1.3656265672e+000	-1.6638622121e+000
 5.2706687134e-001	 1.3709219801e+000	-1.6229714746e+000
 5.1347146145e-001	 1.3760718080e+000	-1.5816250460e+000
 4.9985510595e-001	 1.3810761874e+000	-1.5394806037e+000
 4.8622002308e-001	 1.3859352985e+000	-1.4962090918e+000
 4.7256841740e-001	 1.3906493639e+000	-1.4514952223e+000
 4.5890247880e-001	 1.3952186486e+000	-1.4050379380e+000
 4.4522438158e-001	 1.3996434591e+000	-1.3565508355e+000
 4.3153628352e-001	 1.4039241427e+000	-1.3057625507e+000
 4.1784032498e-001	 1.4080610872e+000	-1.2524171035e+000
 4.0413862806e-001	 1.4120547198e+000	-1.1962742044e+000
 5.4293969660e-001	 1.3714377440e+000	-1.6599442195e+000
 5.2930970909e-001	 1.3767556907e+000	-1.6212245352e+000
 5.1565644639e-001	 1.3819274327e+000	-1.5810903179e+000
 5.0198214895e-001	 1.3869531074e+000	-1.5392499251e+000
 4.8828904445e-001	 1.3918328955e+000	-1.4954252129e+000
 4.7457934683e-001	 1.3965670208e+000	-1.4493519875e+000
 4.6085525530e-001	 1.4011557492e+000	-1.4007804174e+000
 4.4711895341e-001	 1.4055993887e+000	-1.3494754086e+000
 4.3337260813e-001	 1.4098982880e+000	-1.2952169398e+000
 4.1961836892e-001	 1.4140528365e+000	-1.2378003607e+000
 4.0585836690e-001	 1.4180634633e+000	-1.1770366500e+000
 5.4524028854e-001	 1.3772489209e+000	-1.6520492734e+000
 5.3155254683e-001	 1.3825894012e+000	-1.6162543913e+000
 5.1784143133e-001	 1.3877830574e+000	-1.5780910311e+000
 5.0410919195e-001	 1.3928300273e+000	-1.5373177990e+000
 4.9035806583e-001	 1.3977304925e+000	-1.4937070346e+000
 4.7659027627e-001	 1.4024846776e+000	-1.4470452121e+000
 4.6280803181e-001	 1.4070928499e+000	-1.3971333036e+000
 4.4901352525e-001	 1.4115553183e+000	-1.3437871048e+000
 4.3520893274e-001	 1.4158724333e+000	-1.2868375228e+000
 4.2139641285e-001	 1.4200445858e+000	-1.2261308255e+000
 4.0757810574e-001	 1.4240722068e+000	-1.1615288540e+000
 5.4754088047e-001	 1.3830600978e+000	-1.6402191425e+000
 5.3379538458e-001	 1.3884231118e+000	-1.6080941667e+000
 5.2002641627e-001	 1.3936386821e+000	-1.5726515895e+000
 5.0623623495e-001	 1.3987069473e+000	-1.5336998390e+000
 4.9242708720e-001	 1.4036280895e+000	-1.4910613136e+000
 4.7860120570e-001	 1.4084023345e+000	-1.4445727340e+000
 4.6476080831e-001	 1.4130299505e+000	-1.3940854570e+000
 4.5090809708e-001	 1.4175112479e+000	-1.3394657533e+000
 4.3704525735e-001	 1.4218465786e+000	-1.2805950471e+000
 4.2317445679e-001	 1.4260363351e+000	-1.2173701182e+000
 4.0929784458e-001	 1.4300809503e+000	-1.1497032672e+000
 5.4984147240e-001	 1.3888712747e+000	-1.6244946794e+000
 5.3603822233e-001	 1.3942568223e+000	-1.5967762214e+000
 5.2221140121e-001	 1.3994943068e+000	-1.5647957874e+000
 5.0836327795e-001	 1.4045838672e+000	-1.5284112042e+000
 4.9449610857e-001	 1.4095256865e+000	-1.4874945085e+000
 4.8061213513e-001	 1.4143199914e+000	-1.4419322495e+000
 4.6671358481e-001	 1.4189670511e+000	-1.3916257545e+000
 4.5280266892e-001	 1.4234671775e+000	-1.3364913583e+000
 4.3888158195e-001	 1.4278207239e+000	-1.2764605951e+000
 4.2495250072e-001	 1.4320280844e+000	-1.2114803536e+000
 4.1101758342e-001	 1.4360896938e+000	-1.1415129962e+000
 5.5214206433e-001	 1.3946824516e+000	-1.6049158390e+000
 5.3828106007e-001	 1.4000905329e+000	-1.5823321679e+000
 5.2439638615e-001	 1.4053499315e+000	-1.5545468222e+000
 5.1049032095e-001	 1.4104607872e+000	-1.5214666086e+000
 4.9656512994e-001	 1.4154232836e+000	-1.4830127854e+000
 4.8262306456e-001	 1.4202376482e+000	-1.4391213165e+000
 4.6866636131e-001	 1.4249041518e+000	-1.3897430894e+000
 4.5469724075e-001	 1.4294231071e+000	-1.3348440958e+000
 4.4071790656e-001	 1.4337948691e+000	-1.2744055769e+000
 4.2673054465e-001	 1.4380198337e+000	-1.2084241315e+000
 4.1273732227e-001	 1.4420984373e+000	-1.1369117892e+000
 3.9553993384e-001	 1.3820110024e+000	-1.3501202586e+000
 3.8212620431e-001	 1.3857798577e+000	-1.3532385792e+000
 3.6871095541e-001	 1.3894094002e+000	-1.3516276706e+000
 3.5529620558e-001	 1.3929001602e+000	-1.3454122175e+000
 3.4188395221e-001	 1.3962527039e+000	-1.3347289451e+000
 3.2847617096e-001	 1.3994676328e+000	-1.3197264829e+000
 3.1507481505e-001	 1.4025455825e+000	-1.3005652030e+000
 3.0168181461e-001	 1.4054872226e+000	-1.2774170331e+000
 2.8829907604e-001	 1.4082932553e+000	-1.2504652464e+000
 2.7492848140e-001	 1.4109644149e+000	-1.2199042278e+000
 2.6157188785e-001	 1.4135014671e+000	-1.1859392188e+000
 3.9725967268e-001	 1.3880197459e+000	-1.3114967288e+000
 3.8378762259e-001	 1.3918049875e+000	-1.3138982839e+000
 3.7031404652e-001	 1.3954503106e+000	-1.3120091646e+000
 3.5684097169e-001	 1.3989562479e+000	-1.3059287410e+000
 3.4337040418e-001	 1.4023233679e+000	-1.2957685974e+000
 3.2990432823e-001	 1.4055522746e+000	-1.2816524208e+000
 3.1644470555e-001	 1.4086436068e+000	-1.2637158623e+000
 3.0299347468e-001	 1.4115980366e+000	-1.2421063730e+000
 2.8955255029e-001	 1.4144162694e+000	-1.2169830154e+000
 2.7612382263e-001	 1.4170990428e+000	-1.1885162506e+000
 2.6270915693e-001	 1.4196471257e+000	-1.1568877024e+000
 3.9897941153e-001	 1.3940284894e+000	-1.2768510399e+000
 3.8544904087e-001	 1.3978301173e+000	-1.2782603084e+000
 3.7191713764e-001	 1.4014912211e+000	-1.2758131441e+000
 3.5838573781e-001	 1.4050123355e+000	-1.2695837082e+000
 3.4485685615e-001	 1.4083940318e+000	-1.2596585523e+000
 3.3133248549e-001	 1.4116369165e+000	-1.2461365311e+000
 3.1781459606e-001	 1.4147416310e+000	-1.2291286873e+000
 3.0430513474e-001	 1.4177088506e+000	-1.2087581103e+000
 2.9080602453e-001	 1.4205392836e+000	-1.1851597686e+000
 2.7731916386e-001	 1.4232336707e+000	-1.1584803181e+000
 2.6384642601e-001	 1.4257927842e+000	-1.1288778855e+000
 4.0069915037e-001	 1.4000372329e+000	-1.2461321474e+000
 3.8711045915e-001	 1.4038552471e+000	-1.2462778047e+000
 3.7352022875e-001	 1.4075321315e+000	-1.2429969893e+000
 3.5993050392e-001	 1.4110684232e+000	-1.2363387563e+000
 3.4634330811e-001	 1.4144646957e+000	-1.2263647307e+000
 3.3276064276e-001	 1.4177215584e+000	-1.2131490429e+000
 3.1918448656e-001	 1.4208396553e+000	-1.1967782378e+000
 3.0561679481e-001	 1.4238196646e+000	-1.1773511554e+000
 2.9205949878e-001	 1.4266622977e+000	-1.1549787851e+000
 2.7851450508e-001	 1.4293682986e+000	-1.1297840940e+000
 2.6498369509e-001	 1.4319384428e+000	-1.1019018301e+000
 4.0241888921e-001	 1.4060459764e+000	-1.2192897360e+000
 3.8877187743e-001	 1.4098803770e+000	-1.2179045902e+000
 3.7512331986e-001	 1.4135730420e+000	-1.2135186801e+000
 3.6147527003e-001	 1.4171245108e+000	-1.2061560566e+000
 3.4782976008e-001	 1.4205353597e+000	-1.1958535212e+000
 3.3418880003e-001	 1.4238062003e+000	-1.1826605862e+000
 3.2055437706e-001	 1.4269376796e+000	-1.1666394068e+000
 3.0692845488e-001	 1.4299304786e+000	-1.1478646841e+000
 2.9331297303e-001	 1.4327853119e+000	-1.1264235409e+000
 2.7970984631e-001	 1.4355029265e+000	-1.1024153697e+000
 2.6612096417e-001	 1.4380841013e+000	-1.0759516562e+000
 4.0413862806e-001	 1.4120547198e+000	-1.1962742044e+000
 3.9043329571e-001	 1.4159055068e+000	-1.1930951324e+000
 3.7672641097e-001	 1.4196139524e+000	-1.1873367834e+000
 3.6302003614e-001	 1.4231805985e+000	-1.1789983028e+000
 3.4931621205e-001	 1.4266060236e+000	-1.1680917699e+000
 3.3561695729e-001	 1.4298908422e+000	-1.1546421828e+000
 3.2192426756e-001	 1.4330357039e+000	-1.1386874131e+000
 3.0824011494e-001	 1.4360412926e+000	-1.1202781315e+000
 2.9456644727e-001	 1.4389083260e+000	-1.0994777040e+000
 2.8090518754e-001	 1.4416375544e+000	-1.0763620615e+000
 2.6725823325e-001	 1.4442297599e+000	-1.0510195414e+000
 4.0585836690e-001	 1.4180634633e+000	-1.1770366500e+000
 3.9209471399e-001	 1.4219306366e+000	-1.1718045363e+000
 3.7832950208e-001	 1.4256548628e+000	-1.1644104408e+000
 3.6456480225e-001	 1.4292366861e+000	-1.1548287001e+000
 3.5080266402e-001	 1.4326766875e+000	-1.1430467709e+000
 3.3704511456e-001	 1.4359754841e+000	-1.1290652385e+000
 3.2329415806e-001	 1.4391337281e+000	-1.1128977950e+000
 3.0955177501e-001	 1.4421521066e+000	-1.0945711866e+000
 2.9581992152e-001	 1.4450313402e+000	-1.0741251312e+000
 2.8210052876e-001	 1.4477721823e+000	-1.0516122081e+000
 2.6839550233e-001	 1.4503754184e+000	-1.0270977188e+000
 4.0757810574e-001	 1.4240722068e+000	-1.1615288540e+000
 3.9375613227e-001	 1.4279557664e+000	-1.1539885299e+000
 3.7993259319e-001	 1.4316957733e+000	-1.1446993560e+000
 3.6610956837e-001	 1.4352927738e+000	-1.1336109546e+000
 3.5228911598e-001	 1.4387473515e+000	-1.1206862566e+000
 3.3847327183e-001	 1.4420601259e+000	-1.1059015346e+000
 3.2466404856e-001	 1.4452317524e+000	-1.0892464028e+000
 3.1086343507e-001	 1.4482629206e+000	-1.0707237870e+000
 2.9707339576e-001	 1.4511543543e+000	-1.0503498636e+000
 2.8329586999e-001	 1.4539068102e+000	-1.0281539681e+000
 2.6953277141e-001	 1.4565210770e+000	-1.0041784767e+000
 4.0929784458e-001	 1.4300809503e+000	-1.1497032672e+000
 3.9541755055e-001	 1.4339808962e+000	-1.1396034521e+000
 3.8153568430e-001	 1.4377366837e+000	-1.1281637835e+000
 3.6765433448e-001	 1.4413488614e+000	-1.1153092623e+000
 3.5377556795e-001	 1.4448180154e+000	-1.1009783889e+000
 3.3990142909e-001	 1.4481447678e+000	-1.0851232202e+000
 3.2603393907e-001	 1.4513297767e+000	-1.0677093927e+000
 3.1217509514e-001	 1.4543737347e+000	-1.0487161140e+000
 2.9832687001e-001	 1.4572773685e+000	-1.0281361226e+000
 2.8449121121e-001	 1.4600414380e+000	-1.0059756174e+000
 2.7067004049e-001	 1.4626667355e+000	-9.8225415678e-001
 4.1101758342e-001	 1.4360896938e+000	-1.1415129962e+000
 3.9707896883e-001	 1.4400060260e+000	-1.1286062389e+000
 3.8313877541e-001	 1.4437775941e+000	-1.1147645168e+000
 3.6919910059e-001	 1.4474049491e+000	-1.0998882994e+000
 3.5526201992e-001	 1.4508886793e+000	-1.0838917498e+000
 3.4132958636e-001	 1.4542294097e+000	-1.0667028046e+000
 3.2740382957e-001	 1.4574278009e+000	-1.0482632205e+000
 3.1348675520e-001	 1.4604845487e+000	-1.0285285867e+000
 2.9958034425e-001	 1.4634003826e+000	-1.0074683066e+000
 2.8568655243e-001	 1.4661760659e+000	-9.8506554631e-001
 2.7180730957e-001	 1.4688123941e+000	-9.6131715323e-001
 4.1273732227e-001	 1.4420984373e+000	-1.1369117892e+000
 3.9874038711e-001	 1.4460311559e+000	-1.1209544119e+000
 3.8474186652e-001	 1.4498185046e+000	-1.1044628772e+000
 3.7074386670e-001	 1.4534610367e+000	-1.0873132119e+000
 3.5674847188e-001	 1.4569593432e+000	-1.0693953328e+000
 3.4275774362e-001	 1.4603140516e+000	-1.0506131497e+000
 3.2877372007e-001	 1.4635258252e+000	-1.0308846349e+000
 3.1479841526e-001	 1.4665953627e+000	-1.0101418579e+000
 3.0083381850e-001	 1.4695233968e+000	-9.8833098702e-001
 2.8688189366e-001	 1.4723106938e+000	-9.6541225803e-001
 2.7294457865e-001	 1.4749580526e+000	-9.4135991170e-001
 2.6157188785e-001	 1.4135014671e+000	-1.1859392188e+000
 2.4823112706e-001	 1.4159052078e+000	-1.1797106217e+000
 2.3490800475e-001	 1.4181764627e+000	-1.1710674806e+000
 2.2160430013e-001	 1.4203160860e+000	-1.1600595742e+000
 2.0832176547e-001	 1.4223249601e+000	-1.1467492631e+000
 1.9506212568e-001	 1.4242039942e+000	-1.1312112547e+000
 1.8182707784e-001	 1.4259541240e+000	-1.1135323459e+000
 1.6861829088e-001	 1.4275763104e+000	-1.0938111459e+000
 1.5543740518e-001	 1.4290715388e+000	-1.0721577785e+000
 1.4228603225e-001	 1.4304408184e+000	-1.0486935658e+000
 1.2916575446e-001	 1.4316851811e+000	-1.0235506951e+000
 2.6270915693e-001	 1.4196471257e+000	-1.1568877024e+000
 2.4931039284e-001	 1.4220613174e+000	-1.1503617184e+000
 2.3592934390e-001	 1.4243424473e+000	-1.1413725091e+000
 2.2256779709e-001	 1.4264913733e+000	-1.1299730355e+000
 2.0922751229e-001	 1.4285089816e+000	-1.1162289594e+000
 1.9591022188e-001	 1.4303961855e+000	-1.1002184031e+000
 1.8261763036e-001	 1.4321539245e+000	-1.0820316890e+000
 1.6935141389e-001	 1.4337831639e+000	-1.0617710563e+000
 1.5611321999e-001	 1.4352848933e+000	-1.0395503586e+000
 1.4290466718e-001	 1.4366601263e+000	-1.0154947431e+000
 1.2972734470e-001	 1.4379098993e+000	-9.8974031169e-001
 2.6384642601e-001	 1.4257927842e+000	-1.1288778855e+000
 2.5038965861e-001	 1.4282174270e+000	-1.1221292350e+000
 2.3695068306e-001	 1.4305084319e+000	-1.1128666117e+000
 2.2353129405e-001	 1.4326666607e+000	-1.1011461150e+000
 2.1013325910e-001	 1.4346930032e+000	-1.0870366669e+000
 1.9675831809e-001	 1.4365883768e+000	-1.0706197677e+000
 1.8340818288e-001	 1.4383537251e+000	-1.0519892302e+000
 1.7008453690e-001	 1.4399900174e+000	-1.0312508924e+000
 1.5678903480e-001	 1.4414982479e+000	-1.0085223099e+000
 1.4352330211e-001	 1.4428794342e+000	-9.8393242960e-001
 1.3028893494e-001	 1.4441346175e+000	-9.5762124583e-001
 2.6498369509e-001	 1.4319384428e+000	-1.1019018301e+000
 2.5146892439e-001	 1.4343735366e+000	-1.0950046430e+000
 2.3797202222e-001	 1.4366744166e+000	-1.0855406648e+000
 2.2449479101e-001	 1.4388419480e+000	-1.0735690897e+000
 2.1103900591e-001	 1.4408770248e+000	-1.0591620592e+000
 1.9760641429e-001	 1.4427805681e+000	-1.0424044140e+000
 1.8419873540e-001	 1.4445535256e+000	-1.0233934233e+000
 1.7081765991e-001	 1.4461968710e+000	-1.0022384928e+000
 1.5746484961e-001	 1.4477116024e+000	-9.7906085185e-001
 1.4414193703e-001	 1.4490987421e+000	-9.5399322222e-001
 1.3085052518e-001	 1.4503593357e+000	-9.2717946888e-001
 2.6612096417e-001	 1.4380841013e+000	-1.0759516562e+000
 2.5254819016e-001	 1.4405296462e+000	-1.0689794877e+000
 2.3899336137e-001	 1.4428404012e+000	-1.0593856346e+000
 2.2545828797e-001	 1.4450172353e+000	-1.0472323419e+000
 2.1194475272e-001	 1.4470610463e+000	-1.0325949303e+000
 1.9845451049e-001	 1.4489727593e+000	-1.0155615438e+000
 1.8498928791e-001	 1.4507533262e+000	-9.9623287380e-001
 1.7155078291e-001	 1.4524037245e+000	-9.7472186252e-001
 1.5814066441e-001	 1.4539249569e+000	-9.5115338538e-001
 1.4476057196e-001	 1.4553180500e+000	-9.2566391432e-001
 1.3141211542e-001	 1.4565840538e+000	-8.9840116317e-001
 2.6725823325e-001	 1.4442297599e+000	-1.0510195414e+000
 2.5362745593e-001	 1.4466857558e+000	-1.0440453875e+000
 2.4001470052e-001	 1.4490063858e+000	-1.0343925753e+000
 2.2642178493e-001	 1.4511925227e+000	-1.0221263572e+000
 2.1285049953e-001	 1.4532450679e+000	-1.0073251930e+000
 1.9930260670e-001	 1.4551649506e+000	-9.9008049239e-001
 1.8577984043e-001	 1.4569531267e+000	-9.7049633520e-001
 1.7228390592e-001	 1.4586105780e+000	-9.4868916954e-001
 1.5881647922e-001	 1.4601383114e+000	-9.2478748911e-001
 1.4537920688e-001	 1.4615373580e+000	-8.9893149139e-001
 1.3197370566e-001	 1.4628087720e+000	-8.7127271754e-001
 2.6839550233e-001	 1.4503754184e+000	-1.0270977188e+000
 2.5470672170e-001	 1.4528418654e+000	-1.0201940315e+000
 2.4103603968e-001	 1.4551723704e+000	-1.0105526272e+000
 2.2738528189e-001	 1.4573678100e+000	-9.9824172244e-001
 2.1375624634e-001	 1.4594290895e+000	-9.8334287560e-001
 2.0015070290e-001	 1.4613571419e+000	-9.6595072542e-001
 1.8657039294e-001	 1.4631529272e+000	-9.4617270629e-001
 1.7301702893e-001	 1.4648174315e+000	-9.2412874150e-001
 1.5949229403e-001	 1.4663516659e+000	-8.9995091554e-001
 1.4599784181e-001	 1.4677566659e+000	-8.7378312697e-001
 1.3253529590e-001	 1.4690334902e+000	-8.4578072297e-001
 2.6953277141e-001	 1.4565210770e+000	-1.0041784767e+000
 2.5578598747e-001	 1.4589979750e+000	-9.9741717850e-001
 2.4205737883e-001	 1.4613383550e+000	-9.8785701484e-001
 2.2834877885e-001	 1.4635430973e+000	-9.7556912295e-001
 2.1466199314e-001	 1.4656131110e+000	-9.6063811984e-001
 2.0099879910e-001	 1.4675493332e+000	-9.4316183637e-001
 1.8736094545e-001	 1.4693527278e+000	-9.2325102782e-001
 1.7375015193e-001	 1.4710242850e+000	-9.0102906218e-001
 1.6016810883e-001	 1.4725650204e+000	-8.7663158735e-001
 1.4661647673e-001	 1.4739759738e+000	-8.5020617874e-001
 1.3309688614e-001	 1.4752582084e+000	-8.2191196829e-001
 2.7067004049e-001	 1.4626667355e+000	-9.8225415678e-001
 2.5686525325e-001	 1.4651540846e+000	-9.7570665552e-001
 2.4307871798e-001	 1.4675043397e+000	-9.6629704537e-001
 2.2931227581e-001	 1.4697183847e+000	-9.5409934113e-001
 2.1556773995e-001	 1.4717971326e+000	-9.3920117852e-001
 2.0184689530e-001	 1.4737415244e+000	-9.2170354380e-001
 1.8815149797e-001	 1.4755525283e+000	-9.0172047961e-001
 1.7448327494e-001	 1.4772311386e+000	-8.7937876827e-001
 1.6084392364e-001	 1.4787783749e+000	-8.5481759389e-001
 1.4723511165e-001	 1.4801952817e+000	-8.2818818460e-001
 1.3365847637e-001	 1.4814829266e+000	-7.9965343607e-001
 2.7180730957e-001	 1.4688123941e+000	-9.6131715323e-001
 2.5794451902e-001	 1.4713101942e+000	-9.5505435611e-001
 2.4410005713e-001	 1.4736703243e+000	-9.4586410662e-001
 2.3027577277e-001	 1.4758936720e+000	-9.3382325406e-001
 2.1647348676e-001	 1.4779811542e+000	-9.1902241307e-001
 2.0269499149e-001	 1.4799337157e+000	-9.0156568873e-001
 1.8894205048e-001	 1.4817523289e+000	-8.8157037762e-001
 1.7521639794e-001	 1.4834379921e+000	-8.5916664617e-001
 1.6151973844e-001	 1.4849917295e+000	-8.3449718765e-001
 1.4785374658e-001	 1.4864145896e+000	-8.0771685893e-001
 1.3422006661e-001	 1.4877076447e+000	-7.7899229854e-001
 2.7294457865e-001	 1.4749580526e+000	-9.4135991170e-001
 2.5902378478e-001	 1.4774663038e+000	-9.3545223919e-001
 2.4512139628e-001	 1.4798363089e+000	-9.2654966555e-001
 2.3123926972e-001	 1.4820689593e+000	-9.1473183165e-001
 2.1737923356e-001	 1.4841651757e+000	-9.0009229137e-001
 2.0354308769e-001	 1.4861259070e+000	-8.8273823210e-001
 1.8973260299e-001	 1.4879521294e+000	-8.6279017110e-001
 1.7594952094e-001	 1.4896448456e+000	-8.4038162886e-001
 1.6219555325e-001	 1.4912050840e+000	-8.1565878085e-001
 1.4847238150e-001	 1.4926338975e+000	-7.8878008888e-001
 1.3478165685e-001	 1.4939323629e+000	-7.5991591363e-001
 1.2916575446e-001	 1.4316851811e+000	-1.0235506951e+000
 1.1607812473e-001	 1.4328056808e+000	-1.0326473736e+000
 1.0302466627e-001	 1.4338033924e+000	-1.0380093625e+000
 9.0006872399e-002	 1.4346794112e+000	-1.0398612770e+000
 7.7026206319e-002	 1.4354348517e+000	-1.0384376928e+000
 6.4084100943e-002	 1.4360708471e+000	-1.0339826717e+000
 5.1181958753e-002	 1.4365885483e+000	-1.0267492789e+000
 3.8321151673e-002	 1.4369891229e+000	-1.0169990920e+000
 2.5503020966e-002	 1.4372737547e+000	-1.0050017044e+000
 1.2728877163e-002	 1.4374436426e+000	-9.9103422327e-001
 0.0000000000e+000	 1.4375000000e+000	-9.7538076334e-001
 1.2972734470e-001	 1.4379098993e+000	-9.8974031169e-001
 1.1658281223e-001	 1.4390352707e+000	-9.9891089804e-001
 1.0347259960e-001	 1.4400373202e+000	-1.0043915848e+000
 9.0398206628e-002	 1.4409171478e+000	-1.0064037979e+000
 7.7361102869e-002	 1.4416758728e+000	-1.0051790980e+000
 6.4362727470e-002	 1.4423146334e+000	-1.0009587044e+000
 5.1404489009e-002	 1.4428345855e+000	-9.9399301078e-001
 3.8487765376e-002	 1.4432369017e+000	-9.8454109198e-001
 2.5613903666e-002	 1.4435227710e+000	-9.7287020523e-001
 1.2784220107e-002	 1.4436933976e+000	-9.5925528537e-001
 0.0000000000e+000	 1.4437500000e+000	-9.4397843619e-001
 1.3028893494e-001	 1.4441346175e+000	-9.5762124583e-001
 1.1708749973e-001	 1.4452648606e+000	-9.6679935221e-001
 1.0392053294e-001	 1.4462712480e+000	-9.7232985277e-001
 9.0789540857e-002	 1.4471548843e+000	-9.7443101866e-001
 7.7695999419e-002	 1.4479168939e+000	-9.7333143183e-001
 6.4641353996e-002	 1.4485584197e+000	-9.6926950780e-001
 5.1627019265e-002	 1.4490806226e+000	-9.6249300906e-001
 3.8654379079e-002	 1.4494846805e+000	-9.5325855032e-001
 2.5724786366e-002	 1.4497717873e+000	-9.4183109690e-001
 1.2839563051e-002	 1.4499431525e+000	-9.2848345755e-001
 0.0000000000e+000	 1.4500000000e+000	-9.1349577283e-001
 1.3085052518e-001	 1.4503593357e+000	-9.2717946888e-001
 1.1759218723e-001	 1.4514944506e+000	-9.3629960894e-001
 1.0436846627e-001	 1.4525051758e+000	-9.4181193967e-001
 9.1180875086e-002	 1.4533926209e+000	-9.4393161126e-001
 7.8030895969e-002	 1.4541579150e+000	-9.4288426310e-001
 6.4919980523e-002	 1.4548022060e+000	-9.3890554501e-001
 5.1849549521e-002	 1.4553266598e+000	-9.3224062861e-001
 3.8820992782e-002	 1.4557324593e+000	-9.2314371050e-001
 2.5835669066e-002	 1.4560208037e+000	-9.1187750812e-001
 1.2894905995e-002	 1.4561929075e+000	-8.9871274987e-001
 0.0000000000e+000	 1.4562500000e+000	-8.8392766060e-001
 1.3141211542e-001	 1.4565840538e+000	-8.9840116317e-001
 1.1809687473e-001	 1.4577240405e+000	-9.0739874042e-001
 1.0481639960e-001	 1.4587391036e+000	-9.1282580621e-001
 9.1572209315e-002	 1.4596303575e+000	-9.1489442322e-001
 7.8365792519e-002	 1.4603989361e+000	-9.1382732400e-001
 6.5198607049e-002	 1.4610459923e+000	-9.0985743039e-001
 5.2072079777e-002	 1.4615726970e+000	-9.0322736301e-001
 3.8987606485e-002	 1.4619802381e+000	-8.9418894210e-001
 2.5946551766e-002	 1.4622698200e+000	-8.8300268086e-001
 1.2950248939e-002	 1.4624426625e+000	-8.6993727282e-001
 0.0000000000e+000	 1.4625000000e+000	-8.5526907427e-001
 1.3197370566e-001	 1.4628087720e+000	-8.7127271754e-001
 1.1860156223e-001	 1.4639536304e+000	-8.8008401400e-001
 1.0526433293e-001	 1.4649730314e+000	-8.8535959670e-001
 9.1963543544e-002	 1.4658680940e+000	-8.8730847394e-001
 7.8700689069e-002	 1.4666399572e+000	-8.8615050667e-001
 6.5477233575e-002	 1.4672897786e+000	-8.8211592617e-001
 5.2294610032e-002	 1.4678187341e+000	-8.7544484153e-001
 3.9154220188e-002	 1.4682280169e+000	-8.6638673804e-001
 2.6057434466e-002	 1.4685188363e+000	-8.5519996800e-001
 1.3005591883e-002	 1.4686924175e+000	-8.4215123517e-001
 0.0000000000e+000	 1.4687500000e+000	-8.2751507413e-001
 1.3253529590e-001	 1.4690334902e+000	-8.4578072297e-001
 1.1910624973e-001	 1.4701832203e+000	-8.5434288799e-001
 1.0571226627e-001	 1.4712069592e+000	-8.5940163514e-001
 9.2354877772e-002	 1.4721058306e+000	-8.6116295100e-001
 7.9035585619e-002	 1.4728809783e+000	-8.5984385982e-001
 6.5755860101e-002	 1.4735335649e+000	-8.5567193938e-001
 5.2517140288e-002	 1.4740647713e+000	-8.4888482630e-001
 3.9320833891e-002	 1.4744757957e+000	-8.3972971203e-001
 2.6168317166e-002	 1.4747678526e+000	-8.2846283095e-001
 1.3060934828e-002	 1.4749421724e+000	-8.1534894186e-001
 0.0000000000e+000	 1.4750000000e+000	-8.0066080419e-001
 1.3309688614e-001	 1.4752582084e+000	-8.2191196829e-001
 1.1961093723e-001	 1.4764128102e+000	-8.3016300769e-001
 1.0616019960e-001	 1.4774408870e+000	-8.3494042143e-001
 9.2746212000e-002	 1.4783435672e+000	-8.3644720665e-001
 7.9370482168e-002	 1.4791219994e+000	-8.3489758543e-001
 6.6034486627e-002	 1.4797773512e+000	-8.3051651874e-001
 5.2739670543e-002	 1.4803108085e+000	-8.2353920947e-001
 3.9487447594e-002	 1.4807235745e+000	-8.1421059597e-001
 2.6279199865e-002	 1.4810168690e+000	-8.0278483737e-001
 1.3116277772e-002	 1.4811919274e+000	-7.8952479202e-001
 0.0000000000e+000	 1.4812500000e+000	-7.7470149043e-001
 1.3365847637e-001	 1.4814829266e+000	-7.9965343607e-001
 1.2011562473e-001	 1.4826424001e+000	-8.0753220145e-001
 1.0660813293e-001	 1.4836748148e+000	-8.1196462766e-001
 9.3137546228e-002	 1.4845813038e+000	-8.1315075434e-001
 7.9705378717e-002	 1.4853630205e+000	-8.1130203554e-001
 6.6313113153e-002	 1.4860211375e+000	-8.0664085173e-001
 5.2962200799e-002	 1.4865568456e+000	-7.9940001049e-001
 3.9654061297e-002	 1.4869713533e+000	-7.8982223749e-001
 2.6390082565e-002	 1.4872658853e+000	-7.7815965895e-001
 1.3171620716e-002	 1.4874416824e+000	-7.6467327695e-001
 0.0000000000e+000	 1.4875000000e+000	-7.4963243905e-001
 1.3422006661e-001	 1.4877076447e+000	-7.7899229854e-001
 1.2062031223e-001	 1.4888719901e+000	-7.8643847681e-001
 1.0705606626e-001	 1.4899087426e+000	-7.9046309453e-001
 9.3528880456e-002	 1.4908190403e+000	-7.9126326534e-001
 8.0040275266e-002	 1.4916040416e+000	-7.8904770909e-001
 6.6591739679e-002	 1.4922649238e+000	-7.8403626168e-001
 5.3184731054e-002	 1.4928028828e+000	-7.7645937347e-001
 3.9820675000e-002	 1.4932191321e+000	-7.6655759753e-001
 2.6500965265e-002	 1.4935149016e+000	-7.5458106920e-001
 1.3226963660e-002	 1.4936914373e+000	-7.4078897821e-001
 0.0000000000e+000	 1.4937500000e+000	-7.2544903482e-001
 1.3478165685e-001	 1.4939323629e+000	-7.5991591363e-001
 1.2112499973e-001	 1.4951015800e+000	-7.6687001679e-001
 1.0750399959e-001	 1.4961426704e+000	-7.7042482780e-001
 9.3920214683e-002	 1.4970567769e+000	-7.7077456547e-001
 8.0375171815e-002	 1.4978450627e+000	-7.6812524885e-001
 6.6870366204e-002	 1.4985087101e+000	-7.6269420492e-001
 5.3407261309e-002	 1.4990489200e+000	-7.5470956454e-001
 3.9987288703e-002	 1.4994669109e+000	-7.4440974797e-001
 2.6611847965e-002	 1.4997639179e+000	-7.3204294139e-001
 1.3282306604e-002	 1.4999411923e+000	-7.1786656575e-001
 0.0000000000e+000	 1.5000000000e+000	-7.0214673943e-001
 1.5000000000e+000	 0.0000000000e+000	 3.6537994026e+000
 1.4999411923e+000	 1.3282306604e-002	 3.6675413424e+000
 1.4997639179e+000	 2.6611847965e-002	 3.6757554215e+000
 1.4994669109e+000	 3.9987288703e-002	 3.6781267877e+000
 1.4990489200e+000	 5.3407261309e-002	 3.6743580767e+000
 1.4985087101e+000	 6.6870366204e-002	 3.6641702580e+000
 1.4978450627e+000	 8.0375171815e-002	 3.6473034669e+000
 1.4970567769e+000	 9.3920214683e-002	 3.6235178195e+000
 1.4961426704e+000	 1.0750399959e-001	 3.5925942093e+000
 1.4951015800e+000	 1.2112499973e-001	 3.5543350824e+000
 1.4939323629e+000	 1.3478165685e-001	 3.5085651893e+000
 1.5062500000e+000	 0.0000000000e+000	 3.6466633322e+000
 1.5061909473e+000	 1.3337649548e-002	 3.6602631656e+000
 1.5060129343e+000	 2.6722730664e-002	 3.6682877656e+000
 1.5057146896e+000	 4.0153902405e-002	 3.6704226757e+000
 1.5052949571e+000	 5.3629791564e-002	 3.6663712140e+000
 1.5047524964e+000	 6.7148992730e-002	 3.6558553264e+000
 1.5040860838e+000	 8.0710068364e-002	 3.6386164261e+000
 1.5032945135e+000	 9.4311548910e-002	 3.6144162168e+000
 1.5023765982e+000	 1.0795193292e-001	 3.5830374956e+000
 1.5013311699e+000	 1.2162968722e-001	 3.5442849351e+000
 1.5001570811e+000	 1.3534324708e-001	 3.4979858414e+000
 1.5125000000e+000	 0.0000000000e+000	 3.6401623328e+000
 1.5124407022e+000	 1.3392992493e-002	 3.6536857407e+000
 1.5122619506e+000	 2.6833613364e-002	 3.6615834015e+000
 1.5119624684e+000	 4.0320516108e-002	 3.6635412079e+000
 1.5115409943e+000	 5.3852321820e-002	 3.6592631158e+000
 1.5109962826e+000	 6.7427619255e-002	 3.6484720064e+000
 1.5103271049e+000	 8.1044964913e-002	 3.6309105336e+000
 1.5095322500e+000	 9.4702883138e-002	 3.6063419544e+000
 1.5086105259e+000	 1.0839986625e-001	 3.5745509388e+000
 1.5075607598e+000	 1.2213437472e-001	 3.5353443592e+000
 1.5063817993e+000	 1.3590483732e-001	 3.4885520540e+000
 1.5187500000e+000	 0.0000000000e+000	 3.6342839849e+000
 1.5186904572e+000	 1.3448335437e-002	 3.6477960404e+000
 1.5185109669e+000	 2.6944496064e-002	 3.6556286825e+000
 1.5182102472e+000	 4.0487129811e-002	 3.6574681054e+000
 1.5177870315e+000	 5.4074852075e-002	 3.6530188588e+000
 1.5172400689e+000	 6.7706245781e-002	 3.6420047186e+000
 1.5165681260e+000	 8.1379861461e-002	 3.6241695420e+000
 1.5157699866e+000	 9.5094217365e-002	 3.5992781050e+000
 1.5148444537e+000	 1.0884779959e-001	 3.5671169207e+000
 1.5137903497e+000	 1.2263906222e-001	 3.5274950343e+000
 1.5126065175e+000	 1.3646642755e-001	 3.4802447939e+000
 1.5250000000e+000	 0.0000000000e+000	 3.6290160724e+000
 1.5249402122e+000	 1.3503678381e-002	 3.6425812494e+000
 1.5247599832e+000	 2.7055378764e-002	 3.6504101809e+000
 1.5244580260e+000	 4.0653743514e-002	 3.6521893158e+000
 1.5240330686e+000	 5.4297382330e-002	 3.6476237538e+000
 1.5234838552e+000	 6.7984872306e-002	 3.6364381248e+000
 1.5228091470e+000	 8.1714758010e-002	 3.6183774519e+000
 1.5220077232e+000	 9.5485551592e-002	 3.5932079967e+000
 1.5210783815e+000	 1.0929573292e-001	 3.5607180852e+000
 1.5200199396e+000	 1.2314374972e-001	 3.5207189091e+000
 1.5188312356e+000	 1.3702801779e-001	 3.4730453035e+000
 1.5312500000e+000	 0.0000000000e+000	 3.6243465788e+000
 1.5311899671e+000	 1.3559021325e-002	 3.6380287589e+000
 1.5310089996e+000	 2.7166261463e-002	 3.6459146833e+000
 1.5307058048e+000	 4.0820357216e-002	 3.6476910085e+000
 1.5302791058e+000	 5.4519912585e-002	 3.6430633406e+000
 1.5297276415e+000	 6.8263498832e-002	 3.6317571229e+000
 1.5290501681e+000	 8.2049654559e-002	 3.6135185074e+000
 1.5282454598e+000	 9.5876885819e-002	 3.5881152080e+000
 1.5273123093e+000	 1.0974366625e-001	 3.5553373334e+000
 1.5262495296e+000	 1.2364843722e-001	 3.5149981958e+000
 1.5250559538e+000	 1.3758960803e-001	 3.4669350954e+000
 1.5375000000e+000	 0.0000000000e+000	 3.6202636827e+000
 1.5374397221e+000	 1.3614364269e-002	 3.6341261631e+000
 1.5372580159e+000	 2.7277144163e-002	 3.6421291866e+000
 1.5369535836e+000	 4.0986970919e-002	 3.6439595704e+000
 1.5365251430e+000	 5.4742442840e-002	 3.6393233834e+000
 1.5359714278e+000	 6.8542125357e-002	 3.6279468423e+000
 1.5352911892e+000	 8.2384551108e-002	 3.6095771909e+000
 1.5344831963e+000	 9.6268220047e-002	 3.5839835622e+000
 1.5335462371e+000	 1.1019159958e-001	 3.5509578179e+000
 1.5324791195e+000	 1.2415312471e-001	 3.5103153651e+000
 1.5312806720e+000	 1.3815119826e-001	 3.4618959467e+000
 1.5437500000e+000	 0.0000000000e+000	 3.6167557546e+000
 1.5436894771e+000	 1.3669707213e-002	 3.6308612550e+000
 1.5435070322e+000	 2.7388026863e-002	 3.6390408933e+000
 1.5432013624e+000	 4.1153584622e-002	 3.6409816011e+000
 1.5427711801e+000	 5.4964973096e-002	 3.6363898664e+000
 1.5422152141e+000	 6.8820751883e-002	 3.6249926389e+000
 1.5415322103e+000	 8.2719447656e-002	 3.6065382182e+000
 1.5407209329e+000	 9.6659554274e-002	 3.5807971227e+000
 1.5397801649e+000	 1.1063953291e-001	 3.5475629380e+000
 1.5387087094e+000	 1.2465781221e-001	 3.5066531403e+000
 1.5375053902e+000	 1.3871278850e-001	 3.4579098936e+000
 1.5500000000e+000	 0.0000000000e+000	 3.6138113522e+000
 1.5499392320e+000	 1.3725050157e-002	 3.6282220222e+000
 1.5497560485e+000	 2.7498909563e-002	 3.6366372080e+000
 1.5494491412e+000	 4.1320198325e-002	 3.6387439089e+000
 1.5490172173e+000	 5.5187503351e-002	 3.6342489891e+000
 1.5484590004e+000	 6.9099378408e-002	 3.6228800912e+000
 1.5477732314e+000	 8.3054344205e-002	 3.6043865338e+000
 1.5469586695e+000	 9.7050888501e-002	 3.5785401882e+000
 1.5460140927e+000	 1.1108746624e-001	 3.5451363346e+000
 1.5449382993e+000	 1.2516249971e-001	 3.5039944928e+000
 1.5437301084e+000	 1.3927437873e-001	 3.4549592265e+000
 1.5562500000e+000	 0.0000000000e+000	 3.6114192171e+000
 1.5561889870e+000	 1.3780393101e-002	 3.6261966429e+000
 1.5560050649e+000	 2.7609792262e-002	 3.6349057326e+000
 1.5556969200e+000	 4.1486812027e-002	 3.6372335067e+000
 1.5552632545e+000	 5.5410033606e-002	 3.6328871622e+000
 1.5547027867e+000	 6.9378004934e-002	 3.6215949951e+000
 1.5540142525e+000	 8.3389240754e-002	 3.6031073066e+000
 1.5531964060e+000	 9.7442222728e-002	 3.5771972881e+000
 1.5522480205e+000	 1.1153539957e-001	 3.5436618853e+000
 1.5511678892e+000	 1.2566718721e-001	 3.5023226368e+000
 1.5499548265e+000	 1.3983596897e-001	 3.4530264846e+000
 1.5625000000e+000	 0.0000000000e+000	 3.6095682710e+000
 1.5624387420e+000	 1.3835736046e-002	 3.6247734826e+000
 1.5622540812e+000	 2.7720674962e-002	 3.6338342630e+000
 1.5619446988e+000	 4.1653425730e-002	 3.6364376076e+000
 1.5615092916e+000	 5.5632563861e-002	 3.6322910033e+000
 1.5609465730e+000	 6.9656631459e-002	 3.6211233600e+000
 1.5602552736e+000	 8.3724137303e-002	 3.6026859249e+000
 1.5594341426e+000	 9.7833556956e-002	 3.5767531774e+000
 1.5584819483e+000	 1.1198333290e-001	 3.5431237000e+000
 1.5573974792e+000	 1.2617187471e-001	 3.5016210246e+000
 1.5561795447e+000	 1.4039755921e-001	 3.4520944511e+000
 1.4939323629e+000	 1.3478165685e-001	 3.5085651893e+000
 1.4926338975e+000	 1.4847238150e-001	 3.4929503644e+000
 1.4912050840e+000	 1.6219555325e-001	 3.4715069374e+000
 1.4896448456e+000	 1.7594952094e-001	 3.4441229214e+000
 1.4879521294e+000	 1.8973260299e-001	 3.4107095755e+000
 1.4861259070e+000	 2.0354308769e-001	 3.3712019715e+000
 1.4841651757e+000	 2.1737923356e-001	 3.3255595240e+000
 1.4820689593e+000	 2.3123926972e-001	 3.2737664818e+000
 1.4798363089e+000	 2.4512139628e-001	 3.2158323783e+000
 1.4774663038e+000	 2.5902378478e-001	 3.1517924388e+000
 1.4749580526e+000	 2.7294457865e-001	 3.0817079425e+000
 1.5001570811e+000	 1.3534324708e-001	 3.4979858414e+000
 1.4988532054e+000	 1.4909101642e-001	 3.4815523651e+000
 1.4974184385e+000	 1.6287136805e-001	 3.4594171110e+000
 1.4958516991e+000	 1.7668264394e-001	 3.4314718757e+000
 1.4941519299e+000	 1.9052315550e-001	 3.3976319135e+000
 1.4923180983e+000	 2.0439118389e-001	 3.3578365043e+000
 1.4903491973e+000	 2.1828498037e-001	 3.3120494827e+000
 1.4882442466e+000	 2.3220276668e-001	 3.2602597297e+000
 1.4860022935e+000	 2.4614273543e-001	 3.2024816212e+000
 1.4836224134e+000	 2.6010305055e-001	 3.1387554341e+000
 1.4811037112e+000	 2.7408184772e-001	 3.0691477055e+000
 1.5063817993e+000	 1.3590483732e-001	 3.4885520540e+000
 1.5050725133e+000	 1.4970965134e-001	 3.4713135532e+000
 1.5036317930e+000	 1.6354718286e-001	 3.4484952735e+000
 1.5020585527e+000	 1.7741576695e-001	 3.4199927782e+000
 1.5003517305e+000	 1.9131370801e-001	 3.3857253058e+000
 1.4985102896e+000	 2.0523928009e-001	 3.3456363373e+000
 1.4965332189e+000	 2.1919072717e-001	 3.2996941263e+000
 1.4944195340e+000	 2.3316626364e-001	 3.2478921895e+000
 1.4921682781e+000	 2.4716407458e-001	 3.1902497545e+000
 1.4897785230e+000	 2.6118231632e-001	 3.1268121639e+000
 1.4872493697e+000	 2.7521911680e-001	 3.0576512325e+000
 1.5126065175e+000	 1.3646642755e-001	 3.4802447939e+000
 1.5112918212e+000	 1.5032828626e-001	 3.4622144056e+000
 1.5098451475e+000	 1.6422299766e-001	 3.4387214183e+000
 1.5082654062e+000	 1.7814888995e-001	 3.4096651464e+000
 1.5065515310e+000	 1.9210426052e-001	 3.3749688010e+000
 1.5047024808e+000	 2.0608737628e-001	 3.3345800585e+000
 1.5027172404e+000	 2.2009647398e-001	 3.2884715902e+000
 1.5005948213e+000	 2.3412976059e-001	 3.2366415529e+000
 1.4983342628e+000	 2.4818541374e-001	 3.1791140353e+000
 1.4959346326e+000	 2.6226158209e-001	 3.1159394606e+000
 1.4933950283e+000	 2.7635638588e-001	 3.0471949415e+000
 1.5188312356e+000	 1.3702801779e-001	 3.4730453035e+000
 1.5175111291e+000	 1.5094692119e-001	 3.4542356776e+000
 1.5160585021e+000	 1.6489881246e-001	 3.4300758199e+000
 1.5144722597e+000	 1.7888201295e-001	 3.4004687801e+000
 1.5127513316e+000	 1.9289481304e-001	 3.3653417317e+000
 1.5108946721e+000	 2.0693547248e-001	 3.3246465405e+000
 1.5089012620e+000	 2.2100222078e-001	 3.2783602952e+000
 1.5067701086e+000	 2.3509325755e-001	 3.2264857972e+000
 1.5045002474e+000	 2.4920675289e-001	 3.1690520061e+000
 1.5020907422e+000	 2.6334084786e-001	 3.1061144410e+000
 1.4995406868e+000	 2.7749365496e-001	 3.0377555334e+000
 1.5250559538e+000	 1.3758960803e-001	 3.4669350954e+000
 1.5237304370e+000	 1.5156555611e-001	 3.4473583970e+000
 1.5222718566e+000	 1.6557462727e-001	 3.4225390272e+000
 1.5206791132e+000	 1.7961513596e-001	 3.3923837560e+000
 1.5189511321e+000	 1.9368536555e-001	 3.3568237085e+000
 1.5170868634e+000	 2.0778356868e-001	 3.3158149351e+000
 1.5150852836e+000	 2.2190796759e-001	 3.2693389416e+000
 1.5129453960e+000	 2.3605675450e-001	 3.2174031789e+000
 1.5106662320e+000	 2.5022809204e-001	 3.1600414883e+000
 1.5082468518e+000	 2.6442011363e-001	 3.0973145004e+000
 1.5056863454e+000	 2.7863092403e-001	 3.0293099863e+000
 1.5312806720e+000	 1.3815119826e-001	 3.4618959467e+000
 1.5299497449e+000	 1.5218419103e-001	 3.4415638589e+000
 1.5284852111e+000	 1.6625044207e-001	 3.4160918588e+000
 1.5268859668e+000	 1.8034825896e-001	 3.3853904216e+000
 1.5251509326e+000	 1.9447591806e-001	 3.3493946145e+000
 1.5232790547e+000	 2.0863166488e-001	 3.3080646673e+000
 1.5212693051e+000	 2.2281371440e-001	 3.2613865034e+000
 1.5191206833e+000	 2.3702025146e-001	 3.2093722289e+000
 1.5168322166e+000	 2.5124943119e-001	 3.1520605771e+000
 1.5144029614e+000	 2.6549937940e-001	 3.0895173066e+000
 1.5118320039e+000	 2.7976819311e-001	 3.0218355501e+000
 1.5375053902e+000	 1.3871278850e-001	 3.4579098936e+000
 1.5361690528e+000	 1.5280282595e-001	 3.4368336201e+000
 1.5346985656e+000	 1.6692625688e-001	 3.4107153969e+000
 1.5330928203e+000	 1.8108138196e-001	 3.3794693902e+000
 1.5313507332e+000	 1.9526647057e-001	 3.3430345997e+000
 1.5294712460e+000	 2.0947976107e-001	 3.3013754301e+000
 1.5274533267e+000	 2.2371946120e-001	 3.2544822232e+000
 1.5252959706e+000	 2.3798374842e-001	 3.2023717461e+000
 1.5229982012e+000	 2.5227077034e-001	 3.1450876358e+000
 1.5205590710e+000	 2.6657864517e-001	 3.0827007951e+000
 1.5179776625e+000	 2.8090546219e-001	 3.0153097404e+000
 1.5437301084e+000	 1.3927437873e-001	 3.4549592265e+000
 1.5423883608e+000	 1.5342146087e-001	 3.4331494939e+000
 1.5409119201e+000	 1.6760207168e-001	 3.4063909825e+000
 1.5392996738e+000	 1.8181450496e-001	 3.3746015353e+000
 1.5375505337e+000	 1.9605702308e-001	 3.3377240754e+000
 1.5356634373e+000	 2.1032785727e-001	 3.2957271788e+000
 1.5336373483e+000	 2.2462520801e-001	 3.2486056063e+000
 1.5314712580e+000	 2.3894724537e-001	 3.1963807927e+000
 1.5291641859e+000	 2.5329210949e-001	 3.1391012901e+000
 1.5267151806e+000	 2.6765791094e-001	 3.0768431630e+000
 1.5241233211e+000	 2.8204273126e-001	 3.0097103339e+000
 1.5499548265e+000	 1.3983596897e-001	 3.4530264846e+000
 1.5486076687e+000	 1.5404009579e-001	 3.4304935449e+000
 1.5471252747e+000	 1.6827788648e-001	 3.4031002097e+000
 1.5455065273e+000	 1.8254762797e-001	 3.3707679853e+000
 1.5437503343e+000	 1.9684757559e-001	 3.3334437096e+000
 1.5418556285e+000	 2.1117595347e-001	 3.2911001258e+000
 1.5398213698e+000	 2.2553095481e-001	 3.2437364157e+000
 1.5376465453e+000	 2.3991074233e-001	 3.1913786884e+000
 1.5353301705e+000	 2.5431344864e-001	 3.1340804233e+000
 1.5328712902e+000	 2.6873717671e-001	 3.0719228641e+000
 1.5302689796e+000	 2.8318000034e-001	 3.0050153626e+000
 1.5561795447e+000	 1.4039755921e-001	 3.4520944511e+000
 1.5548269766e+000	 1.5465873072e-001	 3.4288480839e+000
 1.5533386292e+000	 1.6895370129e-001	 3.4008249211e+000
 1.5517133809e+000	 1.8328075097e-001	 3.3679501187e+000
 1.5499501348e+000	 1.9763812810e-001	 3.3301744210e+000
 1.5480478198e+000	 2.1202404967e-001	 3.2874747356e+000
 1.5460053914e+000	 2.2643670162e-001	 3.2398546668e+000
 1.5438218326e+000	 2.4087423928e-001	 3.1873450055e+000
 1.5414961551e+000	 2.5533478779e-001	 3.1300041708e+000
 1.5390273998e+000	 2.6981644248e-001	 3.0679186038e+000
 1.5364146382e+000	 2.8431726942e-001	 3.0012031088e+000
 1.4749580526e+000	 2.7294457865e-001	 3.0817079425e+000
 1.4723106938e+000	 2.8688189366e-001	 3.0371410502e+000
 1.4695233968e+000	 3.0083381850e-001	 2.9880751576e+000
 1.4665953627e+000	 3.1479841526e-001	 2.9346128779e+000
 1.4635258252e+000	 3.2877372007e-001	 2.8768819268e+000
 1.4603140516e+000	 3.4275774362e-001	 2.8150352293e+000
 1.4569593432e+000	 3.5674847188e-001	 2.7492509712e+000
 1.4534610367e+000	 3.7074386670e-001	 2.6797325956e+000
 1.4498185046e+000	 3.8474186652e-001	 2.6067087423e+000
 1.4460311559e+000	 3.9874038711e-001	 2.5304331281e+000
 1.4420984373e+000	 4.1273732227e-001	 2.4511843691e+000
 1.4811037112e+000	 2.7408184772e-001	 3.0691477055e+000
 1.4784453217e+000	 2.8807723488e-001	 3.0244345215e+000
 1.4756464109e+000	 3.0208729274e-001	 2.9751317119e+000
 1.4727061767e+000	 3.1611007533e-001	 2.9213475935e+000
 1.4696238495e+000	 3.3014361057e-001	 2.8632160050e+000
 1.4663986935e+000	 3.4418590089e-001	 2.8008964124e+000
 1.4630300072e+000	 3.5823492385e-001	 2.7345739593e+000
 1.4595171244e+000	 3.7228863281e-001	 2.6644594595e+000
 1.4558594150e+000	 3.8634495763e-001	 2.5907893330e+000
 1.4520562857e+000	 4.0040180538e-001	 2.5138254821e+000
 1.4481071808e+000	 4.1445706111e-001	 2.4338551069e+000
 1.4872493697e+000	 2.7521911680e-001	 3.0576512325e+000
 1.4845799496e+000	 2.8927257611e-001	 3.0127877508e+000
 1.4817694251e+000	 3.0334076698e-001	 2.9632415229e+000
 1.4788169907e+000	 3.1742173539e-001	 2.9091266107e+000
 1.4757218737e+000	 3.3151350107e-001	 2.8505830225e+000
 1.4724833353e+000	 3.4561405815e-001	 2.7877768165e+000
 1.4691006711e+000	 3.5972137581e-001	 2.7209001486e+000
 1.4655732120e+000	 3.7383339892e-001	 2.6501712632e+000
 1.4619003254e+000	 3.8794804874e-001	 2.5758344245e+000
 1.4580814155e+000	 4.0206322366e-001	 2.4981597880e+000
 1.4541159242e+000	 4.1617679995e-001	 2.4174432106e+000
 1.4933950283e+000	 2.7635638588e-001	 3.0471949415e+000
 1.4907145775e+000	 2.9046791733e-001	 3.0021763728e+000
 1.4878924392e+000	 3.0459424123e-001	 2.9523794246e+000
 1.4849278047e+000	 3.1873339545e-001	 2.8979239471e+000
 1.4818198980e+000	 3.3288339157e-001	 2.8389561647e+000
 1.4785679772e+000	 3.4704221542e-001	 2.7756487789e+000
 1.4751713350e+000	 3.6120782778e-001	 2.7082010140e+000
 1.4716292997e+000	 3.7537816503e-001	 2.6368386049e+000
 1.4679412359e+000	 3.8955113985e-001	 2.5618137242e+000
 1.4641065453e+000	 4.0372464194e-001	 2.4834048497e+000
 1.4601246677e+000	 4.1789653879e-001	 2.4019165678e+000
 1.4995406868e+000	 2.7749365496e-001	 3.0377555334e+000
 1.4968492054e+000	 2.9166325855e-001	 2.9925763092e+000
 1.4940154534e+000	 3.0584771547e-001	 2.9425205432e+000
 1.4910386187e+000	 3.2004505552e-001	 2.8877139166e+000
 1.4879179223e+000	 3.3425328207e-001	 2.8283089175e+000
 1.4846526191e+000	 3.4847037268e-001	 2.7644849424e+000
 1.4812419989e+000	 3.6269427975e-001	 2.6964483403e+000
 1.4776853873e+000	 3.7692293114e-001	 2.6244323968e+000
 1.4739821463e+000	 3.9115423096e-001	 2.5486972584e+000
 1.4701316751e+000	 4.0538606022e-001	 2.4695297941e+000
 1.4661334112e+000	 4.1961627763e-001	 2.3872433938e+000
 1.5056863454e+000	 2.7863092403e-001	 3.0293099863e+000
 1.5029838333e+000	 2.9285859978e-001	 2.9839637636e+000
 1.5001384675e+000	 3.0710118972e-001	 2.9336402909e+000
 1.4971494327e+000	 3.2135671558e-001	 2.8784711238e+000
 1.4940159466e+000	 3.3562317257e-001	 2.8186150619e+000
 1.4907372610e+000	 3.4989852995e-001	 2.7542582492e+000
 1.4873126629e+000	 3.6418073171e-001	 2.6856142156e+000
 1.4837414750e+000	 3.7846769726e-001	 2.6129238592e+000
 1.4800230567e+000	 3.9275732207e-001	 2.5364553655e+000
 1.4761568049e+000	 4.0704747850e-001	 2.4565040647e+000
 1.4721421547e+000	 4.2133601647e-001	 2.3733922245e+000
 1.5118320039e+000	 2.7976819311e-001	 3.0218355501e+000
 1.5091184612e+000	 2.9405394100e-001	 2.9763152153e+000
 1.5062614817e+000	 3.0835466396e-001	 2.9257143598e+000
 1.5032602467e+000	 3.2266837565e-001	 2.8701704575e+000
 1.5001139708e+000	 3.3699306307e-001	 2.8098486675e+000
 1.4968219029e+000	 3.5132668722e-001	 2.7449419341e+000
 1.4933833268e+000	 3.6566718368e-001	 2.6756710257e+000
 1.4897975626e+000	 3.8001246337e-001	 2.6022845139e+000
 1.4860639672e+000	 3.9436041318e-001	 2.5250586897e+000
 1.4821819347e+000	 4.0870889678e-001	 2.4442974151e+000
 1.4781508982e+000	 4.2305575532e-001	 2.3603319103e+000
 1.5179776625e+000	 2.8090546219e-001	 3.0153097404e+000
 1.5152530890e+000	 2.9524928222e-001	 2.9696074142e+000
 1.5123844958e+000	 3.0960813820e-001	 2.9187187170e+000
 1.5093710607e+000	 3.2398003571e-001	 2.8627870854e+000
 1.5062119951e+000	 3.3836295357e-001	 2.8019840871e+000
 1.5029065447e+000	 3.5275484448e-001	 2.7365095194e+000
 1.4994539907e+000	 3.6715363565e-001	 2.6665914473e+000
 1.4958536503e+000	 3.8155722948e-001	 2.5924861782e+000
 1.4921048776e+000	 3.9596350430e-001	 2.5144781750e+000
 1.4882070645e+000	 4.1037031506e-001	 2.4328799026e+000
 1.4841596417e+000	 4.2477549416e-001	 2.3480316095e+000
 1.5241233211e+000	 2.8204273126e-001	 3.0097103339e+000
 1.5213877169e+000	 2.9644462345e-001	 2.9638173747e+000
 1.5185075100e+000	 3.1086161245e-001	 2.9126295983e+000
 1.5154818747e+000	 3.2529169577e-001	 2.8562964484e+000
 1.5123100194e+000	 3.3973284407e-001	 2.7949959504e+000
 1.5089911866e+000	 3.5418300175e-001	 2.7289348088e+000
 1.5055246547e+000	 3.6864008761e-001	 2.6583484429e+000
 1.5019097379e+000	 3.8310199559e-001	 2.5835009589e+000
 1.4981457880e+000	 3.9756659541e-001	 2.5046850589e+000
 1.4942321944e+000	 4.1203173334e-001	 2.4222218824e+000
 1.4901683852e+000	 4.2649523301e-001	 2.3364607819e+000
 1.5302689796e+000	 2.8318000034e-001	 3.0050153626e+000
 1.5275223448e+000	 2.9763996467e-001	 2.9589223710e+000
 1.5246305241e+000	 3.1211508669e-001	 2.9074235031e+000
 1.5215926887e+000	 3.2660335584e-001	 2.8506742548e+000
 1.5184080436e+000	 3.4110273457e-001	 2.7888591590e+000
 1.5150758285e+000	 3.5561115901e-001	 2.7221918815e+000
 1.5115953186e+000	 3.7012653958e-001	 2.6509152546e+000
 1.5079658256e+000	 3.8464676171e-001	 2.5753012467e+000
 1.5041866985e+000	 3.9916968652e-001	 2.4956508667e+000
 1.5002573242e+000	 4.1369315162e-001	 2.4122940011e+000
 1.4961771287e+000	 4.2821497185e-001	 2.3255891831e+000
 1.5364146382e+000	 2.8431726942e-001	 3.0012031088e+000
 1.5336569727e+000	 2.9883530589e-001	 2.9548999315e+000
 1.5307535383e+000	 3.1336856094e-001	 2.9030771891e+000
 1.5277035028e+000	 3.2791501590e-001	 2.8458964754e+000
 1.5245060679e+000	 3.4247262508e-001	 2.7835488807e+000
 1.5211604704e+000	 3.5703931628e-001	 2.7162550869e+000
 1.5176659825e+000	 3.7161299155e-001	 2.6442653986e+000
 1.5140219133e+000	 3.8619152782e-001	 2.5678597102e+000
 1.5102276089e+000	 4.0077277763e-001	 2.4873474057e+000
 1.5062824540e+000	 4.1535456991e-001	 2.4030671913e+000
 1.5021858722e+000	 4.2993471070e-001	 2.3153868586e+000
 1.4420984373e+000	 4.1273732227e-001	 2.4511843691e+000
 1.4380198337e+000	 4.2673054465e-001	 2.4024010749e+000
 1.4337948691e+000	 4.4071790656e-001	 2.3457181720e+000
 1.4294231071e+000	 4.5469724075e-001	 2.2814477463e+000
 1.4249041518e+000	 4.6866636131e-001	 2.2099298596e+000
 1.4202376482e+000	 4.8262306456e-001	 2.1315321666e+000
 1.4154232836e+000	 4.9656512994e-001	 2.0466494645e+000
 1.4104607872e+000	 5.1049032095e-001	 1.9557031758e+000
 1.4053499315e+000	 5.2439638615e-001	 1.8591407644e+000
 1.4000905329e+000	 5.3828106007e-001	 1.7574350841e+000
 1.3946824516e+000	 5.5214206433e-001	 1.6510836609e+000
 1.4481071808e+000	 4.1445706111e-001	 2.4338551069e+000
 1.4440115830e+000	 4.2850858859e-001	 2.3844929099e+000
 1.4397690144e+000	 4.4255423117e-001	 2.3276379423e+000
 1.4353790367e+000	 4.5659181258e-001	 2.2636063629e+000
 1.4308412524e+000	 4.7061913782e-001	 2.1927422201e+000
 1.4261553051e+000	 4.8463399400e-001	 2.1154170576e+000
 1.4213208806e+000	 4.9863415131e-001	 2.0320294516e+000
 1.4163377071e+000	 5.1261736395e-001	 1.9430044820e+000
 1.4112055563e+000	 5.2658137108e-001	 1.8487931354e+000
 1.4059242434e+000	 5.4052389782e-001	 1.7498716409e+000
 1.4004936284e+000	 5.5444265626e-001	 1.6467407390e+000
 1.4541159242e+000	 4.1617679995e-001	 2.4174432106e+000
 1.4500033323e+000	 4.3028663252e-001	 2.3673537079e+000
 1.4457431597e+000	 4.4439055578e-001	 2.3101725853e+000
 1.4413349663e+000	 4.5848638442e-001	 2.2462201863e+000
 1.4367783530e+000	 4.7257191432e-001	 2.1758446646e+000
 1.4320729620e+000	 4.8664492343e-001	 2.0994215776e+000
 1.4272184776e+000	 5.0070317268e-001	 2.0173534125e+000
 1.4222146270e+000	 5.1474440696e-001	 1.9300690444e+000
 1.4170611810e+000	 5.2876635602e-001	 1.8380231269e+000
 1.4117579540e+000	 5.4276673557e-001	 1.7416954147e+000
 1.4063048053e+000	 5.5674324819e-001	 1.6415900194e+000
 1.4601246677e+000	 4.1789653879e-001	 2.4019165678e+000
 1.4559950817e+000	 4.3206467646e-001	 2.3509519331e+000
 1.4517173050e+000	 4.4622688039e-001	 2.2932911774e+000
 1.4472908960e+000	 4.6038095625e-001	 2.2292589413e+000
 1.4427154536e+000	 4.7452469082e-001	 2.1592076026e+000
 1.4379906188e+000	 4.8865585286e-001	 2.0835168581e+000
 1.4331160746e+000	 5.0277219406e-001	 2.0025932376e+000
 1.4280915470e+000	 5.1687144996e-001	 1.9168695498e+000
 1.4229168057e+000	 5.3095134096e-001	 1.8268042598e+000
 1.4175916645e+000	 5.4500957332e-001	 1.7328807987e+000
 1.4121159822e+000	 5.5904384013e-001	 1.6356068057e+000
 1.4661334112e+000	 4.1961627763e-001	 2.3872433938e+000
 1.4619868310e+000	 4.3384272039e-001	 2.3352563567e+000
 1.4576914503e+000	 4.4806320500e-001	 2.2769630809e+000
 1.4532468256e+000	 4.6227552809e-001	 2.2126926168e+000
 1.4486525543e+000	 4.7647746732e-001	 2.1428016854e+000
 1.4439082757e+000	 4.9066678230e-001	 2.0676742486e+000
 1.4390136716e+000	 5.0484121543e-001	 1.9877210111e+000
 1.4339684669e+000	 5.1899849296e-001	 1.9033788537e+000
 1.4287724304e+000	 5.3313632590e-001	 1.8151101979e+000
 1.4234253751e+000	 5.4725241107e-001	 1.7234023024e+000
 1.4179271591e+000	 5.6134443206e-001	 1.6287664912e+000
 1.4721421547e+000	 4.2133601647e-001	 2.3733922245e+000
 1.4679785803e+000	 4.3562076433e-001	 2.3202360510e+000
 1.4636655956e+000	 4.4989952961e-001	 2.2611579386e+000
 1.4592027552e+000	 4.6417009992e-001	 2.1964914606e+000
 1.4545896549e+000	 4.7843024383e-001	 2.1265978006e+000
 1.4498259326e+000	 4.9267771173e-001	 2.0518653120e+000
 1.4449112686e+000	 5.0691023680e-001	 1.9727090068e+000
 1.4398453869e+000	 5.2112553596e-001	 1.8895699769e+000
 1.4346280551e+000	 5.3532131085e-001	 1.8029147455e+000
 1.4292590856e+000	 5.4949524882e-001	 1.7132345499e+000
 1.4237383360e+000	 5.6364502400e-001	 1.6210445562e+000
 1.4781508982e+000	 4.2305575532e-001	 2.3603319103e+000
 1.4739703296e+000	 4.3739880826e-001	 2.3058603829e+000
 1.4696397409e+000	 4.5173585422e-001	 2.2458456677e+000
 1.4651586848e+000	 4.6606467176e-001	 2.1806259738e+000
 1.4605267555e+000	 4.8038302034e-001	 2.1105670679e+000
 1.4557435894e+000	 4.9468864117e-001	 2.0360618207e+000
 1.4508088656e+000	 5.0897925818e-001	 1.9575296849e+000
 1.4457223068e+000	 5.2325257897e-001	 1.8754161025e+000
 1.4404836798e+000	 5.3750629579e-001	 1.7901918438e+000
 1.4350927962e+000	 5.5173808657e-001	 1.7023522766e+000
 1.4295495128e+000	 5.6594561593e-001	 1.6124165666e+000
 1.4841596417e+000	 4.2477549416e-001	 2.3480316095e+000
 1.4799620789e+000	 4.3917685220e-001	 2.2920990084e+000
 1.4756138862e+000	 4.5357217883e-001	 2.2309964544e+000
 1.4711146144e+000	 4.6795924360e-001	 2.1650669063e+000
 1.4664638562e+000	 4.8233579684e-001	 2.0946808337e+000
 1.4616612463e+000	 4.9669957060e-001	 2.0202357521e+000
 1.4567064627e+000	 5.1104827955e-001	 1.9421556875e+000
 1.4515992268e+000	 5.2537962197e-001	 1.8608905720e+000
 1.4463393046e+000	 5.3969128073e-001	 1.7769155687e+000
 1.4409265068e+000	 5.5398092432e-001	 1.6907303278e+000
 1.4353606897e+000	 5.6824620787e-001	 1.6028581725e+000
 1.4901683852e+000	 4.2649523301e-001	 2.3364607819e+000
 1.4859538282e+000	 4.4095489614e-001	 2.2789218663e+000
 1.4815880314e+000	 4.5540850344e-001	 2.2165807485e+000
 1.4770705440e+000	 4.6985381543e-001	 2.1497852511e+000
 1.4724009568e+000	 4.8428857335e-001	 2.0789106674e+000
 1.4675789032e+000	 4.9871050004e-001	 2.0043592845e+000
 1.4626040597e+000	 5.1311730093e-001	 1.9265598356e+000
 1.4574761467e+000	 5.2750666498e-001	 1.8459668827e+000
 1.4521949293e+000	 5.4187626568e-001	 1.7630601279e+000
 1.4467602173e+000	 5.5622376207e-001	 1.6783436558e+000
 1.4411718666e+000	 5.7054679981e-001	 1.5923451059e+000
 1.4961771287e+000	 4.2821497185e-001	 2.3255891831e+000
 1.4919455775e+000	 4.4273294008e-001	 2.2662991729e+000
 1.4875621767e+000	 4.5724482805e-001	 2.2025692581e+000
 1.4830264737e+000	 4.7174838727e-001	 2.1347522398e+000
 1.4783380575e+000	 4.8624134986e-001	 2.0632283560e+000
 1.4734965601e+000	 5.0072142948e-001	 1.9884047929e+000
 1.4685016567e+000	 5.1518632231e-001	 1.9107151250e+000
 1.4633530667e+000	 5.2963370799e-001	 1.8306186841e+000
 1.4580505540e+000	 5.4406125062e-001	 1.7485998580e+000
 1.4525939279e+000	 5.5846659983e-001	 1.6651673185e+000
 1.4469830435e+000	 5.7284739175e-001	 1.5808531794e+000
 1.5021858722e+000	 4.2993471070e-001	 2.3153868586e+000
 1.4979373268e+000	 4.4451098401e-001	 2.2542014160e+000
 1.4935363220e+000	 4.5908115267e-001	 2.1889329445e+000
 1.4889824033e+000	 4.7364295911e-001	 2.1199393379e+000
 1.4842751581e+000	 4.8819412637e-001	 2.0476059005e+000
 1.4794142169e+000	 5.0273235892e-001	 1.9723448456e+000
 1.4743992537e+000	 5.1725534369e-001	 1.8945947229e+000
 1.4692299866e+000	 5.3176075100e-001	 1.8148197751e+000
 1.4639061787e+000	 5.4624623557e-001	 1.7335092224e+000
 1.4584276384e+000	 5.6070943758e-001	 1.6511764766e+000
 1.4527942204e+000	 5.7514798369e-001	 1.5683582846e+000
 1.3946824516e+000	 5.5214206433e-001	 1.6510836609e+000
 1.3891255928e+000	 5.6597710858e-001	 1.5522701047e+000
 1.3834199070e+000	 5.7978389160e-001	 1.4579199743e+000
 1.3775653904e+000	 5.9356010237e-001	 1.3684771138e+000
 1.3715620856e+000	 6.0730342120e-001	 1.2843968007e+000
 1.3654100816e+000	 6.2101152079e-001	 1.2061447117e+000
 1.3591095148e+000	 6.3468206741e-001	 1.1350229789e+000
 1.3526605688e+000	 6.4831272206e-001	 1.0641230762e+000
 1.3460634750e+000	 6.6190114162e-001	 9.9216163958e-001
 1.3393185129e+000	 6.7544498005e-001	 9.1934839755e-001
 1.3324260102e+000	 6.8894188958e-001	 8.4589530405e-001
 1.4004936284e+000	 5.5444265626e-001	 1.6467407390e+000
 1.3949136161e+000	 5.6833534653e-001	 1.5491761315e+000
 1.3891841566e+000	 5.8219965781e-001	 1.4557808359e+000
 1.3833052462e+000	 5.9603326947e-001	 1.3670234198e+000
 1.3772769276e+000	 6.0983385212e-001	 1.2833845778e+000
 1.3710992903e+000	 6.2359906879e-001	 1.2053560707e+000
 1.3647724711e+000	 6.3732657603e-001	 1.1309541862e+000
 1.3582966545e+000	 6.5101402507e-001	 1.0552308613e+000
 1.3516720728e+000	 6.6465906304e-001	 9.7829080110e-001
 1.3448990067e+000	 6.7825933413e-001	 9.0036073048e-001
 1.3379777853e+000	 6.9181248078e-001	 8.2167006933e-001
 1.4063048053e+000	 5.5674324819e-001	 1.6415900194e+000
 1.4007016394e+000	 5.7069358448e-001	 1.5454367384e+000
 1.3949484062e+000	 5.8461542402e-001	 1.4531612166e+000
 1.3890451020e+000	 5.9850643656e-001	 1.3652567925e+000
 1.3829917696e+000	 6.1236428304e-001	 1.2822296254e+000
 1.3767884990e+000	 6.2618661679e-001	 1.2043642717e+000
 1.3704354274e+000	 6.3997108464e-001	 1.1256721430e+000
 1.3639327402e+000	 6.5371532808e-001	 1.0453695427e+000
 1.3572806706e+000	 6.6741698446e-001	 9.6369704956e-001
 1.3504795005e+000	 6.8107368821e-001	 8.8089824049e-001
 1.3435295603e+000	 6.9468307199e-001	 7.9721985658e-001
 1.4121159822e+000	 5.5904384013e-001	 1.6356068057e+000
 1.4064896627e+000	 5.7305182243e-001	 1.5410237113e+000
 1.4007126558e+000	 5.8703119024e-001	 1.4500293388e+000
 1.3947849578e+000	 6.0097960365e-001	 1.3631418470e+000
 1.3887066116e+000	 6.1489471396e-001	 1.2808929090e+000
 1.3824777076e+000	 6.2877416480e-001	 1.2020452907e+000
 1.3760983837e+000	 6.4261559325e-001	 1.1191829594e+000
 1.3695688259e+000	 6.5641663108e-001	 1.0345427615e+000
 1.3628892684e+000	 6.7017490589e-001	 9.4838151079e-001
 1.3560599943e+000	 6.8388804229e-001	 8.6095949344e-001
 1.3490813353e+000	 6.9755366319e-001	 7.7254062752e-001
 1.4179271591e+000	 5.6134443206e-001	 1.6287664912e+000
 1.4122776860e+000	 5.7541006038e-001	 1.5359089705e+000
 1.4064769054e+000	 5.8944695645e-001	 1.4463536050e+000
 1.4005248135e+000	 6.0345277074e-001	 1.3606434247e+000
 1.3944214536e+000	 6.1742514488e-001	 1.2793356679e+000
 1.3881669163e+000	 6.3136171280e-001	 1.1982884860e+000
 1.3817613400e+000	 6.4526010187e-001	 1.1114931152e+000
 1.3752049116e+000	 6.5911793409e-001	 1.0227545769e+000
 1.3684978662e+000	 6.7293282731e-001	 9.3234577852e-001
 1.3616404881e+000	 6.8670239637e-001	 8.4054357295e-001
 1.3546331104e+000	 7.0042425440e-001	 7.4762891202e-001
 1.4237383360e+000	 5.6364502400e-001	 1.6210445562e+000
 1.4180657093e+000	 5.7776829833e-001	 1.5300645677e+000
 1.4122411550e+000	 5.9186272267e-001	 1.4421025942e+000
 1.4062646693e+000	 6.0592593784e-001	 1.3577265894e+000
 1.4001362957e+000	 6.1995557581e-001	 1.2775194097e+000
 1.3938561250e+000	 6.3394926080e-001	 1.1931030270e+000
 1.3874242964e+000	 6.4790461048e-001	 1.1026094526e+000
 1.3808409973e+000	 6.6181923710e-001	 1.0100094583e+000
 1.3741064640e+000	 6.7569074873e-001	 9.1559190479e-001
 1.3672209819e+000	 6.8951675046e-001	 8.1965006983e-001
 1.3601848854e+000	 7.0329484561e-001	 7.2248179646e-001
 1.4295495128e+000	 5.6594561593e-001	 1.6124165666e+000
 1.4238537326e+000	 5.8012653629e-001	 1.5234626841e+000
 1.4180054046e+000	 5.9427848888e-001	 1.4372450586e+000
 1.4120045251e+000	 6.0839910493e-001	 1.3543566224e+000
 1.4058511377e+000	 6.2248600673e-001	 1.2754059046e+000
 1.3995453336e+000	 6.3653680881e-001	 1.1864983916e+000
 1.3930872527e+000	 6.5054911910e-001	 1.0925391684e+000
 1.3864770830e+000	 6.6452054011e-001	 9.9631227686e-001
 1.3797150618e+000	 6.7844867016e-001	 8.9812239071e-001
 1.3728014757e+000	 6.9233110454e-001	 7.9827907175e-001
 1.3657366605e+000	 7.0616543681e-001	 6.9709691244e-001
 1.4353606897e+000	 5.6824620787e-001	 1.6028581725e+000
 1.4296417559e+000	 5.8248477424e-001	 1.5160756267e+000
 1.4237696542e+000	 5.9669425510e-001	 1.4317499198e+000
 1.4177443809e+000	 6.1087227203e-001	 1.3504990181e+000
 1.4115659797e+000	 6.2501643766e-001	 1.2729368157e+000
 1.4052345423e+000	 6.3912435681e-001	 1.1784843600e+000
 1.3987502090e+000	 6.5319362771e-001	 1.0812898072e+000
 1.3921131687e+000	 6.6722184312e-001	 9.8166829712e-001
 1.3853236597e+000	 6.8120659158e-001	 8.7994017730e-001
 1.3783819695e+000	 6.9514545863e-001	 7.7643115324e-001
 1.3712884355e+000	 7.0903602802e-001	 6.7147242573e-001
 1.4411718666e+000	 5.7054679981e-001	 1.5923451059e+000
 1.4354297792e+000	 5.8484301220e-001	 1.5078758268e+000
 1.4295339038e+000	 5.9911002132e-001	 1.4255862652e+000
 1.4234842367e+000	 6.1334543913e-001	 1.3461194798e+000
 1.4172808217e+000	 6.2754686858e-001	 1.2663582314e+000
 1.4109237510e+000	 6.4171190482e-001	 1.1690710086e+000
 1.4044131653e+000	 6.5583813633e-001	 1.0688692542e+000
 1.3977492544e+000	 6.6992314613e-001	 9.6608316928e-001
 1.3909322575e+000	 6.8396451301e-001	 8.6104863665e-001
 1.3839624633e+000	 6.9795981271e-001	 7.5410736582e-001
 1.3768402106e+000	 7.1190661923e-001	 6.4560702551e-001
 1.4469830435e+000	 5.7284739175e-001	 1.5808531794e+000
 1.4412178025e+000	 5.8720125016e-001	 1.4988358368e+000
 1.4352981535e+000	 6.0152578754e-001	 1.4187233453e+000
 1.4292240925e+000	 6.1581860622e-001	 1.3411839155e+000
 1.4229956638e+000	 6.3007729951e-001	 1.2581667233e+000
 1.4166129597e+000	 6.4429945283e-001	 1.1582687041e+000
 1.4100761216e+000	 6.5848264495e-001	 1.0552857282e+000
 1.4033853401e+000	 6.7262444915e-001	 9.4956292139e-001
 1.3965408553e+000	 6.8672243443e-001	 8.4145156326e-001
 1.3895429571e+000	 7.0077416680e-001	 7.3130922843e-001
 1.3823919856e+000	 7.1477721044e-001	 6.1949991387e-001
 1.4527942204e+000	 5.7514798369e-001	 1.5683582846e+000
 1.4470058258e+000	 5.8955948811e-001	 1.4889283281e+000
 1.4410624031e+000	 6.0394155376e-001	 1.4111305699e+000
 1.4349639483e+000	 6.1829177332e-001	 1.3356584338e+000
 1.4287105058e+000	 6.3260773043e-001	 1.2483750041e+000
 1.4223021683e+000	 6.4688700084e-001	 1.1460880974e+000
 1.4157390779e+000	 6.6112715357e-001	 1.0405477754e+000
 1.4090214258e+000	 6.7532575216e-001	 9.3211395183e-001
 1.4021494531e+000	 6.8948035586e-001	 8.2115316561e-001
 1.3951234509e+000	 7.0358852088e-001	 7.0803871812e-001
 1.3879437607e+000	 7.1764780164e-001	 5.9315079553e-001
 1.3324260102e+000	 6.8894188958e-001	 8.4589530405e-001
 1.3253863434e+000	 7.0238952197e-001	 7.5720329778e-001
 1.3181999376e+000	 7.1578552968e-001	 6.6305264061e-001
 1.3108672667e+000	 7.2912756715e-001	 5.6409882189e-001
 1.3033888536e+000	 7.4241329204e-001	 4.6100883812e-001
 1.2957652706e+000	 7.5564036649e-001	 3.5446093815e-001
 1.2879971388e+000	 7.6880645837e-001	 2.4514433968e-001
 1.2800851286e+000	 7.8190924257e-001	 1.3375891626e-001
 1.2720299594e+000	 7.9494640228e-001	 2.1014854539e-002
 1.2638323996e+000	 8.0791563026e-001	-9.2367719037e-002
 1.2554932668e+000	 8.2081463009e-001	-2.0565914216e-001
 1.3379777853e+000	 6.9181248078e-001	 8.2167006933e-001
 1.3309087865e+000	 7.0531614497e-001	 7.3401299991e-001
 1.3236924373e+000	 7.1876796938e-001	 6.4229845320e-001
 1.3163292136e+000	 7.3216559868e-001	 5.4713795613e-001
 1.3088196405e+000	 7.4550668076e-001	 4.4915306770e-001
 1.3011642926e+000	 7.5878886801e-001	 3.4897516263e-001
 1.2933637935e+000	 7.7200981861e-001	 2.4724518833e-001
 1.2854188166e+000	 7.8516719775e-001	 1.4461339459e-001
 1.2773300842e+000	 7.9825867896e-001	 4.1739035354e-002
 1.2690983680e+000	 8.1128194538e-001	-6.0709957924e-002
 1.2607244888e+000	 8.2423469105e-001	-1.6205733180e-001
 1.3435295603e+000	 6.9468307199e-001	 7.9721985658e-001
 1.3364312296e+000	 7.0824276798e-001	 7.0992642368e-001
 1.3291849371e+000	 7.2175040909e-001	 6.1996436728e-001
 1.3217911605e+000	 7.3520363021e-001	 5.2790148012e-001
 1.3142504274e+000	 7.4860006947e-001	 4.3431412266e-001
 1.3065633145e+000	 7.6193736954e-001	 3.3978704512e-001
 1.2987304483e+000	 7.7521317885e-001	 2.4491318488e-001
 1.2907525046e+000	 7.8842515292e-001	 1.5029343867e-001
 1.2826302090e+000	 8.0157095563e-001	 5.6536408877e-002
 1.2743643363e+000	 8.1464826051e-001	-3.5741876697e-002
 1.2659557107e+000	 8.2765475201e-001	-1.2591827201e-001
 1.3490813353e+000	 6.9755366319e-001	 7.7254062752e-001
 1.3419536727e+000	 7.1116939099e-001	 6.8494827541e-001
 1.3346774368e+000	 7.2473284879e-001	 5.9606396150e-001
 1.3272531075e+000	 7.3824166173e-001	 5.0641196882e-001
 1.3196812143e+000	 7.5169345819e-001	 4.1652369447e-001
 1.3119623365e+000	 7.6508587106e-001	 3.2693750992e-001
 1.3040971030e+000	 7.7841653909e-001	 2.3819859874e-001
 1.2960861927e+000	 7.9168310810e-001	 1.5085877127e-001
 1.2879303338e+000	 8.0488323231e-001	 6.5476255258e-002
 1.2796303046e+000	 8.1801457563e-001	-1.7384538030e-002
 1.2711869327e+000	 8.3107481297e-001	-9.7153272824e-002
 1.3546331104e+000	 7.0042425440e-001	 7.4762891202e-001
 1.3474761158e+000	 7.1409601399e-001	 6.5908369364e-001
 1.3401699365e+000	 7.2771528850e-001	 5.7061110845e-001
 1.3327150544e+000	 7.4127969326e-001	 4.8269215062e-001
 1.3251120012e+000	 7.5478684690e-001	 3.9581348530e-001
 1.3173613584e+000	 7.6823437259e-001	 3.1046734708e-001
 1.3094637578e+000	 7.8161989933e-001	 2.2715141805e-001
 1.3014198807e+000	 7.9494106327e-001	 1.4636868478e-001
 1.2932304587e+000	 8.0819550898e-001	 6.8627273204e-002
 1.2848962730e+000	 8.2138089076e-001	-5.5597390189e-003
 1.2764181546e+000	 8.3449487393e-001	-7.5674533529e-002
 1.3601848854e+000	 7.0329484561e-001	 7.2248179646e-001
 1.3529985589e+000	 7.1702263700e-001	 6.3233824029e-001
 1.3456624363e+000	 7.3069772820e-001	 5.4361996868e-001
 1.3381770014e+000	 7.4431772479e-001	 4.5676490420e-001
 1.3305427881e+000	 7.5788023562e-001	 3.7221520774e-001
 1.3227603804e+000	 7.7138287411e-001	 2.9041721512e-001
 1.3148304125e+000	 7.8482325957e-001	 2.1182135539e-001
 1.3067535687e+000	 7.9819901845e-001	 1.3688204999e-001
 1.2985305835e+000	 8.1150778566e-001	 6.6057591847e-002
 1.2901622413e+000	 8.2474720588e-001	-1.8999620285e-004
 1.2816493765e+000	 8.3791493488e-001	-6.1395124538e-002
 1.3657366605e+000	 7.0616543681e-001	 6.9709691244e-001
 1.3585210020e+000	 7.1994926001e-001	 6.0471789206e-001
 1.3511549360e+000	 7.3368016791e-001	 5.1510498486e-001
 1.3436389483e+000	 7.4735575632e-001	 4.2865325548e-001
 1.3359735750e+000	 7.6097362433e-001	 3.4576058463e-001
 1.3281594024e+000	 7.7453137564e-001	 2.6682764373e-001
 1.3201970673e+000	 7.8802661981e-001	 1.9225785339e-001
 1.3120872568e+000	 8.0145697362e-001	 1.2245732467e-001
 1.3038307083e+000	 8.1482006233e-001	 5.7834782318e-002
 1.2954282096e+000	 8.2811352100e-001	-1.1985309353e-003
 1.2868805985e+000	 8.4133499584e-001	-5.4228969678e-002
 1.3712884355e+000	 7.0903602802e-001	 6.7147242573e-001
 1.3640434451e+000	 7.2287588302e-001	 5.7622903202e-001
 1.3566474358e+000	 7.3666260762e-001	 4.8508087601e-001
 1.3491008953e+000	 7.5039378785e-001	 3.9838037462e-001
 1.3414043619e+000	 7.6406701305e-001	 3.1648134882e-001
 1.3335584243e+000	 7.7767987716e-001	 2.3973903633e-001
 1.3255637220e+000	 7.9122998005e-001	 1.6851009017e-001
 1.3174209448e+000	 8.0471492880e-001	 1.0315256194e-001
 1.3091308332e+000	 8.1813233900e-001	 4.4025869048e-002
 1.3006941780e+000	 8.3147983613e-001	-8.5092551187e-003
 1.2921118204e+000	 8.4475505679e-001	-5.4090828911e-002
 1.3768402106e+000	 7.1190661923e-001	 6.4560702551e-001
 1.3695658882e+000	 7.2580250602e-001	 5.4687844145e-001
 1.3621399355e+000	 7.3964504732e-001	 4.5356263201e-001
 1.3545628422e+000	 7.5343181937e-001	 3.6596957314e-001
 1.3468351488e+000	 7.6716040176e-001	 2.8440924300e-001
 1.3389574463e+000	 7.8082837869e-001	 2.0919167268e-001
 1.3309303768e+000	 7.9443334030e-001	 1.4062698471e-001
 1.3227546329e+000	 8.0797288397e-001	 7.9025418386e-002
 1.3144309580e+000	 8.2144461568e-001	 2.4697340785e-002
 1.3059601463e+000	 8.3484615125e-001	-2.2046757282e-002
 1.2973430424e+000	 8.4817511775e-001	-6.0896281480e-002
 1.3823919856e+000	 7.1477721044e-001	 6.1949991387e-001
 1.3750883313e+000	 7.2872912903e-001	 5.1667329179e-001
 1.3676324353e+000	 7.4262748703e-001	 4.2056550810e-001
 1.3600247892e+000	 7.5646985090e-001	 3.3144430106e-001
 1.3522659356e+000	 7.7025379048e-001	 2.4957601948e-001
 1.3443564683e+000	 7.8397688021e-001	 1.7522571129e-001
 1.3362970315e+000	 7.9763670054e-001	 1.0865720205e-001
 1.3280883209e+000	 8.1123083915e-001	 5.0133162080e-002
 1.3197310828e+000	 8.2475689235e-001	-8.4838646831e-005
 1.3112261146e+000	 8.3821246637e-001	-4.1736288994e-002
 1.3025742643e+000	 8.5159517871e-001	-7.4561709459e-002
 1.3879437607e+000	 7.1764780164e-001	 5.9315079553e-001
 1.3806107744e+000	 7.3165575204e-001	 4.8562113691e-001
 1.3731249350e+000	 7.4560992674e-001	 3.8610501959e-001
 1.3654867361e+000	 7.5950788243e-001	 2.9482814414e-001
 1.3576967225e+000	 7.7334717919e-001	 2.1201344000e-001
 1.3497554902e+000	 7.8712538174e-001	 1.3788119192e-001
 1.3416636863e+000	 8.0084006078e-001	 7.2649158328e-002
 1.3334220089e+000	 8.1448879432e-001	 1.6532680309e-002
 1.3250312077e+000	 8.2806916902e-001	-3.0255219849e-002
 1.3164920830e+000	 8.4157878149e-001	-6.7503751602e-002
 1.3078054863e+000	 8.5501523966e-001	-9.5004281691e-002
 1.2554932668e+000	 8.2081463009e-001	-2.0565914216e-001
 1.2470134270e+000	 8.3364111753e-001	-3.9109109294e-001
 1.2383937949e+000	 8.4639282172e-001	-4.1099111164e-001
 1.2296353336e+000	 8.5906748651e-001	-4.4272192798e-001
 1.2207390541e+000	 8.7166287169e-001	-4.8545391865e-001
 1.2117060152e+000	 8.8417675430e-001	-5.3834801691e-001
 1.2025373231e+000	 8.9660692987e-001	-6.0055691866e-001
 1.1932341309e+000	 9.0895121369e-001	-6.7122630091e-001
 1.1837976385e+000	 9.2120744202e-001	-7.4949604978e-001
 1.1742290915e+000	 9.3337347334e-001	-8.3450149563e-001
 1.1645297814e+000	 9.4544718961e-001	-9.2537465244e-001
 1.2607244888e+000	 8.2423469105e-001	-1.6205733180e-001
 1.2522093163e+000	 8.3711462219e-001	-4.2823126121e-001
 1.2435537691e+000	 8.4991945848e-001	-5.0120277049e-001
 1.2347588142e+000	 8.6264693437e-001	-5.1748633820e-001
 1.2258254668e+000	 8.7529480032e-001	-5.4566176208e-001
 1.2167547902e+000	 8.8786082411e-001	-5.8486758480e-001
 1.2075478952e+000	 9.0034279208e-001	-6.3423325297e-001
 1.1982059398e+000	 9.1273851041e-001	-6.9288036141e-001
 1.1887301286e+000	 9.2504580636e-001	-7.5992390826e-001
 1.1791217127e+000	 9.3726252948e-001	-8.3447355823e-001
 1.1693819888e+000	 9.4938655290e-001	-9.1563491133e-001
 1.2659557107e+000	 8.2765475201e-001	-1.2591827201e-001
 1.2574052056e+000	 8.4058812685e-001	-3.7815224277e-001
 1.2487137432e+000	 8.5344609524e-001	-5.9637920372e-001
 1.2398822947e+000	 8.6622638223e-001	-5.9700871188e-001
 1.2309118795e+000	 8.7892672895e-001	-6.1041265644e-001
 1.2218035653e+000	 8.9154489392e-001	-6.3570722386e-001
 1.2125584674e+000	 9.0407865429e-001	-6.7199865185e-001
 1.2031777487e+000	 9.1652580714e-001	-7.1838449955e-001
 1.1936626188e+000	 9.2888417070e-001	-7.7395492966e-001
 1.1840143339e+000	 9.4115158562e-001	-8.3779399999e-001
 1.1742341962e+000	 9.5332591619e-001	-9.0898096138e-001
 1.2711869327e+000	 8.3107481297e-001	-9.7153272824e-002
 1.2626010949e+000	 8.4406163150e-001	-3.3523023415e-001
 1.2538737174e+000	 8.5697273200e-001	-5.7931391948e-001
 1.2450057753e+000	 8.6980583009e-001	-6.8126302152e-001
 1.2359982923e+000	 8.8255865759e-001	-6.7968396672e-001
 1.2268523404e+000	 8.9522896373e-001	-6.9084777125e-001
 1.2175690396e+000	 9.0781451650e-001	-7.1383750268e-001
 1.2081495576e+000	 9.2031310386e-001	-7.4772672920e-001
 1.1985951089e+000	 9.3272253504e-001	-7.9158082893e-001
 1.1889069551e+000	 9.4504064176e-001	-8.4445830963e-001
 1.1790864037e+000	 9.5726527948e-001	-9.0541213597e-001
 1.2764181546e+000	 8.3449487393e-001	-7.5674533529e-002
 1.2677969841e+000	 8.4753513616e-001	-2.9937992173e-001
 1.2590336915e+000	 8.6049936875e-001	-5.2994508008e-001
 1.2501292558e+000	 8.7338527795e-001	-7.6643738053e-001
 1.2410847050e+000	 8.8619058622e-001	-7.5345375319e-001
 1.2319011154e+000	 8.9891303354e-001	-7.5027070728e-001
 1.2225796118e+000	 9.1155037871e-001	-7.5973478239e-001
 1.2131213664e+000	 9.2410040059e-001	-7.8089559884e-001
 1.2035275991e+000	 9.3656089938e-001	-8.1279379925e-001
 1.1937995764e+000	 9.4892969790e-001	-8.5446239647e-001
 1.1839386111e+000	 9.6120464277e-001	-9.0492813013e-001
 1.2816493765e+000	 8.3791493488e-001	-6.1395124538e-002
 1.2729928734e+000	 8.5100864081e-001	-2.7051681767e-001
 1.2641936657e+000	 8.6402600551e-001	-4.8734533870e-001
 1.2552527364e+000	 8.7696472581e-001	-7.1093177633e-001
 1.2461711177e+000	 8.8982251485e-001	-8.3170075720e-001
 1.2369498905e+000	 9.0259710335e-001	-8.1395814226e-001
 1.2275901840e+000	 9.1528624091e-001	-8.0967604544e-001
 1.2180931753e+000	 9.2788769731e-001	-8.1788018066e-001
 1.2084600893e+000	 9.4039926372e-001	-8.3758650239e-001
 1.1986921976e+000	 9.5281875404e-001	-8.6780258188e-001
 1.1887908185e+000	 9.6514400605e-001	-9.0752899312e-001
 1.2868805985e+000	 8.4133499584e-001	-5.4228969678e-002
 1.2781887627e+000	 8.5448214547e-001	-2.4855724311e-001
 1.2693536398e+000	 8.6755264227e-001	-4.5143351890e-001
 1.2603762169e+000	 8.8054417367e-001	-6.6189270617e-001
 1.2512575304e+000	 8.9345444348e-001	-8.7895031099e-001
 1.2419986656e+000	 9.0628117316e-001	-8.8189280368e-001
 1.2326007561e+000	 9.1902210312e-001	-8.6364741212e-001
 1.2230649842e+000	 9.3167499403e-001	-8.5867005992e-001
 1.2133925794e+000	 9.4423762807e-001	-8.6595205909e-001
 1.2035848188e+000	 9.5670781018e-001	-8.8447559092e-001
 1.1936430259e+000	 9.6908336934e-001	-9.1321512129e-001
 1.2921118204e+000	 8.4475505679e-001	-5.4090828911e-002
 1.2833846520e+000	 8.5795565012e-001	-2.3341831185e-001
 1.2745136140e+000	 8.7107927902e-001	-4.2212919192e-001
 1.2654996975e+000	 8.8412362153e-001	-6.1924230163e-001
 1.2563439432e+000	 8.9708637211e-001	-8.2375598734e-001
 1.2470474406e+000	 9.0996524296e-001	-9.5405802375e-001
 1.2376113283e+000	 9.2275796533e-001	-9.2163555703e-001
 1.2280367931e+000	 9.3546229075e-001	-9.0325532453e-001
 1.2183250696e+000	 9.4807599241e-001	-8.9788403982e-001
 1.2084774400e+000	 9.6059686631e-001	-9.0447854411e-001
 1.1984952333e+000	 9.7302273263e-001	-9.2198725100e-001
 1.2973430424e+000	 8.4817511775e-001	-6.0896281480e-002
 1.2885805413e+000	 8.6142915477e-001	-2.2501791432e-001
 1.2796735881e+000	 8.7460591577e-001	-3.9935266165e-001
 1.2706231781e+000	 8.8770306939e-001	-5.8290338153e-001
 1.2614303559e+000	 9.0071830074e-001	-7.7465136476e-001
 1.2520962157e+000	 9.1364931277e-001	-9.7355705138e-001
 1.2426219005e+000	 9.2649382753e-001	-9.8362769795e-001
 1.2330086019e+000	 9.3924958748e-001	-9.5162655497e-001
 1.2232575597e+000	 9.5191435675e-001	-9.3337645570e-001
 1.2133700612e+000	 9.6448592245e-001	-9.2780894952e-001
 1.2033474408e+000	 9.7696209592e-001	-9.3384645179e-001
 1.3025742643e+000	 8.5159517871e-001	-7.4561709459e-002
 1.2937764305e+000	 8.6490265943e-001	-2.2327470202e-001
 1.2848335623e+000	 8.7813255253e-001	-3.8302494990e-001
 1.2757466586e+000	 8.9128251724e-001	-5.5279943817e-001
 1.2665167686e+000	 9.0435022937e-001	-7.3156250536e-001
 1.2571449907e+000	 9.1733338258e-001	-9.1825656954e-001
 1.2476324727e+000	 9.3022968974e-001	-1.0496115849e+000
 1.2379804108e+000	 9.4303688420e-001	-1.0037748143e+000
 1.2281900499e+000	 9.5575272109e-001	-9.7242374966e-001
 1.2182626824e+000	 9.6837497859e-001	-9.5446469494e-001
 1.2081996482e+000	 9.8090145921e-001	-9.4879411967e-001
 1.3078054863e+000	 8.5501523966e-001	-9.5004281691e-002
 1.2989723198e+000	 8.6837616408e-001	-2.2810807225e-001
 1.2899935364e+000	 8.8165918928e-001	-3.7306778205e-001
 1.2808701392e+000	 8.9486196510e-001	-5.2885462382e-001
 1.2716031813e+000	 9.0798215799e-001	-6.9441608637e-001
 1.2621937658e+000	 9.2101745238e-001	-8.6867666997e-001
 1.2526430448e+000	 9.3396555194e-001	-1.0505386779e+000
 1.2429522197e+000	 9.4682418092e-001	-1.0596916388e+000
 1.2331225401e+000	 9.5959108543e-001	-1.0150207878e+000
 1.2231553036e+000	 9.7226403473e-001	-9.8444404032e-001
 1.2130518556e+000	 9.8484082250e-001	-9.6683197064e-001
 1.1645297814e+000	 9.4544718961e-001	-9.2537465244e-001
 1.1547010445e+000	 9.5742649739e-001	-1.0507658470e+000
 1.1447442617e+000	 9.6930932910e-001	-1.1651331871e+000
 1.1346608574e+000	 9.8109364418e-001	-1.2684204909e+000
 1.1244522996e+000	 9.9277743021e-001	-1.3605886346e+000
 1.1141200984e+000	 1.0043587041e+000	-1.4416159245e+000
 1.1036658056e+000	 1.0158355131e+000	-1.5114984362e+000
 1.0930910140e+000	 1.0272059361e+000	-1.5702503183e+000
 1.0823973566e+000	 1.0384680845e+000	-1.6179040608e+000
 1.0715865057e+000	 1.0496201031e+000	-1.6545107261e+000
 1.0606601718e+000	 1.0606601718e+000	-1.6801401433e+000
 1.1693819888e+000	 9.4938655290e-001	-9.1563491133e-001
 1.1595122989e+000	 9.6141577446e-001	-1.0425162150e+000
 1.1495140294e+000	 9.7334811797e-001	-1.1586941262e+000
 1.1393886110e+000	 9.8518153436e-001	-1.2640816461e+000
 1.1291375175e+000	 9.9691400284e-001	-1.3586086066e+000
 1.1187622654e+000	 1.0085435320e+000	-1.4422220786e+000
 1.1082644131e+000	 1.0200681611e+000	-1.5148867472e+000
 1.0976455599e+000	 1.0314859609e+000	-1.5765852523e+000
 1.0869073456e+000	 1.0427950348e+000	-1.6273184936e+000
 1.0760514495e+000	 1.0539935202e+000	-1.6671058985e+000
 1.0650795892e+000	 1.0650795892e+000	-1.6959856523e+000
 1.1742341962e+000	 9.5332591619e-001	-9.0898096138e-001
 1.1643235532e+000	 9.6540505153e-001	-1.0370313473e+000
 1.1542837972e+000	 9.7738690684e-001	-1.1546942184e+000
 1.1441163646e+000	 9.8926942454e-001	-1.2618518694e+000
 1.1338227355e+000	 1.0010505755e+000	-1.3584032025e+000
 1.1234044325e+000	 1.0127283600e+000	-1.4442641718e+000
 1.1128630206e+000	 1.0243008091e+000	-1.5193681947e+000
 1.1022001058e+000	 1.0357659856e+000	-1.5836665292e+000
 1.0914173346e+000	 1.0471219852e+000	-1.6371286154e+000
 1.0805163932e+000	 1.0583669373e+000	-1.6797423799e+000
 1.0694990066e+000	 1.0694990066e+000	-1.7115145031e+000
 1.1790864037e+000	 9.5726527948e-001	-9.0541213597e-001
 1.1691348076e+000	 9.6939432860e-001	-1.0343151170e+000
 1.1590535649e+000	 9.8142569571e-001	-1.1531419056e+000
 1.1488441182e+000	 9.9335731473e-001	-1.2617441983e+000
 1.1385079534e+000	 1.0051871481e+000	-1.3599900798e+000
 1.1280465996e+000	 1.0169131879e+000	-1.4477645036e+000
 1.1174616281e+000	 1.0285334570e+000	-1.5249697399e+000
 1.1067546517e+000	 1.0400460103e+000	-1.5915257893e+000
 1.0959273236e+000	 1.0514489355e+000	-1.6473707604e+000
 1.0849813370e+000	 1.0627403544e+000	-1.6924612116e+000
 1.0739184239e+000	 1.0739184239e+000	-1.7267724535e+000
 1.1839386111e+000	 9.6120464277e-001	-9.0492813013e-001
 1.1739460619e+000	 9.7338360567e-001	-1.0343716880e+000
 1.1638233327e+000	 9.8546448458e-001	-1.1540458494e+000
 1.1535718717e+000	 9.9744520491e-001	-1.2637718182e+000
 1.1431931713e+000	 1.0093237207e+000	-1.3633869715e+000
 1.1326887667e+000	 1.0210980158e+000	-1.4527453762e+000
 1.1220602356e+000	 1.0327661050e+000	-1.5317182735e+000
 1.1113091976e+000	 1.0443260350e+000	-1.6001945284e+000
 1.1004373126e+000	 1.0557758859e+000	-1.6580810443e+000
 1.0894462808e+000	 1.0671137715e+000	-1.7053031407e+000
 1.0783378413e+000	 1.0783378413e+000	-1.7418048926e+000
 1.1887908185e+000	 9.6514400605e-001	-9.0752899312e-001
 1.1787573163e+000	 9.7737288274e-001	-1.0372055099e+000
 1.1685931004e+000	 9.8950327345e-001	-1.1574149271e+000
 1.1582996253e+000	 1.0015330951e+000	-1.2679480597e+000
 1.1478783892e+000	 1.0134602933e+000	-1.3686116848e+000
 1.1373309338e+000	 1.0252828438e+000	-1.4592290946e+000
 1.1266588432e+000	 1.0369987530e+000	-1.5396406168e+000
 1.1158637435e+000	 1.0486060598e+000	-1.6097041007e+000
 1.1049473016e+000	 1.0601028362e+000	-1.6692953681e+000
 1.0939112245e+000	 1.0714871886e+000	-1.7183086271e+000
 1.0827572587e+000	 1.0827572587e+000	-1.7566568481e+000
 1.1936430259e+000	 9.6908336934e-001	-9.1321512129e-001
 1.1835685706e+000	 9.8136215982e-001	-1.0428213110e+000
 1.1733628682e+000	 9.9354206232e-001	-1.1632582267e+000
 1.1630273789e+000	 1.0056209853e+000	-1.2742863953e+000
 1.1525636071e+000	 1.0175968660e+000	-1.3756820995e+000
 1.1419731008e+000	 1.0294676717e+000	-1.4672379663e+000
 1.1312574507e+000	 1.0412314009e+000	-1.5487635233e+000
 1.1204182893e+000	 1.0528860845e+000	-1.6200857216e+000
 1.1094572905e+000	 1.0644297866e+000	-1.6810494227e+000
 1.0983761683e+000	 1.0758606057e+000	-1.7315178486e+000
 1.0871766761e+000	 1.0871766761e+000	-1.7713729939e+000
 1.1984952333e+000	 9.7302273263e-001	-9.2198725100e-001
 1.1883798250e+000	 9.8535143689e-001	-1.0512240939e+000
 1.1781326360e+000	 9.9758085119e-001	-1.1715850431e+000
 1.1677551325e+000	 1.0097088755e+000	-1.2828004370e+000
 1.1572488250e+000	 1.0217334386e+000	-1.3846161669e+000
 1.1466152679e+000	 1.0336524996e+000	-1.4767943016e+000
 1.1358560582e+000	 1.0454640489e+000	-1.5591136803e+000
 1.1249728352e+000	 1.0571661093e+000	-1.6313704708e+000
 1.1139672795e+000	 1.0687567369e+000	-1.6933786934e+000
 1.1028411121e+000	 1.0802340228e+000	-1.7449707070e+000
 1.0915960935e+000	 1.0915960935e+000	-1.7859976570e+000
 1.2033474408e+000	 9.7696209592e-001	-9.3384645179e-001
 1.1931910793e+000	 9.8934071396e-001	-1.0624191290e+000
 1.1829024037e+000	 1.0016196401e+000	-1.1824048739e+000
 1.1724828860e+000	 1.0137967656e+000	-1.2935039332e+000
 1.1619340429e+000	 1.0258700112e+000	-1.3954319077e+000
 1.1512574350e+000	 1.0378373276e+000	-1.4879204134e+000
 1.1404546657e+000	 1.0496966969e+000	-1.5707177096e+000
 1.1295273811e+000	 1.0614461340e+000	-1.6435892945e+000
 1.1184772685e+000	 1.0730836873e+000	-1.7063184636e+000
 1.1073060559e+000	 1.0846074399e+000	-1.7587068334e+000
 1.0960155109e+000	 1.0960155109e+000	-1.8005748249e+000
 1.2081996482e+000	 9.8090145921e-001	-9.4879411967e-001
 1.1980023337e+000	 9.9332999103e-001	-1.0764119496e+000
 1.1876721715e+000	 1.0056584289e+000	-1.1957274151e+000
 1.1772106396e+000	 1.0178846558e+000	-1.3064107657e+000
 1.1666192609e+000	 1.0300065838e+000	-1.4081474111e+000
 1.1558996021e+000	 1.0420221555e+000	-1.5006386168e+000
 1.1450532733e+000	 1.0539293449e+000	-1.5836021697e+000
 1.1340819270e+000	 1.0657261587e+000	-1.6567730085e+000
 1.1229872575e+000	 1.0774106376e+000	-1.7199038191e+000
 1.1117709996e+000	 1.0889808570e+000	-1.7727655941e+000
 1.1004349282e+000	 1.1004349282e+000	-1.8151481518e+000
 1.2130518556e+000	 9.8484082250e-001	-9.6683197064e-001
 1.2028135880e+000	 9.9731926811e-001	-1.0932083466e+000
 1.1924419392e+000	 1.0096972178e+000	-1.2115625572e+000
 1.1819383932e+000	 1.0219725460e+000	-1.3215349478e+000
 1.1713044788e+000	 1.0341431565e+000	-1.4227808332e+000
 1.1605417691e+000	 1.0462069834e+000	-1.5149712298e+000
 1.1496518808e+000	 1.0581619928e+000	-1.5977935563e+000
 1.1386364729e+000	 1.0700061835e+000	-1.6709523007e+000
 1.1274972465e+000	 1.0817375880e+000	-1.7341696521e+000
 1.1162359434e+000	 1.0933542741e+000	-1.7871860951e+000
 1.1048543456e+000	 1.1048543456e+000	-1.8297609659e+000
 1.0606601718e+000	 1.0606601718e+000	-1.6801401433e+000
 1.0496201031e+000	 1.0715865057e+000	-1.6810615877e+000
 1.0384680845e+000	 1.0823973566e+000	-1.6914264268e+000
 1.0272059361e+000	 1.0930910140e+000	-1.7112529889e+000
 1.0158355131e+000	 1.1036658056e+000	-1.7405587151e+000
 1.0043587041e+000	 1.1141200984e+000	-1.7793603084e+000
 9.9277743021e-001	 1.1244522996e+000	-1.8276738694e+000
 9.8109364418e-001	 1.1346608574e+000	-1.8855150178e+000
 9.6930932910e-001	 1.1447442617e+000	-1.9528989984e+000
 9.5742649739e-001	 1.1547010445e+000	-2.0298407722e+000
 9.4544718961e-001	 1.1645297814e+000	-2.1163550924e+000
 1.0650795892e+000	 1.0650795892e+000	-1.6959856523e+000
 1.0539935202e+000	 1.0760514495e+000	-1.6990135051e+000
 1.0427950348e+000	 1.0869073456e+000	-1.7106339175e+000
 1.0314859609e+000	 1.0976455599e+000	-1.7308854300e+000
 1.0200681611e+000	 1.1082644131e+000	-1.7598065414e+000
 1.0085435320e+000	 1.1187622654e+000	-1.7974358376e+000
 9.9691400284e-001	 1.1291375175e+000	-1.8438121048e+000
 9.8518153436e-001	 1.1393886110e+000	-1.8989744268e+000
 9.7334811797e-001	 1.1495140294e+000	-1.9629622666e+000
 9.6141577446e-001	 1.1595122989e+000	-2.0358155314e+000
 9.4938655290e-001	 1.1693819888e+000	-2.1175746213e+000
 1.0694990066e+000	 1.0694990066e+000	-1.7115145031e+000
 1.0583669373e+000	 1.0805163932e+000	-1.7169412496e+000
 1.0471219852e+000	 1.0914173346e+000	-1.7301136105e+000
 1.0357659856e+000	 1.1022001058e+000	-1.7510901662e+000
 1.0243008091e+000	 1.1128630206e+000	-1.7799303011e+000
 1.0127283600e+000	 1.1234044325e+000	-1.8166943107e+000
 1.0010505755e+000	 1.1338227355e+000	-1.8614434928e+000
 9.8926942454e-001	 1.1441163646e+000	-1.9142402214e+000
 9.7738690684e-001	 1.1542837972e+000	-1.9751480030e+000
 9.6540505153e-001	 1.1643235532e+000	-2.0442315167e+000
 9.5332591619e-001	 1.1742341962e+000	-2.1215566352e+000
 1.0739184239e+000	 1.0739184239e+000	-1.7267724535e+000
 1.0627403544e+000	 1.0849813370e+000	-1.7348872309e+000
 1.0514489355e+000	 1.0959273236e+000	-1.7499044835e+000
 1.0400460103e+000	 1.1067546517e+000	-1.7719026617e+000
 1.0285334570e+000	 1.1174616281e+000	-1.8009618646e+000
 1.0169131879e+000	 1.1280465996e+000	-1.8371639257e+000
 1.0051871481e+000	 1.1385079534e+000	-1.8805924824e+000
 9.9335731473e-001	 1.1488441182e+000	-1.9313330261e+000
 9.8142569571e-001	 1.1590535649e+000	-1.9894729348e+000
 9.6939432860e-001	 1.1691348076e+000	-2.0551014865e+000
 9.5726527948e-001	 1.1790864037e+000	-2.1283098545e+000
 1.0783378413e+000	 1.0783378413e+000	-1.7418048926e+000
 1.0671137715e+000	 1.0894462808e+000	-1.7528935465e+000
 1.0557758859e+000	 1.1004373126e+000	-1.7700452604e+000
 1.0443260350e+000	 1.1113091976e+000	-1.7933581862e+000
 1.0327661050e+000	 1.1220602356e+000	-1.8229329680e+000
 1.0210980158e+000	 1.1326887667e+000	-1.8588728077e+000
 1.0093237207e+000	 1.1431931713e+000	-1.9012835116e+000
 9.9744520491e-001	 1.1535718717e+000	-1.9502735183e+000
 9.8546448458e-001	 1.1638233327e+000	-2.0059539061e+000
 9.7338360567e-001	 1.1739460619e+000	-2.0684383817e+000
 9.6120464277e-001	 1.1839386111e+000	-2.1378432479e+000
 1.0827572587e+000	 1.0827572587e+000	-1.7566568481e+000
 1.0714871886e+000	 1.0939112245e+000	-1.7710019886e+000
 1.0601028362e+000	 1.1049473016e+000	-1.7905744165e+000
 1.0486060598e+000	 1.1158637435e+000	-1.8154918184e+000
 1.0369987530e+000	 1.1266588432e+000	-1.8458752157e+000
 1.0252828438e+000	 1.1373309338e+000	-1.8818490100e+000
 1.0134602933e+000	 1.1478783892e+000	-1.9235410083e+000
 1.0015330951e+000	 1.1582996253e+000	-1.9710824271e+000
 9.8950327345e-001	 1.1685931004e+000	-2.0246078762e+000
 9.7737288274e-001	 1.1787573163e+000	-2.0842553219e+000
 9.6514400605e-001	 1.1887908185e+000	-2.1501660282e+000
 1.0871766761e+000	 1.0871766761e+000	-1.7713729939e+000
 1.0758606057e+000	 1.0983761683e+000	-1.7892540499e+000
 1.0644297866e+000	 1.1094572905e+000	-1.8115301835e+000
 1.0528860845e+000	 1.1204182893e+000	-1.8383384504e+000
 1.0412314009e+000	 1.1312574507e+000	-1.8698200830e+000
 1.0294676717e+000	 1.1419731008e+000	-1.9061205162e+000
 1.0175968660e+000	 1.1525636071e+000	-1.9473893902e+000
 1.0056209853e+000	 1.1630273789e+000	-1.9937805323e+000
 9.9354206232e-001	 1.1733628682e+000	-2.0454519166e+000
 9.8136215982e-001	 1.1835685706e+000	-2.1025656018e+000
 9.6908336934e-001	 1.1936430259e+000	-2.1652876467e+000
 1.0915960935e+000	 1.0915960935e+000	-1.7859976570e+000
 1.0802340228e+000	 1.1028411121e+000	-1.8076909299e+000
 1.0687567369e+000	 1.1139672795e+000	-1.8329505544e+000
 1.0571661093e+000	 1.1249728352e+000	-1.8619327911e+000
 1.0454640489e+000	 1.1358560582e+000	-1.8947989191e+000
 1.0336524996e+000	 1.1466152679e+000	-1.9317152410e+000
 1.0217334386e+000	 1.1572488250e+000	-1.9728530648e+000
 1.0097088755e+000	 1.1677551325e+000	-2.0183886632e+000
 9.9758085119e-001	 1.1781326360e+000	-2.0685032089e+000
 9.8535143689e-001	 1.1883798250e+000	-2.1233826879e+000
 9.7302273263e-001	 1.1984952333e+000	-2.1832177885e+000
 1.0960155109e+000	 1.0960155109e+000	-1.8005748249e+000
 1.0846074399e+000	 1.1073060559e+000	-1.8263535407e+000
 1.0730836873e+000	 1.1184772685e+000	-1.8548732883e+000
 1.0614461340e+000	 1.1295273811e+000	-1.8863093703e+000
 1.0496966969e+000	 1.1404546657e+000	-1.9208429491e+000
 1.0378373276e+000	 1.1512574350e+000	-1.9586610316e+000
 1.0258700112e+000	 1.1619340429e+000	-1.9999564299e+000
 1.0137967656e+000	 1.1724828860e+000	-2.0449276977e+000
 1.0016196401e+000	 1.1829024037e+000	-2.0937790428e+000
 9.8934071396e-001	 1.1931910793e+000	-2.1467202147e+000
 9.7696209592e-001	 1.2033474408e+000	-2.2039663680e+000
 1.1004349282e+000	 1.1004349282e+000	-1.8151481518e+000
 1.0889808570e+000	 1.1117709996e+000	-1.8452825128e+000
 1.0774106376e+000	 1.1229872575e+000	-1.8773359149e+000
 1.0657261587e+000	 1.1340819270e+000	-1.9115025417e+000
 1.0539293449e+000	 1.1450532733e+000	-1.9479832770e+000
 1.0420221555e+000	 1.1558996021e+000	-1.9869856697e+000
 1.0300065838e+000	 1.1666192609e+000	-2.0287238736e+000
 1.0178846558e+000	 1.1772106396e+000	-2.0734185615e+000
 1.0056584289e+000	 1.1876721715e+000	-2.1212968137e+000
 9.9332999103e-001	 1.1980023337e+000	-2.1725919814e+000
 9.8090145921e-001	 1.2081996482e+000	-2.2275435243e+000
 1.1048543456e+000	 1.1048543456e+000	-1.8297609659e+000
 1.0933542741e+000	 1.1162359434e+000	-1.8645182009e+000
 1.0817375880e+000	 1.1274972465e+000	-1.9003757398e+000
 1.0700061835e+000	 1.1386364729e+000	-1.9375464871e+000
 1.0581619928e+000	 1.1496518808e+000	-1.9762508878e+000
 1.0462069834e+000	 1.1605417691e+000	-2.0167168721e+000
 1.0341431565e+000	 1.1713044788e+000	-2.0591797748e+000
 1.0219725460e+000	 1.1819383932e+000	-2.1038822268e+000
 1.0096972178e+000	 1.1924419392e+000	-2.1510740205e+000
 9.9731926811e-001	 1.2028135880e+000	-2.2010119487e+000
 9.8484082250e-001	 1.2130518556e+000	-2.2539596164e+000
 9.4544718961e-001	 1.1645297814e+000	-2.1163550924e+000
 9.3337347334e-001	 1.1742290915e+000	-2.2006046924e+000
 9.2120744202e-001	 1.1837976385e+000	-2.2538194256e+000
 9.0895121369e-001	 1.1932341309e+000	-2.2756644946e+000
 8.9660692987e-001	 1.2025373231e+000	-2.2658454580e+000
 8.8417675430e-001	 1.2117060152e+000	-2.2241083856e+000
 8.7166287169e-001	 1.2207390541e+000	-2.1502399436e+000
 8.5906748651e-001	 1.2296353336e+000	-2.0440674102e+000
 8.4639282172e-001	 1.2383937949e+000	-1.9054586217e+000
 8.3364111753e-001	 1.2470134270e+000	-1.7343218495e+000
 8.2081463009e-001	 1.2554932668e+000	-1.8160632720e+000
 9.4938655290e-001	 1.1693819888e+000	-2.1175746213e+000
 9.3726252948e-001	 1.1791217127e+000	-2.1892364200e+000
 9.2504580636e-001	 1.1887301286e+000	-2.2279707812e+000
 9.1273851041e-001	 1.1982059398e+000	-2.2334094961e+000
 9.0034279208e-001	 1.2075478952e+000	-2.2052269011e+000
 8.8786082411e-001	 1.2167547902e+000	-2.1431400579e+000
 8.7529480032e-001	 1.2258254668e+000	-2.0469088607e+000
 8.6264693437e-001	 1.2347588142e+000	-1.9163360695e+000
 8.4991945848e-001	 1.2435537691e+000	-1.7512672720e+000
 8.3711462219e-001	 1.2522093163e+000	-1.6643299631e+000
 8.2423469105e-001	 1.2607244888e+000	-1.8724399490e+000
 9.5332591619e-001	 1.1742341962e+000	-2.1215566352e+000
 9.4115158562e-001	 1.1840143339e+000	-2.1801305065e+000
 9.2888417070e-001	 1.1936626188e+000	-2.2038974276e+000
 9.1652580714e-001	 1.2031777487e+000	-2.1924559752e+000
 9.0407865429e-001	 1.2125584674e+000	-2.1454494523e+000
 8.9154489392e-001	 1.2218035653e+000	-2.0625660939e+000
 8.7892672895e-001	 1.2309118795e+000	-1.9435391955e+000
 8.6622638223e-001	 1.2398822947e+000	-1.7881471648e+000
 8.5344609524e-001	 1.2487137432e+000	-1.5962134984e+000
 8.4058812685e-001	 1.2574052056e+000	-1.7439692853e+000
 8.2765475201e-001	 1.2659557107e+000	-1.9251083413e+000
 9.5726527948e-001	 1.1790864037e+000	-2.1283098545e+000
 9.4504064176e-001	 1.1889069551e+000	-2.1733017357e+000
 9.3272253504e-001	 1.1985951089e+000	-2.1816200125e+000
 9.2031310386e-001	 1.2081495576e+000	-2.1528302406e+000
 9.0781451650e-001	 1.2175690396e+000	-2.0865448765e+000
 8.9522896373e-001	 1.2268523404e+000	-1.9824235077e+000
 8.8255865759e-001	 1.2359982923e+000	-1.8401730022e+000
 8.6980583009e-001	 1.2450057753e+000	-1.6595475793e+000
 8.5697273200e-001	 1.2538737174e+000	-1.6335113707e+000
 8.4406163150e-001	 1.2626010949e+000	-1.8202540052e+000
 8.3107481297e-001	 1.2711869327e+000	-1.9740944237e+000
 9.6120464277e-001	 1.1839386111e+000	-2.1378432479e+000
 9.4892969790e-001	 1.1937995764e+000	-2.1687650407e+000
 9.3656089938e-001	 1.2035275991e+000	-2.1611592359e+000
 9.2410040059e-001	 1.2131213664e+000	-2.1145585601e+000
 9.1155037871e-001	 1.2225796118e+000	-2.0285448077e+000
 8.9891303354e-001	 1.2319011154e+000	-1.9027490951e+000
 8.8619058622e-001	 1.2410847050e+000	-1.7368520329e+000
 8.7338527795e-001	 1.2501292558e+000	-1.5369034800e+000
 8.6049936875e-001	 1.2590336915e+000	-1.7322306361e+000
 8.4753513616e-001	 1.2677969841e+000	-1.8932050558e+000
 8.3449487393e-001	 1.2764181546e+000	-2.0194235658e+000
 9.6514400605e-001	 1.1887908185e+000	-2.1501660282e+000
 9.5281875404e-001	 1.1986921976e+000	-2.1665355007e+000
 9.4039926372e-001	 1.2084600893e+000	-2.1425358497e+000
 9.2788769731e-001	 1.2180931753e+000	-2.0776671618e+000
 9.1528624091e-001	 1.2275901840e+000	-1.9714807511e+000
 9.0259710335e-001	 1.2369498905e+000	-1.8235794385e+000
 8.8982251485e-001	 1.2461711177e+000	-1.6336177438e+000
 8.7696472581e-001	 1.2552527364e+000	-1.6569337377e+000
 8.6402600551e-001	 1.2641936657e+000	-1.8279721929e+000
 8.5100864081e-001	 1.2729928734e+000	-1.9628428468e+000
 8.3791493488e-001	 1.2816493765e+000	-2.0611205446e+000
 9.6908336934e-001	 1.1936430259e+000	-2.1652876467e+000
 9.5670781018e-001	 1.2035848188e+000	-2.1666283379e+000
 9.4423762807e-001	 1.2133925794e+000	-2.1257706561e+000
 9.3167499403e-001	 1.2230649842e+000	-2.0421822344e+000
 9.1902210312e-001	 1.2326007561e+000	-1.9153840867e+000
 9.0628117316e-001	 1.2419986656e+000	-1.7449509106e+000
 8.9345444348e-001	 1.2512575304e+000	-1.5904604086e+000
 8.8054417367e-001	 1.2603762169e+000	-1.7743491372e+000
 8.6755264227e-001	 1.2693536398e+000	-1.9207514500e+000
 8.5448214547e-001	 1.2781887627e+000	-2.0291872750e+000
 8.4133499584e-001	 1.2868805985e+000	-2.0992095564e+000
 9.7302273263e-001	 1.1984952333e+000	-2.1832177885e+000
 9.6059686631e-001	 1.2084774400e+000	-2.1690589150e+000
 9.4807599241e-001	 1.2183250696e+000	-2.1108845069e+000
 9.3546229075e-001	 1.2280367931e+000	-2.0081299285e+000
 9.2275796533e-001	 1.2376113283e+000	-1.8602860710e+000
 9.0996524296e-001	 1.2470474406e+000	-1.6668996793e+000
 8.9708637211e-001	 1.2563439432e+000	-1.7284915327e+000
 8.8412362153e-001	 1.2654996975e+000	-1.8891600524e+000
 8.7107927902e-001	 1.2745136140e+000	-2.0105833835e+000
 8.5795565012e-001	 1.2833846520e+000	-2.0922577351e+000
 8.4475505679e-001	 1.2921118204e+000	-2.1337142285e+000
 9.7696209592e-001	 1.2033474408e+000	-2.2039663680e+000
 9.6448592245e-001	 1.2133700612e+000	-2.1738427320e+000
 9.5191435675e-001	 1.2232575597e+000	-2.0978983024e+000
 9.3924958748e-001	 1.2330086019e+000	-1.9755363570e+000
 9.2649382753e-001	 1.2426219005e+000	-1.8062178396e+000
 9.1364931277e-001	 1.2520962157e+000	-1.6867639594e+000
 9.0071830074e-001	 1.2614303559e+000	-1.8642824277e+000
 8.8770306939e-001	 1.2706231781e+000	-2.0013765046e+000
 8.7460591577e-001	 1.2796735881e+000	-2.0974825458e+000
 8.6142915477e-001	 1.2885805413e+000	-2.1520731293e+000
 8.4817511775e-001	 1.2973430424e+000	-2.1646576309e+000
 9.8090145921e-001	 1.2081996482e+000	-2.2275435243e+000
 9.6837497859e-001	 1.2182626824e+000	-2.1809954236e+000
 9.5575272109e-001	 1.2281900499e+000	-2.0868329905e+000
 9.4303688420e-001	 1.2379804108e+000	-1.9444275961e+000
 9.3022968974e-001	 1.2476324727e+000	-1.7532104100e+000
 9.1733338258e-001	 1.2571449907e+000	-1.8425420079e+000
 9.0435022937e-001	 1.2665167686e+000	-1.9978381322e+000
 8.9128251724e-001	 1.2757466586e+000	-2.1110081694e+000
 8.7813255253e-001	 1.2848335623e+000	-2.1814630736e+000
 8.6490265943e-001	 1.2937764305e+000	-2.2086518777e+000
 8.5159517871e-001	 1.3025742643e+000	-2.1920622873e+000
 9.8484082250e-001	 1.2130518556e+000	-2.2539596164e+000
 9.7226403473e-001	 1.2231553036e+000	-2.1905327565e+000
 9.5959108543e-001	 1.2331225401e+000	-2.0777095657e+000
 9.4682418092e-001	 1.2429522197e+000	-1.9148296858e+000
 9.3396555194e-001	 1.2526430448e+000	-1.8205781909e+000
 9.2101745238e-001	 1.2621937658e+000	-1.9964501492e+000
 9.0798215799e-001	 1.2716031813e+000	-2.1291634174e+000
 8.9486196510e-001	 1.2808701392e+000	-2.2180643840e+000
 8.8165918928e-001	 1.2899935364e+000	-2.2625386966e+000
 8.6837616408e-001	 1.2989723198e+000	-2.2620119275e+000
 8.5501523966e-001	 1.3078054863e+000	-2.2159501860e+000
 8.2081463009e-001	 1.2554932668e+000	-1.8160632720e+000
 8.0791563026e-001	 1.2638323996e+000	-1.9228446575e+000
 7.9494640228e-001	 1.2720299594e+000	-2.0091851759e+000
 7.8190924257e-001	 1.2800851286e+000	-2.0749603573e+000
 7.6880645837e-001	 1.2879971388e+000	-2.1200623993e+000
 7.5564036649e-001	 1.2957652706e+000	-2.1444003778e+000
 7.4241329204e-001	 1.3033888536e+000	-2.1479004347e+000
 7.2912756715e-001	 1.3108672667e+000	-2.1305059434e+000
 7.1578552968e-001	 1.3181999376e+000	-2.0921776497e+000
 7.0238952197e-001	 1.3253863434e+000	-2.0328937899e+000
 6.8894188958e-001	 1.3324260102e+000	-1.9526501840e+000
 8.2423469105e-001	 1.2607244888e+000	-1.8724399490e+000
 8.1128194538e-001	 1.2690983680e+000	-1.9556712473e+000
 7.9825867896e-001	 1.2773300842e+000	-2.0220252762e+000
 7.8516719775e-001	 1.2854188166e+000	-2.0714017497e+000
 7.7200981861e-001	 1.2933637935e+000	-2.1037135034e+000
 7.5878886801e-001	 1.3011642926e+000	-2.1188867150e+000
 7.4550668076e-001	 1.3088196405e+000	-2.1168611072e+000
 7.3216559868e-001	 1.3163292136e+000	-2.0975901325e+000
 7.1876796938e-001	 1.3236924373e+000	-2.0610411377e+000
 7.0531614497e-001	 1.3309087865e+000	-2.0071955099e+000
 6.9181248078e-001	 1.3379777853e+000	-1.9360488020e+000
 8.2765475201e-001	 1.2659557107e+000	-1.9251083413e+000
 8.1464826051e-001	 1.2743643363e+000	-1.9853161339e+000
 8.0157095563e-001	 1.2826302090e+000	-2.0321813083e+000
 7.8842515292e-001	 1.2907525046e+000	-2.0656275976e+000
 7.7521317885e-001	 1.2987304483e+000	-2.0855883290e+000
 7.6193736954e-001	 1.3065633145e+000	-2.0920066554e+000
 7.4860006947e-001	 1.3142504274e+000	-2.0848357725e+000
 7.3520363021e-001	 1.3217911605e+000	-2.0640391226e+000
 7.2175040909e-001	 1.3291849371e+000	-2.0295905839e+000
 7.0824276798e-001	 1.3364312296e+000	-1.9814746433e+000
 6.9468307199e-001	 1.3435295603e+000	-1.9196865545e+000
 8.3107481297e-001	 1.2711869327e+000	-1.9740944237e+000
 8.1801457563e-001	 1.2796303046e+000	-2.0117992105e+000
 8.0488323231e-001	 1.2879303338e+000	-2.0396674543e+000
 7.9168310810e-001	 1.2960861927e+000	-2.0576467433e+000
 7.7841653909e-001	 1.3040971030e+000	-2.0656907518e+000
 7.6508587106e-001	 1.3119623365e+000	-2.0637594812e+000
 7.5169345819e-001	 1.3196812143e+000	-2.0518194929e+000
 7.3824166173e-001	 1.3272531075e+000	-2.0298441310e+000
 7.2473284879e-001	 1.3346774368e+000	-1.9978137349e+000
 7.1116939099e-001	 1.3419536727e+000	-1.9557158404e+000
 6.9755366319e-001	 1.3490813353e+000	-1.9035453698e+000
 8.3449487393e-001	 1.2764181546e+000	-2.0194235658e+000
 8.2138089076e-001	 1.2848962730e+000	-2.0351398684e+000
 8.0819550898e-001	 1.2932304587e+000	-2.0444974911e+000
 7.9494106327e-001	 1.3014198807e+000	-2.0474677151e+000
 7.8161989933e-001	 1.3094637578e+000	-2.0440244175e+000
 7.6823437259e-001	 1.3173613584e+000	-2.0341443233e+000
 7.5478684690e-001	 1.3251120012e+000	-2.0178072526e+000
 7.4127969326e-001	 1.3327150544e+000	-1.9949963631e+000
 7.2771528850e-001	 1.3401699365e+000	-1.9656983859e+000
 7.1409601399e-001	 1.3474761158e+000	-1.9299038545e+000
 7.0042425440e-001	 1.3546331104e+000	-1.8876073269e+000
 8.3791493488e-001	 1.2816493765e+000	-2.0611205446e+000
 8.2474720588e-001	 1.2901622413e+000	-2.0553570067e+000
 8.1150778566e-001	 1.2985305835e+000	-2.0466847985e+000
 7.9819901845e-001	 1.3067535687e+000	-2.0350987328e+000
 7.8482325957e-001	 1.3148304125e+000	-2.0205927469e+000
 7.7138287411e-001	 1.3227603804e+000	-2.0031601645e+000
 7.5788023562e-001	 1.3305427881e+000	-1.9827939587e+000
 7.4431772479e-001	 1.3381770014e+000	-1.9594870126e+000
 7.3069772820e-001	 1.3456624363e+000	-1.9332323795e+000
 7.1702263700e-001	 1.3529985589e+000	-1.9040235394e+000
 7.0329484561e-001	 1.3601848854e+000	-1.8718546527e+000
 8.4133499584e-001	 1.2868805985e+000	-2.0992095564e+000
 8.2811352100e-001	 1.2954282096e+000	-2.0724690425e+000
 8.1482006233e-001	 1.3038307083e+000	-2.0462423671e+000
 8.0145697362e-001	 1.3120872568e+000	-2.0205477145e+000
 7.8802661981e-001	 1.3201970673e+000	-1.9953989401e+000
 7.7453137564e-001	 1.3281594024e+000	-1.9708058429e+000
 7.6097362433e-001	 1.3359735750e+000	-1.9467744430e+000
 7.4735575632e-001	 1.3436389483e+000	-1.9233072616e+000
 7.3368016791e-001	 1.3511549360e+000	-1.9004036048e+000
 7.1994926001e-001	 1.3585210020e+000	-1.8780598474e+000
 7.0616543681e-001	 1.3657366605e+000	-1.8562697191e+000
 8.4475505679e-001	 1.2921118204e+000	-2.1337142285e+000
 8.3147983613e-001	 1.3006941780e+000	-2.0864939210e+000
 8.1813233900e-001	 1.3091308332e+000	-2.0431828066e+000
 8.0471492880e-001	 1.3174209448e+000	-2.0038222825e+000
 7.9122998005e-001	 1.3255637220e+000	-1.9684459813e+000
 7.7767987716e-001	 1.3335584243e+000	-1.9370800543e+000
 7.6406701305e-001	 1.3414043619e+000	-1.9097434635e+000
 7.5039378785e-001	 1.3491008953e+000	-1.8864482810e+000
 7.3666260762e-001	 1.3566474358e+000	-1.8671999962e+000
 7.2287588302e-001	 1.3640434451e+000	-1.8519978274e+000
 7.0903602802e-001	 1.3712884355e+000	-1.8408350395e+000
 8.4817511775e-001	 1.2973430424e+000	-2.1646576309e+000
 8.3484615125e-001	 1.3059601463e+000	-2.0974491245e+000
 8.2144461568e-001	 1.3144309580e+000	-2.0375183531e+000
 8.0797288397e-001	 1.3227546329e+000	-1.9849297692e+000
 7.9443334030e-001	 1.3309303768e+000	-1.9397366429e+000
 7.8082837869e-001	 1.3389574463e+000	-1.9019813554e+000
 7.6716040176e-001	 1.3468351488e+000	-1.8716957058e+000
 7.5343181937e-001	 1.3545628422e+000	-1.8489012305e+000
 7.3964504732e-001	 1.3621399355e+000	-1.8336095328e+000
 7.2580250602e-001	 1.3695658882e+000	-1.8258226229e+000
 7.1190661923e-001	 1.3768402106e+000	-1.8255332666e+000
 8.5159517871e-001	 1.3025742643e+000	-2.1920622873e+000
 8.3821246637e-001	 1.3112261146e+000	-2.1053516820e+000
 8.2475689235e-001	 1.3197310828e+000	-2.0292608768e+000
 8.1123083915e-001	 1.3280883209e+000	-1.9638772234e+000
 7.9763670054e-001	 1.3362970315e+000	-1.9092734900e+000
 7.8397688021e-001	 1.3443564683e+000	-1.8655081663e+000
 7.7025379048e-001	 1.3522659356e+000	-1.8326257848e+000
 7.5646985090e-001	 1.3600247892e+000	-1.8106572592e+000
 7.4262748703e-001	 1.3676324353e+000	-1.7996202376e+000
 7.2872912903e-001	 1.3750883313e+000	-1.7995194702e+000
 7.1477721044e-001	 1.3823919856e+000	-1.8103471892e+000
 8.5501523966e-001	 1.3078054863e+000	-2.2159501860e+000
 8.4157878149e-001	 1.3164920830e+000	-2.1102181780e+000
 8.2806916902e-001	 1.3250312077e+000	-2.0184218893e+000
 8.1448879432e-001	 1.3334220089e+000	-1.9406714151e+000
 8.0084006078e-001	 1.3416636863e+000	-1.8770588842e+000
 7.8712538174e-001	 1.3497554902e+000	-1.8276587736e+000
 7.7334717919e-001	 1.3576967225e+000	-1.7925282458e+000
 7.5950788243e-001	 1.3654867361e+000	-1.7717075053e+000
 7.4560992674e-001	 1.3731249350e+000	-1.7652201761e+000
 7.3165575204e-001	 1.3806107744e+000	-1.7730736963e+000
 7.1764780164e-001	 1.3879437607e+000	-1.7952597297e+000
 6.8894188958e-001	 1.3324260102e+000	-1.9526501840e+000
 6.7544498005e-001	 1.3393185129e+000	-1.7985212858e+000
 6.6190114162e-001	 1.3460634750e+000	-1.6518029282e+000
 6.4831272206e-001	 1.3526605688e+000	-1.5124019616e+000
 6.3468206741e-001	 1.3591095148e+000	-1.3802179632e+000
 6.2101152079e-001	 1.3654100816e+000	-1.3020042262e+000
 6.0730342120e-001	 1.3715620856e+000	-1.3458671721e+000
 5.9356010237e-001	 1.3775653904e+000	-1.3983241705e+000
 5.7978389160e-001	 1.3834199070e+000	-1.4591402393e+000
 5.6597710858e-001	 1.3891255928e+000	-1.5280814994e+000
 5.5214206433e-001	 1.3946824516e+000	-1.6049158390e+000
 6.9181248078e-001	 1.3379777853e+000	-1.9360488020e+000
 6.7825933413e-001	 1.3448990067e+000	-1.7922324042e+000
 6.6465906304e-001	 1.3516720728e+000	-1.6544252216e+000
 6.5101402507e-001	 1.3582966545e+000	-1.5225278910e+000
 6.3732657603e-001	 1.3647724711e+000	-1.3964351419e+000
 6.2359906879e-001	 1.3710992903e+000	-1.2923553730e+000
 6.0983385212e-001	 1.3772769276e+000	-1.3386194522e+000
 5.9603326947e-001	 1.3833052462e+000	-1.3920273945e+000
 5.8219965781e-001	 1.3891841566e+000	-1.4523420716e+000
 5.6833534653e-001	 1.3949136161e+000	-1.5193288755e+000
 5.5444265626e-001	 1.4004936284e+000	-1.5927563719e+000
 6.9468307199e-001	 1.3435295603e+000	-1.9196865545e+000
 6.8107368821e-001	 1.3504795005e+000	-1.7860754264e+000
 6.6741698446e-001	 1.3572806706e+000	-1.6570846921e+000
 6.5371532808e-001	 1.3639327402e+000	-1.5326087274e+000
 6.3997108464e-001	 1.3704354274e+000	-1.4125373595e+000
 6.2618661679e-001	 1.3767884990e+000	-1.2967562750e+000
 6.1236428304e-001	 1.3829917696e+000	-1.3316805730e+000
 5.9850643656e-001	 1.3890451020e+000	-1.3860152248e+000
 5.8461542402e-001	 1.3949484062e+000	-1.4458158844e+000
 5.7069358448e-001	 1.4007016394e+000	-1.5108470870e+000
 5.5674324819e-001	 1.4063048053e+000	-1.5808779423e+000
 6.9755366319e-001	 1.3490813353e+000	-1.9035453698e+000
 6.8388804229e-001	 1.3560599943e+000	-1.7800341196e+000
 6.7017490589e-001	 1.3628892684e+000	-1.6597667968e+000
 6.5641663108e-001	 1.3695688259e+000	-1.5426314686e+000
 6.4261559325e-001	 1.3760983837e+000	-1.4285130052e+000
 6.2877416480e-001	 1.3824777076e+000	-1.3172934798e+000
 6.1489471396e-001	 1.3887066116e+000	-1.3250338496e+000
 6.0097960365e-001	 1.3947849578e+000	-1.3802721915e+000
 5.8703119024e-001	 1.4007126558e+000	-1.4395472727e+000
 5.7305182243e-001	 1.4064896627e+000	-1.5026226432e+000
 5.5904384013e-001	 1.4121159822e+000	-1.5692678231e+000
 7.0042425440e-001	 1.3546331104e+000	-1.8876073269e+000
 6.8670239637e-001	 1.3616404881e+000	-1.7740923751e+000
 6.7293282731e-001	 1.3684978662e+000	-1.6624570927e+000
 6.5911793409e-001	 1.3752049116e+000	-1.5525831908e+000
 6.4526010187e-001	 1.3817613400e+000	-1.4443505277e+000
 6.3136171280e-001	 1.3881669163e+000	-1.3376375014e+000
 6.1742514488e-001	 1.3944214536e+000	-1.3186626255e+000
 6.0345277074e-001	 1.4005248135e+000	-1.3747828417e+000
 5.8944695645e-001	 1.4064769054e+000	-1.4335218389e+000
 5.7541006038e-001	 1.4122776860e+000	-1.4946420535e+000
 5.6134443206e-001	 1.4179271591e+000	-1.5579132832e+000
 7.0329484561e-001	 1.3601848854e+000	-1.8718546527e+000
 6.8951675046e-001	 1.3672209819e+000	-1.7682342061e+000
 6.7569074873e-001	 1.3741064640e+000	-1.6651412353e+000
 6.6181923710e-001	 1.3808409973e+000	-1.5624510475e+000
 6.4790461048e-001	 1.3874242964e+000	-1.4600384340e+000
 6.3394926080e-001	 1.3938561250e+000	-1.3577780559e+000
 6.1995557581e-001	 1.4001362957e+000	-1.3125502720e+000
 6.0592593784e-001	 1.4062646693e+000	-1.3695317387e+000
 5.9186272267e-001	 1.4122411550e+000	-1.4277251924e+000
 5.7776829833e-001	 1.4180657093e+000	-1.4868918278e+000
 5.6364502400e-001	 1.4237383360e+000	-1.5468015871e+000
 7.0616543681e-001	 1.3657366605e+000	-1.8562697191e+000
 6.9233110454e-001	 1.3728014757e+000	-1.7624437451e+000
 6.7844867016e-001	 1.3797150618e+000	-1.6678049762e+000
 6.6452054011e-001	 1.3864770830e+000	-1.5722222673e+000
 6.5054911910e-001	 1.3930872527e+000	-1.4755652881e+000
 6.3653680881e-001	 1.3995453336e+000	-1.3777049005e+000
 6.2248600673e-001	 1.4058511377e+000	-1.3066801880e+000
 6.0839910493e-001	 1.4120045251e+000	-1.3645034619e+000
 5.9427848888e-001	 1.4180054046e+000	-1.4221429496e+000
 5.8012653629e-001	 1.4238537326e+000	-1.4793584762e+000
 5.6594561593e-001	 1.4295495128e+000	-1.5359199955e+000
 7.0903602802e-001	 1.3712884355e+000	-1.8408350395e+000
 6.9514545863e-001	 1.3783819695e+000	-1.7567052416e+000
 6.8120659158e-001	 1.3853236597e+000	-1.6704341612e+000
 6.6722184312e-001	 1.3921131687e+000	-1.5818841530e+000
 6.5319362771e-001	 1.3987502090e+000	-1.4909197097e+000
 6.3912435681e-001	 1.4052345423e+000	-1.3974078327e+000
 6.2501643766e-001	 1.4115659797e+000	-1.3012183917e+000
 6.1087227203e-001	 1.4177443809e+000	-1.3596826063e+000
 5.9669425510e-001	 1.4237696542e+000	-1.4167607338e+000
 5.8248477424e-001	 1.4296417559e+000	-1.4720285092e+000
 5.6824620787e-001	 1.4353606897e+000	-1.5252557652e+000
 7.1190661923e-001	 1.3768402106e+000	-1.8255332666e+000
 6.9795981271e-001	 1.3839624633e+000	-1.7510030595e+000
 6.8396451301e-001	 1.3909322575e+000	-1.6730147285e+000
 6.6992314613e-001	 1.3977492544e+000	-1.5914240797e+000
 6.5583813633e-001	 1.4044131653e+000	-1.5060903737e+000
 6.4171190482e-001	 1.4109237510e+000	-1.4168766893e+000
 6.2754686858e-001	 1.4172808217e+000	-1.3236502746e+000
 6.1334543913e-001	 1.4234842367e+000	-1.3550537822e+000
 5.9911002132e-001	 1.4295339038e+000	-1.4115641750e+000
 5.8484301220e-001	 1.4354297792e+000	-1.4648884375e+000
 5.7054679981e-001	 1.4411718666e+000	-1.5147961490e+000
 7.1477721044e-001	 1.3823919856e+000	-1.8103471892e+000
 7.0077416680e-001	 1.3895429571e+000	-1.7453216750e+000
 6.8672243443e-001	 1.3965408553e+000	-1.6755327069e+000
 6.7262444915e-001	 1.4033853401e+000	-1.6008294935e+000
 6.5848264495e-001	 1.4100761216e+000	-1.5210660083e+000
 6.4429945283e-001	 1.4166129597e+000	-1.4361013457e+000
 6.3007729951e-001	 1.4229956638e+000	-1.3458000638e+000
 6.1581860622e-001	 1.4292240925e+000	-1.3506016152e+000
 6.0152578754e-001	 1.4352981535e+000	-1.4065389100e+000
 5.8720125016e-001	 1.4412178025e+000	-1.4579247724e+000
 5.7284739175e-001	 1.4469830435e+000	-1.5045283960e+000
 7.1764780164e-001	 1.3879437607e+000	-1.7952597297e+000
 7.0358852088e-001	 1.3951234509e+000	-1.7396456745e+000
 6.8948035586e-001	 1.4021494531e+000	-1.6779742137e+000
 6.7532575216e-001	 1.4090214258e+000	-1.6100879101e+000
 6.6112715357e-001	 1.4157390779e+000	-1.5358353946e+000
 6.4688700084e-001	 1.4223021683e+000	-1.4550717151e+000
 6.3260773043e-001	 1.4287105058e+000	-1.3676586719e+000
 6.1829177332e-001	 1.4349639483e+000	-1.3463107454e+000
 6.0394155376e-001	 1.4410624031e+000	-1.4016705817e+000
 5.8955948811e-001	 1.4470058258e+000	-1.4511240253e+000
 5.7514798369e-001	 1.4527942204e+000	-1.4944397515e+000
 5.5214206433e-001	 1.3946824516e+000	-1.6049158390e+000
 5.3828106007e-001	 1.4000905329e+000	-1.5823321679e+000
 5.2439638615e-001	 1.4053499315e+000	-1.5545468222e+000
 5.1049032095e-001	 1.4104607872e+000	-1.5214666086e+000
 4.9656512994e-001	 1.4154232836e+000	-1.4830127854e+000
 4.8262306456e-001	 1.4202376482e+000	-1.4391213165e+000
 4.6866636131e-001	 1.4249041518e+000	-1.3897430894e+000
 4.5469724075e-001	 1.4294231071e+000	-1.3348440958e+000
 4.4071790656e-001	 1.4337948691e+000	-1.2744055769e+000
 4.2673054465e-001	 1.4380198337e+000	-1.2084241315e+000
 4.1273732227e-001	 1.4420984373e+000	-1.1369117892e+000
 5.5444265626e-001	 1.4004936284e+000	-1.5927563719e+000
 5.4052389782e-001	 1.4059242434e+000	-1.5666971386e+000
 5.2658137108e-001	 1.4112055563e+000	-1.5361131290e+000
 5.1261736395e-001	 1.4163377071e+000	-1.5009056100e+000
 4.9863415131e-001	 1.4213208806e+000	-1.4609898625e+000
 4.8463399400e-001	 1.4261553051e+000	-1.4162954526e+000
 4.7061913782e-001	 1.4308412524e+000	-1.3667664666e+000
 4.5659181258e-001	 1.4353790367e+000	-1.3123617099e+000
 4.4255423117e-001	 1.4397690144e+000	-1.2530548690e+000
 4.2850858859e-001	 1.4440115830e+000	-1.1888346372e+000
 4.1445706111e-001	 1.4481071808e+000	-1.1197048053e+000
 5.5674324819e-001	 1.4063048053e+000	-1.5808779423e+000
 5.4276673557e-001	 1.4117579540e+000	-1.5514324436e+000
 5.2876635602e-001	 1.4170611810e+000	-1.5181324265e+000
 5.1474440696e-001	 1.4222146270e+000	-1.4808735606e+000
 5.0070317268e-001	 1.4272184776e+000	-1.4395650973e+000
 4.8664492343e-001	 1.4320729620e+000	-1.3941301586e+000
 4.7257191432e-001	 1.4367783530e+000	-1.3445059890e+000
 4.5848638442e-001	 1.4413349663e+000	-1.2906441723e+000
 4.4439055578e-001	 1.4457431597e+000	-1.2325108105e+000
 4.3028663252e-001	 1.4500033323e+000	-1.1700866675e+000
 4.1617679995e-001	 1.4541159242e+000	-1.1033672765e+000
 5.5904384013e-001	 1.4121159822e+000	-1.5692678231e+000
 5.4500957332e-001	 1.4175916645e+000	-1.5365251316e+000
 5.3095134096e-001	 1.4229168057e+000	-1.5005916081e+000
 5.1687144996e-001	 1.4280915470e+000	-1.4613572668e+000
 5.0277219406e-001	 1.4331160746e+000	-1.4187252771e+000
 4.8865585286e-001	 1.4379906188e+000	-1.3726122695e+000
 4.7452469082e-001	 1.4427154536e+000	-1.3229486056e+000
 4.6038095625e-001	 1.4472908960e+000	-1.2696786113e+000
 4.4622688039e-001	 1.4517173050e+000	-1.2127607739e+000
 4.3206467646e-001	 1.4559950817e+000	-1.1521679031e+000
 4.1789653879e-001	 1.4601246677e+000	-1.0878872552e+000
 5.6134443206e-001	 1.4179271591e+000	-1.5579132832e+000
 5.4725241107e-001	 1.4234253751e+000	-1.5219622587e+000
 5.3313632590e-001	 1.4287724304e+000	-1.4834775850e+000
 5.1899849296e-001	 1.4339684669e+000	-1.4423435620e+000
 5.0484121543e-001	 1.4390136716e+000	-1.3984572238e+000
 4.9066678230e-001	 1.4439082757e+000	-1.3517286621e+000
 4.7647746732e-001	 1.4486525543e+000	-1.3020813127e+000
 4.6227552809e-001	 1.4532468256e+000	-1.2494522074e+000
 4.4806320500e-001	 1.4576914503e+000	-1.1937921874e+000
 4.3384272039e-001	 1.4619868310e+000	-1.1350660823e+000
 4.1961627763e-001	 1.4661334112e+000	-1.0732528518e+000
 5.6364502400e-001	 1.4237383360e+000	-1.5468015871e+000
 5.4949524882e-001	 1.4292590856e+000	-1.5077308884e+000
 5.3532131085e-001	 1.4346280551e+000	-1.4667772859e+000
 5.2112553596e-001	 1.4398453869e+000	-1.4238193062e+000
 5.0691023680e-001	 1.4449112686e+000	-1.3787477943e+000
 4.9267771173e-001	 1.4498259326e+000	-1.3314662541e+000
 4.7843024383e-001	 1.4545896549e+000	-1.2818911534e+000
 4.6417009992e-001	 1.4592027552e+000	-1.2299521918e+000
 4.4989952961e-001	 1.4636655956e+000	-1.1755925329e+000
 4.3562076433e-001	 1.4679785803e+000	-1.1187689998e+000
 4.2133601647e-001	 1.4721421547e+000	-1.0594522343e+000
 5.6594561593e-001	 1.4295495128e+000	-1.5359199955e+000
 5.5173808657e-001	 1.4350927962e+000	-1.4938180910e+000
 5.3750629579e-001	 1.4404836798e+000	-1.4504776565e+000
 5.2325257897e-001	 1.4457223068e+000	-1.4057713853e+000
 5.0897925818e-001	 1.4508088656e+000	-1.3595838785e+000
 4.9468864117e-001	 1.4557435894e+000	-1.3118120035e+000
 4.8038302034e-001	 1.4605267555e+000	-1.2623652161e+000
 4.6606467176e-001	 1.4651586848e+000	-1.2111658459e+000
 4.5173585422e-001	 1.4696397409e+000	-1.1581493459e+000
 4.3739880826e-001	 1.4739703296e+000	-1.1032645054e+000
 4.2305575532e-001	 1.4781508982e+000	-1.0464736268e+000
 5.6824620787e-001	 1.4353606897e+000	-1.5252557652e+000
 5.5398092432e-001	 1.4409265068e+000	-1.4802109440e+000
 5.3969128073e-001	 1.4463393046e+000	-1.4345656595e+000
 5.2537962197e-001	 1.4515992268e+000	-1.3881867106e+000
 5.1104827955e-001	 1.4567064627e+000	-1.3409523997e+000
 4.9669957060e-001	 1.4616612463e+000	-1.2927529079e+000
 4.8233579684e-001	 1.4664638562e+000	-1.2434906343e+000
 4.6795924360e-001	 1.4711146144e+000	-1.1930804999e+000
 4.5357217883e-001	 1.4756138862e+000	-1.1414502136e+000
 4.3917685220e-001	 1.4799620789e+000	-1.0885405031e+000
 4.2477549416e-001	 1.4841596417e+000	-1.0343053084e+000
 5.7054679981e-001	 1.4411718666e+000	-1.5147961490e+000
 5.5622376207e-001	 1.4467602173e+000	-1.4668965318e+000
 5.4187626568e-001	 1.4521949293e+000	-1.4190282736e+000
 5.2750666498e-001	 1.4574761467e+000	-1.3710522183e+000
 5.1311730093e-001	 1.4626040597e+000	-1.3228403134e+000
 4.9871050004e-001	 1.4675789032e+000	-1.2742760031e+000
 4.8428857335e-001	 1.4724009568e+000	-1.2252545852e+000
 4.6985381543e-001	 1.4770705440e+000	-1.1756835321e+000
 4.5540850344e-001	 1.4815880314e+000	-1.1254827745e+000
 4.4095489614e-001	 1.4859538282e+000	-1.0745849497e+000
 4.2649523301e-001	 1.4901683852e+000	-1.0229356121e+000
 5.7284739175e-001	 1.4469830435e+000	-1.5045283960e+000
 5.5846659983e-001	 1.4525939279e+000	-1.4538619452e+000
 5.4406125062e-001	 1.4580505540e+000	-1.4038524939e+000
 5.2963370799e-001	 1.4633530667e+000	-1.3543548689e+000
 5.1518632231e-001	 1.4685016567e+000	-1.3052346066e+000
 5.0072142948e-001	 1.4734965601e+000	-1.2563683630e+000
 4.8624134986e-001	 1.4783380575e+000	-1.2076442888e+000
 4.7174838727e-001	 1.4830264737e+000	-1.1589623676e+000
 4.5724482805e-001	 1.4875621767e+000	-1.1102347169e+000
 4.4273294008e-001	 1.4919455775e+000	-1.0613858541e+000
 4.2821497185e-001	 1.4961771287e+000	-1.0123529239e+000
 5.7514798369e-001	 1.4527942204e+000	-1.4944397515e+000
 5.6070943758e-001	 1.4584276384e+000	-1.4410942819e+000
 5.4624623557e-001	 1.4639061787e+000	-1.3890253313e+000
 5.3176075100e-001	 1.4692299866e+000	-1.3380816472e+000
 5.1725534369e-001	 1.4743992537e+000	-1.2881222974e+000
 5.0273235892e-001	 1.4794142169e+000	-1.2390170984e+000
 4.8819412637e-001	 1.4842751581e+000	-1.1906470073e+000
 4.7364295911e-001	 1.4889824033e+000	-1.1429044776e+000
 4.5908115267e-001	 1.4935363220e+000	-1.0956937782e+000
 4.4451098401e-001	 1.4979373268e+000	-1.0489312760e+000
 4.2993471070e-001	 1.5021858722e+000	-1.0025456813e+000
 4.1273732227e-001	 1.4420984373e+000	-1.1369117892e+000
 3.9874038711e-001	 1.4460311559e+000	-1.1209544119e+000
 3.8474186652e-001	 1.4498185046e+000	-1.1044628772e+000
 3.7074386670e-001	 1.4534610367e+000	-1.0873132119e+000
 3.5674847188e-001	 1.4569593432e+000	-1.0693953328e+000
 3.4275774362e-001	 1.4603140516e+000	-1.0506131497e+000
 3.2877372007e-001	 1.4635258252e+000	-1.0308846349e+000
 3.1479841526e-001	 1.4665953627e+000	-1.0101418579e+000
 3.0083381850e-001	 1.4695233968e+000	-9.8833098702e-001
 2.8688189366e-001	 1.4723106938e+000	-9.6541225803e-001
 2.7294457865e-001	 1.4749580526e+000	-9.4135991170e-001
 4.1445706111e-001	 1.4481071808e+000	-1.1197048053e+000
 4.0040180538e-001	 1.4520562857e+000	-1.1043812523e+000
 3.8634495763e-001	 1.4558594150e+000	-1.0882914477e+000
 3.7228863281e-001	 1.4595171244e+000	-1.0713110753e+000
 3.5823492385e-001	 1.4630300072e+000	-1.0533300448e+000
 3.4418590089e-001	 1.4663986935e+000	-1.0342525921e+000
 3.3014361057e-001	 1.4696238495e+000	-1.0139973455e+000
 3.1611007533e-001	 1.4727061767e+000	-9.9249735624e-001
 3.0208729274e-001	 1.4756464109e+000	-9.6970009623e-001
 2.8807723488e-001	 1.4784453217e+000	-9.4556742182e-001
 2.7408184772e-001	 1.4811037112e+000	-9.2007550586e-001
 4.1617679995e-001	 1.4541159242e+000	-1.1033672765e+000
 4.0206322366e-001	 1.4580814155e+000	-1.0887275998e+000
 3.8794804874e-001	 1.4619003254e+000	-1.0730894993e+000
 3.7383339892e-001	 1.4655732120e+000	-1.0563282459e+000
 3.5972137581e-001	 1.4691006711e+000	-1.0383336738e+000
 3.4561405815e-001	 1.4724833353e+000	-1.0190102789e+000
 3.3151350107e-001	 1.4757218737e+000	-9.9827728166e-001
 3.1742173539e-001	 1.4788169907e+000	-9.7606865385e-001
 3.0334076698e-001	 1.4817694251e+000	-9.5233311189e-001
 2.8927257611e-001	 1.4845799496e+000	-9.2703407605e-001
 2.7521911680e-001	 1.4872493697e+000	-9.0014959716e-001
 4.1789653879e-001	 1.4601246677e+000	-1.0878872552e+000
 4.0372464194e-001	 1.4641065453e+000	-1.0739815808e+000
 3.8955113985e-001	 1.4679412359e+000	-1.0588452097e+000
 3.7537816503e-001	 1.4716292997e+000	-1.0423529287e+000
 3.6120782778e-001	 1.4751713350e+000	-1.0243944283e+000
 3.4704221542e-001	 1.4785679772e+000	-1.0048743985e+000
 3.3288339157e-001	 1.4818198980e+000	-9.8371258799e-001
 3.1873339545e-001	 1.4849278047e+000	-9.6084382780e-001
 3.0459424123e-001	 1.4878924392e+000	-9.3621801991e-001
 2.9046791733e-001	 1.4907145775e+000	-9.0980009198e-001
 2.7635638588e-001	 1.4933950283e+000	-8.8156991876e-001
 4.1961627763e-001	 1.4661334112e+000	-1.0732528518e+000
 4.0538606022e-001	 1.4701316751e+000	-1.0601313865e+000
 3.9115423096e-001	 1.4739821463e+000	-1.0455468268e+000
 3.7692293114e-001	 1.4776853873e+000	-1.0293734050e+000
 3.6269427975e-001	 1.4812419989e+000	-1.0115005997e+000
 3.4847037268e-001	 1.4846526191e+000	-9.9183322886e-001
 3.3425328207e-001	 1.4879179223e+000	-9.7029150571e-001
 3.2004505552e-001	 1.4910386187e+000	-9.4681105906e-001
 3.0584771547e-001	 1.4940154534e+000	-9.2134291762e-001
 2.9166325855e-001	 1.4968492054e+000	-8.9385345997e-001
 2.7749365496e-001	 1.4995406868e+000	-8.6432433079e-001
 4.2133601647e-001	 1.4721421547e+000	-1.0594522343e+000
 4.0704747850e-001	 1.4761568049e+000	-1.0471652705e+000
 3.9275732207e-001	 1.4800230567e+000	-1.0331826671e+000
 3.7846769726e-001	 1.4837414750e+000	-1.0173780313e+000
 3.6418073171e-001	 1.4873126629e+000	-9.9964056104e-001
 3.4989852995e-001	 1.4907372610e+000	-9.7987513614e-001
 3.3562317257e-001	 1.4940159466e+000	-9.5800237086e-001
 3.2135671558e-001	 1.4971494327e+000	-9.3395863046e-001
 3.0710118972e-001	 1.5001384675e+000	-9.0769601148e-001
 2.9285859978e-001	 1.5029838333e+000	-8.7918228701e-001
 2.7863092403e-001	 1.5056863454e+000	-8.4840081775e-001
 4.2305575532e-001	 1.4781508982e+000	-1.0464736268e+000
 4.0870889678e-001	 1.4821819347e+000	-1.0350715486e+000
 3.9436041318e-001	 1.4860639672e+000	-1.0217411150e+000
 3.8001246337e-001	 1.4897975626e+000	-1.0063552373e+000
 3.6566718368e-001	 1.4933833268e+000	-9.8880276465e-001
 3.5132668722e-001	 1.4968219029e+000	-9.6898857250e-001
 3.3699306307e-001	 1.5001139708e+000	-9.4683361235e-001
 3.2266837565e-001	 1.5032602467e+000	-9.2227492463e-001
 3.0835466396e-001	 1.5062614817e+000	-8.9526561489e-001
 2.9405394100e-001	 1.5091184612e+000	-8.6577479438e-001
 2.7976819311e-001	 1.5118320039e+000	-8.3378748602e-001
 4.2477549416e-001	 1.4841596417e+000	-1.0343053084e+000
 4.1037031506e-001	 1.4882070645e+000	-1.0238385966e+000
 3.9596350430e-001	 1.4921048776e+000	-1.0112106206e+000
 3.8155722948e-001	 1.4958536503e+000	-9.9629352481e-001
 3.6715363565e-001	 1.4994539907e+000	-9.7897574114e-001
 3.5275484448e-001	 1.5029065447e+000	-9.5916207453e-001
 3.3836295357e-001	 1.5062119951e+000	-9.3677375002e-001
 3.2398003571e-001	 1.5093710607e+000	-9.1174842193e-001
 3.0960813820e-001	 1.5123844958e+000	-8.8404014600e-001
 2.9524928222e-001	 1.5152530890e+000	-8.5361931536e-001
 2.8090546219e-001	 1.5179776625e+000	-8.2047256136e-001
 4.2649523301e-001	 1.4901683852e+000	-1.0229356121e+000
 4.1203173334e-001	 1.4942321944e+000	-1.0134548499e+000
 3.9756659541e-001	 1.4981457880e+000	-1.0015796989e+000
 3.8310199559e-001	 1.5019097379e+000	-9.8718146612e-001
 3.6864008761e-001	 1.5055246547e+000	-9.7014809756e-001
 3.5418300175e-001	 1.5089911866e+000	-9.5038426155e-001
 3.3973284407e-001	 1.5123100194e+000	-9.2781139288e-001
 3.2529169577e-001	 1.5154818747e+000	-9.0236769851e-001
 3.1086161245e-001	 1.5185075100e+000	-8.7400812561e-001
 2.9644462345e-001	 1.5213877169e+000	-8.4270429292e-001
 2.8204273126e-001	 1.5241233211e+000	-8.0844438652e-001
 4.2821497185e-001	 1.4961771287e+000	-1.0123529239e+000
 4.1369315162e-001	 1.5002573242e+000	-1.0039088016e+000
 3.9916968652e-001	 1.5041866985e+000	-9.9283692827e-001
 3.8464676171e-001	 1.5079658256e+000	-9.7900770255e-001
 3.7012653958e-001	 1.5115953186e+000	-9.6230851591e-001
 3.5561115901e-001	 1.5150758285e+000	-9.4264383388e-001
 3.4110273457e-001	 1.5184080436e+000	-9.1993523729e-001
 3.2660335584e-001	 1.5215926887e+000	-8.9412142442e-001
 3.1211508669e-001	 1.5246305241e+000	-8.6515817511e-001
 2.9763996467e-001	 1.5275223448e+000	-8.3301827754e-001
 2.8318000034e-001	 1.5302689796e+000	-7.9769141886e-001
 4.2993471070e-001	 1.5021858722e+000	-1.0025456813e+000
 4.1535456991e-001	 1.5062824540e+000	-9.9518900169e-001
 4.0077277763e-001	 1.5102276089e+000	-9.8497094929e-001
 3.8619152782e-001	 1.5140219133e+000	-9.7176094316e-001
 3.7161299155e-001	 1.5176659825e+000	-9.5544575166e-001
 3.5703931628e-001	 1.5211604704e+000	-9.3592957131e-001
 3.4247262508e-001	 1.5245060679e+000	-9.1313406518e-001
 3.2791501590e-001	 1.5277035028e+000	-8.8699836164e-001
 3.1336856094e-001	 1.5307535383e+000	-8.5747901446e-001
 2.9883530589e-001	 1.5336569727e+000	-8.2454992507e-001
 2.8431726942e-001	 1.5364146382e+000	-7.8820222812e-001
 2.7294457865e-001	 1.4749580526e+000	-9.4135991170e-001
 2.5902378478e-001	 1.4774663038e+000	-9.3545223919e-001
 2.4512139628e-001	 1.4798363089e+000	-9.2654966555e-001
 2.3123926972e-001	 1.4820689593e+000	-9.1473183165e-001
 2.1737923356e-001	 1.4841651757e+000	-9.0009229137e-001
 2.0354308769e-001	 1.4861259070e+000	-8.8273823210e-001
 1.8973260299e-001	 1.4879521294e+000	-8.6279017110e-001
 1.7594952094e-001	 1.4896448456e+000	-8.4038162886e-001
 1.6219555325e-001	 1.4912050840e+000	-8.1565878085e-001
 1.4847238150e-001	 1.4926338975e+000	-7.8878008888e-001
 1.3478165685e-001	 1.4939323629e+000	-7.5991591363e-001
 2.7408184772e-001	 1.4811037112e+000	-9.2007550586e-001
 2.6010305055e-001	 1.4836224134e+000	-9.1343979934e-001
 2.4614273543e-001	 1.4860022935e+000	-9.0394399257e-001
 2.3220276668e-001	 1.4882442466e+000	-8.9166543427e-001
 2.1828498037e-001	 1.4903491973e+000	-8.7669545992e-001
 2.0439118389e-001	 1.4923180983e+000	-8.5913911416e-001
 1.9052315550e-001	 1.4941519299e+000	-8.3911484882e-001
 1.7668264394e-001	 1.4958516991e+000	-8.1675419756e-001
 1.6287136805e-001	 1.4974184385e+000	-7.9220142862e-001
 1.4909101642e-001	 1.4988532054e+000	-7.6561317698e-001
 1.3534324708e-001	 1.5001570811e+000	-7.3715805727e-001
 2.7521911680e-001	 1.4872493697e+000	-9.0014959716e-001
 2.6118231632e-001	 1.4897785230e+000	-8.9280443228e-001
 2.4716407458e-001	 1.4921682781e+000	-8.8273040619e-001
 2.3316626364e-001	 1.4944195340e+000	-8.7000256710e-001
 2.1919072717e-001	 1.4965332189e+000	-8.5471002725e-001
 2.0523928009e-001	 1.4985102896e+000	-8.3695568731e-001
 1.9131370801e-001	 1.5003517305e+000	-8.1685593588e-001
 1.7741576695e-001	 1.5020585527e+000	-7.9454032541e-001
 1.6354718286e-001	 1.5036317930e+000	-7.7015122595e-001
 1.4970965134e-001	 1.5050725133e+000	-7.4384345792e-001
 1.3590483732e-001	 1.5063817993e+000	-7.1578390545e-001
 2.7635638588e-001	 1.4933950283e+000	-8.8156991876e-001
 2.6226158209e-001	 1.4959346326e+000	-8.7353405294e-001
 2.4818541374e-001	 1.4983342628e+000	-8.6289701551e-001
 2.3412976059e-001	 1.5005948213e+000	-8.4973154542e-001
 2.2009647398e-001	 1.5027172404e+000	-8.3412452658e-001
 2.0608737628e-001	 1.5047024808e+000	-8.1617671408e-001
 1.9210426052e-001	 1.5065515310e+000	-7.9600243518e-001
 1.7814888995e-001	 1.5082654062e+000	-7.7372926647e-001
 1.6422299766e-001	 1.5098451475e+000	-7.4949768848e-001
 1.5032828626e-001	 1.5112918212e+000	-7.2346071909e-001
 1.3646642755e-001	 1.5126065175e+000	-6.9578352714e-001
 2.7749365496e-001	 1.4995406868e+000	-8.6432433079e-001
 2.6334084786e-001	 1.5020907422e+000	-8.5561670571e-001
 2.4920675289e-001	 1.5045002474e+000	-8.4443206116e-001
 2.3509325755e-001	 1.5067701086e+000	-8.3084081781e-001
 2.2100222078e-001	 1.5089012620e+000	-8.1492762576e-001
 2.0693547248e-001	 1.5108946721e+000	-7.9679109262e-001
 1.9289481304e-001	 1.5127513316e+000	-7.7654348589e-001
 1.7888201295e-001	 1.5144722597e+000	-7.5431041131e-001
 1.6489881246e-001	 1.5160585021e+000	-7.3023046829e-001
 1.5094692119e-001	 1.5175111291e+000	-7.0445488383e-001
 1.3702801779e-001	 1.5188312356e+000	-6.7714712643e-001
 2.7863092403e-001	 1.5056863454e+000	-8.4840081775e-001
 2.6442011363e-001	 1.5082468518e+000	-8.3904056179e-001
 2.5022809204e-001	 1.5106662320e+000	-8.2732391267e-001
 2.3605675450e-001	 1.5129453960e+000	-8.1331896340e-001
 2.2190796759e-001	 1.5150852836e+000	-7.9710812453e-001
 2.0778356868e-001	 1.5170868634e+000	-7.7878785393e-001
 1.9368536555e-001	 1.5189511321e+000	-7.5846836064e-001
 1.7961513596e-001	 1.5206791132e+000	-7.3627328424e-001
 1.6557462727e-001	 1.5222718566e+000	-7.1233935108e-001
 1.5156555611e-001	 1.5237304370e+000	-6.8681600870e-001
 1.3758960803e-001	 1.5250559538e+000	-6.5986503989e-001
 2.7976819311e-001	 1.5118320039e+000	-8.3378748602e-001
 2.6549937940e-001	 1.5144029614e+000	-8.2379391660e-001
 2.5124943119e-001	 1.5168322166e+000	-8.1156106579e-001
 2.3702025146e-001	 1.5191206833e+000	-7.9715468923e-001
 2.2281371440e-001	 1.5212693051e+000	-7.8065495183e-001
 2.0863166488e-001	 1.5232790547e+000	-7.6215615919e-001
 1.9447591806e-001	 1.5251509326e+000	-7.4176646282e-001
 1.8034825896e-001	 1.5268859668e+000	-7.1960754056e-001
 1.6625044207e-001	 1.5284852111e+000	-6.9581425348e-001
 1.5218419103e-001	 1.5299497449e+000	-6.7053428075e-001
 1.3815119826e-001	 1.5312806720e+000	-6.4392773379e-001
 2.8090546219e-001	 1.5179776625e+000	-8.2047256136e-001
 2.6657864517e-001	 1.5205590710e+000	-8.0986518730e-001
 2.5227077034e-001	 1.5229982012e+000	-7.9713213997e-001
 2.3798374842e-001	 1.5252959706e+000	-7.8233682766e-001
 2.2371946120e-001	 1.5274533267e+000	-7.6555716321e-001
 2.0947976107e-001	 1.5294712460e+000	-7.4688529710e-001
 1.9526647057e-001	 1.5313507332e+000	-7.2642732396e-001
 1.8108138196e-001	 1.5330928203e+000	-7.0430296396e-001
 1.6692625688e-001	 1.5346985656e+000	-6.8064522040e-001
 1.5280282595e-001	 1.5361690528e+000	-6.5560001487e-001
 1.3871278850e-001	 1.5375053902e+000	-6.2932580149e-001
 2.8204273126e-001	 1.5241233211e+000	-8.0844438652e-001
 2.6765791094e-001	 1.5267151806e+000	-7.9724291029e-001
 2.5329210949e-001	 1.5291641859e+000	-7.8402587586e-001
 2.3894724537e-001	 1.5314712580e+000	-7.6885433383e-001
 2.2462520801e-001	 1.5336373483e+000	-7.5180393825e-001
 2.1032785727e-001	 1.5356634373e+000	-7.3296468130e-001
 1.9605702308e-001	 1.5375505337e+000	-7.1244060107e-001
 1.8181450496e-001	 1.5392996738e+000	-6.9034946389e-001
 1.6760207168e-001	 1.5409119201e+000	-6.6682242244e-001
 1.5342146087e-001	 1.5423883608e+000	-6.4200365126e-001
 1.3927437873e-001	 1.5437301084e+000	-6.1604996092e-001
 2.8318000034e-001	 1.5302689796e+000	-7.9769141886e-001
 2.6873717671e-001	 1.5328712902e+000	-7.8591573885e-001
 2.5431344864e-001	 1.5353301705e+000	-7.7223113289e-001
 2.3991074233e-001	 1.5376465453e+000	-7.5669628324e-001
 2.2553095481e-001	 1.5398213698e+000	-7.3938457809e-001
 2.1117595347e-001	 1.5418556285e+000	-7.2038384789e-001
 1.9684757559e-001	 1.5437503343e+000	-6.9979607423e-001
 1.8254762797e-001	 1.5455065273e+000	-6.7773707305e-001
 1.6827788648e-001	 1.5471252747e+000	-6.5433615335e-001
 1.5404009579e-001	 1.5486076687e+000	-6.2973575284e-001
 1.3983596897e-001	 1.5499548265e+000	-6.0409105204e-001
 2.8431726942e-001	 1.5364146382e+000	-7.8820222812e-001
 2.6981644248e-001	 1.5390273998e+000	-7.7587244079e-001
 2.5533478779e-001	 1.5414961551e+000	-7.6173688687e-001
 2.4087423928e-001	 1.5438218326e+000	-7.4585186925e-001
 2.2643670162e-001	 1.5460053914e+000	-7.2828850299e-001
 2.1202404967e-001	 1.5480478198e+000	-7.0913245296e-001
 1.9763812810e-001	 1.5499501348e+000	-6.8848364402e-001
 1.8328075097e-001	 1.5517133809e+000	-6.6645594493e-001
 1.6895370129e-001	 1.5533386292e+000	-6.4317682761e-001
 1.5465873072e-001	 1.5548269766e+000	-6.1878700286e-001
 1.4039755921e-001	 1.5561795447e+000	-5.9344003440e-001
 1.3478165685e-001	 1.4939323629e+000	-7.5991591363e-001
 1.2112499973e-001	 1.4951015800e+000	-7.6687001679e-001
 1.0750399959e-001	 1.4961426704e+000	-7.7042482780e-001
 9.3920214683e-002	 1.4970567769e+000	-7.7077456547e-001
 8.0375171815e-002	 1.4978450627e+000	-7.6812524885e-001
 6.6870366204e-002	 1.4985087101e+000	-7.6269420492e-001
 5.3407261309e-002	 1.4990489200e+000	-7.5470956454e-001
 3.9987288703e-002	 1.4994669109e+000	-7.4440974797e-001
 2.6611847965e-002	 1.4997639179e+000	-7.3204294139e-001
 1.3282306604e-002	 1.4999411923e+000	-7.1786656575e-001
 0.0000000000e+000	 1.5000000000e+000	-7.0214673943e-001
 1.3534324708e-001	 1.5001570811e+000	-7.3715805727e-001
 1.2162968722e-001	 1.5013311699e+000	-7.4415824563e-001
 1.0795193292e-001	 1.5023765982e+000	-7.4773062328e-001
 9.4311548910e-002	 1.5032945135e+000	-7.4806833752e-001
 8.0710068364e-002	 1.5040860838e+000	-7.4537653257e-001
 6.7148992730e-002	 1.5047524964e+000	-7.3987185349e-001
 5.3629791564e-002	 1.5052949571e+000	-7.3178193786e-001
 4.0153902405e-002	 1.5057146896e+000	-7.2134489695e-001
 2.6722730664e-002	 1.5060129343e+000	-7.0880878755e-001
 1.3337649548e-002	 1.5061909473e+000	-6.9443107604e-001
 0.0000000000e+000	 1.5062500000e+000	-6.7847809591e-001
 1.3590483732e-001	 1.5063817993e+000	-7.1578390545e-001
 1.2213437472e-001	 1.5075607598e+000	-7.2279508074e-001
 1.0839986625e-001	 1.5086105259e+000	-7.2634769517e-001
 9.4702883138e-002	 1.5095322500e+000	-7.2663384310e-001
 8.1044964913e-002	 1.5103271049e+000	-7.2385781493e-001
 6.7427619255e-002	 1.5109962826e+000	-7.1823559697e-001
 5.3852321820e-002	 1.5115409943e+000	-7.0999435898e-001
 4.0320516108e-002	 1.5119624684e+000	-6.9937193074e-001
 2.6833613364e-002	 1.5122619506e+000	-6.8661626925e-001
 1.3392992493e-002	 1.5124407022e+000	-6.7198491784e-001
 0.0000000000e+000	 1.5125000000e+000	-6.5574445859e-001
 1.3646642755e-001	 1.5126065175e+000	-6.9578352714e-001
 1.2263906222e-001	 1.5137903497e+000	-7.0277110563e-001
 1.0884779959e-001	 1.5148444537e+000	-7.0626713518e-001
 9.5094217365e-002	 1.5157699866e+000	-7.0646267567e-001
 8.1379861461e-002	 1.5165681260e+000	-7.0356118440e-001
 6.7706245781e-002	 1.5172400689e+000	-6.9777801199e-001
 5.4074852075e-002	 1.5177870315e+000	-6.8933988559e-001
 4.0487129811e-002	 1.5182102472e+000	-6.7848438087e-001
 2.6944496064e-002	 1.5185109669e+000	-6.6545938450e-001
 1.3448335437e-002	 1.5186904572e+000	-6.5052254816e-001
 0.0000000000e+000	 1.5187500000e+000	-6.3394073583e-001
 1.3702801779e-001	 1.5188312356e+000	-6.7714712643e-001
 1.2314374972e-001	 1.5200199396e+000	-6.8407703412e-001
 1.0929573292e-001	 1.5210783815e+000	-6.8748016051e-001
 9.5485551592e-002	 1.5220077232e+000	-6.8754654915e-001
 8.1714758010e-002	 1.5228091470e+000	-6.8447884487e-001
 6.7984872306e-002	 1.5234838552e+000	-6.7849178544e-001
 5.4297382330e-002	 1.5240330686e+000	-6.6981168043e-001
 4.0653743514e-002	 1.5244580260e+000	-6.5867587867e-001
 2.7055378764e-002	 1.5247599832e+000	-6.4533222574e-001
 1.3503678381e-002	 1.5249402122e+000	-6.3003851296e-001
 0.0000000000e+000	 1.5250000000e+000	-6.1306191944e-001
 1.3758960803e-001	 1.5250559538e+000	-6.5986503989e-001
 1.2364843722e-001	 1.5262495296e+000	-6.6670370779e-001
 1.0974366625e-001	 1.5273123093e+000	-6.6997811125e-001
 9.5876885819e-002	 1.5282454598e+000	-6.6987729554e-001
 8.2049654559e-002	 1.5290501681e+000	-6.6660311333e-001
 6.8263498832e-002	 1.5297276415e+000	-6.6036971223e-001
 5.4519912585e-002	 1.5302791058e+000	-6.5140300918e-001
 4.0820357216e-002	 1.5307058048e+000	-6.3994015318e-001
 2.7166261463e-002	 1.5310089996e+000	-6.2622897785e-001
 1.3559021325e-002	 1.5311899671e+000	-6.1052744537e-001
 0.0000000000e+000	 1.5312500000e+000	-5.9310308300e-001
 1.3815119826e-001	 1.5312806720e+000	-6.4392773379e-001
 1.2415312471e-001	 1.5324791195e+000	-6.5064209332e-001
 1.1019159958e-001	 1.5335462371e+000	-6.5375244794e-001
 9.6268220047e-002	 1.5344831963e+000	-6.5344686244e-001
 8.2384551108e-002	 1.5352911892e+000	-6.4992641754e-001
 6.8542125357e-002	 1.5359714278e+000	-6.4340469316e-001
 5.4742442840e-002	 1.5365251430e+000	-6.3410723835e-001
 4.0986970919e-002	 1.5369535836e+000	-6.2227102917e-001
 2.7277144163e-002	 1.5372580159e+000	-6.0814391636e-001
 1.3614364269e-002	 1.5374397221e+000	-5.9198406388e-001
 0.0000000000e+000	 1.5375000000e+000	-5.7405938020e-001
 1.3871278850e-001	 1.5375053902e+000	-6.2932580149e-001
 1.2465781221e-001	 1.5387087094e+000	-6.3588327996e-001
 1.1063953291e-001	 1.5397801649e+000	-6.3879474907e-001
 9.6659554274e-002	 1.5407209329e+000	-6.3824731076e-001
 8.2719447656e-002	 1.5415322103e+000	-6.3444129377e-001
 6.8820751883e-002	 1.5422152141e+000	-6.2758973269e-001
 5.4964973096e-002	 1.5427711801e+000	-6.1791783321e-001
 4.1153584622e-002	 1.5432013624e+000	-6.0566242527e-001
 2.7388026863e-002	 1.5435070322e+000	-5.9107140551e-001
 1.3669707213e-002	 1.5436894771e+000	-5.7440317067e-001
 0.0000000000e+000	 1.5437500000e+000	-5.5592604320e-001
 1.3927437873e-001	 1.5437301084e+000	-6.1604996092e-001
 1.2516249971e-001	 1.5449382993e+000	-6.2241847708e-001
 1.1108746624e-001	 1.5460140927e+000	-6.2509670876e-001
 9.7050888501e-002	 1.5469586695e+000	-6.2427081242e-001
 8.3054344205e-002	 1.5477732314e+000	-6.2014038467e-001
 6.9099378408e-002	 1.5484590004e+000	-6.1291793689e-001
 5.5187503351e-002	 1.5490172173e+000	-6.0282835587e-001
 4.1320198325e-002	 1.5494491412e+000	-5.9010835198e-001
 2.7498909563e-002	 1.5497560485e+000	-5.7500589657e-001
 1.3725050157e-002	 1.5499392320e+000	-5.5777964985e-001
 0.0000000000e+000	 1.5500000000e+000	-5.3869838107e-001
 1.3983596897e-001	 1.5499548265e+000	-6.0409105204e-001
 1.2566718721e-001	 1.5511678892e+000	-6.1023901175e-001
 1.1153539957e-001	 1.5522480205e+000	-6.1265013437e-001
 9.7442222728e-002	 1.5531964060e+000	-6.1150964812e-001
 8.3389240754e-002	 1.5540142525e+000	-6.0701643708e-001
 6.9378004934e-002	 1.5547027867e+000	-5.9938251142e-001
 5.5410033606e-002	 1.5552632545e+000	-5.8883246325e-001
 4.1486812027e-002	 1.5556969200e+000	-5.7560290991e-001
 2.7609792262e-002	 1.5560050649e+000	-5.5994192599e-001
 1.3780393101e-002	 1.5561889870e+000	-5.4210846588e-001
 0.0000000000e+000	 1.5562500000e+000	-5.2237177824e-001
 1.4039755921e-001	 1.5561795447e+000	-5.9344003440e-001
 1.2617187471e-001	 1.5573974792e+000	-5.9933632638e-001
 1.1198333290e-001	 1.5584819483e+000	-6.0144694431e-001
 9.7833556956e-002	 1.5594341426e+000	-5.9995620516e-001
 8.3724137303e-002	 1.5602552736e+000	-5.9506229997e-001
 6.9656631459e-002	 1.5609465730e+000	-5.8697675948e-001
 5.5632563861e-002	 1.5615092916e+000	-5.7592390527e-001
 4.1653425730e-002	 1.5619446988e+000	-5.6214028792e-001
 2.7720674962e-002	 1.5622540812e+000	-5.4587411377e-001
 1.3835736046e-002	 1.5624387420e+000	-5.2738466193e-001
 0.0000000000e+000	 1.5625000000e+000	-5.0694169298e-001
 1.5625000000e+000	 0.0000000000e+000	 3.6095682710e+000
 1.5624387420e+000	 1.3835736046e-002	 3.6247734826e+000
 1.5622540812e+000	 2.7720674962e-002	 3.6338342630e+000
 1.5619446988e+000	 4.1653425730e-002	 3.6364376076e+000
 1.5615092916e+000	 5.5632563861e-002	 3.6322910033e+000
 1.5609465730e+000	 6.9656631459e-002	 3.6211233600e+000
 1.5602552736e+000	 8.3724137303e-002	 3.6026859249e+000
 1.5594341426e+000	 9.7833556956e-002	 3.5767531774e+000
 1.5584819483e+000	 1.1198333290e-001	 3.5431237000e+000
 1.5573974792e+000	 1.2617187471e-001	 3.5016210246e+000
 1.5561795447e+000	 1.4039755921e-001	 3.4520944511e+000
 1.5687500000e+000	 0.0000000000e+000	 3.6026076042e+000
 1.5686884969e+000	 1.3891078990e-002	 3.6172249046e+000
 1.5685030975e+000	 2.7831557662e-002	 3.6257352289e+000
 1.5681924776e+000	 4.1820039433e-002	 3.6278271657e+000
 1.5677553288e+000	 5.5855094116e-002	 3.6232100469e+000
 1.5671903593e+000	 6.9935257985e-002	 3.6116148867e+000
 1.5664962947e+000	 8.4059033852e-002	 3.5927953009e+000
 1.5656718792e+000	 9.8224891183e-002	 3.5665284075e+000
 1.5647158761e+000	 1.1243126623e-001	 3.5326157029e+000
 1.5636270691e+000	 1.2667656220e-001	 3.4908839128e+000
 1.5624042629e+000	 1.4095914944e-001	 3.4411858147e+000
 1.5750000000e+000	 0.0000000000e+000	 3.5961321917e+000
 1.5749382519e+000	 1.3946421934e-002	 3.6102267540e+000
 1.5747521138e+000	 2.7942440362e-002	 3.6182475863e+000
 1.5744402564e+000	 4.1986653136e-002	 3.6198848120e+000
 1.5740013660e+000	 5.6077624372e-002	 3.6148495543e+000
 1.5734341456e+000	 7.0213884510e-002	 3.6028748807e+000
 1.5727373158e+000	 8.4393930400e-002	 3.5837167290e+000
 1.5719096158e+000	 9.8616225410e-002	 3.5571548134e+000
 1.5709498039e+000	 1.1287919956e-001	 3.5229935054e+000
 1.5698566590e+000	 1.2718124970e-001	 3.4810626905e+000
 1.5686289811e+000	 1.4152073968e-001	 3.4312185941e+000
 1.5812500000e+000	 0.0000000000e+000	 3.5901318810e+000
 1.5811880069e+000	 1.4001764878e-002	 3.6037682797e+000
 1.5810011302e+000	 2.8053323061e-002	 3.6113599829e+000
 1.5806880352e+000	 4.2153266838e-002	 3.6125985913e+000
 1.5802474031e+000	 5.6300154627e-002	 3.6071969653e+000
 1.5796779319e+000	 7.0492511036e-002	 3.5948901754e+000
 1.5789783369e+000	 8.4728826949e-002	 3.5754364352e+000
 1.5781473523e+000	 9.9007559638e-002	 3.5486180124e+000
 1.5771837317e+000	 1.1332713289e-001	 3.5142421158e+000
 1.5760862489e+000	 1.2768593720e-001	 3.4721417566e+000
 1.5748536993e+000	 1.4208232991e-001	 3.4221765787e+000
 1.5875000000e+000	 0.0000000000e+000	 3.5845966800e+000
 1.5874377618e+000	 1.4057107822e-002	 3.5978388978e+000
 1.5872501465e+000	 2.8164205761e-002	 3.6050612407e+000
 1.5869358140e+000	 4.2319880541e-002	 3.6059567294e+000
 1.5864934403e+000	 5.6522684882e-002	 3.6002399072e+000
 1.5859217181e+000	 7.0771137561e-002	 3.5876477979e+000
 1.5852193580e+000	 8.5063723498e-002	 3.5679408448e+000
 1.5843850889e+000	 9.9398893865e-002	 3.5409038269e+000
 1.5834176595e+000	 1.1377506623e-001	 3.5063467528e+000
 1.5823158388e+000	 1.2819062470e-001	 3.4641057254e+000
 1.5810784174e+000	 1.4264392015e-001	 3.4140437783e+000
 1.5937500000e+000	 0.0000000000e+000	 3.5795167529e+000
 1.5936875168e+000	 1.4112450766e-002	 3.5924281883e+000
 1.5934991628e+000	 2.8275088461e-002	 3.5993403526e+000
 1.5931835928e+000	 4.2486494244e-002	 3.5999476291e+000
 1.5927394775e+000	 5.6745215137e-002	 3.5939661909e+000
 1.5921655044e+000	 7.1049764087e-002	 3.5811349652e+000
 1.5914603791e+000	 8.5398620047e-002	 3.5612165787e+000
 1.5906228255e+000	 9.9790228092e-002	 3.5339982807e+000
 1.5896515873e+000	 1.1422299956e-001	 3.4992928414e+000
 1.5885454287e+000	 1.2869531220e-001	 3.4569394227e+000
 1.5873031356e+000	 1.4320551038e-001	 3.4068044189e+000
 1.6000000000e+000	 0.0000000000e+000	 3.5748824178e+000
 1.5999372718e+000	 1.4167793710e-002	 3.5875258919e+000
 1.5997481791e+000	 2.8385971161e-002	 3.5941864789e+000
 1.5994313716e+000	 4.2653107947e-002	 3.5945598677e+000
 1.5989855146e+000	 5.6967745392e-002	 3.5883638077e+000
 1.5984092907e+000	 7.1328390612e-002	 3.5753390802e+000
 1.5977014002e+000	 8.5733516595e-002	 3.5552504500e+000
 1.5968605620e+000	 1.0018156232e-001	 3.5278875948e+000
 1.5958855151e+000	 1.1467093289e-001	 3.4930660093e+000
 1.5947750187e+000	 1.2919999969e-001	 3.4506278816e+000
 1.5935278538e+000	 1.4376710062e-001	 3.4004429381e+000
 1.6062500000e+000	 0.0000000000e+000	 3.5706841435e+000
 1.6061870267e+000	 1.4223136655e-002	 3.5831219068e+000
 1.6059971955e+000	 2.8496853860e-002	 3.5895889439e+000
 1.6056791504e+000	 4.2819721649e-002	 3.5897821925e+000
 1.6052315518e+000	 5.7190275648e-002	 3.5834209255e+000
 1.6046530770e+000	 7.1607017138e-002	 3.5702477286e+000
 1.6039424213e+000	 8.6068413144e-002	 3.5500294596e+000
 1.6030982986e+000	 1.0057289655e-001	 3.5225581834e+000
 1.6021194429e+000	 1.1511886622e-001	 3.4876520825e+000
 1.6010046086e+000	 1.2970468719e-001	 3.4451563382e+000
 1.5997525720e+000	 1.4432869086e-001	 3.3949439814e+000
 1.6125000000e+000	 0.0000000000e+000	 3.5669125464e+000
 1.6124367817e+000	 1.4278479599e-002	 3.5792062858e+000
 1.6122462118e+000	 2.8607736560e-002	 3.5855372331e+000
 1.6119269292e+000	 4.2986335352e-002	 3.5856035185e+000
 1.6114775890e+000	 5.7412805903e-002	 3.5791258853e+000
 1.6108968633e+000	 7.1885643663e-002	 3.5658486750e+000
 1.6101834424e+000	 8.6403309693e-002	 3.5455407930e+000
 1.6093360352e+000	 1.0096423077e-001	 3.5179966508e+000
 1.6083533706e+000	 1.1556679955e-001	 3.4830370817e+000
 1.6072341985e+000	 1.3020937469e-001	 3.4405102284e+000
 1.6059772901e+000	 1.4489028109e-001	 3.3902923980e+000
 1.6187500000e+000	 0.0000000000e+000	 3.5635583881e+000
 1.6186865367e+000	 1.4333822543e-002	 3.5757692330e+000
 1.6184952281e+000	 2.8718619260e-002	 3.5820209898e+000
 1.6181747080e+000	 4.3152949055e-002	 3.5820129246e+000
 1.6177236261e+000	 5.7635336158e-002	 3.5754671983e+000
 1.6171406496e+000	 7.2164270189e-002	 3.5621298595e+000
 1.6164244635e+000	 8.6738206242e-002	 3.5417718166e+000
 1.6155737717e+000	 1.0135556500e-001	 3.5141897870e+000
 1.6145872984e+000	 1.1601473288e-001	 3.4792072185e+000
 1.6134637884e+000	 1.3071406219e-001	 3.4366751831e+000
 1.6122020083e+000	 1.4545187133e-001	 3.3864732368e+000
 1.6250000000e+000	 0.0000000000e+000	 3.5606125719e+000
 1.6249362916e+000	 1.4389165487e-002	 3.5728011015e+000
 1.6247442444e+000	 2.8829501960e-002	 3.5790300122e+000
 1.6244224868e+000	 4.3319562758e-002	 3.5789996503e+000
 1.6239696633e+000	 5.7857866413e-002	 3.5724335420e+000
 1.6233844359e+000	 7.2442896714e-002	 3.5590793943e+000
 1.6226654846e+000	 8.7073102790e-002	 3.5387100743e+000
 1.6218115083e+000	 1.0174689923e-001	 3.5111245646e+000
 1.6208212262e+000	 1.1646266621e-001	 3.4761488917e+000
 1.6196933783e+000	 1.3121874969e-001	 3.4336370250e+000
 1.6184267265e+000	 1.4601346156e-001	 3.3834717427e+000
 1.5561795447e+000	 1.4039755921e-001	 3.4520944511e+000
 1.5548269766e+000	 1.5465873072e-001	 3.4288480839e+000
 1.5533386292e+000	 1.6895370129e-001	 3.4008249211e+000
 1.5517133809e+000	 1.8328075097e-001	 3.3679501187e+000
 1.5499501348e+000	 1.9763812810e-001	 3.3301744210e+000
 1.5480478198e+000	 2.1202404967e-001	 3.2874747356e+000
 1.5460053914e+000	 2.2643670162e-001	 3.2398546668e+000
 1.5438218326e+000	 2.4087423928e-001	 3.1873450055e+000
 1.5414961551e+000	 2.5533478779e-001	 3.1300041708e+000
 1.5390273998e+000	 2.6981644248e-001	 3.0679186038e+000
 1.5364146382e+000	 2.8431726942e-001	 3.0012031088e+000
 1.5624042629e+000	 1.4095914944e-001	 3.4411858147e+000
 1.5610462845e+000	 1.5527736564e-001	 3.4173082217e+000
 1.5595519837e+000	 1.6962951609e-001	 3.3886724873e+000
 1.5579202344e+000	 1.8401387397e-001	 3.3552078218e+000
 1.5561499353e+000	 1.9842868061e-001	 3.3168693457e+000
 1.5542400111e+000	 2.1287214586e-001	 3.2736386670e+000
 1.5521894130e+000	 2.2734244842e-001	 3.2255244168e+000
 1.5499971200e+000	 2.4183773624e-001	 3.1725627394e+000
 1.5476621397e+000	 2.5635612694e-001	 3.1148177351e+000
 1.5451835094e+000	 2.7089570825e-001	 3.0523818529e+000
 1.5425602967e+000	 2.8545453850e-001	 2.9853762312e+000
 1.5686289811e+000	 1.4152073968e-001	 3.4312185941e+000
 1.5672655924e+000	 1.5589600056e-001	 3.4067337768e+000
 1.5657653382e+000	 1.7030533090e-001	 3.3775052300e+000
 1.5641270879e+000	 1.8474699697e-001	 3.3434662050e+000
 1.5623497359e+000	 1.9921923313e-001	 3.3045761894e+000
 1.5604322024e+000	 2.1372024206e-001	 3.2608214877e+000
 1.5583734345e+000	 2.2824819523e-001	 3.2122157584e+000
 1.5561724073e+000	 2.4280123320e-001	 3.1588005052e+000
 1.5538281243e+000	 2.5737746609e-001	 3.1006455200e+000
 1.5513396190e+000	 2.7197497402e-001	 3.0378492760e+000
 1.5487059553e+000	 2.8659180757e-001	 2.9705392665e+000
 1.5748536993e+000	 1.4208232991e-001	 3.4221765787e+000
 1.5734849003e+000	 1.5651463548e-001	 3.3971078933e+000
 1.5719786927e+000	 1.7098114570e-001	 3.3673056449e+000
 1.5703339414e+000	 1.8548011998e-001	 3.3327071120e+000
 1.5685495364e+000	 2.0000978564e-001	 3.2932761412e+000
 1.5666243937e+000	 2.1456833826e-001	 3.2490037298e+000
 1.5645574561e+000	 2.2915394203e-001	 3.1999085647e+000
 1.5623476946e+000	 2.4376473015e-001	 3.1460375152e+000
 1.5599941090e+000	 2.5839880524e-001	 3.0874660765e+000
 1.5574957286e+000	 2.7305423979e-001	 3.0242987618e+000
 1.5548516138e+000	 2.8772907665e-001	 2.9566694413e+000
 1.5810784174e+000	 1.4264392015e-001	 3.4140437783e+000
 1.5797042082e+000	 1.5713327040e-001	 3.3884139410e+000
 1.5781920472e+000	 1.7165696050e-001	 3.3580564576e+000
 1.5765407950e+000	 1.8621324298e-001	 3.3229126212e+000
 1.5747493370e+000	 2.0080033815e-001	 3.2829506291e+000
 1.5728165849e+000	 2.1541643446e-001	 3.2381661681e+000
 1.5707414777e+000	 2.3005968884e-001	 3.1885829554e+000
 1.5685229820e+000	 2.4472822711e-001	 3.1342532324e+000
 1.5661600936e+000	 2.5942014439e-001	 3.0752582089e+000
 1.5636518382e+000	 2.7413350556e-001	 3.0117084557e+000
 1.5609972724e+000	 2.8886634573e-001	 2.9437442414e+000
 1.5873031356e+000	 1.4320551038e-001	 3.4068044189e+000
 1.5859235161e+000	 1.5775190533e-001	 3.3806355104e+000
 1.5844054018e+000	 1.7233277531e-001	 3.3497406194e+000
 1.5827476485e+000	 1.8694636598e-001	 3.3140650410e+000
 1.5809491375e+000	 2.0159089066e-001	 3.2735813154e+000
 1.5790087762e+000	 2.1626453065e-001	 3.2282898160e+000
 1.5769254992e+000	 2.3096543564e-001	 3.1782192923e+000
 1.5746982693e+000	 2.4569172407e-001	 3.1234273648e+000
 1.5723260782e+000	 2.6044148354e-001	 3.0640009704e+000
 1.5698079478e+000	 2.7521277132e-001	 3.0000567543e+000
 1.5671429309e+000	 2.9000361481e-001	 2.9317414065e+000
 1.5935278538e+000	 1.4376710062e-001	 3.4004429381e+000
 1.5921428240e+000	 1.5837054025e-001	 3.3737564090e+000
 1.5906187563e+000	 1.7300859011e-001	 3.3423413031e+000
 1.5889545020e+000	 1.8767948898e-001	 3.3061469055e+000
 1.5871489380e+000	 2.0238144317e-001	 3.2651500921e+000
 1.5852009675e+000	 2.1711262685e-001	 3.2193559203e+000
 1.5831095208e+000	 2.3187118245e-001	 3.1687981742e+000
 1.5808735566e+000	 2.4665522102e-001	 3.1135398611e+000
 1.5784920628e+000	 2.6146282269e-001	 3.0536736575e+000
 1.5759640574e+000	 2.7629203709e-001	 2.9893223008e+000
 1.5732885895e+000	 2.9114088388e-001	 2.9206389255e+000
 1.5997525720e+000	 1.4432869086e-001	 3.3949439814e+000
 1.5983621319e+000	 1.5898917517e-001	 3.3677606563e+000
 1.5968321108e+000	 1.7368440492e-001	 3.3358418982e+000
 1.5951613555e+000	 1.8841261199e-001	 3.2991409701e+000
 1.5933487386e+000	 2.0317199568e-001	 3.2576390765e+000
 1.5913931588e+000	 2.1796072305e-001	 3.2113459568e+000
 1.5892935424e+000	 2.3277692925e-001	 3.1603004326e+000
 1.5870488439e+000	 2.4761871798e-001	 3.1045709060e+000
 1.5846580474e+000	 2.6248416184e-001	 3.0442558059e+000
 1.5821201670e+000	 2.7737130286e-001	 2.9794839802e+000
 1.5794342480e+000	 2.9227815296e-001	 2.9104150313e+000
 1.6059772901e+000	 1.4489028109e-001	 3.3902923980e+000
 1.6045814398e+000	 1.5960781009e-001	 3.3626324807e+000
 1.6030454653e+000	 1.7436021972e-001	 3.3302260070e+000
 1.6013682091e+000	 1.8914573499e-001	 3.2930302069e+000
 1.5995485391e+000	 2.0396254819e-001	 3.2510306067e+000
 1.5975853500e+000	 2.1880881925e-001	 3.2042416260e+000
 1.5954775639e+000	 2.3368267606e-001	 3.1527071272e+000
 1.5932241313e+000	 2.4858221493e-001	 3.0965009153e+000
 1.5908240321e+000	 2.6350550099e-001	 3.0357271853e+000
 1.5882762766e+000	 2.7845056863e-001	 2.9705209143e+000
 1.5855799066e+000	 2.9341542204e-001	 2.9010481966e+000
 1.6122020083e+000	 1.4545187133e-001	 3.3864732368e+000
 1.6108007477e+000	 1.6022644501e-001	 3.3583563144e+000
 1.6092588198e+000	 1.7503603452e-001	 3.3254774407e+000
 1.6075750626e+000	 1.8987885799e-001	 3.2877978010e+000
 1.6057483397e+000	 2.0475310070e-001	 3.2453072375e+000
 1.6037775413e+000	 2.1965691544e-001	 3.1980248486e+000
 1.6016615855e+000	 2.3458842286e-001	 3.1459995412e+000
 1.5993994186e+000	 2.4954571189e-001	 3.0893105318e+000
 1.5969900167e+000	 2.6452684014e-001	 3.0280677953e+000
 1.5944323862e+000	 2.7952983440e-001	 2.9624124575e+000
 1.5917255651e+000	 2.9455269112e-001	 2.8925171288e+000
 1.6184267265e+000	 1.4601346156e-001	 3.3834717427e+000
 1.6170200556e+000	 1.6084507993e-001	 3.3549167904e+000
 1.6154721743e+000	 1.7571184933e-001	 3.3215802147e+000
 1.6137819161e+000	 1.9061198099e-001	 3.2834271461e+000
 1.6119481402e+000	 2.0554365321e-001	 3.2404517362e+000
 1.6099697326e+000	 2.2050501164e-001	 3.1926777615e+000
 1.6078456070e+000	 2.3549416967e-001	 3.1401591771e+000
 1.6055747059e+000	 2.5050920885e-001	 3.0829806205e+000
 1.6031560013e+000	 2.6554817929e-001	 3.0212578610e+000
 1.6005884958e+000	 2.8060910017e-001	 2.9551381921e+000
 1.5978712237e+000	 2.9568996019e-001	 2.8848007657e+000
 1.5364146382e+000	 2.8431726942e-001	 3.0012031088e+000
 1.5336569727e+000	 2.9883530589e-001	 2.9548999315e+000
 1.5307535383e+000	 3.1336856094e-001	 2.9030771891e+000
 1.5277035028e+000	 3.2791501590e-001	 2.8458964754e+000
 1.5245060679e+000	 3.4247262508e-001	 2.7835488807e+000
 1.5211604704e+000	 3.5703931628e-001	 2.7162550869e+000
 1.5176659825e+000	 3.7161299155e-001	 2.6442653986e+000
 1.5140219133e+000	 3.8619152782e-001	 2.5678597102e+000
 1.5102276089e+000	 4.0077277763e-001	 2.4873474057e+000
 1.5062824540e+000	 4.1535456991e-001	 2.4030671913e+000
 1.5021858722e+000	 4.2993471070e-001	 2.3153868586e+000
 1.5425602967e+000	 2.8545453850e-001	 2.9853762312e+000
 1.5397916006e+000	 3.0003064712e-001	 2.9384944843e+000
 1.5368765525e+000	 3.1462203518e-001	 2.8862716566e+000
 1.5338143168e+000	 3.2922667597e-001	 2.8288752000e+000
 1.5306040922e+000	 3.4384251558e-001	 2.7665022606e+000
 1.5272451122e+000	 3.5846747355e-001	 2.6993797679e+000
 1.5237366464e+000	 3.7309944352e-001	 2.6277644603e+000
 1.5200780009e+000	 3.8773629393e-001	 2.5519428442e+000
 1.5162685193e+000	 4.0237586875e-001	 2.4722310868e+000
 1.5123075838e+000	 4.1701598819e-001	 2.3889748396e+000
 1.5081946156e+000	 4.3165444954e-001	 2.3025489928e+000
 1.5487059553e+000	 2.8659180757e-001	 2.9705392665e+000
 1.5459262285e+000	 3.0122598834e-001	 2.9230281378e+000
 1.5429995666e+000	 3.1587550942e-001	 2.8703493173e+000
 1.5399251308e+000	 3.3053833603e-001	 2.8126761576e+000
 1.5367021164e+000	 3.4521240608e-001	 2.7502119094e+000
 1.5333297541e+000	 3.5989563081e-001	 2.6831898049e+000
 1.5298073104e+000	 3.7458589549e-001	 2.6118730769e+000
 1.5261340886e+000	 3.8928106004e-001	 2.5365549108e+000
 1.5223094298e+000	 4.0397895986e-001	 2.4575583298e+000
 1.5183327136e+000	 4.1867740647e-001	 2.3752360098e+000
 1.5142033591e+000	 4.3337418839e-001	 2.2899700246e+000
 1.5548516138e+000	 2.8772907665e-001	 2.9566694413e+000
 1.5520608564e+000	 3.0242132956e-001	 2.9084778405e+000
 1.5491225808e+000	 3.1712898367e-001	 2.8552868534e+000
 1.5460359448e+000	 3.3184999610e-001	 2.7972757770e+000
 1.5428001407e+000	 3.4658229658e-001	 2.7346540156e+000
 1.5394143960e+000	 3.6132378808e-001	 2.6676611594e+000
 1.5358779743e+000	 3.7607234745e-001	 2.5965669968e+000
 1.5321901762e+000	 3.9082582616e-001	 2.5216714598e+000
 1.5283503402e+000	 4.0558205097e-001	 2.4433045010e+000
 1.5243578434e+000	 4.2033882475e-001	 2.3618259002e+000
 1.5202121026e+000	 4.3509392723e-001	 2.2776250003e+000
 1.5609972724e+000	 2.8886634573e-001	 2.9437442414e+000
 1.5581954843e+000	 3.0361667079e-001	 2.8948207964e+000
 1.5552455949e+000	 3.1838245791e-001	 2.8410611991e+000
 1.5521467588e+000	 3.3316165616e-001	 2.7826507341e+000
 1.5488981650e+000	 3.4795218708e-001	 2.7198050095e+000
 1.5454990379e+000	 3.6275194534e-001	 2.6527700291e+000
 1.5419486382e+000	 3.7755879942e-001	 2.5818221989e+000
 1.5382462639e+000	 3.9237059227e-001	 2.5072682651e+000
 1.5343912506e+000	 4.0718514208e-001	 2.4294451838e+000
 1.5303829733e+000	 4.2200024303e-001	 2.3487199188e+000
 1.5262208461e+000	 4.3681366608e-001	 2.2654891680e+000
 1.5671429309e+000	 2.9000361481e-001	 2.9317414065e+000
 1.5643301122e+000	 3.0481201201e-001	 2.8820344599e+000
 1.5613686091e+000	 3.1963593216e-001	 2.8276495345e+000
 1.5582575728e+000	 3.3447331622e-001	 2.7687779467e+000
 1.5549961893e+000	 3.4932207758e-001	 2.7056415585e+000
 1.5515836798e+000	 3.6418010261e-001	 2.6384928436e+000
 1.5480193022e+000	 3.7904525139e-001	 2.5676148877e+000
 1.5443023515e+000	 3.9391535838e-001	 2.4933213201e+000
 1.5404321611e+000	 4.0878823320e-001	 2.4159561745e+000
 1.5364081031e+000	 4.2366166132e-001	 2.3358936792e+000
 1.5322295896e+000	 4.3853340492e-001	 2.2535379739e+000
 1.5732885895e+000	 2.9114088388e-001	 2.9206389255e+000
 1.5704647401e+000	 3.0600735323e-001	 2.8700965311e+000
 1.5674916232e+000	 3.2088940640e-001	 2.8150292815e+000
 1.5643683868e+000	 3.3578497629e-001	 2.7556345698e+000
 1.5610942135e+000	 3.5069196808e-001	 2.6921405622e+000
 1.5576683217e+000	 3.6560825988e-001	 2.6248062592e+000
 1.5540899661e+000	 3.8053170336e-001	 2.5539214893e+000
 1.5503584392e+000	 3.9546012450e-001	 2.4798068333e+000
 1.5464730715e+000	 4.1039132431e-001	 2.4028134777e+000
 1.5424332329e+000	 4.2532307960e-001	 2.3233229964e+000
 1.5382383331e+000	 4.4025314377e-001	 2.2417470579e+000
 1.5794342480e+000	 2.9227815296e-001	 2.9104150313e+000
 1.5765993679e+000	 3.0720269446e-001	 2.8589849509e+000
 1.5736146374e+000	 3.2214288064e-001	 2.8031780991e+000
 1.5704792008e+000	 3.3709663635e-001	 2.7431979909e+000
 1.5671922378e+000	 3.5206185858e-001	 2.6792791483e+000
 1.5637529635e+000	 3.6703641714e-001	 2.6116871555e+000
 1.5601606300e+000	 3.8201815532e-001	 2.5407186469e+000
 1.5564145268e+000	 3.9700489061e-001	 2.4667012244e+000
 1.5525139820e+000	 4.1199441542e-001	 2.3899933030e+000
 1.5484583627e+000	 4.2698449788e-001	 2.3109838834e+000
 1.5442470766e+000	 4.4197288261e-001	 2.2300922505e+000
 1.5855799066e+000	 2.9341542204e-001	 2.9010481966e+000
 1.5827339958e+000	 3.0839803568e-001	 2.8486778960e+000
 1.5797376515e+000	 3.2339635489e-001	 2.7920738784e+000
 1.5765900148e+000	 3.3840829642e-001	 2.7314458260e+000
 1.5732902621e+000	 3.5343174908e-001	 2.6670346678e+000
 1.5698376054e+000	 3.6846457441e-001	 2.5991126300e+000
 1.5662312940e+000	 3.8350460729e-001	 2.5279832165e+000
 1.5624706145e+000	 3.9854965672e-001	 2.4539811201e+000
 1.5585548924e+000	 4.1359750653e-001	 2.3774720602e+000
 1.5544834925e+000	 4.2864591616e-001	 2.2988525466e+000
 1.5502558201e+000	 4.4369262146e-001	 2.2185495686e+000
 1.5917255651e+000	 2.9455269112e-001	 2.8925171288e+000
 1.5888686237e+000	 3.0959337691e-001	 2.8391537752e+000
 1.5858606657e+000	 3.2464982913e-001	 2.7816947384e+000
 1.5827008289e+000	 3.3971995648e-001	 2.7203559143e+000
 1.5793882863e+000	 3.5480163959e-001	 2.6553846912e+000
 1.5759222473e+000	 3.6989273168e-001	 2.5870599947e+000
 1.5723019579e+000	 3.8499105926e-001	 2.5156922630e+000
 1.5685267021e+000	 4.0009442284e-001	 2.4416233501e+000
 1.5645958028e+000	 4.1520059765e-001	 2.3652263562e+000
 1.5605086224e+000	 4.3030733444e-001	 2.2869053827e+000
 1.5562645636e+000	 4.4541236030e-001	 2.2070952122e+000
 1.5978712237e+000	 2.9568996019e-001	 2.8848007657e+000
 1.5950032516e+000	 3.1078871813e-001	 2.8303912239e+000
 1.5919836798e+000	 3.2590330338e-001	 2.7720190218e+000
 1.5888116429e+000	 3.4103161654e-001	 2.7099063149e+000
 1.5854863106e+000	 3.5617153009e-001	 2.6443070035e+000
 1.5820068892e+000	 3.7132088894e-001	 2.5755067715e+000
 1.5783726218e+000	 3.8647751123e-001	 2.5038230560e+000
 1.5745827898e+000	 4.0163918895e-001	 2.4296049430e+000
 1.5706367133e+000	 4.1680368876e-001	 2.3532329905e+000
 1.5665337522e+000	 4.3196875273e-001	 2.2751189747e+000
 1.5622733071e+000	 4.4713209915e-001	 2.1957055606e+000
 1.5021858722e+000	 4.2993471070e-001	 2.3153868586e+000
 1.4979373268e+000	 4.4451098401e-001	 2.2542014160e+000
 1.4935363220e+000	 4.5908115267e-001	 2.1889329445e+000
 1.4889824033e+000	 4.7364295911e-001	 2.1199393379e+000
 1.4842751581e+000	 4.8819412637e-001	 2.0476059005e+000
 1.4794142169e+000	 5.0273235892e-001	 1.9723448456e+000
 1.4743992537e+000	 5.1725534369e-001	 1.8945947229e+000
 1.4692299866e+000	 5.3176075100e-001	 1.8148197751e+000
 1.4639061787e+000	 5.4624623557e-001	 1.7335092224e+000
 1.4584276384e+000	 5.6070943758e-001	 1.6511764766e+000
 1.4527942204e+000	 5.7514798369e-001	 1.5683582846e+000
 1.5081946156e+000	 4.3165444954e-001	 2.3025489928e+000
 1.5039290761e+000	 4.4628902795e-001	 2.2416078808e+000
 1.4995104673e+000	 4.6091747728e-001	 2.1765272400e+000
 1.4949383329e+000	 4.7553753095e-001	 2.1076749162e+000
 1.4902122587e+000	 4.9014690288e-001	 2.0354465862e+000
 1.4853318738e+000	 5.0474328836e-001	 1.9602652458e+000
 1.4802968507e+000	 5.1932436507e-001	 1.8825806258e+000
 1.4751069066e+000	 5.3388779400e-001	 1.8028685357e+000
 1.4697618034e+000	 5.4843122052e-001	 1.7216301352e+000
 1.4642613490e+000	 5.6295227534e-001	 1.6393911329e+000
 1.4586053973e+000	 5.7744857563e-001	 1.5567009152e+000
 1.5142033591e+000	 4.3337418839e-001	 2.2899700246e+000
 1.5099208254e+000	 4.4806707189e-001	 2.2292375952e+000
 1.5054846126e+000	 4.6275380189e-001	 2.1643072775e+000
 1.5008942625e+000	 4.7743210279e-001	 2.0955569621e+000
 1.4961493594e+000	 4.9209967939e-001	 2.0233927952e+000
 1.4912495307e+000	 5.0675421780e-001	 1.9482486559e+000
 1.4861944478e+000	 5.2139338645e-001	 1.8705855612e+000
 1.4809838265e+000	 5.3601483701e-001	 1.7908909965e+000
 1.4756174282e+000	 5.5061620547e-001	 1.7096781733e+000
 1.4700950596e+000	 5.6519511309e-001	 1.6274852138e+000
 1.4644165742e+000	 5.7974916757e-001	 1.5448742634e+000
 1.5202121026e+000	 4.3509392723e-001	 2.2776250003e+000
 1.5159125747e+000	 4.4984511583e-001	 2.2170647173e+000
 1.5114587579e+000	 4.6459012651e-001	 2.1522463141e+000
 1.5068501921e+000	 4.7932667463e-001	 2.0835578193e+000
 1.5020864600e+000	 4.9405245589e-001	 2.0114159461e+000
 1.4971671875e+000	 5.0876514724e-001	 1.9362655587e+000
 1.4920920448e+000	 5.2346240783e-001	 1.8585790658e+000
 1.4868607465e+000	 5.3814188002e-001	 1.7788557383e+000
 1.4814730529e+000	 5.5280119041e-001	 1.6976209531e+000
 1.4759287701e+000	 5.6743795085e-001	 1.6154253632e+000
 1.4702277511e+000	 5.8204975951e-001	 1.5328439938e+000
 1.5262208461e+000	 4.3681366608e-001	 2.2654891680e+000
 1.5219043241e+000	 4.5162315977e-001	 2.2050636108e+000
 1.5174329032e+000	 4.6642645112e-001	 2.1403178160e+000
 1.5128061217e+000	 4.8122124647e-001	 2.0716500442e+000
 1.5080235606e+000	 4.9600523240e-001	 1.9994876738e+000
 1.5030848444e+000	 5.1077607668e-001	 1.9242866565e+000
 1.4979896418e+000	 5.2553142920e-001	 1.8465308992e+000
 1.4927376665e+000	 5.4026892303e-001	 1.7667315685e+000
 1.4873286776e+000	 5.5498617536e-001	 1.6854263213e+000
 1.4817624807e+000	 5.6968078860e-001	 1.6031784590e+000
 1.4760389279e+000	 5.8435035145e-001	 1.5205760082e+000
 1.5322295896e+000	 4.3853340492e-001	 2.2535379739e+000
 1.5278960734e+000	 4.5340120371e-001	 2.1932088408e+000
 1.5234070485e+000	 4.6826277574e-001	 2.1284954542e+000
 1.5187620514e+000	 4.8311581831e-001	 2.0598064016e+000
 1.5139606613e+000	 4.9795800891e-001	 1.9875798250e+000
 1.5090025013e+000	 5.1278700612e-001	 1.9122828671e+000
 1.5038872388e+000	 5.2760045058e-001	 1.8344110399e+000
 1.4986145864e+000	 5.4239596604e-001	 1.7544875172e+000
 1.4931843023e+000	 5.5717116030e-001	 1.6730623505e+000
 1.4875961912e+000	 5.7192362636e-001	 1.5907116084e+000
 1.4818501048e+000	 5.8665094338e-001	 1.5080364414e+000
 1.5382383331e+000	 4.4025314377e-001	 2.2417470579e+000
 1.5338878227e+000	 4.5517924765e-001	 2.1814751696e+000
 1.5293811938e+000	 4.7009910035e-001	 2.1167531007e+000
 1.5247179810e+000	 4.8501039015e-001	 2.0479998603e+000
 1.5198977619e+000	 4.9991078542e-001	 1.9756644543e+000
 1.5149201582e+000	 5.1479793556e-001	 1.9002253196e+000
 1.5097848358e+000	 5.2966947196e-001	 1.8221896814e+000
 1.5044915064e+000	 5.4452300904e-001	 1.7420928324e+000
 1.4990399270e+000	 5.5935614525e-001	 1.6604973346e+000
 1.4934299018e+000	 5.7416646411e-001	 1.5779921436e+000
 1.4876612817e+000	 5.8895153532e-001	 1.4951916565e+000
 1.5442470766e+000	 4.4197288261e-001	 2.2300922505e+000
 1.5398795720e+000	 4.5695729159e-001	 2.1698375536e+000
 1.5353553391e+000	 4.7193542496e-001	 2.1050648243e+000
 1.5306739106e+000	 4.8690496199e-001	 2.0362035899e+000
 1.5258348626e+000	 5.0186356193e-001	 1.9637138198e+000
 1.5208378150e+000	 5.1680886500e-001	 1.8880853499e+000
 1.5156824329e+000	 5.3173849334e-001	 1.8098372271e+000
 1.5103684263e+000	 5.4665005205e-001	 1.7295169758e+000
 1.5048955517e+000	 5.6154113020e-001	 1.6476997849e+000
 1.4992636123e+000	 5.7640930186e-001	 1.5649876172e+000
 1.4934724586e+000	 5.9125212726e-001	 1.4820082405e+000
 1.5502558201e+000	 4.4369262146e-001	 2.2185495686e+000
 1.5458713213e+000	 4.5873533553e-001	 2.1582711387e+000
 1.5413294844e+000	 4.7377174958e-001	 2.0934048873e+000
 1.5366298402e+000	 4.8879953383e-001	 2.0243909561e+000
 1.5317719632e+000	 5.0381633844e-001	 1.9517003795e+000
 1.5267554719e+000	 5.1881979443e-001	 1.8758344971e+000
 1.5215800299e+000	 5.3380751472e-001	 1.7973242873e+000
 1.5162453462e+000	 5.4877709506e-001	 1.7167296190e+000
 1.5107511765e+000	 5.6372611514e-001	 1.6346384256e+000
 1.5050973229e+000	 5.7865213962e-001	 1.5516657980e+000
 1.4992836355e+000	 5.9355271920e-001	 1.4684529997e+000
 1.5562645636e+000	 4.4541236030e-001	 2.2070952122e+000
 1.5518630706e+000	 4.6051337947e-001	 2.1467512570e+000
 1.5473036297e+000	 4.7560807419e-001	 2.0817477410e+000
 1.5425857698e+000	 4.9069410567e-001	 2.0125355175e+000
 1.5377090638e+000	 5.0576911495e-001	 1.9395967872e+000
 1.5326731288e+000	 5.2083072387e-001	 1.8634444996e+000
 1.5274776269e+000	 5.3587653609e-001	 1.7846216742e+000
 1.5221222662e+000	 5.5090413807e-001	 1.7037006389e+000
 1.5166068012e+000	 5.6591110009e-001	 1.6212821896e+000
 1.5109310335e+000	 5.8089497737e-001	 1.5379946671e+000
 1.5050948124e+000	 5.9585331113e-001	 1.4544929559e+000
 1.5622733071e+000	 4.4713209915e-001	 2.1957055606e+000
 1.5578548199e+000	 4.6229142341e-001	 2.1352534235e+000
 1.5532777749e+000	 4.7744439881e-001	 2.0700680229e+000
 1.5485416994e+000	 4.9258867751e-001	 2.0006110216e+000
 1.5436461645e+000	 5.0772189146e-001	 1.9273758889e+000
 1.5385907856e+000	 5.2284165331e-001	 1.8508872909e+000
 1.5333752239e+000	 5.3794555747e-001	 1.7717003987e+000
 1.5279991861e+000	 5.5303118107e-001	 1.6904001144e+000
 1.5224624259e+000	 5.6809608503e-001	 1.6076002147e+000
 1.5167647440e+000	 5.8313781512e-001	 1.5239424132e+000
 1.5109059892e+000	 5.9815390307e-001	 1.4400953419e+000
 1.4527942204e+000	 5.7514798369e-001	 1.5683582846e+000
 1.4470058258e+000	 5.8955948811e-001	 1.4889283281e+000
 1.4410624031e+000	 6.0394155376e-001	 1.4111305699e+000
 1.4349639483e+000	 6.1829177332e-001	 1.3356584338e+000
 1.4287105058e+000	 6.3260773043e-001	 1.2483750041e+000
 1.4223021683e+000	 6.4688700084e-001	 1.1460880974e+000
 1.4157390779e+000	 6.6112715357e-001	 1.0405477754e+000
 1.4090214258e+000	 6.7532575216e-001	 9.3211395183e-001
 1.4021494531e+000	 6.8948035586e-001	 8.2115316561e-001
 1.3951234509e+000	 7.0358852088e-001	 7.0803871812e-001
 1.3879437607e+000	 7.1764780164e-001	 5.9315079553e-001
 1.4586053973e+000	 5.7744857563e-001	 1.5567009152e+000
 1.4527938491e+000	 5.9191772607e-001	 1.4789216010e+000
 1.4468266527e+000	 6.0635731998e-001	 1.4035044920e+000
 1.4407038041e+000	 6.2076494042e-001	 1.3311512178e+000
 1.4344253478e+000	 6.3513816136e-001	 1.2405180221e+000
 1.4279913770e+000	 6.4947454885e-001	 1.1388881661e+000
 1.4214020342e+000	 6.6377166219e-001	 1.0347638810e+000
 1.4146575115e+000	 6.7802705517e-001	 9.2849822548e-001
 1.4077580509e+000	 6.9223827729e-001	 8.2045026273e-001
 1.4007039447e+000	 7.0640287497e-001	 7.1098520454e-001
 1.3934955357e+000	 7.2051839285e-001	 6.0047454093e-001
 1.4644165742e+000	 5.7974916757e-001	 1.5448742634e+000
 1.4585818724e+000	 5.9427596403e-001	 1.4685771946e+000
 1.4525909023e+000	 6.0877308620e-001	 1.3953660302e+000
 1.4464436599e+000	 6.2323810752e-001	 1.3259507587e+000
 1.4401401898e+000	 6.3766859229e-001	 1.2307282608e+000
 1.4336805857e+000	 6.5206209686e-001	 1.1296426347e+000
 1.4270649906e+000	 6.6641617081e-001	 1.0268153962e+000
 1.4202935972e+000	 6.8072835819e-001	 9.2259272525e-001
 1.4133666487e+000	 6.9499619872e-001	 8.1732619112e-001
 1.4062844385e+000	 7.0921722906e-001	 7.1137290268e-001
 1.3990473107e+000	 7.2338898406e-001	 6.0509564569e-001
 1.4702277511e+000	 5.8204975951e-001	 1.5328439938e+000
 1.4643698957e+000	 5.9663420199e-001	 1.4578611963e+000
 1.4583551519e+000	 6.1118885242e-001	 1.3866817553e+000
 1.4521835157e+000	 6.2571127462e-001	 1.3183460410e+000
 1.4458550319e+000	 6.4019902322e-001	 1.2190233845e+000
 1.4393697944e+000	 6.5464964486e-001	 1.1183711493e+000
 1.4327279469e+000	 6.6906067943e-001	 1.0167240021e+000
 1.4259296829e+000	 6.8342966120e-001	 9.1442122039e-001
 1.4189752465e+000	 6.9775412014e-001	 8.1180686000e-001
 1.4118649323e+000	 7.1203158314e-001	 7.0922991279e-001
 1.4045990858e+000	 7.2625957527e-001	 6.0704445119e-001
 1.4760389279e+000	 5.8435035145e-001	 1.5205760082e+000
 1.4701579190e+000	 5.9899243994e-001	 1.4467399125e+000
 1.4641194015e+000	 6.1360461864e-001	 1.3774184373e+000
 1.4579233715e+000	 6.2818444172e-001	 1.3051663124e+000
 1.4515698739e+000	 6.4272945414e-001	 1.2054212140e+000
 1.4450590031e+000	 6.5723719287e-001	 1.1050934895e+000
 1.4383909032e+000	 6.7170518804e-001	 1.0045114900e+000
 1.4315657686e+000	 6.8613096421e-001	 9.0400756520e-001
 1.4245838444e+000	 7.0051204157e-001	 8.0391823777e-001
 1.4174454261e+000	 7.1484593723e-001	 7.0458436738e-001
 1.4101508608e+000	 7.2913016648e-001	 6.0635130317e-001
 1.4818501048e+000	 5.8665094338e-001	 1.5080364414e+000
 1.4759459423e+000	 6.0135067790e-001	 1.4351798639e+000
 1.4698836512e+000	 6.1602038486e-001	 1.3675430414e+000
 1.4636632273e+000	 6.3065760881e-001	 1.2902082265e+000
 1.4572847159e+000	 6.4525988507e-001	 1.1899397239e+000
 1.4507482117e+000	 6.5982474088e-001	 1.0898295663e+000
 1.4440538595e+000	 6.7434969666e-001	 9.9019975867e-001
 1.4372018544e+000	 6.8883226722e-001	 8.9137569741e-001
 1.4301924422e+000	 7.0326996300e-001	 7.9368635086e-001
 1.4230259199e+000	 7.1766029131e-001	 6.9746443058e-001
 1.4157026359e+000	 7.3200075769e-001	 6.0304655163e-001
 1.4876612817e+000	 5.8895153532e-001	 1.4951916565e+000
 1.4817339657e+000	 6.0370891586e-001	 1.4231477817e+000
 1.4756479008e+000	 6.1843615108e-001	 1.3570227243e+000
 1.4694030831e+000	 6.3313077591e-001	 1.2734880451e+000
 1.4629995579e+000	 6.4779031599e-001	 1.1725970391e+000
 1.4564374204e+000	 6.6241228888e-001	 1.0725994192e+000
 1.4497168158e+000	 6.7699420528e-001	 9.7381081286e-001
 1.4428379401e+000	 6.9153357023e-001	 8.7654963655e-001
 1.4358010400e+000	 7.0602788442e-001	 7.8113728256e-001
 1.4286064137e+000	 7.2047464540e-001	 6.8789829757e-001
 1.4212544109e+000	 7.3487134890e-001	 5.9716055071e-001
 1.4934724586e+000	 5.9125212726e-001	 1.4820082405e+000
 1.4875219890e+000	 6.0606715381e-001	 1.4106106035e+000
 1.4814121504e+000	 6.2085191730e-001	 1.3458248303e+000
 1.4751429389e+000	 6.3560394300e-001	 1.2550221981e+000
 1.4687144000e+000	 6.5032074691e-001	 1.1534114324e+000
 1.4621266291e+000	 6.6499983689e-001	 1.0534232139e+000
 1.4553797721e+000	 6.7963871389e-001	 9.5536676086e-001
 1.4484740258e+000	 6.9423487324e-001	 8.5955348230e-001
 1.4414096378e+000	 7.0878580585e-001	 7.6629717196e-001
 1.4341869075e+000	 7.2328899949e-001	 6.7591419391e-001
 1.4268061860e+000	 7.3774194011e-001	 5.8872365869e-001
 1.4992836355e+000	 5.9355271920e-001	 1.4684529997e+000
 1.4933100123e+000	 6.0842539176e-001	 1.3975354691e+000
 1.4871764000e+000	 6.2326768351e-001	 1.3339168879e+000
 1.4808827947e+000	 6.3807711010e-001	 1.2348272807e+000
 1.4744292420e+000	 6.5285117784e-001	 1.1324013212e+000
 1.4678158378e+000	 6.6758738489e-001	 1.0323212399e+000
 1.4610427284e+000	 6.8228322251e-001	 9.3488981258e-001
 1.4541101115e+000	 6.9693617625e-001	 8.4041141302e-001
 1.4470182356e+000	 7.1154372727e-001	 7.4919221286e-001
 1.4397674013e+000	 7.2610335357e-001	 6.6154037498e-001
 1.4323579610e+000	 7.4061253131e-001	 5.7776623783e-001
 1.5050948124e+000	 5.9585331113e-001	 1.4544929559e+000
 1.4990980356e+000	 6.1078362972e-001	 1.3838897165e+000
 1.4929406496e+000	 6.2568344973e-001	 1.3190227569e+000
 1.4866226505e+000	 6.4055027719e-001	 1.2129200494e+000
 1.4801440840e+000	 6.5538160876e-001	 1.1095852650e+000
 1.4735050464e+000	 6.7017493290e-001	 1.0093139076e+000
 1.4667056848e+000	 6.8492773112e-001	 9.1240227763e-001
 1.4597461972e+000	 6.9963747926e-001	 8.1914768418e-001
 1.4526268334e+000	 7.1430164870e-001	 7.2984865267e-001
 1.4453478951e+000	 7.2891770766e-001	 6.4480512543e-001
 1.4379097361e+000	 7.4348312252e-001	 5.6431865434e-001
 1.5109059892e+000	 5.9815390307e-001	 1.4400953419e+000
 1.5048860589e+000	 6.1314186767e-001	 1.3696408785e+000
 1.4987048992e+000	 6.2809921594e-001	 1.2971385341e+000
 1.4923625063e+000	 6.4302344429e-001	 1.1893174195e+000
 1.4858589260e+000	 6.5791203968e-001	 1.0849819624e+000
 1.4791942551e+000	 6.7276248090e-001	 9.8442174687e-001
 1.4723686411e+000	 6.8757223974e-001	 8.8792656337e-001
 1.4653822829e+000	 7.0233878227e-001	 7.9578662688e-001
 1.4582354312e+000	 7.1705957012e-001	 7.0829279145e-001
 1.4509283890e+000	 7.3173206174e-001	 6.2573675858e-001
 1.4434615111e+000	 7.4635371373e-001	 5.4841127827e-001
 1.3879437607e+000	 7.1764780164e-001	 5.9315079553e-001
 1.3806107744e+000	 7.3165575204e-001	 4.8562113691e-001
 1.3731249350e+000	 7.4560992674e-001	 3.8610501959e-001
 1.3654867361e+000	 7.5950788243e-001	 2.9482814414e-001
 1.3576967225e+000	 7.7334717919e-001	 2.1201344000e-001
 1.3497554902e+000	 7.8712538174e-001	 1.3788119192e-001
 1.3416636863e+000	 8.0084006078e-001	 7.2649158328e-002
 1.3334220089e+000	 8.1448879432e-001	 1.6532680309e-002
 1.3250312077e+000	 8.2806916902e-001	-3.0255219849e-002
 1.3164920830e+000	 8.4157878149e-001	-6.7503751602e-002
 1.3078054863e+000	 8.5501523966e-001	-9.5004281691e-002
 1.3934955357e+000	 7.2051839285e-001	 6.0047454093e-001
 1.3861332175e+000	 7.3458237505e-001	 4.9465947744e-001
 1.3786174347e+000	 7.4859236644e-001	 3.9583850220e-001
 1.3709486831e+000	 7.6254591396e-001	 3.0424187494e-001
 1.3631275094e+000	 7.7644056791e-001	 2.2009825412e-001
 1.3551545122e+000	 7.9027388326e-001	 1.4363483407e-001
 1.3470303410e+000	 8.0404342102e-001	 7.5077472064e-002
 1.3387556970e+000	 8.1774674950e-001	 1.4650804638e-002
 1.3303313325e+000	 8.3138144569e-001	-3.7421648444e-002
 1.3217580513e+000	 8.4494509662e-001	-8.0917393403e-002
 1.3130367082e+000	 8.5843530061e-001	-1.1561488605e-001
 1.3990473107e+000	 7.2338898406e-001	 6.0509564569e-001
 1.3916556606e+000	 7.3750899806e-001	 5.0112387172e-001
 1.3841099345e+000	 7.5157480615e-001	 4.0313465290e-001
 1.3764106300e+000	 7.6558394549e-001	 3.1136274311e-001
 1.3685582963e+000	 7.7953395662e-001	 2.2604246118e-001
 1.3605535342e+000	 7.9342238479e-001	 1.4740783856e-001
 1.3523969958e+000	 8.0724678126e-001	 7.5692755424e-002
 1.3440893850e+000	 8.2100470467e-001	 1.1131064194e-002
 1.3356314573e+000	 8.3469372237e-001	-4.6043300842e-002
 1.3270240196e+000	 8.4831141174e-001	-9.5596228966e-002
 1.3182679302e+000	 8.6185536157e-001	-1.3729335460e-001
 1.4045990858e+000	 7.2625957527e-001	 6.0704445119e-001
 1.3971781037e+000	 7.4043562107e-001	 5.0504364576e-001
 1.3896024342e+000	 7.5455724586e-001	 4.0802166260e-001
 1.3818725770e+000	 7.6862197702e-001	 3.1621768470e-001
 1.3739890832e+000	 7.8262734534e-001	 2.2987162247e-001
 1.3659525561e+000	 7.9657088631e-001	 1.4922427207e-001
 1.3577636505e+000	 8.1045014150e-001	 7.4517460661e-002
 1.3494230730e+000	 8.2426265985e-001	 5.9941772119e-003
 1.3409315822e+000	 8.3800599904e-001	-5.6101312176e-002
 1.3322899880e+000	 8.5167772686e-001	-1.1152336580e-001
 1.3234991521e+000	 8.6527542253e-001	-1.6002488581e-001
 1.4101508608e+000	 7.2913016648e-001	 6.0635130317e-001
 1.4027005468e+000	 7.4336224408e-001	 5.0644815299e-001
 1.3950949340e+000	 7.5753968557e-001	 4.1052777448e-001
 1.3873345239e+000	 7.7166000855e-001	 3.1883371445e-001
 1.3794198701e+000	 7.8572073406e-001	 2.3161140604e-001
 1.3713515781e+000	 7.9971938784e-001	 1.4910833776e-001
 1.3631303052e+000	 8.1365350174e-001	 7.1574207875e-002
 1.3547567611e+000	 8.2752061502e-001	-7.3893725973e-004
 1.3462317070e+000	 8.4131827572e-001	-6.7576582187e-002
 1.3375559563e+000	 8.5504404199e-001	-1.2868163985e-001
 1.3287303741e+000	 8.6869548348e-001	-1.8379436882e-001
 1.4157026359e+000	 7.3200075769e-001	 6.0304655163e-001
 1.4082229899e+000	 7.4628886709e-001	 5.0536677382e-001
 1.4005874337e+000	 7.6052212528e-001	 4.1068128296e-001
 1.3927964708e+000	 7.7469804008e-001	 3.1923792427e-001
 1.3848506570e+000	 7.8881412278e-001	 2.3128758466e-001
 1.3767506000e+000	 8.0286788937e-001	 1.4708437260e-001
 1.3684969600e+000	 8.1685686199e-001	 6.6885781716e-002
 1.3600904491e+000	 8.3077857020e-001	-9.0471632990e-003
 1.3515318318e+000	 8.4463055239e-001	-8.0449779841e-002
 1.3428219246e+000	 8.5841035711e-001	-1.4705362079e-001
 1.3339615960e+000	 8.7211554444e-001	-2.0858638946e-001
 1.4212544109e+000	 7.3487134890e-001	 5.9716055071e-001
 1.4137454330e+000	 7.4921549010e-001	 5.0182891505e-001
 1.4060799335e+000	 7.6350456499e-001	 4.0851053270e-001
 1.3982584178e+000	 7.7773607162e-001	 3.1745748171e-001
 1.3902814439e+000	 7.9190751149e-001	 2.2892603373e-001
 1.3821496220e+000	 8.0601639090e-001	 1.4317684478e-001
 1.3738636147e+000	 8.2006022223e-001	 6.0475128177e-002
 1.3654241372e+000	 8.3403652538e-001	-1.8909191954e-002
 1.3568319567e+000	 8.4794282907e-001	-9.4701347838e-002
 1.3480878930e+000	 8.6177667224e-001	-1.6662161729e-001
 1.3391928179e+000	 8.7553560540e-001	-2.3438523624e-001
 1.4268061860e+000	 7.3774194011e-001	 5.8872365869e-001
 1.4192678761e+000	 7.5214211311e-001	 4.9586400939e-001
 1.4115724332e+000	 7.6648700469e-001	 4.0404391761e-001
 1.4037203647e+000	 7.8077410315e-001	 3.1351962851e-001
 1.3957122308e+000	 7.9500090021e-001	 2.2455272931e-001
 1.3875486440e+000	 8.0916489243e-001	 1.3741035117e-001
 1.3792302695e+000	 8.2326358248e-001	 5.2365351450e-002
 1.3707578252e+000	 8.3729448056e-001	-3.0303524998e-002
 1.3621320815e+000	 8.5125510575e-001	-1.1031150701e-001
 1.3533538613e+000	 8.6514298737e-001	-1.8736768202e-001
 1.3444240399e+000	 8.7895566636e-001	-2.6117490610e-001
 1.4323579610e+000	 7.4061253131e-001	 5.7776623783e-001
 1.4247903192e+000	 7.5506873612e-001	 4.8750151495e-001
 1.4170649329e+000	 7.6946944440e-001	 3.9730987994e-001
 1.4091823117e+000	 7.8381213468e-001	 3.0745167913e-001
 1.4011430177e+000	 7.9809428893e-001	 2.1819374612e-001
 1.3929476659e+000	 8.1231339396e-001	 1.2980961475e-001
 1.3845969242e+000	 8.2646694273e-001	 4.2579710863e-002
 1.3760915132e+000	 8.4055243574e-001	-4.3208478600e-002
 1.3674322063e+000	 8.5456738243e-001	-1.2726026062e-001
 1.3586198296e+000	 8.6850930250e-001	-2.0927361666e-001
 1.3496552618e+000	 8.8237572732e-001	-2.8893911006e-001
 1.4379097361e+000	 7.4348312252e-001	 5.6431865434e-001
 1.4303127623e+000	 7.5799535913e-001	 4.7677091472e-001
 1.4225574327e+000	 7.7245188411e-001	 3.8833690929e-001
 1.4146442586e+000	 7.8685016621e-001	 2.9928101941e-001
 1.4065738046e+000	 8.0118767765e-001	 2.0987525572e-001
 1.3983466879e+000	 8.1546189549e-001	 1.2039948228e-001
 1.3899635790e+000	 8.2967030297e-001	 3.1141617885e-002
 1.3814252013e+000	 8.4381039092e-001	-5.7602186904e-002
 1.3727323312e+000	 8.5787965911e-001	-1.4552739857e-001
 1.3638857980e+000	 8.7187561763e-001	-2.3232097670e-001
 1.3548864838e+000	 8.8579578829e-001	-3.1766127873e-001
 1.4434615111e+000	 7.4635371373e-001	 5.4841127827e-001
 1.4358352054e+000	 7.6092198215e-001	 4.6370171615e-001
 1.4280499324e+000	 7.7543432383e-001	 3.7715354172e-001
 1.4201062056e+000	 7.8988819775e-001	 2.8903510511e-001
 1.4120045915e+000	 8.0428106638e-001	 1.9962352457e-001
 1.4037457098e+000	 8.1861039702e-001	 1.0920492184e-001
 1.3953302337e+000	 8.3287366322e-001	 1.8074633198e-002
 1.3867588893e+000	 8.4706834611e-001	-7.3462605533e-002
 1.3780324560e+000	 8.6119193579e-001	-1.6509250149e-001
 1.3691517663e+000	 8.7524193276e-001	-2.5649107625e-001
 1.3601177057e+000	 8.8921584925e-001	-3.4732456773e-001
 1.3078054863e+000	 8.5501523966e-001	-9.5004281691e-002
 1.2989723198e+000	 8.6837616408e-001	-2.2810807225e-001
 1.2899935364e+000	 8.8165918928e-001	-3.7306778205e-001
 1.2808701392e+000	 8.9486196510e-001	-5.2885462382e-001
 1.2716031813e+000	 9.0798215799e-001	-6.9441608637e-001
 1.2621937658e+000	 9.2101745238e-001	-8.6867666997e-001
 1.2526430448e+000	 9.3396555194e-001	-1.0505386779e+000
 1.2429522197e+000	 9.4682418092e-001	-1.0596916388e+000
 1.2331225401e+000	 9.5959108543e-001	-1.0150207878e+000
 1.2231553036e+000	 9.7226403473e-001	-9.8444404032e-001
 1.2130518556e+000	 9.8484082250e-001	-9.6683197064e-001
 1.3130367082e+000	 8.5843530061e-001	-1.1561488605e-001
 1.3041682091e+000	 8.7184966873e-001	-2.4509022195e-001
 1.2951535105e+000	 8.8518582603e-001	-3.8447611377e-001
 1.2859936197e+000	 8.9844141295e-001	-5.3278252714e-001
 1.2766895941e+000	 9.1161408662e-001	-6.8899747835e-001
 1.2672425409e+000	 9.2470152219e-001	-8.5208773490e-001
 1.2576536170e+000	 9.3770141415e-001	-1.0209995699e+000
 1.2479240286e+000	 9.5061147764e-001	-1.1421678891e+000
 1.2380550302e+000	 9.6342944977e-001	-1.0780713544e+000
 1.2280479248e+000	 9.7615309086e-001	-1.0264442565e+000
 1.2179040630e+000	 9.8878018579e-001	-9.8620463534e-001
 1.3182679302e+000	 8.6185536157e-001	-1.3729335460e-001
 1.3093640984e+000	 8.7532317338e-001	-2.6372447925e-001
 1.3003134847e+000	 8.8871246279e-001	-3.9813728121e-001
 1.2911171003e+000	 9.0202086081e-001	-5.3958026072e-001
 1.2817760068e+000	 9.1524601525e-001	-6.8708172984e-001
 1.2722913159e+000	 9.2838559200e-001	-8.3965047826e-001
 1.2626641892e+000	 9.4143727635e-001	-9.9627649076e-001
 1.2528958374e+000	 9.5439877436e-001	-1.1559317162e+000
 1.2429875204e+000	 9.6726781411e-001	-1.1459510895e+000
 1.2329405461e+000	 9.8004214700e-001	-1.0739990127e+000
 1.2227562704e+000	 9.9271954908e-001	-1.0118688763e+000
 1.3234991521e+000	 8.6527542253e-001	-1.6002488581e-001
 1.3145599876e+000	 8.7879667804e-001	-2.8398889852e-001
 1.3054734588e+000	 8.9223909954e-001	-4.1402203232e-001
 1.2962405808e+000	 9.0560030867e-001	-5.4921110683e-001
 1.2868624195e+000	 9.1887794388e-001	-6.8862450137e-001
 1.2773400910e+000	 9.3206966180e-001	-8.3131278605e-001
 1.2676747614e+000	 9.4517313856e-001	-9.7630940240e-001
 1.2578676463e+000	 9.5818607108e-001	-1.1226313933e+000
 1.2479200105e+000	 9.7110617845e-001	-1.2186408007e+000
 1.2378331673e+000	 9.8393120314e-001	-1.1270811595e+000
 1.2276084779e+000	 9.9665891237e-001	-1.0437894223e+000
 1.3287303741e+000	 8.6869548348e-001	-1.8379436882e-001
 1.3197558769e+000	 8.8227018269e-001	-3.0586133275e-001
 1.3106334330e+000	 8.9576573630e-001	-4.3210102445e-001
 1.3013640614e+000	 9.0917975653e-001	-5.6163837075e-001
 1.2919488322e+000	 9.2250987251e-001	-6.9358159281e-001
 1.2823888660e+000	 9.3575373161e-001	-8.2702280265e-001
 1.2726853336e+000	 9.4890900076e-001	-9.6103864702e-001
 1.2628394552e+000	 9.6197336780e-001	-1.0946909984e+000
 1.2528525007e+000	 9.7494454279e-001	-1.2270276931e+000
 1.2427257885e+000	 9.8782025928e-001	-1.1856643077e+000
 1.2324606853e+000	 1.0005982757e+000	-1.0819318945e+000
 1.3339615960e+000	 8.7211554444e-001	-2.0858638946e-001
 1.3249517662e+000	 8.8574368735e-001	-3.2931943747e-001
 1.3157934071e+000	 8.9929237305e-001	-4.5234482611e-001
 1.3064875419e+000	 9.1275920439e-001	-5.7682538026e-001
 1.2970352449e+000	 9.2614180114e-001	-7.0190894061e-001
 1.2874376411e+000	 9.3943780142e-001	-8.2672892575e-001
 1.2776959057e+000	 9.5264486297e-001	-9.5040493940e-001
 1.2678112641e+000	 9.6576066453e-001	-1.0720434227e+000
 1.2577849908e+000	 9.7878290713e-001	-1.1907383511e+000
 1.2476184097e+000	 9.9170931542e-001	-1.2497228139e+000
 1.2373128927e+000	 1.0045376389e+000	-1.1262627889e+000
 1.3391928179e+000	 8.7553560540e-001	-2.3438523624e-001
 1.3301476555e+000	 8.8921719201e-001	-3.5434067462e-001
 1.3209533813e+000	 9.0281900981e-001	-4.7472391873e-001
 1.3116110225e+000	 9.1633865225e-001	-5.9473548526e-001
 1.3021216577e+000	 9.2977372977e-001	-7.1356261516e-001
 1.2924864162e+000	 9.4312187123e-001	-8.3037980141e-001
 1.2827064779e+000	 9.5638072518e-001	-9.4434935968e-001
 1.2727830730e+000	 9.6954796125e-001	-1.0546220420e+000
 1.2627174810e+000	 9.8262127147e-001	-1.1603376931e+000
 1.2525110309e+000	 9.9559837155e-001	-1.2606259491e+000
 1.2421651001e+000	 1.0084770022e+000	-1.1767494592e+000
 1.3444240399e+000	 8.7895566636e-001	-2.6117490610e-001
 1.3353435448e+000	 8.9269069666e-001	-3.8090231632e-001
 1.3261133554e+000	 9.0634564657e-001	-4.9920869834e-001
 1.3167345031e+000	 9.1991810011e-001	-6.1533205731e-001
 1.3072080704e+000	 9.3340565841e-001	-7.2849881818e-001
 1.2975351912e+000	 9.4680594104e-001	-8.3792431921e-001
 1.2877170501e+000	 9.6011658739e-001	-9.4281334621e-001
 1.2777548818e+000	 9.7333525797e-001	-1.0423607077e+000
 1.2676499712e+000	 9.8645963581e-001	-1.1357518508e+000
 1.2574036521e+000	 9.9948742769e-001	-1.2221635171e+000
 1.2470173075e+000	 1.0124163655e+000	-1.2333601004e+000
 1.3496552618e+000	 8.8237572732e-001	-2.8893911006e-001
 1.3405394340e+000	 8.9616420132e-001	-4.0898144855e-001
 1.3312733296e+000	 9.0987228333e-001	-5.2576947724e-001
 1.3218579836e+000	 9.2349754797e-001	-6.3857848922e-001
 1.3122944831e+000	 9.3703758704e-001	-7.4667388016e-001
 1.3025839663e+000	 9.5049001085e-001	-8.4931160753e-001
 1.2927276223e+000	 9.6385244959e-001	-9.4573868867e-001
 1.2827266907e+000	 9.7712255470e-001	-1.0351937374e+000
 1.2725824613e+000	 9.9029800015e-001	-1.1169075396e+000
 1.2622962733e+000	 1.0033764838e+000	-1.1901036667e+000
 1.2518695150e+000	 1.0163557288e+000	-1.2539991282e+000
 1.3548864838e+000	 8.8579578829e-001	-3.1766127873e-001
 1.3457353233e+000	 8.9963770598e-001	-4.3855497475e-001
 1.3364333037e+000	 9.1339892009e-001	-5.5437648559e-001
 1.3269814642e+000	 9.2707699584e-001	-6.6443819464e-001
 1.3173808958e+000	 9.4066951568e-001	-7.6804425787e-001
 1.3076327414e+000	 9.5417408066e-001	-8.6449102898e-001
 1.2977381944e+000	 9.6758831180e-001	-9.5306752122e-001
 1.2876984996e+000	 9.8090985142e-001	-1.0330559058e+000
 1.2775149515e+000	 9.9413636449e-001	-1.1037320470e+000
 1.2671888945e+000	 1.0072655400e+000	-1.1643660740e+000
 1.2567217224e+000	 1.0202950921e+000	-1.2142229883e+000
 1.3601177057e+000	 8.8921584925e-001	-3.4732456773e-001
 1.3509312126e+000	 9.0311121064e-001	-4.6959961930e-001
 1.3415932778e+000	 9.1692555685e-001	-5.8499987299e-001
 1.3321049447e+000	 9.3065644370e-001	-6.9287460763e-001
 1.3224673086e+000	 9.4430144431e-001	-7.9256653197e-001
 1.3126815164e+000	 9.5785815047e-001	-8.8341217585e-001
 1.3027487666e+000	 9.7132417401e-001	-9.6474231594e-001
 1.2926703085e+000	 9.8469714815e-001	-1.0358824360e+000
 1.2824474416e+000	 9.9797472884e-001	-1.0961532217e+000
 1.2720815158e+000	 1.0111545961e+000	-1.1448710907e+000
 1.2615739298e+000	 1.0242344554e+000	-1.1813487561e+000
 1.2130518556e+000	 9.8484082250e-001	-9.6683197064e-001
 1.2028135880e+000	 9.9731926811e-001	-1.0932083466e+000
 1.1924419392e+000	 1.0096972178e+000	-1.2115625572e+000
 1.1819383932e+000	 1.0219725460e+000	-1.3215349478e+000
 1.1713044788e+000	 1.0341431565e+000	-1.4227808332e+000
 1.1605417691e+000	 1.0462069834e+000	-1.5149712298e+000
 1.1496518808e+000	 1.0581619928e+000	-1.5977935563e+000
 1.1386364729e+000	 1.0700061835e+000	-1.6709523007e+000
 1.1274972465e+000	 1.0817375880e+000	-1.7341696521e+000
 1.1162359434e+000	 1.0933542741e+000	-1.7871860951e+000
 1.1048543456e+000	 1.1048543456e+000	-1.8297609659e+000
 1.2179040630e+000	 9.8878018579e-001	-9.8620463534e-001
 1.2076248424e+000	 1.0013085452e+000	-1.1000548431e+000
 1.1972117070e+000	 1.0137360067e+000	-1.2082308494e+000
 1.1866661467e+000	 1.0260604362e+000	-1.3103468139e+000
 1.1759896967e+000	 1.0382797291e+000	-1.4060297377e+000
 1.1651839362e+000	 1.0503918114e+000	-1.4949202247e+000
 1.1542504883e+000	 1.0623946408e+000	-1.5766732151e+000
 1.1431910188e+000	 1.0742862082e+000	-1.6509586868e+000
 1.1320072355e+000	 1.0860645383e+000	-1.7174623246e+000
 1.1207008872e+000	 1.0977276912e+000	-1.7758861546e+000
 1.1092737630e+000	 1.1092737630e+000	-1.8259491432e+000
 1.2227562704e+000	 9.9271954908e-001	-1.0118688763e+000
 1.2124360967e+000	 1.0052978223e+000	-1.1129222095e+000
 1.2019814747e+000	 1.0177747956e+000	-1.2106292001e+000
 1.1913939003e+000	 1.0301483264e+000	-1.3045778926e+000
 1.1806749146e+000	 1.0424163017e+000	-1.3943670593e+000
 1.1698261033e+000	 1.0545766393e+000	-1.4796069910e+000
 1.1588490958e+000	 1.0666272888e+000	-1.5599202625e+000
 1.1477455647e+000	 1.0785662329e+000	-1.6349424686e+000
 1.1365172245e+000	 1.0903914887e+000	-1.7043229313e+000
 1.1251658310e+000	 1.1021011083e+000	-1.7677253738e+000
 1.1136931804e+000	 1.1136931804e+000	-1.8248285613e+000
 1.2276084779e+000	 9.9665891237e-001	-1.0437894223e+000
 1.2172473511e+000	 1.0092870993e+000	-1.1317789756e+000
 1.2067512425e+000	 1.0218135844e+000	-1.2187301502e+000
 1.1961216539e+000	 1.0342362166e+000	-1.3042049447e+000
 1.1853601325e+000	 1.0465528744e+000	-1.3877739854e+000
 1.1744682704e+000	 1.0587614672e+000	-1.4690173471e+000
 1.1634477034e+000	 1.0708599368e+000	-1.5475253500e+000
 1.1523001106e+000	 1.0828462577e+000	-1.6228993312e+000
 1.1410272134e+000	 1.0947184390e+000	-1.6947523884e+000
 1.1296307747e+000	 1.1064745254e+000	-1.7627100945e+000
 1.1181125978e+000	 1.1181125978e+000	-1.8264111803e+000
 1.2324606853e+000	 1.0005982757e+000	-1.0819318945e+000
 1.2220586054e+000	 1.0132763764e+000	-1.1565945072e+000
 1.2115210102e+000	 1.0258523733e+000	-1.2325070173e+000
 1.2008494075e+000	 1.0383241068e+000	-1.3092054445e+000
 1.1900453504e+000	 1.0506894470e+000	-1.3862323504e+000
 1.1791104374e+000	 1.0629462952e+000	-1.4631376885e+000
 1.1680463109e+000	 1.0750925847e+000	-1.5394796333e+000
 1.1568546565e+000	 1.0871262824e+000	-1.6148253869e+000
 1.1455372024e+000	 1.0990453894e+000	-1.6887519593e+000
 1.1340957185e+000	 1.1108479425e+000	-1.7608469230e+000
 1.1225320152e+000	 1.1225320152e+000	-1.8307091383e+000
 1.2373128927e+000	 1.0045376389e+000	-1.1262627889e+000
 1.2268698598e+000	 1.0172656535e+000	-1.1873389901e+000
 1.2162907780e+000	 1.0298911622e+000	-1.2519338804e+000
 1.2055771610e+000	 1.0424119969e+000	-1.3195575661e+000
 1.1947305683e+000	 1.0548260196e+000	-1.3897246230e+000
 1.1837526045e+000	 1.0671311231e+000	-1.4619549765e+000
 1.1726449184e+000	 1.0793252327e+000	-1.5357747622e+000
 1.1614092024e+000	 1.0914063071e+000	-1.6107171673e+000
 1.1500471914e+000	 1.1033723397e+000	-1.6863232482e+000
 1.1385606623e+000	 1.1152213596e+000	-1.7621427248e+000
 1.1269514325e+000	 1.1269514325e+000	-1.8377347478e+000
 1.2421651001e+000	 1.0084770022e+000	-1.1767494592e+000
 1.2316811141e+000	 1.0212549305e+000	-1.2239834139e+000
 1.2210605457e+000	 1.0339299510e+000	-1.2769855651e+000
 1.2103049146e+000	 1.0464998871e+000	-1.3352401692e+000
 1.1994157863e+000	 1.0589625922e+000	-1.3982338939e+000
 1.1883947716e+000	 1.0713159510e+000	-1.4654567273e+000
 1.1772435259e+000	 1.0835578807e+000	-1.5364028707e+000
 1.1659637483e+000	 1.0956863319e+000	-1.6105716144e+000
 1.1545571804e+000	 1.1076992901e+000	-1.6874681932e+000
 1.1430256061e+000	 1.1195947767e+000	-1.7666046194e+000
 1.1313708499e+000	 1.1313708499e+000	-1.8475004927e+000
 1.2470173075e+000	 1.0124163655e+000	-1.2333601004e+000
 1.2364923685e+000	 1.0252442076e+000	-1.2664995563e+000
 1.2258303135e+000	 1.0379687399e+000	-1.3076376286e+000
 1.2150326682e+000	 1.0505877773e+000	-1.3562327861e+000
 1.2041010042e+000	 1.0630991649e+000	-1.4117438638e+000
 1.1930369387e+000	 1.0755007790e+000	-1.4736310012e+000
 1.1818421334e+000	 1.0877905286e+000	-1.5413565678e+000
 1.1705182941e+000	 1.0999663566e+000	-1.6143860734e+000
 1.1590671694e+000	 1.1120262404e+000	-1.6921890601e+000
 1.1474905498e+000	 1.1239681938e+000	-1.7742399755e+000
 1.1357902673e+000	 1.1357902673e+000	-1.8600190242e+000
 1.2518695150e+000	 1.0163557288e+000	-1.2539991282e+000
 1.2413036228e+000	 1.0292334847e+000	-1.3148599678e+000
 1.2306000813e+000	 1.0420075288e+000	-1.3438663464e+000
 1.2197604217e+000	 1.0546756675e+000	-1.3825156089e+000
 1.2087862221e+000	 1.0672357375e+000	-1.4302388312e+000
 1.1976791057e+000	 1.0796856069e+000	-1.4864663917e+000
 1.1864407409e+000	 1.0920231766e+000	-1.5506289285e+000
 1.1750728400e+000	 1.1042463813e+000	-1.6221582842e+000
 1.1635771584e+000	 1.1163531908e+000	-1.7004884357e+000
 1.1519554936e+000	 1.1283416109e+000	-1.7850564061e+000
 1.1402096847e+000	 1.1402096847e+000	-1.8753031584e+000
 1.2567217224e+000	 1.0202950921e+000	-1.2142229883e+000
 1.2461148772e+000	 1.0332227618e+000	-1.3690379571e+000
 1.2353698490e+000	 1.0460463176e+000	-1.3856486975e+000
 1.2244881753e+000	 1.0587635577e+000	-1.4140694761e+000
 1.2134714400e+000	 1.0713723101e+000	-1.4537036815e+000
 1.2023212728e+000	 1.0838704348e+000	-1.5039520158e+000
 1.1910393485e+000	 1.0962558246e+000	-1.5642134843e+000
 1.1796273859e+000	 1.1085264061e+000	-1.6338863742e+000
 1.1680871473e+000	 1.1206801411e+000	-1.7123692217e+000
 1.1564204374e+000	 1.1327150280e+000	-1.7990617637e+000
 1.1446291020e+000	 1.1446291020e+000	-1.8933658724e+000
 1.2615739298e+000	 1.0242344554e+000	-1.1813487561e+000
 1.2509261315e+000	 1.0372120388e+000	-1.4089058566e+000
 1.2401396168e+000	 1.0500851065e+000	-1.4329623518e+000
 1.2292159289e+000	 1.0628514479e+000	-1.4508758609e+000
 1.2181566579e+000	 1.0755088827e+000	-1.4821238750e+000
 1.2069634399e+000	 1.0880552628e+000	-1.5260775035e+000
 1.1956379560e+000	 1.1004884725e+000	-1.5821042148e+000
 1.1841819318e+000	 1.1128064308e+000	-1.6495688506e+000
 1.1725971363e+000	 1.1250070915e+000	-1.7278346290e+000
 1.1608853811e+000	 1.1370884451e+000	-1.8162641360e+000
 1.1490485194e+000	 1.1490485194e+000	-1.9142203018e+000
 1.1048543456e+000	 1.1048543456e+000	-1.8297609659e+000
 1.0933542741e+000	 1.1162359434e+000	-1.8645182009e+000
 1.0817375880e+000	 1.1274972465e+000	-1.9003757398e+000
 1.0700061835e+000	 1.1386364729e+000	-1.9375464871e+000
 1.0581619928e+000	 1.1496518808e+000	-1.9762508878e+000
 1.0462069834e+000	 1.1605417691e+000	-2.0167168721e+000
 1.0341431565e+000	 1.1713044788e+000	-2.0591797748e+000
 1.0219725460e+000	 1.1819383932e+000	-2.1038822268e+000
 1.0096972178e+000	 1.1924419392e+000	-2.1510740205e+000
 9.9731926811e-001	 1.2028135880e+000	-2.2010119487e+000
 9.8484082250e-001	 1.2130518556e+000	-2.2539596164e+000
 1.1092737630e+000	 1.1092737630e+000	-1.8259491432e+000
 1.0977276912e+000	 1.1207008872e+000	-1.8724759737e+000
 1.0860645383e+000	 1.1320072355e+000	-1.9165963154e+000
 1.0742862082e+000	 1.1431910188e+000	-1.9584631081e+000
 1.0623946408e+000	 1.1542504883e+000	-1.9982404082e+000
 1.0503918114e+000	 1.1651839362e+000	-2.0361033929e+000
 1.0382797291e+000	 1.1759896967e+000	-2.0722383330e+000
 1.0260604362e+000	 1.1866661467e+000	-2.1068425337e+000
 1.0137360067e+000	 1.1972117070e+000	-2.1401242434e+000
 1.0013085452e+000	 1.2076248424e+000	-2.1723025302e+000
 9.8878018579e-001	 1.2179040630e+000	-2.2036071270e+000
 1.1136931804e+000	 1.1136931804e+000	-1.8248285613e+000
 1.1021011083e+000	 1.1251658310e+000	-1.8823979042e+000
 1.0903914887e+000	 1.1365172245e+000	-1.9340788303e+000
 1.0785662329e+000	 1.1477455647e+000	-1.9799646186e+000
 1.0666272888e+000	 1.1588490958e+000	-2.0201632261e+000
 1.0545766393e+000	 1.1698261033e+000	-2.0547973507e+000
 1.0424163017e+000	 1.1806749146e+000	-2.0840044578e+000
 1.0301483264e+000	 1.1913939003e+000	-2.1079367702e+000
 1.0177747956e+000	 1.2019814747e+000	-2.1267612193e+000
 1.0052978223e+000	 1.2124360967e+000	-2.1406593604e+000
 9.9271954908e-001	 1.2227562704e+000	-2.1498272503e+000
 1.1181125978e+000	 1.1181125978e+000	-1.8264111803e+000
 1.1064745254e+000	 1.1296307747e+000	-1.8943048455e+000
 1.0947184390e+000	 1.1410272134e+000	-1.9528526998e+000
 1.0828462577e+000	 1.1523001106e+000	-2.0020886613e+000
 1.0708599368e+000	 1.1634477034e+000	-2.0420648724e+000
 1.0587614672e+000	 1.1744682704e+000	-2.0728518219e+000
 1.0465528744e+000	 1.1853601325e+000	-2.0945384252e+000
 1.0342362166e+000	 1.1961216539e+000	-2.1072320621e+000
 1.0218135844e+000	 1.2067512425e+000	-2.1110585718e+000
 1.0092870993e+000	 1.2172473511e+000	-2.1061622057e+000
 9.9665891237e-001	 1.2276084779e+000	-2.0927055370e+000
 1.1225320152e+000	 1.1225320152e+000	-1.8307091383e+000
 1.1108479425e+000	 1.1340957185e+000	-1.9082176905e+000
 1.0990453894e+000	 1.1455372024e+000	-1.9729472461e+000
 1.0871262824e+000	 1.1568546565e+000	-2.0248726574e+000
 1.0750925847e+000	 1.1680463109e+000	-2.0639905336e+000
 1.0629462952e+000	 1.1791104374e+000	-2.0903194211e+000
 1.0506894470e+000	 1.1900453504e+000	-2.1038999367e+000
 1.0383241068e+000	 1.2008494075e+000	-2.1047948540e+000
 1.0258523733e+000	 1.2115210102e+000	-2.0930891414e+000
 1.0132763764e+000	 1.2220586054e+000	-2.0688899522e+000
 1.0005982757e+000	 1.2324606853e+000	-2.0323265671e+000
 1.1269514325e+000	 1.1269514325e+000	-1.8377347478e+000
 1.1152213596e+000	 1.1385606623e+000	-1.9241573715e+000
 1.1033723397e+000	 1.1500471914e+000	-1.9943916998e+000
 1.0914063071e+000	 1.1614092024e+000	-2.0483538113e+000
 1.0793252327e+000	 1.1726449184e+000	-2.0859850591e+000
 1.0671311231e+000	 1.1837526045e+000	-2.1072523100e+000
 1.0548260196e+000	 1.1947305683e+000	-2.1121481307e+000
 1.0424119969e+000	 1.2055771610e+000	-2.1006909220e+000
 1.0298911622e+000	 1.2162907780e+000	-2.0729250001e+000
 1.0172656535e+000	 1.2268698598e+000	-2.0289206235e+000
 1.0045376389e+000	 1.2373128927e+000	-1.9687739685e+000
 1.1313708499e+000	 1.1313708499e+000	-1.8475004927e+000
 1.1195947767e+000	 1.1430256061e+000	-1.9421448589e+000
 1.1076992901e+000	 1.1545571804e+000	-2.0172152021e+000
 1.0956863319e+000	 1.1659637483e+000	-2.0725691145e+000
 1.0835578807e+000	 1.1772435259e+000	-2.1080929671e+000
 1.0713159510e+000	 1.1883947716e+000	-2.1237022062e+000
 1.0589625922e+000	 1.1994157863e+000	-2.1193415934e+000
 1.0464998871e+000	 1.2103049146e+000	-2.0949853872e+000
 1.0339299510e+000	 1.2210605457e+000	-2.0506374669e+000
 1.0212549305e+000	 1.2316811141e+000	-1.9863313975e+000
 1.0084770022e+000	 1.2421651001e+000	-1.9021304361e+000
 1.1357902673e+000	 1.1357902673e+000	-1.8600190242e+000
 1.1239681938e+000	 1.1474905498e+000	-1.9622011605e+000
 1.1120262404e+000	 1.1590671694e+000	-2.0414468059e+000
 1.0999663566e+000	 1.1705182941e+000	-2.0975553501e+000
 1.0877905286e+000	 1.1818421334e+000	-2.1303584514e+000
 1.0755007790e+000	 1.1930369387e+000	-2.1397203919e+000
 1.0630991649e+000	 1.2041010042e+000	-2.1255383696e+000
 1.0505877773e+000	 1.2150326682e+000	-2.0877427280e+000
 1.0379687399e+000	 1.2258303135e+000	-2.0262971225e+000
 1.0252442076e+000	 1.2364923685e+000	-1.9411986223e+000
 1.0124163655e+000	 1.2470173075e+000	-1.8324777491e+000
 1.1402096847e+000	 1.1402096847e+000	-1.8753031584e+000
 1.1283416109e+000	 1.1519554936e+000	-1.9843473212e+000
 1.1163531908e+000	 1.1635771584e+000	-2.0671154783e+000
 1.1042463813e+000	 1.1750728400e+000	-2.1233490964e+000
 1.0920231766e+000	 1.1864407409e+000	-2.1528253878e+000
 1.0796856069e+000	 1.1976791057e+000	-2.1553577223e+000
 1.0672357375e+000	 1.2087862221e+000	-2.1307959732e+000
 1.0546756675e+000	 1.2197604217e+000	-2.0790267931e+000
 1.0420075288e+000	 1.2306000813e+000	-1.9999738234e+000
 1.0292334847e+000	 1.2413036228e+000	-1.8935978332e+000
 1.0163557288e+000	 1.2518695150e+000	-1.8340526132e+000
 1.1446291020e+000	 1.1446291020e+000	-1.8933658724e+000
 1.1327150280e+000	 1.1564204374e+000	-2.0086044219e+000
 1.1206801411e+000	 1.1680871473e+000	-2.0942501016e+000
 1.1085264061e+000	 1.1796273859e+000	-2.1499867313e+000
 1.0962558246e+000	 1.1910393485e+000	-2.1755373398e+000
 1.0838704348e+000	 1.2023212728e+000	-2.1706646341e+000
 1.0713723101e+000	 1.2134714400e+000	-2.1351713973e+000
 1.0587635577e+000	 1.2244881753e+000	-2.0689008130e+000
 1.0460463176e+000	 1.2353698490e+000	-1.9717367159e+000
 1.0332227618e+000	 1.2461148772e+000	-1.8436037677e+000
 1.0202950921e+000	 1.2567217224e+000	-1.9490023295e+000
 1.1490485194e+000	 1.1490485194e+000	-1.9142203018e+000
 1.1370884451e+000	 1.1608853811e+000	-2.0349935789e+000
 1.1250070915e+000	 1.1725971363e+000	-2.1228794752e+000
 1.1128064308e+000	 1.1841819318e+000	-2.1775044359e+000
 1.1004884725e+000	 1.1956379560e+000	-2.1985375652e+000
 1.0880552628e+000	 1.2069634399e+000	-2.1856911529e+000
 1.0755088827e+000	 1.2181566579e+000	-2.1387211245e+000
 1.0628514479e+000	 1.2292159289e+000	-2.0574274126e+000
 1.0500851065e+000	 1.2401396168e+000	-1.9416542497e+000
 1.0372120388e+000	 1.2509261315e+000	-1.8266902589e+000
 1.0242344554e+000	 1.2615739298e+000	-2.0581396648e+000
 9.8484082250e-001	 1.2130518556e+000	-2.2539596164e+000
 9.7226403473e-001	 1.2231553036e+000	-2.1905327565e+000
 9.5959108543e-001	 1.2331225401e+000	-2.0777095657e+000
 9.4682418092e-001	 1.2429522197e+000	-1.9148296858e+000
 9.3396555194e-001	 1.2526430448e+000	-1.8205781909e+000
 9.2101745238e-001	 1.2621937658e+000	-1.9964501492e+000
 9.0798215799e-001	 1.2716031813e+000	-2.1291634174e+000
 8.9486196510e-001	 1.2808701392e+000	-2.2180643840e+000
 8.8165918928e-001	 1.2899935364e+000	-2.2625386966e+000
 8.6837616408e-001	 1.2989723198e+000	-2.2620119275e+000
 8.5501523966e-001	 1.3078054863e+000	-2.2159501860e+000
 9.8878018579e-001	 1.2179040630e+000	-2.2036071270e+000
 9.7615309086e-001	 1.2280479248e+000	-2.1045853213e+000
 9.6342944977e-001	 1.2380550302e+000	-1.9588077052e+000
 9.5061147764e-001	 1.2479240286e+000	-1.7656908840e+000
 9.3770141415e-001	 1.2576536170e+000	-1.8681203562e+000
 9.2470152219e-001	 1.2672425409e+000	-2.0227067002e+000
 9.1161408662e-001	 1.2766895941e+000	-2.1373065428e+000
 8.9844141295e-001	 1.2859936197e+000	-2.2113280508e+000
 8.8518582603e-001	 1.2951535105e+000	-2.2442153505e+000
 8.7184966873e-001	 1.3041682091e+000	-2.2354491552e+000
 8.5843530061e-001	 1.3130367082e+000	-2.1845473425e+000
 9.9271954908e-001	 1.2227562704e+000	-2.1498272503e+000
 9.8004214700e-001	 1.2329405461e+000	-2.0162235490e+000
 9.6726781411e-001	 1.2429875204e+000	-1.8384790128e+000
 9.5439877436e-001	 1.2528958374e+000	-1.7429585569e+000
 9.4143727635e-001	 1.2626641892e+000	-1.9134750538e+000
 9.2838559200e-001	 1.2722913159e+000	-2.0477157625e+000
 9.1524601525e-001	 1.2817760068e+000	-2.1451181744e+000
 9.0202086081e-001	 1.2911171003e+000	-2.2051518282e+000
 8.8871246279e-001	 1.3003134847e+000	-2.2273189405e+000
 8.7532317338e-001	 1.3093640984e+000	-2.2111549934e+000
 8.6185536157e-001	 1.3182679302e+000	-2.1562292786e+000
 9.9665891237e-001	 1.2276084779e+000	-2.0927055370e+000
 9.8393120314e-001	 1.2378331673e+000	-1.9255208702e+000
 9.7110617845e-001	 1.2479200105e+000	-1.7167850620e+000
 9.5818607108e-001	 1.2578676463e+000	-1.8086054714e+000
 9.4517313856e-001	 1.2676747614e+000	-1.9566451796e+000
 9.3206966180e-001	 1.2773400910e+000	-2.0714694275e+000
 9.1887794388e-001	 1.2868624195e+000	-2.1525798998e+000
 9.0560030867e-001	 1.2962405808e+000	-2.1995071063e+000
 8.9223909954e-001	 1.3054734588e+000	-2.2118109685e+000
 8.7879667804e-001	 1.3145599876e+000	-2.1890813694e+000
 8.6527542253e-001	 1.3234991521e+000	-2.1309386633e+000
 1.0005982757e+000	 1.2324606853e+000	-2.0323265671e+000
 9.8782025928e-001	 1.2427257885e+000	-1.8325499351e+000
 9.7494454279e-001	 1.2528525007e+000	-1.7149059972e+000
 9.6197336780e-001	 1.2628394552e+000	-1.8711289606e+000
 9.4890900076e-001	 1.2726853336e+000	-1.9976333953e+000
 9.3575373161e-001	 1.2823888660e+000	-2.0939597245e+000
 9.2250987251e-001	 1.2919488322e+000	-2.1596734133e+000
 9.0917975653e-001	 1.3013640614e+000	-2.1943655448e+000
 8.9576573630e-001	 1.3106334330e+000	-2.1976533648e+000
 8.8227018269e-001	 1.3197558769e+000	-2.1691807922e+000
 8.6869548348e-001	 1.3287303741e+000	-2.1086188965e+000
 1.0045376389e+000	 1.2373128927e+000	-1.9687739685e+000
 9.9170931542e-001	 1.2476184097e+000	-1.7373826288e+000
 9.7878290713e-001	 1.2577849908e+000	-1.7978719075e+000
 9.6576066453e-001	 1.2678112641e+000	-1.9305422066e+000
 9.5264486297e-001	 1.2776959057e+000	-2.0364421321e+000
 9.3943780142e-001	 1.2874376411e+000	-2.1151786222e+000
 9.2614180114e-001	 1.2970352449e+000	-2.1663805131e+000
 9.1275920439e-001	 1.3064875419e+000	-2.1896990679e+000
 8.9929237305e-001	 1.3157934071e+000	-2.1848084792e+000
 8.8574368735e-001	 1.3249517662e+000	-2.1514063413e+000
 8.7211554444e-001	 1.3339615960e+000	-2.0892140944e+000
 1.0084770022e+000	 1.2421651001e+000	-1.9021304361e+000
 9.9559837155e-001	 1.2525110309e+000	-1.7432394273e+000
 9.8262127147e-001	 1.2627174810e+000	-1.8767981955e+000
 9.6954796125e-001	 1.2727830730e+000	-1.9868579956e+000
 9.5638072518e-001	 1.2827064779e+000	-2.0730735961e+000
 9.4312187123e-001	 1.2924864162e+000	-2.1351180300e+000
 9.2977372977e-001	 1.3021216577e+000	-2.1726830995e+000
 9.1633865225e-001	 1.3116110225e+000	-2.1854798588e+000
 9.0281900981e-001	 1.3209533813e+000	-2.1732390733e+000
 8.8921719201e-001	 1.3301476555e+000	-2.1357116556e+000
 8.7553560540e-001	 1.3391928179e+000	-2.0726690753e+000
 1.0124163655e+000	 1.2470173075e+000	-1.8324777491e+000
 9.9948742769e-001	 1.2574036521e+000	-1.8426639273e+000
 9.8645963581e-001	 1.2676499712e+000	-1.9517079471e+000
 9.7333525797e-001	 1.2777548818e+000	-2.0400887253e+000
 9.6011658739e-001	 1.2877170501e+000	-2.1075297718e+000
 9.4680594104e-001	 1.2975351912e+000	-2.1537697987e+000
 9.3340565841e-001	 1.3072080704e+000	-2.1785631732e+000
 9.1991810011e-001	 1.3167345031e+000	-2.1816803548e+000
 9.0634564657e-001	 1.3261133554e+000	-2.1629083123e+000
 8.9269069666e-001	 1.3353435448e+000	-2.1220509223e+000
 8.7895566636e-001	 1.3444240399e+000	-2.0589293465e+000
 1.0163557288e+000	 1.2518695150e+000	-1.8340526132e+000
 1.0033764838e+000	 1.2622962733e+000	-1.9371524616e+000
 9.9029800015e-001	 1.2725824613e+000	-2.0226236991e+000
 9.7712255470e-001	 1.2827266907e+000	-2.0902464126e+000
 9.6385244959e-001	 1.2927276223e+000	-2.1398124273e+000
 9.5049001085e-001	 1.3025839663e+000	-2.1711257221e+000
 9.3703758704e-001	 1.3122944831e+000	-2.1840028328e+000
 9.2349754797e-001	 1.3218579836e+000	-2.1782732425e+000
 9.0987228333e-001	 1.3312733296e+000	-2.1537797570e+000
 8.9616420132e-001	 1.3405394340e+000	-2.1103788666e+000
 8.8237572732e-001	 1.3496552618e+000	-2.0479410903e+000
 1.0202950921e+000	 1.2567217224e+000	-1.9490023295e+000
 1.0072655400e+000	 1.2671888945e+000	-2.0267376461e+000
 9.9413636449e-001	 1.2775149515e+000	-2.0895674502e+000
 9.8090985142e-001	 1.2876984996e+000	-2.1373427012e+000
 9.6758831180e-001	 1.2977381944e+000	-2.1699231176e+000
 9.5417408066e-001	 1.3076327414e+000	-2.1871775379e+000
 9.4066951568e-001	 1.3173808958e+000	-2.1889842735e+000
 9.2707699584e-001	 1.3269814642e+000	-2.1752314528e+000
 9.1339892009e-001	 1.3364333037e+000	-2.1458173564e+000
 8.9963770598e-001	 1.3457353233e+000	-2.1006507409e+000
 8.8579578829e-001	 1.3548864838e+000	-2.0396511516e+000
 1.0242344554e+000	 1.2615739298e+000	-2.0581396648e+000
 1.0111545961e+000	 1.2720815158e+000	-2.1114514032e+000
 9.9797472884e-001	 1.2824474416e+000	-2.1525606709e+000
 9.8469714815e-001	 1.2926703085e+000	-2.1813888681e+000
 9.7132417401e-001	 1.3027487666e+000	-2.1978631893e+000
 9.5785815047e-001	 1.3126815164e+000	-2.2019169289e+000
 9.4430144431e-001	 1.3224673086e+000	-2.1934897846e+000
 9.3065644370e-001	 1.3321049447e+000	-2.1725281565e+000
 9.1692555685e-001	 1.3415932778e+000	-2.1389854402e+000
 9.0311121064e-001	 1.3509312126e+000	-2.0928223152e+000
 8.8921584925e-001	 1.3601177057e+000	-2.0340070247e+000
 8.5501523966e-001	 1.3078054863e+000	-2.2159501860e+000
 8.4157878149e-001	 1.3164920830e+000	-2.1102181780e+000
 8.2806916902e-001	 1.3250312077e+000	-2.0184218893e+000
 8.1448879432e-001	 1.3334220089e+000	-1.9406714151e+000
 8.0084006078e-001	 1.3416636863e+000	-1.8770588842e+000
 7.8712538174e-001	 1.3497554902e+000	-1.8276587736e+000
 7.7334717919e-001	 1.3576967225e+000	-1.7925282458e+000
 7.5950788243e-001	 1.3654867361e+000	-1.7717075053e+000
 7.4560992674e-001	 1.3731249350e+000	-1.7652201761e+000
 7.3165575204e-001	 1.3806107744e+000	-1.7730736963e+000
 7.1764780164e-001	 1.3879437607e+000	-1.7952597297e+000
 8.5843530061e-001	 1.3130367082e+000	-2.1845473425e+000
 8.4494509662e-001	 1.3217580513e+000	-2.0848744167e+000
 8.3138144569e-001	 1.3303313325e+000	-1.9988086536e+000
 8.1774674950e-001	 1.3387556970e+000	-1.9264035466e+000
 8.0404342102e-001	 1.3470303410e+000	-1.8676953732e+000
 7.9027388326e-001	 1.3551545122e+000	-1.8227035655e+000
 7.7644056791e-001	 1.3631275094e+000	-1.7914311007e+000
 7.6254591396e-001	 1.3709486831e+000	-1.7738649106e+000
 7.4859236644e-001	 1.3786174347e+000	-1.7699763096e+000
 7.3458237505e-001	 1.3861332175e+000	-1.7797214379e+000
 7.2051839285e-001	 1.3934955357e+000	-1.8030417205e+000
 8.6185536157e-001	 1.3182679302e+000	-2.1562292786e+000
 8.4831141174e-001	 1.3270240196e+000	-2.0619397424e+000
 8.3469372237e-001	 1.3356314573e+000	-1.9809342523e+000
 8.2100470467e-001	 1.3440893850e+000	-1.9132099675e+000
 8.0724678126e-001	 1.3523969958e+000	-1.8587475766e+000
 7.9342238479e-001	 1.3605535342e+000	-1.8175117232e+000
 7.7953395662e-001	 1.3685582963e+000	-1.7894514507e+000
 7.6558394549e-001	 1.3764106300e+000	-1.7745006636e+000
 7.5157480615e-001	 1.3841099345e+000	-1.7725786059e+000
 7.3750899806e-001	 1.3916556606e+000	-1.7835903536e+000
 7.2338898406e-001	 1.3990473107e+000	-1.8074273200e+000
 8.6527542253e-001	 1.3234991521e+000	-2.1309386633e+000
 8.5167772686e-001	 1.3322899880e+000	-2.0413652700e+000
 8.3800599904e-001	 1.3409315822e+000	-1.9647581946e+000
 8.2426265985e-001	 1.3494230730e+000	-1.9010585256e+000
 8.1045014150e-001	 1.3577636505e+000	-1.8501916213e+000
 7.9657088631e-001	 1.3659525561e+000	-1.8120675900e+000
 7.8262734534e-001	 1.3739890832e+000	-1.7865817885e+000
 7.6862197702e-001	 1.3818725770e+000	-1.7736153357e+000
 7.5455724586e-001	 1.3896024342e+000	-1.7730356414e+000
 7.4043562107e-001	 1.3971781037e+000	-1.7846969469e+000
 7.2625957527e-001	 1.4045990858e+000	-1.8084408777e+000
 8.6869548348e-001	 1.3287303741e+000	-2.1086188965e+000
 8.5504404199e-001	 1.3375559563e+000	-2.0231027151e+000
 8.4131827572e-001	 1.3462317070e+000	-1.9502404609e+000
 8.2752061502e-001	 1.3547567611e+000	-1.8899174120e+000
 8.1365350174e-001	 1.3631303052e+000	-1.8420038507e+000
 7.9971938784e-001	 1.3713515781e+000	-1.8063555993e+000
 7.8572073406e-001	 1.3794198701e+000	-1.7828145718e+000
 7.7166000855e-001	 1.3873345239e+000	-1.7712093399e+000
 7.5753968557e-001	 1.3950949340e+000	-1.7713557110e+000
 7.4336224408e-001	 1.4027005468e+000	-1.7830573184e+000
 7.2913016648e-001	 1.4101508608e+000	-1.8061062200e+000
 8.7211554444e-001	 1.3339615960e+000	-2.0892140944e+000
 8.5841035711e-001	 1.3428219246e+000	-2.0071043821e+000
 8.4463055239e-001	 1.3515318318e+000	-1.9373414942e+000
 8.3077857020e-001	 1.3600904491e+000	-1.8797551544e+000
 8.1685686199e-001	 1.3684969600e+000	-1.8341608200e+000
 8.0286788937e-001	 1.3767506000e+000	-1.8003602727e+000
 7.8881412278e-001	 1.3848506570e+000	-1.7781422242e+000
 7.7469804008e-001	 1.3927964708e+000	-1.7672829330e+000
 7.6052212528e-001	 1.4005874337e+000	-1.7675468333e+000
 7.4628886709e-001	 1.4082229899e+000	-1.7786871734e+000
 7.3200075769e-001	 1.4157026359e+000	-1.8004466606e+000
 8.7553560540e-001	 1.3391928179e+000	-2.0726690753e+000
 8.6177667224e-001	 1.3480878930e+000	-1.9933231528e+000
 8.4794282907e-001	 1.3568319567e+000	-1.9260221909e+000
 8.3403652538e-001	 1.3654241372e+000	-1.8705406108e+000
 8.2006022223e-001	 1.3738636147e+000	-1.8266392923e+000
 8.0601639090e-001	 1.3821496220e+000	-1.7940662187e+000
 7.9190751149e-001	 1.3902814439e+000	-1.7725571355e+000
 7.7773607162e-001	 1.3982584178e+000	-1.7618362193e+000
 7.6350456499e-001	 1.4060799335e+000	-1.7616167567e+000
 7.4921549010e-001	 1.4137454330e+000	-1.7716018301e+000
 7.3487134890e-001	 1.4212544109e+000	-1.7914850101e+000
 8.7895566636e-001	 1.3444240399e+000	-2.0589293465e+000
 8.6514298737e-001	 1.3533538613e+000	-1.9817124754e+000
 8.5125510575e-001	 1.3621320815e+000	-1.9162438916e+000
 8.3729448056e-001	 1.3707578252e+000	-1.8622429628e+000
 8.2326358248e-001	 1.3792302695e+000	-1.8194162347e+000
 8.0916489243e-001	 1.3875486440e+000	-1.7874581305e+000
 7.9500090021e-001	 1.3957122308e+000	-1.7660516627e+000
 7.8077410315e-001	 1.4037203647e+000	-1.7548691536e+000
 7.6648700469e-001	 1.4115724332e+000	-1.7535729639e+000
 7.5214211311e-001	 1.4192678761e+000	-1.7618162267e+000
 7.3774194011e-001	 1.4268061860e+000	-1.7792435862e+000
 8.8237572732e-001	 1.3496552618e+000	-2.0479410903e+000
 8.6850930250e-001	 1.3586198296e+000	-1.9722263531e+000
 8.5456738243e-001	 1.3674322063e+000	-1.9079683730e+000
 8.4055243574e-001	 1.3760915132e+000	-1.8548317095e+000
 8.2646694273e-001	 1.3845969242e+000	-1.8124688139e+000
 8.1231339396e-001	 1.3929476659e+000	-1.7805207845e+000
 7.9809428893e-001	 1.4011430177e+000	-1.7586181304e+000
 7.8381213468e-001	 1.4091823117e+000	-1.7463815436e+000
 7.6946944440e-001	 1.4170649329e+000	-1.7434226776e+000
 7.5506873612e-001	 1.4247903192e+000	-1.7493449291e+000
 7.4061253131e-001	 1.4323579610e+000	-1.7637442233e+000
 8.8579578829e-001	 1.3548864838e+000	-2.0396511516e+000
 8.7187561763e-001	 1.3638857980e+000	-1.9648193336e+000
 8.5787965911e-001	 1.3727323312e+000	-1.9011578393e+000
 8.4381039092e-001	 1.3814252013e+000	-1.8482766611e+000
 8.2967030297e-001	 1.3899635790e+000	-1.8057743930e+000
 8.1546189549e-001	 1.3983466879e+000	-1.7732390391e+000
 8.0118767765e-001	 1.4065738046e+000	-1.7502488316e+000
 7.8685016621e-001	 1.4146442586e+000	-1.7363730531e+000
 7.7245188411e-001	 1.4225574327e+000	-1.7311728651e+000
 7.5799535913e-001	 1.4303127623e+000	-1.7342021379e+000
 7.4348312252e-001	 1.4379097361e+000	-1.7450082813e+000
 8.8921584925e-001	 1.3601177057e+000	-2.0340070247e+000
 8.7524193276e-001	 1.3691517663e+000	-1.9594464986e+000
 8.6119193579e-001	 1.3780324560e+000	-1.8957749138e+000
 8.4706834611e-001	 1.3867588893e+000	-1.8425479334e+000
 8.3287366322e-001	 1.3953302337e+000	-1.7993105268e+000
 8.1861039702e-001	 1.4037457098e+000	-1.7655978326e+000
 8.0428106638e-001	 1.4120045915e+000	-1.7409360283e+000
 7.8988819775e-001	 1.4201062056e+000	-1.7248432048e+000
 7.7543432383e-001	 1.4280499324e+000	-1.7168302437e+000
 7.6092198215e-001	 1.4358352054e+000	-1.7164016953e+000
 7.4635371373e-001	 1.4434615111e+000	-1.7230566554e+000
 7.1764780164e-001	 1.3879437607e+000	-1.7952597297e+000
 7.0358852088e-001	 1.3951234509e+000	-1.7396456745e+000
 6.8948035586e-001	 1.4021494531e+000	-1.6779742137e+000
 6.7532575216e-001	 1.4090214258e+000	-1.6100879101e+000
 6.6112715357e-001	 1.4157390779e+000	-1.5358353946e+000
 6.4688700084e-001	 1.4223021683e+000	-1.4550717151e+000
 6.3260773043e-001	 1.4287105058e+000	-1.3676586719e+000
 6.1829177332e-001	 1.4349639483e+000	-1.3463107454e+000
 6.0394155376e-001	 1.4410624031e+000	-1.4016705817e+000
 5.8955948811e-001	 1.4470058258e+000	-1.4511240253e+000
 5.7514798369e-001	 1.4527942204e+000	-1.4944397515e+000
 7.2051839285e-001	 1.3934955357e+000	-1.8030417205e+000
 7.0640287497e-001	 1.4007039447e+000	-1.7456846651e+000
 6.9223827729e-001	 1.4077580509e+000	-1.6825966649e+000
 6.7802705517e-001	 1.4146575115e+000	-1.6136463753e+000
 6.6377166219e-001	 1.4214020342e+000	-1.5387079281e+000
 6.4947454885e-001	 1.4279913770e+000	-1.4576612646e+000
 6.3513816136e-001	 1.4344253478e+000	-1.3703924544e+000
 6.2076494042e-001	 1.4407038041e+000	-1.3223872800e+000
 6.0635731998e-001	 1.4468266527e+000	-1.3779897312e+000
 5.9191772607e-001	 1.4527938491e+000	-1.4281398028e+000
 5.7744857563e-001	 1.4586053973e+000	-1.4726249689e+000
 7.2338898406e-001	 1.3990473107e+000	-1.8074273200e+000
 7.0921722906e-001	 1.4062844385e+000	-1.7487616828e+000
 6.9499619872e-001	 1.4133666487e+000	-1.6846885914e+000
 6.8072835819e-001	 1.4202935972e+000	-1.6151025789e+000
 6.6641617081e-001	 1.4270649906e+000	-1.5399030671e+000
 6.5206209686e-001	 1.4336805857e+000	-1.4589946834e+000
 6.3766859229e-001	 1.4401401898e+000	-1.3722875630e+000
 6.2323810752e-001	 1.4464436599e+000	-1.2985026161e+000
 6.0877308620e-001	 1.4525909023e+000	-1.3547679442e+000
 5.9427596403e-001	 1.4585818724e+000	-1.4060299481e+000
 5.7974916757e-001	 1.4644165742e+000	-1.4520946745e+000
 7.2625957527e-001	 1.4045990858e+000	-1.8084408777e+000
 7.1203158314e-001	 1.4118649323e+000	-1.7488964552e+000
 6.9775412014e-001	 1.4189752465e+000	-1.6842651396e+000
 6.8342966120e-001	 1.4259296829e+000	-1.6144671285e+000
 6.6906067943e-001	 1.4327279469e+000	-1.5394269246e+000
 6.5464964486e-001	 1.4393697944e+000	-1.4590736352e+000
 6.4019902322e-001	 1.4458550319e+000	-1.3733412603e+000
 6.2571127462e-001	 1.4521835157e+000	-1.2821689667e+000
 6.1118885242e-001	 1.4583551519e+000	-1.3319869595e+000
 5.9663420199e-001	 1.4643698957e+000	-1.3847722174e+000
 5.8204975951e-001	 1.4702277511e+000	-1.4328226933e+000
 7.2913016648e-001	 1.4101508608e+000	-1.8061062200e+000
 7.1484593723e-001	 1.4174454261e+000	-1.7461082630e+000
 7.0051204157e-001	 1.4245838444e+000	-1.6813410844e+000
 6.8613096421e-001	 1.4315657686e+000	-1.6117503354e+000
 6.7170518804e-001	 1.4383909032e+000	-1.5372853912e+000
 6.5723719287e-001	 1.4450590031e+000	-1.4578996357e+000
 6.4272945414e-001	 1.4515698739e+000	-1.3735507333e+000
 6.2818444172e-001	 1.4579233715e+000	-1.2842008891e+000
 6.1360461864e-001	 1.4641194015e+000	-1.3096285837e+000
 5.9899243994e-001	 1.4701579190e+000	-1.3643445054e+000
 5.8435035145e-001	 1.4760389279e+000	-1.4147830576e+000
 7.3200075769e-001	 1.4157026359e+000	-1.8004466606e+000
 7.1766029131e-001	 1.4230259199e+000	-1.7404159489e+000
 7.0326996300e-001	 1.4301924422e+000	-1.6759308372e+000
 6.8883226722e-001	 1.4372018544e+000	-1.6069622202e+000
 6.7434969666e-001	 1.4440538595e+000	-1.5334841401e+000
 6.5982474088e-001	 1.4507482117e+000	-1.4554740549e+000
 6.4525988507e-001	 1.4572847159e+000	-1.3729130949e+000
 6.3065760881e-001	 1.4636632273e+000	-1.2857863095e+000
 6.1602038486e-001	 1.4698836512e+000	-1.2876746901e+000
 6.0135067790e-001	 1.4759459423e+000	-1.3447248417e+000
 5.8665094338e-001	 1.4818501048e+000	-1.3979500038e+000
 7.3487134890e-001	 1.4212544109e+000	-1.7914850101e+000
 7.2047464540e-001	 1.4286064137e+000	-1.7318379260e+000
 7.0602788442e-001	 1.4358010400e+000	-1.6680484521e+000
 6.9153357023e-001	 1.4428379401e+000	-1.6001125188e+000
 6.7699420528e-001	 1.4497168158e+000	-1.5280286310e+000
 6.6241228888e-001	 1.4564374204e+000	-1.4517981199e+000
 6.4779031599e-001	 1.4629995579e+000	-1.3714253855e+000
 6.3313077591e-001	 1.4694030831e+000	-1.2869181280e+000
 6.1843615108e-001	 1.4756479008e+000	-1.2661072166e+000
 6.0370891586e-001	 1.4817339657e+000	-1.3258913892e+000
 5.8895153532e-001	 1.4876612817e+000	-1.3822979678e+000
 7.3774194011e-001	 1.4268061860e+000	-1.7792435862e+000
 7.2328899949e-001	 1.4341869075e+000	-1.7203921863e+000
 7.0878580585e-001	 1.4414096378e+000	-1.6577076335e+000
 6.9423487324e-001	 1.4484740258e+000	-1.5912106880e+000
 6.7963871389e-001	 1.4553797721e+000	-1.5209241144e+000
 6.6499983689e-001	 1.4621266291e+000	-1.4468729184e+000
 6.5032074691e-001	 1.4687144000e+000	-1.3690845739e+000
 6.3560394300e-001	 1.4751429389e+000	-1.2875892413e+000
 6.2085191730e-001	 1.4814121504e+000	-1.2449081654e+000
 6.0606715381e-001	 1.4875219890e+000	-1.3078224409e+000
 5.9125212726e-001	 1.4934724586e+000	-1.3678015813e+000
 7.4061253131e-001	 1.4323579610e+000	-1.7637442233e+000
 7.2610335357e-001	 1.4397674013e+000	-1.7060963087e+000
 7.1154372727e-001	 1.4470182356e+000	-1.6449217427e+000
 6.9693617625e-001	 1.4541101115e+000	-1.5802659105e+000
 6.8228322251e-001	 1.4610427284e+000	-1.5121756357e+000
 6.6758738489e-001	 1.4678158378e+000	-1.4406994006e+000
 6.5285117784e-001	 1.4744292420e+000	-1.3658875595e+000
 6.3807711010e-001	 1.4808827947e+000	-1.2877925430e+000
 6.2326768351e-001	 1.4871764000e+000	-1.2240596012e+000
 6.0842539176e-001	 1.4933100123e+000	-1.2904964174e+000
 5.9355271920e-001	 1.4992836355e+000	-1.3544356683e+000
 7.4348312252e-001	 1.4379097361e+000	-1.7450082813e+000
 7.2891770766e-001	 1.4453478951e+000	-1.6889674669e+000
 7.1430164870e-001	 1.4526268334e+000	-1.6297038043e+000
 6.9963747926e-001	 1.4597461972e+000	-1.5672871007e+000
 6.8492773112e-001	 1.4667056848e+000	-1.5017880389e+000
 6.7017493290e-001	 1.4735050464e+000	-1.4332783821e+000
 6.5538160876e-001	 1.4801440840e+000	-1.3618311727e+000
 6.4055027719e-001	 1.4866226505e+000	-1.2875209233e+000
 6.2568344973e-001	 1.4929406496e+000	-1.2104237996e+000
 6.1078362972e-001	 1.4990980356e+000	-1.2738918646e+000
 5.9585331113e-001	 1.5050948124e+000	-1.3421752406e+000
 7.4635371373e-001	 1.4434615111e+000	-1.7230566554e+000
 7.3173206174e-001	 1.4509283890e+000	-1.6690224377e+000
 7.1705957012e-001	 1.4582354312e+000	-1.6120665130e+000
 7.0233878227e-001	 1.4653822829e+000	-1.5522829095e+000
 6.8757223974e-001	 1.4723686411e+000	-1.4897659708e+000
 6.7276248090e-001	 1.4791942551e+000	-1.4246105468e+000
 6.5791203968e-001	 1.4858589260e+000	-1.3569121772e+000
 6.4302344429e-001	 1.4923625063e+000	-1.2867672695e+000
 6.2809921594e-001	 1.4987048992e+000	-1.2142732695e+000
 6.1314186767e-001	 1.5048860589e+000	-1.2579874514e+000
 5.9815390307e-001	 1.5109059892e+000	-1.3309954952e+000
 5.7514798369e-001	 1.4527942204e+000	-1.4944397515e+000
 5.6070943758e-001	 1.4584276384e+000	-1.4410942819e+000
 5.4624623557e-001	 1.4639061787e+000	-1.3890253313e+000
 5.3176075100e-001	 1.4692299866e+000	-1.3380816472e+000
 5.1725534369e-001	 1.4743992537e+000	-1.2881222974e+000
 5.0273235892e-001	 1.4794142169e+000	-1.2390170984e+000
 4.8819412637e-001	 1.4842751581e+000	-1.1906470073e+000
 4.7364295911e-001	 1.4889824033e+000	-1.1429044776e+000
 4.5908115267e-001	 1.4935363220e+000	-1.0956937782e+000
 4.4451098401e-001	 1.4979373268e+000	-1.0489312760e+000
 4.2993471070e-001	 1.5021858722e+000	-1.0025456813e+000
 5.7744857563e-001	 1.4586053973e+000	-1.4726249689e+000
 5.6295227534e-001	 1.4642613490e+000	-1.4213720895e+000
 5.4843122052e-001	 1.4697618034e+000	-1.3712718258e+000
 5.3388779400e-001	 1.4751069066e+000	-1.3221549807e+000
 5.1932436507e-001	 1.4802968507e+000	-1.2738631353e+000
 5.0474328836e-001	 1.4853318738e+000	-1.2262490935e+000
 4.9014690288e-001	 1.4902122587e+000	-1.1791772890e+000
 4.7553753095e-001	 1.4949383329e+000	-1.1325241557e+000
 4.6091747728e-001	 1.4995104673e+000	-1.0861784596e+000
 4.4628902795e-001	 1.5039290761e+000	-1.0400415935e+000
 4.3165444954e-001	 1.5081946156e+000	-9.9402783350e-001
 5.7974916757e-001	 1.4644165742e+000	-1.4520946745e+000
 5.6519511309e-001	 1.4700950596e+000	-1.4028007590e+000
 5.5061620547e-001	 1.4756174282e+000	-1.3545359781e+000
 5.3601483701e-001	 1.4809838265e+000	-1.3071131815e+000
 5.2139338645e-001	 1.4861944478e+000	-1.2603564558e+000
 5.0675421780e-001	 1.4912495307e+000	-1.2141015849e+000
 4.9209967939e-001	 1.4961493594e+000	-1.1681964734e+000
 4.7743210279e-001	 1.5008942625e+000	-1.1225015299e+000
 4.6275380189e-001	 1.5054846126e+000	-1.0768900134e+000
 4.4806707189e-001	 1.5099208254e+000	-1.0312483392e+000
 4.3337418839e-001	 1.5142033591e+000	-9.8547634653e-001
 5.8204975951e-001	 1.4702277511e+000	-1.4328226933e+000
 5.6743795085e-001	 1.4759287701e+000	-1.3853566196e+000
 5.5280119041e-001	 1.4814730529e+000	-1.3387966037e+000
 5.3814188002e-001	 1.4868607465e+000	-1.2929375320e+000
 5.2346240783e-001	 1.4920920448e+000	-1.2475859874e+000
 5.0876514724e-001	 1.4971671875e+000	-1.2025607259e+000
 4.9405245589e-001	 1.5020864600e+000	-1.1576931150e+000
 4.7932667463e-001	 1.5068501921e+000	-1.1128275323e+000
 4.6459012651e-001	 1.5114587579e+000	-1.0678217237e+000
 4.4984511583e-001	 1.5159125747e+000	-1.0225471227e+000
 4.3509392723e-001	 1.5202121026e+000	-9.7688912876e-001
 5.8435035145e-001	 1.4760389279e+000	-1.4147830576e+000
 5.6968078860e-001	 1.4817624807e+000	-1.3690161765e+000
 5.5498617536e-001	 1.4873286776e+000	-1.3240326623e+000
 5.4026892303e-001	 1.4927376665e+000	-1.2796094275e+000
 5.2553142920e-001	 1.4979896418e+000	-1.2355355406e+000
 5.1077607668e-001	 1.5030848444e+000	-1.1916127203e+000
 4.9600523240e-001	 1.5080235606e+000	-1.1476557888e+000
 4.8122124647e-001	 1.5128061217e+000	-1.1034930846e+000
 4.6642645112e-001	 1.5174329032e+000	-1.0589668345e+000
 4.5162315977e-001	 1.5219043241e+000	-1.0139334845e+000
 4.3681366608e-001	 1.5262208461e+000	-9.6826398956e-001
 5.8665094338e-001	 1.4818501048e+000	-1.3979500038e+000
 5.7192362636e-001	 1.4875961912e+000	-1.3537561071e+000
 5.5717116030e-001	 1.4931843023e+000	-1.3102232553e+000
 5.4239596604e-001	 1.4986145864e+000	-1.2671103740e+000
 5.2760045058e-001	 1.5038872388e+000	-1.2241890061e+000
 5.1278700612e-001	 1.5090025013e+000	-1.1812438223e+000
 4.9795800891e-001	 1.5139606613e+000	-1.1380730897e+000
 4.8311581831e-001	 1.5187620514e+000	-1.0944890992e+000
 4.6826277574e-001	 1.5234070485e+000	-1.0503185508e+000
 4.5340120371e-001	 1.5278960734e+000	-1.0054028964e+000
 4.3853340492e-001	 1.5322295896e+000	-9.5959864125e-001
 5.8895153532e-001	 1.4876612817e+000	-1.3822979678e+000
 5.7416646411e-001	 1.4934299018e+000	-1.3395532583e+000
 5.5935614525e-001	 1.4990399270e+000	-1.2973476226e+000
 5.4452300904e-001	 1.5044915064e+000	-1.2554219860e+000
 5.2966947196e-001	 1.5097848358e+000	-1.2135303531e+000
 5.1479793556e-001	 1.5149201582e+000	-1.1714403347e+000
 4.9991078542e-001	 1.5198977619e+000	-1.1289336322e+000
 4.8501039015e-001	 1.5247179810e+000	-1.0858064789e+000
 4.7009910035e-001	 1.5293811938e+000	-1.0418700392e+000
 4.5517924765e-001	 1.5338878227e+000	-9.9695076361e-001
 4.4025314377e-001	 1.5382383331e+000	-9.5089070097e-001
 5.9125212726e-001	 1.4934724586e+000	-1.3678015813e+000
 5.7640930186e-001	 1.4992636123e+000	-1.3263846425e+000
 5.6154113020e-001	 1.5048955517e+000	-1.2853851402e+000
 5.4665005205e-001	 1.5103684263e+000	-1.2445259847e+000
 5.3173849334e-001	 1.5156824329e+000	-1.2035436282e+000
 5.1680886500e-001	 1.5208378150e+000	-1.1621886088e+000
 5.0186356193e-001	 1.5258348626e+000	-1.1202260499e+000
 4.8690496199e-001	 1.5306739106e+000	-1.0774361169e+000
 4.7193542496e-001	 1.5353553391e+000	-1.0336144287e+000
 4.5695729159e-001	 1.5398795720e+000	-9.8857242555e-001
 4.4197288261e-001	 1.5442470766e+000	-9.4213769255e-001
 5.9355271920e-001	 1.4992836355e+000	-1.3544356683e+000
 5.7865213962e-001	 1.5050973229e+000	-1.3142274350e+000
 5.6372611514e-001	 1.5107511765e+000	-1.2743153177e+000
 5.4877709506e-001	 1.5162453462e+000	-1.2344041955e+000
 5.3380751472e-001	 1.5215800299e+000	-1.1942129534e+000
 5.1881979443e-001	 1.5267554719e+000	-1.1534750426e+000
 5.0381633844e-001	 1.5317719632e+000	-1.1119389956e+000
 4.8879953383e-001	 1.5366298402e+000	-1.0693688976e+000
 4.7377174958e-001	 1.5413294844e+000	-1.0255448114e+000
 4.5873533553e-001	 1.5458713213e+000	-9.8026315734e-001
 4.4369262146e-001	 1.5502558201e+000	-9.3333704835e-001
 5.9585331113e-001	 1.5050948124e+000	-1.3421752406e+000
 5.8089497737e-001	 1.5109310335e+000	-1.3030589702e+000
 5.6591110009e-001	 1.5166068012e+000	-1.2641177952e+000
 5.5090413807e-001	 1.5221222662e+000	-1.2250385464e+000
 5.3587653609e-001	 1.5274776269e+000	-1.1855225252e+000
 5.2083072387e-001	 1.5326731288e+000	-1.1452860805e+000
 5.0576911495e-001	 1.5377090638e+000	-1.1040611403e+000
 4.9069410567e-001	 1.5425857698e+000	-1.0615956963e+000
 4.7560807419e-001	 1.5473036297e+000	-1.0176542432e+000
 4.6051337947e-001	 1.5518630706e+000	-9.7201817102e-001
 4.4541236030e-001	 1.5562645636e+000	-9.2448611095e-001
 5.9815390307e-001	 1.5109059892e+000	-1.3309954952e+000
 5.8313781512e-001	 1.5167647440e+000	-1.2928567393e+000
 5.6809608503e-001	 1.5224624259e+000	-1.2547723414e+000
 5.5303118107e-001	 1.5279991861e+000	-1.2164110656e+000
 5.3794555747e-001	 1.5333752239e+000	-1.1774566124e+000
 5.2284165331e-001	 1.5385907856e+000	-1.1376082124e+000
 5.0772189146e-001	 1.5436461645e+000	-1.0965811732e+000
 4.9258867751e-001	 1.5485416994e+000	-1.0541073793e+000
 4.7744439881e-001	 1.5532777749e+000	-1.0099357445e+000
 4.6229142341e-001	 1.5578548199e+000	-9.6383261672e-001
 4.4713209915e-001	 1.5622733071e+000	-9.1558213494e-001
 4.2993471070e-001	 1.5021858722e+000	-1.0025456813e+000
 4.1535456991e-001	 1.5062824540e+000	-9.9518900169e-001
 4.0077277763e-001	 1.5102276089e+000	-9.8497094929e-001
 3.8619152782e-001	 1.5140219133e+000	-9.7176094316e-001
 3.7161299155e-001	 1.5176659825e+000	-9.5544575166e-001
 3.5703931628e-001	 1.5211604704e+000	-9.3592957131e-001
 3.4247262508e-001	 1.5245060679e+000	-9.1313406518e-001
 3.2791501590e-001	 1.5277035028e+000	-8.8699836164e-001
 3.1336856094e-001	 1.5307535383e+000	-8.5747901446e-001
 2.9883530589e-001	 1.5336569727e+000	-8.2454992507e-001
 2.8431726942e-001	 1.5364146382e+000	-7.8820222812e-001
 4.3165444954e-001	 1.5081946156e+000	-9.9402783350e-001
 4.1701598819e-001	 1.5123075838e+000	-9.8539960101e-001
 4.0237586875e-001	 1.5162685193e+000	-9.7399249865e-001
 3.8773629393e-001	 1.5200780009e+000	-9.5968187444e-001
 3.7309944352e-001	 1.5237366464e+000	-9.4236038502e-001
 3.5846747355e-001	 1.5272451122e+000	-9.2193807278e-001
 3.4384251558e-001	 1.5306040922e+000	-8.9834240249e-001
 3.2922667597e-001	 1.5338143168e+000	-8.7151825823e-001
 3.1462203518e-001	 1.5368765525e+000	-8.4142790144e-001
 3.0003064712e-001	 1.5397916006e+000	-8.0805089108e-001
 2.8545453850e-001	 1.5425602967e+000	-7.7138396706e-001
 4.3337418839e-001	 1.5142033591e+000	-9.8547634653e-001
 4.1867740647e-001	 1.5183327136e+000	-9.7575961001e-001
 4.0397895986e-001	 1.5223094298e+000	-9.6334328251e-001
 3.8928106004e-001	 1.5261340886e+000	-9.4810853699e-001
 3.7458589549e-001	 1.5298073104e+000	-9.2995381886e-001
 3.5989563081e-001	 1.5333297541e+000	-9.0879492144e-001
 3.4521240608e-001	 1.5367021164e+000	-8.8456502095e-001
 3.3053833603e-001	 1.5399251308e+000	-8.5721467150e-001
 3.1587550942e-001	 1.5429995666e+000	-8.2671176121e-001
 3.0122598834e-001	 1.5459262285e+000	-7.9304143030e-001
 2.8659180757e-001	 1.5487059553e+000	-7.5620595224e-001
 4.3509392723e-001	 1.5202121026e+000	-9.7688912876e-001
 4.2033882475e-001	 1.5243578434e+000	-9.6626549885e-001
 4.0558205097e-001	 1.5283503402e+000	-9.5301834616e-001
 3.9082582616e-001	 1.5321901762e+000	-9.3703456490e-001
 3.7607234745e-001	 1.5358779743e+000	-9.1821829001e-001
 3.6132378808e-001	 1.5394143960e+000	-8.9649097115e-001
 3.4658229658e-001	 1.5428001407e+000	-8.7179140595e-001
 3.3184999610e-001	 1.5460359448e+000	-8.4407573319e-001
 3.1712898367e-001	 1.5491225808e+000	-8.1331738695e-001
 3.0242132956e-001	 1.5520608564e+000	-7.7950701263e-001
 2.8772907665e-001	 1.5548516138e+000	-7.4265234595e-001
 4.3681366608e-001	 1.5262208461e+000	-9.6826398956e-001
 4.2200024303e-001	 1.5303829733e+000	-9.5691366801e-001
 4.0718514208e-001	 1.5343912506e+000	-9.4301269425e-001
 3.9237059227e-001	 1.5382462639e+000	-9.2645358027e-001
 3.7755879942e-001	 1.5419486382e+000	-9.0714605164e-001
 3.6275194534e-001	 1.5454990379e+000	-8.8501712004e-001
 3.4795218708e-001	 1.5488981650e+000	-8.6001111473e-001
 3.3316165616e-001	 1.5521467588e+000	-8.3208967406e-001
 3.1838245791e-001	 1.5552455949e+000	-8.0123169763e-001
 3.0361667079e-001	 1.5581954843e+000	-7.6743326023e-001
 2.8886634573e-001	 1.5609972724e+000	-7.3070748869e-001
 4.3853340492e-001	 1.5322295896e+000	-9.5959864125e-001
 4.2366166132e-001	 1.5364081031e+000	-9.4770044969e-001
 4.0878823320e-001	 1.5404321611e+000	-9.3332129155e-001
 3.9391535838e-001	 1.5443023515e+000	-9.1635919343e-001
 3.7904525139e-001	 1.5480193022e+000	-8.9672937292e-001
 3.6418010261e-001	 1.5515836798e+000	-8.7436430959e-001
 3.4932207758e-001	 1.5549961893e+000	-8.4921377492e-001
 3.3447331622e-001	 1.5582575728e+000	-8.2124482194e-001
 3.1963593216e-001	 1.5613686091e+000	-7.9044173557e-001
 3.0481201201e-001	 1.5643301122e+000	-7.5680594445e-001
 2.9000361481e-001	 1.5671429309e+000	-7.2035589565e-001
 4.4025314377e-001	 1.5382383331e+000	-9.5089070097e-001
 4.2532307960e-001	 1.5424332329e+000	-9.3862210913e-001
 4.1039132431e-001	 1.5464730715e+000	-9.2393906376e-001
 3.9546012450e-001	 1.5503584392e+000	-9.0674500321e-001
 3.8053170336e-001	 1.5540899661e+000	-8.8696053869e-001
 3.6560825988e-001	 1.5576683217e+000	-8.6452352387e-001
 3.5069196808e-001	 1.5610942135e+000	-8.3938908320e-001
 3.3578497629e-001	 1.5643683868e+000	-8.1152959984e-001
 3.2088940640e-001	 1.5674916232e+000	-7.8093466403e-001
 3.0600735323e-001	 1.5704647401e+000	-7.4761098299e-001
 2.9114088388e-001	 1.5732885895e+000	-7.1158225336e-001
 4.4197288261e-001	 1.5442470766e+000	-9.4213769255e-001
 4.2698449788e-001	 1.5484583627e+000	-9.2967484591e-001
 4.1199441542e-001	 1.5525139820e+000	-9.1486089827e-001
 3.9700489061e-001	 1.5564145268e+000	-8.9760459711e-001
 3.8201815532e-001	 1.5601606300e+000	-8.7783184916e-001
 3.6703641714e-001	 1.5637529635e+000	-8.5548578862e-001
 3.5206185858e-001	 1.5671922378e+000	-8.3052680396e-001
 3.3709663635e-001	 1.5704792008e+000	-8.0293252408e-001
 3.2214288064e-001	 1.5736146374e+000	-7.7269776485e-001
 3.0720269446e-001	 1.5765993679e+000	-7.3983443699e-001
 2.9227815296e-001	 1.5794342480e+000	-7.0437141630e-001
 4.4369262146e-001	 1.5502558201e+000	-9.3333704835e-001
 4.2864591616e-001	 1.5544834925e+000	-9.2085479524e-001
 4.1359750653e-001	 1.5585548924e+000	-9.0608164490e-001
 3.9854965672e-001	 1.5624706145e+000	-8.8893155156e-001
 3.8350460729e-001	 1.5662312940e+000	-8.6933561963e-001
 3.6846457441e-001	 1.5698376054e+000	-8.4724217053e-001
 3.5343174908e-001	 1.5732902621e+000	-8.2261676798e-001
 3.3840829642e-001	 1.5765900148e+000	-7.9544220252e-001
 3.2339635489e-001	 1.5797376515e+000	-7.6571843618e-001
 3.0839803568e-001	 1.5827339958e+000	-7.3346250831e-001
 2.9341542204e-001	 1.5855799066e+000	-6.9870840367e-001
 4.4541236030e-001	 1.5562645636e+000	-9.2448611095e-001
 4.3030733444e-001	 1.5605086224e+000	-9.1215802917e-001
 4.1520059765e-001	 1.5645958028e+000	-8.9759611660e-001
 4.0009442284e-001	 1.5685267021e+000	-8.8071943214e-001
 3.8499105926e-001	 1.5723019579e+000	-8.6146418020e-001
 3.6989273168e-001	 1.5759222473e+000	-8.3978377636e-001
 3.5480163959e-001	 1.5793882863e+000	-8.1564887112e-001
 3.3971995648e-001	 1.5827008289e+000	-7.8904733276e-001
 3.2464982913e-001	 1.5858606657e+000	-7.5998419019e-001
 3.0959337691e-001	 1.5888686237e+000	-7.2848153675e-001
 2.9455269112e-001	 1.5917255651e+000	-6.9457839623e-001
 4.4713209915e-001	 1.5622733071e+000	-9.1558213494e-001
 4.3196875273e-001	 1.5665337522e+000	-9.0358055783e-001
 4.1680368876e-001	 1.5706367133e+000	-8.8939909021e-001
 4.0163918895e-001	 1.5745827898e+000	-8.7296179372e-001
 3.8647751123e-001	 1.5783726218e+000	-8.5420987544e-001
 3.7132088894e-001	 1.5820068892e+000	-8.3310175225e-001
 3.5617153009e-001	 1.5854863106e+000	-8.0961307312e-001
 3.4103161654e-001	 1.5888116429e+000	-7.8373670043e-001
 3.2590330338e-001	 1.5919836798e+000	-7.5548265089e-001
 3.1078871813e-001	 1.5950032516e+000	-7.2487799746e-001
 2.9568996019e-001	 1.5978712237e+000	-6.9196673313e-001
 2.8431726942e-001	 1.5364146382e+000	-7.8820222812e-001
 2.6981644248e-001	 1.5390273998e+000	-7.7587244079e-001
 2.5533478779e-001	 1.5414961551e+000	-7.6173688687e-001
 2.4087423928e-001	 1.5438218326e+000	-7.4585186925e-001
 2.2643670162e-001	 1.5460053914e+000	-7.2828850299e-001
 2.1202404967e-001	 1.5480478198e+000	-7.0913245296e-001
 1.9763812810e-001	 1.5499501348e+000	-6.8848364402e-001
 1.8328075097e-001	 1.5517133809e+000	-6.6645594493e-001
 1.6895370129e-001	 1.5533386292e+000	-6.4317682761e-001
 1.5465873072e-001	 1.5548269766e+000	-6.1878700286e-001
 1.4039755921e-001	 1.5561795447e+000	-5.9344003440e-001
 2.8545453850e-001	 1.5425602967e+000	-7.7138396706e-001
 2.7089570825e-001	 1.5451835094e+000	-7.5923992308e-001
 2.5635612694e-001	 1.5476621397e+000	-7.4532718647e-001
 2.4183773624e-001	 1.5499971200e+000	-7.2969544269e-001
 2.2734244842e-001	 1.5521894130e+000	-7.1240943464e-001
 2.1287214586e-001	 1.5542400111e+000	-6.9354870303e-001
 1.9842868061e-001	 1.5561499353e+000	-6.7320729859e-001
 1.8401387397e-001	 1.5579202344e+000	-6.5149346751e-001
 1.6962951609e-001	 1.5595519837e+000	-6.2852931168e-001
 1.5527736564e-001	 1.5610462845e+000	-6.0445042503e-001
 1.4095914944e-001	 1.5624042629e+000	-5.7940550744e-001
 2.8659180757e-001	 1.5487059553e+000	-7.5620595224e-001
 2.7197497402e-001	 1.5513396190e+000	-7.4419701729e-001
 2.5737746609e-001	 1.5538281243e+000	-7.3045376485e-001
 2.4280123320e-001	 1.5561724073e+000	-7.1501927334e-001
 2.2824819523e-001	 1.5583734345e+000	-6.9795192690e-001
 2.1372024206e-001	 1.5604322024e+000	-6.7932515824e-001
 1.9921923313e-001	 1.5623497359e+000	-6.5922716290e-001
 1.8474699697e-001	 1.5641270879e+000	-6.3776058617e-001
 1.7030533090e-001	 1.5657653382e+000	-6.1504218426e-001
 1.5589600056e-001	 1.5672655924e+000	-5.9120246107e-001
 1.4152073968e-001	 1.5686289811e+000	-5.6638528213e-001
 2.8772907665e-001	 1.5548516138e+000	-7.4265234595e-001
 2.7305423979e-001	 1.5574957286e+000	-7.3072893362e-001
 2.5839880524e-001	 1.5599941090e+000	-7.1710288004e-001
 2.4376473015e-001	 1.5623476946e+000	-7.0181066654e-001
 2.2915394203e-001	 1.5645574561e+000	-6.8490433126e-001
 2.1456833826e-001	 1.5666243937e+000	-6.6645121457e-001
 2.0000978564e-001	 1.5685495364e+000	-6.4653367522e-001
 1.8548011998e-001	 1.5703339414e+000	-6.2524877875e-001
 1.7098114570e-001	 1.5719786927e+000	-6.0270795951e-001
 1.5651463548e-001	 1.5734849003e+000	-5.7903665782e-001
 1.4208232991e-001	 1.5748536993e+000	-5.5437393381e-001
 2.8886634573e-001	 1.5609972724e+000	-7.3070748869e-001
 2.7413350556e-001	 1.5636518382e+000	-7.1882104916e-001
 2.5942014439e-001	 1.5661600936e+000	-7.0526094560e-001
 2.4472822711e-001	 1.5685229820e+000	-6.9005707156e-001
 2.3005968884e-001	 1.5707414777e+000	-6.7325513143e-001
 2.1541643446e-001	 1.5728165849e+000	-6.5491638831e-001
 2.0080033815e-001	 1.5747493370e+000	-6.3511738210e-001
 1.8621324298e-001	 1.5765407950e+000	-6.1394961920e-001
 1.7165696050e-001	 1.5781920472e+000	-5.9151923544e-001
 1.5713327040e-001	 1.5797042082e+000	-5.6794663353e-001
 1.4264392015e-001	 1.5810784174e+000	-5.4336609669e-001
 2.9000361481e-001	 1.5671429309e+000	-7.2035589565e-001
 2.7521277132e-001	 1.5698079478e+000	-7.0845890471e-001
 2.6044148354e-001	 1.5723260782e+000	-6.9491452758e-001
 2.4569172407e-001	 1.5746982693e+000	-6.7974607880e-001
 2.3096543564e-001	 1.5769254992e+000	-6.6299294071e-001
 2.1626453065e-001	 1.5790087762e+000	-6.4471031373e-001
 2.0159089066e-001	 1.5809491375e+000	-6.2496893624e-001
 1.8694636598e-001	 1.5827476485e+000	-6.0385477571e-001
 1.7233277531e-001	 1.5844054018e+000	-5.8146869226e-001
 1.5775190533e-001	 1.5859235161e+000	-5.5792607648e-001
 1.4320551038e-001	 1.5873031356e+000	-5.3335646271e-001
 2.9114088388e-001	 1.5732885895e+000	-7.1158225336e-001
 2.7629203709e-001	 1.5759640574e+000	-6.9962820155e-001
 2.6146282269e-001	 1.5784920628e+000	-6.8605034151e-001
 2.4665522102e-001	 1.5808735566e+000	-6.7086541701e-001
 2.3187118245e-001	 1.5831095208e+000	-6.5410649949e-001
 2.1711262685e-001	 1.5852009675e+000	-6.3582274071e-001
 2.0238144317e-001	 1.5871489380e+000	-6.1607909445e-001
 1.8767948898e-001	 1.5889545020e+000	-5.9495600886e-001
 1.7300859011e-001	 1.5906187563e+000	-5.7254909076e-001
 1.5837054025e-001	 1.5921428240e+000	-5.4896874359e-001
 1.4376710062e-001	 1.5935278538e+000	-5.2433978045e-001
 2.9227815296e-001	 1.5794342480e+000	-7.0437141630e-001
 2.7737130286e-001	 1.5821201670e+000	-6.9231479830e-001
 2.6248416184e-001	 1.5846580474e+000	-6.7865524952e-001
 2.4761871798e-001	 1.5870488439e+000	-6.6340295061e-001
 2.3277692925e-001	 1.5892935424e+000	-6.4658467275e-001
 2.1796072305e-001	 1.5913931588e+000	-6.2824353255e-001
 2.0317199568e-001	 1.5933487386e+000	-6.0843871560e-001
 1.8841261199e-001	 1.5951613555e+000	-5.8724516985e-001
 1.7368440492e-001	 1.5968321108e+000	-5.6475327073e-001
 1.5898917517e-001	 1.5983621319e+000	-5.4106845909e-001
 1.4432869086e-001	 1.5997525720e+000	-5.1631085397e-001
 2.9341542204e-001	 1.5855799066e+000	-6.9870840367e-001
 2.7845056863e-001	 1.5882762766e+000	-6.8650470792e-001
 2.6350550099e-001	 1.5908240321e+000	-6.7271625748e-001
 2.4858221493e-001	 1.5932241313e+000	-6.5734667706e-001
 2.3368267606e-001	 1.5954775639e+000	-6.4041644765e-001
 2.1880881925e-001	 1.5975853500e+000	-6.2196266377e-001
 2.0396254819e-001	 1.5995485391e+000	-6.0203875863e-001
 1.8914573499e-001	 1.6013682091e+000	-5.8071419872e-001
 1.7436021972e-001	 1.6030454653e+000	-5.5807414946e-001
 1.5960781009e-001	 1.6045814398e+000	-5.3421911326e-001
 1.4489028109e-001	 1.6059772901e+000	-5.0926454176e-001
 2.9455269112e-001	 1.5917255651e+000	-6.9457839623e-001
 2.7952983440e-001	 1.5944323862e+000	-6.8218409466e-001
 2.6452684014e-001	 1.5969900167e+000	-6.6822051224e-001
 2.4954571189e-001	 1.5993994186e+000	-6.5268472429e-001
 2.3458842286e-001	 1.6016615855e+000	-6.3559093121e-001
 2.1965691544e-001	 1.6037775413e+000	-6.1697021792e-001
 2.0475310070e-001	 1.6057483397e+000	-5.9687028064e-001
 1.8987885799e-001	 1.6075750626e+000	-5.7535512262e-001
 1.7503603452e-001	 1.6092588198e+000	-5.5250472023e-001
 1.6022644501e-001	 1.6108007477e+000	-5.2841466106e-001
 1.4545187133e-001	 1.6122020083e+000	-5.0319575571e-001
 2.9568996019e-001	 1.5978712237e+000	-6.9196673313e-001
 2.8060910017e-001	 1.6005884958e+000	-6.7933927122e-001
 2.6554817929e-001	 1.6031560013e+000	-6.6515529890e-001
 2.5050920885e-001	 1.6055747059e+000	-6.4940534818e-001
 2.3549416967e-001	 1.6078456070e+000	-6.3209734794e-001
 2.2050501164e-001	 1.6099697326e+000	-6.1325638551e-001
 2.0554365321e-001	 1.6119481402e+000	-5.9292443502e-001
 1.9061198099e-001	 1.6137819161e+000	-5.7116005418e-001
 1.7571184933e-001	 1.6154721743e+000	-5.4803805083e-001
 1.6084507993e-001	 1.6170200556e+000	-5.2364912101e-001
 1.4601346156e-001	 1.6184267265e+000	-4.9809946006e-001
 1.4039755921e-001	 1.5561795447e+000	-5.9344003440e-001
 1.2617187471e-001	 1.5573974792e+000	-5.9933632638e-001
 1.1198333290e-001	 1.5584819483e+000	-6.0144694431e-001
 9.7833556956e-002	 1.5594341426e+000	-5.9995620516e-001
 8.3724137303e-002	 1.5602552736e+000	-5.9506229997e-001
 6.9656631459e-002	 1.5609465730e+000	-5.8697675948e-001
 5.5632563861e-002	 1.5615092916e+000	-5.7592390527e-001
 4.1653425730e-002	 1.5619446988e+000	-5.6214028792e-001
 2.7720674962e-002	 1.5622540812e+000	-5.4587411377e-001
 1.3835736046e-002	 1.5624387420e+000	-5.2738466193e-001
 0.0000000000e+000	 1.5625000000e+000	-5.0694169298e-001
 1.4095914944e-001	 1.5624042629e+000	-5.7940550744e-001
 1.2667656220e-001	 1.5636270691e+000	-5.8507568564e-001
 1.1243126623e-001	 1.5647158761e+000	-5.8699444428e-001
 9.8224891183e-002	 1.5656718792e+000	-5.8534598729e-001
 8.4059033852e-002	 1.5664962947e+000	-5.8032852261e-001
 6.9935257985e-002	 1.5671903593e+000	-5.7215372467e-001
 5.5855094116e-002	 1.5677553288e+000	-5.6104618211e-001
 4.1820039433e-002	 1.5681924776e+000	-5.4724283233e-001
 2.7831557662e-002	 1.5685030975e+000	-5.3099238456e-001
 1.3891078990e-002	 1.5686884969e+000	-5.1255473284e-001
 0.0000000000e+000	 1.5687500000e+000	-4.9220036062e-001
 1.4152073968e-001	 1.5686289811e+000	-5.6638528213e-001
 1.2718124970e-001	 1.5698566590e+000	-5.7182656134e-001
 1.1287919956e-001	 1.5709498039e+000	-5.7354756785e-001
 9.8616225410e-002	 1.5719096158e+000	-5.7173240704e-001
 8.4393930400e-002	 1.5727373158e+000	-5.6657932115e-001
 7.0213884510e-002	 1.5734341456e+000	-5.5830014855e-001
 5.6077624372e-002	 1.5740013660e+000	-5.4711976798e-001
 4.1986653136e-002	 1.5744402564e+000	-5.3327552946e-001
 2.7942440362e-002	 1.5747521138e+000	-5.1701667342e-001
 1.3946421934e-002	 1.5749382519e+000	-4.9860373971e-001
 0.0000000000e+000	 1.5750000000e+000	-4.7830796801e-001
 1.4208232991e-001	 1.5748536993e+000	-5.5437393381e-001
 1.2768593720e-001	 1.5760862489e+000	-5.5958367484e-001
 1.1332713289e-001	 1.5771837317e+000	-5.6110118490e-001
 9.9007559638e-002	 1.5781473523e+000	-5.5911048513e-001
 8.4728826949e-002	 1.5789783369e+000	-5.5380986932e-001
 7.0492511036e-002	 1.5796779319e+000	-5.4541135992e-001
 5.6300154627e-002	 1.5802474031e+000	-5.3414014868e-001
 4.2153266838e-002	 1.5806880352e+000	-5.2023402383e-001
 2.8053323061e-002	 1.5810011302e+000	-5.0394278525e-001
 1.4001764878e-002	 1.5811880069e+000	-4.8552764936e-001
 0.0000000000e+000	 1.5812500000e+000	-4.6526064530e-001
 1.4264392015e-001	 1.5810784174e+000	-5.4336609669e-001
 1.2819062470e-001	 1.5823158388e+000	-5.4834180755e-001
 1.1377506623e-001	 1.5834176595e+000	-5.4965022632e-001
 9.9398893865e-002	 1.5843850889e+000	-5.4747530403e-001
 8.5063723498e-002	 1.5852193580e+000	-5.4201540315e-001
 7.0771137561e-002	 1.5859217181e+000	-5.3348275019e-001
 5.6522684882e-002	 1.5864934403e+000	-5.2210287268e-001
 4.2319880541e-002	 1.5869358140e+000	-5.0811402252e-001
 2.8164205761e-002	 1.5872501465e+000	-4.9176658718e-001
 1.4057107822e-002	 1.5874377618e+000	-4.7332249031e-001
 0.0000000000e+000	 1.5875000000e+000	-4.5305458358e-001
 1.4320551038e-001	 1.5873031356e+000	-5.3335646271e-001
 1.2869531220e-001	 1.5885454287e+000	-5.3809579980e-001
 1.1422299956e-001	 1.5896515873e+000	-5.3918968285e-001
 9.9790228092e-002	 1.5906228255e+000	-5.3682200679e-001
 8.5398620047e-002	 1.5914603791e+000	-5.3119121977e-001
 7.1049764087e-002	 1.5921655044e+000	-5.2250977215e-001
 5.6745215137e-002	 1.5927394775e+000	-5.1100354990e-001
 4.2486494244e-002	 1.5931835928e+000	-4.9691129397e-001
 2.8275088461e-002	 1.5934991628e+000	-4.8048400737e-001
 1.4112450766e-002	 1.5936875168e+000	-4.6198435154e-001
 0.0000000000e+000	 1.5937500000e+000	-4.4168603368e-001
 1.4376710062e-001	 1.5935278538e+000	-5.2433978045e-001
 1.2919999969e-001	 1.5947750187e+000	-5.2884054966e-001
 1.1467093289e-001	 1.5958855151e+000	-5.2971460389e-001
 1.0018156232e-001	 1.5968605620e+000	-5.2714579587e-001
 8.5733516595e-002	 1.5977014002e+000	-5.2133267618e-001
 7.1328390612e-002	 1.5984092907e+000	-5.1248793877e-001
 5.6967745392e-002	 1.5989855146e+000	-5.0083785055e-001
 4.2653107947e-002	 1.5994313716e+000	-4.8662166674e-001
 2.8385971161e-002	 1.5997481791e+000	-4.7009103379e-001
 1.4167793710e-002	 1.5999372718e+000	-4.5150938134e-001
 0.0000000000e+000	 1.6000000000e+000	-4.3115130503e-001
 1.4432869086e-001	 1.5997525720e+000	-5.1631085397e-001
 1.2970468719e-001	 1.6010046086e+000	-5.2057101180e-001
 1.1511886622e-001	 1.6021194429e+000	-5.2122009639e-001
 1.0057289655e-001	 1.6030982986e+000	-5.1844193191e-001
 8.6068413144e-002	 1.6039424213e+000	-5.1243518808e-001
 7.1607017138e-002	 1.6046530770e+000	-5.0341282201e-001
 5.7190275648e-002	 1.6052315518e+000	-4.9160150390e-001
 4.2819721649e-002	 1.6056791504e+000	-4.7724102838e-001
 2.8496853860e-002	 1.6059971955e+000	-4.6058371308e-001
 1.4223136655e-002	 1.6061870267e+000	-4.4189378615e-001
 0.0000000000e+000	 1.6062500000e+000	-4.2144676447e-001
 1.4489028109e-001	 1.6059772901e+000	-5.0926454176e-001
 1.3020937469e-001	 1.6072341985e+000	-5.1328219646e-001
 1.1556679955e-001	 1.6083533706e+000	-5.1370132370e-001
 1.0096423077e-001	 1.6093360352e+000	-5.1070573269e-001
 8.6403309693e-002	 1.6101834424e+000	-5.0449422880e-001
 7.1885643663e-002	 1.6108968633e+000	-4.9528005171e-001
 5.7412805903e-002	 1.6114775890e+000	-4.8329029720e-001
 4.2986335352e-002	 1.6119269292e+000	-4.6876532427e-001
 2.8607736560e-002	 1.6122462118e+000	-4.5195814937e-001
 1.4278479599e-002	 1.6124367817e+000	-4.3313382942e-001
 0.0000000000e+000	 1.6125000000e+000	-4.1256883519e-001
 1.4545187133e-001	 1.6122020083e+000	-5.0319575571e-001
 1.3071406219e-001	 1.6134637884e+000	-5.0696916829e-001
 1.1601473288e-001	 1.6145872984e+000	-5.0715350449e-001
 1.0135556500e-001	 1.6155737717e+000	-5.0393257196e-001
 8.6738206242e-002	 1.6164244635e+000	-4.9750532809e-001
 7.2164270189e-002	 1.6171406496e+000	-4.8808531445e-001
 5.7635336158e-002	 1.6177236261e+000	-4.7590007450e-001
 4.3152949055e-002	 1.6181747080e+000	-4.6119055648e-001
 2.8718619260e-002	 1.6184952281e+000	-4.4421050324e-001
 1.4333822543e-002	 1.6186865367e+000	-4.2522583052e-001
 0.0000000000e+000	 1.6187500000e+000	-4.0451399563e-001
 1.4601346156e-001	 1.6184267265e+000	-4.9809946006e-001
 1.3121874969e-001	 1.6196933783e+000	-5.0162704538e-001
 1.1646266621e-001	 1.6208212262e+000	-5.0157191172e-001
 1.0174689923e-001	 1.6218115083e+000	-4.9811787840e-001
 8.7073102790e-002	 1.6226654846e+000	-4.9146407111e-001
 7.2442896714e-002	 1.6233844359e+000	-4.8182435245e-001
 5.7857866413e-002	 1.6239696633e+000	-4.6942673558e-001
 4.3319562758e-002	 1.6244224868e+000	-4.5451278275e-001
 2.8829501960e-002	 1.6247442444e+000	-4.3733699057e-001
 1.4389165487e-002	 1.6249362916e+000	-4.1816616367e-001
 0.0000000000e+000	 1.6250000000e+000	-3.9727877839e-001
 1.6250000000e+000	 0.0000000000e+000	 3.5606125719e+000
 1.6249362916e+000	 1.4389165487e-002	 3.5728011015e+000
 1.6247442444e+000	 2.8829501960e-002	 3.5790300122e+000
 1.6244224868e+000	 4.3319562758e-002	 3.5789996503e+000
 1.6239696633e+000	 5.7857866413e-002	 3.5724335420e+000
 1.6233844359e+000	 7.2442896714e-002	 3.5590793943e+000
 1.6226654846e+000	 8.7073102790e-002	 3.5387100743e+000
 1.6218115083e+000	 1.0174689923e-001	 3.5111245646e+000
 1.6208212262e+000	 1.1646266621e-001	 3.4761488917e+000
 1.6196933783e+000	 1.3121874969e-001	 3.4336370250e+000
 1.6184267265e+000	 1.4601346156e-001	 3.3834717427e+000
 1.6312500000e+000	 0.0000000000e+000	 3.5541679316e+000
 1.6311860466e+000	 1.4444508431e-002	 3.5659750176e+000
 1.6309932608e+000	 2.8940384659e-002	 3.5717904166e+000
 1.6306702656e+000	 4.3486176460e-002	 3.5713160959e+000
 1.6302157005e+000	 5.8080396668e-002	 3.5642775263e+000
 1.6296282222e+000	 7.2721523240e-002	 3.5504246902e+000
 1.6289065057e+000	 8.7407999339e-002	 3.5295330688e+000
 1.6280492449e+000	 1.0213823346e-001	 3.5014046046e+000
 1.6270551540e+000	 1.1691059954e-001	 3.4658686361e+000
 1.6259229682e+000	 1.3172343718e-001	 3.4227828030e+000
 1.6246514447e+000	 1.4657505180e-001	 3.3720339176e+000
 1.6375000000e+000	 0.0000000000e+000	 3.5480515292e+000
 1.6374358016e+000	 1.4499851375e-002	 3.5595497431e+000
 1.6372422771e+000	 2.9051267359e-002	 3.5650201977e+000
 1.6369180443e+000	 4.3652790163e-002	 3.5641664236e+000
 1.6364617376e+000	 5.8302926924e-002	 3.5567157811e+000
 1.6358720085e+000	 7.3000149765e-002	 3.5424204777e+000
 1.6351475267e+000	 8.7742895888e-002	 3.5210585616e+000
 1.6342869815e+000	 1.0252956768e-001	 3.4924348922e+000
 1.6332890818e+000	 1.1735853287e-001	 3.4563820811e+000
 1.6321525581e+000	 1.3222812468e-001	 3.4127614040e+000
 1.6308761629e+000	 1.4713664204e-001	 3.3614636772e+000
 1.6437500000e+000	 0.0000000000e+000	 3.5422553896e+000
 1.6436855566e+000	 1.4555194319e-002	 3.5535166216e+000
 1.6434912934e+000	 2.9162150059e-002	 3.5587100108e+000
 1.6431658231e+000	 4.3819403866e-002	 3.5575405926e+000
 1.6427077748e+000	 5.8525457179e-002	 3.5497375634e+000
 1.6421157948e+000	 7.3278776291e-002	 3.5350553044e+000
 1.6413885478e+000	 8.8077792437e-002	 3.5132743845e+000
 1.6405247180e+000	 1.0292090191e-001	 3.4842025373e+000
 1.6395230096e+000	 1.1780646620e-001	 3.4476756092e+000
 1.6383821481e+000	 1.3273281218e-001	 3.4035584774e+000
 1.6371008810e+000	 1.4769823227e-001	 3.3517459325e+000
 1.6500000000e+000	 0.0000000000e+000	 3.5367716583e+000
 1.6499353115e+000	 1.4610537264e-002	 3.5478671259e+000
 1.6497403097e+000	 2.9273032759e-002	 3.5528506480e+000
 1.6494136019e+000	 4.3986017569e-002	 3.5514287078e+000
 1.6489538120e+000	 5.8747987434e-002	 3.5433322827e+000
 1.6483595811e+000	 7.3557402816e-002	 3.5283178780e+000
 1.6476295689e+000	 8.8412688985e-002	 3.5061685370e+000
 1.6467624546e+000	 1.0331223614e-001	 3.4766948247e+000
 1.6457569374e+000	 1.1825439953e-001	 3.4397357844e+000
 1.6446117380e+000	 1.3323749968e-001	 3.3951598609e+000
 1.6433255992e+000	 1.4825982251e-001	 3.3428657895e+000
 1.6562500000e+000	 0.0000000000e+000	 3.5315925997e+000
 1.6561850665e+000	 1.4665880208e-002	 3.5425928555e+000
 1.6559893261e+000	 2.9383915458e-002	 3.5474330365e+000
 1.6556613807e+000	 4.4152631271e-002	 3.5458210158e+000
 1.6551998491e+000	 5.8970517689e-002	 3.5374894986e+000
 1.6546033674e+000	 7.3836029342e-002	 3.5221970640e+000
 1.6538705900e+000	 8.8747585534e-002	 3.4997291830e+000
 1.6530001912e+000	 1.0370357036e-001	 3.4698992109e+000
 1.6519908652e+000	 1.1870233287e-001	 3.4325493493e+000
 1.6508413279e+000	 1.3374218718e-001	 3.3875515772e+000
 1.6495503174e+000	 1.4882141274e-001	 3.3348085456e+000
 1.6625000000e+000	 0.0000000000e+000	 3.5267105943e+000
 1.6624348215e+000	 1.4721223152e-002	 3.5376855340e+000
 1.6622383424e+000	 2.9494798158e-002	 3.5424482352e+000
 1.6619091595e+000	 4.4319244974e-002	 3.5407079033e+000
 1.6614458863e+000	 5.9193047944e-002	 3.5321989178e+000
 1.6608471536e+000	 7.4114655867e-002	 3.5166818817e+000
 1.6601116111e+000	 8.9082482083e-002	 3.4939446482e+000
 1.6592379277e+000	 1.0409490459e-001	 3.4638033204e+000
 1.6582247930e+000	 1.1915026620e-001	 3.4261032212e+000
 1.6570709178e+000	 1.3424687467e-001	 3.3807198305e+000
 1.6557750356e+000	 1.4938300298e-001	 3.3275596860e+000
 1.6687500000e+000	 0.0000000000e+000	 3.5221181367e+000
 1.6686845764e+000	 1.4776566096e-002	 3.5331370073e+000
 1.6684873587e+000	 2.9605680858e-002	 3.5378874326e+000
 1.6681569383e+000	 4.4485858677e-002	 3.5360798940e+000
 1.6676919235e+000	 5.9415578200e-002	 3.5274503913e+000
 1.6670909399e+000	 7.4393282393e-002	 3.5117615022e+000
 1.6663526322e+000	 8.9417378632e-002	 3.4888034163e+000
 1.6654756643e+000	 1.0448623882e-001	 3.4583949432e+000
 1.6644587208e+000	 1.1959819953e-001	 3.4203844896e+000
 1.6633005077e+000	 1.3475156217e-001	 3.3746510031e+000
 1.6619997537e+000	 1.4994459321e-001	 3.3211048802e+000
 1.6750000000e+000	 0.0000000000e+000	 3.5178078337e+000
 1.6749343314e+000	 1.4831909040e-002	 3.5289392405e+000
 1.6747363750e+000	 2.9716563558e-002	 3.5337419446e+000
 1.6744047171e+000	 4.4652472380e-002	 3.5319276459e+000
 1.6739379606e+000	 5.9638108455e-002	 3.5232339119e+000
 1.6733347262e+000	 7.4671908918e-002	 3.5074252452e+000
 1.6725936533e+000	 8.9752275181e-002	 3.4842941268e+000
 1.6717134009e+000	 1.0487757305e-001	 3.4536620312e+000
 1.6706926486e+000	 1.2004613286e-001	 3.4153804120e+000
 1.6695300976e+000	 1.3525624967e-001	 3.3693316522e+000
 1.6682244719e+000	 1.5050618345e-001	 3.3154299784e+000
 1.6812500000e+000	 0.0000000000e+000	 3.5137724020e+000
 1.6811840864e+000	 1.4887251984e-002	 3.5250843166e+000
 1.6809853914e+000	 2.9827446257e-002	 3.5300032117e+000
 1.6806524959e+000	 4.4819086082e-002	 3.5282419492e+000
 1.6801839978e+000	 5.9860638710e-002	 3.5195396112e+000
 1.6795785125e+000	 7.4950535444e-002	 3.5036625764e+000
 1.6788346744e+000	 9.0087171729e-002	 3.4804055714e+000
 1.6779511374e+000	 1.0526890727e-001	 3.4495926954e+000
 1.6769265764e+000	 1.2049406619e-001	 3.4110784116e+000
 1.6757596876e+000	 1.3576093717e-001	 3.3647485062e+000
 1.6744491901e+000	 1.5106777369e-001	 3.3105210082e+000
 1.6875000000e+000	 0.0000000000e+000	 3.5100046660e+000
 1.6874338413e+000	 1.4942594928e-002	 3.5215644336e+000
 1.6872344077e+000	 2.9938328957e-002	 3.5266627969e+000
 1.6869002747e+000	 4.4985699785e-002	 3.5250137236e+000
 1.6864300350e+000	 6.0083168965e-002	 3.5163577576e+000
 1.6858222988e+000	 7.5229161969e-002	 3.5004631043e+000
 1.6850756955e+000	 9.0422068278e-002	 3.4771266920e+000
 1.6841888740e+000	 1.0566024150e-001	 3.4461752028e+000
 1.6831605042e+000	 1.2094199952e-001	 3.4074660739e+000
 1.6819892775e+000	 1.3626562467e-001	 3.3608884622e+000
 1.6806739083e+000	 1.5162936392e-001	 3.3063641716e+000
 1.6184267265e+000	 1.4601346156e-001	 3.3834717427e+000
 1.6170200556e+000	 1.6084507993e-001	 3.3549167904e+000
 1.6154721743e+000	 1.7571184933e-001	 3.3215802147e+000
 1.6137819161e+000	 1.9061198099e-001	 3.2834271461e+000
 1.6119481402e+000	 2.0554365321e-001	 3.2404517362e+000
 1.6099697326e+000	 2.2050501164e-001	 3.1926777615e+000
 1.6078456070e+000	 2.3549416967e-001	 3.1401591771e+000
 1.6055747059e+000	 2.5050920885e-001	 3.0829806205e+000
 1.6031560013e+000	 2.6554817929e-001	 3.0212578610e+000
 1.6005884958e+000	 2.8060910017e-001	 2.9551381921e+000
 1.5978712237e+000	 2.9568996019e-001	 2.8848007657e+000
 1.6246514447e+000	 1.4657505180e-001	 3.3720339176e+000
 1.6232393635e+000	 1.6146371486e-001	 3.3424772031e+000
 1.6216855288e+000	 1.7638766413e-001	 3.3082756736e+000
 1.6199887696e+000	 1.9134510400e-001	 3.2693994500e+000
 1.6181479407e+000	 2.0633420573e-001	 3.2258479252e+000
 1.6161619239e+000	 2.2135310784e-001	 3.1776503668e+000
 1.6140296286e+000	 2.3639991648e-001	 3.1248664706e+000
 1.6117499933e+000	 2.5147270580e-001	 3.0675868625e+000
 1.6093219859e+000	 2.6656951844e-001	 3.0059335457e+000
 1.6067446054e+000	 2.8168836594e-001	 2.9400602911e+000
 1.6040168822e+000	 2.9682722927e-001	 2.8701529668e+000
 1.6308761629e+000	 1.4713664204e-001	 3.3614636772e+000
 1.6294586714e+000	 1.6208234978e-001	 3.3309154734e+000
 1.6278988834e+000	 1.7706347894e-001	 3.2958537270e+000
 1.6261956231e+000	 1.9207822700e-001	 3.2562535308e+000
 1.6243477413e+000	 2.0712475824e-001	 3.2121195054e+000
 1.6223541151e+000	 2.2220120404e-001	 3.1634864017e+000
 1.6202136502e+000	 2.3730566328e-001	 3.1104196537e+000
 1.6179252806e+000	 2.5243620276e-001	 3.0530158795e+000
 1.6154879705e+000	 2.6759085759e-001	 2.9914033258e+000
 1.6129007150e+000	 2.8276763171e-001	 2.9257422560e+000
 1.6101625408e+000	 2.9796449835e-001	 2.8562252760e+000
 1.6371008810e+000	 1.4769823227e-001	 3.3517459325e+000
 1.6356779793e+000	 1.6270098470e-001	 3.3202159985e+000
 1.6341122379e+000	 1.7773929374e-001	 3.2842982671e+000
 1.6324024767e+000	 1.9281135000e-001	 3.2439727844e+000
 1.6305475418e+000	 2.0791531075e-001	 3.1992493856e+000
 1.6285463064e+000	 2.2304930023e-001	 3.1501682975e+000
 1.6263976717e+000	 2.3821141009e-001	 3.0968006909e+000
 1.6241005679e+000	 2.5339969971e-001	 3.0392491798e+000
 1.6216539552e+000	 2.6861219674e-001	 2.9776482646e+000
 1.6190568246e+000	 2.8384689748e-001	 2.9121647168e+000
 1.6163081993e+000	 2.9910176742e-001	 2.8429979023e+000
 1.6433255992e+000	 1.4825982251e-001	 3.3428657895e+000
 1.6418972872e+000	 1.6331961962e-001	 3.3103633736e+000
 1.6403255924e+000	 1.7841510854e-001	 3.2735933862e+000
 1.6386093302e+000	 1.9354447300e-001	 3.2325408086e+000
 1.6367473423e+000	 2.0870586326e-001	 3.1872206782e+000
 1.6347384977e+000	 2.2389739643e-001	 3.1376786908e+000
 1.6325816933e+000	 2.3911715689e-001	 3.0839917525e+000
 1.6302758552e+000	 2.5436319667e-001	 3.0262684778e+000
 1.6278199398e+000	 2.6963353589e-001	 2.9646496312e+000
 1.6252129342e+000	 2.8492616325e-001	 2.8993085088e+000
 1.6224538579e+000	 3.0023903650e-001	 2.8304512588e+000
 1.6495503174e+000	 1.4882141274e-001	 3.3348085456e+000
 1.6481165951e+000	 1.6393825454e-001	 3.3013423880e+000
 1.6465389469e+000	 1.7909092335e-001	 3.2637233730e+000
 1.6448161837e+000	 1.9427759601e-001	 3.2219413999e+000
 1.6429471429e+000	 2.0949641577e-001	 3.1760166960e+000
 1.6409306890e+000	 2.2474549263e-001	 3.1260004193e+000
 1.6387657149e+000	 2.4002290369e-001	 3.0719752106e+000
 1.6364511426e+000	 2.5532669362e-001	 3.0140556900e+000
 1.6339859244e+000	 2.7065487504e-001	 2.9523888967e+000
 1.6313690438e+000	 2.8600542901e-001	 2.8871546685e+000
 1.6285995164e+000	 3.0137630557e-001	 2.8185659589e+000
 1.6557750356e+000	 1.4938300298e-001	 3.3275596860e+000
 1.6543359030e+000	 1.6455688946e-001	 3.2931380215e+000
 1.6527523014e+000	 1.7976673815e-001	 3.2546727094e+000
 1.6510230372e+000	 1.9501071901e-001	 3.2121585496e+000
 1.6491469434e+000	 2.1028696828e-001	 3.1656209476e+000
 1.6471228803e+000	 2.2559358882e-001	 3.1151165179e+000
 1.6449497364e+000	 2.4092865050e-001	 3.0607336354e+000
 1.6426264299e+000	 2.5629019058e-001	 3.0025929311e+000
 1.6401519090e+000	 2.7167621419e-001	 2.9408477304e+000
 1.6375251534e+000	 2.8708469478e-001	 2.8756844302e+000
 1.6347451750e+000	 3.0251357465e-001	 2.8073228124e+000
 1.6619997537e+000	 1.4994459321e-001	 3.3211048802e+000
 1.6605552110e+000	 1.6517552439e-001	 3.2857354408e+000
 1.6589656559e+000	 1.8044255295e-001	 3.2464260662e+000
 1.6572298907e+000	 1.9574384201e-001	 3.2031764400e+000
 1.6553467439e+000	 2.1107752079e-001	 3.1560171347e+000
 1.6533150715e+000	 2.2644168502e-001	 3.1050102154e+000
 1.6511337580e+000	 2.4183439730e-001	 3.0502497913e+000
 1.6488017172e+000	 2.5725368753e-001	 2.9918625104e+000
 1.6463178936e+000	 2.7269755334e-001	 2.9300079960e+000
 1.6436812630e+000	 2.8816396055e-001	 2.8648792216e+000
 1.6408908335e+000	 3.0365084372e-001	 2.7967028220e+000
 1.6682244719e+000	 1.5050618345e-001	 3.3154299784e+000
 1.6667745189e+000	 1.6579415931e-001	 3.2791199961e+000
 1.6651790104e+000	 1.8111836776e-001	 3.2389683000e+000
 1.6634367443e+000	 1.9647696501e-001	 3.1949794410e+000
 1.6615465445e+000	 2.1186807330e-001	 3.1471891476e+000
 1.6595072628e+000	 2.2728978122e-001	 3.0956649306e+000
 1.6573177795e+000	 2.4274014411e-001	 3.0405066337e+000
 1.6549770046e+000	 2.5821718449e-001	 2.9818469282e+000
 1.6524838782e+000	 2.7371889248e-001	 2.9198517478e+000
 1.6498373726e+000	 2.8924322631e-001	 2.8547206611e+000
 1.6470364921e+000	 3.0478811280e-001	 2.7866871797e+000
 1.6744491901e+000	 1.5106777369e-001	 3.3105210082e+000
 1.6729938268e+000	 1.6641279423e-001	 3.2732772176e+000
 1.6713923650e+000	 1.8179418256e-001	 3.2322844496e+000
 1.6696435978e+000	 1.9721008802e-001	 3.1875521064e+000
 1.6677463450e+000	 2.1265862581e-001	 3.1391210624e+000
 1.6656994541e+000	 2.2813787741e-001	 3.0870642687e+000
 1.6635018011e+000	 2.4364589091e-001	 3.0314873049e+000
 1.6611522919e+000	 2.5918068144e-001	 2.9725288723e+000
 1.6586498629e+000	 2.7474023163e-001	 2.9103612276e+000
 1.6559934822e+000	 2.9032249208e-001	 2.8451905534e+000
 1.6531821506e+000	 3.0592538187e-001	 2.7772572630e+000
 1.6806739083e+000	 1.5162936392e-001	 3.3063641716e+000
 1.6792131347e+000	 1.6703142915e-001	 3.2681928123e+000
 1.6776057195e+000	 1.8246999737e-001	 3.2263597327e+000
 1.6758504513e+000	 1.9794321102e-001	 3.1808791710e+000
 1.6739461456e+000	 2.1344917832e-001	 3.1317971369e+000
 1.6718916454e+000	 2.2898597361e-001	 3.0791920181e+000
 1.6696858227e+000	 2.4455163771e-001	 3.0231751310e+000
 1.6673275792e+000	 2.6014417840e-001	 2.9638912143e+000
 1.6648158475e+000	 2.7576157078e-001	 2.9015188609e+000
 1.6621495918e+000	 2.9140175784e-001	 2.8362708865e+000
 1.6593278092e+000	 3.0706265094e-001	 2.7683946318e+000
 1.5978712237e+000	 2.9568996019e-001	 2.8848007657e+000
 1.5950032516e+000	 3.1078871813e-001	 2.8303912239e+000
 1.5919836798e+000	 3.2590330338e-001	 2.7720190218e+000
 1.5888116429e+000	 3.4103161654e-001	 2.7099063149e+000
 1.5854863106e+000	 3.5617153009e-001	 2.6443070035e+000
 1.5820068892e+000	 3.7132088894e-001	 2.5755067715e+000
 1.5783726218e+000	 3.8647751123e-001	 2.5038230560e+000
 1.5745827898e+000	 4.0163918895e-001	 2.4296049430e+000
 1.5706367133e+000	 4.1680368876e-001	 2.3532329905e+000
 1.5665337522e+000	 4.3196875273e-001	 2.2751189747e+000
 1.5622733071e+000	 4.4713209915e-001	 2.1957055606e+000
 1.6040168822e+000	 2.9682722927e-001	 2.8701529668e+000
 1.6011378795e+000	 3.1198405935e-001	 2.8155697011e+000
 1.5981066940e+000	 3.2715677762e-001	 2.7570195304e+000
 1.5949224569e+000	 3.4234327661e-001	 2.6947307389e+000
 1.5915843349e+000	 3.5754142059e-001	 2.6289637308e+000
 1.5880915311e+000	 3.7274904621e-001	 2.5600110658e+000
 1.5844432858e+000	 3.8796396319e-001	 2.4881974247e+000
 1.5806388774e+000	 4.0318395506e-001	 2.4138795004e+000
 1.5766776237e+000	 4.1840677987e-001	 2.3374458146e+000
 1.5725588820e+000	 4.3363017101e-001	 2.2593164582e+000
 1.5682820506e+000	 4.4885183800e-001	 2.1799427531e+000
 1.6101625408e+000	 2.9796449835e-001	 2.8562252760e+000
 1.6072725074e+000	 3.1317940057e-001	 2.8014287055e+000
 1.6042297081e+000	 3.2841025186e-001	 2.7426570598e+000
 1.6010332709e+000	 3.4365493667e-001	 2.6801448022e+000
 1.5976823592e+000	 3.5891131109e-001	 2.6141588962e+000
 1.5941761730e+000	 3.7417720347e-001	 2.5449988388e+000
 1.5905139497e+000	 3.8945041516e-001	 2.4729966212e+000
 1.5866949651e+000	 4.0472872117e-001	 2.3985166154e+000
 1.5827185341e+000	 4.2000987098e-001	 2.3219553850e+000
 1.5785840118e+000	 4.3529158929e-001	 2.2437414184e+000
 1.5742907940e+000	 4.5057157684e-001	 2.1643347833e+000
 1.6163081993e+000	 2.9910176742e-001	 2.8429979023e+000
 1.6134071353e+000	 3.1437474180e-001	 2.7879479731e+000
 1.6103527223e+000	 3.2966372610e-001	 2.7289108686e+000
 1.6071440849e+000	 3.4496659673e-001	 2.6661272818e+000
 1.6037803834e+000	 3.6028120159e-001	 2.5998707919e+000
 1.6002608148e+000	 3.7560536074e-001	 2.5304478948e+000
 1.5965846136e+000	 3.9093686713e-001	 2.4581979593e+000
 1.5927510528e+000	 4.0627348728e-001	 2.3834931095e+000
 1.5887594446e+000	 4.2161296209e-001	 2.3067380289e+000
 1.5846091416e+000	 4.3695300757e-001	 2.2283696874e+000
 1.5802995375e+000	 4.5229131568e-001	 2.1488569875e+000
 1.6224538579e+000	 3.0023903650e-001	 2.8304512588e+000
 1.6195417632e+000	 3.1557008302e-001	 2.7751074433e+000
 1.6164757364e+000	 3.3091720035e-001	 2.7157604180e+000
 1.6132548989e+000	 3.4627825680e-001	 2.6526571566e+000
 1.6098784077e+000	 3.6165109209e-001	 2.5860779110e+000
 1.6063454567e+000	 3.7703351800e-001	 2.5163362376e+000
 1.6026552776e+000	 3.9242331909e-001	 2.4437789511e+000
 1.5988071404e+000	 4.0781825339e-001	 2.3687860003e+000
 1.5948003550e+000	 4.2321605320e-001	 2.2917702679e+000
 1.5906342714e+000	 4.3861442585e-001	 2.2131772894e+000
 1.5863082810e+000	 4.5401105452e-001	 2.1334848920e+000
 1.6285995164e+000	 3.0137630557e-001	 2.8185659589e+000
 1.6256763911e+000	 3.1676542424e-001	 2.7628872552e+000
 1.6225987506e+000	 3.3217067459e-001	 2.7031853682e+000
 1.6193657129e+000	 3.4758991686e-001	 2.6397136039e+000
 1.6159764320e+000	 3.6302098258e-001	 2.5727589433e+000
 1.6124300986e+000	 3.7846167526e-001	 2.5026420668e+000
 1.6087259415e+000	 3.9390977105e-001	 2.4297173023e+000
 1.6048632281e+000	 4.0936301950e-001	 2.3543724979e+000
 1.6008412655e+000	 4.2481914431e-001	 2.2770288142e+000
 1.5966594013e+000	 4.4027584412e-001	 2.1981404372e+000
 1.5923170245e+000	 4.5573079337e-001	 2.1181942093e+000
 1.6347451750e+000	 3.0251357465e-001	 2.8073228124e+000
 1.6318110190e+000	 3.1796076546e-001	 2.7512677441e+000
 1.6287217648e+000	 3.3342414883e-001	 2.6911655748e+000
 1.6254765269e+000	 3.4890157692e-001	 2.6272759949e+000
 1.6220744563e+000	 3.6439087308e-001	 2.5598927722e+000
 1.6185147405e+000	 3.7988983252e-001	 2.4893437736e+000
 1.6147966054e+000	 3.9539622302e-001	 2.4159909096e+000
 1.6109193157e+000	 4.1090778561e-001	 2.3402300011e+000
 1.6068821759e+000	 4.2642223542e-001	 2.2624905668e+000
 1.6026845311e+000	 4.4193726240e-001	 2.1832355285e+000
 1.5983257680e+000	 4.5745053221e-001	 2.1029608347e+000
 1.6408908335e+000	 3.0365084372e-001	 2.7967028220e+000
 1.6379456469e+000	 3.1915610668e-001	 2.7402294372e+000
 1.6348447789e+000	 3.3467762307e-001	 2.6796810849e+000
 1.6315873409e+000	 3.5021323698e-001	 2.6153238917e+000
 1.6281724805e+000	 3.6576076358e-001	 2.5474584705e+000
 1.6245993824e+000	 3.8131798979e-001	 2.4764199381e+000
 1.6208672693e+000	 3.9688267498e-001	 2.4025778564e+000
 1.6169754034e+000	 4.1245255172e-001	 2.3263360943e+000
 1.6129230863e+000	 4.2802532652e-001	 2.2481326085e+000
 1.6087096609e+000	 4.4359868068e-001	 2.1684391428e+000
 1.6043345115e+000	 4.5917027104e-001	 2.0877608427e+000
 1.6470364921e+000	 3.0478811280e-001	 2.7866871797e+000
 1.6440802747e+000	 3.2035144790e-001	 2.7297530509e+000
 1.6409677931e+000	 3.3593109731e-001	 2.6687121336e+000
 1.6376981550e+000	 3.5152489703e-001	 2.6038370437e+000
 1.6342705048e+000	 3.6713065407e-001	 2.5354352971e+000
 1.6306840242e+000	 3.8274614704e-001	 2.4638493248e+000
 1.6269379333e+000	 3.9836912694e-001	 2.3894564096e+000
 1.6230314910e+000	 4.1399731782e-001	 2.3126685434e+000
 1.6189639968e+000	 4.2962841763e-001	 2.2339322020e+000
 1.6147347907e+000	 4.4526009895e-001	 2.1537280372e+000
 1.6103432550e+000	 4.6089000988e-001	 2.0725704839e+000
 1.6531821506e+000	 3.0592538187e-001	 2.7772572630e+000
 1.6502149026e+000	 3.2154678912e-001	 2.7198194864e+000
 1.6470908072e+000	 3.3718457154e-001	 2.6582391406e+000
 1.6438089690e+000	 3.5283655709e-001	 2.5927953838e+000
 1.6403685291e+000	 3.6850054456e-001	 2.5238026938e+000
 1.6367686661e+000	 3.8417430430e-001	 2.4516108800e+000
 1.6330085972e+000	 3.9985557890e-001	 2.3766050163e+000
 1.6290875787e+000	 4.1554208393e-001	 2.2992052932e+000
 1.6250049072e+000	 4.3123150873e-001	 2.2198667869e+000
 1.6207599205e+000	 4.4692151722e-001	 2.1390791441e+000
 1.6163519985e+000	 4.6260974872e-001	 2.0573661814e+000
 1.6593278092e+000	 3.0706265094e-001	 2.7683946318e+000
 1.6563495305e+000	 3.2274213034e-001	 2.7104098269e+000
 1.6532138214e+000	 3.3843804578e-001	 2.6482427066e+000
 1.6499197830e+000	 3.5414821715e-001	 2.5821790251e+000
 1.6464665533e+000	 3.6987043506e-001	 2.5125402813e+000
 1.6428533080e+000	 3.8560246156e-001	 2.4396837278e+000
 1.6390792611e+000	 4.0134203086e-001	 2.3640023001e+000
 1.6351436663e+000	 4.1708685003e-001	 2.2859244635e+000
 1.6310458176e+000	 4.3283459984e-001	 2.2059139761e+000
 1.6267850503e+000	 4.4858293550e-001	 2.1244695672e+000
 1.6223607419e+000	 4.6432948755e-001	 2.0421245279e+000
 1.5622733071e+000	 4.4713209915e-001	 2.1957055606e+000
 1.5578548199e+000	 4.6229142341e-001	 2.1352534235e+000
 1.5532777749e+000	 4.7744439881e-001	 2.0700680229e+000
 1.5485416994e+000	 4.9258867751e-001	 2.0006110216e+000
 1.5436461645e+000	 5.0772189146e-001	 1.9273758889e+000
 1.5385907856e+000	 5.2284165331e-001	 1.8508872909e+000
 1.5333752239e+000	 5.3794555747e-001	 1.7717003987e+000
 1.5279991861e+000	 5.5303118107e-001	 1.6904001144e+000
 1.5224624259e+000	 5.6809608503e-001	 1.6076002147e+000
 1.5167647440e+000	 5.8313781512e-001	 1.5239424132e+000
 1.5109059892e+000	 5.9815390307e-001	 1.4400953419e+000
 1.5682820506e+000	 4.4885183800e-001	 2.1799427531e+000
 1.5638465692e+000	 4.6406946734e-001	 2.1191898703e+000
 1.5592519202e+000	 4.7928072342e-001	 2.0540452159e+000
 1.5544976290e+000	 4.9448324935e-001	 1.9849810973e+000
 1.5495832651e+000	 5.0967466796e-001	 1.9125017076e+000
 1.5445084425e+000	 5.2485258275e-001	 1.8371424994e+000
 1.5392728209e+000	 5.4001457885e-001	 1.7594694752e+000
 1.5338761061e+000	 5.5515822408e-001	 1.6800783949e+000
 1.5283180506e+000	 5.7028106997e-001	 1.5995939007e+000
 1.5225984546e+000	 5.8538065287e-001	 1.5186685594e+000
 1.5167171661e+000	 6.0045449500e-001	 1.4379818232e+000
 1.5742907940e+000	 4.5057157684e-001	 2.1643347833e+000
 1.5698383185e+000	 4.6584751128e-001	 2.1031961058e+000
 1.5652260655e+000	 4.8111704803e-001	 2.0380018933e+000
 1.5604535587e+000	 4.9637782119e-001	 1.9692351918e+000
 1.5555203657e+000	 5.1162744447e-001	 1.8974110190e+000
 1.5504260994e+000	 5.2686351219e-001	 1.8230757210e+000
 1.5451704179e+000	 5.4208360023e-001	 1.7468062447e+000
 1.5397530260e+000	 5.5728526708e-001	 1.6692093276e+000
 1.5341736753e+000	 5.7246605492e-001	 1.5909206023e+000
 1.5284321651e+000	 5.8762349062e-001	 1.5126036201e+000
 1.5225283430e+000	 6.0275508694e-001	 1.4349487905e+000
 1.5802995375e+000	 4.5229131568e-001	 2.1488569875e+000
 1.5758300678e+000	 4.6762555522e-001	 2.0872470749e+000
 1.5712002108e+000	 4.8295337264e-001	 2.0219126327e+000
 1.5664094883e+000	 4.9827239303e-001	 1.9533475406e+000
 1.5614574663e+000	 5.1358022098e-001	 1.8820777422e+000
 1.5563437562e+000	 5.2887444162e-001	 1.8086605846e+000
 1.5510680150e+000	 5.4415262160e-001	 1.7336840735e+000
 1.5456299460e+000	 5.5941231009e-001	 1.6577660433e+000
 1.5400293000e+000	 5.7465103986e-001	 1.5815532437e+000
 1.5342658757e+000	 5.8986632837e-001	 1.5057203421e+000
 1.5283395199e+000	 6.0505567887e-001	 1.4309688432e+000
 1.5863082810e+000	 4.5401105452e-001	 2.1334848920e+000
 1.5818218171e+000	 4.6940359915e-001	 2.0713179085e+000
 1.5771743561e+000	 4.8478969725e-001	 2.0057521931e+000
 1.5723654179e+000	 5.0016696486e-001	 1.9372925552e+000
 1.5673945670e+000	 5.1553299748e-001	 1.8664759663e+000
 1.5622614131e+000	 5.3088537106e-001	 1.7938708832e+000
 1.5569656120e+000	 5.4622164298e-001	 1.7200764845e+000
 1.5515068659e+000	 5.6153935309e-001	 1.6457218225e+000
 1.5458849248e+000	 5.7683602480e-001	 1.5714648906e+000
 1.5400995862e+000	 5.9210916612e-001	 1.4979916050e+000
 1.5341506968e+000	 6.0735627081e-001	 1.4260147040e+000
 1.5923170245e+000	 4.5573079337e-001	 2.1181942093e+000
 1.5878135664e+000	 4.7118164309e-001	 2.0553839192e+000
 1.5831485014e+000	 4.8662602186e-001	 1.9894955109e+000
 1.5783213475e+000	 5.0206153670e-001	 1.9210448195e+000
 1.5733316676e+000	 5.1748577399e-001	 1.8505799476e+000
 1.5681790700e+000	 5.3289630049e-001	 1.7786805703e+000
 1.5628632090e+000	 5.4829066435e-001	 1.7059571544e+000
 1.5573837859e+000	 5.6366639609e-001	 1.6330500920e+000
 1.5517405495e+000	 5.7902100974e-001	 1.5606287471e+000
 1.5459332968e+000	 5.9435200387e-001	 1.4893904184e+000
 1.5399618736e+000	 6.0965686274e-001	 1.4200592169e+000
 1.5983257680e+000	 4.5745053221e-001	 2.1029608347e+000
 1.5938053158e+000	 4.7295968702e-001	 2.0394205989e+000
 1.5891226467e+000	 4.8846234647e-001	 1.9731176970e+000
 1.5842772771e+000	 5.0395610853e-001	 1.9045790870e+000
 1.5792687682e+000	 5.1943855049e-001	 1.8343641057e+000
 1.5740967268e+000	 5.3490722993e-001	 1.7630637567e+000
 1.5687608060e+000	 5.5035968572e-001	 1.6912999111e+000
 1.5632607058e+000	 5.6579343910e-001	 1.6197244223e+000
 1.5575961742e+000	 5.8120599468e-001	 1.5490181535e+000
 1.5517670073e+000	 5.9659484162e-001	 1.4798899196e+000
 1.5457730505e+000	 6.1195745467e-001	 1.4130753444e+000
 1.6043345115e+000	 4.5917027104e-001	 2.0877608427e+000
 1.5997970651e+000	 4.7473773095e-001	 2.0234036147e+000
 1.5950967920e+000	 4.9029867108e-001	 1.9565940331e+000
 1.5902332067e+000	 5.0585068036e-001	 1.8878702768e+000
 1.5852058689e+000	 5.2139132699e-001	 1.8178030211e+000
 1.5800143837e+000	 5.3691815936e-001	 1.7469947082e+000
 1.5746584030e+000	 5.5242870709e-001	 1.6760787303e+000
 1.5691376258e+000	 5.6792048210e-001	 1.6057185249e+000
 1.5634517989e+000	 5.8339097962e-001	 1.5366065832e+000
 1.5576007179e+000	 5.9883767937e-001	 1.4694633713e+000
 1.5515842274e+000	 6.1425804661e-001	 1.4050361659e+000
 1.6103432550e+000	 4.6089000988e-001	 2.0725704839e+000
 1.6057888144e+000	 4.7651577489e-001	 2.0073088059e+000
 1.6010709372e+000	 4.9213499568e-001	 1.9398999690e+000
 1.5961891363e+000	 5.0774525220e-001	 1.8708934715e+000
 1.5911429695e+000	 5.2334410350e-001	 1.8008714319e+000
 1.5859320406e+000	 5.3892908879e-001	 1.7304478422e+000
 1.5805560000e+000	 5.5449772847e-001	 1.6602677331e+000
 1.5750145457e+000	 5.7004752510e-001	 1.5910062498e+000
 1.5693074236e+000	 5.8557596456e-001	 1.5233676410e+000
 1.5634344284e+000	 6.0108051712e-001	 1.4580841590e+000
 1.5573954043e+000	 6.1655863854e-001	 1.3959148750e+000
 1.6163519985e+000	 4.6260974872e-001	 2.0573661814e+000
 1.6117805637e+000	 4.7829381882e-001	 1.9911121807e+000
 1.6070450825e+000	 4.9397132029e-001	 1.9230111192e+000
 1.6021450659e+000	 5.0963982403e-001	 1.8536239134e+000
 1.5970800701e+000	 5.2529688000e-001	 1.7835442308e+000
 1.5918496974e+000	 5.4094001822e-001	 1.7133977252e+000
 1.5864535970e+000	 5.5656674984e-001	 1.6438411835e+000
 1.5808914657e+000	 5.7217456810e-001	 1.5755615829e+000
 1.5751630483e+000	 5.8776094950e-001	 1.5092750597e+000
 1.5692681390e+000	 6.0332335486e-001	 1.4457257889e+000
 1.5632065812e+000	 6.1885923047e-001	 1.3856847777e+000
 1.6223607419e+000	 4.6432948755e-001	 2.0421245279e+000
 1.6177723130e+000	 4.8007186275e-001	 1.9747899134e+000
 1.6130192278e+000	 4.9580764489e-001	 1.9059032597e+000
 1.6081009956e+000	 5.1153439586e-001	 1.8360370020e+000
 1.6030171708e+000	 5.2724965650e-001	 1.7657964626e+000
 1.5977673543e+000	 5.4295094765e-001	 1.6958190696e+000
 1.5923511940e+000	 5.5863577121e-001	 1.6267734851e+000
 1.5867683856e+000	 5.7430161110e-001	 1.5593586432e+000
 1.5810186730e+000	 5.8994593444e-001	 1.4943026985e+000
 1.5751018495e+000	 6.0556619261e-001	 1.4323618856e+000
 1.5690177580e+000	 6.2115982240e-001	 1.3743192904e+000
 1.5109059892e+000	 5.9815390307e-001	 1.4400953419e+000
 1.5048860589e+000	 6.1314186767e-001	 1.3696408785e+000
 1.4987048992e+000	 6.2809921594e-001	 1.2971385341e+000
 1.4923625063e+000	 6.4302344429e-001	 1.1893174195e+000
 1.4858589260e+000	 6.5791203968e-001	 1.0849819624e+000
 1.4791942551e+000	 6.7276248090e-001	 9.8442174687e-001
 1.4723686411e+000	 6.8757223974e-001	 8.8792656337e-001
 1.4653822829e+000	 7.0233878227e-001	 7.9578662688e-001
 1.4582354312e+000	 7.1705957012e-001	 7.0829279145e-001
 1.4509283890e+000	 7.3173206174e-001	 6.2573675858e-001
 1.4434615111e+000	 7.4635371373e-001	 5.4841127827e-001
 1.5167171661e+000	 6.0045449500e-001	 1.4379818232e+000
 1.5106740822e+000	 6.1550010562e-001	 1.3710262750e+000
 1.5044691489e+000	 6.3051498216e-001	 1.2928109247e+000
 1.4981023621e+000	 6.4549661138e-001	 1.1854348649e+000
 1.4915737681e+000	 6.6044247060e-001	 1.0816255928e+000
 1.4848834638e+000	 6.7535002890e-001	 9.8166940477e-001
 1.4780315974e+000	 6.9021674835e-001	 8.8585283617e-001
 1.4710183686e+000	 7.0504008528e-001	 7.9446289051e-001
 1.4638440291e+000	 7.1981749154e-001	 7.0778726428e-001
 1.4565088828e+000	 7.3454641583e-001	 6.2611456576e-001
 1.4490132861e+000	 7.4922430494e-001	 5.4973452648e-001
 1.5225283430e+000	 6.0275508694e-001	 1.4349487905e+000
 1.5164621055e+000	 6.1785834358e-001	 1.3713948100e+000
 1.5102333985e+000	 6.3293074837e-001	 1.2866281045e+000
 1.5038422179e+000	 6.4796977847e-001	 1.1796918795e+000
 1.4972886101e+000	 6.6297290152e-001	 1.0764029122e+000
 1.4905726725e+000	 6.7793757690e-001	 9.7704416148e-001
 1.4836945537e+000	 6.9286125697e-001	 8.8189885925e-001
 1.4766544543e+000	 7.0774138829e-001	 7.9125075032e-001
 1.4694526269e+000	 7.2257541297e-001	 7.0538432788e-001
 1.4620893766e+000	 7.3736076991e-001	 6.2458506282e-001
 1.4545650612e+000	 7.5209489615e-001	 5.4913962568e-001
 1.5283395199e+000	 6.0505567887e-001	 1.4309688432e+000
 1.5222501288e+000	 6.2021658153e-001	 1.3707185636e+000
 1.5159976481e+000	 6.3534651459e-001	 1.2786089228e+000
 1.5095820737e+000	 6.5044294556e-001	 1.1721081101e+000
 1.5030034521e+000	 6.6550333244e-001	 1.0693343543e+000
 1.4962618811e+000	 6.8052512491e-001	 9.7056722632e-001
 1.4893575100e+000	 6.9550576558e-001	 8.7608660549e-001
 1.4822905400e+000	 7.1044269130e-001	 7.8617293020e-001
 1.4750612247e+000	 7.2533333439e-001	 7.0110744400e-001
 1.4676698704e+000	 7.4017512399e-001	 6.2117243565e-001
 1.4601168362e+000	 7.5496548736e-001	 5.4665147160e-001
 1.5341506968e+000	 6.0735627081e-001	 1.4260147040e+000
 1.5280381521e+000	 6.2257481948e-001	 1.3689697356e+000
 1.5217618977e+000	 6.3776228080e-001	 1.2687723447e+000
 1.5153219295e+000	 6.5291611265e-001	 1.1627033160e+000
 1.5087182941e+000	 6.6803376336e-001	 1.0604404616e+000
 1.5019510898e+000	 6.8311267291e-001	 9.6225991364e-001
 1.4950204663e+000	 6.9815027419e-001	 8.6843814914e-001
 1.4879266257e+000	 7.1314399430e-001	 7.7925225173e-001
 1.4806698225e+000	 7.2809125581e-001	 6.9498016842e-001
 1.4732503642e+000	 7.4298947808e-001	 6.1590096050e-001
 1.4656686113e+000	 7.5783607856e-001	 5.4229504668e-001
 1.5399618736e+000	 6.0965686274e-001	 1.4200592169e+000
 1.5338261754e+000	 6.2493305743e-001	 1.3661206433e+000
 1.5275261473e+000	 6.4017804701e-001	 1.2571374494e+000
 1.5210617853e+000	 6.5538927975e-001	 1.1514973669e+000
 1.5144331362e+000	 6.7056419428e-001	 1.0497418834e+000
 1.5076402985e+000	 6.8570022091e-001	 9.5214364090e-001
 1.5006834226e+000	 7.0079478281e-001	 8.5897566394e-001
 1.4935627114e+000	 7.1584529731e-001	 7.7051163236e-001
 1.4862784203e+000	 7.3084917724e-001	 6.8702614916e-001
 1.4788308580e+000	 7.4580383216e-001	 6.0879500225e-001
 1.4712203863e+000	 7.6070666977e-001	 5.3609541837e-001
 1.5457730505e+000	 6.1195745467e-001	 1.4130753444e+000
 1.5396141987e+000	 6.2729129538e-001	 1.3526299723e+000
 1.5332903969e+000	 6.4259381323e-001	 1.2437234280e+000
 1.5268016410e+000	 6.5786244684e-001	 1.1385102404e+000
 1.5201479782e+000	 6.7309462520e-001	 1.0372593735e+000
 1.5133295072e+000	 6.8828776891e-001	 9.4023992668e-001
 1.5063463789e+000	 7.0343929142e-001	 8.4772142119e-001
 1.4991987971e+000	 7.1854660032e-001	 7.5997408358e-001
 1.4918870181e+000	 7.3360709866e-001	 6.7726912477e-001
 1.4844113518e+000	 7.4861818624e-001	 5.9987901277e-001
 1.4767721614e+000	 7.6357726098e-001	 5.2807773762e-001
 1.5515842274e+000	 6.1425804661e-001	 1.4050361659e+000
 1.5454022220e+000	 6.2964953333e-001	 1.3371111297e+000
 1.5390546465e+000	 6.4500957944e-001	 1.2285495810e+000
 1.5325414968e+000	 6.6033561393e-001	 1.1237620206e+000
 1.5258628202e+000	 6.7562505612e-001	 1.0230137885e+000
 1.5190187158e+000	 6.9087531691e-001	 9.2657038881e-001
 1.5120093352e+000	 7.0608380003e-001	 8.3469778800e-001
 1.5048348828e+000	 7.2124790333e-001	 7.4766270920e-001
 1.4974956159e+000	 7.3636502008e-001	 6.6573292259e-001
 1.4899918456e+000	 7.5143254033e-001	 5.8917752928e-001
 1.4823239364e+000	 7.6644785218e-001	 5.1826723724e-001
 1.5573954043e+000	 6.1655863854e-001	 1.3959148750e+000
 1.5511902453e+000	 6.3200777128e-001	 1.3198516871e+000
 1.5448188961e+000	 6.4742534565e-001	 1.2116353167e+000
 1.5382813526e+000	 6.6280878102e-001	 1.1072728958e+000
 1.5315776622e+000	 6.7815548704e-001	 1.0070260858e+000
 1.5247079245e+000	 6.9346286491e-001	 9.1115674251e-001
 1.5176722916e+000	 7.0872830864e-001	 8.1992722542e-001
 1.5104709685e+000	 7.2394920633e-001	 7.3360070356e-001
 1.5031042137e+000	 7.3912294150e-001	 6.5244145715e-001
 1.4955723394e+000	 7.5424689441e-001	 5.7671517277e-001
 1.4878757114e+000	 7.6931844339e-001	 5.0668923042e-001
 1.5632065812e+000	 6.1885923047e-001	 1.3856847777e+000
 1.5569782686e+000	 6.3436600923e-001	 1.3008703716e+000
 1.5505831457e+000	 6.4984111186e-001	 1.1930001489e+000
 1.5440212084e+000	 6.6528194811e-001	 1.0890631563e+000
 1.5372925042e+000	 6.8068591796e-001	 9.8931732169e-001
 1.5303971332e+000	 6.9605041292e-001	 8.9402079858e-001
 1.5233352479e+000	 7.1137281725e-001	 8.0343228676e-001
 1.5161070542e+000	 7.2665050934e-001	 7.1781134991e-001
 1.5087128115e+000	 7.4188086292e-001	 6.3741872851e-001
 1.5011528332e+000	 7.5706124849e-001	 5.6251664641e-001
 1.4934274865e+000	 7.7218903459e-001	 4.9336910920e-001
 1.5690177580e+000	 6.2115982240e-001	 1.3743192904e+000
 1.5627662919e+000	 6.3672424718e-001	 1.2801860171e+000
 1.5563473953e+000	 6.5225687808e-001	 1.1726636951e+000
 1.5497610642e+000	 6.6775511520e-001	 1.0691531931e+000
 1.5430073463e+000	 6.8321634888e-001	 9.6990864971e-001
 1.5360863418e+000	 6.9863796092e-001	 8.7518446164e-001
 1.5289982042e+000	 7.1401732587e-001	 7.8523561585e-001
 1.5217431399e+000	 7.2935181234e-001	 7.0031801875e-001
 1.5143214094e+000	 7.4463878434e-001	 6.2068882069e-001
 1.5067333270e+000	 7.5987560257e-001	 5.4660673406e-001
 1.4989792615e+000	 7.7505962579e-001	 4.7833234303e-001
 1.4434615111e+000	 7.4635371373e-001	 5.4841127827e-001
 1.4358352054e+000	 7.6092198215e-001	 4.6370171615e-001
 1.4280499324e+000	 7.7543432383e-001	 3.7715354172e-001
 1.4201062056e+000	 7.8988819775e-001	 2.8903510511e-001
 1.4120045915e+000	 8.0428106638e-001	 1.9962352457e-001
 1.4037457098e+000	 8.1861039702e-001	 1.0920492184e-001
 1.3953302337e+000	 8.3287366322e-001	 1.8074633198e-002
 1.3867588893e+000	 8.4706834611e-001	-7.3462605533e-002
 1.3780324560e+000	 8.6119193579e-001	-1.6509250149e-001
 1.3691517663e+000	 8.7524193276e-001	-2.5649107625e-001
 1.3601177057e+000	 8.8921584925e-001	-3.4732456773e-001
 1.4490132861e+000	 7.4922430494e-001	 5.4973452648e-001
 1.4413576485e+000	 7.6384860516e-001	 4.6578627299e-001
 1.4335424322e+000	 7.7841676354e-001	 3.7962311884e-001
 1.4255681525e+000	 7.9292622928e-001	 2.9151419799e-001
 1.4174353783e+000	 8.0737445510e-001	 2.0173798547e-001
 1.4091447318e+000	 8.2175889855e-001	 1.1058254266e-001
 1.4006968885e+000	 8.3607702347e-001	 1.8345737367e-002
 1.3920925773e+000	 8.5032630129e-001	-7.4664563098e-002
 1.3833325808e+000	 8.6450421247e-001	-1.6813032721e-001
 1.3744177346e+000	 8.7860824789e-001	-2.6172322454e-001
 1.3653489277e+000	 8.9263591021e-001	-3.5510452252e-001
 1.4545650612e+000	 7.5209489615e-001	 5.4913962568e-001
 1.4468800916e+000	 7.6677522817e-001	 4.6600340618e-001
 1.4390349319e+000	 7.8139920325e-001	 3.8027838801e-001
 1.4310300995e+000	 7.9596426082e-001	 2.9223443667e-001
 1.4228661652e+000	 8.1046784382e-001	 2.0215133152e-001
 1.4145437538e+000	 8.2490740009e-001	 1.1031902109e-001
 1.4060635432e+000	 8.3928038372e-001	 1.7037852232e-002
 1.3974262654e+000	 8.5358425647e-001	-7.7381228512e-002
 1.3886327056e+000	 8.6781648915e-001	-1.7261650301e-001
 1.3796837030e+000	 8.8197456302e-001	-2.6833534057e-001
 1.3705801496e+000	 8.9605597118e-001	-3.6419408939e-001
 1.4601168362e+000	 7.5496548736e-001	 5.4665147160e-001
 1.4524025347e+000	 7.6970185118e-001	 4.6437799302e-001
 1.4445274316e+000	 7.8438164295e-001	 3.7914415388e-001
 1.4364920464e+000	 7.9900229235e-001	 2.9122049850e-001
 1.4282969521e+000	 8.1356123254e-001	 2.0088805781e-001
 1.4199427757e+000	 8.2805590162e-001	 1.0843861473e-001
 1.4114301979e+000	 8.4248374396e-001	 1.4174942485e-002
 1.4027599534e+000	 8.5684221165e-001	-8.1588985666e-002
 1.3939328305e+000	 8.7112876583e-001	-1.7852781720e-001
 1.3849496713e+000	 8.8534087815e-001	-2.7630467296e-001
 1.3758113716e+000	 8.9947603214e-001	-3.7457103327e-001
 1.4656686113e+000	 7.5783607856e-001	 5.4229504668e-001
 1.4579249778e+000	 7.7262847419e-001	 4.6093500470e-001
 1.4500199314e+000	 7.8736408266e-001	 3.7624532266e-001
 1.4419539933e+000	 8.0204032388e-001	 2.8849717073e-001
 1.4337277390e+000	 8.1665462126e-001	 1.9797277832e-001
 1.4253417977e+000	 8.3120440314e-001	 1.0496570964e-001
 1.4167968527e+000	 8.4568710421e-001	 9.7811113899e-003
 1.4080936414e+000	 8.6010016683e-001	-8.7264069154e-002
 1.3992329553e+000	 8.7444104251e-001	-1.8584089744e-001
 1.3902156396e+000	 8.8870719328e-001	-2.8560829779e-001
 1.3810425935e+000	 9.0289609310e-001	-3.8621293412e-001
 1.4712203863e+000	 7.6070666977e-001	 5.3609541837e-001
 1.4634474209e+000	 7.7555509719e-001	 4.5569950443e-001
 1.4555124311e+000	 7.9034652237e-001	 3.7160690027e-001
 1.4474159403e+000	 8.0507835541e-001	 2.8408934853e-001
 1.4391585259e+000	 8.1974800997e-001	 1.9343022367e-001
 1.4307408196e+000	 8.3435290467e-001	 9.9924817882e-002
 1.4221635074e+000	 8.4889046445e-001	 3.8805981657e-003
 1.4134273295e+000	 8.6335812201e-001	-9.4382567087e-002
 1.4045330801e+000	 8.7775331919e-001	-1.9453221382e-001
 1.3954816079e+000	 8.9207350841e-001	-2.9622312193e-001
 1.3862738155e+000	 9.0631615406e-001	-3.9909719039e-001
 1.4767721614e+000	 7.6357726098e-001	 5.2807773762e-001
 1.4689698640e+000	 7.7848172020e-001	 4.4869664578e-001
 1.4610049308e+000	 7.9332896208e-001	 3.6525399042e-001
 1.4528778872e+000	 8.0811638694e-001	 2.7802203287e-001
 1.4445893128e+000	 8.2284139869e-001	 1.8728523894e-001
 1.4361398416e+000	 8.3750140620e-001	 9.3340575167e-002
 1.4275301622e+000	 8.5209382470e-001	-3.5022245664e-003
 1.4187610175e+000	 8.6661607719e-001	-1.0292042385e-001
 1.4098332050e+000	 8.8106559586e-001	-2.0457808182e-001
 1.4007475763e+000	 8.9543982353e-001	-3.0812588614e-001
 1.3915050374e+000	 9.0973621502e-001	-4.1320102243e-001
 1.4823239364e+000	 7.6644785218e-001	 5.1826723724e-001
 1.4744923071e+000	 7.8140834321e-001	 4.3995167098e-001
 1.4664974306e+000	 7.9631140178e-001	 3.5721179279e-001
 1.4583398342e+000	 8.1115441847e-001	 2.7032032861e-001
 1.4500200997e+000	 8.2593478741e-001	 1.7956278153e-001
 1.4415388636e+000	 8.4064990773e-001	 8.5237738530e-002
 1.4328968169e+000	 8.5529718494e-001	-1.2342853282e-002
 1.4240947055e+000	 8.6987403236e-001	-1.1285344279e-001
 1.4151333298e+000	 8.8437787254e-001	-2.1595466519e-001
 1.4060135446e+000	 8.9880613866e-001	-3.2129316821e-001
 1.3967362593e+000	 9.1315627598e-001	-4.2850147585e-001
 1.4878757114e+000	 7.6931844339e-001	 5.0668923042e-001
 1.4800147502e+000	 7.8433496622e-001	 4.2948990924e-001
 1.4719899303e+000	 7.9929384149e-001	 3.4750560123e-001
 1.4638017811e+000	 8.1419245000e-001	 2.6100944251e-001
 1.4554508866e+000	 8.2902817612e-001	 1.7028791905e-001
 1.4469378855e+000	 8.4379840925e-001	 7.5641184068e-002
 1.4382634717e+000	 8.5850054518e-001	-2.2616655996e-002
 1.4294283936e+000	 8.7313198754e-001	-1.2415728884e-001
 1.4204334546e+000	 8.8769014921e-001	-2.2863797877e-001
 1.4112795129e+000	 9.0217245378e-001	-3.3570138603e-001
 1.4019674813e+000	 9.1657633693e-001	-4.4497542474e-001
 1.4934274865e+000	 7.7218903459e-001	 4.9336910920e-001
 1.4855371933e+000	 7.8726158922e-001	 4.1733677514e-001
 1.4774824301e+000	 8.0227628119e-001	 3.3616080205e-001
 1.4692637280e+000	 8.1723048153e-001	 2.5011468136e-001
 1.4608816734e+000	 8.3212156484e-001	 1.5948582726e-001
 1.4523369075e+000	 8.4694691078e-001	 6.4575904731e-002
 1.4436301264e+000	 8.6170390542e-001	-3.4298874650e-002
 1.4347620816e+000	 8.7638994271e-001	-1.3680749112e-001
 1.4257335794e+000	 8.9100242589e-001	-2.4260389129e-001
 1.4165454813e+000	 9.0553876891e-001	-3.5132680051e-001
 1.4071987032e+000	 9.1999639789e-001	-4.6259957489e-001
 1.4989792615e+000	 7.7505962579e-001	 4.7833234303e-001
 1.4910596364e+000	 7.9018821223e-001	 4.0351776706e-001
 1.4829749298e+000	 8.0525872090e-001	 3.2320287224e-001
 1.4747256750e+000	 8.2026851305e-001	 2.3766145015e-001
 1.4663124603e+000	 8.3521495355e-001	 1.4718178813e-001
 1.4577359294e+000	 8.5009541230e-001	 5.2067008158e-002
 1.4489967811e+000	 8.6490726566e-001	-4.7364627447e-002
 1.4400957696e+000	 8.7964789789e-001	-1.5077944542e-001
 1.4310337043e+000	 8.9431470256e-001	-2.5782812805e-001
 1.4218114496e+000	 9.0890508403e-001	-3.6814551854e-001
 1.4124299252e+000	 9.2341645884e-001	-4.8135046692e-001
 1.3601177057e+000	 8.8921584925e-001	-3.4732456773e-001
 1.3509312126e+000	 9.0311121064e-001	-4.6959961930e-001
 1.3415932778e+000	 9.1692555685e-001	-5.8499987299e-001
 1.3321049447e+000	 9.3065644370e-001	-6.9287460763e-001
 1.3224673086e+000	 9.4430144431e-001	-7.9256653197e-001
 1.3126815164e+000	 9.5785815047e-001	-8.8341217585e-001
 1.3027487666e+000	 9.7132417401e-001	-9.6474231594e-001
 1.2926703085e+000	 9.8469714815e-001	-1.0358824360e+000
 1.2824474416e+000	 9.9797472884e-001	-1.0961532217e+000
 1.2720815158e+000	 1.0111545961e+000	-1.1448710907e+000
 1.2615739298e+000	 1.0242344554e+000	-1.1813487561e+000
 1.3653489277e+000	 8.9263591021e-001	-3.5510452252e-001
 1.3561271019e+000	 9.0658471531e-001	-4.7661168251e-001
 1.3467532520e+000	 9.2045219361e-001	-5.9045188419e-001
 1.3372284253e+000	 9.3423589157e-001	-6.9599818407e-001
 1.3275537213e+000	 9.4793337295e-001	-7.9261769646e-001
 1.3177302915e+000	 9.6154222029e-001	-8.7967195928e-001
 1.3077593388e+000	 9.7506003622e-001	-9.5651733372e-001
 1.2976421173e+000	 9.8848444487e-001	-1.0225054379e+000
 1.2873799318e+000	 1.0018130932e+000	-1.0769836148e+000
 1.2769741370e+000	 1.0150436522e+000	-1.1192954339e+000
 1.2664261372e+000	 1.0281738187e+000	-1.1487812272e+000
 1.3705801496e+000	 8.9605597118e-001	-3.6419408939e-001
 1.3613229912e+000	 9.1005821997e-001	-4.8526422838e-001
 1.3519132261e+000	 9.2397883037e-001	-5.9788249081e-001
 1.3423519058e+000	 9.3781533943e-001	-7.0144559109e-001
 1.3326401340e+000	 9.5156530158e-001	-7.9534492202e-001
 1.3227790665e+000	 9.6522629010e-001	-8.7896689528e-001
 1.3127699110e+000	 9.7879589843e-001	-9.5169331521e-001
 1.3026139262e+000	 9.9227174160e-001	-1.0129017859e+000
 1.2923124220e+000	 1.0056514575e+000	-1.0619661518e+000
 1.2818667582e+000	 1.0189327084e+000	-1.0982569721e+000
 1.2712783446e+000	 1.0321131820e+000	-1.1211420282e+000
 1.3758113716e+000	 8.9947603214e-001	-3.7457103327e-001
 1.3665188804e+000	 9.1353172462e-001	-4.9553099553e-001
 1.3570732003e+000	 9.2750546713e-001	-6.0726135725e-001
 1.3474753864e+000	 9.4139478729e-001	-7.0918237277e-001
 1.3377265468e+000	 9.5519723022e-001	-8.0070958820e-001
 1.3278278416e+000	 9.6891035991e-001	-8.8125415667e-001
 1.3177804832e+000	 9.8253176064e-001	-9.5022318618e-001
 1.3075857351e+000	 9.9605903832e-001	-1.0070201202e+000
 1.2972449121e+000	 1.0094898219e+000	-1.0510451514e+000
 1.2867593794e+000	 1.0228217645e+000	-1.0816956680e+000
 1.2761305521e+000	 1.0360525453e+000	-1.0983667339e+000
 1.3810425935e+000	 9.0289609310e-001	-3.8621293412e-001
 1.3717147697e+000	 9.1700522928e-001	-5.0738559426e-001
 1.3622331744e+000	 9.3103210389e-001	-6.1855807717e-001
 1.3525988670e+000	 9.4497423515e-001	-7.1917406104e-001
 1.3428129595e+000	 9.5882915885e-001	-8.0867312198e-001
 1.3328766167e+000	 9.7259442972e-001	-8.8649102415e-001
 1.3227910553e+000	 9.8626762285e-001	-9.5206004168e-001
 1.3125575440e+000	 9.9984633505e-001	-1.0048093129e+000
 1.3021774023e+000	 1.0133281862e+000	-1.0441652270e+000
 1.2916520006e+000	 1.0267108207e+000	-1.0695518432e+000
 1.2809827595e+000	 1.0399919086e+000	-1.0803913422e+000
 1.3862738155e+000	 9.0631615406e-001	-3.9909719039e-001
 1.3769106590e+000	 9.2047873394e-001	-5.2080150887e-001
 1.3673931486e+000	 9.3455874065e-001	-6.3174217480e-001
 1.3577223475e+000	 9.4855368301e-001	-7.3138617588e-001
 1.3478993722e+000	 9.6246108748e-001	-8.1919699684e-001
 1.3379253917e+000	 9.7627849953e-001	-8.9463488426e-001
 1.3278016275e+000	 9.9000348506e-001	-9.5715714282e-001
 1.3175293529e+000	 1.0036336318e+000	-1.0062184631e+000
 1.3071098924e+000	 1.0171665505e+000	-1.0412712811e+000
 1.2965446218e+000	 1.0305998768e+000	-1.0617661706e+000
 1.2858349669e+000	 1.0439312718e+000	-1.0671522663e+000
 1.3915050374e+000	 9.0973621502e-001	-4.1320102243e-001
 1.3821065483e+000	 9.2395223860e-001	-5.3575210012e-001
 1.3725531227e+000	 9.3808537741e-001	-6.4678310624e-001
 1.3628458281e+000	 9.5213313087e-001	-7.4578422560e-001
 1.3529857849e+000	 9.6609301611e-001	-8.3224273188e-001
 1.3429741668e+000	 9.7996256934e-001	-9.0564322741e-001
 1.3328121997e+000	 9.9373934727e-001	-9.6546791365e-001
 1.3225011617e+000	 1.0074209285e+000	-1.0111968926e+000
 1.3120423826e+000	 1.0210049149e+000	-1.0423084998e+000
 1.3014372430e+000	 1.0344889329e+000	-1.0582796686e+000
 1.2906871743e+000	 1.0478706351e+000	-1.0585863266e+000
 1.3967362593e+000	 9.1315627598e-001	-4.2850147585e-001
 1.3873024376e+000	 9.2742574325e-001	-5.5221060746e-001
 1.3777130969e+000	 9.4161201416e-001	-6.6365026080e-001
 1.3679693086e+000	 9.5571257873e-001	-7.6233370702e-001
 1.3580721977e+000	 9.6972494474e-001	-8.4777189098e-001
 1.3480229419e+000	 9.8364663915e-001	-9.1947364591e-001
 1.3378227719e+000	 9.9747520947e-001	-9.7694593812e-001
 1.3274729706e+000	 1.0112082252e+000	-1.0196941422e+000
 1.3169748728e+000	 1.0248432792e+000	-1.0472223473e+000
 1.3063298643e+000	 1.0383779891e+000	-1.0590336941e+000
 1.2955393817e+000	 1.0518099984e+000	-1.0546307437e+000
 1.4019674813e+000	 9.1657633693e-001	-4.4497542474e-001
 1.3924983268e+000	 9.3089924790e-001	-5.7015015134e-001
 1.3828730710e+000	 9.4513865092e-001	-6.8231296214e-001
 1.3730927892e+000	 9.5929202659e-001	-7.8100010568e-001
 1.3631586104e+000	 9.7335687337e-001	-8.6574608198e-001
 1.3530717169e+000	 9.8733070895e-001	-9.3608383208e-001
 1.3428333441e+000	 1.0012110717e+000	-9.9154495708e-001
 1.3324447795e+000	 1.0149955219e+000	-1.0316599672e+000
 1.3219073629e+000	 1.0286816436e+000	-1.0559585613e+000
 1.3112224855e+000	 1.0422670452e+000	-1.0639699366e+000
 1.3003915892e+000	 1.0557493617e+000	-1.0552231302e+000
 1.4071987032e+000	 9.1999639789e-001	-4.6259957489e-001
 1.3976942161e+000	 9.3437275256e-001	-5.8954373544e-001
 1.3880330452e+000	 9.4866528767e-001	-7.0274046958e-001
 1.3782162698e+000	 9.6287147445e-001	-8.0174889608e-001
 1.3682450231e+000	 9.7698880200e-001	-8.8612695582e-001
 1.3581204920e+000	 9.9101477876e-001	-9.5543157637e-001
 1.3478439163e+000	 1.0049469339e+000	-1.0092188654e+000
 1.3374165884e+000	 1.0187828187e+000	-1.0470443335e+000
 1.3268398531e+000	 1.0325200079e+000	-1.0684631472e+000
 1.3161151067e+000	 1.0461561014e+000	-1.0730304116e+000
 1.3052437966e+000	 1.0596887250e+000	-1.0603014841e+000
 1.4124299252e+000	 9.2341645884e-001	-4.8135046692e-001
 1.4028901054e+000	 9.3784625721e-001	-6.1036424878e-001
 1.3931930193e+000	 9.5219192442e-001	-7.2490197927e-001
 1.3833397503e+000	 9.6645092230e-001	-8.2454554186e-001
 1.3733314358e+000	 9.8062073063e-001	-9.0887620578e-001
 1.3631692671e+000	 9.9469884857e-001	-9.7747476560e-001
 1.3528544884e+000	 1.0086827961e+000	-1.0299217091e+000
 1.3423883973e+000	 1.0225701154e+000	-1.0657974138e+000
 1.3317723433e+000	 1.0363583722e+000	-1.0846823737e+000
 1.3210077279e+000	 1.0500451575e+000	-1.0861574546e+000
 1.3100960040e+000	 1.0636280883e+000	-1.0698041809e+000
 1.2615739298e+000	 1.0242344554e+000	-1.1813487561e+000
 1.2509261315e+000	 1.0372120388e+000	-1.4089058566e+000
 1.2401396168e+000	 1.0500851065e+000	-1.4329623518e+000
 1.2292159289e+000	 1.0628514479e+000	-1.4508758609e+000
 1.2181566579e+000	 1.0755088827e+000	-1.4821238750e+000
 1.2069634399e+000	 1.0880552628e+000	-1.5260775035e+000
 1.1956379560e+000	 1.1004884725e+000	-1.5821042148e+000
 1.1841819318e+000	 1.1128064308e+000	-1.6495688506e+000
 1.1725971363e+000	 1.1250070915e+000	-1.7278346290e+000
 1.1608853811e+000	 1.1370884451e+000	-1.8162641360e+000
 1.1490485194e+000	 1.1490485194e+000	-1.9142203018e+000
 1.2664261372e+000	 1.0281738187e+000	-1.1487812272e+000
 1.2557373859e+000	 1.0412013159e+000	-1.3695792131e+000
 1.2449093845e+000	 1.0541238954e+000	-1.4882119627e+000
 1.2339436824e+000	 1.0669393380e+000	-1.4969962278e+000
 1.2228418758e+000	 1.0796454553e+000	-1.5193554402e+000
 1.2116056069e+000	 1.0922400907e+000	-1.5546438517e+000
 1.2002365635e+000	 1.1047211205e+000	-1.6022119324e+000
 1.1887364777e+000	 1.1170864555e+000	-1.6614074064e+000
 1.1771071253e+000	 1.1293340418e+000	-1.7315762787e+000
 1.1653503249e+000	 1.1414618621e+000	-1.8120638489e+000
 1.1534679368e+000	 1.1534679368e+000	-1.9022157104e+000
 1.2712783446e+000	 1.0321131820e+000	-1.1211420282e+000
 1.2605486402e+000	 1.0451905930e+000	-1.3350625058e+000
 1.2496791523e+000	 1.0581626843e+000	-1.5474243298e+000
 1.2386714360e+000	 1.0710272282e+000	-1.5469668319e+000
 1.2275270937e+000	 1.0837820280e+000	-1.5603206781e+000
 1.2162477740e+000	 1.0964249186e+000	-1.5868232738e+000
 1.2048351710e+000	 1.1089537685e+000	-1.6258081051e+000
 1.1932910236e+000	 1.1213664802e+000	-1.6766057975e+000
 1.1816171143e+000	 1.1336609922e+000	-1.7385451654e+000
 1.1698152687e+000	 1.1458352792e+000	-1.8109542487e+000
 1.1578873542e+000	 1.1578873542e+000	-1.8931613342e+000
 1.2761305521e+000	 1.0360525453e+000	-1.0983667339e+000
 1.2653598946e+000	 1.0491798700e+000	-1.3052927705e+000
 1.2544489200e+000	 1.0622014731e+000	-1.5176786136e+000
 1.2433991896e+000	 1.0751151184e+000	-1.6007865716e+000
 1.2322123116e+000	 1.0879186006e+000	-1.6050203327e+000
 1.2208899411e+000	 1.1006097465e+000	-1.6226183739e+000
 1.2094337785e+000	 1.1131864164e+000	-1.6528972110e+000
 1.1978455694e+000	 1.1256465050e+000	-1.6951703885e+000
 1.1861271033e+000	 1.1379879425e+000	-1.7487495518e+000
 1.1742802124e+000	 1.1502086963e+000	-1.8129455064e+000
 1.1623067716e+000	 1.1623067716e+000	-1.8870692623e+000
 1.2809827595e+000	 1.0399919086e+000	-1.0803913422e+000
 1.2701711489e+000	 1.0531691471e+000	-1.2802074427e+000
 1.2592186878e+000	 1.0662402620e+000	-1.4857780883e+000
 1.2481269431e+000	 1.0792030086e+000	-1.6584546962e+000
 1.2368975295e+000	 1.0920551732e+000	-1.6534554742e+000
 1.2255321081e+000	 1.1047945745e+000	-1.6620320572e+000
 1.2140323861e+000	 1.1174190644e+000	-1.6834840035e+000
 1.2024001153e+000	 1.1299265297e+000	-1.7171077933e+000
 1.1906370922e+000	 1.1423148929e+000	-1.7621979236e+000
 1.1787451562e+000	 1.1545821134e+000	-1.8180479897e+000
 1.1667261889e+000	 1.1667261889e+000	-1.8839517531e+000
 1.2858349669e+000	 1.0439312718e+000	-1.0671522663e+000
 1.2749824033e+000	 1.0571584242e+000	-1.2597443499e+000
 1.2639884555e+000	 1.0702790509e+000	-1.4583849189e+000
 1.2528546967e+000	 1.0832908988e+000	-1.6623322604e+000
 1.2415827474e+000	 1.0961917458e+000	-1.7056274928e+000
 1.2301742752e+000	 1.1089794024e+000	-1.7050675242e+000
 1.2186309936e+000	 1.1216517124e+000	-1.7175735063e+000
 1.2069546612e+000	 1.1342065544e+000	-1.7424248706e+000
 1.1951470812e+000	 1.1466418432e+000	-1.7788989850e+000
 1.1832101000e+000	 1.1589555305e+000	-1.8262722584e+000
 1.1711456063e+000	 1.1711456063e+000	-1.8838212312e+000
 1.2906871743e+000	 1.0478706351e+000	-1.0585863266e+000
 1.2797936576e+000	 1.0611477013e+000	-1.2438417042e+000
 1.2687582233e+000	 1.0743178397e+000	-1.4354387558e+000
 1.2575824503e+000	 1.0873787889e+000	-1.6326219273e+000
 1.2462679654e+000	 1.1003283185e+000	-1.7615380929e+000
 1.2348164423e+000	 1.1131642303e+000	-1.7517282651e+000
 1.2232296011e+000	 1.1258843604e+000	-1.7551710081e+000
 1.2115092071e+000	 1.1384865792e+000	-1.7711287190e+000
 1.1996570702e+000	 1.1509687936e+000	-1.7988616553e+000
 1.1876750437e+000	 1.1633289476e+000	-1.8376290618e+000
 1.1755650237e+000	 1.1755650237e+000	-1.8866902842e+000
 1.2955393817e+000	 1.0518099984e+000	-1.0546307437e+000
 1.2846049120e+000	 1.0651369783e+000	-1.2324380954e+000
 1.2735279910e+000	 1.0783566286e+000	-1.4168796045e+000
 1.2623102038e+000	 1.0914666791e+000	-1.6071859254e+000
 1.2509531833e+000	 1.1044648911e+000	-1.8025646542e+000
 1.2394586094e+000	 1.1173490583e+000	-1.8020180546e+000
 1.2278282086e+000	 1.1301170083e+000	-1.7962820576e+000
 1.2160637530e+000	 1.1427666039e+000	-1.8032266727e+000
 1.2041670592e+000	 1.1552957439e+000	-1.8220950641e+000
 1.1921399875e+000	 1.1677023647e+000	-1.8521293343e+000
 1.1799844411e+000	 1.1799844411e+000	-1.8925716594e+000
 1.3003915892e+000	 1.0557493617e+000	-1.0552231302e+000
 1.2894161663e+000	 1.0691262554e+000	-1.2254724837e+000
 1.2782977588e+000	 1.0823954175e+000	-1.4026478183e+000
 1.2670379574e+000	 1.0955545693e+000	-1.5859660466e+000
 1.2556384012e+000	 1.1086014637e+000	-1.7746204283e+000
 1.2441007764e+000	 1.1215338862e+000	-1.8559409461e+000
 1.2324268161e+000	 1.1343496563e+000	-1.8409124590e+000
 1.2206182989e+000	 1.1470466286e+000	-1.8387262971e+000
 1.2086770482e+000	 1.1596226943e+000	-1.8486085481e+000
 1.1966049313e+000	 1.1720757818e+000	-1.8697841924e+000
 1.1844038585e+000	 1.1844038585e+000	-1.9014782611e+000
 1.3052437966e+000	 1.0596887250e+000	-1.0603014841e+000
 1.2942274207e+000	 1.0731155325e+000	-1.2228841927e+000
 1.2830675265e+000	 1.0864342064e+000	-1.3926840924e+000
 1.2717657110e+000	 1.0996424595e+000	-1.5689044024e+000
 1.2603236191e+000	 1.1127380363e+000	-1.7507240928e+000
 1.2487429435e+000	 1.1257187142e+000	-1.9135012673e+000
 1.2370254237e+000	 1.1385823043e+000	-1.8890682668e+000
 1.2251728448e+000	 1.1513266534e+000	-1.8776353843e+000
 1.2131870372e+000	 1.1639496446e+000	-1.8784116466e+000
 1.2010698751e+000	 1.1764491989e+000	-1.8906049312e+000
 1.1888232758e+000	 1.1888232758e+000	-1.9134231477e+000
 1.3100960040e+000	 1.0636280883e+000	-1.0698041809e+000
 1.2990386750e+000	 1.0771048095e+000	-1.2246129031e+000
 1.2878372943e+000	 1.0904729952e+000	-1.3869294574e+000
 1.2764934646e+000	 1.1037303497e+000	-1.5559434178e+000
 1.2650088370e+000	 1.1168746090e+000	-1.7308195111e+000
 1.2533851106e+000	 1.1299035421e+000	-1.9106984124e+000
 1.2416240312e+000	 1.1428149522e+000	-1.9407557815e+000
 1.2297273907e+000	 1.1556066781e+000	-1.9199619494e+000
 1.2176970261e+000	 1.1682765950e+000	-1.9115140981e+000
 1.2055348188e+000	 1.1808226160e+000	-1.9146030210e+000
 1.1932426932e+000	 1.1932426932e+000	-1.9284195287e+000
 1.1490485194e+000	 1.1490485194e+000	-1.9142203018e+000
 1.1370884451e+000	 1.1608853811e+000	-2.0349935789e+000
 1.1250070915e+000	 1.1725971363e+000	-2.1228794752e+000
 1.1128064308e+000	 1.1841819318e+000	-2.1775044359e+000
 1.1004884725e+000	 1.1956379560e+000	-2.1985375652e+000
 1.0880552628e+000	 1.2069634399e+000	-2.1856911529e+000
 1.0755088827e+000	 1.2181566579e+000	-2.1387211245e+000
 1.0628514479e+000	 1.2292159289e+000	-2.0574274126e+000
 1.0500851065e+000	 1.2401396168e+000	-1.9416542497e+000
 1.0372120388e+000	 1.2509261315e+000	-1.8266902589e+000
 1.0242344554e+000	 1.2615739298e+000	-2.0581396648e+000
 1.1534679368e+000	 1.1534679368e+000	-1.9022157104e+000
 1.1414618621e+000	 1.1653503249e+000	-2.0169122975e+000
 1.1293340418e+000	 1.1771071253e+000	-2.0973055913e+000
 1.1170864555e+000	 1.1887364777e+000	-2.1429947945e+000
 1.1047211205e+000	 1.2002365635e+000	-2.1536233845e+000
 1.0922400907e+000	 1.2116056069e+000	-2.1288796696e+000
 1.0796454553e+000	 1.2228418758e+000	-2.0684972654e+000
 1.0669393380e+000	 1.2339436824e+000	-1.9722554909e+000
 1.0541238954e+000	 1.2449093845e+000	-1.8399796822e+000
 1.0412013159e+000	 1.2557373859e+000	-1.8889917947e+000
 1.0281738187e+000	 1.2664261372e+000	-2.1029851111e+000
 1.1578873542e+000	 1.1578873542e+000	-1.8931613342e+000
 1.1458352792e+000	 1.1698152687e+000	-2.0014929408e+000
 1.1336609922e+000	 1.1816171143e+000	-2.0741130684e+000
 1.1213664802e+000	 1.1932910236e+000	-2.1105937808e+000
 1.1089537685e+000	 1.2048351710e+000	-2.1105530285e+000
 1.0964249186e+000	 1.2162477740e+000	-2.0736552344e+000
 1.0837820280e+000	 1.2275270937e+000	-1.9996117970e+000
 1.0710272282e+000	 1.2386714360e+000	-1.8881815101e+000
 1.0581626843e+000	 1.2496791523e+000	-1.7391708990e+000
 1.0451905930e+000	 1.2605486402e+000	-1.9488025849e+000
 1.0321131820e+000	 1.2712783446e+000	-2.1451409571e+000
 1.1623067716e+000	 1.1623067716e+000	-1.8870692623e+000
 1.1502086963e+000	 1.1742802124e+000	-1.9887511661e+000
 1.1379879425e+000	 1.1861271033e+000	-2.0533210075e+000
 1.1256465050e+000	 1.1978455694e+000	-2.0803238129e+000
 1.1131864164e+000	 1.2094337785e+000	-2.0693521042e+000
 1.1006097465e+000	 1.2208899411e+000	-2.0200465137e+000
 1.0879186006e+000	 1.2322123116e+000	-1.9320963137e+000
 1.0751151184e+000	 1.2433991896e+000	-1.8052398603e+000
 1.0622014731e+000	 1.2544489200e+000	-1.8012811514e+000
 1.0491798700e+000	 1.2653598946e+000	-2.0061255621e+000
 1.0360525453e+000	 1.2761305521e+000	-2.1846126617e+000
 1.1667261889e+000	 1.1667261889e+000	-1.8839517531e+000
 1.1545821134e+000	 1.1787451562e+000	-1.9787027479e+000
 1.1423148929e+000	 1.1906370922e+000	-2.0349485760e+000
 1.1299265297e+000	 1.2024001153e+000	-2.0522073264e+000
 1.1174190644e+000	 1.2140323861e+000	-2.0300461893e+000
 1.1047945745e+000	 1.2255321081e+000	-1.9680820992e+000
 1.0920551732e+000	 1.2368975295e+000	-1.8659822918e+000
 1.0792030086e+000	 1.2481269431e+000	-1.7234647720e+000
 1.0662402620e+000	 1.2592186878e+000	-1.8729037083e+000
 1.0531691471e+000	 1.2701711489e+000	-2.0609634209e+000
 1.0399919086e+000	 1.2809827595e+000	-2.2214054100e+000
 1.1711456063e+000	 1.1711456063e+000	-1.8838212312e+000
 1.1589555305e+000	 1.1832101000e+000	-1.9713635754e+000
 1.1466418432e+000	 1.1951470812e+000	-2.0190150065e+000
 1.1342065544e+000	 1.2069546612e+000	-2.0262667745e+000
 1.1216517124e+000	 1.2186309936e+000	-1.9926608325e+000
 1.1089794024e+000	 1.2301742752e+000	-1.9177905091e+000
 1.0961917458e+000	 1.2415827474e+000	-1.8013010918e+000
 1.0832908988e+000	 1.2528546967e+000	-1.7425338232e+000
 1.0702790509e+000	 1.2639884555e+000	-1.9422466852e+000
 1.0571584242e+000	 1.2749824033e+000	-2.1133186230e+000
 1.0439312718e+000	 1.2858349669e+000	-2.2555241182e+000
 1.1755650237e+000	 1.1755650237e+000	-1.8866902842e+000
 1.1633289476e+000	 1.1876750437e+000	-1.9667496507e+000
 1.1509687936e+000	 1.1996570702e+000	-2.0055395959e+000
 1.1384865792e+000	 1.2115092071e+000	-2.0025246274e+000
 1.1258843604e+000	 1.2232296011e+000	-1.9572215546e+000
 1.1131642303e+000	 1.2348164423e+000	-1.8692001904e+000
 1.1003283185e+000	 1.2462679654e+000	-1.7380839605e+000
 1.0873787889e+000	 1.2575824503e+000	-1.8255645929e+000
 1.0743178397e+000	 1.2687582233e+000	-2.0093097839e+000
 1.0611477013e+000	 1.2797936576e+000	-2.1631934012e+000
 1.0478706351e+000	 1.2906871743e+000	-2.2869734391e+000
 1.1799844411e+000	 1.1799844411e+000	-1.8925716594e+000
 1.1677023647e+000	 1.1921399875e+000	-1.9648770863e+000
 1.1552957439e+000	 1.2041670592e+000	-1.9945417038e+000
 1.1427666039e+000	 1.2160637530e+000	-1.9810033720e+000
 1.1301170083e+000	 1.2278282086e+000	-1.9237538486e+000
 1.1173490583e+000	 1.2394586094e+000	-1.8223395190e+000
 1.1044648911e+000	 1.2509531833e+000	-1.7081657904e+000
 1.0914666791e+000	 1.2623102038e+000	-1.9065244678e+000
 1.0783566286e+000	 1.2735279910e+000	-2.0740925176e+000
 1.0651369783e+000	 1.2846049120e+000	-2.2105897637e+000
 1.0518099984e+000	 1.2955393817e+000	-2.3157577666e+000
 1.1844038585e+000	 1.1844038585e+000	-1.9014782611e+000
 1.1720757818e+000	 1.1966049313e+000	-1.9657621032e+000
 1.1596226943e+000	 1.2086770482e+000	-1.9860407515e+000
 1.1470466286e+000	 1.2206182989e+000	-1.9617255118e+000
 1.1343496563e+000	 1.2324268161e+000	-1.8922831801e+000
 1.1215338862e+000	 1.2441007764e+000	-1.7772368022e+000
 1.1086014637e+000	 1.2556384012e+000	-1.8022552578e+000
 1.0955545693e+000	 1.2670379574e+000	-1.9854102099e+000
 1.0823954175e+000	 1.2782977588e+000	-2.1365942145e+000
 1.0691262554e+000	 1.2894161663e+000	-2.2555094983e+000
 1.0557493617e+000	 1.3003915892e+000	-2.3418812407e+000
 1.1888232758e+000	 1.1888232758e+000	-1.9134231477e+000
 1.1764491989e+000	 1.2010698751e+000	-1.9694210292e+000
 1.1639496446e+000	 1.2131870372e+000	-1.9800562209e+000
 1.1513266534e+000	 1.2251728448e+000	-1.9447135662e+000
 1.1385823043e+000	 1.2370254237e+000	-1.8628349884e+000
 1.1257187142e+000	 1.2487429435e+000	-1.7339202789e+000
 1.1127380363e+000	 1.2603236191e+000	-1.8944827317e+000
 1.0996424595e+000	 1.2717657110e+000	-2.0622184356e+000
 1.0864342064e+000	 1.2830675265e+000	-2.1968140210e+000
 1.0731155325e+000	 1.2942274207e+000	-2.2979541767e+000
 1.0596887250e+000	 1.3052437966e+000	-2.3653477524e+000
 1.1932426932e+000	 1.1932426932e+000	-1.9284195287e+000
 1.1808226160e+000	 1.2055348188e+000	-1.9758702962e+000
 1.1682765950e+000	 1.2176970261e+000	-1.9766076532e+000
 1.1556066781e+000	 1.2297273907e+000	-1.9299900706e+000
 1.1428149522e+000	 1.2416240312e+000	-1.8354346864e+000
 1.1299035421e+000	 1.2533851106e+000	-1.7987979416e+000
 1.1168746090e+000	 1.2650088370e+000	-1.9848420900e+000
 1.1037303497e+000	 1.2764934646e+000	-2.1369456189e+000
 1.0904729952e+000	 1.2878372943e+000	-2.2547509051e+000
 1.0771048095e+000	 1.2990386750e+000	-2.3379251581e+000
 1.0636280883e+000	 1.3100960040e+000	-2.3861609480e+000
 1.0242344554e+000	 1.2615739298e+000	-2.0581396648e+000
 1.0111545961e+000	 1.2720815158e+000	-2.1114514032e+000
 9.9797472884e-001	 1.2824474416e+000	-2.1525606709e+000
 9.8469714815e-001	 1.2926703085e+000	-2.1813888681e+000
 9.7132417401e-001	 1.3027487666e+000	-2.1978631893e+000
 9.5785815047e-001	 1.3126815164e+000	-2.2019169289e+000
 9.4430144431e-001	 1.3224673086e+000	-2.1934897846e+000
 9.3065644370e-001	 1.3321049447e+000	-2.1725281565e+000
 9.1692555685e-001	 1.3415932778e+000	-2.1389854402e+000
 9.0311121064e-001	 1.3509312126e+000	-2.0928223152e+000
 8.8921584925e-001	 1.3601177057e+000	-2.0340070247e+000
 1.0281738187e+000	 1.2664261372e+000	-2.1029851111e+000
 1.0150436522e+000	 1.2769741370e+000	-2.1399873750e+000
 1.0018130932e+000	 1.2873799318e+000	-2.1673086305e+000
 9.8848444487e-001	 1.2976421173e+000	-2.1848831895e+000
 9.7506003622e-001	 1.3077593388e+000	-2.1926486646e+000
 9.6154222029e-001	 1.3177302915e+000	-2.1905462791e+000
 9.4793337295e-001	 1.3275537213e+000	-2.1785211770e+000
 9.3423589157e-001	 1.3372284253e+000	-2.1565227329e+000
 9.2045219361e-001	 1.3467532520e+000	-2.1245048584e+000
 9.0658471531e-001	 1.3561271019e+000	-2.0824263077e+000
 8.9263591021e-001	 1.3653489277e+000	-2.0302509772e+000
 1.0321131820e+000	 1.2712783446e+000	-2.1451409571e+000
 1.0189327084e+000	 1.2818667582e+000	-2.1660798107e+000
 1.0056514575e+000	 1.2923124220e+000	-2.1798417056e+000
 9.9227174160e-001	 1.3026139262e+000	-2.1863737607e+000
 9.7879589843e-001	 1.3127699110e+000	-2.1856239128e+000
 9.6522629010e-001	 1.3227790665e+000	-2.1775412313e+000
 9.5156530158e-001	 1.3326401340e+000	-2.1620762348e+000
 9.3781533943e-001	 1.3423519058e+000	-2.1391812112e+000
 9.2397883037e-001	 1.3519132261e+000	-2.1088105389e+000
 9.1005821997e-001	 1.3613229912e+000	-2.0709210083e+000
 8.9605597118e-001	 1.3705801496e+000	-2.0254721419e+000
 1.0360525453e+000	 1.2761305521e+000	-2.1846126617e+000
 1.0228217645e+000	 1.2867593794e+000	-2.1897316407e+000
 1.0094898219e+000	 1.2972449121e+000	-2.1901605166e+000
 9.9605903832e-001	 1.3075857351e+000	-2.1858591108e+000
 9.8253176064e-001	 1.3177804832e+000	-2.1767855913e+000
 9.6891035991e-001	 1.3278278416e+000	-2.1628967907e+000
 9.5519723022e-001	 1.3377265468e+000	-2.1441485305e+000
 9.4139478729e-001	 1.3474753864e+000	-2.1204959517e+000
 9.2750546713e-001	 1.3570732003e+000	-2.0918938495e+000
 9.1353172462e-001	 1.3665188804e+000	-2.0582970115e+000
 8.9947603214e-001	 1.3758113716e+000	-2.0196605589e+000
 1.0399919086e+000	 1.2809827595e+000	-2.2214054100e+000
 1.0267108207e+000	 1.2916520006e+000	-2.2109455621e+000
 1.0133281862e+000	 1.3021774023e+000	-2.1982654876e+000
 9.9984633505e-001	 1.3125575440e+000	-2.1833376068e+000
 9.8626762285e-001	 1.3227910553e+000	-2.1661302260e+000
 9.7259442972e-001	 1.3328766167e+000	-2.1466078586e+000
 9.5882915885e-001	 1.3428129595e+000	-2.1247315577e+000
 9.4497423515e-001	 1.3525988670e+000	-2.1004592565e+000
 9.3103210389e-001	 1.3622331744e+000	-2.0737461171e+000
 9.1700522928e-001	 1.3717147697e+000	-2.0445448858e+000
 9.0289609310e-001	 1.3810425935e+000	-2.0128062541e+000
 1.0439312718e+000	 1.2858349669e+000	-2.2555241182e+000
 1.0305998768e+000	 1.2965446218e+000	-2.2297240430e+000
 1.0171665505e+000	 1.3071098924e+000	-2.2041568504e+000
 1.0036336318e+000	 1.3175293529e+000	-2.1788074569e+000
 9.9000348506e-001	 1.3278016275e+000	-2.1536542141e+000
 9.7627849953e-001	 1.3379253917e+000	-2.1286692347e+000
 9.6246108748e-001	 1.3478993722e+000	-2.1038187318e+000
 9.4855368301e-001	 1.3577223475e+000	-2.0790633702e+000
 9.3455874065e-001	 1.3673931486e+000	-2.0543586290e+000
 9.2047873394e-001	 1.3769106590e+000	-2.0296551741e+000
 9.0631615406e-001	 1.3862738155e+000	-2.0048992384e+000
 1.0478706351e+000	 1.2906871743e+000	-2.2869734391e+000
 1.0344889329e+000	 1.3014372430e+000	-2.2460693268e+000
 1.0210049149e+000	 1.3120423826e+000	-2.2078346481e+000
 1.0074209285e+000	 1.3225011617e+000	-2.1722667131e+000
 9.9373934727e-001	 1.3328121997e+000	-2.1393538266e+000
 9.7996256934e-001	 1.3429741668e+000	-2.1090756188e+000
 9.6609301611e-001	 1.3529857849e+000	-2.0814033918e+000
 9.5213313087e-001	 1.3628458281e+000	-2.0563004814e+000
 9.3808537741e-001	 1.3725531227e+000	-2.0337226336e+000
 9.2395223860e-001	 1.3821065483e+000	-2.0136183941e+000
 9.0973621502e-001	 1.3915050374e+000	-1.9959295089e+000
 1.0518099984e+000	 1.2955393817e+000	-2.3157577666e+000
 1.0383779891e+000	 1.3063298643e+000	-2.2599834366e+000
 1.0248432792e+000	 1.3169748728e+000	-2.2092987387e+000
 1.0112082252e+000	 1.3274729706e+000	-2.1637132744e+000
 9.9747520947e-001	 1.3378227719e+000	-2.1232252104e+000
 9.8364663915e-001	 1.3480229419e+000	-2.0878216130e+000
 9.6972494474e-001	 1.3580721977e+000	-2.0574788019e+000
 9.5571257873e-001	 1.3679693086e+000	-2.0321627236e+000
 9.4161201416e-001	 1.3777130969e+000	-2.0118293407e+000
 9.2742574325e-001	 1.3873024376e+000	-1.9964250391e+000
 9.1315627598e-001	 1.3967362593e+000	-1.9858870486e+000
 1.0557493617e+000	 1.3003915892e+000	-2.3418812407e+000
 1.0422670452e+000	 1.3112224855e+000	-2.2714681789e+000
 1.0286816436e+000	 1.3219073629e+000	-2.2085487980e+000
 1.0149955219e+000	 1.3324447795e+000	-2.1531448896e+000
 1.0012110717e+000	 1.3428333441e+000	-2.1052643908e+000
 9.8733070895e-001	 1.3530717169e+000	-2.0649017229e+000
 9.7335687337e-001	 1.3631586104e+000	-2.0320381527e+000
 9.5929202659e-001	 1.3730927892e+000	-2.0066421762e+000
 9.4513865092e-001	 1.3828730710e+000	-1.9886699228e+000
 9.3089924790e-001	 1.3924983268e+000	-1.9780655783e+000
 9.1657633693e-001	 1.4019674813e+000	-1.9747618267e+000
 1.0596887250e+000	 1.3052437966e+000	-2.3653477524e+000
 1.0461561014e+000	 1.3161151067e+000	-2.2805251483e+000
 1.0325200079e+000	 1.3268398531e+000	-2.2055843238e+000
 1.0187828187e+000	 1.3374165884e+000	-2.1405591601e+000
 1.0049469339e+000	 1.3478439163e+000	-2.0854672738e+000
 9.9101477876e-001	 1.3581204920e+000	-2.0403103602e+000
 9.7698880200e-001	 1.3682450231e+000	-2.0050745624e+000
 9.6287147445e-001	 1.3782162698e+000	-1.9797308657e+000
 9.4866528767e-001	 1.3880330452e+000	-1.9642355152e+000
 9.3437275256e-001	 1.3976942161e+000	-1.9585304570e+000
 9.1999639789e-001	 1.4071987032e+000	-1.9625437990e+000
 1.0636280883e+000	 1.3100960040e+000	-2.3861609480e+000
 1.0500451575e+000	 1.3210077279e+000	-2.2871557305e+000
 1.0363583722e+000	 1.3317723433e+000	-2.2004046387e+000
 1.0225701154e+000	 1.3423883973e+000	-2.1259535426e+000
 1.0086827961e+000	 1.3528544884e+000	-2.0638296480e+000
 9.9469884857e-001	 1.3631692671e+000	-2.0140418438e+000
 9.8062073063e-001	 1.3733314358e+000	-1.9765810786e+000
 9.6645092230e-001	 1.3833397503e+000	-1.9514207661e+000
 9.5219192442e-001	 1.3931930193e+000	-1.9385172173e+000
 9.3784625721e-001	 1.4028901054e+000	-1.9378100975e+000
 9.2341645884e-001	 1.4124299252e+000	-1.9492229083e+000
 8.8921584925e-001	 1.3601177057e+000	-2.0340070247e+000
 8.7524193276e-001	 1.3691517663e+000	-1.9594464986e+000
 8.6119193579e-001	 1.3780324560e+000	-1.8957749138e+000
 8.4706834611e-001	 1.3867588893e+000	-1.8425479334e+000
 8.3287366322e-001	 1.3953302337e+000	-1.7993105268e+000
 8.1861039702e-001	 1.4037457098e+000	-1.7655978326e+000
 8.0428106638e-001	 1.4120045915e+000	-1.7409360283e+000
 7.8988819775e-001	 1.4201062056e+000	-1.7248432048e+000
 7.7543432383e-001	 1.4280499324e+000	-1.7168302437e+000
 7.6092198215e-001	 1.4358352054e+000	-1.7164016953e+000
 7.4635371373e-001	 1.4434615111e+000	-1.7230566554e+000
 8.9263591021e-001	 1.3653489277e+000	-2.0302509772e+000
 8.7860824789e-001	 1.3744177346e+000	-1.9590247968e+000
 8.6450421247e-001	 1.3833325808e+000	-1.8976698425e+000
 8.5032630129e-001	 1.3920925773e+000	-1.8457449457e+000
 8.3607702347e-001	 1.4006968885e+000	-1.8027991540e+000
 8.2175889855e-001	 1.4091447318e+000	-1.7683725855e+000
 8.0737445510e-001	 1.4174353783e+000	-1.7419972892e+000
 7.9292622928e-001	 1.4255681525e+000	-1.7231981095e+000
 7.7841676354e-001	 1.4335424322e+000	-1.7114935514e+000
 7.6384860516e-001	 1.4413576485e+000	-1.7063966465e+000
 7.4922430494e-001	 1.4490132861e+000	-1.7074158160e+000
 8.9605597118e-001	 1.3705801496e+000	-2.0254721419e+000
 8.8197456302e-001	 1.3796837030e+000	-1.9576504141e+000
 8.6781648915e-001	 1.3886327056e+000	-1.8986914322e+000
 8.5358425647e-001	 1.3974262654e+000	-1.8481570960e+000
 8.3928038372e-001	 1.4060635432e+000	-1.8056004251e+000
 8.2490740009e-001	 1.4145437538e+000	-1.7705664060e+000
 8.1046784382e-001	 1.4228661652e+000	-1.7425928433e+000
 7.9596426082e-001	 1.4310300995e+000	-1.7212112131e+000
 7.8139920325e-001	 1.4390349319e+000	-1.7059475180e+000
 7.6677522817e-001	 1.4468800916e+000	-1.6963231399e+000
 7.5209489615e-001	 1.4545650612e+000	-1.6918556907e+000
 8.9947603214e-001	 1.3758113716e+000	-2.0196605589e+000
 8.8534087815e-001	 1.3849496713e+000	-1.9553130375e+000
 8.7112876583e-001	 1.3939328305e+000	-1.8988289246e+000
 8.5684221165e-001	 1.4027599534e+000	-1.8497730881e+000
 8.4248374396e-001	 1.4114301979e+000	-1.8077024149e+000
 8.2805590162e-001	 1.4199427757e+000	-1.7721666492e+000
 8.1356123254e-001	 1.4282969521e+000	-1.7427092350e+000
 7.9900229235e-001	 1.4364920464e+000	-1.7188681599e+000
 7.8438164295e-001	 1.4445274316e+000	-1.7001767985e+000
 7.6970185118e-001	 1.4524025347e+000	-1.6861647532e+000
 7.5496548736e-001	 1.4601168362e+000	-1.6763586916e+000
 9.0289609310e-001	 1.3810425935e+000	-2.0128062541e+000
 8.8870719328e-001	 1.3902156396e+000	-1.9520023477e+000
 8.7444104251e-001	 1.3992329553e+000	-1.8980715643e+000
 8.6010016683e-001	 1.4080936414e+000	-1.8505816406e+000
 8.4568710421e-001	 1.4167968527e+000	-1.8090932254e+000
 8.3120440314e-001	 1.4253417977e+000	-1.7731607109e+000
 8.1665462126e-001	 1.4337277390e+000	-1.7423330654e+000
 8.0204032388e-001	 1.4419539933e+000	-1.7161546677e+000
 7.8736408266e-001	 1.4500199314e+000	-1.6941661397e+000
 7.7262847419e-001	 1.4579249778e+000	-1.6759051749e+000
 7.5783607856e-001	 1.4656686113e+000	-1.6609073631e+000
 9.0631615406e-001	 1.3862738155e+000	-2.0048992384e+000
 8.9207350841e-001	 1.3954816079e+000	-1.9477080190e+000
 8.7775331919e-001	 1.4045330801e+000	-1.8964085993e+000
 8.6335812201e-001	 1.4134273295e+000	-1.8505714858e+000
 8.4889046445e-001	 1.4221635074e+000	-1.8097609851e+000
 8.3435290467e-001	 1.4307408196e+000	-1.7735360274e+000
 8.1974800997e-001	 1.4391585259e+000	-1.7414509909e+000
 8.0507835541e-001	 1.4474159403e+000	-1.7130565262e+000
 7.9034652237e-001	 1.4555124311e+000	-1.6879003781e+000
 7.7555509719e-001	 1.4634474209e+000	-1.6655282027e+000
 7.6070666977e-001	 1.4712203863e+000	-1.6454843791e+000
 9.0973621502e-001	 1.3915050374e+000	-1.9959295089e+000
 8.9543982353e-001	 1.4007475763e+000	-1.9424197193e+000
 8.8106559586e-001	 1.4098332050e+000	-1.8938292805e+000
 8.6661607719e-001	 1.4187610175e+000	-1.8497313701e+000
 8.5209382470e-001	 1.4275301622e+000	-1.8096938484e+000
 8.3750140620e-001	 1.4361398416e+000	-1.7732800745e+000
 8.2284139869e-001	 1.4445893128e+000	-1.7400497224e+000
 8.0811638694e-001	 1.4528778872e+000	-1.7095595956e+000
 7.9332896208e-001	 1.4610049308e+000	-1.6813644384e+000
 7.7848172020e-001	 1.4689698640e+000	-1.6550177415e+000
 7.6357726098e-001	 1.4767721614e+000	-1.6300725409e+000
 9.1315627598e-001	 1.3967362593e+000	-1.9858870486e+000
 8.9880613866e-001	 1.4060135446e+000	-1.9361271106e+000
 8.8437787254e-001	 1.4151333298e+000	-1.8903228622e+000
 8.6987403236e-001	 1.4240947055e+000	-1.8480500536e+000
 8.5529718494e-001	 1.4328968169e+000	-1.8088799954e+000
 8.4064990773e-001	 1.4415388636e+000	-1.7723803668e+000
 8.2593478741e-001	 1.4500200997e+000	-1.7381160241e+000
 8.1115441847e-001	 1.4583398342e+000	-1.7056498055e+000
 7.9631140178e-001	 1.4664974306e+000	-1.6745433318e+000
 7.8140834321e-001	 1.4744923071e+000	-1.6443578009e+000
 7.6644785218e-001	 1.4823239364e+000	-1.6146547744e+000
 9.1657633693e-001	 1.4019674813e+000	-1.9747618267e+000
 9.0217245378e-001	 1.4112795129e+000	-1.9288198487e+000
 8.8769014921e-001	 1.4204334546e+000	-1.8858786014e+000
 8.7313198754e-001	 1.4294283936e+000	-1.8455163096e+000
 8.5850054518e-001	 1.4382634717e+000	-1.8073076310e+000
 8.4379840925e-001	 1.4469378855e+000	-1.7708244570e+000
 8.2902817612e-001	 1.4554508866e+000	-1.7356367128e+000
 8.1419245000e-001	 1.4638017811e+000	-1.7013131535e+000
 7.9929384149e-001	 1.4719899303e+000	-1.6674221543e+000
 7.8433496622e-001	 1.4800147502e+000	-1.6335324939e+000
 7.6931844339e-001	 1.4878757114e+000	-1.5992141282e+000
 9.1999639789e-001	 1.4071987032e+000	-1.9625437990e+000
 9.0553876891e-001	 1.4165454813e+000	-1.9204875836e+000
 8.9100242589e-001	 1.4257335794e+000	-1.8804857581e+000
 8.7638994271e-001	 1.4347620816e+000	-1.8421189246e+000
 8.6170390542e-001	 1.4436301264e+000	-1.8049649850e+000
 8.4694691078e-001	 1.4523369075e+000	-1.7685999350e+000
 8.3212156484e-001	 1.4608816734e+000	-1.7325986564e+000
 8.1723048153e-001	 1.4692637280e+000	-1.6965357040e+000
 8.0227628119e-001	 1.4774824301e+000	-1.6599860855e+000
 7.8726158922e-001	 1.4855371933e+000	-1.6225260343e+000
 7.7218903459e-001	 1.4934274865e+000	-1.5837337709e+000
 9.2341645884e-001	 1.4124299252e+000	-1.9492229083e+000
 9.0890508403e-001	 1.4218114496e+000	-1.9111199594e+000
 8.9431470256e-001	 1.4310337043e+000	-1.8741335953e+000
 8.7964789789e-001	 1.4400957696e+000	-1.8378466980e+000
 8.6490726566e-001	 1.4489967811e+000	-1.8018403110e+000
 8.5009541230e-001	 1.4577359294e+000	-1.7656944275e+000
 8.3521495355e-001	 1.4663124603e+000	-1.7289887735e+000
 8.2026851305e-001	 1.4747256750e+000	-1.6913035867e+000
 8.0525872090e-001	 1.4829749298e+000	-1.6522203865e+000
 7.9018821223e-001	 1.4910596364e+000	-1.6113227354e+000
 7.7505962579e-001	 1.4989792615e+000	-1.5681969892e+000
 7.4635371373e-001	 1.4434615111e+000	-1.7230566554e+000
 7.3173206174e-001	 1.4509283890e+000	-1.6690224377e+000
 7.1705957012e-001	 1.4582354312e+000	-1.6120665130e+000
 7.0233878227e-001	 1.4653822829e+000	-1.5522829095e+000
 6.8757223974e-001	 1.4723686411e+000	-1.4897659708e+000
 6.7276248090e-001	 1.4791942551e+000	-1.4246105468e+000
 6.5791203968e-001	 1.4858589260e+000	-1.3569121772e+000
 6.4302344429e-001	 1.4923625063e+000	-1.2867672695e+000
 6.2809921594e-001	 1.4987048992e+000	-1.2142732695e+000
 6.1314186767e-001	 1.5048860589e+000	-1.2579874514e+000
 5.9815390307e-001	 1.5109059892e+000	-1.3309954952e+000
 7.4922430494e-001	 1.4490132861e+000	-1.7074158160e+000
 7.3454641583e-001	 1.4565088828e+000	-1.6542417105e+000
 7.1981749154e-001	 1.4638440291e+000	-1.5987094560e+000
 7.0504008528e-001	 1.4710183686e+000	-1.5408906458e+000
 6.9021674835e-001	 1.4780315974e+000	-1.4808569273e+000
 6.7535002890e-001	 1.4848834638e+000	-1.4186802215e+000
 6.6044247060e-001	 1.4915737681e+000	-1.3544329363e+000
 6.4549661138e-001	 1.4981023621e+000	-1.2881881735e+000
 6.3051498216e-001	 1.5044691489e+000	-1.2200199283e+000
 6.1550010562e-001	 1.5106740822e+000	-1.2440725136e+000
 6.0045449500e-001	 1.5167171661e+000	-1.3213836121e+000
 7.5209489615e-001	 1.4545650612e+000	-1.6918556907e+000
 7.3736076991e-001	 1.4620893766e+000	-1.6393662661e+000
 7.2257541297e-001	 1.4694526269e+000	-1.5850791183e+000
 7.0774138829e-001	 1.4766544543e+000	-1.5290434718e+000
 6.9286125697e-001	 1.4836945537e+000	-1.4713083448e+000
 6.7793757690e-001	 1.4905726725e+000	-1.4119227981e+000
 6.6297290152e-001	 1.4972886101e+000	-1.3509361776e+000
 6.4796977847e-001	 1.5038422179e+000	-1.2883983509e+000
 6.3293074837e-001	 1.5102333985e+000	-1.2243599351e+000
 6.1785834358e-001	 1.5164621055e+000	-1.2289717999e+000
 6.0275508694e-001	 1.5225283430e+000	-1.3103972933e+000
 7.5496548736e-001	 1.4601168362e+000	-1.6763586916e+000
 7.4017512399e-001	 1.4676698704e+000	-1.6243810602e+000
 7.2533333439e-001	 1.4750612247e+000	-1.5711630406e+000
 7.1044269130e-001	 1.4822905400e+000	-1.5167315525e+000
 6.9550576558e-001	 1.4893575100e+000	-1.4611130507e+000
 6.8052512491e-001	 1.4962618811e+000	-1.4043338028e+000
 6.6550333244e-001	 1.5030034521e+000	-1.3464201615e+000
 6.5044294556e-001	 1.5095820737e+000	-1.2873988295e+000
 6.3534651459e-001	 1.5159976481e+000	-1.2272971169e+000
 6.2021658153e-001	 1.5222501288e+000	-1.2126853635e+000
 6.0505567887e-001	 1.5283395199e+000	-1.2980397140e+000
 7.5783607856e-001	 1.4656686113e+000	-1.6609073631e+000
 7.4298947808e-001	 1.4732503642e+000	-1.6092711457e+000
 7.2809125581e-001	 1.4806698225e+000	-1.5569488245e+000
 7.1314399430e-001	 1.4879266257e+000	-1.5039450775e+000
 6.9815027419e-001	 1.4950204663e+000	-1.4502638602e+000
 6.8311267291e-001	 1.5019510898e+000	-1.3959087125e+000
 6.6803376336e-001	 1.5087182941e+000	-1.3408830606e+000
 6.5291611265e-001	 1.5153219295e+000	-1.2851905108e+000
 6.3776228080e-001	 1.5217618977e+000	-1.2288351354e+000
 6.2257481948e-001	 1.5280381521e+000	-1.1952130526e+000
 6.0735627081e-001	 1.5341506968e+000	-1.2843138051e+000
 7.6070666977e-001	 1.4712203863e+000	-1.6454843791e+000
 7.4580383216e-001	 1.4788308580e+000	-1.5940216703e+000
 7.3084917724e-001	 1.4862784203e+000	-1.5424241317e+000
 7.1584529731e-001	 1.4935627114e+000	-1.4906742607e+000
 7.0079478281e-001	 1.5006834226e+000	-1.4387535762e+000
 6.8570022091e-001	 1.5076402985e+000	-1.3866429547e+000
 6.7056419428e-001	 1.5144331362e+000	-1.3343229612e+000
 6.5538927975e-001	 1.5210617853e+000	-1.2817741722e+000
 6.4017804701e-001	 1.5275261473e+000	-1.2289774903e+000
 6.2493305743e-001	 1.5338261754e+000	-1.1765545144e+000
 6.0965686274e-001	 1.5399618736e+000	-1.2692222568e+000
 7.6357726098e-001	 1.4767721614e+000	-1.6300725409e+000
 7.4861818624e-001	 1.4844113518e+000	-1.5786178753e+000
 7.3360709866e-001	 1.4918870181e+000	-1.5275766825e+000
 7.1854660032e-001	 1.4991987971e+000	-1.4769093397e+000
 7.0343929142e-001	 1.5063463789e+000	-1.4265749900e+000
 6.8828776891e-001	 1.5133295072e+000	-1.3765319093e+000
 6.7309462520e-001	 1.5201479782e+000	-1.3267378653e+000
 6.5786244684e-001	 1.5268016410e+000	-1.2771504696e+000
 6.4259381323e-001	 1.5332903969e+000	-1.2277275216e+000
 6.2729129538e-001	 1.5396141987e+000	-1.1784273424e+000
 6.1195745467e-001	 1.5457730505e+000	-1.2527675240e+000
 7.6644785218e-001	 1.4823239364e+000	-1.6146547744e+000
 7.5143254033e-001	 1.4899918456e+000	-1.5630450932e+000
 7.3636502008e-001	 1.4974956159e+000	-1.5123942552e+000
 7.2124790333e-001	 1.5048348828e+000	-1.4626405754e+000
 7.0608380003e-001	 1.5120093352e+000	-1.4137208814e+000
 6.9087531691e-001	 1.5190187158e+000	-1.3655709091e+000
 6.7562505612e-001	 1.5258628202e+000	-1.3181256915e+000
 6.6033561393e-001	 1.5325414968e+000	-1.2713199394e+000
 6.4500957944e-001	 1.5390546465e+000	-1.2250884134e+000
 6.2964953333e-001	 1.5454022220e+000	-1.1793662873e+000
 6.1425804661e-001	 1.5515842274e+000	-1.2349518301e+000
 7.6931844339e-001	 1.4878757114e+000	-1.5992141282e+000
 7.5424689441e-001	 1.4955723394e+000	-1.5472887466e+000
 7.3912294150e-001	 1.5031042137e+000	-1.4968646845e+000
 7.2394920633e-001	 1.5104709685e+000	-1.4478582517e+000
 7.0872830864e-001	 1.5176722916e+000	-1.4001840184e+000
 6.9346286491e-001	 1.5247079245e+000	-1.3537552407e+000
 6.7815548704e-001	 1.5315776622e+000	-1.3084842775e+000
 6.6280878102e-001	 1.5382813526e+000	-1.2642830008e+000
 6.4742534565e-001	 1.5448188961e+000	-1.2210631964e+000
 6.3200777128e-001	 1.5511902453e+000	-1.1787369551e+000
 6.1655863854e-001	 1.5573954043e+000	-1.2157771716e+000
 7.7218903459e-001	 1.4934274865e+000	-1.5837337709e+000
 7.5706124849e-001	 1.5011528332e+000	-1.5313343461e+000
 7.4188086292e-001	 1.5087128115e+000	-1.4809758607e+000
 7.2665050934e-001	 1.5161070542e+000	-1.4325526748e+000
 7.1137281725e-001	 1.5233352479e+000	-1.3859571583e+000
 6.9605041292e-001	 1.5303971332e+000	-1.3410801453e+000
 6.8068591796e-001	 1.5372925042e+000	-1.2978113806e+000
 6.6528194811e-001	 1.5440212084e+000	-1.2560399581e+000
 6.4984111186e-001	 1.5505831457e+000	-1.2156547506e+000
 6.3436600923e-001	 1.5569782686e+000	-1.1765448293e+000
 6.1885923047e-001	 1.5632065812e+000	-1.1952453223e+000
 7.7505962579e-001	 1.4989792615e+000	-1.5681969892e+000
 7.5987560257e-001	 1.5067333270e+000	-1.5151674890e+000
 7.4463878434e-001	 1.5143214094e+000	-1.4647157288e+000
 7.2935181234e-001	 1.5217431399e+000	-1.4167141730e+000
 7.1401732587e-001	 1.5289982042e+000	-1.3710330469e+000
 6.9863796092e-001	 1.5360863418e+000	-1.3275408198e+000
 6.8321634888e-001	 1.5430073463e+000	-1.2861046799e+000
 6.6775511520e-001	 1.5497610642e+000	-1.2465910027e+000
 6.5225687808e-001	 1.5563473953e+000	-1.2088658087e+000
 6.3672424718e-001	 1.5627662919e+000	-1.1727952108e+000
 6.2115982240e-001	 1.5690177580e+000	-1.1733578373e+000
 5.9815390307e-001	 1.5109059892e+000	-1.3309954952e+000
 5.8313781512e-001	 1.5167647440e+000	-1.2928567393e+000
 5.6809608503e-001	 1.5224624259e+000	-1.2547723414e+000
 5.5303118107e-001	 1.5279991861e+000	-1.2164110656e+000
 5.3794555747e-001	 1.5333752239e+000	-1.1774566124e+000
 5.2284165331e-001	 1.5385907856e+000	-1.1376082124e+000
 5.0772189146e-001	 1.5436461645e+000	-1.0965811732e+000
 4.9258867751e-001	 1.5485416994e+000	-1.0541073793e+000
 4.7744439881e-001	 1.5532777749e+000	-1.0099357445e+000
 4.6229142341e-001	 1.5578548199e+000	-9.6383261672e-001
 4.4713209915e-001	 1.5622733071e+000	-9.1558213494e-001
 6.0045449500e-001	 1.5167171661e+000	-1.3213836121e+000
 5.8538065287e-001	 1.5225984546e+000	-1.2836771136e+000
 5.7028106997e-001	 1.5283180506e+000	-1.2458595100e+000
 5.5515822408e-001	 1.5338761061e+000	-1.2076087213e+000
 5.4001457885e-001	 1.5392728209e+000	-1.1686177132e+000
 5.2485258275e-001	 1.5445084425e+000	-1.1285950853e+000
 5.0967466796e-001	 1.5495832651e+000	-1.0872656133e+000
 4.9448324935e-001	 1.5544976290e+000	-1.0443707426e+000
 4.7928072342e-001	 1.5592519202e+000	-9.9966903529e-001
 4.6406946734e-001	 1.5638465692e+000	-9.5293656878e-001
 4.4885183800e-001	 1.5682820506e+000	-9.0396728675e-001
 6.0275508694e-001	 1.5225283430e+000	-1.3103972933e+000
 5.8762349062e-001	 1.5284321651e+000	-1.2733634585e+000
 5.7246605492e-001	 1.5341736753e+000	-1.2360525146e+000
 5.5728526708e-001	 1.5397530260e+000	-1.1981513660e+000
 5.4208360023e-001	 1.5451704179e+000	-1.1593620747e+000
 5.2686351219e-001	 1.5504260994e+000	-1.1194024446e+000
 5.1162744447e-001	 1.5555203657e+000	-1.0780065573e+000
 4.9637782119e-001	 1.5604535587e+000	-1.0349252608e+000
 4.8111704803e-001	 1.5652260655e+000	-9.8992661122e-001
 4.6584751128e-001	 1.5698383185e+000	-9.4279626468e-001
 4.5057157684e-001	 1.5742907940e+000	-8.9333782266e-001
 6.0505567887e-001	 1.5283395199e+000	-1.2980397140e+000
 5.8986632837e-001	 1.5342658757e+000	-1.2619171656e+000
 5.7465103986e-001	 1.5400293000e+000	-1.2253509561e+000
 5.5941231009e-001	 1.5456299460e+000	-1.1880368030e+000
 5.4415262160e-001	 1.5510680150e+000	-1.1496856972e+000
 5.2887444162e-001	 1.5563437562e+000	-1.1100244818e+000
 5.1358022098e-001	 1.5614574663e+000	-1.0687963833e+000
 4.9827239303e-001	 1.5664094883e+000	-1.0257614949e+000
 4.8295337264e-001	 1.5712002108e+000	-9.8069721227e-001
 4.6762555522e-001	 1.5758300678e+000	-9.3339862046e-001
 4.5229131568e-001	 1.5802995375e+000	-8.8367883247e-001
 6.0735627081e-001	 1.5341506968e+000	-1.2843138051e+000
 5.9210916612e-001	 1.5400995862e+000	-1.2493394161e+000
 5.7683602480e-001	 1.5458849248e+000	-1.2137542589e+000
 5.6153935309e-001	 1.5515068659e+000	-1.1772626940e+000
 5.4622164298e-001	 1.5569656120e+000	-1.1395844735e+000
 5.3088537106e-001	 1.5622614131e+000	-1.1004553157e+000
 5.1553299748e-001	 1.5673945670e+000	-1.0596274313e+000
 5.0016696486e-001	 1.5723654179e+000	-1.0168700016e+000
 4.8478969725e-001	 1.5771743561e+000	-9.7196960880e-001
 4.6940359915e-001	 1.5818218171e+000	-9.2473061692e-001
 4.5401105452e-001	 1.5863082810e+000	-8.7497550500e-001
 6.0965686274e-001	 1.5399618736e+000	-1.2692222568e+000
 5.9435200387e-001	 1.5459332968e+000	-1.2356311845e+000
 5.7902100974e-001	 1.5517405495e+000	-1.2012616751e+000
 5.6366639609e-001	 1.5573837859e+000	-1.1658265617e+000
 5.4829066435e-001	 1.5628632090e+000	-1.1290541912e+000
 5.3289630049e-001	 1.5681790700e+000	-1.0906889936e+000
 5.1748577399e-001	 1.5733316676e+000	-1.0504920036e+000
 5.0206153670e-001	 1.5783213475e+000	-1.0082413342e+000
 4.8662602186e-001	 1.5831485014e+000	-9.6373260107e-001
 4.7118164309e-001	 1.5878135664e+000	-9.1677929839e-001
 4.5573079337e-001	 1.5923170245e+000	-8.6721312612e-001
 6.1195745467e-001	 1.5457730505e+000	-1.2527675240e+000
 5.9659484162e-001	 1.5517670073e+000	-1.2207932430e+000
 5.8120599468e-001	 1.5575961742e+000	-1.1878722870e+000
 5.6579343910e-001	 1.5632607058e+000	-1.1537257927e+000
 5.5035968572e-001	 1.5687608060e+000	-1.1180905351e+000
 5.3490722993e-001	 1.5740967268e+000	-1.0807194930e+000
 5.1943855049e-001	 1.5792687682e+000	-1.0413823659e+000
 5.0395610853e-001	 1.5842772771e+000	-9.9986604207e-001
 4.8846234647e-001	 1.5891226467e+000	-9.5597501864e-001
 4.7295968702e-001	 1.5938053158e+000	-9.0953177152e-001
 4.5745053221e-001	 1.5983257680e+000	-8.6037707703e-001
 6.1425804661e-001	 1.5515842274e+000	-1.2349518301e+000
 5.9883767937e-001	 1.5576007179e+000	-1.2048261647e+000
 5.8339097962e-001	 1.5634517989e+000	-1.1735850107e+000
 5.6792048210e-001	 1.5691376258e+000	-1.1409576393e+000
 5.5242870709e-001	 1.5746584030e+000	-1.1066890882e+000
 5.3691815936e-001	 1.5800143837e+000	-1.0705407225e+000
 5.2139132699e-001	 1.5852058689e+000	-1.0322907472e+000
 5.0585068036e-001	 1.5902332067e+000	-9.9173467077e-001
 4.9029867108e-001	 1.5950967920e+000	-9.4868571984e-001
 4.7473773095e-001	 1.5997970651e+000	-9.0297520412e-001
 4.5917027104e-001	 1.6043345115e+000	-8.5445283237e-001
 6.1655863854e-001	 1.5573954043e+000	-1.2157771716e+000
 6.0108051712e-001	 1.5634344284e+000	-1.1877303278e+000
 5.8557596456e-001	 1.5693074236e+000	-1.1583985990e+000
 5.7004752510e-001	 1.5750145457e+000	-1.1275192230e+000
 5.5449772847e-001	 1.5805560000e+000	-1.0948453347e+000
 5.3892908879e-001	 1.5859320406e+000	-1.0601465235e+000
 5.2334410350e-001	 1.5911429695e+000	-1.0232093415e+000
 5.0774525220e-001	 1.5961891363e+000	-9.8383776239e-001
 4.9213499568e-001	 1.6010709372e+000	-9.4185359122e-001
 4.7651577489e-001	 1.6057888144e+000	-8.9709682406e-001
 4.6089000988e-001	 1.6103432550e+000	-8.4942595858e-001
 6.1885923047e-001	 1.5632065812e+000	-1.1952453223e+000
 6.0332335486e-001	 1.5692681390e+000	-1.1695059187e+000
 5.8776094950e-001	 1.5751630483e+000	-1.1423116447e+000
 5.7217456810e-001	 1.5808914657e+000	-1.1134075361e+000
 5.5656674984e-001	 1.5864535970e+000	-1.0825546607e+000
 5.4094001822e-001	 1.5918496974e+000	-1.0495306708e+000
 5.2529688000e-001	 1.5970800701e+000	-1.0141303075e+000
 5.0963982403e-001	 1.6021450659e+000	-9.7616585541e-001
 4.9397132029e-001	 1.6070450825e+000	-9.3546754706e-001
 4.7829381882e-001	 1.6117805637e+000	-8.9188391807e-001
 4.6260974872e-001	 1.6163519985e+000	-8.4528211211e-001
 6.2115982240e-001	 1.5690177580e+000	-1.1733578373e+000
 6.0556619261e-001	 1.5751018495e+000	-1.1501529363e+000
 5.8994593444e-001	 1.5810186730e+000	-1.1253225831e+000
 5.7430161110e-001	 1.5867683856e+000	-1.0986194447e+000
 5.5863577121e-001	 1.5923511940e+000	-1.0698123571e+000
 5.4295094765e-001	 1.5977673543e+000	-1.0386868746e+000
 5.2724965650e-001	 1.6030171708e+000	-1.0050457701e+000
 5.1153439586e-001	 1.6081009956e+000	-9.6870948483e-001
 4.9580764489e-001	 1.6130192278e+000	-9.2951652880e-001
 4.8007186275e-001	 1.6177723130e+000	-8.8732383073e-001
 4.6432948755e-001	 1.6223607419e+000	-8.4200703781e-001
 4.4713209915e-001	 1.5622733071e+000	-9.1558213494e-001
 4.3196875273e-001	 1.5665337522e+000	-9.0358055783e-001
 4.1680368876e-001	 1.5706367133e+000	-8.8939909021e-001
 4.0163918895e-001	 1.5745827898e+000	-8.7296179372e-001
 3.8647751123e-001	 1.5783726218e+000	-8.5420987544e-001
 3.7132088894e-001	 1.5820068892e+000	-8.3310175225e-001
 3.5617153009e-001	 1.5854863106e+000	-8.0961307312e-001
 3.4103161654e-001	 1.5888116429e+000	-7.8373670043e-001
 3.2590330338e-001	 1.5919836798e+000	-7.5548265089e-001
 3.1078871813e-001	 1.5950032516e+000	-7.2487799746e-001
 2.9568996019e-001	 1.5978712237e+000	-6.9196673313e-001
 4.4885183800e-001	 1.5682820506e+000	-9.0396728675e-001
 4.3363017101e-001	 1.5725588820e+000	-8.9240768023e-001
 4.1840677987e-001	 1.5766776237e+000	-8.7871743962e-001
 4.0318395506e-001	 1.5806388774e+000	-8.6281277136e-001
 3.8796396319e-001	 1.5844432858e+000	-8.4462725172e-001
 3.7274904621e-001	 1.5880915311e+000	-8.2411189845e-001
 3.5754142059e-001	 1.5915843349e+000	-8.0123519978e-001
 3.4234327661e-001	 1.5949224569e+000	-7.7598310169e-001
 3.2715677762e-001	 1.5981066940e+000	-7.4835895429e-001
 3.1198405935e-001	 1.6011378795e+000	-7.1838341842e-001
 2.9682722927e-001	 1.6040168822e+000	-6.8609433358e-001
 4.5057157684e-001	 1.5742907940e+000	-8.9333782266e-001
 4.3529158929e-001	 1.5785840118e+000	-8.8221521375e-001
 4.2000987098e-001	 1.5827185341e+000	-8.6900874758e-001
 4.0472872117e-001	 1.5866949651e+000	-8.5362674390e-001
 3.8945041516e-001	 1.5905139497e+000	-8.3599511988e-001
 3.7417720347e-001	 1.5941761730e+000	-8.1605746911e-001
 3.5891131109e-001	 1.5976823592e+000	-7.9377509729e-001
 3.4365493667e-001	 1.6010332709e+000	-7.6912701548e-001
 3.2841025186e-001	 1.6042297081e+000	-7.4210989185e-001
 3.1317940057e-001	 1.6072725074e+000	-7.1273796302e-001
 2.9796449835e-001	 1.6101625408e+000	-6.8104290607e-001
 4.5229131568e-001	 1.5802995375e+000	-8.8367883247e-001
 4.3695300757e-001	 1.5846091416e+000	-8.7298907404e-001
 4.2161296209e-001	 1.5887594446e+000	-8.6025975875e-001
 4.0627348728e-001	 1.5927510528e+000	-8.4539128754e-001
 3.9093686713e-001	 1.5965846136e+000	-8.2830188966e-001
 3.7560536074e-001	 1.6002608148e+000	-8.0892770895e-001
 3.6028120159e-001	 1.6037803834e+000	-7.8722284624e-001
 3.4496659673e-001	 1.6071440849e+000	-7.6315935857e-001
 3.2966372610e-001	 1.6103527223e+000	-7.3672721633e-001
 3.1437474180e-001	 1.6134071353e+000	-7.0793421932e-001
 2.9910176742e-001	 1.6163081993e+000	-6.7680587275e-001
 4.5401105452e-001	 1.5863082810e+000	-8.7497550500e-001
 4.3861442585e-001	 1.5906342714e+000	-8.6471526964e-001
 4.2321605320e-001	 1.5948003550e+000	-8.5245730440e-001
 4.0781825339e-001	 1.5988071404e+000	-8.3809405871e-001
 3.9242331909e-001	 1.6026552776e+000	-8.2153604448e-001
 3.7703351800e-001	 1.6063454567e+000	-8.0271192966e-001
 3.6165109209e-001	 1.6098784077e+000	-7.8156858729e-001
 3.4627825680e-001	 1.6132548989e+000	-7.5807110080e-001
 3.3091720035e-001	 1.6164757364e+000	-7.3220272643e-001
 3.1557008302e-001	 1.6195417632e+000	-7.0396481399e-001
 3.0023903650e-001	 1.6224538579e+000	-6.7337668696e-001
 4.5573079337e-001	 1.5923170245e+000	-8.6721312612e-001
 4.4027584412e-001	 1.5966594013e+000	-8.5737990027e-001
 4.2481914431e-001	 1.6008412655e+000	-8.4558830085e-001
 4.0936301950e-001	 1.6048632281e+000	-8.3172279260e-001
 3.9390977105e-001	 1.6087259415e+000	-8.1568614006e-001
 3.7846167526e-001	 1.6124300986e+000	-7.9739950860e-001
 3.6302098258e-001	 1.6159764320e+000	-7.7680252005e-001
 3.4758991686e-001	 1.6193657129e+000	-7.5385326407e-001
 3.3217067459e-001	 1.6225987506e+000	-7.2852826585e-001
 3.1676542424e-001	 1.6256763911e+000	-7.0082241159e-001
 3.0137630557e-001	 1.6285995164e+000	-6.7074883259e-001
 4.5745053221e-001	 1.5983257680e+000	-8.6037707703e-001
 4.4193726240e-001	 1.6026845311e+000	-8.5096915502e-001
 4.2642223542e-001	 1.6068821759e+000	-8.3963974783e-001
 4.1090778561e-001	 1.6109193157e+000	-8.2626530163e-001
 3.9539622302e-001	 1.6147966054e+000	-8.1074080306e-001
 3.7988983252e-001	 1.6185147405e+000	-7.9297988762e-001
 3.6439087308e-001	 1.6220744563e+000	-7.7291490200e-001
 3.4890157692e-001	 1.6254765269e+000	-7.5049692138e-001
 3.3342414883e-001	 1.6287217648e+000	-7.2569572251e-001
 3.1796076546e-001	 1.6318110190e+000	-6.9849971381e-001
 3.0251357465e-001	 1.6347451750e+000	-6.6891582354e-001
 4.5917027104e-001	 1.6043345115e+000	-8.5445283237e-001
 4.4359868068e-001	 1.6087096609e+000	-8.4546931079e-001
 4.2802532652e-001	 1.6129230863e+000	-8.3459872694e-001
 4.1245255172e-001	 1.6169754034e+000	-8.2170947404e-001
 3.9688267498e-001	 1.6208672693e+000	-8.0668872972e-001
 3.8131798979e-001	 1.6245993824e+000	-7.8944257182e-001
 3.6576076358e-001	 1.6281724805e+000	-7.6989604737e-001
 3.5021323698e-001	 1.6315873409e+000	-7.4799319584e-001
 3.3467762307e-001	 1.6348447789e+000	-7.2369702766e-001
 3.1915610668e-001	 1.6379456469e+000	-6.9698945882e-001
 3.0365084372e-001	 1.6408908335e+000	-6.6787120314e-001
 4.6089000988e-001	 1.6103432550e+000	-8.4942595858e-001
 4.4526009895e-001	 1.6147347907e+000	-8.4086673057e-001
 4.2962841763e-001	 1.6189639968e+000	-8.3045240011e-001
 4.1399731782e-001	 1.6230314910e+000	-8.1804327246e-001
 3.9836912694e-001	 1.6269379333e+000	-8.0351868462e-001
 3.8274614704e-001	 1.6306840242e+000	-7.8677712838e-001
 3.6713065407e-001	 1.6342705048e+000	-7.6773632607e-001
 3.5152489703e-001	 1.6376981550e+000	-7.4633325978e-001
 3.3593109731e-001	 1.6409677931e+000	-7.2252415512e-001
 3.2035144790e-001	 1.6440802747e+000	-6.9628442057e-001
 3.0478811280e-001	 1.6470364921e+000	-6.6760854360e-001
 4.6260974872e-001	 1.6163519985e+000	-8.4528211211e-001
 4.4692151722e-001	 1.6207599205e+000	-8.3714786188e-001
 4.3123150873e-001	 1.6250049072e+000	-8.2718800809e-001
 4.1554208393e-001	 1.6290875787e+000	-8.1525473254e-001
 3.9985557890e-001	 1.6330085972e+000	-8.0121949935e-001
 3.8417430430e-001	 1.6367686661e+000	-7.8497318540e-001
 3.6850054456e-001	 1.6403685291e+000	-7.6642616273e-001
 3.5283655709e-001	 1.6438089690e+000	-7.4550833379e-001
 3.3718457154e-001	 1.6470908072e+000	-7.2216912049e-001
 3.2154678912e-001	 1.6502149026e+000	-6.9637740813e-001
 3.0592538187e-001	 1.6531821506e+000	-6.6812144549e-001
 4.6432948755e-001	 1.6223607419e+000	-8.4200703781e-001
 4.4858293550e-001	 1.6267850503e+000	-8.3429923520e-001
 4.3283459984e-001	 1.6310458176e+000	-8.2479286904e-001
 4.1708685003e-001	 1.6351436663e+000	-8.1333196159e-001
 4.0134203086e-001	 1.6390792611e+000	-7.9978007131e-001
 3.8560246156e-001	 1.6428533080e+000	-7.8402043075e-001
 3.6987043506e-001	 1.6464665533e+000	-7.6595603559e-001
 3.5414821715e-001	 1.6499197830e+000	-7.4550968586e-001
 3.3843804578e-001	 1.6532138214e+000	-7.2262398033e-001
 3.2274213034e-001	 1.6563495305e+000	-6.9726126501e-001
 3.0706265094e-001	 1.6593278092e+000	-6.6940353721e-001
 2.9568996019e-001	 1.5978712237e+000	-6.9196673313e-001
 2.8060910017e-001	 1.6005884958e+000	-6.7933927122e-001
 2.6554817929e-001	 1.6031560013e+000	-6.6515529890e-001
 2.5050920885e-001	 1.6055747059e+000	-6.4940534818e-001
 2.3549416967e-001	 1.6078456070e+000	-6.3209734794e-001
 2.2050501164e-001	 1.6099697326e+000	-6.1325638551e-001
 2.0554365321e-001	 1.6119481402e+000	-5.9292443502e-001
 1.9061198099e-001	 1.6137819161e+000	-5.7116005418e-001
 1.7571184933e-001	 1.6154721743e+000	-5.4803805083e-001
 1.6084507993e-001	 1.6170200556e+000	-5.2364912101e-001
 1.4601346156e-001	 1.6184267265e+000	-4.9809946006e-001
 2.9682722927e-001	 1.6040168822e+000	-6.8609433358e-001
 2.8168836594e-001	 1.6067446054e+000	-6.7280669860e-001
 2.6656951844e-001	 1.6093219859e+000	-6.5804754159e-001
 2.5147270580e-001	 1.6117499933e+000	-6.4180802462e-001
 2.3639991648e-001	 1.6140296286e+000	-6.2409677722e-001
 2.2135310784e-001	 1.6161619239e+000	-6.0493965751e-001
 2.0633420573e-001	 1.6181479407e+000	-5.8437947993e-001
 1.9134510400e-001	 1.6199887696e+000	-5.6247571097e-001
 1.7638766413e-001	 1.6216855288e+000	-5.3930413449e-001
 1.6146371486e-001	 1.6232393635e+000	-5.1495648835e-001
 1.4657505180e-001	 1.6246514447e+000	-4.8954007377e-001
 2.9796449835e-001	 1.6101625408e+000	-6.8104290607e-001
 2.8276763171e-001	 1.6129007150e+000	-6.6716790668e-001
 2.6759085759e-001	 1.6154879705e+000	-6.5190267218e-001
 2.5243620276e-001	 1.6179252806e+000	-6.3523896256e-001
 2.3730566328e-001	 1.6202136502e+000	-6.1718607999e-001
 2.2220120404e-001	 1.6223541151e+000	-5.9777062954e-001
 2.0712475824e-001	 1.6243477413e+000	-5.7703624608e-001
 1.9207822700e-001	 1.6261956231e+000	-5.5504328900e-001
 1.7706347894e-001	 1.6278988834e+000	-5.3186850630e-001
 1.6208234978e-001	 1.6294586714e+000	-5.0760466959e-001
 1.4713664204e-001	 1.6308761629e+000	-4.8236018174e-001
 2.9910176742e-001	 1.6163081993e+000	-6.7680587275e-001
 2.8384689748e-001	 1.6190568246e+000	-6.6241596821e-001
 2.6861219674e-001	 1.6216539552e+000	-6.4671342379e-001
 2.5339969971e-001	 1.6241005679e+000	-6.2969056523e-001
 2.3821141009e-001	 1.6263976717e+000	-6.1135733929e-001
 2.2304930023e-001	 1.6285463064e+000	-5.9174107396e-001
 2.0791531075e-001	 1.6305475418e+000	-5.7088620463e-001
 1.9281135000e-001	 1.6324024767e+000	-5.4885396767e-001
 1.7773929374e-001	 1.6341122379e+000	-5.2572206317e-001
 1.6270098470e-001	 1.6356779793e+000	-5.0158428840e-001
 1.4769823227e-001	 1.6371008810e+000	-4.7655014356e-001
 3.0023903650e-001	 1.6224538579e+000	-6.7337668696e-001
 2.8492616325e-001	 1.6252129342e+000	-6.5854399741e-001
 2.6963353589e-001	 1.6278199398e+000	-6.4247258107e-001
 2.5436319667e-001	 1.6302758552e+000	-6.2515529713e-001
 2.3911715689e-001	 1.6325816933e+000	-6.0660270878e-001
 2.2389739643e-001	 1.6347384977e+000	-5.8684284289e-001
 2.0870586326e-001	 1.6367473423e+000	-5.6592091532e-001
 1.9354447300e-001	 1.6386093302e+000	-5.4389902338e-001
 1.7841510854e-001	 1.6403255924e+000	-5.2085580720e-001
 1.6331961962e-001	 1.6418972872e+000	-4.9688608148e-001
 1.4825982251e-001	 1.6433255992e+000	-4.7210043937e-001
 3.0137630557e-001	 1.6285995164e+000	-6.7074883259e-001
 2.8600542901e-001	 1.6313690438e+000	-6.5554514922e-001
 2.7065487504e-001	 1.6339859244e+000	-6.3917297922e-001
 2.5532669362e-001	 1.6364511426e+000	-6.2162568284e-001
 2.4002290369e-001	 1.6387657149e+000	-6.0291441147e-001
 2.2474549263e-001	 1.6409306890e+000	-5.8306786670e-001
 2.0949641577e-001	 1.6429471429e+000	-5.6213202472e-001
 1.9427759601e-001	 1.6448161837e+000	-5.4016982772e-001
 1.7909092335e-001	 1.6465389469e+000	-5.1726084366e-001
 1.6393825454e-001	 1.6481165951e+000	-4.9350089639e-001
 1.4882141274e-001	 1.6495503174e+000	-4.6900166756e-001
 3.0251357465e-001	 1.6347451750e+000	-6.6891582354e-001
 2.8708469478e-001	 1.6375251534e+000	-6.5341261852e-001
 2.7167621419e-001	 1.6401519090e+000	-6.3680750303e-001
 2.5629019058e-001	 1.6426264299e+000	-6.1909430591e-001
 2.4092865050e-001	 1.6449497364e+000	-6.0028473839e-001
 2.2559358882e-001	 1.6471228803e+000	-5.8040815251e-001
 2.1028696828e-001	 1.6491469434e+000	-5.5951126466e-001
 1.9501071901e-001	 1.6510230372e+000	-5.3765784564e-001
 1.7976673815e-001	 1.6527523014e+000	-5.1492837903e-001
 1.6455688946e-001	 1.6543359030e+000	-4.9141968948e-001
 1.4938300298e-001	 1.6557750356e+000	-4.6724454258e-001
 3.0365084372e-001	 1.6408908335e+000	-6.6787120314e-001
 2.8816396055e-001	 1.6436812630e+000	-6.5213963942e-001
 2.7269755334e-001	 1.6463178936e+000	-6.3536908599e-001
 2.5725368753e-001	 1.6488017172e+000	-6.1755380774e-001
 2.4183439730e-001	 1.6511337580e+000	-5.9870604729e-001
 2.2644168502e-001	 1.6533150715e+000	-5.7885578282e-001
 2.1107752079e-001	 1.6553467439e+000	-5.5805045058e-001
 1.9574384201e-001	 1.6572298907e+000	-5.3635463374e-001
 1.8044255295e-001	 1.6589656559e+000	-5.1384971917e-001
 1.6517552439e-001	 1.6605552110e+000	-4.9063352386e-001
 1.4994459321e-001	 1.6619997537e+000	-4.6681989272e-001
 3.0478811280e-001	 1.6470364921e+000	-6.6760854360e-001
 2.8924322631e-001	 1.6498373726e+000	-6.5171948445e-001
 2.7371889248e-001	 1.6524838782e+000	-6.3485070935e-001
 2.5821718449e-001	 1.6549770046e+000	-6.1699688650e-001
 2.4274014411e-001	 1.6573177795e+000	-5.9817076143e-001
 2.2728978122e-001	 1.6595072628e+000	-5.7840291401e-001
 2.1186807330e-001	 1.6615465445e+000	-5.5774148000e-001
 1.9647696501e-001	 1.6634367443e+000	-5.3625183856e-001
 1.8111836776e-001	 1.6651790104e+000	-5.1401626741e-001
 1.6579415931e-001	 1.6667745189e+000	-4.9113356738e-001
 1.5050618345e-001	 1.6682244719e+000	-4.6771865801e-001
 3.0592538187e-001	 1.6531821506e+000	-6.6812144549e-001
 2.9032249208e-001	 1.6559934822e+000	-6.5214546395e-001
 2.7474023163e-001	 1.6586498629e+000	-6.3524540121e-001
 2.5918068144e-001	 1.6611522919e+000	-6.1741629609e-001
 2.4364589091e-001	 1.6635018011e+000	-5.9867136835e-001
 2.2813787741e-001	 1.6656994541e+000	-5.7904177505e-001
 2.1265862581e-001	 1.6677463450e+000	-5.5857633100e-001
 1.9721008802e-001	 1.6696435978e+000	-5.3734119488e-001
 1.8179418256e-001	 1.6713923650e+000	-5.1541952277e-001
 1.6641279423e-001	 1.6729938268e+000	-4.9291109072e-001
 1.5106777369e-001	 1.6744491901e+000	-4.6993188817e-001
 3.0706265094e-001	 1.6593278092e+000	-6.6940353721e-001
 2.9140175784e-001	 1.6621495918e+000	-6.5341092528e-001
 2.7576157078e-001	 1.6648158475e+000	-6.3654623572e-001
 2.6014417840e-001	 1.6673275792e+000	-6.1880484509e-001
 2.4455163771e-001	 1.6696858227e+000	-6.0020041869e-001
 2.2898597361e-001	 1.6718916454e+000	-5.8076466612e-001
 2.1344917832e-001	 1.6739461456e+000	-5.6054706069e-001
 1.9794321102e-001	 1.6758504513e+000	-5.3961452408e-001
 1.8246999737e-001	 1.6776057195e+000	-5.1805107814e-001
 1.6703142915e-001	 1.6792131347e+000	-4.9595746547e-001
 1.5162936392e-001	 1.6806739083e+000	-4.7345074051e-001
 1.4601346156e-001	 1.6184267265e+000	-4.9809946006e-001
 1.3121874969e-001	 1.6196933783e+000	-5.0162704538e-001
 1.1646266621e-001	 1.6208212262e+000	-5.0157191172e-001
 1.0174689923e-001	 1.6218115083e+000	-4.9811787840e-001
 8.7073102790e-002	 1.6226654846e+000	-4.9146407111e-001
 7.2442896714e-002	 1.6233844359e+000	-4.8182435245e-001
 5.7857866413e-002	 1.6239696633e+000	-4.6942673558e-001
 4.3319562758e-002	 1.6244224868e+000	-4.5451278275e-001
 2.8829501960e-002	 1.6247442444e+000	-4.3733699057e-001
 1.4389165487e-002	 1.6249362916e+000	-4.1816616367e-001
 0.0000000000e+000	 1.6250000000e+000	-3.9727877839e-001
 1.4657505180e-001	 1.6246514447e+000	-4.8954007377e-001
 1.3172343718e-001	 1.6259229682e+000	-4.9332009997e-001
 1.1691059954e-001	 1.6270551540e+000	-4.9351421874e-001
 1.0213823346e-001	 1.6280492449e+000	-4.9030092203e-001
 8.7407999339e-002	 1.6289065057e+000	-4.8387428701e-001
 7.2721523240e-002	 1.6296282222e+000	-4.7444340475e-001
 5.8080396668e-002	 1.6302157005e+000	-4.6223179168e-001
 4.3486176460e-002	 1.6306702656e+000	-4.4747678546e-001
 2.8940384659e-002	 1.6309932608e+000	-4.3042892720e-001
 1.4444508431e-002	 1.6311860466e+000	-4.1135133167e-001
 0.0000000000e+000	 1.6312500000e+000	-3.9051904722e-001
 1.4713664204e-001	 1.6308761629e+000	-4.8236018174e-001
 1.3222812468e-001	 1.6321525581e+000	-4.8630870959e-001
 1.1735853287e-001	 1.6332890818e+000	-4.8666542095e-001
 1.0252956768e-001	 1.6342869815e+000	-4.8360352159e-001
 8.7742895888e-002	 1.6351475267e+000	-4.7731208365e-001
 7.3000149765e-002	 1.6358720085e+000	-4.6799547252e-001
 5.8302926924e-002	 1.6364617376e+000	-4.5587275584e-001
 4.3652790163e-002	 1.6369180443e+000	-4.4117709677e-001
 2.9051267359e-002	 1.6372422771e+000	-4.2415513294e-001
 1.4499851375e-002	 1.6374358016e+000	-4.0506634325e-001
 0.0000000000e+000	 1.6375000000e+000	-3.8418240384e-001
 1.4769823227e-001	 1.6371008810e+000	-4.7655014356e-001
 1.3273281218e-001	 1.6383821481e+000	-4.8058433367e-001
 1.1780646620e-001	 1.6395230096e+000	-4.8101807382e-001
 1.0292090191e-001	 1.6405247180e+000	-4.7801932431e-001
 8.8077792437e-002	 1.6413885478e+000	-4.7177219538e-001
 7.3278776291e-002	 1.6421157948e+000	-4.6247637204e-001
 5.8525457179e-002	 1.6427077748e+000	-4.5034652075e-001
 4.3819403866e-002	 1.6431658231e+000	-4.3561167979e-001
 2.9162150059e-002	 1.6434912934e+000	-4.1851463501e-001
 1.4555194319e-002	 1.6436855566e+000	-3.9931128301e-001
 0.0000000000e+000	 1.6437500000e+000	-3.7826998317e-001
 1.4825982251e-001	 1.6433255992e+000	-4.7210043937e-001
 1.3323749968e-001	 1.6446117380e+000	-4.7613853886e-001
 1.1825439953e-001	 1.6457569374e+000	-4.7656482660e-001
 1.0331223614e-001	 1.6467624546e+000	-4.7354205770e-001
 8.8412688985e-002	 1.6476295689e+000	-4.6724942312e-001
 7.3557402816e-002	 1.6483595811e+000	-4.5788197245e-001
 5.8747987434e-002	 1.6489538120e+000	-4.4565001809e-001
 4.3986017569e-002	 1.6494136019e+000	-4.3077852271e-001
 2.9273032759e-002	 1.6497403097e+000	-4.1350647168e-001
 1.4610537264e-002	 1.6499353115e+000	-3.9408623252e-001
 0.0000000000e+000	 1.6500000000e+000	-3.7278290292e-001
 1.4882141274e-001	 1.6495503174e+000	-4.6900166756e-001
 1.3374218718e-001	 1.6508413279e+000	-4.7296299702e-001
 1.1870233287e-001	 1.6519908652e+000	-4.7329842059e-001
 1.0370357036e-001	 1.6530001912e+000	-4.7016552801e-001
 8.8747585534e-002	 1.6538705900e+000	-4.6373863315e-001
 7.3836029342e-002	 1.6546033674e+000	-4.5420819472e-001
 5.8970517689e-002	 1.6551998491e+000	-4.4178021779e-001
 4.4152631271e-002	 1.6556613807e+000	-4.2667563830e-001
 2.9383915458e-002	 1.6559893261e+000	-4.0912969205e-001
 1.4665880208e-002	 1.6561850665e+000	-3.8939127036e-001
 0.0000000000e+000	 1.6562500000e+000	-3.6772226395e-001
 1.4938300298e-001	 1.6557750356e+000	-4.6724454258e-001
 1.3424687467e-001	 1.6570709178e+000	-4.7104948322e-001
 1.1915026620e-001	 1.6582247930e+000	-4.7121168736e-001
 1.0409490459e-001	 1.6592379277e+000	-4.6788361871e-001
 8.9082482083e-002	 1.6601116111e+000	-4.6123475586e-001
 7.4114655867e-002	 1.6608471536e+000	-4.5145101070e-001
 5.9193047944e-002	 1.6614458863e+000	-4.3873412735e-001
 4.4319244974e-002	 1.6619091595e+000	-4.2330106348e-001
 2.9494798158e-002	 1.6622383424e+000	-4.0538335588e-001
 1.4721223152e-002	 1.6624348215e+000	-3.8522647219e-001
 0.0000000000e+000	 1.6625000000e+000	-3.6308915056e-001
 1.4994459321e-001	 1.6619997537e+000	-4.6681989272e-001
 1.3475156217e-001	 1.6633005077e+000	-4.7038987383e-001
 1.1959819953e-001	 1.6644587208e+000	-4.7029754708e-001
 1.0448623882e-001	 1.6654756643e+000	-4.6669028910e-001
 8.9417378632e-002	 1.6663526322e+000	-4.5973278454e-001
 7.4393282393e-002	 1.6670909399e+000	-4.4960644217e-001
 5.9415578200e-002	 1.6676919235e+000	-4.3650879109e-001
 4.4485858677e-002	 1.6681569383e+000	-4.2065285883e-001
 2.9605680858e-002	 1.6684873587e+000	-4.0226653336e-001
 1.4776566096e-002	 1.6686845764e+000	-3.8159191081e-001
 0.0000000000e+000	 1.6687500000e+000	-3.5888463078e-001
 1.5050618345e-001	 1.6682244719e+000	-4.6771865801e-001
 1.3525624967e-001	 1.6695300976e+000	-4.7097614461e-001
 1.2004613286e-001	 1.6706926486e+000	-4.7054900689e-001
 1.0487757305e-001	 1.6717134009e+000	-4.6657957288e-001
 8.9752275181e-002	 1.6725936533e+000	-4.5922777422e-001
 7.4671908918e-002	 1.6733347262e+000	-4.4867055988e-001
 5.9638108455e-002	 1.6739379606e+000	-4.3510128949e-001
 4.4652472380e-002	 1.6744047171e+000	-4.1872910819e-001
 2.9716563558e-002	 1.6747363750e+000	-3.9977830494e-001
 1.4831909040e-002	 1.6749343314e+000	-3.7848765618e-001
 0.0000000000e+000	 1.6750000000e+000	-3.5510975674e-001
 1.5106777369e-001	 1.6744491901e+000	-4.6993188817e-001
 1.3576093717e-001	 1.6757596876e+000	-4.7280036889e-001
 1.2049406619e-001	 1.6769265764e+000	-4.7195915925e-001
 1.0526890727e-001	 1.6779511374e+000	-4.6754557675e-001
 9.0087171729e-002	 1.6788346744e+000	-4.5971484054e-001
 7.4950535444e-002	 1.6795785125e+000	-4.4863948268e-001
 5.9860638710e-002	 1.6801839978e+000	-4.3450873853e-001
 4.4819086082e-002	 1.6806524959e+000	-4.1752791819e-001
 2.9827446257e-002	 1.6809853914e+000	-3.9791776110e-001
 1.4887251984e-002	 1.6811840864e+000	-3.7591377552e-001
 0.0000000000e+000	 1.6812500000e+000	-3.5176556490e-001
 1.5162936392e-001	 1.6806739083e+000	-4.7345074051e-001
 1.3626562467e-001	 1.6819892775e+000	-4.7585471572e-001
 1.2094199952e-001	 1.6831605042e+000	-4.7452118036e-001
 1.0566024150e-001	 1.6841888740e+000	-4.6958247905e-001
 9.0422068278e-002	 1.6850756955e+000	-4.6118915858e-001
 7.5229161969e-002	 1.6858222988e+000	-4.4950937661e-001
 6.0083168965e-002	 1.6864300350e+000	-4.3472828899e-001
 4.4985699785e-002	 1.6869002747e+000	-4.1704741785e-001
 2.9938328957e-002	 1.6872344077e+000	-3.9668400223e-001
 1.4942594928e-002	 1.6874338413e+000	-3.7387033334e-001
 0.0000000000e+000	 1.6875000000e+000	-3.4885307637e-001
 1.6875000000e+000	 0.0000000000e+000	 3.5100046660e+000
 1.6874338413e+000	 1.4942594928e-002	 3.5215644336e+000
 1.6872344077e+000	 2.9938328957e-002	 3.5266627969e+000
 1.6869002747e+000	 4.4985699785e-002	 3.5250137236e+000
 1.6864300350e+000	 6.0083168965e-002	 3.5163577576e+000
 1.6858222988e+000	 7.5229161969e-002	 3.5004631043e+000
 1.6850756955e+000	 9.0422068278e-002	 3.4771266920e+000
 1.6841888740e+000	 1.0566024150e-001	 3.4461752028e+000
 1.6831605042e+000	 1.2094199952e-001	 3.4074660739e+000
 1.6819892775e+000	 1.3626562467e-001	 3.3608884622e+000
 1.6806739083e+000	 1.5162936392e-001	 3.3063641716e+000
 1.6937500000e+000	 0.0000000000e+000	 3.5057018986e+000
 1.6936835963e+000	 1.4997937873e-002	 3.5164937391e+000
 1.6934834240e+000	 3.0049211657e-002	 3.5208200143e+000
 1.6931480535e+000	 4.5152313488e-002	 3.5183968671e+000
 1.6926760721e+000	 6.0305699221e-002	 3.5089673407e+000
 1.6920660851e+000	 7.5507788495e-002	 3.4923024715e+000
 1.6913167166e+000	 9.0756964827e-002	 3.4682023564e+000
 1.6904266106e+000	 1.0605157573e-001	 3.4364971917e+000
 1.6893944319e+000	 1.2138993285e-001	 3.3970482795e+000
 1.6882188674e+000	 1.3677031216e-001	 3.3497489982e+000
 1.6868986265e+000	 1.5219095416e-001	 3.2945257345e+000
 1.7000000000e+000	 0.0000000000e+000	 3.5016753653e+000
 1.6999333513e+000	 1.5053280817e-002	 3.5117696190e+000
 1.6997324403e+000	 3.0160094357e-002	 3.5153895505e+000
 1.6993958323e+000	 4.5318927191e-002	 3.5122534151e+000
 1.6989221093e+000	 6.0528229477e-002	 3.5021066960e+000
 1.6983098714e+000	 7.5786415021e-002	 3.4847232052e+000
 1.6975577377e+000	 9.1091861377e-002	 3.4599061578e+000
 1.6966643472e+000	 1.0644290996e-001	 3.4274892176e+000
 1.6956283597e+000	 1.2183786618e-001	 3.3873375096e+000
 1.6944484573e+000	 1.3727499966e-001	 3.3393485962e+000
 1.6931233446e+000	 1.5275254439e-001	 3.2834534150e+000
 1.7062500000e+000	 0.0000000000e+000	 3.4979179545e+000
 1.7061831062e+000	 1.5108623762e-002	 3.5073843101e+000
 1.7059814567e+000	 3.0270977058e-002	 3.5103629875e+000
 1.7056436111e+000	 4.5485540895e-002	 3.5065742914e+000
 1.7051681465e+000	 6.0750759733e-002	 3.4957660862e+000
 1.7045536577e+000	 7.6065041548e-002	 3.4777149047e+000
 1.7037987588e+000	 9.1426757927e-002	 3.4522270296e+000
 1.7029020837e+000	 1.0683424419e-001	 3.4191395460e+000
 1.7018622875e+000	 1.2228579952e-001	 3.3783213603e+000
 1.7006780472e+000	 1.3777968716e-001	 3.3296741821e+000
 1.6993480628e+000	 1.5331413463e-001	 3.2731334670e+000
 1.7125000000e+000	 0.0000000000e+000	 3.4944226583e+000
 1.7124328612e+000	 1.5163966706e-002	 3.5033301606e+000
 1.7122304730e+000	 3.0381859759e-002	 3.5057320257e+000
 1.7118913899e+000	 4.5652154600e-002	 3.5013505453e+000
 1.7114141836e+000	 6.0973289990e-002	 3.4899359066e+000
 1.7107974440e+000	 7.6343668076e-002	 3.4712673083e+000
 1.7100397799e+000	 9.1761654478e-002	 3.4451540507e+000
 1.7091398203e+000	 1.0722557842e-001	 3.4114365944e+000
 1.7080962153e+000	 1.2273373285e-001	 3.3699875855e+000
 1.7069076371e+000	 1.3828437466e-001	 3.3207128444e+000
 1.7055727810e+000	 1.5387572487e-001	 3.2635523130e+000
 1.7187500000e+000	 0.0000000000e+000	 3.4911825709e+000
 1.7186826162e+000	 1.5219309651e-002	 3.4995996279e+000
 1.7184794893e+000	 3.0492742460e-002	 3.5014884821e+000
 1.7181391687e+000	 4.5818768305e-002	 3.4965733499e+000
 1.7176602208e+000	 6.1195820248e-002	 3.4846066826e+000
 1.7170412303e+000	 7.6622294604e-002	 3.4653702911e+000
 1.7162808010e+000	 9.2096551030e-002	 3.4386764430e+000
 1.7153775569e+000	 1.0761691265e-001	 3.4043689287e+000
 1.7143301431e+000	 1.2318166618e-001	 3.3623240935e+000
 1.7131372271e+000	 1.3878906216e-001	 3.3124518318e+000
 1.7117974992e+000	 1.5443731511e-001	 3.2546965407e+000
 1.7250000000e+000	 0.0000000000e+000	 3.4881908867e+000
 1.7249323711e+000	 1.5274652596e-002	 3.4961852768e+000
 1.7247285056e+000	 3.0603625162e-002	 3.4976242881e+000
 1.7243869475e+000	 4.5985382010e-002	 3.4922339991e+000
 1.7239062580e+000	 6.1418350506e-002	 3.4797690675e+000
 1.7232850166e+000	 7.6900921133e-002	 3.4600138622e+000
 1.7225218221e+000	 9.2431447583e-002	 3.4327835685e+000
 1.7216152934e+000	 1.0800824688e-001	 3.3979252613e+000
 1.7205640709e+000	 1.2362959952e-001	 3.3553189443e+000
 1.7193668170e+000	 1.3929374967e-001	 3.3048785503e+000
 1.7180222174e+000	 1.5499890535e-001	 3.2465528999e+000
 1.7312500000e+000	 0.0000000000e+000	 3.4854408982e+000
 1.7311821261e+000	 1.5329995542e-002	 3.4930797777e+000
 1.7309775220e+000	 3.0714507864e-002	 3.4941314872e+000
 1.7306347263e+000	 4.6151995716e-002	 3.4883239061e+000
 1.7301522951e+000	 6.1640880765e-002	 3.4754138401e+000
 1.7295288029e+000	 7.7179547663e-002	 3.4551881626e+000
 1.7287628432e+000	 9.2766344136e-002	 3.4274649269e+000
 1.7278530300e+000	 1.0839958111e-001	 3.3920944479e+000
 1.7267979987e+000	 1.2407753285e-001	 3.3489603471e+000
 1.7255964069e+000	 1.3979843717e-001	 3.2979805598e+000
 1.7242469355e+000	 1.5556049558e-001	 3.2391083000e+000
 1.7375000000e+000	 0.0000000000e+000	 3.4829259944e+000
 1.7374318811e+000	 1.5385338487e-002	 3.4902759042e+000
 1.7372265383e+000	 3.0825390566e-002	 3.4910022336e+000
 1.7368825051e+000	 4.6318609422e-002	 3.4848346008e+000
 1.7363983323e+000	 6.1863411025e-002	 3.4715319023e+000
 1.7357725892e+000	 7.7458174193e-002	 3.4508834623e+000
 1.7350038643e+000	 9.3101240689e-002	 3.4227101534e+000
 1.7340907666e+000	 1.0879091534e-001	 3.3868654852e+000
 1.7330319265e+000	 1.2452546619e-001	 3.3432366573e+000
 1.7318259968e+000	 1.4030312467e-001	 3.2917455723e+000
 1.7304716537e+000	 1.5612208582e-001	 3.2323498067e+000
 1.7437500000e+000	 0.0000000000e+000	 3.4806396591e+000
 1.7436816360e+000	 1.5440681433e-002	 3.4877665318e+000
 1.7434755546e+000	 3.0936273269e-002	 3.4882287894e+000
 1.7431302839e+000	 4.6485223129e-002	 3.4817577279e+000
 1.7426443695e+000	 6.2085941284e-002	 3.4681142771e+000
 1.7420163754e+000	 7.7736800724e-002	 3.4470901587e+000
 1.7412448854e+000	 9.3436137244e-002	 3.4185090156e+000
 1.7403285032e+000	 1.0918224957e-001	 3.3822275082e+000
 1.7392658543e+000	 1.2497339952e-001	 3.3381363740e+000
 1.7380555867e+000	 1.4080781217e-001	 3.2861614481e+000
 1.7366963719e+000	 1.5668367606e-001	 3.2262646394e+000
 1.7500000000e+000	 0.0000000000e+000	 3.4785754692e+000
 1.7499313910e+000	 1.5496024379e-002	 3.4855446355e+000
 1.7497245709e+000	 3.1047155971e-002	 3.4858035233e+000
 1.7493780627e+000	 4.6651836836e-002	 3.4790850448e+000
 1.7488904066e+000	 6.2308471545e-002	 3.4651521061e+000
 1.7482601617e+000	 7.8015427255e-002	 3.4437987737e+000
 1.7474859064e+000	 9.3771033799e-002	 3.4148514120e+000
 1.7465662397e+000	 1.0957358381e-001	 3.3781697879e+000
 1.7454997821e+000	 1.2542133286e-001	 3.3336481376e+000
 1.7442851766e+000	 1.4131249968e-001	 3.2812161939e+000
 1.7429210901e+000	 1.5724526631e-001	 3.2208401685e+000
 1.6806739083e+000	 1.5162936392e-001	 3.3063641716e+000
 1.6792131347e+000	 1.6703142915e-001	 3.2681928123e+000
 1.6776057195e+000	 1.8246999737e-001	 3.2263597327e+000
 1.6758504513e+000	 1.9794321102e-001	 3.1808791710e+000
 1.6739461456e+000	 2.1344917832e-001	 3.1317971369e+000
 1.6718916454e+000	 2.2898597361e-001	 3.0791920181e+000
 1.6696858227e+000	 2.4455163771e-001	 3.0231751310e+000
 1.6673275792e+000	 2.6014417840e-001	 2.9638912143e+000
 1.6648158475e+000	 2.7576157078e-001	 2.9015188609e+000
 1.6621495918e+000	 2.9140175784e-001	 2.8362708865e+000
 1.6593278092e+000	 3.0706265094e-001	 2.7683946318e+000
 1.6868986265e+000	 1.5219095416e-001	 3.2945257345e+000
 1.6854324426e+000	 1.6765006407e-001	 3.2550864929e+000
 1.6838190740e+000	 1.8314581217e-001	 3.2121594692e+000
 1.6820573048e+000	 1.9867633402e-001	 3.1657645772e+000
 1.6801459461e+000	 2.1423973083e-001	 3.1159537440e+000
 1.6780838367e+000	 2.2983406981e-001	 3.0628115154e+000
 1.6758698442e+000	 2.4545738452e-001	 3.0064556046e+000
 1.6735028665e+000	 2.6110767535e-001	 2.9470373832e+000
 1.6709818321e+000	 2.7678290993e-001	 2.8847423101e+000
 1.6683057014e+000	 2.9248102361e-001	 2.8197902960e+000
 1.6654734677e+000	 3.0819992001e-001	 2.7524360008e+000
 1.6931233446e+000	 1.5275254439e-001	 3.2834534150e+000
 1.6916517505e+000	 1.6826869900e-001	 3.2427509630e+000
 1.6900324285e+000	 1.8382162697e-001	 3.1987285228e+000
 1.6882641584e+000	 1.9940945702e-001	 3.1514116626e+000
 1.6863457466e+000	 2.1503028334e-001	 3.1008582121e+000
 1.6842760279e+000	 2.3068216600e-001	 3.0471588658e+000
 1.6820538658e+000	 2.4636313132e-001	 2.9904377307e+000
 1.6796781539e+000	 2.6207117230e-001	 2.9308528148e+000
 1.6771478167e+000	 2.7780424907e-001	 2.8685964522e+000
 1.6744618110e+000	 2.9356028938e-001	 2.8038956647e+000
 1.6716191263e+000	 3.0933718909e-001	 2.7370124538e+000
 1.6993480628e+000	 1.5331413463e-001	 3.2731334670e+000
 1.6978710584e+000	 1.6888733392e-001	 3.2311719955e+000
 1.6962457830e+000	 1.8449744178e-001	 3.1860521972e+000
 1.6944710119e+000	 2.0014258003e-001	 3.1378052745e+000
 1.6925455472e+000	 2.1582083585e-001	 3.0864949446e+000
 1.6904682192e+000	 2.3153026220e-001	 3.0322180425e+000
 1.6882378874e+000	 2.4726887813e-001	 2.9751050665e+000
 1.6858534412e+000	 2.6303466926e-001	 2.9153206642e+000
 1.6833138014e+000	 2.7882558822e-001	 2.8530640555e+000
 1.6806179206e+000	 2.9463955514e-001	 2.7885693893e+000
 1.6777647849e+000	 3.1047445816e-001	 2.7221060321e+000
 1.7055727810e+000	 1.5387572487e-001	 3.2635523130e+000
 1.7040903663e+000	 1.6950596884e-001	 3.2203355339e+000
 1.7024591376e+000	 1.8517325658e-001	 3.1741159686e+000
 1.7006778654e+000	 2.0087570303e-001	 3.1249304336e+000
 1.6987453477e+000	 2.1661138837e-001	 3.0728485197e+000
 1.6966604105e+000	 2.3237835840e-001	 3.0179731940e+000
 1.6944219090e+000	 2.4817462493e-001	 2.9604413439e+000
 1.6920287285e+000	 2.6399816621e-001	 2.9004242612e+000
 1.6894797860e+000	 2.7984692737e-001	 2.8381280618e+000
 1.6867740302e+000	 2.9571882091e-001	 2.7737940388e+000
 1.6839104434e+000	 3.1161172724e-001	 2.7076989467e+000
 1.7117974992e+000	 1.5443731511e-001	 3.2546965407e+000
 1.7103096742e+000	 1.7012460376e-001	 3.2102276891e+000
 1.7086724921e+000	 1.8584907139e-001	 3.1629054823e+000
 1.7068847189e+000	 2.0160882603e-001	 3.1127723314e+000
 1.7049451483e+000	 2.1740194088e-001	 3.0599036870e+000
 1.7028526018e+000	 2.3322645459e-001	 3.0044086404e+000
 1.7006059305e+000	 2.4908037174e-001	 2.9464304669e+000
 1.6982040159e+000	 2.6496166317e-001	 2.8861471068e+000
 1.6956457706e+000	 2.8086826652e-001	 2.8237715830e+000
 1.6929301398e+000	 2.9679808668e-001	 2.7595523505e+000
 1.6900561020e+000	 3.1274899631e-001	 2.6937735758e+000
 1.7180222174e+000	 1.5499890535e-001	 3.2465528999e+000
 1.7165289821e+000	 1.7074323869e-001	 3.2008347364e+000
 1.7148858466e+000	 1.8652488619e-001	 3.1524065498e+000
 1.7130915725e+000	 2.0234194904e-001	 3.1013163268e+000
 1.7111449488e+000	 2.1819249339e-001	 3.0476453642e+000
 1.7090447931e+000	 2.3407455079e-001	 2.9915088707e+000
 1.7067899521e+000	 2.4998611854e-001	 2.9330565079e+000
 1.7043793032e+000	 2.6592516012e-001	 2.8724728699e+000
 1.7018117552e+000	 2.8188960567e-001	 2.8099778983e+000
 1.6990862494e+000	 2.9787735244e-001	 2.7458272276e+000
 1.6962017605e+000	 3.1388626539e-001	 2.6803124610e+000
 1.7242469355e+000	 1.5556049558e-001	 3.2391083000e+000
 1.7227482900e+000	 1.7136187361e-001	 3.1921431127e+000
 1.7210992011e+000	 1.8720070100e-001	 3.1426051461e+000
 1.7192984260e+000	 2.0307507204e-001	 3.0905479432e+000
 1.7173447494e+000	 2.1898304590e-001	 3.0360586347e+000
 1.7152369843e+000	 2.3492264699e-001	 2.9792585395e+000
 1.7129739737e+000	 2.5089186535e-001	 2.9203037050e+000
 1.7105545905e+000	 2.6688865708e-001	 2.8593853850e+000
 1.7079777398e+000	 2.8291094482e-001	 2.7967304511e+000
 1.7052423590e+000	 2.9895661821e-001	 2.7326017363e+000
 1.7023474191e+000	 3.1502353446e-001	 2.6672983050e+000
 1.7304716537e+000	 1.5612208582e-001	 3.2323498067e+000
 1.7289675979e+000	 1.7198050854e-001	 3.1841394134e+000
 1.7273125556e+000	 1.8787651581e-001	 3.1334874060e+000
 1.7255052795e+000	 2.0380819504e-001	 3.0804528655e+000
 1.7235445499e+000	 2.1977359841e-001	 3.0251287439e+000
 1.7214291756e+000	 2.3577074319e-001	 2.9676424642e+000
 1.7191579952e+000	 2.5179761215e-001	 2.9081564592e+000
 1.7167298779e+000	 2.6785215403e-001	 2.8468686482e+000
 1.7141437245e+000	 2.8393228397e-001	 2.7840128460e+000
 1.7113984686e+000	 3.0003588398e-001	 2.7198591022e+000
 1.7084930776e+000	 3.1616080354e-001	 2.6547139684e+000
 1.7366963719e+000	 1.5668367606e-001	 3.2262646394e+000
 1.7351869058e+000	 1.7259914346e-001	 3.1768103898e+000
 1.7335259102e+000	 1.8855233061e-001	 3.1250396219e+000
 1.7317121331e+000	 2.0454131805e-001	 3.0710169371e+000
 1.7297443504e+000	 2.2056415093e-001	 3.0148410968e+000
 1.7276213669e+000	 2.3661883939e-001	 2.9566456217e+000
 1.7253420168e+000	 2.5270335896e-001	 2.8965993308e+000
 1.7229051652e+000	 2.6881565099e-001	 2.8349068152e+000
 1.7203097091e+000	 2.8495362312e-001	 2.7718088456e+000
 1.7175545782e+000	 3.0111514975e-001	 2.7075827080e+000
 1.7146387362e+000	 3.1729807261e-001	 2.6425424668e+000
 1.7429210901e+000	 1.5724526631e-001	 3.2208401685e+000
 1.7414062138e+000	 1.7321777839e-001	 3.1701429458e+000
 1.7397392647e+000	 1.8922814542e-001	 3.1172482407e+000
 1.7379189866e+000	 2.0527444105e-001	 3.0622261574e+000
 1.7359441510e+000	 2.2135470344e-001	 3.0051812548e+000
 1.7338135582e+000	 2.3746693558e-001	 2.9462531463e+000
 1.7315260384e+000	 2.5360910576e-001	 2.8856170373e+000
 1.7290804525e+000	 2.6977914795e-001	 2.8234841982e+000
 1.7264756937e+000	 2.8597496227e-001	 2.7601023685e+000
 1.7237106878e+000	 3.0219441552e-001	 2.6957560907e+000
 1.7207843947e+000	 3.1843534169e-001	 2.6307669684e+000
 1.6593278092e+000	 3.0706265094e-001	 2.7683946318e+000
 1.6563495305e+000	 3.2274213034e-001	 2.7104098269e+000
 1.6532138214e+000	 3.3843804578e-001	 2.6482427066e+000
 1.6499197830e+000	 3.5414821715e-001	 2.5821790251e+000
 1.6464665533e+000	 3.6987043506e-001	 2.5125402813e+000
 1.6428533080e+000	 3.8560246156e-001	 2.4396837278e+000
 1.6390792611e+000	 4.0134203086e-001	 2.3640023001e+000
 1.6351436663e+000	 4.1708685003e-001	 2.2859244635e+000
 1.6310458176e+000	 4.3283459984e-001	 2.2059139761e+000
 1.6267850503e+000	 4.4858293550e-001	 2.1244695672e+000
 1.6223607419e+000	 4.6432948755e-001	 2.0421245279e+000
 1.6654734677e+000	 3.0819992001e-001	 2.7524360008e+000
 1.6624841584e+000	 3.2393747155e-001	 2.6944389590e+000
 1.6593368355e+000	 3.3969152002e-001	 2.6322558879e+000
 1.6560305970e+000	 3.5545987721e-001	 2.5661790955e+000
 1.6525645776e+000	 3.7124032555e-001	 2.4965370299e+000
 1.6489379499e+000	 3.8703061882e-001	 2.4236942847e+000
 1.6451499251e+000	 4.0282848282e-001	 2.3480515237e+000
 1.6411997540e+000	 4.1863161614e-001	 2.2700453220e+000
 1.6370867281e+000	 4.3443769094e-001	 2.1901479233e+000
 1.6328101801e+000	 4.5024435377e-001	 2.1088669098e+000
 1.6283694854e+000	 4.6604922639e-001	 2.0267447851e+000
 1.6716191263e+000	 3.0933718909e-001	 2.7370124538e+000
 1.6686187863e+000	 3.2513281277e-001	 2.6789543827e+000
 1.6654598497e+000	 3.4094499426e-001	 2.6167023012e+000
 1.6621414110e+000	 3.5677153726e-001	 2.5505551250e+000
 1.6586626019e+000	 3.7261021605e-001	 2.4808483110e+000
 1.6550225918e+000	 3.8845877608e-001	 2.4079538593e+000
 1.6512205890e+000	 4.0431493478e-001	 2.3322802332e+000
 1.6472558416e+000	 4.2017638224e-001	 2.2542721953e+000
 1.6431276385e+000	 4.3604078204e-001	 2.1744105576e+000
 1.6388353100e+000	 4.5190577204e-001	 2.0932118443e+000
 1.6343782289e+000	 4.6776896523e-001	 2.0112278662e+000
 1.6777647849e+000	 3.1047445816e-001	 2.7221060321e+000
 1.6747534142e+000	 3.2632815399e-001	 2.6639377102e+000
 1.6715828638e+000	 3.4219846850e-001	 2.6015631266e+000
 1.6682522250e+000	 3.5808319732e-001	 2.5352878590e+000
 1.6647606261e+000	 3.7398010654e-001	 2.4654544332e+000
 1.6611072336e+000	 3.8988693334e-001	 2.3924423218e+000
 1.6572912529e+000	 4.0580138674e-001	 2.3166678596e+000
 1.6533119293e+000	 4.2172114835e-001	 2.2385840741e+000
 1.6491685489e+000	 4.3764387315e-001	 2.1586804292e+000
 1.6448604398e+000	 4.5356719032e-001	 2.0774824808e+000
 1.6403869724e+000	 4.6948870407e-001	 1.9955514419e+000
 1.6839104434e+000	 3.1161172724e-001	 2.7076989467e+000
 1.6808880421e+000	 3.2752349521e-001	 2.6493707222e+000
 1.6777058780e+000	 3.4345194274e-001	 2.5868197114e+000
 1.6743630390e+000	 3.5939485738e-001	 2.5203582086e+000
 1.6708586504e+000	 3.7534999704e-001	 2.4503358691e+000
 1.6671918755e+000	 3.9131509060e-001	 2.3771397045e+000
 1.6633619168e+000	 4.0728783870e-001	 2.3011939933e+000
 1.6593680169e+000	 4.2326591445e-001	 2.2229601062e+000
 1.6552094594e+000	 4.3924696425e-001	 2.1429362431e+000
 1.6508855696e+000	 4.5522860859e-001	 2.0616570813e+000
 1.6463957159e+000	 4.7120844290e-001	 1.9796933319e+000
 1.6900561020e+000	 3.1274899631e-001	 2.6937735758e+000
 1.6870226700e+000	 3.2871883643e-001	 2.6352353651e+000
 1.6838288921e+000	 3.4470541698e-001	 2.5724535670e+000
 1.6804738530e+000	 3.6070651744e-001	 2.5057472476e+000
 1.6769566747e+000	 3.7671988753e-001	 2.4354732525e+000
 1.6732765174e+000	 3.9274324786e-001	 2.3620261989e+000
 1.6694325808e+000	 4.0877429066e-001	 2.2858383820e+000
 1.6654241046e+000	 4.2481068056e-001	 2.2073795941e+000
 1.6612503698e+000	 4.4085005536e-001	 2.1271568561e+000
 1.6569106994e+000	 4.5689002687e-001	 2.0457140568e+000
 1.6524044594e+000	 4.7292818174e-001	 1.9636315019e+000
 1.6962017605e+000	 3.1388626539e-001	 2.6803124610e+000
 1.6931572979e+000	 3.2991417765e-001	 2.6215137481e+000
 1.6899519063e+000	 3.4595889122e-001	 2.5584463666e+000
 1.6865846670e+000	 3.6201817750e-001	 2.4914362097e+000
 1.6830546990e+000	 3.7808977803e-001	 2.4208473749e+000
 1.6793611593e+000	 3.9417140512e-001	 2.3470821524e+000
 1.6755032447e+000	 4.1026074263e-001	 2.2705809269e+000
 1.6714801922e+000	 4.2635544667e-001	 2.1918219920e+000
 1.6672912802e+000	 4.4245314647e-001	 2.1113212741e+000
 1.6629358292e+000	 4.5855144515e-001	 2.0296319648e+000
 1.6584132029e+000	 4.7464792059e-001	 1.9473440609e+000
 1.7023474191e+000	 3.1502353446e-001	 2.6672983050e+000
 1.6992919258e+000	 3.3110951887e-001	 2.6081881400e+000
 1.6960749204e+000	 3.4721236546e-001	 2.5447799416e+000
 1.6926954811e+000	 3.6332983756e-001	 2.4774064856e+000
 1.6891527232e+000	 3.7945966853e-001	 2.4064391834e+000
 1.6854458012e+000	 3.9559956239e-001	 2.3322880658e+000
 1.6815739086e+000	 4.1174719459e-001	 2.2554016809e+000
 1.6775362799e+000	 4.2790021278e-001	 2.1762669030e+000
 1.6733321907e+000	 4.4405623758e-001	 2.0954086496e+000
 1.6689609590e+000	 4.6021286342e-001	 2.0133895065e+000
 1.6644219464e+000	 4.7636765943e-001	 1.9308092590e+000
 1.7084930776e+000	 3.1616080354e-001	 2.6547139684e+000
 1.7054265537e+000	 3.3230486010e-001	 2.5952409666e+000
 1.7021979346e+000	 3.4846583970e-001	 2.5314362788e+000
 1.6988062951e+000	 3.6464149763e-001	 2.4636396201e+000
 1.6952507475e+000	 3.8082955903e-001	 2.3922297774e+000
 1.6915304431e+000	 3.9702771965e-001	 2.3176245905e+000
 1.6876445726e+000	 4.1323364655e-001	 2.2402808453e+000
 1.6835923675e+000	 4.2944497889e-001	 2.1606940765e+000
 1.6793731011e+000	 4.4565932869e-001	 2.0793982788e+000
 1.6749860889e+000	 4.6187428170e-001	 1.9969655243e+000
 1.6704306898e+000	 4.7808739827e-001	 1.9140054845e+000
 1.7146387362e+000	 3.1729807261e-001	 2.6425424668e+000
 1.7115611816e+000	 3.3350020132e-001	 2.5826548077e+000
 1.7083209487e+000	 3.4971931394e-001	 2.5183975181e+000
 1.7049171091e+000	 3.6595315769e-001	 2.4501173091e+000
 1.7013487718e+000	 3.8219944953e-001	 2.3782004060e+000
 1.6976150849e+000	 3.9845587692e-001	 2.3030725260e+000
 1.6937152365e+000	 4.1472009852e-001	 2.2251987672e+000
 1.6896484552e+000	 4.3098974500e-001	 2.1450834054e+000
 1.6854140115e+000	 4.4726241980e-001	 2.0632695992e+000
 1.6810112187e+000	 4.6353569998e-001	 1.9803389993e+000
 1.6764394333e+000	 4.7980713711e-001	 1.8969112617e+000
 1.7207843947e+000	 3.1843534169e-001	 2.6307669684e+000
 1.7176958094e+000	 3.3469554254e-001	 2.5704123944e+000
 1.7144439629e+000	 3.5097278819e-001	 2.5056459494e+000
 1.7110279231e+000	 3.6726481775e-001	 2.4368213975e+000
 1.7074467961e+000	 3.8356934003e-001	 2.3643324653e+000
 1.7036997268e+000	 3.9988403418e-001	 2.2886128168e+000
 1.6997859004e+000	 4.1620655049e-001	 2.2101359369e+000
 1.6957045429e+000	 4.3253451111e-001	 2.1294149240e+000
 1.6914549220e+000	 4.4886551091e-001	 2.0470021872e+000
 1.6870363485e+000	 4.6519711827e-001	 1.9634890488e+000
 1.6824481768e+000	 4.8152687596e-001	 1.8795052483e+000
 1.6223607419e+000	 4.6432948755e-001	 2.0421245279e+000
 1.6177723130e+000	 4.8007186275e-001	 1.9747899134e+000
 1.6130192278e+000	 4.9580764489e-001	 1.9059032597e+000
 1.6081009956e+000	 5.1153439586e-001	 1.8360370020e+000
 1.6030171708e+000	 5.2724965650e-001	 1.7657964626e+000
 1.5977673543e+000	 5.4295094765e-001	 1.6958190696e+000
 1.5923511940e+000	 5.5863577121e-001	 1.6267734851e+000
 1.5867683856e+000	 5.7430161110e-001	 1.5593586432e+000
 1.5810186730e+000	 5.8994593444e-001	 1.4943026985e+000
 1.5751018495e+000	 6.0556619261e-001	 1.4323618856e+000
 1.5690177580e+000	 6.2115982240e-001	 1.3743192904e+000
 1.6283694854e+000	 4.6604922639e-001	 2.0267447851e+000
 1.6237640623e+000	 4.8184990667e-001	 1.9592607240e+000
 1.6189933731e+000	 4.9764396950e-001	 1.8906286175e+000
 1.6140569252e+000	 5.1342896769e-001	 1.8214344471e+000
 1.6089542714e+000	 5.2920243300e-001	 1.7522971488e+000
 1.6036850112e+000	 5.4496187709e-001	 1.6838678108e+000
 1.5982487911e+000	 5.6070479258e-001	 1.6168287800e+000
 1.5926453055e+000	 5.7642865410e-001	 1.5518926778e+000
 1.5868742977e+000	 5.9213091938e-001	 1.4898013255e+000
 1.5809355601e+000	 6.0780903036e-001	 1.4313245797e+000
 1.5748289349e+000	 6.2346041433e-001	 1.3772590792e+000
 1.6343782289e+000	 4.6776896523e-001	 2.0112278662e+000
 1.6297558116e+000	 4.8362795061e-001	 1.9435221903e+000
 1.6249675184e+000	 4.9948029410e-001	 1.8750666406e+000
 1.6200128548e+000	 5.1532353952e-001	 1.8064608335e+000
 1.6148913720e+000	 5.3115520950e-001	 1.7383374138e+000
 1.6096026680e+000	 5.4697280652e-001	 1.6713612313e+000
 1.6041463881e+000	 5.6277381395e-001	 1.6062284262e+000
 1.5985222255e+000	 5.7855569710e-001	 1.5436654219e+000
 1.5927299225e+000	 5.9431590432e-001	 1.4844278277e+000
 1.5867692706e+000	 6.1005186810e-001	 1.4292992498e+000
 1.5806401118e+000	 6.2576100626e-001	 1.3755363234e+000
 1.6403869724e+000	 4.6948870407e-001	 1.9955514419e+000
 1.6357475609e+000	 4.8540599454e-001	 1.9275513673e+000
 1.6309416637e+000	 5.0131661871e-001	 1.8591937962e+000
 1.6259687844e+000	 5.1721811135e-001	 1.7910920693e+000
 1.6208284727e+000	 5.3310798600e-001	 1.7238926357e+000
 1.6155203249e+000	 5.4898373595e-001	 1.6582742096e+000
 1.6100439851e+000	 5.6484283532e-001	 1.5949468335e+000
 1.6043991454e+000	 5.8068274010e-001	 1.5346508487e+000
 1.5985855472e+000	 5.9650088926e-001	 1.4781557744e+000
 1.5926029812e+000	 6.1229470585e-001	 1.4262590946e+000
 1.5864512887e+000	 6.2806159820e-001	 1.3652045382e+000
 1.6463957159e+000	 4.7120844290e-001	 1.9796933319e+000
 1.6417393102e+000	 4.8718403847e-001	 1.9113254582e+000
 1.6369158090e+000	 5.0315294332e-001	 1.8429866985e+000
 1.6319247140e+000	 5.1911268319e-001	 1.7753042072e+000
 1.6267655733e+000	 5.3506076250e-001	 1.7089383349e+000
 1.6214379818e+000	 5.5099466538e-001	 1.6445817635e+000
 1.6159415821e+000	 5.6691185669e-001	 1.5829585477e+000
 1.6102760654e+000	 5.8280978310e-001	 1.5248230630e+000
 1.6044411719e+000	 5.9868587420e-001	 1.4709588613e+000
 1.5984366917e+000	 6.1453754360e-001	 1.4221774339e+000
 1.5922624656e+000	 6.3036219013e-001	 1.3533182013e+000
 1.6524044594e+000	 4.7292818174e-001	 1.9636315019e+000
 1.6477310595e+000	 4.8896208240e-001	 1.8948218117e+000
 1.6428899542e+000	 5.0498926793e-001	 1.8264221055e+000
 1.6378806436e+000	 5.2100725502e-001	 1.7590734425e+000
 1.6327026739e+000	 5.3701353900e-001	 1.6934501720e+000
 1.6273556386e+000	 5.5300559482e-001	 1.6302590479e+000
 1.6218391791e+000	 5.6898087806e-001	 1.5702382476e+000
 1.6161529853e+000	 5.8493682610e-001	 1.5141562985e+000
 1.6102967966e+000	 6.0087085914e-001	 1.4628109087e+000
 1.6042704023e+000	 6.1678038135e-001	 1.4170277067e+000
 1.5980736424e+000	 6.3266278206e-001	 1.3398950281e+000
 1.6584132029e+000	 4.7464792059e-001	 1.9473440609e+000
 1.6537228088e+000	 4.9074012634e-001	 1.8780179193e+000
 1.6488640995e+000	 5.0682559254e-001	 1.8094769172e+000
 1.6438365732e+000	 5.2290182686e-001	 1.7423761102e+000
 1.6386397746e+000	 5.3896631551e-001	 1.6774039450e+000
 1.6332732955e+000	 5.5501652425e-001	 1.6152813520e+000
 1.6277367761e+000	 5.7104989944e-001	 1.5567607434e+000
 1.6220299053e+000	 5.8706386911e-001	 1.5026249160e+000
 1.6161524213e+000	 6.0305584408e-001	 1.4536858589e+000
 1.6101041128e+000	 6.1902321910e-001	 1.4107834686e+000
 1.6038848193e+000	 6.3496337399e-001	 1.3249528448e+000
 1.6644219464e+000	 4.7636765943e-001	 1.9308092590e+000
 1.6597145581e+000	 4.9251817027e-001	 1.8608914126e+000
 1.6548382448e+000	 5.0866191715e-001	 1.7921281724e+000
 1.6497925028e+000	 5.2479639869e-001	 1.7251886828e+000
 1.6445768752e+000	 5.4091909201e-001	 1.6607755868e+000
 1.6391909524e+000	 5.5702745369e-001	 1.5996240973e+000
 1.6336343731e+000	 5.7311892081e-001	 1.5425009736e+000
 1.6279068252e+000	 5.8919091211e-001	 1.4902034008e+000
 1.6220080460e+000	 6.0524082902e-001	 1.4435577743e+000
 1.6159378234e+000	 6.2126605685e-001	 1.4034183900e+000
 1.6096959962e+000	 6.3726396593e-001	 1.3085095866e+000
 1.6704306898e+000	 4.7808739827e-001	 1.9140054845e+000
 1.6657063074e+000	 4.9429621421e-001	 1.8434200611e+000
 1.6608123901e+000	 5.1049824176e-001	 1.7743530465e+000
 1.6557484324e+000	 5.2669097053e-001	 1.7074877674e+000
 1.6505139758e+000	 5.4287186852e-001	 1.6435411627e+000
 1.6451086092e+000	 5.5903838312e-001	 1.5832628348e+000
 1.6395319702e+000	 5.7518794219e-001	 1.5274340029e+000
 1.6337837452e+000	 5.9131795511e-001	 1.4768663603e+000
 1.6278636707e+000	 6.0742581396e-001	 1.4324008347e+000
 1.6217715339e+000	 6.2350889460e-001	 1.3949062539e+000
 1.6155071731e+000	 6.3956455786e-001	 1.2905832955e+000
 1.6764394333e+000	 4.7980713711e-001	 1.8969112617e+000
 1.6716980567e+000	 4.9607425815e-001	 1.8255817694e+000
 1.6667865354e+000	 5.1233456637e-001	 1.7561288491e+000
 1.6617043621e+000	 5.2858554237e-001	 1.6892501034e+000
 1.6564510764e+000	 5.4482464503e-001	 1.6256768684e+000
 1.6510262661e+000	 5.6104931256e-001	 1.5661732428e+000
 1.6454295672e+000	 5.7725696356e-001	 1.5115350202e+000
 1.6396606651e+000	 5.9344499812e-001	 1.4625885222e+000
 1.6337192955e+000	 6.0961079890e-001	 1.4201893360e+000
 1.6276052445e+000	 6.2575173235e-001	 1.3814079931e+000
 1.6213183500e+000	 6.4186514980e-001	 1.2711921188e+000
 1.6824481768e+000	 4.8152687596e-001	 1.8795052483e+000
 1.6776898060e+000	 4.9785230209e-001	 1.8073545751e+000
 1.6727606807e+000	 5.1417089098e-001	 1.7374330213e+000
 1.6676602917e+000	 5.3048011421e-001	 1.6704525605e+000
 1.6623881771e+000	 5.4677742154e-001	 1.6071590272e+000
 1.6569439230e+000	 5.6306024200e-001	 1.5483311249e+000
 1.6513271642e+000	 5.7932598494e-001	 1.4947793360e+000
 1.6455375851e+000	 5.9557204113e-001	 1.4473447322e+000
 1.6395749202e+000	 6.1179578385e-001	 1.4068976873e+000
 1.6334389551e+000	 6.2799457010e-001	 1.3589930235e+000
 1.6271295268e+000	 6.4416574173e-001	 1.2503543068e+000
 1.5690177580e+000	 6.2115982240e-001	 1.3743192904e+000
 1.5627662919e+000	 6.3672424718e-001	 1.2801860171e+000
 1.5563473953e+000	 6.5225687808e-001	 1.1726636951e+000
 1.5497610642e+000	 6.6775511520e-001	 1.0691531931e+000
 1.5430073463e+000	 6.8321634888e-001	 9.6990864971e-001
 1.5360863418e+000	 6.9863796092e-001	 8.7518446164e-001
 1.5289982042e+000	 7.1401732587e-001	 7.8523561585e-001
 1.5217431399e+000	 7.2935181234e-001	 7.0031801875e-001
 1.5143214094e+000	 7.4463878434e-001	 6.2068882069e-001
 1.5067333270e+000	 7.5987560257e-001	 5.4660673406e-001
 1.4989792615e+000	 7.7505962579e-001	 4.7833234303e-001
 1.5748289349e+000	 6.2346041433e-001	 1.3772590792e+000
 1.5685543152e+000	 6.3908248513e-001	 1.2752187406e+000
 1.5621116450e+000	 6.5467264429e-001	 1.1695365490e+000
 1.5555009200e+000	 6.7022828229e-001	 1.0674950327e+000
 1.5487221883e+000	 6.8574677980e-001	 9.6934015725e-001
 1.5417755505e+000	 7.0122550892e-001	 8.7531855503e-001
 1.5346611605e+000	 7.1666183448e-001	 7.8567787821e-001
 1.5273792256e+000	 7.3205311535e-001	 7.0066714800e-001
 1.5199300072e+000	 7.4739670577e-001	 6.2053709899e-001
 1.5123138208e+000	 7.6268995665e-001	 5.4554051640e-001
 1.5045310365e+000	 7.7793021700e-001	 4.7593256470e-001
 1.5806401118e+000	 6.2576100626e-001	 1.3755363234e+000
 1.5743423385e+000	 6.4144072308e-001	 1.2686403022e+000
 1.5678758946e+000	 6.5708841050e-001	 1.1647793096e+000
 1.5612407758e+000	 6.7270144938e-001	 1.0641904087e+000
 1.5544370303e+000	 6.8827721072e-001	 9.6711136259e-001
 1.5474647592e+000	 7.0381305692e-001	 8.7378100977e-001
 1.5403241168e+000	 7.1930634309e-001	 7.8443963719e-001
 1.5330153113e+000	 7.3475441836e-001	 6.9932935006e-001
 1.5255386050e+000	 7.5015462719e-001	 6.1869443593e-001
 1.5178943146e+000	 7.6550431073e-001	 5.4278172134e-001
 1.5100828116e+000	 7.8080080820e-001	 4.7184091921e-001
 1.5864512887e+000	 6.2806159820e-001	 1.3652045382e+000
 1.5801303618e+000	 6.4379896103e-001	 1.2604692529e+000
 1.5736401442e+000	 6.5950417671e-001	 1.1584115463e+000
 1.5669806316e+000	 6.7517461647e-001	 1.0592598627e+000
 1.5601518723e+000	 6.9080764164e-001	 9.6324373269e-001
 1.5531539678e+000	 7.0640060492e-001	 8.7059417014e-001
 1.5459870731e+000	 7.2195085170e-001	 7.8154406563e-001
 1.5386513970e+000	 7.3745572136e-001	 6.9632857670e-001
 1.5311472028e+000	 7.5291254861e-001	 6.1518551183e-001
 1.5234748084e+000	 7.6831866481e-001	 5.3835570656e-001
 1.5156345866e+000	 7.8367139941e-001	 4.6608338976e-001
 1.5922624656e+000	 6.3036219013e-001	 1.3533182013e+000
 1.5859183851e+000	 6.4615719898e-001	 1.2507242515e+000
 1.5794043938e+000	 6.6191994292e-001	 1.1504529299e+000
 1.5727204874e+000	 6.7764778356e-001	 1.0527240316e+000
 1.5658667143e+000	 6.9333807256e-001	 9.5775882418e-001
 1.5588431765e+000	 7.0898815292e-001	 8.6578046507e-001
 1.5516500294e+000	 7.2459536031e-001	 7.7701441650e-001
 1.5442874827e+000	 7.4015702437e-001	 6.9168885588e-001
 1.5367558006e+000	 7.5567047003e-001	 6.1003507980e-001
 1.5290553022e+000	 7.7113301889e-001	 5.3228789973e-001
 1.5211863617e+000	 7.8654199061e-001	 4.5868602723e-001
 1.5980736424e+000	 6.3266278206e-001	 1.3398950281e+000
 1.5917064084e+000	 6.4851543693e-001	 1.2394240629e+000
 1.5851686434e+000	 6.6433570914e-001	 1.1409232306e+000
 1.5784603432e+000	 6.8012095065e-001	 1.0446036461e+000
 1.5715815564e+000	 6.9586850348e-001	 9.5067828176e-001
 1.5645323852e+000	 7.1157570092e-001	 8.5936240659e-001
 1.5573129857e+000	 7.2723986892e-001	 7.7087402149e-001
 1.5499235684e+000	 7.4285832737e-001	 6.8543429040e-001
 1.5423643984e+000	 7.5842839145e-001	 6.0326796445e-001
 1.5346357960e+000	 7.7394737297e-001	 5.2460379717e-001
 1.5267381367e+000	 7.8941258181e-001	 4.4967494888e-001
 1.6038848193e+000	 6.3496337399e-001	 1.3249528448e+000
 1.5974944317e+000	 6.5087367488e-001	 1.2265875560e+000
 1.5909328930e+000	 6.6675147535e-001	 1.1298423163e+000
 1.5842001989e+000	 6.8259411774e-001	 1.0349195282e+000
 1.5772963984e+000	 6.9839893439e-001	 9.4202383657e-001
 1.5702215939e+000	 7.1416324892e-001	 8.5136258838e-001
 1.5629759420e+000	 7.2988437754e-001	 7.6314628956e-001
 1.5555596541e+000	 7.4555963038e-001	 6.7758905653e-001
 1.5479729962e+000	 7.6118631287e-001	 5.9490906055e-001
 1.5402162898e+000	 7.7676172705e-001	 5.1532896265e-001
 1.5322899117e+000	 7.9228317302e-001	 4.3907633720e-001
 1.6096959962e+000	 6.3726396593e-001	 1.3085095866e+000
 1.6032824550e+000	 6.5323191283e-001	 1.2122337019e+000
 1.5966971426e+000	 6.6916724156e-001	 1.1172301508e+000
 1.5899400547e+000	 6.8506728484e-001	 1.0236925906e+000
 1.5830112404e+000	 7.0092936531e-001	 9.3181730468e-001
 1.5759108025e+000	 7.1675079692e-001	 8.4180368422e-001
 1.5686388983e+000	 7.3252888615e-001	 7.5385470555e-001
 1.5611957398e+000	 7.4826093339e-001	 6.6817740267e-001
 1.5535815940e+000	 7.6394423429e-001	 5.8498333179e-001
 1.5457967836e+000	 7.7957608114e-001	 5.0448902613e-001
 1.5378416868e+000	 7.9515376422e-001	 4.2691643872e-001
 1.6155071731e+000	 6.3956455786e-001	 1.2905832955e+000
 1.6090704783e+000	 6.5559015078e-001	 1.1963815721e+000
 1.6024613922e+000	 6.7158300778e-001	 1.1031067922e+000
 1.5956799105e+000	 6.8754045193e-001	 1.0109438341e+000
 1.5887260824e+000	 7.0345979623e-001	 9.2008058551e-001
 1.5816000112e+000	 7.1933834492e-001	 8.3070844660e-001
 1.5743018546e+000	 7.3517339476e-001	 7.4302282884e-001
 1.5668318255e+000	 7.5096223639e-001	 6.5722364806e-001
 1.5591901918e+000	 7.6670215571e-001	 5.7351580954e-001
 1.5513772774e+000	 7.8239043522e-001	 4.9210968261e-001
 1.5433934618e+000	 7.9802435542e-001	 4.1322156285e-001
 1.6213183500e+000	 6.4186514980e-001	 1.2711921188e+000
 1.6148585016e+000	 6.5794838873e-001	 1.1790503365e+000
 1.6082256418e+000	 6.7399877399e-001	 1.0874923910e+000
 1.6014197663e+000	 6.9001361902e-001	 9.9669434674e-001
 1.5944409245e+000	 7.0599022716e-001	 9.0683566036e-001
 1.5872892199e+000	 7.2192589292e-001	 8.1809970531e-001
 1.5799648110e+000	 7.3781790337e-001	 7.3067429195e-001
 1.5724679112e+000	 7.5366353940e-001	 6.4475218152e-001
 1.5647987897e+000	 7.6946007713e-001	 5.6053159164e-001
 1.5569577712e+000	 7.8520478930e-001	 4.7821669095e-001
 1.5489452369e+000	 8.0089494663e-001	 3.9801808077e-001
 1.6271295268e+000	 6.4416574173e-001	 1.2503543068e+000
 1.6206465249e+000	 6.6030662669e-001	 1.1602592621e+000
 1.6139898915e+000	 6.7641454021e-001	 1.0704071888e+000
 1.6071596221e+000	 6.9248678611e-001	 9.8096530192e-001
 1.6001557665e+000	 7.0852065808e-001	 8.9210459097e-001
 1.5929784285e+000	 7.2451344093e-001	 8.0400036603e-001
 1.5856277673e+000	 7.4046241198e-001	 7.1683279932e-001
 1.5781039969e+000	 7.5636484241e-001	 6.3078746020e-001
 1.5704073875e+000	 7.7221799855e-001	 5.4605584119e-001
 1.5625382650e+000	 7.8801914338e-001	 4.6283587271e-001
 1.5544970119e+000	 8.0376553783e-001	 3.8133242429e-001
 1.4989792615e+000	 7.7505962579e-001	 4.7833234303e-001
 1.4910596364e+000	 7.9018821223e-001	 4.0351776706e-001
 1.4829749298e+000	 8.0525872090e-001	 3.2320287224e-001
 1.4747256750e+000	 8.2026851305e-001	 2.3766145015e-001
 1.4663124603e+000	 8.3521495355e-001	 1.4718178813e-001
 1.4577359294e+000	 8.5009541230e-001	 5.2067008158e-002
 1.4489967811e+000	 8.6490726566e-001	-4.7364627447e-002
 1.4400957696e+000	 8.7964789789e-001	-1.5077944542e-001
 1.4310337043e+000	 8.9431470256e-001	-2.5782812805e-001
 1.4218114496e+000	 9.0890508403e-001	-3.6814551854e-001
 1.4124299252e+000	 9.2341645884e-001	-4.8135046692e-001
 1.5045310365e+000	 7.7793021700e-001	 4.7593256470e-001
 1.4965820795e+000	 7.9311483523e-001	 4.0029021927e-001
 1.4884674295e+000	 8.0824116060e-001	 3.1951253345e-001
 1.4801876219e+000	 8.2330654458e-001	 2.3387389853e-001
 1.4717432472e+000	 8.3830834227e-001	 1.4366308974e-001
 1.4631349514e+000	 8.5324391382e-001	 4.9183609851e-002
 1.4543634359e+000	 8.6811062590e-001	-4.9246000522e-002
 1.4454294577e+000	 8.8290585306e-001	-1.5129188774e-001
 1.4363338291e+000	 8.9762697923e-001	-2.5660464714e-001
 1.4270774179e+000	 9.1227139915e-001	-3.6481912398e-001
 1.4176611471e+000	 9.2683651980e-001	-4.7555425511e-001
 1.5100828116e+000	 7.8080080820e-001	 4.7184091921e-001
 1.5021045226e+000	 7.9604145824e-001	 3.9539022141e-001
 1.4939599293e+000	 8.1122360031e-001	 3.1416565028e-001
 1.4856495689e+000	 8.2634457611e-001	 2.2844213383e-001
 1.4771740341e+000	 8.4140173098e-001	 1.3850887587e-001
 1.4685339733e+000	 8.5639241535e-001	 4.4669704247e-002
 1.4597300906e+000	 8.7131398614e-001	-5.2756613927e-002
 1.4507631457e+000	 8.8616380824e-001	-1.5343609249e-001
 1.4416339539e+000	 9.0093925591e-001	-2.5701928359e-001
 1.4323433863e+000	 9.1563771427e-001	-3.6314107408e-001
 1.4228923691e+000	 9.3025658075e-001	-4.7142052284e-001
 1.5156345866e+000	 7.8367139941e-001	 4.6608338976e-001
 1.5076269657e+000	 7.9896808124e-001	 3.8884414948e-001
 1.4994524290e+000	 8.1420604001e-001	 3.0718900191e-001
 1.4911115158e+000	 8.2938260763e-001	 2.2139334860e-001
 1.4826048210e+000	 8.4449511969e-001	 1.3174676221e-001
 1.4739329953e+000	 8.5954091687e-001	 3.8553339778e-002
 1.4650967454e+000	 8.7451734638e-001	-5.7867977245e-002
 1.4560968337e+000	 8.8942176341e-001	-1.5718311831e-001
 1.4469340788e+000	 9.0425153258e-001	-2.5904263640e-001
 1.4376093546e+000	 9.1900402939e-001	-3.6308149984e-001
 1.4281235910e+000	 9.3367664171e-001	-4.6891892503e-001
 1.5211863617e+000	 7.8654199061e-001	 4.5868602723e-001
 1.5131494088e+000	 8.0189470425e-001	 3.8067844800e-001
 1.5049449287e+000	 8.1718847971e-001	 2.9860943660e-001
 1.4965734628e+000	 8.3242063916e-001	 2.1275480457e-001
 1.4880356079e+000	 8.4758850841e-001	 1.2340443348e-001
 1.4793320173e+000	 8.6268941840e-001	 3.0862633284e-002
 1.4704634001e+000	 8.7772070662e-001	-6.4551532614e-002
 1.4614305218e+000	 8.9267971858e-001	-1.6250395772e-001
 1.4522342036e+000	 9.0756380925e-001	-2.6264524020e-001
 1.4428753229e+000	 9.2237034452e-001	-3.6461046995e-001
 1.4333548130e+000	 9.3709670266e-001	-4.6801905675e-001
 1.5267381367e+000	 7.8941258181e-001	 4.4967494888e-001
 1.5186718518e+000	 8.0482132725e-001	 3.7091962880e-001
 1.5104374285e+000	 8.2017091942e-001	 2.8845387041e-001
 1.5020354097e+000	 8.3545867069e-001	 2.0255383144e-001
 1.4934663948e+000	 8.5068189712e-001	 1.1350964212e-001
 1.4847310392e+000	 8.6583791992e-001	 2.1625768764e-002
 1.4758300549e+000	 8.8092406686e-001	-7.2778655954e-002
 1.4667642098e+000	 8.9593767376e-001	-1.6936953833e-001
 1.4575343284e+000	 9.1087608593e-001	-2.6779756635e-001
 1.4481412913e+000	 9.2573665964e-001	-3.6769799193e-001
 1.4385860349e+000	 9.4051676362e-001	-4.6869045430e-001
 1.5322899117e+000	 7.9228317302e-001	 4.3907633720e-001
 1.5241942949e+000	 8.0774795026e-001	 3.5959426976e-001
 1.5159299282e+000	 8.2315335912e-001	 2.7674928598e-001
 1.5074973566e+000	 8.3849670221e-001	 1.9081782563e-001
 1.4988971817e+000	 8.5377528583e-001	 1.0209020707e-001
 1.4901300612e+000	 8.6898642144e-001	 1.0870996170e-002
 1.4811967096e+000	 8.8412742710e-001	-8.2520658166e-002
 1.4720978978e+000	 8.9919562893e-001	-1.7775072403e-001
 1.4628344533e+000	 9.1418836260e-001	-2.7447002418e-001
 1.4534072596e+000	 9.2910297476e-001	-3.7231401323e-001
 1.4438172569e+000	 9.4393682458e-001	-4.7090259629e-001
 1.5378416868e+000	 7.9515376422e-001	 4.2691643872e-001
 1.5297167380e+000	 8.1067457326e-001	 3.4672901366e-001
 1.5214224280e+000	 8.2613579883e-001	 2.6352273130e-001
 1.5129593036e+000	 8.4153473374e-001	 1.7757424908e-001
 1.5043279686e+000	 8.5686867455e-001	 8.9174012624e-002
 1.4955290832e+000	 8.7213492297e-001	-1.3733697953e-003
 1.4865633644e+000	 8.8733078734e-001	-9.3748786303e-002
 1.4774315859e+000	 9.0245358411e-001	-1.8761831613e-001
 1.4681345781e+000	 9.1750063927e-001	-2.8263296201e-001
 1.4586732279e+000	 9.3246928989e-001	-3.7842842231e-001
 1.4490484788e+000	 9.4735688553e-001	-4.7462490467e-001
 1.5433934618e+000	 7.9802435542e-001	 4.1322156285e-001
 1.5352391811e+000	 8.1360119627e-001	 3.3235056698e-001
 1.5269149277e+000	 8.2911823853e-001	 2.4880131859e-001
 1.5184212505e+000	 8.4457276527e-001	 1.6285062807e-001
 1.5097587555e+000	 8.5996206326e-001	 7.4789007177e-002
 1.5009281051e+000	 8.7528342449e-001	-1.5078950834e-002
 1.4919300191e+000	 8.9053414758e-001	-1.0643422472e-001
 1.4827652739e+000	 9.0571153928e-001	-1.9894305447e-001
 1.4734347029e+000	 9.2081291595e-001	-2.9225666833e-001
 1.4639391963e+000	 9.3583560501e-001	-3.8601104971e-001
 1.4542797007e+000	 9.5077694649e-001	-4.7982674577e-001
 1.5489452369e+000	 8.0089494663e-001	 3.9801808077e-001
 1.5407616242e+000	 8.1652781928e-001	 3.1648569878e-001
 1.5324074274e+000	 8.3210067824e-001	 2.3261222309e-001
 1.5238831975e+000	 8.4761079679e-001	 1.4667455206e-001
 1.5151895423e+000	 8.6305545198e-001	 5.8963202132e-002
 1.5063271271e+000	 8.7843192602e-001	-3.0217306197e-002
 1.4972966739e+000	 8.9373750782e-001	-1.2054809621e-001
 1.4880989620e+000	 9.0896949446e-001	-2.1169561856e-001
 1.4787348278e+000	 9.2412519262e-001	-3.0331137283e-001
 1.4692051646e+000	 9.3920192014e-001	-3.9503166908e-001
 1.4595109227e+000	 9.5419700745e-001	-4.8647743128e-001
 1.5544970119e+000	 8.0376553783e-001	 3.8133242429e-001
 1.5462840674e+000	 8.1945444228e-001	 2.9916123956e-001
 1.5378999272e+000	 8.3508311794e-001	 2.1498268199e-001
 1.5293451444e+000	 8.5064882832e-001	 1.2907367258e-001
 1.5206203292e+000	 8.6614884069e-001	 4.1724670755e-002
 1.5117261490e+000	 8.8158042754e-001	-4.6759933799e-002
 1.5026633286e+000	 8.9694086807e-001	-1.3606146307e-001
 1.4934326500e+000	 9.1222744964e-001	-2.2584662861e-001
 1.4840349526e+000	 9.2743746930e-001	-3.1576724745e-001
 1.4744711329e+000	 9.4256823526e-001	-4.0545999820e-001
 1.4647421446e+000	 9.5761706841e-001	-4.9454621921e-001
 1.4124299252e+000	 9.2341645884e-001	-4.8135046692e-001
 1.4028901054e+000	 9.3784625721e-001	-6.1036424878e-001
 1.3931930193e+000	 9.5219192442e-001	-7.2490197927e-001
 1.3833397503e+000	 9.6645092230e-001	-8.2454554186e-001
 1.3733314358e+000	 9.8062073063e-001	-9.0887620578e-001
 1.3631692671e+000	 9.9469884857e-001	-9.7747476560e-001
 1.3528544884e+000	 1.0086827961e+000	-1.0299217091e+000
 1.3423883973e+000	 1.0225701154e+000	-1.0657974138e+000
 1.3317723433e+000	 1.0363583722e+000	-1.0846823737e+000
 1.3210077279e+000	 1.0500451575e+000	-1.0861574546e+000
 1.3100960040e+000	 1.0636280883e+000	-1.0698041809e+000
 1.4176611471e+000	 9.2683651980e-001	-4.7555425511e-001
 1.4080859947e+000	 9.4131976186e-001	-6.0278900779e-001
 1.3983529935e+000	 9.5571856118e-001	-7.1614070874e-001
 1.3884632309e+000	 9.7003037016e-001	-8.1520354700e-001
 1.3784178486e+000	 9.8425265926e-001	-8.9957034626e-001
 1.3682180421e+000	 9.9838291837e-001	-9.6883268383e-001
 1.3578650606e+000	 1.0124186583e+000	-1.0225810392e+000
 1.3473602062e+000	 1.0263574121e+000	-1.0604049727e+000
 1.3367048334e+000	 1.0401967366e+000	-1.0818933349e+000
 1.3259003491e+000	 1.0539342136e+000	-1.0866345072e+000
 1.3149482114e+000	 1.0675674516e+000	-1.0742166743e+000
 1.4228923691e+000	 9.3025658075e-001	-4.7142052284e-001
 1.4132818840e+000	 9.4479326651e-001	-5.9700861177e-001
 1.4035129676e+000	 9.5924519793e-001	-7.0930370599e-001
 1.3935867114e+000	 9.7360981802e-001	-8.0791225028e-001
 1.3835042613e+000	 9.8788458789e-001	-8.9243857242e-001
 1.3732668172e+000	 1.0020669882e+000	-9.6248498154e-001
 1.3628756328e+000	 1.0161545205e+000	-1.0176518974e+000
 1.3523320150e+000	 1.0301447088e+000	-1.0575380110e+000
 1.3416373236e+000	 1.0440351009e+000	-1.0817404772e+000
 1.3307929703e+000	 1.0578232698e+000	-1.0898551401e+000
 1.3198004189e+000	 1.0715068149e+000	-1.0814767910e+000
 1.4281235910e+000	 9.3367664171e-001	-4.6891892503e-001
 1.4184777732e+000	 9.4826677117e-001	-5.9299097578e-001
 1.4086729418e+000	 9.6277183468e-001	-7.0435721461e-001
 1.3987101920e+000	 9.7718926587e-001	-8.0263629333e-001
 1.3885906740e+000	 9.9151651651e-001	-8.8744399440e-001
 1.3783155923e+000	 1.0057510580e+000	-9.5839330887e-001
 1.3678862050e+000	 1.0198903827e+000	-1.0150945462e+000
 1.3573038239e+000	 1.0339320055e+000	-1.0571554770e+000
 1.3465698137e+000	 1.0478734653e+000	-1.0841815087e+000
 1.3356855916e+000	 1.0617123259e+000	-1.0957758959e+000
 1.3246526263e+000	 1.0754461782e+000	-1.0915399838e+000
 1.4333548130e+000	 9.3709670266e-001	-4.6801905675e-001
 1.4236736625e+000	 9.5174027582e-001	-5.9070397622e-001
 1.4138329159e+000	 9.6629847144e-001	-7.0126746001e-001
 1.4038336725e+000	 9.8076871373e-001	-7.9934031925e-001
 1.3936770868e+000	 9.9514844514e-001	-8.8454974277e-001
 1.3833643673e+000	 1.0094351278e+000	-9.5651935452e-001
 1.3728967772e+000	 1.0236262449e+000	-1.0148693041e+000
 1.3622756328e+000	 1.0377193023e+000	-1.0592163913e+000
 1.3515023039e+000	 1.0517118296e+000	-1.0891742256e+000
 1.3405782128e+000	 1.0656013820e+000	-1.1043534203e+000
 1.3295048337e+000	 1.0793855415e+000	-1.1043618230e+000
 1.4385860349e+000	 9.4051676362e-001	-4.6869045430e-001
 1.4288695518e+000	 9.5521378048e-001	-5.9011545150e-001
 1.4189928901e+000	 9.6982510819e-001	-7.0000064965e-001
 1.4089571531e+000	 9.8434816159e-001	-7.9798897257e-001
 1.3987634995e+000	 9.9878037377e-001	-8.8371896811e-001
 1.3884131424e+000	 1.0131191976e+000	-9.5682484507e-001
 1.3779073493e+000	 1.0273621071e+000	-1.0169365445e+000
 1.3672474417e+000	 1.0415065990e+000	-1.0636798461e+000
 1.3564347941e+000	 1.0555501939e+000	-1.0966765110e+000
 1.3454708340e+000	 1.0694904382e+000	-1.1155444609e+000
 1.3343570411e+000	 1.0833249047e+000	-1.1198979941e+000
 1.4438172569e+000	 9.4393682458e-001	-4.7090259629e-001
 1.4340654411e+000	 9.5868728513e-001	-5.9119320276e-001
 1.4241528642e+000	 9.7335174495e-001	-7.0052297345e-001
 1.4140806337e+000	 9.8792760945e-001	-7.9854689924e-001
 1.4038499122e+000	 1.0024123024e+000	-8.8491484067e-001
 1.3934619175e+000	 1.0168032674e+000	-9.5927154432e-001
 1.3829179215e+000	 1.0310979693e+000	-1.0212566948e+000
 1.3722192505e+000	 1.0452938957e+000	-1.0705050032e+000
 1.3613672842e+000	 1.0593885583e+000	-1.1066463332e+000
 1.3503634552e+000	 1.0733794943e+000	-1.1293058647e+000
 1.3392092486e+000	 1.0872642680e+000	-1.1381042964e+000
 1.4490484788e+000	 9.4735688553e-001	-4.7462490467e-001
 1.4392613304e+000	 9.6216078979e-001	-5.9390499454e-001
 1.4293128383e+000	 9.7687838171e-001	-7.0280060406e-001
 1.4192041142e+000	 9.9150705731e-001	-8.0097874660e-001
 1.4089363249e+000	 1.0060442310e+000	-8.8810055004e-001
 1.3985106925e+000	 1.0204873372e+000	-9.6382125256e-001
 1.3879284937e+000	 1.0348338315e+000	-1.0277902354e+000
 1.3771910594e+000	 1.0490811924e+000	-1.0796510934e+000
 1.3662997744e+000	 1.0632269226e+000	-1.1190417441e+000
 1.3552560764e+000	 1.0772685505e+000	-1.1455945768e+000
 1.3440614560e+000	 1.0912036313e+000	-1.1589366403e+000
 1.4542797007e+000	 9.5077694649e-001	-4.7982674577e-001
 1.4444572196e+000	 9.6563429444e-001	-5.9821855540e-001
 1.4344728125e+000	 9.8040501846e-001	-7.0679969716e-001
 1.4243275948e+000	 9.9508650517e-001	-8.0524916335e-001
 1.4140227376e+000	 1.0096761597e+000	-8.9323930476e-001
 1.4035594676e+000	 1.0241714070e+000	-9.7043580596e-001
 1.3929390659e+000	 1.0385696937e+000	-1.0364976988e+000
 1.3821628683e+000	 1.0528684892e+000	-1.0910774148e+000
 1.3712322645e+000	 1.0670652870e+000	-1.1338208780e+000
 1.3601486976e+000	 1.0811576066e+000	-1.1643676382e+000
 1.3489136634e+000	 1.0951429946e+000	-1.1823510454e+000
 1.4595109227e+000	 9.5419700745e-001	-4.8647743128e-001
 1.4496531089e+000	 9.6910779910e-001	-6.0410157862e-001
 1.4396327866e+000	 9.8393165522e-001	-7.1248639181e-001
 1.4294510753e+000	 9.9866595303e-001	-8.1132279951e-001
 1.4191091504e+000	 1.0133080883e+000	-9.0029433200e-001
 1.4086082426e+000	 1.0278554768e+000	-9.7907707590e-001
 1.3979496380e+000	 1.0423055559e+000	-1.0473396684e+000
 1.3871346772e+000	 1.0566557859e+000	-1.1047433319e+000
 1.3761647547e+000	 1.0709036513e+000	-1.1509419498e+000
 1.3650413188e+000	 1.0850466627e+000	-1.1855821846e+000
 1.3537658708e+000	 1.0990823579e+000	-1.2083036389e+000
 1.4647421446e+000	 9.5761706841e-001	-4.9454621921e-001
 1.4548489982e+000	 9.7258130376e-001	-6.1152172279e-001
 1.4447927608e+000	 9.8745829198e-001	-7.1982681071e-001
 1.4345745559e+000	 1.0022454009e+000	-8.1916430644e-001
 1.4241955631e+000	 1.0169400169e+000	-9.0922887723e-001
 1.4136570177e+000	 1.0315395467e+000	-9.8970696838e-001
 1.4029602102e+000	 1.0460414182e+000	-1.0602767781e+000
 1.3921064861e+000	 1.0604430826e+000	-1.1206082742e+000
 1.3810972449e+000	 1.0747420157e+000	-1.1703632534e+000
 1.3699339400e+000	 1.0889357189e+000	-1.2091954440e+000
 1.3586180782e+000	 1.1030217212e+000	-1.2367506533e+000
 1.3100960040e+000	 1.0636280883e+000	-1.0698041809e+000
 1.2990386750e+000	 1.0771048095e+000	-1.2246129031e+000
 1.2878372943e+000	 1.0904729952e+000	-1.3869294574e+000
 1.2764934646e+000	 1.1037303497e+000	-1.5559434178e+000
 1.2650088370e+000	 1.1168746090e+000	-1.7308195111e+000
 1.2533851106e+000	 1.1299035421e+000	-1.9106984124e+000
 1.2416240312e+000	 1.1428149522e+000	-1.9407557815e+000
 1.2297273907e+000	 1.1556066781e+000	-1.9199619494e+000
 1.2176970261e+000	 1.1682765950e+000	-1.9115140981e+000
 1.2055348188e+000	 1.1808226160e+000	-1.9146030210e+000
 1.1932426932e+000	 1.1932426932e+000	-1.9284195287e+000
 1.3149482114e+000	 1.0675674516e+000	-1.0742166743e+000
 1.3038499294e+000	 1.0810940866e+000	-1.2279759705e+000
 1.2926070621e+000	 1.0945117841e+000	-1.3873202667e+000
 1.2812212181e+000	 1.1078182399e+000	-1.5514262353e+000
 1.2696940549e+000	 1.1210111816e+000	-1.7194472147e+000
 1.2580272777e+000	 1.1340883700e+000	-1.8905140216e+000
 1.2462226387e+000	 1.1470476002e+000	-1.9943633610e+000
 1.2342819366e+000	 1.1598867028e+000	-1.9577016995e+000
 1.2222070151e+000	 1.1726035453e+000	-1.9313419078e+000
 1.2099997626e+000	 1.1851960331e+000	-1.9144710713e+000
 1.1976621106e+000	 1.1976621106e+000	-1.9062783671e+000
 1.3198004189e+000	 1.0715068149e+000	-1.0814767910e+000
 1.3086611837e+000	 1.0850833637e+000	-1.2341168891e+000
 1.2973768298e+000	 1.0985505730e+000	-1.3904346859e+000
 1.2859489717e+000	 1.1119061301e+000	-1.5495939961e+000
 1.2743792728e+000	 1.1251477542e+000	-1.7107368019e+000
 1.2626694448e+000	 1.1382731980e+000	-1.8729840809e+000
 1.2508212462e+000	 1.1512802482e+000	-2.0354366968e+000
 1.2388364825e+000	 1.1641667276e+000	-1.9980019457e+000
 1.2267170041e+000	 1.1769304957e+000	-1.9537621442e+000
 1.2144647064e+000	 1.1895694502e+000	-1.9169753924e+000
 1.2020815280e+000	 1.2020815280e+000	-1.8868291803e+000
 1.3246526263e+000	 1.0754461782e+000	-1.0915399838e+000
 1.3134724381e+000	 1.0890726408e+000	-1.2429919707e+000
 1.3021465976e+000	 1.1025893618e+000	-1.3962297537e+000
 1.2906767253e+000	 1.1159940202e+000	-1.5504043337e+000
 1.2790644908e+000	 1.1292843269e+000	-1.7046463679e+000
 1.2673116118e+000	 1.1424580259e+000	-1.8580670140e+000
 1.2554198538e+000	 1.1555128962e+000	-2.0097588352e+000
 1.2433910284e+000	 1.1684467523e+000	-2.0408809472e+000
 1.2312269931e+000	 1.1812574460e+000	-1.9787931102e+000
 1.2189296502e+000	 1.1939428673e+000	-1.9221341651e+000
 1.2065009454e+000	 1.2065009454e+000	-1.8700898606e+000
 1.3295048337e+000	 1.0793855415e+000	-1.1043618230e+000
 1.3182836924e+000	 1.0930619178e+000	-1.2545576305e+000
 1.3069163653e+000	 1.1066281507e+000	-1.4046626006e+000
 1.2954044789e+000	 1.1200819104e+000	-1.5538149637e+000
 1.2837497087e+000	 1.1334208995e+000	-1.7011340829e+000
 1.2719537789e+000	 1.1466428538e+000	-1.8457213145e+000
 1.2600184613e+000	 1.1597455441e+000	-1.9866609275e+000
 1.2479455742e+000	 1.1727267771e+000	-2.0863570299e+000
 1.2357369821e+000	 1.1855843964e+000	-2.0064531771e+000
 1.2233945939e+000	 1.1983162844e+000	-1.9299656424e+000
 1.2109203628e+000	 1.2109203628e+000	-1.8560783790e+000
 1.3343570411e+000	 1.0833249047e+000	-1.1198979941e+000
 1.3230949468e+000	 1.0970511949e+000	-1.2687703855e+000
 1.3116861331e+000	 1.1106669396e+000	-1.4156904476e+000
 1.3001322324e+000	 1.1241698006e+000	-1.5597836828e+000
 1.2884349266e+000	 1.1375574721e+000	-1.7001581907e+000
 1.2765959460e+000	 1.1508276818e+000	-1.8359055445e+000
 1.2646170688e+000	 1.1639781921e+000	-1.9661017252e+000
 1.2525001201e+000	 1.1770068018e+000	-2.0898081133e+000
 1.2402469711e+000	 1.1899113468e+000	-2.0367607833e+000
 1.2278595377e+000	 1.2026897015e+000	-1.9404881482e+000
 1.2153397801e+000	 1.2153397801e+000	-1.8448127831e+000
 1.3392092486e+000	 1.0872642680e+000	-1.1381042964e+000
 1.3279062011e+000	 1.1010404720e+000	-1.2855868527e+000
 1.3164559008e+000	 1.1147057285e+000	-1.4292706040e+000
 1.3048599860e+000	 1.1282576908e+000	-1.5682683669e+000
 1.2931201445e+000	 1.1416940447e+000	-1.7016770075e+000
 1.2812381131e+000	 1.1550125097e+000	-1.8285783338e+000
 1.2692156763e+000	 1.1682108401e+000	-1.9480400445e+000
 1.2570546660e+000	 1.1812868265e+000	-2.0591167334e+000
 1.2447569601e+000	 1.1942382971e+000	-2.0697344330e+000
 1.2323244815e+000	 1.2070631186e+000	-1.9537200761e+000
 1.2197591975e+000	 1.2197591975e+000	-1.8363111964e+000
 1.3440614560e+000	 1.0912036313e+000	-1.1589366403e+000
 1.3327174555e+000	 1.1050297491e+000	-1.3049637470e+000
 1.3212256686e+000	 1.1187445173e+000	-1.4453604662e+000
 1.3095877396e+000	 1.1323455810e+000	-1.5792269700e+000
 1.2978053624e+000	 1.1458306174e+000	-1.7056489206e+000
 1.2858802801e+000	 1.1591973376e+000	-1.8236983784e+000
 1.2738142838e+000	 1.1724434881e+000	-1.9324347653e+000
 1.2616092119e+000	 1.1855668513e+000	-2.0309058816e+000
 1.2492669491e+000	 1.1985652475e+000	-2.1053926950e+000
 1.2367894253e+000	 1.2114365357e+000	-1.9696798879e+000
 1.2241786149e+000	 1.2241786149e+000	-1.8305918162e+000
 1.3489136634e+000	 1.0951429946e+000	-1.1823510454e+000
 1.3375287098e+000	 1.1090190261e+000	-1.3268578799e+000
 1.3259954364e+000	 1.1227833062e+000	-1.4639175159e+000
 1.3143154932e+000	 1.1364334712e+000	-1.5926175224e+000
 1.3024905803e+000	 1.1499671900e+000	-1.7120323869e+000
 1.2905224472e+000	 1.1633821656e+000	-1.8212244394e+000
 1.2784128914e+000	 1.1766761360e+000	-1.9192448299e+000
 1.2661637578e+000	 1.1898468760e+000	-2.0051345584e+000
 1.2537769380e+000	 1.2028921978e+000	-2.0779255558e+000
 1.2412543690e+000	 1.2158099528e+000	-1.9883861126e+000
 1.2285980323e+000	 1.2285980323e+000	-1.8276729132e+000
 1.3537658708e+000	 1.0990823579e+000	-1.2083036389e+000
 1.3423399642e+000	 1.1130083032e+000	-1.3512261573e+000
 1.3307652041e+000	 1.1268220951e+000	-1.4848993188e+000
 1.3190432467e+000	 1.1405213613e+000	-1.6083981299e+000
 1.3071757983e+000	 1.1541037626e+000	-1.7207859321e+000
 1.2951646143e+000	 1.1675669935e+000	-1.8211153417e+000
 1.2830114989e+000	 1.1809087840e+000	-1.9084292419e+000
 1.2707183037e+000	 1.1941269007e+000	-1.9817618252e+000
 1.2582869270e+000	 1.2072191482e+000	-2.0401396857e+000
 1.2457193128e+000	 1.2201833699e+000	-2.0098573451e+000
 1.2330174497e+000	 1.2330174497e+000	-1.8275728291e+000
 1.3586180782e+000	 1.1030217212e+000	-1.2367506533e+000
 1.3471512185e+000	 1.1169975803e+000	-1.3780255781e+000
 1.3355349719e+000	 1.1308608839e+000	-1.5082635229e+000
 1.3237710003e+000	 1.1446092515e+000	-1.6265269719e+000
 1.3118610162e+000	 1.1582403352e+000	-1.7318681489e+000
 1.2998067814e+000	 1.1717518214e+000	-1.8233299731e+000
 1.2876101064e+000	 1.1851414320e+000	-1.8999470652e+000
 1.2752728496e+000	 1.1984069254e+000	-1.9607468030e+000
 1.2627969160e+000	 1.2115460985e+000	-2.0047504245e+000
 1.2501842566e+000	 1.2245567870e+000	-2.0309741777e+000
 1.2374368671e+000	 1.2374368670e+000	-1.8303099762e+000
 1.1932426932e+000	 1.1932426932e+000	-1.9284195287e+000
 1.1808226160e+000	 1.2055348188e+000	-1.9758702962e+000
 1.1682765950e+000	 1.2176970261e+000	-1.9766076532e+000
 1.1556066781e+000	 1.2297273907e+000	-1.9299900706e+000
 1.1428149522e+000	 1.2416240312e+000	-1.8354346864e+000
 1.1299035421e+000	 1.2533851106e+000	-1.7987979416e+000
 1.1168746090e+000	 1.2650088370e+000	-1.9848420900e+000
 1.1037303497e+000	 1.2764934646e+000	-2.1369456189e+000
 1.0904729952e+000	 1.2878372943e+000	-2.2547509051e+000
 1.0771048095e+000	 1.2990386750e+000	-2.3379251581e+000
 1.0636280883e+000	 1.3100960040e+000	-2.3861609480e+000
 1.1976621106e+000	 1.1976621106e+000	-1.9062783671e+000
 1.1851960331e+000	 1.2099997626e+000	-1.9325221738e+000
 1.1726035453e+000	 1.2222070151e+000	-1.9136443484e+000
 1.1598867028e+000	 1.2342819366e+000	-1.8490075219e+000
 1.1470476002e+000	 1.2462226387e+000	-1.7380317029e+000
 1.1340883700e+000	 1.2580272777e+000	-1.8294335763e+000
 1.1210111816e+000	 1.2696940549e+000	-2.0033166519e+000
 1.1078182399e+000	 1.2812212181e+000	-2.1451896037e+000
 1.0945117841e+000	 1.2926070621e+000	-2.2546920659e+000
 1.0810940866e+000	 1.3038499294e+000	-2.3314867122e+000
 1.0675674516e+000	 1.3149482114e+000	-2.3752597971e+000
 1.2020815280e+000	 1.2020815280e+000	-1.8868291803e+000
 1.1895694502e+000	 1.2144647064e+000	-1.8919708558e+000
 1.1769304957e+000	 1.2267170041e+000	-1.8535676639e+000
 1.1641667276e+000	 1.2388364825e+000	-1.7709863249e+000
 1.1512802482e+000	 1.2508212462e+000	-1.6681409582e+000
 1.1382731980e+000	 1.2626694448e+000	-1.8596019871e+000
 1.1251477542e+000	 1.2743792728e+000	-2.0213557674e+000
 1.1119061301e+000	 1.2859489717e+000	-2.1530184894e+000
 1.0985505730e+000	 1.2973768298e+000	-2.2542270218e+000
 1.0850833637e+000	 1.3086611837e+000	-2.3246394864e+000
 1.0715068149e+000	 1.3198004189e+000	-2.3639358123e+000
 1.2065009454e+000	 1.2065009454e+000	-1.8700898606e+000
 1.1939428673e+000	 1.2189296502e+000	-1.8542333698e+000
 1.1812574460e+000	 1.2312269931e+000	-1.7963938907e+000
 1.1684467523e+000	 1.2433910284e+000	-1.6959421620e+000
 1.1555128962e+000	 1.2554198538e+000	-1.7118264697e+000
 1.1424580259e+000	 1.2673116118e+000	-1.8892810324e+000
 1.1292843269e+000	 1.2790644908e+000	-2.0389371278e+000
 1.1159940202e+000	 1.2906767253e+000	-2.1604099482e+000
 1.1025893618e+000	 1.3021465976e+000	-2.2533335738e+000
 1.0890726408e+000	 1.3134724381e+000	-2.3173615581e+000
 1.0754461782e+000	 1.3246526263e+000	-2.3521674945e+000
 1.2109203628e+000	 1.2109203628e+000	-1.8560783790e+000
 1.1983162844e+000	 1.2233945939e+000	-1.8193268365e+000
 1.1855843964e+000	 1.2357369821e+000	-1.7421394250e+000
 1.1727267771e+000	 1.2479455742e+000	-1.6238908312e+000
 1.1597455441e+000	 1.2600184613e+000	-1.7549580502e+000
 1.1466428538e+000	 1.2719537789e+000	-1.9184487004e+000
 1.1334208995e+000	 1.2837497087e+000	-2.0560385583e+000
 1.1200819104e+000	 1.2954044789e+000	-2.1673417882e+000
 1.1066281507e+000	 1.3069163653e+000	-2.2519896589e+000
 1.0930619178e+000	 1.3182836924e+000	-2.3096311383e+000
 1.0793855415e+000	 1.3295048337e+000	-2.3399334742e+000
 1.2153397801e+000	 1.2153397801e+000	-1.8448127831e+000
 1.2026897015e+000	 1.2278595377e+000	-1.7872684676e+000
 1.1899113468e+000	 1.2402469711e+000	-1.6908207662e+000
 1.1770068018e+000	 1.2525001201e+000	-1.6243326532e+000
 1.1639781921e+000	 1.2646170688e+000	-1.7975141184e+000
 1.1508276818e+000	 1.2765959460e+000	-1.9470831067e+000
 1.1375574721e+000	 1.2884349266e+000	-2.0726380153e+000
 1.1241698006e+000	 1.3001322324e+000	-2.1737919511e+000
 1.1106669396e+000	 1.3116861331e+000	-2.2501733475e+000
 1.0970511949e+000	 1.3230949468e+000	-2.3014265698e+000
 1.0833249047e+000	 1.3343570411e+000	-2.3272125091e+000
 1.2197591975e+000	 1.2197591975e+000	-1.8363111964e+000
 1.2070631186e+000	 1.2323244815e+000	-1.7580755640e+000
 1.1942382971e+000	 1.2447569601e+000	-1.6424545151e+000
 1.1812868265e+000	 1.2570546660e+000	-1.6820466562e+000
 1.1682108401e+000	 1.2692156763e+000	-1.8394732123e+000
 1.1550125097e+000	 1.2812381131e+000	-1.9751624920e+000
 1.1416940447e+000	 1.2931201445e+000	-2.0887135846e+000
 1.1282576908e+000	 1.3048599860e+000	-2.1797385096e+000
 1.1147057285e+000	 1.3164559008e+000	-2.2478628409e+000
 1.1010404720e+000	 1.3279062011e+000	-2.2927263241e+000
 1.0872642680e+000	 1.3392092486e+000	-2.3139834822e+000
 1.2241786149e+000	 1.2241786149e+000	-1.8305918162e+000
 1.2114365357e+000	 1.2367894253e+000	-1.7317655149e+000
 1.1985652475e+000	 1.2492669491e+000	-1.5970573720e+000
 1.1855668513e+000	 1.2616092119e+000	-1.7390900342e+000
 1.1724434881e+000	 1.2738142838e+000	-1.8808139868e+000
 1.1591973376e+000	 1.2858802801e+000	-2.0026652199e+000
 1.1458306174e+000	 1.2978053624e+000	-2.1042434788e+000
 1.1323455810e+000	 1.3095877396e+000	-2.1851596650e+000
 1.1187445173e+000	 1.3212256686e+000	-2.2450364694e+000
 1.1050297491e+000	 1.3327174555e+000	-2.2835089996e+000
 1.0912036313e+000	 1.3440614560e+000	-2.3002253989e+000
 1.2285980323e+000	 1.2285980323e+000	-1.8276729132e+000
 1.2158099528e+000	 1.2412543690e+000	-1.7083557953e+000
 1.2028921978e+000	 1.2537769380e+000	-1.6517584626e+000
 1.1898468760e+000	 1.2661637578e+000	-1.7954419811e+000
 1.1766761360e+000	 1.2784128914e+000	-1.9215152119e+000
 1.1633821656e+000	 1.2905224472e+000	-2.0295697749e+000
 1.1499671900e+000	 1.3024905803e+000	-2.1192060348e+000
 1.1364334712e+000	 1.3143154932e+000	-2.1900337451e+000
 1.1227833062e+000	 1.3259954364e+000	-2.2416726894e+000
 1.1090190261e+000	 1.3375287098e+000	-2.2737533189e+000
 1.0951429946e+000	 1.3489136634e+000	-2.2859173854e+000
 1.2330174497e+000	 1.2330174497e+000	-1.8275728291e+000
 1.2201833699e+000	 1.2457193128e+000	-1.6878639652e+000
 1.2072191482e+000	 1.2582869270e+000	-1.7248388662e+000
 1.1941269007e+000	 1.2707183037e+000	-1.8510817962e+000
 1.1809087840e+000	 1.2830114989e+000	-1.9615557705e+000
 1.1675669935e+000	 1.2951646143e+000	-2.0558547597e+000
 1.1541037626e+000	 1.3071757983e+000	-2.1335797118e+000
 1.1405213613e+000	 1.3190432467e+000	-2.1943392018e+000
 1.1268220951e+000	 1.3307652041e+000	-2.2377500813e+000
 1.1130083032e+000	 1.3423399642e+000	-2.2634381269e+000
 1.0990823579e+000	 1.3537658708e+000	-2.2710386862e+000
 1.2374368671e+000	 1.2374368670e+000	-1.8303099762e+000
 1.2245567870e+000	 1.2501842566e+000	-1.6747321721e+000
 1.2115460985e+000	 1.2627969160e+000	-1.7971252925e+000
 1.1984069254e+000	 1.2752728496e+000	-1.9059888823e+000
 1.1851414320e+000	 1.2876101064e+000	-2.0009146562e+000
 1.1717518214e+000	 1.2998067814e+000	-2.0814988935e+000
 1.1582403352e+000	 1.3118610162e+000	-2.1473430892e+000
 1.1446092515e+000	 1.3237710003e+000	-2.1980546089e+000
 1.1308608839e+000	 1.3355349719e+000	-2.2332473476e+000
 1.1169975803e+000	 1.3471512185e+000	-2.2525423884e+000
 1.1030217212e+000	 1.3586180782e+000	-2.2555686621e+000
 1.0636280883e+000	 1.3100960040e+000	-2.3861609480e+000
 1.0500451575e+000	 1.3210077279e+000	-2.2871557305e+000
 1.0363583722e+000	 1.3317723433e+000	-2.2004046387e+000
 1.0225701154e+000	 1.3423883973e+000	-2.1259535426e+000
 1.0086827961e+000	 1.3528544884e+000	-2.0638296480e+000
 9.9469884857e-001	 1.3631692671e+000	-2.0140418438e+000
 9.8062073063e-001	 1.3733314358e+000	-1.9765810786e+000
 9.6645092230e-001	 1.3833397503e+000	-1.9514207661e+000
 9.5219192442e-001	 1.3931930193e+000	-1.9385172173e+000
 9.3784625721e-001	 1.4028901054e+000	-1.9378100975e+000
 9.2341645884e-001	 1.4124299252e+000	-1.9492229083e+000
 1.0675674516e+000	 1.3149482114e+000	-2.3752597971e+000
 1.0539342136e+000	 1.3259003491e+000	-2.2773522207e+000
 1.0401967366e+000	 1.3367048334e+000	-2.1918777172e+000
 1.0263574121e+000	 1.3473602062e+000	-2.1188609477e+000
 1.0124186583e+000	 1.3578650606e+000	-2.0583077890e+000
 9.9838291837e-001	 1.3682180421e+000	-2.0102057066e+000
 9.8425265926e-001	 1.3784178486e+000	-1.9745241578e+000
 9.7003037016e-001	 1.3884632309e+000	-1.9512150235e+000
 9.5571856118e-001	 1.3983529935e+000	-1.9402130664e+000
 9.4131976186e-001	 1.4080859947e+000	-1.9414364149e+000
 9.2683651980e-001	 1.4176611471e+000	-1.9547870705e+000
 1.0715068149e+000	 1.3198004189e+000	-2.3639358123e+000
 1.0578232698e+000	 1.3307929703e+000	-2.2669287729e+000
 1.0440351009e+000	 1.3416373236e+000	-2.1825349790e+000
 1.0301447088e+000	 1.3523320150e+000	-2.1107579465e+000
 1.0161545205e+000	 1.3628756328e+000	-2.0515822848e+000
 1.0020669882e+000	 1.3732668172e+000	-2.0049740958e+000
 9.8788458789e-001	 1.3835042613e+000	-1.9708814041e+000
 9.7360981802e-001	 1.3935867114e+000	-1.9492346142e+000
 9.5924519793e-001	 1.4035129676e+000	-1.9399469958e+000
 9.4479326651e-001	 1.4132818840e+000	-1.9429151936e+000
 9.3025658075e-001	 1.4228923691e+000	-1.9580197607e+000
 1.0754461782e+000	 1.3246526263e+000	-2.3521674945e+000
 1.0617123259e+000	 1.3356855916e+000	-2.2558663432e+000
 1.0478734653e+000	 1.3465698137e+000	-2.1723598420e+000
 1.0339320055e+000	 1.3573038239e+000	-2.1016304238e+000
 1.0198903827e+000	 1.3678862050e+000	-2.0436414905e+000
 1.0057510580e+000	 1.3783155923e+000	-1.9983378396e+000
 9.9151651651e-001	 1.3885906740e+000	-1.9656461196e+000
 9.7718926587e-001	 1.3987101920e+000	-1.9454753144e+000
 9.6277183468e-001	 1.4086729418e+000	-1.9377172543e+000
 9.4826677117e-001	 1.4184777732e+000	-1.9422471521e+000
 9.3367664171e-001	 1.4281235910e+000	-1.9589241632e+000
 1.0793855415e+000	 1.3295048337e+000	-2.3399334742e+000
 1.0656013820e+000	 1.3405782128e+000	-2.2441459837e+000
 1.0517118296e+000	 1.3515023039e+000	-2.1613357865e+000
 1.0377193023e+000	 1.3622756328e+000	-2.0914642926e+000
 1.0236262449e+000	 1.3728967772e+000	-2.0344737561e+000
 1.0094351278e+000	 1.3833643673e+000	-1.9902877271e+000
 9.9514844514e-001	 1.3936770868e+000	-1.9588115341e+000
 9.8076871373e-001	 1.4038336725e+000	-1.9399327943e+000
 9.6629847144e-001	 1.4138329159e+000	-1.9335219510e+000
 9.5174027582e-001	 1.4236736625e+000	-1.9394328362e+000
 9.3709670266e-001	 1.4333548130e+000	-1.9575032562e+000
 1.0833249047e+000	 1.3343570411e+000	-2.3272125091e+000
 1.0694904382e+000	 1.3454708340e+000	-2.2317488409e+000
 1.0555501939e+000	 1.3564347941e+000	-2.1494463535e+000
 1.0415065990e+000	 1.3672474417e+000	-2.0802454941e+000
 1.0273621071e+000	 1.3779073493e+000	-2.0240674264e+000
 1.0131191976e+000	 1.3884131424e+000	-1.9808145094e+000
 9.9878037377e-001	 1.3987634995e+000	-1.9503708060e+000
 9.8434816159e-001	 1.4089571531e+000	-1.9326026197e+000
 9.6982510819e-001	 1.4189928901e+000	-1.9273590580e+000
 9.5521378048e-001	 1.4288695518e+000	-1.9344726215e+000
 9.4051676362e-001	 1.4385860349e+000	-1.9537598154e+000
 1.0872642680e+000	 1.3392092486e+000	-2.3139834822e+000
 1.0733794943e+000	 1.3503634552e+000	-2.2186561534e+000
 1.0593885583e+000	 1.3613672842e+000	-2.1366751443e+000
 1.0452938957e+000	 1.3722192505e+000	-2.0679599968e+000
 1.0310979693e+000	 1.3829179215e+000	-2.0124108410e+000
 1.0168032674e+000	 1.3934619175e+000	-1.9699088999e+000
 1.0024123024e+000	 1.4038499122e+000	-1.9403170239e+000
 9.8792760945e-001	 1.4140806337e+000	-1.9234802544e+000
 9.7335174495e-001	 1.4241528642e+000	-1.9192264131e+000
 9.5868728513e-001	 1.4340654411e+000	-1.9273667174e+000
 9.4393682458e-001	 1.4438172569e+000	-1.9476964180e+000
 1.0912036313e+000	 1.3440614560e+000	-2.3002253989e+000
 1.0772685505e+000	 1.3552560764e+000	-2.2048492510e+000
 1.0632269226e+000	 1.3662997744e+000	-2.1230058188e+000
 1.0490811924e+000	 1.3771910594e+000	-2.0545937961e+000
 1.0348338315e+000	 1.3879284937e+000	-1.9994923348e+000
 1.0204873372e+000	 1.3985106925e+000	-1.9575615752e+000
 1.0060442310e+000	 1.4089363249e+000	-1.9286432078e+000
 9.9150705731e-001	 1.4192041142e+000	-1.9125610617e+000
 9.7687838171e-001	 1.4293128383e+000	-1.9091217219e+000
 9.6216078979e-001	 1.4392613304e+000	-1.9181151693e+000
 9.4735688553e-001	 1.4490484788e+000	-1.9393154459e+000
 1.0951429946e+000	 1.3489136634e+000	-2.2859173854e+000
 1.0811576066e+000	 1.3601486976e+000	-2.1903095526e+000
 1.0670652870e+000	 1.3712322645e+000	-2.1084220950e+000
 1.0528684892e+000	 1.3821628683e+000	-2.0401329141e+000
 1.0385696937e+000	 1.3929390659e+000	-1.9853002376e+000
 1.0241714070e+000	 1.4035594676e+000	-1.9437631760e+000
 1.0096761597e+000	 1.4140227376e+000	-1.9153423100e+000
 9.9508650517e-001	 1.4243275948e+000	-1.8998403063e+000
 9.8040501846e-001	 1.4344728125e+000	-1.8970425601e+000
 9.6563429444e-001	 1.4444572196e+000	-1.9067178623e+000
 9.5077694649e-001	 1.4542797007e+000	-1.9286190896e+000
 1.0990823579e+000	 1.3537658708e+000	-2.2710386862e+000
 1.0850466627e+000	 1.3650413188e+000	-2.1750185645e+000
 1.0709036513e+000	 1.3761647547e+000	-2.0929077473e+000
 1.0566557859e+000	 1.3871346772e+000	-2.0245633987e+000
 1.0423055559e+000	 1.3979496380e+000	-1.9698228747e+000
 1.0278554768e+000	 1.4086082426e+000	-1.9285043071e+000
 1.0133080883e+000	 1.4191091504e+000	-1.9004072169e+000
 9.9866595303e-001	 1.4294510753e+000	-1.8853131561e+000
 9.8393165522e-001	 1.4396327866e+000	-1.8829863765e+000
 9.6910779910e-001	 1.4496531089e+000	-1.8931745233e+000
 9.5419700745e-001	 1.4595109227e+000	-1.9156093512e+000
 1.1030217212e+000	 1.3586180782e+000	-2.2555686621e+000
 1.0889357189e+000	 1.3699339400e+000	-2.1589578791e+000
 1.0747420157e+000	 1.3810972449e+000	-2.0764466064e+000
 1.0604430826e+000	 1.3921064861e+000	-2.0078713232e+000
 1.0460414182e+000	 1.4029602102e+000	-1.9530485663e+000
 1.0315395467e+000	 1.4136570177e+000	-1.9117755387e+000
 1.0169400169e+000	 1.4241955631e+000	-1.8838307498e+000
 1.0022454009e+000	 1.4345745559e+000	-1.8689746838e+000
 9.8745829198e-001	 1.4447927608e+000	-1.8669504943e+000
 9.7258130376e-001	 1.4548489982e+000	-1.8774847243e+000
 9.5761706841e-001	 1.4647421446e+000	-1.9002880483e+000
 9.2341645884e-001	 1.4124299252e+000	-1.9492229083e+000
 9.0890508403e-001	 1.4218114496e+000	-1.9111199594e+000
 8.9431470256e-001	 1.4310337043e+000	-1.8741335953e+000
 8.7964789789e-001	 1.4400957696e+000	-1.8378466980e+000
 8.6490726566e-001	 1.4489967811e+000	-1.8018403110e+000
 8.5009541230e-001	 1.4577359294e+000	-1.7656944275e+000
 8.3521495355e-001	 1.4663124603e+000	-1.7289887735e+000
 8.2026851305e-001	 1.4747256750e+000	-1.6913035867e+000
 8.0525872090e-001	 1.4829749298e+000	-1.6522203865e+000
 7.9018821223e-001	 1.4910596364e+000	-1.6113227354e+000
 7.7505962579e-001	 1.4989792615e+000	-1.5681969892e+000
 9.2683651980e-001	 1.4176611471e+000	-1.9547870705e+000
 9.1227139915e-001	 1.4270774179e+000	-1.9146231747e+000
 8.9762697923e-001	 1.4363338291e+000	-1.8755401668e+000
 8.8290585306e-001	 1.4454294577e+000	-1.8371342489e+000
 8.6811062590e-001	 1.4543634359e+000	-1.7989996930e+000
 8.5324391382e-001	 1.4631349514e+000	-1.7607296192e+000
 8.3830834227e-001	 1.4717432472e+000	-1.7219167704e+000
 8.2330654458e-001	 1.4801876219e+000	-1.6821542812e+000
 8.0824116060e-001	 1.4884674295e+000	-1.6410364399e+000
 7.9311483523e-001	 1.4965820795e+000	-1.5981594411e+000
 7.7793021700e-001	 1.5045310365e+000	-1.5531221275e+000
 9.3025658075e-001	 1.4228923691e+000	-1.9580197607e+000
 9.1563771427e-001	 1.4323433863e+000	-1.9160252803e+000
 9.0093925591e-001	 1.4416339539e+000	-1.8750774309e+000
 8.8616380824e-001	 1.4507631457e+000	-1.8347855879e+000
 8.7131398614e-001	 1.4597300906e+000	-1.7947571046e+000
 8.5639241535e-001	 1.4685339733e+000	-1.7545980809e+000
 8.4140173098e-001	 1.4771740341e+000	-1.7139141291e+000
 8.2634457611e-001	 1.4856495689e+000	-1.6723111337e+000
 8.1122360031e-001	 1.4939599293e+000	-1.6293960052e+000
 7.9604145824e-001	 1.5021045226e+000	-1.5847774239e+000
 7.8080080820e-001	 1.5100828116e+000	-1.5380665742e+000
 9.3367664171e-001	 1.4281235910e+000	-1.9589241632e+000
 9.1900402939e-001	 1.4376093546e+000	-1.9153273874e+000
 9.0425153258e-001	 1.4469340788e+000	-1.8727444229e+000
 8.8942176341e-001	 1.4560968337e+000	-1.8307976726e+000
 8.7451734638e-001	 1.4650967454e+000	-1.7891074247e+000
 8.5954091687e-001	 1.4739329953e+000	-1.7472926125e+000
 8.4449511969e-001	 1.4826048210e+000	-1.7049715711e+000
 8.2938260763e-001	 1.4911115158e+000	-1.6617627890e+000
 8.1420604001e-001	 1.4994524290e+000	-1.6172856527e+000
 7.9896808124e-001	 1.5076269657e+000	-1.5711611832e+000
 7.8367139941e-001	 1.5156345866e+000	-1.5230127613e+000
 9.3709670266e-001	 1.4333548130e+000	-1.9575032562e+000
 9.2237034452e-001	 1.4428753229e+000	-1.9125304341e+000
 9.0756380925e-001	 1.4522342036e+000	-1.8685400383e+000
 8.9267971858e-001	 1.4614305218e+000	-1.8251673539e+000
 8.7772070662e-001	 1.4704634001e+000	-1.7820454586e+000
 8.6268941840e-001	 1.4793320173e+000	-1.7388059736e+000
 8.4758850841e-001	 1.4880356079e+000	-1.6950798113e+000
 8.3242063916e-001	 1.4965734628e+000	-1.6504979186e+000
 8.1718847971e-001	 1.5049449287e+000	-1.6046920132e+000
 8.0189470425e-001	 1.5131494088e+000	-1.5572953116e+000
 7.8654199061e-001	 1.5211863617e+000	-1.5079432477e+000
 9.4051676362e-001	 1.4385860349e+000	-1.9537598154e+000
 9.2573665964e-001	 1.4481412913e+000	-1.9076351887e+000
 9.1087608593e-001	 1.4575343284e+000	-1.8624630352e+000
 8.9593767376e-001	 1.4667642098e+000	-1.8178913781e+000
 8.8092406686e-001	 1.4758300549e+000	-1.7735659400e+000
 8.6583791992e-001	 1.4847310392e+000	-1.7291308850e+000
 8.5068189712e-001	 1.4934663948e+000	-1.6842295584e+000
 8.3545867069e-001	 1.5020354097e+000	-1.6385052206e+000
 8.2017091942e-001	 1.5104374285e+000	-1.5916017763e+000
 8.0482132725e-001	 1.5186718518e+000	-1.5431644941e+000
 7.8941258181e-001	 1.5267381367e+000	-1.4928407172e+000
 9.4393682458e-001	 1.4438172569e+000	-1.9476964180e+000
 9.2910297476e-001	 1.4534072596e+000	-1.9006422526e+000
 9.1418836260e-001	 1.4628344533e+000	-1.8545120370e+000
 8.9919562893e-001	 1.4720978978e+000	-1.8089663887e+000
 8.8412742710e-001	 1.4811967096e+000	-1.7636635315e+000
 8.6898642144e-001	 1.4901300612e+000	-1.7182600289e+000
 8.5377528583e-001	 1.4988971817e+000	-1.6724115144e+000
 8.3849670221e-001	 1.5074973566e+000	-1.6257734188e+000
 8.2315335912e-001	 1.5159299282e+000	-1.5780016900e+000
 8.0774795026e-001	 1.5241942949e+000	-1.5287535056e+000
 7.9228317302e-001	 1.5322899117e+000	-1.4776879759e+000
 9.4735688553e-001	 1.4490484788e+000	-1.9393154459e+000
 9.3246928989e-001	 1.4586732279e+000	-1.8915520636e+000
 9.1750063927e-001	 1.4681345781e+000	-1.8446855345e+000
 9.0245358411e-001	 1.4774315859e+000	-1.7983889282e+000
 8.8733078734e-001	 1.4865633644e+000	-1.7523328268e+000
 8.7213492297e-001	 1.4955290832e+000	-1.7061860495e+000
 8.5686867455e-001	 1.5043279686e+000	-1.6596163755e+000
 8.4153473374e-001	 1.5129593036e+000	-1.6122912626e+000
 8.2613579883e-001	 1.5214224280e+000	-1.5638785592e+000
 8.1067457326e-001	 1.5297167380e+000	-1.5140472098e+000
 7.9515376422e-001	 1.5378416868e+000	-1.4624679503e+000
 9.5077694649e-001	 1.4542797007e+000	-1.9286190896e+000
 9.3583560501e-001	 1.4639391963e+000	-1.8803648983e+000
 9.2081291595e-001	 1.4734347029e+000	-1.8329818886e+000
 9.0571153928e-001	 1.4827652739e+000	-1.7861554403e+000
 8.9053414758e-001	 1.4919300191e+000	-1.7395683511e+000
 8.7528342449e-001	 1.5009281051e+000	-1.6929015541e+000
 8.5996206326e-001	 1.5097587555e+000	-1.6458348317e+000
 8.4457276527e-001	 1.5184212505e+000	-1.5980475262e+000
 8.2911823853e-001	 1.5269149277e+000	-1.5492192449e+000
 8.1360119627e-001	 1.5352391811e+000	-1.4990305576e+000
 7.9802435542e-001	 1.5433934618e+000	-1.4471636848e+000
 9.5419700745e-001	 1.4595109227e+000	-1.9156093512e+000
 9.3920192014e-001	 1.4692051646e+000	-1.8670808757e+000
 9.2412519262e-001	 1.4787348278e+000	-1.8193993327e+000
 9.0896949446e-001	 1.4880989620e+000	-1.7722622709e+000
 8.9373750782e-001	 1.4972966739e+000	-1.7253645629e+000
 8.7843192602e-001	 1.5063271271e+000	-1.6783991135e+000
 8.6305545198e-001	 1.5151895423e+000	-1.6310575668e+000
 8.4761079679e-001	 1.5238831975e+000	-1.5830310084e+000
 8.3210067824e-001	 1.5324074274e+000	-1.5340106632e+000
 8.1652781928e-001	 1.5407616242e+000	-1.4836885852e+000
 8.0089494663e-001	 1.5489452369e+000	-1.4317583399e+000
 9.5761706841e-001	 1.4647421446e+000	-1.9002880483e+000
 9.4256823526e-001	 1.4744711329e+000	-1.8516999594e+000
 9.2743746930e-001	 1.4840349526e+000	-1.8039359745e+000
 9.1222744964e-001	 1.4934326500e+000	-1.7567056708e+000
 8.9694086807e-001	 1.5026633286e+000	-1.7097158549e+000
 8.8158042754e-001	 1.5117261490e+000	-1.6626712628e+000
 8.6614884069e-001	 1.5206203292e+000	-1.6152752592e+000
 8.5064882832e-001	 1.5293451444e+000	-1.5672305323e+000
 8.3508311794e-001	 1.5378999272e+000	-1.5182397840e+000
 8.1945444228e-001	 1.5462840674e+000	-1.4680064130e+000
 8.0376553783e-001	 1.5544970119e+000	-1.4162351898e+000
 7.7505962579e-001	 1.4989792615e+000	-1.5681969892e+000
 7.5987560257e-001	 1.5067333270e+000	-1.5151674890e+000
 7.4463878434e-001	 1.5143214094e+000	-1.4647157288e+000
 7.2935181234e-001	 1.5217431399e+000	-1.4167141730e+000
 7.1401732587e-001	 1.5289982042e+000	-1.3710330469e+000
 6.9863796092e-001	 1.5360863418e+000	-1.3275408198e+000
 6.8321634888e-001	 1.5430073463e+000	-1.2861046799e+000
 6.6775511520e-001	 1.5497610642e+000	-1.2465910027e+000
 6.5225687808e-001	 1.5563473953e+000	-1.2088658087e+000
 6.3672424718e-001	 1.5627662919e+000	-1.1727952108e+000
 6.2115982240e-001	 1.5690177580e+000	-1.1733578373e+000
 7.7793021700e-001	 1.5045310365e+000	-1.5531221275e+000
 7.6268995665e-001	 1.5123138208e+000	-1.5018038011e+000
 7.4739670577e-001	 1.5199300072e+000	-1.4531850933e+000
 7.3205311535e-001	 1.5273792256e+000	-1.4071166534e+000
 7.1666183448e-001	 1.5346611605e+000	-1.3634470269e+000
 7.0122550892e-001	 1.5417755505e+000	-1.3220231622e+000
 6.8574677980e-001	 1.5487221883e+000	-1.2826909106e+000
 6.7022828229e-001	 1.5555009200e+000	-1.2452955162e+000
 6.5467264429e-001	 1.5621116450e+000	-1.2096820969e+000
 6.3908248513e-001	 1.5685543152e+000	-1.1756961138e+000
 6.2346041433e-001	 1.5748289349e+000	-1.1571372141e+000
 7.8080080820e-001	 1.5100828116e+000	-1.5380665742e+000
 7.6550431073e-001	 1.5178943146e+000	-1.4882846664e+000
 7.5015462719e-001	 1.5255386050e+000	-1.4413245630e+000
 7.3475441836e-001	 1.5330153113e+000	-1.3970151439e+000
 7.1930634309e-001	 1.5403241168e+000	-1.3551833197e+000
 7.0381305692e-001	 1.5474647592e+000	-1.3156545633e+000
 6.8827721072e-001	 1.5544370303e+000	-1.2782534324e+000
 6.7270144938e-001	 1.5612407758e+000	-1.2428040837e+000
 6.5708841050e-001	 1.5678758946e+000	-1.2091307758e+000
 6.4144072308e-001	 1.5743423385e+000	-1.1770583602e+000
 6.2576100626e-001	 1.5806401118e+000	-1.1464127604e+000
 7.8367139941e-001	 1.5156345866e+000	-1.5230127613e+000
 7.6831866481e-001	 1.5234748084e+000	-1.4745949921e+000
 7.5291254861e-001	 1.5311472028e+000	-1.4291215223e+000
 7.3745572136e-001	 1.5386513970e+000	-1.3863995067e+000
 7.2195085170e-001	 1.5459870731e+000	-1.3462342652e+000
 7.0640060492e-001	 1.5531539678e+000	-1.3084298382e+000
 6.9080764164e-001	 1.5601518723e+000	-1.2727895332e+000
 6.7517461647e-001	 1.5669806316e+000	-1.2391164617e+000
 6.5950417671e-001	 1.5736401442e+000	-1.2072140646e+000
 6.4379896103e-001	 1.5801303618e+000	-1.1768866254e+000
 6.2806159820e-001	 1.5864512887e+000	-1.1479397700e+000
 7.8654199061e-001	 1.5211863617e+000	-1.5079432477e+000
 7.7113301889e-001	 1.5290553022e+000	-1.4607197794e+000
 7.5567047003e-001	 1.5367558006e+000	-1.4165634165e+000
 7.4015702437e-001	 1.5442874827e+000	-1.3752596321e+000
 7.2459536031e-001	 1.5516500294e+000	-1.3365921981e+000
 7.0898815292e-001	 1.5588431765e+000	-1.3003437645e+000
 6.9333807256e-001	 1.5658667143e+000	-1.2662964303e+000
 6.7764778356e-001	 1.5727204874e+000	-1.2342323030e+000
 6.6191994292e-001	 1.5794043938e+000	-1.2039340466e+000
 6.4615719898e-001	 1.5859183851e+000	-1.1751854165e+000
 6.3036219013e-001	 1.5922624656e+000	-1.1477717805e+000
 7.8941258181e-001	 1.5267381367e+000	-1.4928407172e+000
 7.7394737297e-001	 1.5346357960e+000	-1.4466441219e+000
 7.5842839145e-001	 1.5423643984e+000	-1.4036377511e+000
 7.4285832737e-001	 1.5499235684e+000	-1.3635854383e+000
 7.2723986892e-001	 1.5573129857e+000	-1.3262494486e+000
 7.1157570092e-001	 1.5645323852e+000	-1.2913910830e+000
 6.9586850348e-001	 1.5715815564e+000	-1.2587712721e+000
 6.8012095065e-001	 1.5784603432e+000	-1.2281511595e+000
 6.6433570914e-001	 1.5851686434e+000	-1.1992926716e+000
 6.4851543693e-001	 1.5917064084e+000	-1.1719590749e+000
 6.3266278206e-001	 1.5980736424e+000	-1.1459155176e+000
 7.9228317302e-001	 1.5322899117e+000	-1.4776879759e+000
 7.7676172705e-001	 1.5402162898e+000	-1.4323532038e+000
 7.6118631287e-001	 1.5479729962e+000	-1.3903320905e+000
 7.4555963038e-001	 1.5555596541e+000	-1.3513668704e+000
 7.2988437754e-001	 1.5629759420e+000	-1.3151983424e+000
 7.1416324892e-001	 1.5702215939e+000	-1.2815664980e+000
 6.9839893439e-001	 1.5772963984e+000	-1.2502111389e+000
 6.8259411774e-001	 1.5842001989e+000	-1.2208724833e+000
 6.6675147535e-001	 1.5909328930e+000	-1.1932917585e+000
 6.5087367488e-001	 1.5974944317e+000	-1.1672117798e+000
 6.3496337399e-001	 1.6038848193e+000	-1.1423775132e+000
 7.9515376422e-001	 1.5378416868e+000	-1.4624679503e+000
 7.7957608114e-001	 1.5457967836e+000	-1.4178322985e+000
 7.6394423429e-001	 1.5535815940e+000	-1.3766340569e+000
 7.4826093339e-001	 1.5611957398e+000	-1.3385939005e+000
 7.3252888615e-001	 1.5686388983e+000	-1.3034312009e+000
 7.1675079692e-001	 1.5759108025e+000	-1.2708646785e+000
 7.0092936531e-001	 1.5830112404e+000	-1.2406130443e+000
 6.8506728484e-001	 1.5899400547e+000	-1.2123956289e+000
 6.6916724156e-001	 1.5966971426e+000	-1.1859329975e+000
 6.5323191283e-001	 1.6032824550e+000	-1.1609475507e+000
 6.3726396593e-001	 1.6096959962e+000	-1.1371641088e+000
 7.9802435542e-001	 1.5433934618e+000	-1.4471636848e+000
 7.8239043522e-001	 1.5513772774e+000	-1.4030667667e+000
 7.6670215571e-001	 1.5591901918e+000	-1.3625313294e+000
 7.5096223639e-001	 1.5668318255e+000	-1.3252565267e+000
 7.3517339476e-001	 1.5743018546e+000	-1.2909403406e+000
 7.1933834492e-001	 1.5816000112e+000	-1.2592802582e+000
 7.0345979623e-001	 1.5887260824e+000	-1.2299739366e+000
 6.8754045193e-001	 1.5956799105e+000	-1.2027198548e+000
 6.7158300778e-001	 1.6024613922e+000	-1.1772179524e+000
 6.5559015078e-001	 1.6090704783e+000	-1.1531702508e+000
 6.3956455786e-001	 1.6155071731e+000	-1.1302814592e+000
 8.0089494663e-001	 1.5489452369e+000	-1.4317583399e+000
 7.8520478930e-001	 1.5569577712e+000	-1.3880420552e+000
 7.6946007713e-001	 1.5647987897e+000	-1.3480116430e+000
 7.5366353940e-001	 1.5724679112e+000	-1.3113447729e+000
 7.3781790337e-001	 1.5799648110e+000	-1.2777180743e+000
 7.2192589292e-001	 1.5872892199e+000	-1.2468078369e+000
 7.0599022716e-001	 1.5944409245e+000	-1.2182906995e+000
 6.9001361902e-001	 1.6014197663e+000	-1.1918443255e+000
 6.7399877399e-001	 1.6082256418e+000	-1.1671480631e+000
 6.5794838873e-001	 1.6148585016e+000	-1.1438835891e+000
 6.4186514980e-001	 1.6213183500e+000	-1.1217355358e+000
 8.0376553783e-001	 1.5544970119e+000	-1.4162351898e+000
 7.8801914338e-001	 1.5625382650e+000	-1.3727436950e+000
 7.7221799855e-001	 1.5704073875e+000	-1.3330627872e+000
 7.5636484241e-001	 1.5781039969e+000	-1.2968486883e+000
 7.4046241198e-001	 1.5856277673e+000	-1.2637567101e+000
 7.2451344093e-001	 1.5929784285e+000	-1.2334419802e+000
 7.0852065808e-001	 1.6001557665e+000	-1.2055601539e+000
 6.9248678611e-001	 1.6071596221e+000	-1.1797681128e+000
 6.7641454021e-001	 1.6139898915e+000	-1.1557246475e+000
 6.6030662669e-001	 1.6206465249e+000	-1.1330911237e+000
 6.4416574173e-001	 1.6271295268e+000	-1.1115321296e+000
 6.2115982240e-001	 1.5690177580e+000	-1.1733578373e+000
 6.0556619261e-001	 1.5751018495e+000	-1.1501529363e+000
 5.8994593444e-001	 1.5810186730e+000	-1.1253225831e+000
 5.7430161110e-001	 1.5867683856e+000	-1.0986194447e+000
 5.5863577121e-001	 1.5923511940e+000	-1.0698123571e+000
 5.4295094765e-001	 1.5977673543e+000	-1.0386868746e+000
 5.2724965650e-001	 1.6030171708e+000	-1.0050457701e+000
 5.1153439586e-001	 1.6081009956e+000	-9.6870948483e-001
 4.9580764489e-001	 1.6130192278e+000	-9.2951652880e-001
 4.8007186275e-001	 1.6177723130e+000	-8.8732383073e-001
 4.6432948755e-001	 1.6223607419e+000	-8.4200703781e-001
 6.2346041433e-001	 1.5748289349e+000	-1.1571372141e+000
 6.0780903036e-001	 1.5809355601e+000	-1.1353501694e+000
 5.9213091938e-001	 1.5868742977e+000	-1.1118736084e+000
 5.7642865410e-001	 1.5926453055e+000	-1.0864651266e+000
 5.6070479258e-001	 1.5982487911e+000	-1.0588985668e+000
 5.4496187709e-001	 1.6036850112e+000	-1.0289645689e+000
 5.2920243300e-001	 1.6089542714e+000	-9.9647106952e-001
 5.1342896769e-001	 1.6140569252e+000	-9.6124375150e-001
 4.9764396950e-001	 1.6189933731e+000	-9.2312644330e-001
 4.8184990667e-001	 1.6237640623e+000	-8.8198146770e-001
 4.6604922639e-001	 1.6283694854e+000	-8.3768994016e-001
 6.2576100626e-001	 1.5806401118e+000	-1.1464127604e+000
 6.1005186810e-001	 1.5867692706e+000	-1.1194060407e+000
 5.9431590432e-001	 1.5927299225e+000	-1.0974811012e+000
 5.7855569710e-001	 1.5985222255e+000	-1.0735636240e+000
 5.6277381395e-001	 1.6041463881e+000	-1.0474323119e+000
 5.4697280652e-001	 1.6096026680e+000	-1.0188827469e+000
 5.3115520950e-001	 1.6148913720e+000	-9.8772788954e-001
 5.1532353952e-001	 1.6200128548e+000	-9.5379852820e-001
 4.9948029410e-001	 1.6249675184e+000	-9.1694367767e-001
 4.8362795061e-001	 1.6297558116e+000	-8.7703092672e-001
 4.6776896523e-001	 1.6343782289e+000	-8.3394673512e-001
 6.2806159820e-001	 1.5864512887e+000	-1.1479397700e+000
 6.1229470585e-001	 1.5926029812e+000	-1.1023201401e+000
 5.9650088926e-001	 1.5985855472e+000	-1.0821434581e+000
 5.8068274010e-001	 1.6043991454e+000	-1.0599121421e+000
 5.6484283532e-001	 1.6100439851e+000	-1.0354096081e+000
 5.4898373595e-001	 1.6155203249e+000	-1.0084362366e+000
 5.3310798600e-001	 1.6208284727e+000	-9.7880987278e-001
 5.1721811135e-001	 1.6259687844e+000	-9.4636627486e-001
 5.0131661871e-001	 1.6309416637e+000	-9.1095951206e-001
 4.8540599454e-001	 1.6357475609e+000	-8.7246231131e-001
 4.6948870407e-001	 1.6403869724e+000	-8.3076635298e-001
 6.3036219013e-001	 1.5922624656e+000	-1.1477717805e+000
 6.1453754360e-001	 1.5984366917e+000	-1.0840918810e+000
 5.9868587420e-001	 1.6044411719e+000	-1.0658589239e+000
 5.8280978310e-001	 1.6102760654e+000	-1.0455077584e+000
 5.6691185669e-001	 1.6159415821e+000	-1.0228263671e+000
 5.5099466538e-001	 1.6214379818e+000	-9.9761978633e-001
 5.3506076250e-001	 1.6267655733e+000	-9.6971060644e-001
 5.1911268319e-001	 1.6319247140e+000	-9.3893941991e-001
 5.0315294332e-001	 1.6369158090e+000	-9.0516521887e-001
 4.8718403847e-001	 1.6417393102e+000	-8.6826574087e-001
 4.7120844290e-001	 1.6463957159e+000	-8.2813776335e-001
 6.3266278206e-001	 1.5980736424e+000	-1.1459155176e+000
 6.1678038135e-001	 1.6042704023e+000	-1.0647205033e+000
 6.0087085914e-001	 1.6102967966e+000	-1.0486255938e+000
 5.8493682610e-001	 1.6161529853e+000	-1.0303474249e+000
 5.6898087806e-001	 1.6218391791e+000	-1.0096783994e+000
 5.5300559482e-001	 1.6273556386e+000	-9.8642806671e-001
 5.3701353900e-001	 1.6327026739e+000	-9.6042362336e-001
 5.2100725502e-001	 1.6378806436e+000	-9.3151036088e-001
 5.0498926793e-001	 1.6428899542e+000	-8.9955206293e-001
 4.8896208240e-001	 1.6477310595e+000	-8.6443135033e-001
 4.7292818174e-001	 1.6524044594e+000	-8.2604997443e-001
 6.3496337399e-001	 1.6038848193e+000	-1.1423775132e+000
 6.1902321910e-001	 1.6101041128e+000	-1.0442050771e+000
 6.0305584408e-001	 1.6161524213e+000	-1.0304414168e+000
 5.8706386911e-001	 1.6220299053e+000	-1.0144279705e+000
 5.7104989944e-001	 1.6277367761e+000	-9.9596141548e-001
 5.5501652425e-001	 1.6332732955e+000	-9.7485567175e-001
 5.3896631551e-001	 1.6386397746e+000	-9.5094240303e-001
 5.2290182686e-001	 1.6438365732e+000	-9.2407146492e-001
 5.0682559254e-001	 1.6488640995e+000	-8.9411130156e-001
 4.9074012634e-001	 1.6537228088e+000	-8.6094928992e-001
 4.7464792059e-001	 1.6584132029e+000	-8.2449203226e-001
 6.3726396593e-001	 1.6096959962e+000	-1.1371641088e+000
 6.2126605685e-001	 1.6159378234e+000	-1.0225445051e+000
 6.0524082902e-001	 1.6220080460e+000	-1.0113041975e+000
 5.8919091211e-001	 1.6279068252e+000	-9.9774610326e-001
 5.7311892081e-001	 1.6336343731e+000	-9.8167102804e-001
 5.5702745369e-001	 1.6391909524e+000	-9.6289712033e-001
 5.4091909201e-001	 1.6445768752e+000	-9.4126037249e-001
 5.2479639869e-001	 1.6497925028e+000	-9.1661506941e-001
 5.0866191715e-001	 1.6548382448e+000	-8.8883418477e-001
 4.9251817027e-001	 1.6597145581e+000	-8.5780972487e-001
 4.7636765943e-001	 1.6644219464e+000	-8.2345302012e-001
 6.3956455786e-001	 1.6155071731e+000	-1.1302814592e+000
 6.2350889460e-001	 1.6217715339e+000	-9.9973752630e-001
 6.0742581396e-001	 1.6278636707e+000	-9.9121159939e-001
 5.9131795511e-001	 1.6337837452e+000	-9.8029841232e-001
 5.7518794219e-001	 1.6395319702e+000	-9.6680275343e-001
 5.5903838312e-001	 1.6451086092e+000	-9.5054685753e-001
 5.4287186852e-001	 1.6505139758e+000	-9.3137090735e-001
 5.2669097053e-001	 1.6557484324e+000	-9.0913348243e-001
 5.1049824176e-001	 1.6608123901e+000	-8.8371195537e-001
 4.9429621421e-001	 1.6657063074e+000	-8.5500283515e-001
 4.7808739827e-001	 1.6704306898e+000	-8.2292205780e-001
 6.4186514980e-001	 1.6213183500e+000	-1.1217355358e+000
 6.2575173235e-001	 1.6276052445e+000	-9.8211104169e-001
 6.0961079890e-001	 1.6337192955e+000	-9.7016114720e-001
 5.9344499812e-001	 1.6396606651e+000	-9.6208137036e-001
 5.7725696356e-001	 1.6454295672e+000	-9.5135201354e-001
 5.6104931256e-001	 1.6510262661e+000	-9.3779925600e-001
 5.4482464503e-001	 1.6564510764e+000	-9.2126733263e-001
 5.2858554237e-001	 1.6617043621e+000	-9.0161898331e-001
 5.1233456637e-001	 1.6667865354e+000	-8.7873584910e-001
 4.9607425815e-001	 1.6716980567e+000	-8.5251881520e-001
 4.7980713711e-001	 1.6764394333e+000	-8.2288830095e-001
 6.4416574173e-001	 1.6271295268e+000	-1.1115321296e+000
 6.2799457010e-001	 1.6334389551e+000	-9.7566547050e-001
 6.1179578385e-001	 1.6395749202e+000	-9.4815022917e-001
 5.9557204113e-001	 1.6455375851e+000	-9.4309133546e-001
 5.7932598494e-001	 1.6513271642e+000	-9.3531413745e-001
 5.6306024200e-001	 1.6569439230e+000	-9.2464861717e-001
 5.4677742154e-001	 1.6623881771e+000	-9.1094292373e-001
 5.3048011421e-001	 1.6676602917e+000	-8.9406382317e-001
 5.1417089098e-001	 1.6727606807e+000	-8.7389709474e-001
 4.9785230209e-001	 1.6776898060e+000	-8.5034787368e-001
 4.8152687596e-001	 1.6824481768e+000	-8.2334094047e-001
 4.6432948755e-001	 1.6223607419e+000	-8.4200703781e-001
 4.4858293550e-001	 1.6267850503e+000	-8.3429923520e-001
 4.3283459984e-001	 1.6310458176e+000	-8.2479286904e-001
 4.1708685003e-001	 1.6351436663e+000	-8.1333196159e-001
 4.0134203086e-001	 1.6390792611e+000	-7.9978007131e-001
 3.8560246156e-001	 1.6428533080e+000	-7.8402043075e-001
 3.6987043506e-001	 1.6464665533e+000	-7.6595603559e-001
 3.5414821715e-001	 1.6499197830e+000	-7.4550968586e-001
 3.3843804578e-001	 1.6532138214e+000	-7.2262398033e-001
 3.2274213034e-001	 1.6563495305e+000	-6.9726126501e-001
 3.0706265094e-001	 1.6593278092e+000	-6.6940353721e-001
 4.6604922639e-001	 1.6283694854e+000	-8.3768994016e-001
 4.5024435377e-001	 1.6328101801e+000	-8.3000903016e-001
 4.3443769094e-001	 1.6370867281e+000	-8.2055836095e-001
 4.1863161614e-001	 1.6411997540e+000	-8.0917582390e-001
 4.0282848282e-001	 1.6451499251e+000	-7.9571906426e-001
 3.8703061882e-001	 1.6489379499e+000	-7.8006562515e-001
 3.7124032555e-001	 1.6525645776e+000	-7.6211304208e-001
 3.5545987721e-001	 1.6560305970e+000	-7.4177888907e-001
 3.3969152002e-001	 1.6593368355e+000	-7.1900077722e-001
 3.2393747155e-001	 1.6624841584e+000	-6.9373630686e-001
 3.0819992001e-001	 1.6654734677e+000	-6.6596297462e-001
 4.6776896523e-001	 1.6343782289e+000	-8.3394673512e-001
 4.5190577204e-001	 1.6388353100e+000	-8.2632266031e-001
 4.3604078204e-001	 1.6431276385e+000	-8.1695503966e-001
 4.2017638224e-001	 1.6472558416e+000	-8.0567558599e-001
 4.0431493478e-001	 1.6512205890e+000	-7.9233598728e-001
 3.8845877608e-001	 1.6550225918e+000	-7.7680805669e-001
 3.7261021605e-001	 1.6586626019e+000	-7.5898383266e-001
 3.5677153726e-001	 1.6621414110e+000	-7.3877562984e-001
 3.4094499426e-001	 1.6654598497e+000	-7.1611604191e-001
 3.2513281277e-001	 1.6686187863e+000	-6.9095789737e-001
 3.0933718909e-001	 1.6716191263e+000	-6.6327416952e-001
 4.6948870407e-001	 1.6403869724e+000	-8.3076635298e-001
 4.5356719032e-001	 1.6448604398e+000	-8.2322953012e-001
 4.3764387315e-001	 1.6491685489e+000	-8.1397278689e-001
 4.2172114835e-001	 1.6533119293e+000	-8.0282160953e-001
 4.0580138674e-001	 1.6572912529e+000	-7.8962168419e-001
 3.8988693334e-001	 1.6611072336e+000	-7.7423905318e-001
 3.7398010654e-001	 1.6647606261e+000	-7.5656022053e-001
 3.5808319732e-001	 1.6682522250e+000	-7.3649220779e-001
 3.4219846850e-001	 1.6715828638e+000	-7.1396256111e-001
 3.2632815399e-001	 1.6747534142e+000	-6.8891931055e-001
 3.1047445816e-001	 1.6777647849e+000	-6.6133088315e-001
 4.7120844290e-001	 1.6463957159e+000	-8.2813776335e-001
 4.5522860859e-001	 1.6508855696e+000	-8.2071908263e-001
 4.3924696425e-001	 1.6552094594e+000	-8.1160152207e-001
 4.2326591445e-001	 1.6593680169e+000	-8.0060429280e-001
 4.0728783870e-001	 1.6633619168e+000	-7.8756703425e-001
 3.9131509060e-001	 1.6671918755e+000	-7.7234997652e-001
 3.7534999704e-001	 1.6708586504e+000	-7.5483405150e-001
 3.5939485738e-001	 1.6743630390e+000	-7.3492095354e-001
 3.4345194274e-001	 1.6777058780e+000	-7.1253315066e-001
 3.2752349521e-001	 1.6808880421e+000	-6.8761384763e-001
 3.1161172724e-001	 1.6839104434e+000	-6.6012690183e-001
 4.7292818174e-001	 1.6524044594e+000	-8.2604997443e-001
 4.5689002687e-001	 1.6569106994e+000	-8.1878079876e-001
 4.4085005536e-001	 1.6612503698e+000	-8.0983120161e-001
 4.2481068056e-001	 1.6654241046e+000	-7.9901407010e-001
 4.0877429066e-001	 1.6694325808e+000	-7.8616295155e-001
 3.9274324786e-001	 1.6732765174e+000	-7.7113222212e-001
 3.7671988753e-001	 1.6769566747e+000	-7.5379720342e-001
 3.6070651744e-001	 1.6804738530e+000	-7.3405422803e-001
 3.4470541698e-001	 1.6838288921e+000	-7.1182065503e-001
 3.2871883643e-001	 1.6870226700e+000	-6.8703483651e-001
 3.1274899631e-001	 1.6900561020e+000	-6.5965603650e-001
 4.7464792059e-001	 1.6584132029e+000	-8.2449203226e-001
 4.5855144515e-001	 1.6629358292e+000	-8.1740419660e-001
 4.4245314647e-001	 1.6672912802e+000	-8.0865181831e-001
 4.2635544667e-001	 1.6714801922e+000	-7.9804141108e-001
 4.1026074263e-001	 1.6755032447e+000	-7.8540038438e-001
 3.9417140512e-001	 1.6793611593e+000	-7.7057721827e-001
 3.7808977803e-001	 1.6830546990e+000	-7.5344158552e-001
 3.6201817750e-001	 1.6865846670e+000	-7.3388442208e-001
 3.4595889122e-001	 1.6899519063e+000	-7.1181794673e-001
 3.2991417765e-001	 1.6931572979e+000	-6.8717563126e-001
 3.1388626539e-001	 1.6962017605e+000	-6.5991212228e-001
 4.7636765943e-001	 1.6644219464e+000	-8.2345302012e-001
 4.6021286342e-001	 1.6689609590e+000	-8.1657883077e-001
 4.4405623758e-001	 1.6733321907e+000	-8.0805340059e-001
 4.2790021278e-001	 1.6775362799e+000	-7.9767682005e-001
 4.1174719459e-001	 1.6815739086e+000	-7.8527031457e-001
 3.9559956239e-001	 1.6854458012e+000	-7.7067642552e-001
 3.7945966853e-001	 1.6891527232e+000	-7.5375913792e-001
 3.6332983756e-001	 1.6926954811e+000	-7.3440395576e-001
 3.4721236546e-001	 1.6960749204e+000	-7.1251792589e-001
 3.3110951887e-001	 1.6992919258e+000	-6.8802961172e-001
 3.1502353446e-001	 1.7023474191e+000	-6.6088901800e-001
 4.7808739827e-001	 1.6704306898e+000	-8.2292205780e-001
 4.6187428170e-001	 1.6749860889e+000	-8.1629429177e-001
 4.4565932869e-001	 1.6793731011e+000	-8.0802601197e-001
 4.2944497889e-001	 1.6835923675e+000	-7.9791083544e-001
 4.1323364655e-001	 1.6876445726e+000	-7.8576375694e-001
 3.9702771965e-001	 1.6915304431e+000	-7.7142133616e-001
 3.8082955903e-001	 1.6952507475e+000	-7.5474183106e-001
 3.6464149763e-001	 1.6988062951e+000	-7.3560527794e-001
 3.4846583970e-001	 1.7021979346e+000	-7.1391351969e-001
 3.3230486010e-001	 1.7054265537e+000	-6.8959018295e-001
 3.1616080354e-001	 1.7084930776e+000	-6.6258060584e-001
 4.7980713711e-001	 1.6764394333e+000	-8.2288830095e-001
 4.6353569998e-001	 1.6810112187e+000	-8.1654020527e-001
 4.4726241980e-001	 1.6854140115e+000	-8.0855975034e-001
 4.3098974500e-001	 1.6896484552e+000	-7.9873402912e-001
 4.1472009852e-001	 1.6937152365e+000	-7.8687175865e-001
 3.9845587692e-001	 1.6976150849e+000	-7.7280347361e-001
 3.8219944953e-001	 1.7013487718e+000	-7.5638166510e-001
 3.6595315769e-001	 1.7049171091e+000	-7.3748086572e-001
 3.4971931394e-001	 1.7083209487e+000	-7.1599768194e-001
 3.3350020132e-001	 1.7115611816e+000	-6.9185077486e-001
 3.1729807261e-001	 1.7146387362e+000	-6.6498079082e-001
 4.8152687596e-001	 1.6824481768e+000	-8.2334094047e-001
 4.6519711827e-001	 1.6870363485e+000	-8.1730623157e-001
 4.4886551091e-001	 1.6914549220e+000	-8.0964474742e-001
 4.3253451111e-001	 1.6957045429e+000	-8.0013700582e-001
 4.1620655049e-001	 1.6997859004e+000	-7.8858539869e-001
 3.9988403418e-001	 1.7036997268e+000	-7.7481439185e-001
 3.8356934003e-001	 1.7074467961e+000	-7.5867066946e-001
 3.6726481775e-001	 1.7110279231e+000	-7.4002322394e-001
 3.5097278819e-001	 1.7144439629e+000	-7.1876339254e-001
 3.3469554254e-001	 1.7176958094e+000	-6.9480484170e-001
 3.1843534169e-001	 1.7207843947e+000	-6.6808350047e-001
 3.0706265094e-001	 1.6593278092e+000	-6.6940353721e-001
 2.9140175784e-001	 1.6621495918e+000	-6.5341092528e-001
 2.7576157078e-001	 1.6648158475e+000	-6.3654623572e-001
 2.6014417840e-001	 1.6673275792e+000	-6.1880484509e-001
 2.4455163771e-001	 1.6696858227e+000	-6.0020041869e-001
 2.2898597361e-001	 1.6718916454e+000	-5.8076466612e-001
 2.1344917832e-001	 1.6739461456e+000	-5.6054706069e-001
 1.9794321102e-001	 1.6758504513e+000	-5.3961452408e-001
 1.8246999737e-001	 1.6776057195e+000	-5.1805107814e-001
 1.6703142915e-001	 1.6792131347e+000	-4.9595746547e-001
 1.5162936392e-001	 1.6806739083e+000	-4.7345074051e-001
 3.0819992001e-001	 1.6654734677e+000	-6.6596297462e-001
 2.9248102361e-001	 1.6683057014e+000	-6.4976087148e-001
 2.7678290993e-001	 1.6709818321e+000	-6.3280047176e-001
 2.6110767535e-001	 1.6735028665e+000	-6.1507677699e-001
 2.4545738452e-001	 1.6758698442e+000	-5.9660314593e-001
 2.2983406981e-001	 1.6780838367e+000	-5.7741105100e-001
 2.1423973083e-001	 1.6801459461e+000	-5.5754979799e-001
 1.9867633402e-001	 1.6820573048e+000	-5.3708621097e-001
 1.8314581217e-001	 1.6838190740e+000	-5.1610428383e-001
 1.6765006407e-001	 1.6854324426e+000	-4.9470480044e-001
 1.5219095416e-001	 1.6868986265e+000	-4.7300492500e-001
 3.0933718909e-001	 1.6716191263e+000	-6.6327416952e-001
 2.9356028938e-001	 1.6744618110e+000	-6.4693107951e-001
 2.7780424907e-001	 1.6771478167e+000	-6.2993938881e-001
 2.6207117230e-001	 1.6796781539e+000	-6.1229369570e-001
 2.4636313132e-001	 1.6820538658e+000	-5.9400702863e-001
 2.3068216600e-001	 1.6842760279e+000	-5.7511060326e-001
 2.1503028334e-001	 1.6863457466e+000	-5.5565354264e-001
 1.9940945702e-001	 1.6882641584e+000	-5.3570256210e-001
 1.8382162697e-001	 1.6900324285e+000	-5.1534162065e-001
 1.6826869900e-001	 1.6916517505e+000	-4.9467154054e-001
 1.5275254439e-001	 1.6931233446e+000	-4.7380959682e-001
 3.1047445816e-001	 1.6777647849e+000	-6.6133088315e-001
 2.9463955514e-001	 1.6806179206e+000	-6.4491507005e-001
 2.7882558822e-001	 1.6833138014e+000	-6.2795627910e-001
 2.6303466926e-001	 1.6858534412e+000	-6.1044867704e-001
 2.4726887813e-001	 1.6882378874e+000	-5.9240493798e-001
 2.3153026220e-001	 1.6904682192e+000	-5.7385600117e-001
 2.1582083585e-001	 1.6925455472e+000	-5.5485079148e-001
 2.0014258003e-001	 1.6944710119e+000	-5.3545590429e-001
 1.8449744178e-001	 1.6962457830e+000	-5.1575525661e-001
 1.6888733392e-001	 1.6978710584e+000	-4.9584970604e-001
 1.5331413463e-001	 1.6993480628e+000	-4.7585663945e-001
 3.1161172724e-001	 1.6839104434e+000	-6.6012690183e-001
 2.9571882091e-001	 1.6867740302e+000	-6.4370639723e-001
 2.7984692737e-001	 1.6894797860e+000	-6.2684447638e-001
 2.6399816621e-001	 1.6920287285e+000	-6.0953484598e-001
 2.4817462493e-001	 1.6944219090e+000	-5.9178980173e-001
 2.3237835840e-001	 1.6966604105e+000	-5.7363998660e-001
 2.1661138837e-001	 1.6987453477e+000	-5.5513411169e-001
 2.0087570303e-001	 1.7006778654e+000	-5.3633864107e-001
 1.8517325658e-001	 1.7024591376e+000	-5.1733744249e-001
 1.6950596884e-001	 1.7040903663e+000	-4.9823140572e-001
 1.5387572487e-001	 1.7055727810e+000	-4.7913803026e-001
 3.1274899631e-001	 1.6900561020e+000	-6.5965603650e-001
 2.9679808668e-001	 1.6929301398e+000	-6.4329864799e-001
 2.8086826652e-001	 1.6956457706e+000	-6.2659735509e-001
 2.6496166317e-001	 1.6982040159e+000	-6.0954537584e-001
 2.4908037174e-001	 1.7006059305e+000	-5.9215460318e-001
 2.3322645459e-001	 1.7028526018e+000	-5.7445536387e-001
 2.1740194088e-001	 1.7049451483e+000	-5.5649613950e-001
 2.0160882603e-001	 1.7068847189e+000	-5.3834325127e-001
 1.8584907139e-001	 1.7086724921e+000	-5.2008051031e-001
 1.7012460376e-001	 1.7103096742e+000	-5.0180883522e-001
 1.5443731511e-001	 1.7117974992e+000	-4.8364583882e-001
 3.1388626539e-001	 1.6962017605e+000	-6.5991212228e-001
 2.9787735244e-001	 1.6990862494e+000	-6.4368544153e-001
 2.8188960567e-001	 1.7018117552e+000	-6.2720832969e-001
 2.6592516012e-001	 1.7043793032e+000	-6.1047348732e-001
 2.4998611854e-001	 1.7067899521e+000	-5.9349238017e-001
 2.3407455079e-001	 1.7090447931e+000	-5.7629499864e-001
 2.1819249339e-001	 1.7111449488e+000	-5.5892957893e-001
 2.0234194904e-001	 1.7130915725e+000	-5.4146228771e-001
 1.8652488619e-001	 1.7148858466e+000	-5.2397687192e-001
 1.7074323869e-001	 1.7165289821e+000	-5.0657427552e-001
 1.5499890535e-001	 1.7180222174e+000	-4.8937222519e-001
 3.1502353446e-001	 1.7023474191e+000	-6.6088901800e-001
 2.9895661821e-001	 1.7052423590e+000	-6.4486042871e-001
 2.8291094482e-001	 1.7079777398e+000	-6.2867085389e-001
 2.6688865708e-001	 1.7105545905e+000	-6.1231244770e-001
 2.5089186535e-001	 1.7129739737e+000	-5.9579622409e-001
 2.3492264699e-001	 1.7152369843e+000	-5.7915181679e-001
 2.1898304590e-001	 1.7173447494e+000	-5.6242720059e-001
 2.0307507204e-001	 1.7192984260e+000	-5.4568837581e-001
 1.8720070100e-001	 1.7210992011e+000	-5.2901901747e-001
 1.7136187361e-001	 1.7227482900e+000	-5.1252009135e-001
 1.5556049558e-001	 1.7242469355e+000	-4.9630943832e-001
 3.1616080354e-001	 1.7084930776e+000	-6.6258060584e-001
 3.0003588398e-001	 1.7113984686e+000	-6.4681729147e-001
 2.8393228397e-001	 1.7141437245e+000	-6.3097841998e-001
 2.6785215403e-001	 1.7167298779e+000	-6.1505556998e-001
 2.5179761215e-001	 1.7191579952e+000	-5.9905927889e-001
 2.3577074319e-001	 1.7214291756e+000	-5.8301880332e-001
 2.1977359841e-001	 1.7235445499e+000	-5.6698184046e-001
 2.0380819504e-001	 1.7255052795e+000	-5.5101421228e-001
 1.8787651581e-001	 1.7273125556e+000	-5.3519951411e-001
 1.7198050854e-001	 1.7289675979e+000	-5.1963872970e-001
 1.5612208582e-001	 1.7304716537e+000	-5.0444981444e-001
 3.1729807261e-001	 1.7146387362e+000	-6.6498079082e-001
 3.0111514975e-001	 1.7175545782e+000	-6.4954974229e-001
 2.8495362312e-001	 1.7203097091e+000	-6.3412455812e-001
 2.6881565099e-001	 1.7229051652e+000	-6.1869621210e-001
 2.5270335896e-001	 1.7253420168e+000	-6.0327474020e-001
 2.3661883939e-001	 1.7276213669e+000	-5.8788900132e-001
 2.2056415093e-001	 1.7297443504e+000	-5.7258639873e-001
 2.0454131805e-001	 1.7317121331e+000	-5.5743256390e-001
 1.8855233061e-001	 1.7335259102e+000	-5.4251100449e-001
 1.7259914346e-001	 1.7351869058e+000	-5.2792271836e-001
 1.5668367606e-001	 1.7366963719e+000	-5.1378577548e-001
 3.1843534169e-001	 1.7207843947e+000	-6.6808350047e-001
 3.0219441552e-001	 1.7237106878e+000	-6.5305152362e-001
 2.8597496227e-001	 1.7264756937e+000	-6.3810283563e-001
 2.6977914795e-001	 1.7290804525e+000	-6.2322777606e-001
 2.5360910576e-001	 1.7315260384e+000	-6.0843585434e-001
 2.3746693558e-001	 1.7338135582e+000	-5.9375551091e-001
 2.2135470344e-001	 1.7359441510e+000	-5.7923383864e-001
 2.0527444105e-001	 1.7379189866e+000	-5.6493626622e-001
 1.8922814542e-001	 1.7397392647e+000	-5.5094620552e-001
 1.7321777839e-001	 1.7414062138e+000	-5.3736466446e-001
 1.5724526631e-001	 1.7429210901e+000	-5.2430982758e-001
 1.5162936392e-001	 1.6806739083e+000	-4.7345074051e-001
 1.3626562467e-001	 1.6819892775e+000	-4.7585471572e-001
 1.2094199952e-001	 1.6831605042e+000	-4.7452118036e-001
 1.0566024150e-001	 1.6841888740e+000	-4.6958247905e-001
 9.0422068278e-002	 1.6850756955e+000	-4.6118915858e-001
 7.5229161969e-002	 1.6858222988e+000	-4.4950937661e-001
 6.0083168965e-002	 1.6864300350e+000	-4.3472828899e-001
 4.4985699785e-002	 1.6869002747e+000	-4.1704741785e-001
 2.9938328957e-002	 1.6872344077e+000	-3.9668400223e-001
 1.4942594928e-002	 1.6874338413e+000	-3.7387033334e-001
 0.0000000000e+000	 1.6875000000e+000	-3.4885307637e-001
 1.5219095416e-001	 1.6868986265e+000	-4.7300492500e-001
 1.3677031216e-001	 1.6882188674e+000	-4.7524109347e-001
 1.2138993285e-001	 1.6893944319e+000	-4.7376680361e-001
 1.0605157573e-001	 1.6904266106e+000	-4.6871052449e-001
 9.0756964827e-002	 1.6913167166e+000	-4.6021915889e-001
 7.5507788495e-002	 1.6920660851e+000	-4.4845744996e-001
 6.0305699221e-002	 1.6926760721e+000	-4.3360736623e-001
 4.5152313488e-002	 1.6931480535e+000	-4.1586746687e-001
 3.0049211657e-002	 1.6934834240e+000	-3.9545224928e-001
 1.4997937873e-002	 1.6936835963e+000	-3.7259148092e-001
 0.0000000000e+000	 1.6937500000e+000	-3.4752951733e-001
 1.5275254439e-001	 1.6931233446e+000	-4.7380959682e-001
 1.3727499966e-001	 1.6944484573e+000	-4.7583017166e-001
 1.2183786618e-001	 1.6956283597e+000	-4.7416405871e-001
 1.0644290996e-001	 1.6966643472e+000	-4.6893588375e-001
 9.1091861377e-002	 1.6975577377e+000	-4.6028894065e-001
 7.5786415021e-002	 1.6983098714e+000	-4.4838459592e-001
 6.0528229477e-002	 1.6989221093e+000	-4.3340167132e-001
 4.5318927191e-002	 1.6993958323e+000	-4.1553580622e-001
 3.0160094357e-002	 1.6997324403e+000	-3.9499880203e-001
 1.5053280817e-002	 1.6999333513e+000	-3.7201795045e-001
 0.0000000000e+000	 1.7000000000e+000	-3.4683534771e-001
 1.5331413463e-001	 1.6993480628e+000	-4.7585663945e-001
 1.3777968716e-001	 1.7006780472e+000	-4.7761452846e-001
 1.2228579952e-001	 1.7018622875e+000	-4.7570621932e-001
 1.0683424419e-001	 1.7029020837e+000	-4.7025252643e-001
 9.1426757927e-002	 1.7037987588e+000	-4.6139316947e-001
 7.6065041548e-002	 1.7045536577e+000	-4.4928617593e-001
 6.0750759733e-002	 1.7051681465e+000	-4.3410726098e-001
 4.5485540895e-002	 1.7056436111e+000	-4.1604918705e-001
 3.0270977058e-002	 1.7059814567e+000	-3.9532110487e-001
 1.5108623762e-002	 1.7061831062e+000	-3.7214787814e-001
 0.0000000000e+000	 1.7062500000e+000	-3.4676939381e-001
 1.5387572487e-001	 1.7055727810e+000	-4.7913803026e-001
 1.3828437466e-001	 1.7069076371e+000	-4.8058682901e-001
 1.2273373285e-001	 1.7080962153e+000	-4.7838663899e-001
 1.0722557842e-001	 1.7091398203e+000	-4.7265449471e-001
 9.1761654478e-002	 1.7100397799e+000	-4.6352657618e-001
 7.6343668076e-002	 1.7107974440e+000	-4.5115760899e-001
 6.0973289990e-002	 1.7114141836e+000	-4.3572024171e-001
 4.5652154600e-002	 1.7118913899e+000	-4.1740440233e-001
 3.0381859759e-002	 1.7122304730e+000	-3.9641663593e-001
 1.5163966706e-002	 1.7124328612e+000	-3.7297942569e-001
 0.0000000000e+000	 1.7125000000e+000	-3.4733049904e-001
 1.5443731511e-001	 1.7117974992e+000	-4.8364583882e-001
 1.3878906216e-001	 1.7131372271e+000	-4.8473982386e-001
 1.2318166618e-001	 1.7143301431e+000	-4.8219874967e-001
 1.0761691265e-001	 1.7153775569e+000	-4.7613590211e-001
 9.2096551030e-002	 1.7162808010e+000	-4.6668395554e-001
 7.6622294604e-002	 1.7170412303e+000	-4.5399437062e-001
 6.1195820248e-002	 1.7176602208e+000	-4.3823676888e-001
 4.5818768305e-002	 1.7181391687e+000	-4.1959828610e-001
 3.0492742460e-002	 1.7184794893e+000	-3.9828290650e-001
 1.5219309651e-002	 1.7186826162e+000	-3.7451077987e-001
 0.0000000000e+000	 1.7187500000e+000	-3.4851752366e-001
 1.5499890535e-001	 1.7180222174e+000	-4.8937222519e-001
 1.3929374967e-001	 1.7193668170e+000	-4.9006634741e-001
 1.2362959952e-001	 1.7205640709e+000	-4.8713606035e-001
 1.0800824688e-001	 1.7216152934e+000	-4.8069093212e-001
 9.2431447583e-002	 1.7225218221e+000	-4.7086016518e-001
 7.6900921133e-002	 1.7232850166e+000	-4.5779199182e-001
 6.1418350506e-002	 1.7239062580e+000	-4.4165304585e-001
 4.5985382010e-002	 1.7243869475e+000	-4.2262771278e-001
 3.0603625162e-002	 1.7247285056e+000	-4.0091746041e-001
 1.5274652596e-002	 1.7249323711e+000	-3.7674015206e-001
 0.0000000000e+000	 1.7250000000e+000	-3.5032934443e-001
 1.5556049558e-001	 1.7242469355e+000	-4.9630943832e-001
 1.3979843717e-001	 1.7255964069e+000	-4.9655931637e-001
 1.2407753285e-001	 1.7267979987e+000	-4.9319215565e-001
 1.0839958111e-001	 1.7278530300e+000	-4.8631383698e-001
 9.2766344136e-002	 1.7287628432e+000	-4.7605012439e-001
 7.7179547663e-002	 1.7295288029e+000	-4.6254605807e-001
 6.1640880765e-002	 1.7301522951e+000	-4.4596532312e-001
 4.6151995716e-002	 1.7306347263e+000	-4.2648959638e-001
 3.0714507864e-002	 1.7309775220e+000	-4.0431787344e-001
 1.5329995542e-002	 1.7311821261e+000	-3.7966577779e-001
 0.0000000000e+000	 1.7312500000e+000	-3.5276485435e-001
 1.5612208582e-001	 1.7304716537e+000	-5.0444981444e-001
 1.4030312467e-001	 1.7318259968e+000	-5.0421172833e-001
 1.2452546619e-001	 1.7330319265e+000	-5.0036069441e-001
 1.0879091534e-001	 1.7340907666e+000	-4.9299893642e-001
 9.3101240689e-002	 1.7350038643e+000	-4.8224881307e-001
 7.7458174193e-002	 1.7357725892e+000	-4.6825220838e-001
 6.1863411025e-002	 1.7363983323e+000	-4.5116989744e-001
 4.6318609422e-002	 1.7368825051e+000	-4.3118088981e-001
 3.0825390566e-002	 1.7372265383e+000	-4.0848175275e-001
 1.5385338487e-002	 1.7374318811e+000	-3.8328591630e-001
 0.0000000000e+000	 1.7375000000e+000	-3.5582296233e-001
 1.5668367606e-001	 1.7366963719e+000	-5.1378577548e-001
 1.4080781217e-001	 1.7380555867e+000	-5.1301666029e-001
 1.2497339952e-001	 1.7392658543e+000	-5.0863540844e-001
 1.0918224957e-001	 1.7403285032e+000	-5.0074061647e-001
 9.3436137244e-002	 1.7412448854e+000	-4.8945127058e-001
 7.7736800724e-002	 1.7420163754e+000	-4.7490613427e-001
 6.2085941284e-002	 1.7426443695e+000	-4.5726311102e-001
 4.6485223129e-002	 1.7431302839e+000	-4.3669858418e-001
 3.0936273269e-002	 1.7434755546e+000	-4.1340673632e-001
 1.5440681433e-002	 1.7436816360e+000	-3.8759885014e-001
 0.0000000000e+000	 1.7437500000e+000	-3.5950259294e-001
 1.5724526631e-001	 1.7429210901e+000	-5.2430982758e-001
 1.4131249968e-001	 1.7442851766e+000	-5.2296726721e-001
 1.2542133286e-001	 1.7454997821e+000	-5.1801010116e-001
 1.0957358381e-001	 1.7465662397e+000	-5.0953332828e-001
 9.3771033799e-002	 1.7474859064e+000	-4.9765259474e-001
 7.8015427255e-002	 1.7482601617e+000	-4.8250357890e-001
 6.2308471545e-002	 1.7488904066e+000	-4.6424135072e-001
 4.6651836836e-002	 1.7493780627e+000	-4.4303970814e-001
 3.1047155971e-002	 1.7497245709e+000	-4.1909049241e-001
 1.5496024379e-002	 1.7499313910e+000	-3.9260288473e-001
 0.0000000000e+000	 1.7500000000e+000	-3.6380268608e-001
 1.7500000000e+000	 0.0000000000e+000	 3.4785754692e+000
 1.7499313910e+000	 1.5496024379e-002	 3.4855446355e+000
 1.7497245709e+000	 3.1047155971e-002	 3.4858035233e+000
 1.7493780627e+000	 4.6651836836e-002	 3.4790850448e+000
 1.7488904066e+000	 6.2308471545e-002	 3.4651521061e+000
 1.7482601617e+000	 7.8015427255e-002	 3.4437987737e+000
 1.7474859064e+000	 9.3771033799e-002	 3.4148514120e+000
 1.7465662397e+000	 1.0957358381e-001	 3.3781697879e+000
 1.7454997821e+000	 1.2542133286e-001	 3.3336481376e+000
 1.7442851766e+000	 1.4131249968e-001	 3.2812161939e+000
 1.7429210901e+000	 1.5724526631e-001	 3.2208401685e+000
 1.7562500000e+000	 0.0000000000e+000	 3.4795790330e+000
 1.7561811460e+000	 1.5551367325e-002	 3.4846748278e+000
 1.7559735873e+000	 3.1158038674e-002	 3.4832317898e+000
 1.7556258415e+000	 4.6818450543e-002	 3.4749880830e+000
 1.7551364438e+000	 6.2531001806e-002	 3.4597121159e+000
 1.7545039480e+000	 7.8294053787e-002	 3.4372037115e+000
 1.7537269275e+000	 9.4105930354e-002	 3.4072952472e+000
 1.7528039763e+000	 1.0996491804e-001	 3.3698527611e+000
 1.7517337099e+000	 1.2586926620e-001	 3.3247770204e+000
 1.7505147666e+000	 1.4181718718e-001	 3.2720045495e+000
 1.7491458083e+000	 1.5780685655e-001	 3.2115086126e+000
 1.7625000000e+000	 0.0000000000e+000	 3.4807383841e+000
 1.7624309009e+000	 1.5606710270e-002	 3.4840423290e+000
 1.7622226036e+000	 3.1268921377e-002	 3.4809726858e+000
 1.7618736203e+000	 4.6985064250e-002	 3.4712727865e+000
 1.7613824810e+000	 6.2753532066e-002	 3.4547164629e+000
 1.7607477343e+000	 7.8572680318e-002	 3.4311092200e+000
 1.7599679486e+000	 9.4440826909e-002	 3.4002893786e+000
 1.7590417129e+000	 1.1035625227e-001	 3.3621291835e+000
 1.7579676377e+000	 1.2631719954e-001	 3.3165358737e+000
 1.7567443565e+000	 1.4232187468e-001	 3.2634527115e+000
 1.7553705264e+000	 1.5836844679e-001	 3.2028599654e+000
 1.7687500000e+000	 0.0000000000e+000	 3.4820479390e+000
 1.7686806559e+000	 1.5662053216e-002	 3.4836407893e+000
 1.7684716199e+000	 3.1379804079e-002	 3.4790191065e+000
 1.7681213990e+000	 4.7151677956e-002	 3.4679313068e+000
 1.7676285181e+000	 6.2976062325e-002	 3.4501565668e+000
 1.7669915206e+000	 7.8851306848e-002	 3.4255059997e+000
 1.7662089697e+000	 9.4775723463e-002	 3.3938238003e+000
 1.7652794494e+000	 1.1074758651e-001	 3.3549883564e+000
 1.7642015655e+000	 1.2676513287e-001	 3.3089133200e+000
 1.7629739464e+000	 1.4282656219e-001	 3.2555486380e+000
 1.7615952446e+000	 1.5893003703e-001	 3.1948815356e+000
 1.7750000000e+000	 0.0000000000e+000	 3.4835021930e+000
 1.7749304109e+000	 1.5717396161e-002	 3.4834639466e+000
 1.7747206362e+000	 3.1490686781e-002	 3.4773640426e+000
 1.7743691778e+000	 4.7318291662e-002	 3.4649558990e+000
 1.7738745553e+000	 6.3198592584e-002	 3.4460239588e+000
 1.7732353069e+000	 7.9129933378e-002	 3.4203848695e+000
 1.7724499908e+000	 9.5110620016e-002	 3.3878886319e+000
 1.7715171860e+000	 1.1113892074e-001	 3.3484197129e+000
 1.7704354933e+000	 1.2721306621e-001	 3.3018981194e+000
 1.7692035363e+000	 1.4333124969e-001	 3.2482804300e+000
 1.7678199628e+000	 1.5949162727e-001	 3.1875607795e+000
 1.7812500000e+000	 0.0000000000e+000	 3.4850957184e+000
 1.7811801658e+000	 1.5772739106e-002	 3.4835056244e+000
 1.7809696526e+000	 3.1601569483e-002	 3.4760005793e+000
 1.7806169566e+000	 4.7484905367e-002	 3.4623389206e+000
 1.7801205925e+000	 6.3421122843e-002	 3.4423102796e+000
 1.7794790932e+000	 7.9408559908e-002	 3.4157367654e+000
 1.7786910119e+000	 9.5445516570e-002	 3.3824741162e+000
 1.7777549226e+000	 1.1153025497e-001	 3.3424128152e+000
 1.7766694211e+000	 1.2766099954e-001	 3.2954791666e+000
 1.7754331262e+000	 1.4383593719e-001	 3.2416363283e+000
 1.7740446810e+000	 1.6005321751e-001	 3.1808852982e+000
 1.7875000000e+000	 0.0000000000e+000	 3.4868231636e+000
 1.7874299208e+000	 1.5828082051e-002	 3.4837597309e+000
 1.7872186689e+000	 3.1712452184e-002	 3.4749218946e+000
 1.7868647354e+000	 4.7651519072e-002	 3.4600728293e+000
 1.7863666296e+000	 6.3643653101e-002	 3.4390072777e+000
 1.7857228795e+000	 7.9687186437e-002	 3.4115527376e+000
 1.7849320330e+000	 9.5780413122e-002	 3.3775706170e+000
 1.7839926591e+000	 1.1192158920e-001	 3.3369573529e+000
 1.7829033489e+000	 1.2810893288e-001	 3.2896454892e+000
 1.7816627161e+000	 1.4434062470e-001	 3.2356047120e+000
 1.7802693992e+000	 1.6061480775e-001	 3.1748428354e+000
 1.7937500000e+000	 0.0000000000e+000	 3.4886792516e+000
 1.7936796758e+000	 1.5883424996e-002	 3.4842202574e+000
 1.7934676852e+000	 3.1823334885e-002	 3.4741212572e+000
 1.7931125142e+000	 4.7818132777e-002	 3.4581501817e+000
 1.7926126668e+000	 6.3866183359e-002	 3.4361068075e+000
 1.7919666658e+000	 7.9965812965e-002	 3.4078239490e+000
 1.7911730541e+000	 9.6115309675e-002	 3.3731686171e+000
 1.7902303957e+000	 1.1231292343e-001	 3.3320431401e+000
 1.7891372766e+000	 1.2855686622e-001	 3.2843862454e+000
 1.7878923061e+000	 1.4484531220e-001	 3.2301740951e+000
 1.7864941173e+000	 1.6117639799e-001	 3.1694212746e+000
 1.8000000000e+000	 0.0000000000e+000	 3.4906587786e+000
 1.7999294307e+000	 1.5938767941e-002	 3.4848812764e+000
 1.7997167015e+000	 3.1934217586e-002	 3.4735920256e+000
 1.7993602930e+000	 4.7984746481e-002	 3.4565636311e+000
 1.7988587040e+000	 6.4088713616e-002	 3.4336008273e+000
 1.7982104521e+000	 8.0244439493e-002	 3.4045416735e+000
 1.7974140752e+000	 9.6450206226e-002	 3.3692587162e+000
 1.7964681323e+000	 1.1270425766e-001	 3.3276601141e+000
 1.7953712044e+000	 1.2900479955e-001	 3.2796907210e+000
 1.7941218960e+000	 1.4534999970e-001	 3.2253331248e+000
 1.7927188355e+000	 1.6173798823e-001	 3.1646086369e+000
 1.8062500000e+000	 0.0000000000e+000	 3.4927566128e+000
 1.8061791857e+000	 1.5994110885e-002	 3.4857369411e+000
 1.8059657179e+000	 3.2045100287e-002	 3.4733276459e+000
 1.8056080718e+000	 4.8151360185e-002	 3.4553059262e+000
 1.8051047411e+000	 6.4311243872e-002	 3.4314813976e+000
 1.8044542384e+000	 8.0523066021e-002	 3.4016972933e+000
 1.8036550963e+000	 9.6785102778e-002	 3.3658316290e+000
 1.8027058689e+000	 1.1309559190e-001	 3.3237983323e+000
 1.8016051322e+000	 1.2945273288e-001	 3.2755483279e+000
 1.8003514859e+000	 1.4585468720e-001	 3.2210705792e+000
 1.7989435537e+000	 1.6229957847e-001	 3.1603930784e+000
 1.8125000000e+000	 0.0000000000e+000	 3.4949676932e+000
 1.8124289407e+000	 1.6049453830e-002	 3.4867814829e+000
 1.8122147342e+000	 3.2155982987e-002	 3.4733216507e+000
 1.8118558506e+000	 4.8317973888e-002	 3.4543699091e+000
 1.8113507783e+000	 6.4533774129e-002	 3.4297406796e+000
 1.8106980247e+000	 8.0801692547e-002	 3.3992822976e+000
 1.8098961174e+000	 9.7119999328e-002	 3.3628781829e+000
 1.8089436054e+000	 1.1348692612e-001	 3.3204479709e+000
 1.8078390600e+000	 1.2990066622e-001	 3.2719486019e+000
 1.8065810758e+000	 1.4635937471e-001	 3.2173753645e+000
 1.8051682719e+000	 1.6286116871e-001	 3.1567628881e+000
 1.7429210901e+000	 1.5724526631e-001	 3.2208401685e+000
 1.7414062138e+000	 1.7321777839e-001	 3.1701429458e+000
 1.7397392647e+000	 1.8922814542e-001	 3.1172482407e+000
 1.7379189866e+000	 2.0527444105e-001	 3.0622261574e+000
 1.7359441510e+000	 2.2135470344e-001	 3.0051812548e+000
 1.7338135582e+000	 2.3746693558e-001	 2.9462531463e+000
 1.7315260384e+000	 2.5360910576e-001	 2.8856170373e+000
 1.7290804525e+000	 2.6977914795e-001	 2.8234841982e+000
 1.7264756937e+000	 2.8597496227e-001	 2.7601023685e+000
 1.7237106878e+000	 3.0219441552e-001	 2.6957560907e+000
 1.7207843947e+000	 3.1843534169e-001	 2.6307669684e+000
 1.7491458083e+000	 1.5780685655e-001	 3.2115086126e+000
 1.7476255217e+000	 1.7383641331e-001	 3.1600094059e+000
 1.7459526192e+000	 1.8990396023e-001	 3.1063829439e+000
 1.7441258401e+000	 2.0600756406e-001	 3.0507043324e+000
 1.7421439515e+000	 2.2214525595e-001	 2.9930834626e+000
 1.7400057495e+000	 2.3831503178e-001	 2.9336656119e+000
 1.7377100599e+000	 2.5451485257e-001	 2.8726319817e+000
 1.7352557399e+000	 2.7074264490e-001	 2.8102001702e+000
 1.7326416783e+000	 2.8699630142e-001	 2.7466245753e+000
 1.7298667974e+000	 3.0327368129e-001	 2.6821967263e+000
 1.7269300533e+000	 3.1957261077e-001	 2.6172455393e+000
 1.7553705264e+000	 1.5836844679e-001	 3.2028599654e+000
 1.7538448296e+000	 1.7445504824e-001	 3.1505583193e+000
 1.7521659737e+000	 1.9057977504e-001	 3.0961939243e+000
 1.7503326936e+000	 2.0674068707e-001	 3.0398468746e+000
 1.7483437521e+000	 2.2293580847e-001	 2.9816323857e+000
 1.7461979408e+000	 2.3916312798e-001	 2.9217013975e+000
 1.7438940815e+000	 2.5542059938e-001	 2.8602411117e+000
 1.7414310272e+000	 2.7170614186e-001	 2.7974754650e+000
 1.7388076630e+000	 2.8801764057e-001	 2.7336655302e+000
 1.7360229070e+000	 3.0435294706e-001	 2.6691098467e+000
 1.7330757118e+000	 3.2070987985e-001	 2.6041446727e+000
 1.7615952446e+000	 1.5893003703e-001	 3.1948815356e+000
 1.7600641375e+000	 1.7507368317e-001	 3.1417765387e+000
 1.7583793282e+000	 1.9125558984e-001	 3.0866675832e+000
 1.7565395472e+000	 2.0747381007e-001	 3.0296397384e+000
 1.7545435526e+000	 2.2372636098e-001	 2.9708135372e+000
 1.7523901320e+000	 2.4001122418e-001	 2.9103455802e+000
 1.7500781031e+000	 2.5632634618e-001	 2.8484290748e+000
 1.7476063145e+000	 2.7266963882e-001	 2.7852943064e+000
 1.7449736476e+000	 2.8903897972e-001	 2.7212090406e+000
 1.7421790166e+000	 3.0543221283e-001	 2.6564788500e+000
 1.7392213704e+000	 3.2184714893e-001	 2.5914473650e+000
 1.7678199628e+000	 1.5949162727e-001	 3.1875607795e+000
 1.7662834454e+000	 1.7569231809e-001	 3.1336510661e+000
 1.7645926827e+000	 1.9193140465e-001	 3.0777904726e+000
 1.7627464007e+000	 2.0820693308e-001	 3.0200690303e+000
 1.7607433531e+000	 2.2451691349e-001	 2.9606125827e+000
 1.7585823233e+000	 2.4085932038e-001	 2.8995833906e+000
 1.7562621246e+000	 2.5723209299e-001	 2.8371806715e+000
 1.7537816019e+000	 2.7363313578e-001	 2.7736410716e+000
 1.7511396322e+000	 2.9006031887e-001	 2.7092390664e+000
 1.7483351262e+000	 3.0651147860e-001	 2.6442872860e+000
 1.7453670290e+000	 3.2298441800e-001	 2.5791367635e+000
 1.7740446810e+000	 1.6005321751e-001	 3.1808852982e+000
 1.7725027533e+000	 1.7631095302e-001	 3.1261690504e+000
 1.7708060373e+000	 1.9260721946e-001	 3.0695492926e+000
 1.7689532542e+000	 2.0894005609e-001	 3.0111210061e+000
 1.7669431537e+000	 2.2530746601e-001	 2.9510153384e+000
 1.7647745146e+000	 2.4170741659e-001	 2.8894002097e+000
 1.7624461462e+000	 2.5813783980e-001	 2.8264808534e+000
 1.7599568892e+000	 2.7459663274e-001	 2.7625002883e+000
 1.7573056168e+000	 2.9108165803e-001	 2.6977397177e+000
 1.7544912358e+000	 3.0759074437e-001	 2.6325188538e+000
 1.7515126875e+000	 3.2412168708e-001	 2.5671961631e+000
 1.7802693992e+000	 1.6061480775e-001	 3.1748428354e+000
 1.7787220612e+000	 1.7692958795e-001	 3.1193177846e+000
 1.7770193918e+000	 1.9328303427e-001	 3.0619308892e+000
 1.7751601077e+000	 2.0967317909e-001	 3.0027820685e+000
 1.7731429542e+000	 2.2609801853e-001	 2.9420077678e+000
 1.7709667059e+000	 2.4255551279e-001	 2.8797815665e+000
 1.7686301678e+000	 2.5904358661e-001	 2.8163147201e+000
 1.7661321765e+000	 2.7556012970e-001	 2.7518566319e+000
 1.7634716014e+000	 2.9210299718e-001	 2.6866952517e+000
 1.7606473454e+000	 3.0867001014e-001	 2.6211573986e+000
 1.7576583461e+000	 3.2525895616e-001	 2.5556090038e+000
 1.7864941173e+000	 1.6117639799e-001	 3.1694212746e+000
 1.7849413691e+000	 1.7754822287e-001	 3.1130847032e+000
 1.7832327463e+000	 1.9395884908e-001	 3.0549222513e+000
 1.7813669612e+000	 2.1040630210e-001	 2.9950387642e+000
 1.7793427548e+000	 2.2688857104e-001	 2.9335759792e+000
 1.7771588971e+000	 2.4340360899e-001	 2.8707131356e+000
 1.7748141893e+000	 2.5994933342e-001	 2.8066675168e+000
 1.7723074639e+000	 2.7652362666e-001	 2.7416949235e+000
 1.7696375861e+000	 2.9312433634e-001	 2.6760900707e+000
 1.7668034550e+000	 3.0974927592e-001	 2.6101869098e+000
 1.7638040046e+000	 3.2639622525e-001	 2.5443588687e+000
 1.7927188355e+000	 1.6173798823e-001	 3.1646086369e+000
 1.7911606770e+000	 1.7816685780e-001	 3.1074573802e+000
 1.7894461008e+000	 1.9463466389e-001	 3.0485105084e+000
 1.7875738148e+000	 2.1113942511e-001	 2.9878777816e+000
 1.7855425553e+000	 2.2767912356e-001	 2.9257062238e+000
 1.7833510884e+000	 2.4425170519e-001	 2.8621807342e+000
 1.7809982109e+000	 2.6085508023e-001	 2.7975246317e+000
 1.7784827512e+000	 2.7748712362e-001	 2.7320001267e+000
 1.7758035707e+000	 2.9414567549e-001	 2.6659087192e+000
 1.7729595646e+000	 3.1082854169e-001	 2.5995915183e+000
 1.7699496632e+000	 3.2753349433e-001	 2.5334294809e+000
 1.7989435537e+000	 1.6229957847e-001	 3.1603930784e+000
 1.7973799849e+000	 1.7878549273e-001	 3.1024235262e+000
 1.7956594553e+000	 1.9531047870e-001	 3.0426829282e+000
 1.7937806683e+000	 2.1187254812e-001	 2.9812859484e+000
 1.7917423558e+000	 2.2846967608e-001	 2.9183848922e+000
 1.7895432797e+000	 2.4509980140e-001	 2.8541703203e+000
 1.7871822324e+000	 2.6176082705e-001	 2.7888715935e+000
 1.7846580385e+000	 2.7845062058e-001	 2.7227573456e+000
 1.7819695553e+000	 2.9516701465e-001	 2.6561358813e+000
 1.7791156742e+000	 3.1190780747e-001	 2.5893554938e+000
 1.7760953217e+000	 3.2867076341e-001	 2.5228047013e+000
 1.8051682719e+000	 1.6286116871e-001	 3.1567628881e+000
 1.8035992928e+000	 1.7940412766e-001	 3.0979709863e+000
 1.8018728098e+000	 1.9598629351e-001	 3.0374269142e+000
 1.7999875218e+000	 2.1260567113e-001	 2.9752502290e+000
 1.7979421564e+000	 2.2926022860e-001	 2.9115985131e+000
 1.7957354710e+000	 2.4594789760e-001	 2.8466679896e+000
 1.7933662540e+000	 2.6266657386e-001	 2.7806940689e+000
 1.7908333258e+000	 2.7941411755e-001	 2.7139518223e+000
 1.7881355399e+000	 2.9618835380e-001	 2.6467563789e+000
 1.7852717838e+000	 3.1298707324e-001	 2.5794632427e+000
 1.7822409803e+000	 3.2980803249e-001	 2.5124685263e+000
 1.7207843947e+000	 3.1843534169e-001	 2.6307669684e+000
 1.7176958094e+000	 3.3469554254e-001	 2.5704123944e+000
 1.7144439629e+000	 3.5097278819e-001	 2.5056459494e+000
 1.7110279231e+000	 3.6726481775e-001	 2.4368213975e+000
 1.7074467961e+000	 3.8356934003e-001	 2.3643324653e+000
 1.7036997268e+000	 3.9988403418e-001	 2.2886128168e+000
 1.6997859004e+000	 4.1620655049e-001	 2.2101359369e+000
 1.6957045429e+000	 4.3253451111e-001	 2.1294149240e+000
 1.6914549220e+000	 4.4886551091e-001	 2.0470021872e+000
 1.6870363485e+000	 4.6519711827e-001	 1.9634890488e+000
 1.6824481768e+000	 4.8152687596e-001	 1.8795052483e+000
 1.7269300533e+000	 3.1957261077e-001	 2.6172455393e+000
 1.7238304373e+000	 3.3589088376e-001	 2.5564347201e+000
 1.7205669771e+000	 3.5222626243e-001	 2.4912675674e+000
 1.7171387371e+000	 3.6857647782e-001	 2.4221050863e+000
 1.7135448203e+000	 3.8493923053e-001	 2.3493486116e+000
 1.7097843687e+000	 4.0131219145e-001	 2.2734397762e+000
 1.7058565644e+000	 4.1769300246e-001	 2.1948603898e+000
 1.7017606305e+000	 4.3407927723e-001	 2.1141322235e+000
 1.6974958324e+000	 4.5046860203e-001	 2.0318166995e+000
 1.6930614783e+000	 4.6685853655e-001	 1.9485144838e+000
 1.6884569203e+000	 4.8324661480e-001	 1.8648649808e+000
 1.7330757118e+000	 3.2070987985e-001	 2.6041446727e+000
 1.7299650652e+000	 3.3708622499e-001	 2.5428157019e+000
 1.7266899912e+000	 3.5347973668e-001	 2.4771808920e+000
 1.7232495511e+000	 3.6988813788e-001	 2.4076085448e+000
 1.7196428446e+000	 3.8630912103e-001	 2.3345076647e+000
 1.7158690106e+000	 4.0274034871e-001	 2.2583279222e+000
 1.7119272283e+000	 4.1917945442e-001	 2.1795595264e+000
 1.7078167182e+000	 4.3562404334e-001	 2.0987330024e+000
 1.7035367429e+000	 4.5207169314e-001	 2.0164188730e+000
 1.6990866081e+000	 4.6851995483e-001	 1.9332272422e+000
 1.6944656638e+000	 4.8496635365e-001	 1.8498072796e+000
 1.7392213704e+000	 3.2184714893e-001	 2.5914473650e+000
 1.7360996931e+000	 3.3828156621e-001	 2.5295379894e+000
 1.7328130054e+000	 3.5473321092e-001	 2.4633682289e+000
 1.7293603651e+000	 3.7119979795e-001	 2.3933137380e+000
 1.7257408689e+000	 3.8767901153e-001	 2.3197912530e+000
 1.7219536525e+000	 4.0416850598e-001	 2.2432585509e+000
 1.7179978922e+000	 4.2066590639e-001	 2.1642143152e+000
 1.7138728058e+000	 4.3716880945e-001	 2.0831979068e+000
 1.7095776533e+000	 4.5367478425e-001	 2.0007890372e+000
 1.7051117379e+000	 4.7018137311e-001	 1.9176073431e+000
 1.7004744073e+000	 4.8668609249e-001	 1.8343118600e+000
 1.7453670290e+000	 3.2298441800e-001	 2.5791367635e+000
 1.7422343210e+000	 3.3947690744e-001	 2.5165843804e+000
 1.7389360195e+000	 3.5598668517e-001	 2.4498120293e+000
 1.7354711792e+000	 3.7251145801e-001	 2.3792027736e+000
 1.7318388932e+000	 3.8904890203e-001	 2.3051811445e+000
 1.7280382944e+000	 4.0559666325e-001	 2.2282130943e+000
 1.7240685562e+000	 4.2215235836e-001	 2.1488058569e+000
 1.7199288935e+000	 4.3871357557e-001	 2.0675077111e+000
 1.7156185637e+000	 4.5527787536e-001	 1.9849076457e+000
 1.7111368678e+000	 4.7184279139e-001	 1.9016349250e+000
 1.7064831508e+000	 4.8840583134e-001	 1.8183585523e+000
 1.7515126875e+000	 3.2412168708e-001	 2.5671961631e+000
 1.7483689489e+000	 3.4067224866e-001	 2.5039378182e+000
 1.7450590337e+000	 3.5724015941e-001	 2.4364948874e+000
 1.7415819932e+000	 3.7382311808e-001	 2.3652578998e+000
 1.7379369174e+000	 3.9041879254e-001	 2.2906592442e+000
 1.7341229362e+000	 4.0702482051e-001	 2.2131731184e+000
 1.7301392201e+000	 4.2363881033e-001	 2.1333153826e+000
 1.7259849811e+000	 4.4025834168e-001	 2.0516433161e+000
 1.7216594742e+000	 4.5688096647e-001	 1.9687552741e+000
 1.7171619976e+000	 4.7350420967e-001	 1.8852902443e+000
 1.7124918943e+000	 4.9012557018e-001	 1.8019272994e+000
 1.7576583461e+000	 3.2525895616e-001	 2.5556090038e+000
 1.7545035768e+000	 3.4186758989e-001	 2.4915813893e+000
 1.7511820478e+000	 3.5849363366e-001	 2.4233995382e+000
 1.7476928072e+000	 3.7513477814e-001	 2.3514615023e+000
 1.7440349417e+000	 3.9178868304e-001	 2.2762075921e+000
 1.7402075781e+000	 4.0845297778e-001	 2.1981203207e+000
 1.7362098840e+000	 4.2512526229e-001	 2.1177242512e+000
 1.7320410688e+000	 4.4180310779e-001	 2.0355857465e+000
 1.7277003846e+000	 4.5848405758e-001	 1.9523126181e+000
 1.7231871274e+000	 4.7516562795e-001	 1.8685536727e+000
 1.7185006378e+000	 4.9184530902e-001	 1.7849981553e+000
 1.7638040046e+000	 3.2639622525e-001	 2.5443588687e+000
 1.7606382047e+000	 3.4306293112e-001	 2.4794983206e+000
 1.7573050620e+000	 3.5974710790e-001	 2.4105088545e+000
 1.7538036212e+000	 3.7644643821e-001	 2.3377961025e+000
 1.7501329660e+000	 3.9315857354e-001	 2.2618083606e+000
 1.7462922200e+000	 4.0988113505e-001	 2.1830365278e+000
 1.7422805479e+000	 4.2661171426e-001	 2.1020139472e+000
 1.7380971564e+000	 4.4334787390e-001	 2.0193161491e+000
 1.7337412950e+000	 4.6008714869e-001	 1.9355604910e+000
 1.7292122572e+000	 4.7682704623e-001	 1.8514056955e+000
 1.7245093812e+000	 4.9356504787e-001	 1.7675512826e+000
 1.7699496632e+000	 3.2753349433e-001	 2.5334294809e+000
 1.7667728326e+000	 3.4425827234e-001	 2.4676719772e+000
 1.7634280761e+000	 3.6100058215e-001	 2.3978058450e+000
 1.7599144352e+000	 3.7775809827e-001	 2.3242443546e+000
 1.7562309902e+000	 3.9452846404e-001	 2.2474438521e+000
 1.7523768619e+000	 4.1130929231e-001	 2.1679036932e+000
 1.7483512119e+000	 4.2809816623e-001	 2.0861660788e+000
 1.7441532441e+000	 4.4489264001e-001	 2.0028157903e+000
 1.7397822055e+000	 4.6169023980e-001	 1.9184798219e+000
 1.7352373870e+000	 4.7848846451e-001	 1.8338269092e+000
 1.7305181247e+000	 4.9528478671e-001	 1.7495669508e+000
 1.7760953217e+000	 3.2867076341e-001	 2.5228047013e+000
 1.7729074605e+000	 3.4545361357e-001	 2.4560858600e+000
 1.7695510903e+000	 3.6225405640e-001	 2.3852736518e+000
 1.7660252492e+000	 3.7906975834e-001	 2.3107890437e+000
 1.7623290145e+000	 3.9589835454e-001	 2.2330964969e+000
 1.7584615038e+000	 4.1273744958e-001	 2.1527038953e+000
 1.7544218758e+000	 4.2958461819e-001	 2.0701623753e+000
 1.7502093317e+000	 4.4643740612e-001	 1.9860660541e+000
 1.7458231159e+000	 4.6329333091e-001	 1.9010516538e+000
 1.7412625168e+000	 4.8014988279e-001	 1.8157980202e+000
 1.7365268682e+000	 4.9700452555e-001	 1.7310255349e+000
 1.7822409803e+000	 3.2980803249e-001	 2.5124685263e+000
 1.7790420884e+000	 3.4664895480e-001	 2.4447236031e+000
 1.7756741044e+000	 3.6350753064e-001	 2.3728955479e+000
 1.7721360632e+000	 3.8038141841e-001	 2.2974130835e+000
 1.7684270388e+000	 3.9726824505e-001	 2.2187488511e+000
 1.7645461456e+000	 4.1416560684e-001	 2.1374193349e+000
 1.7604925397e+000	 4.3107107016e-001	 2.0539846854e+000
 1.7562654194e+000	 4.4798217224e-001	 1.9690484404e+000
 1.7518640263e+000	 4.6489642202e-001	 1.8832571413e+000
 1.7472876466e+000	 4.8181130107e-001	 1.7972998425e+000
 1.7425356117e+000	 4.9872426439e-001	 1.7119075128e+000
 1.6824481768e+000	 4.8152687596e-001	 1.8795052483e+000
 1.6776898060e+000	 4.9785230209e-001	 1.8073545751e+000
 1.6727606807e+000	 5.1417089098e-001	 1.7374330213e+000
 1.6676602917e+000	 5.3048011421e-001	 1.6704525605e+000
 1.6623881771e+000	 5.4677742154e-001	 1.6071590272e+000
 1.6569439230e+000	 5.6306024200e-001	 1.5483311249e+000
 1.6513271642e+000	 5.7932598494e-001	 1.4947793360e+000
 1.6455375851e+000	 5.9557204113e-001	 1.4473447322e+000
 1.6395749202e+000	 6.1179578385e-001	 1.4068976873e+000
 1.6334389551e+000	 6.2799457010e-001	 1.3589930235e+000
 1.6271295268e+000	 6.4416574173e-001	 1.2503543068e+000
 1.6884569203e+000	 4.8324661480e-001	 1.8648649808e+000
 1.6836815553e+000	 4.9963034602e-001	 1.7928506332e+000
 1.6787348260e+000	 5.1600721560e-001	 1.7233965824e+000
 1.6736162213e+000	 5.3237468605e-001	 1.6572299951e+000
 1.6683252777e+000	 5.4873019804e-001	 1.5951120588e+000
 1.6628615798e+000	 5.6507117144e-001	 1.5378369685e+000
 1.6572247612e+000	 5.8139500632e-001	 1.4862308133e+000
 1.6514145050e+000	 5.9769908413e-001	 1.4411503634e+000
 1.6454305449e+000	 6.1398076879e-001	 1.4034817587e+000
 1.6392726656e+000	 6.3023740785e-001	 1.3470676602e+000
 1.6329407037e+000	 6.4646633367e-001	 1.2409218275e+000
 1.6944656638e+000	 4.8496635365e-001	 1.8498072796e+000
 1.6896733047e+000	 5.0140838996e-001	 1.7778631153e+000
 1.6847089713e+000	 5.1784354021e-001	 1.7088050036e+000
 1.6795721509e+000	 5.3426925789e-001	 1.6433753962e+000
 1.6742623783e+000	 5.5068297455e-001	 1.5823509323e+000
 1.6687792367e+000	 5.6708210087e-001	 1.5265414033e+000
 1.6631223582e+000	 5.8346402769e-001	 1.4767886168e+000
 1.6572914249e+000	 5.9982612714e-001	 1.4339651599e+000
 1.6512861696e+000	 6.1616575374e-001	 1.3989730624e+000
 1.6451063762e+000	 6.3248024560e-001	 1.3337887802e+000
 1.6387518806e+000	 6.4876692560e-001	 1.2301443868e+000
 1.7004744073e+000	 4.8668609249e-001	 1.8343118600e+000
 1.6956650540e+000	 5.0318643390e-001	 1.7623709856e+000
 1.6906831166e+000	 5.1967986482e-001	 1.6936365184e+000
 1.6855280805e+000	 5.3616382972e-001	 1.6288662882e+000
 1.6801994790e+000	 5.5263575106e-001	 1.5688524853e+000
 1.6746968936e+000	 5.6909303031e-001	 1.5144206037e+000
 1.6690199552e+000	 5.8553304907e-001	 1.4664282820e+000
 1.6631683449e+000	 6.0195317014e-001	 1.4257640428e+000
 1.6571417943e+000	 6.1835073868e-001	 1.3933459311e+000
 1.6509400867e+000	 6.3472308335e-001	 1.3191734400e+000
 1.6445630575e+000	 6.5106751754e-001	 1.2180398462e+000
 1.7064831508e+000	 4.8840583134e-001	 1.8183585523e+000
 1.7016568033e+000	 5.0496447784e-001	 1.7463533242e+000
 1.6966572618e+000	 5.2151618943e-001	 1.6778694772e+000
 1.6914840101e+000	 5.3805840156e-001	 1.6136803128e+000
 1.6861365796e+000	 5.5458852756e-001	 1.5545936729e+000
 1.6806145504e+000	 5.7110395975e-001	 1.5014508608e+000
 1.6749175522e+000	 5.8760207044e-001	 1.4551254596e+000
 1.6690452648e+000	 6.0408021315e-001	 1.4165220469e+000
 1.6629974190e+000	 6.2053572362e-001	 1.3865748090e+000
 1.6567737973e+000	 6.3696592110e-001	 1.3032388048e+000
 1.6503742344e+000	 6.5336810947e-001	 1.2046261728e+000
 1.7124918943e+000	 4.9012557018e-001	 1.8019272994e+000
 1.7076485526e+000	 5.0674252177e-001	 1.7297893251e+000
 1.7026314071e+000	 5.2335251404e-001	 1.6614823449e+000
 1.6974399397e+000	 5.3995297340e-001	 1.5977952266e+000
 1.6920736802e+000	 5.5654130407e-001	 1.5395515647e+000
 1.6865322073e+000	 5.7311488918e-001	 1.4876085797e+000
 1.6808151493e+000	 5.8967109182e-001	 1.4428559131e+000
 1.6749221848e+000	 6.0620725615e-001	 1.4062143184e+000
 1.6688530437e+000	 6.2272070856e-001	 1.3786342499e+000
 1.6626075078e+000	 6.3920875885e-001	 1.2860021469e+000
 1.6561854113e+000	 6.5566870140e-001	 1.1899214377e+000
 1.7185006378e+000	 4.9184530902e-001	 1.7849981553e+000
 1.7136403019e+000	 5.0852056571e-001	 1.7126582947e+000
 1.7086055524e+000	 5.2518883865e-001	 1.6444536996e+000
 1.7033958694e+000	 5.4184754523e-001	 1.5811888994e+000
 1.6980107809e+000	 5.5849408057e-001	 1.5237033435e+000
 1.6924498642e+000	 5.7512581862e-001	 1.4728702779e+000
 1.6867127463e+000	 5.9174011319e-001	 1.4295955177e+000
 1.6807991047e+000	 6.0833429915e-001	 1.3948161134e+000
 1.6747086685e+000	 6.2490569350e-001	 1.3694989152e+000
 1.6684412184e+000	 6.4145159660e-001	 1.2674808436e+000
 1.6619965881e+000	 6.5796929334e-001	 1.1739438141e+000
 1.7245093812e+000	 4.9356504787e-001	 1.7675512826e+000
 1.7196320512e+000	 5.1029860964e-001	 1.6949396489e+000
 1.7145796977e+000	 5.2702516326e-001	 1.6267622297e+000
 1.7093517990e+000	 5.4374211707e-001	 1.5638393121e+000
 1.7039478815e+000	 5.6044685708e-001	 1.5070263029e+000
 1.6983675210e+000	 5.7713674805e-001	 1.4572125833e+000
 1.6926103433e+000	 5.9380913457e-001	 1.4153202574e+000
 1.6866760247e+000	 6.1046134215e-001	 1.3823027955e+000
 1.6805642932e+000	 6.2709067844e-001	 1.3481745384e+000
 1.6742749289e+000	 6.4369443435e-001	 1.2476923756e+000
 1.6678077650e+000	 6.6026988527e-001	 1.1567115754e+000
 1.7305181247e+000	 4.9528478671e-001	 1.7495669508e+000
 1.7256238005e+000	 5.1207665358e-001	 1.6766129123e+000
 1.7205538430e+000	 5.2886148787e-001	 1.6083867329e+000
 1.7153077286e+000	 5.4563668890e-001	 1.5457245546e+000
 1.7098849821e+000	 5.6239963358e-001	 1.4894978456e+000
 1.7042851779e+000	 5.7914767748e-001	 1.4406122320e+000
 1.6985079403e+000	 5.9587815594e-001	 1.4000062240e+000
 1.6925529446e+000	 6.1258838515e-001	 1.3686498342e+000
 1.6864199179e+000	 6.2927566338e-001	 1.3250897664e+000
 1.6801086395e+000	 6.4593727209e-001	 1.2266543248e+000
 1.6736189419e+000	 6.6257047720e-001	 1.1382430936e+000
 1.7365268682e+000	 4.9700452555e-001	 1.7310255349e+000
 1.7316155498e+000	 5.1385469751e-001	 1.6576577154e+000
 1.7265279883e+000	 5.3069781248e-001	 1.5893061136e+000
 1.7212636582e+000	 5.4753126074e-001	 1.5268228244e+000
 1.7158220828e+000	 5.6435241008e-001	 1.4710954813e+000
 1.7102028348e+000	 5.8115860692e-001	 1.4230460668e+000
 1.7044055373e+000	 5.9794717731e-001	 1.3836296145e+000
 1.6984298646e+000	 6.1471542815e-001	 1.3538328032e+000
 1.6922755426e+000	 6.3146064832e-001	 1.3007552542e+000
 1.6859423500e+000	 6.4818010984e-001	 1.2043843730e+000
 1.6794301188e+000	 6.6487106913e-001	 1.1185568376e+000
 1.7425356117e+000	 4.9872426439e-001	 1.7119075128e+000
 1.7376072991e+000	 5.1563274145e-001	 1.6380537932e+000
 1.7325021336e+000	 5.3253413709e-001	 1.5694993816e+000
 1.7272195878e+000	 5.4942583257e-001	 1.5071124242e+000
 1.7217591834e+000	 5.6630518659e-001	 1.4517968252e+000
 1.7161204916e+000	 5.8316953635e-001	 1.4044910352e+000
 1.7103031343e+000	 6.0001619868e-001	 1.3661667295e+000
 1.7043067845e+000	 6.1684247115e-001	 1.3378273781e+000
 1.6981311673e+000	 6.3364563326e-001	 1.2751880201e+000
 1.6917760606e+000	 6.5042294759e-001	 1.1809003000e+000
 1.6852412957e+000	 6.6717166106e-001	 1.0976713715e+000
 1.6271295268e+000	 6.4416574173e-001	 1.2503543068e+000
 1.6206465249e+000	 6.6030662669e-001	 1.1602592621e+000
 1.6139898915e+000	 6.7641454021e-001	 1.0704071888e+000
 1.6071596221e+000	 6.9248678611e-001	 9.8096530192e-001
 1.6001557665e+000	 7.0852065808e-001	 8.9210459097e-001
 1.5929784285e+000	 7.2451344093e-001	 8.0400036603e-001
 1.5856277673e+000	 7.4046241198e-001	 7.1683279932e-001
 1.5781039969e+000	 7.5636484241e-001	 6.3078746020e-001
 1.5704073875e+000	 7.7221799855e-001	 5.4605584119e-001
 1.5625382650e+000	 7.8801914338e-001	 4.6283587271e-001
 1.5544970119e+000	 8.0376553783e-001	 3.8133242429e-001
 1.6329407037e+000	 6.4646633367e-001	 1.2409218275e+000
 1.6264345482e+000	 6.6266486464e-001	 1.1537028513e+000
 1.6197541411e+000	 6.7883030642e-001	 1.0662673735e+000
 1.6128994779e+000	 6.9495995321e-001	 9.7877144470e-001
 1.6058706085e+000	 7.1105108900e-001	 8.9137536099e-001
 1.5986676372e+000	 7.2710098893e-001	 8.0424423470e-001
 1.5912907236e+000	 7.4310692060e-001	 7.1754856097e-001
 1.5837400826e+000	 7.5906614541e-001	 6.3146477701e-001
 1.5760159853e+000	 7.7497591997e-001	 5.4617581190e-001
 1.5681187588e+000	 7.9083349746e-001	 4.6187162468e-001
 1.5600487870e+000	 8.0663612904e-001	 3.7874972809e-001
 1.6387518806e+000	 6.4876692560e-001	 1.2301443868e+000
 1.6322225715e+000	 6.6502310259e-001	 1.1457723194e+000
 1.6255183907e+000	 6.8124607264e-001	 1.0607272687e+000
 1.6186393337e+000	 6.9743312030e-001	 9.7515409665e-001
 1.6115854505e+000	 7.1358151992e-001	 8.8920238019e-001
 1.6043568459e+000	 7.2968853693e-001	 8.0302700759e-001
 1.5969536799e+000	 7.4575142921e-001	 7.1678876975e-001
 1.5893761683e+000	 7.6176744842e-001	 6.3065494390e-001
 1.5816245831e+000	 7.7773384140e-001	 5.4479986733e-001
 1.5736992526e+000	 7.9364785154e-001	 4.5940549877e-001
 1.5656005620e+000	 8.0950672024e-001	 3.7466196485e-001
 1.6445630575e+000	 6.5106751754e-001	 1.2180398462e+000
 1.6380105948e+000	 6.6738134054e-001	 1.1364867161e+000
 1.6312826403e+000	 6.8366183885e-001	 1.0538070634e+000
 1.6243791895e+000	 6.9990628739e-001	 9.7013453558e-001
 1.6173002926e+000	 7.1611195084e-001	 8.8560796394e-001
 1.6100460546e+000	 7.3227608493e-001	 8.0037198536e-001
 1.6026166362e+000	 7.4839593782e-001	 7.1457765845e-001
 1.5950122540e+000	 7.6446875143e-001	 6.2838307176e-001
 1.5872331809e+000	 7.8049176282e-001	 5.4195394154e-001
 1.5792797464e+000	 7.9646220562e-001	 4.5546419645e-001
 1.5711523371e+000	 8.1237731145e-001	 3.6909654695e-001
 1.6503742344e+000	 6.5336810947e-001	 1.2046261728e+000
 1.6437986181e+000	 6.6973957849e-001	 1.1258651884e+000
 1.6370468899e+000	 6.8607760506e-001	 1.0455270356e+000
 1.6301190453e+000	 7.0237945448e-001	 9.6373412083e-001
 1.6230151346e+000	 7.1864238176e-001	 8.8061450217e-001
 1.6157352633e+000	 7.3486363293e-001	 7.9630253687e-001
 1.6082795925e+000	 7.5104044643e-001	 7.1093952227e-001
 1.6006483397e+000	 7.6717005443e-001	 6.2467432867e-001
 1.5928417787e+000	 7.8324968424e-001	 5.3766402114e-001
 1.5848602402e+000	 7.9927655970e-001	 4.5007446777e-001
 1.5767041121e+000	 8.1524790265e-001	 3.6208093189e-001
 1.6561854113e+000	 6.5566870140e-001	 1.1899214377e+000
 1.6495866414e+000	 6.7209781644e-001	 1.1139269788e+000
 1.6428111395e+000	 6.8849337128e-001	 1.0359075510e+000
 1.6358589011e+000	 7.0485262157e-001	 9.5597429184e-001
 1.6287299766e+000	 7.2117281268e-001	 8.7424445809e-001
 1.6214244719e+000	 7.3745118093e-001	 7.9084209798e-001
 1.6139425488e+000	 7.5368495505e-001	 7.0589871773e-001
 1.6062844254e+000	 7.6987135744e-001	 6.1955393891e-001
 1.5984503765e+000	 7.8600760566e-001	 5.3195614444e-001
 1.5904407340e+000	 8.0209091379e-001	 4.4326311046e-001
 1.5822558872e+000	 8.1811849386e-001	 3.5364262151e-001
 1.6619965881e+000	 6.5796929334e-001	 1.1739438141e+000
 1.6553746647e+000	 6.7445605440e-001	 1.1006914234e+000
 1.6485753891e+000	 6.9090913749e-001	 1.0249690608e+000
 1.6415987569e+000	 7.0732578866e-001	 9.4687656677e-001
 1.6344448186e+000	 7.2370324360e-001	 8.6652036689e-001
 1.6271136806e+000	 7.4003872894e-001	 7.8401417041e-001
 1.6196055052e+000	 7.5632946366e-001	 6.9947966160e-001
 1.6119205112e+000	 7.7257266045e-001	 6.1304718196e-001
 1.6040589744e+000	 7.8876552708e-001	 5.2485640047e-001
 1.5960212278e+000	 8.0490526787e-001	 4.3505696913e-001
 1.5878076622e+000	 8.2098908506e-001	 3.4380916122e-001
 1.6678077650e+000	 6.6026988527e-001	 1.1567115754e+000
 1.6611626880e+000	 6.7681429235e-001	 1.0861779504e+000
 1.6543396388e+000	 6.9332490370e-001	 1.0127321011e+000
 1.6473386127e+000	 7.0979895576e-001	 9.3646254107e-001
 1.6401596607e+000	 7.2623367452e-001	 8.5746483451e-001
 1.6328028893e+000	 7.4262627694e-001	 7.7584232055e-001
 1.6252684615e+000	 7.5897397227e-001	 6.9170682982e-001
 1.6175565969e+000	 7.7527396346e-001	 6.0517939156e-001
 1.6096675722e+000	 7.9152344851e-001	 5.1639092815e-001
 1.6016017216e+000	 8.0771962195e-001	 4.2548293446e-001
 1.5933594373e+000	 8.2385967627e-001	 3.3260813925e-001
 1.6736189419e+000	 6.6257047720e-001	 1.1382430936e+000
 1.6669507113e+000	 6.7917253030e-001	 1.0704060786e+000
 1.6601038884e+000	 6.9574066992e-001	 9.9921729084e-001
 1.6530784685e+000	 7.1227212285e-001	 9.2475388621e-001
 1.6458745027e+000	 7.2876410544e-001	 8.4710053639e-001
 1.6384920980e+000	 7.4521382494e-001	 7.6635017835e-001
 1.6309314178e+000	 7.6161848089e-001	 6.8260475652e-001
 1.6231926826e+000	 7.7797526646e-001	 5.9597595477e-001
 1.6152761700e+000	 7.9428136993e-001	 5.0658591539e-001
 1.6071822154e+000	 8.1053397604e-001	 4.1456794236e-001
 1.5989112123e+000	 8.2673026748e-001	 3.2006718589e-001
 1.6794301188e+000	 6.6487106913e-001	 1.1185568376e+000
 1.6727387347e+000	 6.8153076824e-001	 1.0533954158e+000
 1.6658681380e+000	 6.9815643613e-001	 9.8444533042e-001
 1.6588183243e+000	 7.1474528994e-001	 9.1177234832e-001
 1.6515893447e+000	 7.3129453636e-001	 8.3545021628e-001
 1.6441813066e+000	 7.4780137294e-001	 7.5556143624e-001
 1.6365943741e+000	 7.6426298950e-001	 6.7219803296e-001
 1.6288287683e+000	 7.8067656947e-001	 5.8546231100e-001
 1.6208847678e+000	 7.9703929135e-001	 4.9546759828e-001
 1.6127627093e+000	 8.1334833012e-001	 4.0233897323e-001
 1.6044629873e+000	 8.2960085869e-001	 3.0621397277e-001
 1.6852412957e+000	 6.6717166106e-001	 1.0976713715e+000
 1.6785267580e+000	 6.8388900619e-001	 1.0351656572e+000
 1.6716323876e+000	 7.0057220234e-001	 9.6843700050e-001
 1.6645581801e+000	 7.1721845703e-001	 8.9753974690e-001
 1.6573041867e+000	 7.3382496728e-001	 8.2253668506e-001
 1.6498705153e+000	 7.5038892094e-001	 7.4349984805e-001
 1.6422573304e+000	 7.6690749811e-001	 6.6051130660e-001
 1.6344648540e+000	 7.8337787248e-001	 5.7366395119e-001
 1.6264933656e+000	 7.9979721278e-001	 4.8306226020e-001
 1.6183432031e+000	 8.1616268421e-001	 3.8882305116e-001
 1.6100147624e+000	 8.3247144989e-001	 2.9107621215e-001
 1.5544970119e+000	 8.0376553783e-001	 3.8133242429e-001
 1.5462840674e+000	 8.1945444228e-001	 2.9916123956e-001
 1.5378999272e+000	 8.3508311794e-001	 2.1498268199e-001
 1.5293451444e+000	 8.5064882832e-001	 1.2907367258e-001
 1.5206203292e+000	 8.6614884069e-001	 4.1724670755e-002
 1.5117261490e+000	 8.8158042754e-001	-4.6759933799e-002
 1.5026633286e+000	 8.9694086807e-001	-1.3606146307e-001
 1.4934326500e+000	 9.1222744964e-001	-2.2584662861e-001
 1.4840349526e+000	 9.2743746930e-001	-3.1576724745e-001
 1.4744711329e+000	 9.4256823526e-001	-4.0545999820e-001
 1.4647421446e+000	 9.5761706841e-001	-4.9454621921e-001
 1.5600487870e+000	 8.0663612904e-001	 3.7874972809e-001
 1.5518065105e+000	 8.2238106529e-001	 2.9561225259e-001
 1.5433924269e+000	 8.3806555764e-001	 2.1088335734e-001
 1.5348070914e+000	 8.5368685985e-001	 1.2483852259e-001
 1.5260511161e+000	 8.6924222941e-001	 3.7766595054e-002
 1.5171251710e+000	 8.8472892907e-001	-5.0029813565e-002
 1.5080299834e+000	 9.0014422831e-001	-1.3823396173e-001
 1.4987663380e+000	 9.1548540481e-001	-2.2651464916e-001
 1.4893350774e+000	 9.3074974597e-001	-3.1452592601e-001
 1.4797371013e+000	 9.4593455039e-001	-4.0190684215e-001
 1.4699733666e+000	 9.6103712937e-001	-4.8828123863e-001
 1.5656005620e+000	 8.0950672024e-001	 3.7466196485e-001
 1.5573289536e+000	 8.2530768829e-001	 2.9056133786e-001
 1.5488849267e+000	 8.4104799735e-001	 2.0528114818e-001
 1.5402690383e+000	 8.5672489138e-001	 1.1909537614e-001
 1.5314819030e+000	 8.7233561812e-001	 3.2291200612e-002
 1.5225241930e+000	 8.8787743059e-001	-5.4830595668e-002
 1.5133966381e+000	 9.0334758855e-001	-1.4195525431e-001
 1.5041000261e+000	 9.1874335999e-001	-2.2875370545e-001
 1.4946352023e+000	 9.3406202265e-001	-3.1488227003e-001
 1.4850030696e+000	 9.4930086552e-001	-3.9998240221e-001
 1.4752045885e+000	 9.6445719033e-001	-4.8368047396e-001
 1.5711523371e+000	 8.1237731145e-001	 3.6909654695e-001
 1.5628513967e+000	 8.2823431130e-001	 2.8403652331e-001
 1.5543774264e+000	 8.4403043705e-001	 1.9820471220e-001
 1.5457309853e+000	 8.5976292290e-001	 1.1187353449e-001
 1.5369126899e+000	 8.7542900684e-001	 2.5328445642e-002
 1.5279232149e+000	 8.9102593212e-001	-6.1131651915e-002
 1.5187632929e+000	 9.0655094879e-001	-1.4719403000e-001
 1.5094337141e+000	 9.2200131517e-001	-2.3253179180e-001
 1.4999353271e+000	 9.3737429933e-001	-3.1680356714e-001
 1.4902690379e+000	 9.5266718064e-001	-3.9965324785e-001
 1.4804358105e+000	 9.6787725129e-001	-4.8070976548e-001
 1.5767041121e+000	 8.1524790265e-001	 3.6208093189e-001
 1.5683738398e+000	 8.3116093431e-001	 2.7606587976e-001
 1.5598699262e+000	 8.4701287676e-001	 1.8968274730e-001
 1.5511929322e+000	 8.6280095443e-001	 1.0320233597e-001
 1.5423434768e+000	 8.7852239555e-001	 1.6908321927e-002
 1.5333222369e+000	 8.9417443365e-001	-6.8902324448e-002
 1.5241299476e+000	 9.0975430904e-001	-1.5391895264e-001
 1.5147674022e+000	 9.2525927034e-001	-2.3781688193e-001
 1.5052354519e+000	 9.4068657600e-001	-3.2025708947e-001
 1.4955350063e+000	 9.5603349577e-001	-4.0088593859e-001
 1.4856670324e+000	 9.7129731225e-001	-4.7933494946e-001
 1.5822558872e+000	 8.1811849386e-001	 3.5364262151e-001
 1.5738962829e+000	 8.3408755731e-001	 2.6667752012e-001
 1.5653624259e+000	 8.4999531647e-001	 1.7974399080e-001
 1.5566548792e+000	 8.6583898596e-001	 9.3111155318e-002
 1.5477742637e+000	 8.8161578427e-001	 7.0608542395e-003
 1.5387212589e+000	 8.9732293518e-001	-7.8111926266e-002
 1.5294966023e+000	 9.1295766928e-001	-1.6209866118e-001
 1.5201010902e+000	 9.2851722552e-001	-2.4457692928e-001
 1.5105355767e+000	 9.4399885268e-001	-3.2521009393e-001
 1.5008009746e+000	 9.5939981090e-001	-4.0364702418e-001
 1.4908982544e+000	 9.7471737321e-001	-4.7952185820e-001
 1.5878076622e+000	 8.2098908506e-001	 3.4380916122e-001
 1.5794187260e+000	 8.3701418032e-001	 2.5589959866e-001
 1.5708549257e+000	 8.5297775618e-001	 1.6841721883e-001
 1.5621168261e+000	 8.6887701750e-001	 8.1629403094e-002
 1.5532050506e+000	 8.8470917299e-001	-4.1839002437e-003
 1.5441202808e+000	 9.0047143670e-001	-8.8729741734e-002
 1.5348632571e+000	 9.1616102953e-001	-1.7170177009e-001
 1.5254347782e+000	 9.3177518070e-001	-2.5277986740e-001
 1.5158357016e+000	 9.4731112936e-001	-3.3162982250e-001
 1.5060669429e+000	 9.6276612603e-001	-4.0790304474e-001
 1.4961294763e+000	 9.7813743417e-001	-4.8123632015e-001
 1.5933594373e+000	 8.2385967627e-001	 3.3260813925e-001
 1.5849411691e+000	 8.3994080333e-001	 2.4376031031e-001
 1.5763474254e+000	 8.5596019588e-001	 1.5573124560e-001
 1.5675787731e+000	 8.7191504903e-001	 6.8786525000e-002
 1.5586358375e+000	 8.8780256171e-001	-1.6795852501e-002
 1.5495193028e+000	 9.0361993823e-001	-1.0072502708e-001
 1.5402299118e+000	 9.1936438977e-001	-1.8269686981e-001
 1.5307684663e+000	 9.3503313588e-001	-2.6239361027e-001
 1.5211358264e+000	 9.5062340604e-001	-3.3948350245e-001
 1.5113329113e+000	 9.6613244116e-001	-4.1362053097e-001
 1.5013606983e+000	 9.8155749513e-001	-4.8444415996e-001
 1.5989112123e+000	 8.2673026748e-001	 3.2006718589e-001
 1.5904636122e+000	 8.4286742634e-001	 2.3028788996e-001
 1.5818399251e+000	 8.5894263559e-001	 1.4171492276e-001
 1.5730407200e+000	 8.7495308056e-001	 5.4612001300e-002
 1.5640666244e+000	 8.9089595043e-001	-3.0744882219e-002
 1.5549183247e+000	 9.0676843976e-001	-1.1406701089e-001
 1.5455965666e+000	 9.2256775002e-001	-1.9505252714e-001
 1.5361021543e+000	 9.3829109107e-001	-2.7338605266e-001
 1.5264359512e+000	 9.5393568272e-001	-3.4873834660e-001
 1.5165988796e+000	 9.6949875629e-001	-4.2076600429e-001
 1.5065919202e+000	 9.8497755610e-001	-4.8911119853e-001
 1.6044629873e+000	 8.2960085869e-001	 3.0621397277e-001
 1.5959860553e+000	 8.4579404935e-001	 2.1551061171e-001
 1.5873324249e+000	 8.6192507530e-001	 1.2639713877e-001
 1.5785026670e+000	 8.7799111209e-001	 3.9135346214e-002
 1.5694974113e+000	 8.9398933915e-001	-4.6000838338e-002
 1.5603173467e+000	 9.0991694130e-001	-1.2872489458e-001
 1.5509632213e+000	 9.2577111027e-001	-2.0873728569e-001
 1.5414358423e+000	 9.4154904625e-001	-2.8572507044e-001
 1.5317360761e+000	 9.5724795940e-001	-3.5936155362e-001
 1.5218648479e+000	 9.7286507142e-001	-4.2930597699e-001
 1.5118231421e+000	 9.8839761706e-001	-4.9520325307e-001
 1.6100147624e+000	 8.3247144989e-001	 2.9107621215e-001
 1.6015084983e+000	 8.4872067236e-001	 1.9945678827e-001
 1.5928249246e+000	 8.6490751501e-001	 1.0980681822e-001
 1.5839646139e+000	 8.8102914363e-001	 2.2386107330e-002
 1.5749281982e+000	 8.9708272787e-001	-6.2533539577e-002
 1.5657163687e+000	 9.1306544283e-001	-1.4466785286e-001
 1.5563298761e+000	 9.2897447052e-001	-2.2371966624e-001
 1.5467695304e+000	 9.4480700143e-001	-2.9937852094e-001
 1.5370362009e+000	 9.6056023608e-001	-3.7132030819e-001
 1.5271308162e+000	 9.7623138655e-001	-4.3920695241e-001
 1.5170543641e+000	 9.9181767803e-001	-5.0268613719e-001
 1.4647421446e+000	 9.5761706841e-001	-4.9454621921e-001
 1.4548489982e+000	 9.7258130376e-001	-6.1152172279e-001
 1.4447927608e+000	 9.8745829198e-001	-7.1982681071e-001
 1.4345745559e+000	 1.0022454009e+000	-8.1916430644e-001
 1.4241955631e+000	 1.0169400169e+000	-9.0922887723e-001
 1.4136570177e+000	 1.0315395467e+000	-9.8970696838e-001
 1.4029602102e+000	 1.0460414182e+000	-1.0602767781e+000
 1.3921064861e+000	 1.0604430826e+000	-1.1206082742e+000
 1.3810972449e+000	 1.0747420157e+000	-1.1703632534e+000
 1.3699339400e+000	 1.0889357189e+000	-1.2091954440e+000
 1.3586180782e+000	 1.1030217212e+000	-1.2367506533e+000
 1.4699733666e+000	 9.6103712937e-001	-4.8828123863e-001
 1.4600448875e+000	 9.7605480841e-001	-6.0429377807e-001
 1.4499527349e+000	 9.9098492874e-001	-7.1226678994e-001
 1.4396980364e+000	 1.0058248488e+000	-8.1190510618e-001
 1.4292819758e+000	 1.0205719456e+000	-9.0290453703e-001
 1.4187057928e+000	 1.0352236165e+000	-9.8495179483e-001
 1.4079707824e+000	 1.0497772804e+000	-1.0577244598e+000
 1.3970782949e+000	 1.0642303793e+000	-1.1208909890e+000
 1.3860297350e+000	 1.0785803800e+000	-1.1741107696e+000
 1.3748265613e+000	 1.0928247750e+000	-1.2170342173e+000
 1.3634702857e+000	 1.1069610845e+000	-1.2493029202e+000
 1.4752045885e+000	 9.6445719033e-001	-4.8368047396e-001
 1.4652407768e+000	 9.7952831307e-001	-5.9873347932e-001
 1.4551127091e+000	 9.9451156550e-001	-7.0637503572e-001
 1.4448215170e+000	 1.0094042966e+000	-8.0631199617e-001
 1.4343683885e+000	 1.0242038742e+000	-8.9824132606e-001
 1.4237545678e+000	 1.0389076863e+000	-9.8185001636e-001
 1.4129813546e+000	 1.0535131426e+000	-1.0568150403e+000
 1.4020501038e+000	 1.0680176761e+000	-1.1228033546e+000
 1.3909622252e+000	 1.0824187443e+000	-1.1794719469e+000
 1.3797191825e+000	 1.0967138312e+000	-1.2264679291e+000
 1.3683224931e+000	 1.1109004478e+000	-1.2634286784e+000
 1.4804358105e+000	 9.6787725129e-001	-4.8070976548e-001
 1.4704366660e+000	 9.8300181773e-001	-5.9480631435e-001
 1.4602726832e+000	 9.9803820226e-001	-7.0211675052e-001
 1.4499449975e+000	 1.0129837445e+000	-8.0234996110e-001
 1.4394548013e+000	 1.0278358028e+000	-8.9520407914e-001
 1.4288033429e+000	 1.0425917561e+000	-9.8036638615e-001
 1.4179919268e+000	 1.0572490048e+000	-1.0575132596e+000
 1.4070219127e+000	 1.0718049728e+000	-1.1263101668e+000
 1.3958947153e+000	 1.0862571087e+000	-1.1864117053e+000
 1.3846118037e+000	 1.1006028873e+000	-1.2374616925e+000
 1.3731747005e+000	 1.1148398111e+000	-1.2790933035e+000
 1.4856670324e+000	 9.7129731225e-001	-4.7933494946e-001
 1.4756325553e+000	 9.8647532239e-001	-5.9247776783e-001
 1.4654326574e+000	 1.0015648390e+000	-6.9945713387e-001
 1.4550684781e+000	 1.0165631923e+000	-7.9998398225e-001
 1.4445412140e+000	 1.0314677315e+000	-8.9375762650e-001
 1.4338521179e+000	 1.0462758259e+000	-9.8046565093e-001
 1.4230024989e+000	 1.0609848670e+000	-1.0597838489e+000
 1.4119937216e+000	 1.0755922695e+000	-1.1313762087e+000
 1.4008272055e+000	 1.0900954730e+000	-1.1948949483e+000
 1.3895044249e+000	 1.1044919434e+000	-1.2499805999e+000
 1.3780269079e+000	 1.1187791743e+000	-1.2962621448e+000
 1.4908982544e+000	 9.7471737321e-001	-4.7952185820e-001
 1.4808284446e+000	 9.8994882705e-001	-5.9171332136e-001
 1.4705926315e+000	 1.0050914758e+000	-6.9836138246e-001
 1.4601919587e+000	 1.0201426402e+000	-7.9917903754e-001
 1.4496276267e+000	 1.0350996601e+000	-8.9386679385e-001
 1.4389008930e+000	 1.0499598957e+000	-9.8211255103e-001
 1.4280130711e+000	 1.0647207292e+000	-1.0635915301e+000
 1.4169655304e+000	 1.0793795662e+000	-1.1379662515e+000
 1.4057596956e+000	 1.0939338374e+000	-1.2048865637e+000
 1.3943970461e+000	 1.1083809996e+000	-1.2639897232e+000
 1.3828791153e+000	 1.1227185376e+000	-1.3149005257e+000
 1.4961294763e+000	 9.7813743417e-001	-4.8123632015e-001
 1.4860243339e+000	 9.9342233171e-001	-5.9247845353e-001
 1.4757526056e+000	 1.0086181125e+000	-6.9879469012e-001
 1.4653154392e+000	 1.0237220881e+000	-7.9990010158e-001
 1.4547140394e+000	 1.0387315887e+000	-8.9549640246e-001
 1.4439496681e+000	 1.0536439655e+000	-9.8527182054e-001
 1.4330236433e+000	 1.0684565914e+000	-1.0689010165e+000
 1.4219373393e+000	 1.0831668630e+000	-1.1460450543e+000
 1.4106921858e+000	 1.0977722017e+000	-1.2163514235e+000
 1.3992896673e+000	 1.1122700557e+000	-1.2794541137e+000
 1.3877313228e+000	 1.1266579009e+000	-1.3349737443e+000
 1.5013606983e+000	 9.8155749513e-001	-4.8444415996e-001
 1.4912202232e+000	 9.9689583637e-001	-5.9473863997e-001
 1.4809125798e+000	 1.0121447493e+000	-7.0072224791e-001
 1.4704389198e+000	 1.0273015359e+000	-8.0211214575e-001
 1.4598004522e+000	 1.0423635174e+000	-8.9861126921e-001
 1.4489984431e+000	 1.0573280353e+000	-9.8990818739e-001
 1.4380342155e+000	 1.0721924536e+000	-1.0756770130e+000
 1.4269091482e+000	 1.0869541597e+000	-1.1555773649e+000
 1.4156246760e+000	 1.1016105661e+000	-1.2292543839e+000
 1.4041822885e+000	 1.1161591119e+000	-1.2963388032e+000
 1.3925835302e+000	 1.1305972642e+000	-1.3564470737e+000
 1.5065919202e+000	 9.8497755610e-001	-4.8911119853e-001
 1.4964161124e+000	 1.0003693410e+000	-5.9845935339e-001
 1.4860725539e+000	 1.0156713861e+000	-7.0410924420e-001
 1.4755624003e+000	 1.0308809838e+000	-8.0578013823e-001
 1.4648868649e+000	 1.0459954460e+000	-9.0317620671e-001
 1.4540472182e+000	 1.0610121052e+000	-9.9598637347e-001
 1.4430447877e+000	 1.0759283158e+000	-1.0838842158e+000
 1.4318809571e+000	 1.0907414564e+000	-1.1665279192e+000
 1.4205571661e+000	 1.1054489304e+000	-1.2435602865e+000
 1.4090749098e+000	 1.1200481680e+000	-1.3146088038e+000
 1.3974357376e+000	 1.1345366275e+000	-1.3792857625e+000
 1.5118231421e+000	 9.8839761706e-001	-4.9520325307e-001
 1.5016120017e+000	 1.0038428457e+000	-6.0360606363e-001
 1.4912325281e+000	 1.0191980228e+000	-7.0892086462e-001
 1.4806858809e+000	 1.0344604317e+000	-8.1086904408e-001
 1.4699732776e+000	 1.0496273747e+000	-9.0915602335e-001
 1.4590959933e+000	 1.0646961750e+000	-1.0034710947e+000
 1.4480553598e+000	 1.0796641781e+000	-1.0934873130e+000
 1.4368527660e+000	 1.0945287531e+000	-1.1788614419e+000
 1.4254896563e+000	 1.1092872948e+000	-1.2592339575e+000
 1.4139675310e+000	 1.1239372241e+000	-1.3342291084e+000
 1.4022879450e+000	 1.1384759908e+000	-1.4034550353e+000
 1.5170543641e+000	 9.9181767803e-001	-5.0268613719e-001
 1.5068078910e+000	 1.0073163504e+000	-6.1014423774e-001
 1.4963925022e+000	 1.0227246596e+000	-7.1512229221e-001
 1.4858093614e+000	 1.0380398795e+000	-8.1734382529e-001
 1.4750596903e+000	 1.0532593033e+000	-9.1651552337e-001
 1.4641447683e+000	 1.0683802448e+000	-1.0123270613e+000
 1.4530659320e+000	 1.0834000403e+000	-1.1044509844e+000
 1.4418245748e+000	 1.0983160499e+000	-1.1925426468e+000
 1.4304221464e+000	 1.1131256591e+000	-1.2762402086e+000
 1.4188601522e+000	 1.1278262803e+000	-1.3551646910e+000
 1.4071401525e+000	 1.1424153541e+000	-1.4289200928e+000
 1.3586180782e+000	 1.1030217212e+000	-1.2367506533e+000
 1.3471512185e+000	 1.1169975803e+000	-1.3780255781e+000
 1.3355349719e+000	 1.1308608839e+000	-1.5082635229e+000
 1.3237710003e+000	 1.1446092515e+000	-1.6265269719e+000
 1.3118610162e+000	 1.1582403352e+000	-1.7318681489e+000
 1.2998067814e+000	 1.1717518214e+000	-1.8233299731e+000
 1.2876101064e+000	 1.1851414320e+000	-1.8999470652e+000
 1.2752728496e+000	 1.1984069254e+000	-1.9607468030e+000
 1.2627969160e+000	 1.2115460985e+000	-2.0047504245e+000
 1.2501842566e+000	 1.2245567870e+000	-2.0309741777e+000
 1.2374368671e+000	 1.2374368670e+000	-1.8303099762e+000
 1.3634702857e+000	 1.1069610845e+000	-1.2493029202e+000
 1.3519624729e+000	 1.1209868573e+000	-1.3886832148e+000
 1.3403047396e+000	 1.1348996728e+000	-1.5150845850e+000
 1.3284987539e+000	 1.1486971417e+000	-1.6275701536e+000
 1.3165462341e+000	 1.1623769079e+000	-1.7251943506e+000
 1.3044489484e+000	 1.1759366494e+000	-1.8070038705e+000
 1.2922087139e+000	 1.1893740799e+000	-1.8720386795e+000
 1.2798273955e+000	 1.2026869502e+000	-1.9193330689e+000
 1.2673069050e+000	 1.2158730489e+000	-1.9479167558e+000
 1.2546492003e+000	 1.2289302041e+000	-1.9568160272e+000
 1.2418562844e+000	 1.2418562844e+000	-1.8097265321e+000
 1.3683224931e+000	 1.1109004478e+000	-1.2634286784e+000
 1.3567737272e+000	 1.1249761344e+000	-1.4009981989e+000
 1.3450745074e+000	 1.1389384617e+000	-1.5236622900e+000
 1.3332265074e+000	 1.1527850319e+000	-1.6304846833e+000
 1.3212314520e+000	 1.1665134805e+000	-1.7205219722e+000
 1.3090911155e+000	 1.1801214773e+000	-1.7928245720e+000
 1.2968073215e+000	 1.1936067279e+000	-1.8464377268e+000
 1.2843819414e+000	 1.2069669749e+000	-1.8804025616e+000
 1.2718168940e+000	 1.2201999992e+000	-1.8937571804e+000
 1.2591141441e+000	 1.2333036211e+000	-1.8855378050e+000
 1.2462757018e+000	 1.2462757018e+000	-1.7926825410e+000
 1.3731747005e+000	 1.1148398111e+000	-1.2790933035e+000
 1.3615849816e+000	 1.1289654115e+000	-1.4149350923e+000
 1.3498442751e+000	 1.1429772505e+000	-1.5339602627e+000
 1.3379542610e+000	 1.1568729221e+000	-1.6352331250e+000
 1.3259166699e+000	 1.1706500531e+000	-1.7178123946e+000
 1.3137332826e+000	 1.1843063052e+000	-1.7807521528e+000
 1.3014059290e+000	 1.1978393759e+000	-1.8231028546e+000
 1.2889364873e+000	 1.2112469996e+000	-1.8439123798e+000
 1.2763268830e+000	 1.2245269496e+000	-1.8422271273e+000
 1.2635790879e+000	 1.2376770382e+000	-1.8170931500e+000
 1.2506951192e+000	 1.2506951192e+000	-1.7827448272e+000
 1.3780269079e+000	 1.1187791743e+000	-1.2962621448e+000
 1.3663962359e+000	 1.1329546886e+000	-1.4304584406e+000
 1.3546140429e+000	 1.1470160394e+000	-1.5459421233e+000
 1.3426820146e+000	 1.1609608123e+000	-1.6417780531e+000
 1.3306018878e+000	 1.1747866257e+000	-1.7170270250e+000
 1.3183754497e+000	 1.1884911331e+000	-1.7707467325e+000
 1.3060045365e+000	 1.2020720238e+000	-1.8019927751e+000
 1.2934910332e+000	 1.2155270244e+000	-1.8098197085e+000
 1.2808368719e+000	 1.2288538999e+000	-1.7932821358e+000
 1.2680440317e+000	 1.2420504553e+000	-1.7514358377e+000
 1.2551145366e+000	 1.2551145366e+000	-1.7928272870e+000
 1.3828791153e+000	 1.1227185376e+000	-1.3149005257e+000
 1.3712074903e+000	 1.1369439656e+000	-1.4475327735e+000
 1.3593838107e+000	 1.1510548283e+000	-1.5595714885e+000
 1.3474097682e+000	 1.1650487024e+000	-1.6500820515e+000
 1.3352871057e+000	 1.1789231984e+000	-1.7181272960e+000
 1.3230176167e+000	 1.1926759611e+000	-1.7627684739e+000
 1.3106031440e+000	 1.2063046718e+000	-1.7830662634e+000
 1.2980455791e+000	 1.2198070491e+000	-1.7780818178e+000
 1.2853468609e+000	 1.2331808503e+000	-1.7468778540e+000
 1.2725089754e+000	 1.2464238724e+000	-1.6885197780e+000
 1.2595339540e+000	 1.2595339540e+000	-1.8020031779e+000
 1.3877313228e+000	 1.1266579009e+000	-1.3349737443e+000
 1.3760187446e+000	 1.1409332427e+000	-1.4661226049e+000
 1.3641535784e+000	 1.1550936172e+000	-1.5748119706e+000
 1.3521375217e+000	 1.1691365926e+000	-1.6601077138e+000
 1.3399723237e+000	 1.1830597710e+000	-1.7210746656e+000
 1.3276597838e+000	 1.1968607890e+000	-1.7567775829e+000
 1.3152017515e+000	 1.2105373198e+000	-1.7662821570e+000
 1.3026001249e+000	 1.2240870738e+000	-1.7486560613e+000
 1.2898568499e+000	 1.2375078006e+000	-1.7029700367e+000
 1.2769739192e+000	 1.2507972895e+000	-1.6440178412e+000
 1.2639533713e+000	 1.2639533713e+000	-1.8102794179e+000
 1.3925835302e+000	 1.1305972642e+000	-1.3564470737e+000
 1.3808299990e+000	 1.1449225198e+000	-1.4861924336e+000
 1.3689233462e+000	 1.1591324060e+000	-1.5916271782e+000
 1.3568652753e+000	 1.1732244828e+000	-1.6718176433e+000
 1.3446575416e+000	 1.1871963436e+000	-1.7258306165e+000
 1.3323019509e+000	 1.2010456170e+000	-1.7527343071e+000
 1.3198003591e+000	 1.2147699678e+000	-1.7515993544e+000
 1.3071546708e+000	 1.2283670986e+000	-1.7214998747e+000
 1.2943668389e+000	 1.2418347510e+000	-1.6615145437e+000
 1.2814388630e+000	 1.2551707066e+000	-1.6704808915e+000
 1.2683727887e+000	 1.2683727887e+000	-1.8176630814e+000
 1.3974357376e+000	 1.1345366275e+000	-1.3792857625e+000
 1.3856412533e+000	 1.1489117969e+000	-1.5077067430e+000
 1.3736931139e+000	 1.1631711949e+000	-1.6099807161e+000
 1.3615930289e+000	 1.1773123730e+000	-1.6851744524e+000
 1.3493427595e+000	 1.1913329162e+000	-1.7323566558e+000
 1.3369441180e+000	 1.2052304449e+000	-1.7505989354e+000
 1.3243989666e+000	 1.2190026157e+000	-1.7389768141e+000
 1.3117092167e+000	 1.2326471233e+000	-1.6965707743e+000
 1.2988768279e+000	 1.2461617013e+000	-1.6224673379e+000
 1.2859038068e+000	 1.2595441237e+000	-1.6958846777e+000
 1.2727922061e+000	 1.2727922061e+000	-1.8241613964e+000
 1.4022879450e+000	 1.1384759908e+000	-1.4034550353e+000
 1.3904525077e+000	 1.1529010739e+000	-1.5306300018e+000
 1.3784628817e+000	 1.1672099838e+000	-1.6298361851e+000
 1.3663207824e+000	 1.1814002632e+000	-1.7001407626e+000
 1.3540279774e+000	 1.1954694889e+000	-1.7406143146e+000
 1.3415862851e+000	 1.2094152728e+000	-1.7503317975e+000
 1.3289975741e+000	 1.2232352637e+000	-1.7283735537e+000
 1.3162637626e+000	 1.2369271480e+000	-1.6738263558e+000
 1.3033868169e+000	 1.2504886517e+000	-1.5944245711e+000
 1.2903687505e+000	 1.2639175408e+000	-1.7202385461e+000
 1.2772116235e+000	 1.2772116235e+000	-1.8297817416e+000
 1.4071401525e+000	 1.1424153541e+000	-1.4289200928e+000
 1.3952637621e+000	 1.1568903510e+000	-1.5549266640e+000
 1.3832326494e+000	 1.1712487727e+000	-1.6511571825e+000
 1.3710485360e+000	 1.1854881534e+000	-1.7166792047e+000
 1.3587131953e+000	 1.1996060615e+000	-1.7505651473e+000
 1.3462284521e+000	 1.2136001008e+000	-1.7518932626e+000
 1.3335961816e+000	 1.2274679117e+000	-1.7197486487e+000
 1.3208183085e+000	 1.2412071728e+000	-1.6532242924e+000
 1.3078968059e+000	 1.2548156020e+000	-1.6346195855e+000
 1.2948336943e+000	 1.2682909579e+000	-1.7435519660e+000
 1.2816310409e+000	 1.2816310409e+000	-1.8345316442e+000
 1.2374368671e+000	 1.2374368670e+000	-1.8303099762e+000
 1.2245567870e+000	 1.2501842566e+000	-1.6747321721e+000
 1.2115460985e+000	 1.2627969160e+000	-1.7971252925e+000
 1.1984069254e+000	 1.2752728496e+000	-1.9059888823e+000
 1.1851414320e+000	 1.2876101064e+000	-2.0009146562e+000
 1.1717518214e+000	 1.2998067814e+000	-2.0814988935e+000
 1.1582403352e+000	 1.3118610162e+000	-2.1473430892e+000
 1.1446092515e+000	 1.3237710003e+000	-2.1980546089e+000
 1.1308608839e+000	 1.3355349719e+000	-2.2332473476e+000
 1.1169975803e+000	 1.3471512185e+000	-2.2525423884e+000
 1.1030217212e+000	 1.3586180782e+000	-2.2555686621e+000
 1.2418562844e+000	 1.2418562844e+000	-1.8097265321e+000
 1.2289302041e+000	 1.2546492003e+000	-1.7382034308e+000
 1.2158730489e+000	 1.2673069050e+000	-1.8412991159e+000
 1.2026869502e+000	 1.2798273955e+000	-1.9334726209e+000
 1.1893740799e+000	 1.2922087139e+000	-2.0143103848e+000
 1.1759366494e+000	 1.3044489484e+000	-2.0834009157e+000
 1.1623769079e+000	 1.3165462341e+000	-2.1403354569e+000
 1.1486971417e+000	 1.3284987539e+000	-2.1847086606e+000
 1.1348996728e+000	 1.3403047396e+000	-2.2161192683e+000
 1.1209868573e+000	 1.3519624729e+000	-2.2341707948e+000
 1.1069610845e+000	 1.3634702857e+000	-2.2384722157e+000
 1.2462757018e+000	 1.2462757018e+000	-1.7926825410e+000
 1.2333036211e+000	 1.2591141441e+000	-1.8013491795e+000
 1.2201999992e+000	 1.2718168940e+000	-1.8851251585e+000
 1.2069669749e+000	 1.2843819414e+000	-1.9605709578e+000
 1.1936067279e+000	 1.2968073215e+000	-2.0272677421e+000
 1.1801214773e+000	 1.3090911155e+000	-2.0847962591e+000
 1.1665134805e+000	 1.3212314520e+000	-2.1327375202e+000
 1.1527850319e+000	 1.3332265074e+000	-2.1706734928e+000
 1.1389384617e+000	 1.3450745074e+000	-2.1981878026e+000
 1.1249761344e+000	 1.3567737272e+000	-2.2148664424e+000
 1.1109004478e+000	 1.3683224931e+000	-2.2202984886e+000
 1.2506951192e+000	 1.2506951192e+000	-1.7827448272e+000
 1.2376770382e+000	 1.2635790879e+000	-1.8641441522e+000
 1.2245269496e+000	 1.2763268830e+000	-1.9285784874e+000
 1.2112469996e+000	 1.2889364873e+000	-1.9872594798e+000
 1.1978393759e+000	 1.3014059290e+000	-2.0397630216e+000
 1.1843063052e+000	 1.3137332826e+000	-2.0856621100e+000
 1.1706500531e+000	 1.3259166699e+000	-2.1245275436e+000
 1.1568729221e+000	 1.3379542610e+000	-2.1559286329e+000
 1.1429772505e+000	 1.3498442751e+000	-2.1794339244e+000
 1.1289654115e+000	 1.3615849816e+000	-2.1946119349e+000
 1.1148398111e+000	 1.3731747005e+000	-2.2010318957e+000
 1.2551145366e+000	 1.2551145366e+000	-1.7928272870e+000
 1.2420504553e+000	 1.2680440317e+000	-1.9265632467e+000
 1.2288538999e+000	 1.2808368719e+000	-1.9716343296e+000
 1.2155270244e+000	 1.2934910332e+000	-2.0135139282e+000
 1.2020720238e+000	 1.3060045365e+000	-2.0517726626e+000
 1.1884911331e+000	 1.3183754497e+000	-2.0859757895e+000
 1.1747866257e+000	 1.3306018878e+000	-2.1156839128e+000
 1.1609608123e+000	 1.3426820146e+000	-2.1404537134e+000
 1.1470160394e+000	 1.3546140429e+000	-2.1598386946e+000
 1.1329546886e+000	 1.3663962359e+000	-2.1733899415e+000
 1.1187791743e+000	 1.3780269079e+000	-2.1806568936e+000
 1.2595339540e+000	 1.2595339540e+000	-1.8020031779e+000
 1.2464238724e+000	 1.2725089754e+000	-1.9885815219e+000
 1.2331808503e+000	 1.2853468609e+000	-2.0142680702e+000
 1.2198070491e+000	 1.2980455791e+000	-2.0393101958e+000
 1.2063046718e+000	 1.3106031440e+000	-2.0632732478e+000
 1.1926759611e+000	 1.3230176167e+000	-2.0857147508e+000
 1.1789231984e+000	 1.3352871057e+000	-2.1061851324e+000
 1.1650487024e+000	 1.3474097682e+000	-2.1242284699e+000
 1.1510548283e+000	 1.3593838107e+000	-2.1393832585e+000
 1.1369439656e+000	 1.3712074903e+000	-2.1511831952e+000
 1.1227185376e+000	 1.3828791153e+000	-2.1591579800e+000
 1.2639533713e+000	 1.2639533713e+000	-1.8102794179e+000
 1.2507972895e+000	 1.2769739192e+000	-2.0370535843e+000
 1.2375078006e+000	 1.2898568499e+000	-2.0564552486e+000
 1.2240870738e+000	 1.3026001249e+000	-2.0646243246e+000
 1.2105373198e+000	 1.3152017515e+000	-2.0742415003e+000
 1.1968607890e+000	 1.3276597838e+000	-2.0848565775e+000
 1.1830597710e+000	 1.3399723237e+000	-2.0960098240e+000
 1.1691365926e+000	 1.3521375217e+000	-2.1072327396e+000
 1.1550936172e+000	 1.3641535784e+000	-2.1180488451e+000
 1.1409332427e+000	 1.3760187446e+000	-2.1279744925e+000
 1.1266579009e+000	 1.3877313228e+000	-2.1365196931e+000
 1.2683727887e+000	 1.2683727887e+000	-1.8176630814e+000
 1.2551707066e+000	 1.2814388630e+000	-2.0259631155e+000
 1.2418347510e+000	 1.2943668389e+000	-2.0981715565e+000
 1.2283670986e+000	 1.3071546708e+000	-2.0894325027e+000
 1.2147699678e+000	 1.3198003591e+000	-2.0846542818e+000
 1.2010456170e+000	 1.3323019509e+000	-2.0833789807e+000
 1.1871963436e+000	 1.3446575416e+000	-2.0851367241e+000
 1.1732244828e+000	 1.3568652753e+000	-2.0894464590e+000
 1.1591324060e+000	 1.3689233462e+000	-2.0958167655e+000
 1.1449225198e+000	 1.3808299990e+000	-2.1037466917e+000
 1.1305972642e+000	 1.3925835302e+000	-2.1127266105e+000
 1.2727922061e+000	 1.2727922061e+000	-1.8241613964e+000
 1.2595441237e+000	 1.2859038068e+000	-2.0139782637e+000
 1.2461617013e+000	 1.2988768279e+000	-2.1393928350e+000
 1.2326471233e+000	 1.3117092167e+000	-2.1137110621e+000
 1.2190026157e+000	 1.3243989666e+000	-2.0944885896e+000
 1.2052304449e+000	 1.3369441180e+000	-2.0812597970e+000
 1.1913329162e+000	 1.3493427595e+000	-2.0735446819e+000
 1.1773123730e+000	 1.3615930289e+000	-2.0708496627e+000
 1.1631711949e+000	 1.3736931139e+000	-2.0726684110e+000
 1.1489117969e+000	 1.3856412533e+000	-2.0784827120e+000
 1.1345366275e+000	 1.3974357376e+000	-2.0877633490e+000
 1.2772116235e+000	 1.2772116235e+000	-1.8297817416e+000
 1.2639175408e+000	 1.2903687505e+000	-2.0011063214e+000
 1.2504886517e+000	 1.3033868169e+000	-2.1722014657e+000
 1.2369271480e+000	 1.3162637626e+000	-2.1374364762e+000
 1.2232352637e+000	 1.3289975741e+000	-2.1037215546e+000
 1.2094152728e+000	 1.3415862851e+000	-2.0784769867e+000
 1.1954694889e+000	 1.3540279774e+000	-2.0612126579e+000
 1.1814002632e+000	 1.3663207824e+000	-2.0514224814e+000
 1.1672099838e+000	 1.3784628817e+000	-2.0485852524e+000
 1.1529010739e+000	 1.3904525077e+000	-2.0521655326e+000
 1.1384759908e+000	 1.4022879450e+000	-2.0616145636e+000
 1.2816310409e+000	 1.2816310409e+000	-1.8345316442e+000
 1.2682909579e+000	 1.2948336943e+000	-1.9873547287e+000
 1.2548156020e+000	 1.3078968059e+000	-2.1422674189e+000
 1.2412071728e+000	 1.3208183085e+000	-2.1605853573e+000
 1.2274679117e+000	 1.3335961816e+000	-2.1123304391e+000
 1.2136001008e+000	 1.3462284521e+000	-2.0750086310e+000
 1.1996060615e+000	 1.3587131953e+000	-2.0481197213e+000
 1.1854881534e+000	 1.3710485360e+000	-2.0311451406e+000
 1.1712487727e+000	 1.3832326494e+000	-2.0235488382e+000
 1.1568903510e+000	 1.3952637621e+000	-2.0247781913e+000
 1.1424153541e+000	 1.4071401525e+000	-2.0342649469e+000
 1.1030217212e+000	 1.3586180782e+000	-2.2555686621e+000
 1.0889357189e+000	 1.3699339400e+000	-2.1589578791e+000
 1.0747420157e+000	 1.3810972449e+000	-2.0764466064e+000
 1.0604430826e+000	 1.3921064861e+000	-2.0078713232e+000
 1.0460414182e+000	 1.4029602102e+000	-1.9530485663e+000
 1.0315395467e+000	 1.4136570177e+000	-1.9117755387e+000
 1.0169400169e+000	 1.4241955631e+000	-1.8838307498e+000
 1.0022454009e+000	 1.4345745559e+000	-1.8689746838e+000
 9.8745829198e-001	 1.4447927608e+000	-1.8669504943e+000
 9.7258130376e-001	 1.4548489982e+000	-1.8774847243e+000
 9.5761706841e-001	 1.4647421446e+000	-1.9002880483e+000
 1.1069610845e+000	 1.3634702857e+000	-2.2384722157e+000
 1.0928247750e+000	 1.3748265613e+000	-2.1469292637e+000
 1.0785803800e+000	 1.3860297350e+000	-2.0686916626e+000
 1.0642303793e+000	 1.3970782949e+000	-2.0035864909e+000
 1.0497772804e+000	 1.4079707824e+000	-1.9514216326e+000
 1.0352236165e+000	 1.4187057928e+000	-1.9119863957e+000
 1.0205719456e+000	 1.4292819758e+000	-1.8850521597e+000
 1.0058248488e+000	 1.4396980364e+000	-1.8703730512e+000
 9.9098492874e-001	 1.4499527349e+000	-1.8676866450e+000
 9.7605480841e-001	 1.4600448875e+000	-1.8767146883e+000
 9.6103712937e-001	 1.4699733666e+000	-1.8971638478e+000
 1.1109004478e+000	 1.3683224931e+000	-2.2202984886e+000
 1.0967138312e+000	 1.3797191825e+000	-2.1337556122e+000
 1.0824187443e+000	 1.3909622252e+000	-2.0597320438e+000
 1.0680176761e+000	 1.4020501038e+000	-1.9980454451e+000
 1.0535131426e+000	 1.4129813546e+000	-1.9484950262e+000
 1.0389076863e+000	 1.4237545678e+000	-1.9108621725e+000
 1.0242038742e+000	 1.4343683885e+000	-1.8849111010e+000
 1.0094042966e+000	 1.4448215170e+000	-1.8703895424e+000
 9.9451156550e-001	 1.4551127091e+000	-1.8670294486e+000
 9.7952831307e-001	 1.4652407768e+000	-1.8745477224e+000
 9.6445719033e-001	 1.4752045885e+000	-1.8926469679e+000
 1.1148398111e+000	 1.3731747005e+000	-2.2010318957e+000
 1.1006028873e+000	 1.3846118037e+000	-2.1194223575e+000
 1.0862571087e+000	 1.3958947153e+000	-2.0495541346e+000
 1.0718049728e+000	 1.4070219127e+000	-1.9912354558e+000
 1.0572490048e+000	 1.4179919268e+000	-1.9442568352e+000
 1.0425917561e+000	 1.4288033429e+000	-1.9083917082e+000
 1.0278358028e+000	 1.4394548013e+000	-1.8833970959e+000
 1.0129837445e+000	 1.4499449975e+000	-1.8690142949e+000
 9.9803820226e-001	 1.4602726832e+000	-1.8649695901e+000
 9.8300181773e-001	 1.4704366660e+000	-1.8709749904e+000
 9.6787725129e-001	 1.4804358105e+000	-1.8867289831e+000
 1.1187791743e+000	 1.3780269079e+000	-2.1806568936e+000
 1.1044919434e+000	 1.3895044249e+000	-2.1039149619e+000
 1.0900954730e+000	 1.4008272055e+000	-2.0381443378e+000
 1.0755922695e+000	 1.4119937216e+000	-1.9831438006e+000
 1.0609848670e+000	 1.4230024989e+000	-1.9386951461e+000
 1.0462758259e+000	 1.4338521179e+000	-1.9045638320e+000
 1.0314677315e+000	 1.4445412140e+000	-1.8804996501e+000
 1.0165631923e+000	 1.4550684781e+000	-1.8662374235e+000
 1.0015648390e+000	 1.4654326574e+000	-1.8614977263e+000
 9.8647532239e-001	 1.4756325553e+000	-1.8659876240e+000
 9.7129731225e-001	 1.4856670324e+000	-1.8794014324e+000
 1.1227185376e+000	 1.3828791153e+000	-2.1591579800e+000
 1.1083809996e+000	 1.3943970461e+000	-2.0872189165e+000
 1.0939338374e+000	 1.4057596956e+000	-2.0254890739e+000
 1.0793795662e+000	 1.4169655304e+000	-1.9737577650e+000
 1.0647207292e+000	 1.4280130711e+000	-1.9317980445e+000
 1.0499598957e+000	 1.4389008930e+000	-1.8993673640e+000
 1.0350996601e+000	 1.4496276267e+000	-1.8762082524e+000
 1.0201426402e+000	 1.4601919587e+000	-1.8620490204e+000
 1.0050914758e+000	 1.4705926315e+000	-1.8566044866e+000
 9.8994882705e-001	 1.4808284446e+000	-1.8595767233e+000
 9.7471737321e-001	 1.4908982544e+000	-1.8706558202e+000
 1.1266579009e+000	 1.3877313228e+000	-2.1365196931e+000
 1.1122700557e+000	 1.3992896673e+000	-2.0693197412e+000
 1.0977722017e+000	 1.4106921858e+000	-2.0115747812e+000
 1.0831668630e+000	 1.4219373393e+000	-1.9630646421e+000
 1.0684565914e+000	 1.4330236433e+000	-1.9235536145e+000
 1.0536439655e+000	 1.4439496681e+000	-1.8927911151e+000
 1.0387315887e+000	 1.4547140394e+000	-1.8705123759e+000
 1.0237220881e+000	 1.4653154392e+000	-1.8564391557e+000
 1.0086181125e+000	 1.4757526056e+000	-1.8502804730e+000
 9.9342233171e-001	 1.4860243339e+000	-1.8517333571e+000
 9.7813743417e-001	 1.4961294763e+000	-1.8604836167e+000
 1.1305972642e+000	 1.3925835302e+000	-2.1127266105e+000
 1.1161591119e+000	 1.4041822885e+000	-2.0502029836e+000
 1.1016105661e+000	 1.4156246760e+000	-1.9963879153e+000
 1.0869541597e+000	 1.4269091482e+000	-1.9510517327e+000
 1.0721924536e+000	 1.4380342155e+000	-1.9139499390e+000
 1.0573280353e+000	 1.4489984431e+000	-1.8848238871e+000
 1.0423635174e+000	 1.4598004522e+000	-1.8634014775e+000
 1.0273015359e+000	 1.4704389198e+000	-1.8493978777e+000
 1.0121447493e+000	 1.4809125798e+000	-1.8425162610e+000
 9.9689583637e-001	 1.4912202232e+000	-1.8424485639e+000
 9.8155749513e-001	 1.5013606983e+000	-1.8488762586e+000
 1.1345366275e+000	 1.3974357376e+000	-2.0877633490e+000
 1.1200481680e+000	 1.4090749098e+000	-2.0298542189e+000
 1.1054489304e+000	 1.4205571661e+000	-1.9799149487e+000
 1.0907414564e+000	 1.4318809571e+000	-1.9377063450e+000
 1.0759283158e+000	 1.4430447877e+000	-1.9029750997e+000
 1.0610121052e+000	 1.4540472182e+000	-1.8754544728e+000
 1.0459954460e+000	 1.4648868649e+000	-1.8548649987e+000
 1.0308809838e+000	 1.4755624003e+000	-1.8409152134e+000
 1.0156713861e+000	 1.4860725539e+000	-1.8333024000e+000
 1.0003693410e+000	 1.4964161124e+000	-1.8317133519e+000
 9.8497755610e-001	 1.5065919202e+000	-1.8358251497e+000
 1.1384759908e+000	 1.4022879450e+000	-2.0616145636e+000
 1.1239372241e+000	 1.4139675310e+000	-2.0082590496e+000
 1.1092872948e+000	 1.4254896563e+000	-1.9621423706e+000
 1.0945287531e+000	 1.4368527660e+000	-1.9230157945e+000
 1.0796641781e+000	 1.4480553598e+000	-1.8906171773e+000
 1.0646961750e+000	 1.4590959933e+000	-1.8646716566e+000
 1.0496273747e+000	 1.4699732776e+000	-1.8448923657e+000
 1.0344604317e+000	 1.4806858809e+000	-1.8309811688e+000
 1.0191980228e+000	 1.4912325281e+000	-1.8226294137e+000
 1.0038428457e+000	 1.5016120017e+000	-1.8195187000e+000
 9.8839761706e-001	 1.5118231421e+000	-1.8213216616e+000
 1.1424153541e+000	 1.4071401525e+000	-2.0342649469e+000
 1.1278262803e+000	 1.4188601522e+000	-1.9854031043e+000
 1.1131256591e+000	 1.4304221464e+000	-1.9430566866e+000
 1.0983160499e+000	 1.4418245748e+000	-1.9069674036e+000
 1.0834000403e+000	 1.4530659320e+000	-1.8768642512e+000
 1.0683802448e+000	 1.4641447683e+000	-1.8524642141e+000
 1.0532593033e+000	 1.4750596903e+000	-1.8334729895e+000
 1.0380398795e+000	 1.4858093614e+000	-1.8195857294e+000
 1.0227246596e+000	 1.4963925022e+000	-1.8104878004e+000
 1.0073163504e+000	 1.5068078910e+000	-1.8058555580e+000
 9.9181767803e-001	 1.5170543641e+000	-1.8053571337e+000
 9.5761706841e-001	 1.4647421446e+000	-1.9002880483e+000
 9.4256823526e-001	 1.4744711329e+000	-1.8516999594e+000
 9.2743746930e-001	 1.4840349526e+000	-1.8039359745e+000
 9.1222744964e-001	 1.4934326500e+000	-1.7567056708e+000
 8.9694086807e-001	 1.5026633286e+000	-1.7097158549e+000
 8.8158042754e-001	 1.5117261490e+000	-1.6626712628e+000
 8.6614884069e-001	 1.5206203292e+000	-1.6152752592e+000
 8.5064882832e-001	 1.5293451444e+000	-1.5672305323e+000
 8.3508311794e-001	 1.5378999272e+000	-1.5182397840e+000
 8.1945444228e-001	 1.5462840674e+000	-1.4680064130e+000
 8.0376553783e-001	 1.5544970119e+000	-1.4162351898e+000
 9.6103712937e-001	 1.4699733666e+000	-1.8971638478e+000
 9.4593455039e-001	 1.4797371013e+000	-1.8458205807e+000
 9.3074974597e-001	 1.4893350774e+000	-1.7957939399e+000
 9.1548540481e-001	 1.4987663380e+000	-1.7467865260e+000
 9.0014422831e-001	 1.5080299834e+000	-1.6984977464e+000
 8.8472892907e-001	 1.5171251710e+000	-1.6506245303e+000
 8.6924222941e-001	 1.5260511161e+000	-1.6028620431e+000
 8.5368685985e-001	 1.5348070914e+000	-1.5549043976e+000
 8.3806555764e-001	 1.5433924269e+000	-1.5064453600e+000
 8.2238106529e-001	 1.5518065105e+000	-1.4571790498e+000
 8.0663612904e-001	 1.5600487870e+000	-1.4068006310e+000
 9.6445719033e-001	 1.4752045885e+000	-1.8926469679e+000
 9.4930086552e-001	 1.4850030696e+000	-1.8385651959e+000
 9.3406202265e-001	 1.4946352023e+000	-1.7862907259e+000
 9.1874335999e-001	 1.5041000261e+000	-1.7355191480e+000
 9.0334758855e-001	 1.5133966381e+000	-1.6859424370e+000
 8.8787743059e-001	 1.5225241930e+000	-1.6372496828e+000
 8.7233561812e-001	 1.5314819030e+000	-1.5891278207e+000
 8.5672489138e-001	 1.5402690383e+000	-1.5412623582e+000
 8.4104799735e-001	 1.5488849267e+000	-1.4933380973e+000
 8.2530768829e-001	 1.5573289536e+000	-1.4450398510e+000
 8.0950672024e-001	 1.5656005620e+000	-1.3960531513e+000
 9.6787725129e-001	 1.4804358105e+000	-1.8867289831e+000
 9.5266718064e-001	 1.4902690379e+000	-1.8299256719e+000
 9.3737429933e-001	 1.4999353271e+000	-1.7754185251e+000
 9.2200131517e-001	 1.5094337141e+000	-1.7228960871e+000
 9.0655094879e-001	 1.5187632929e+000	-1.6720428663e+000
 8.9102593212e-001	 1.5279232149e+000	-1.6225400811e+000
 8.7542900684e-001	 1.5369126899e+000	-1.5740664048e+000
 8.5976292290e-001	 1.5457309853e+000	-1.5262987095e+000
 8.4403043705e-001	 1.5543774264e+000	-1.4789128040e+000
 8.2823431130e-001	 1.5628513967e+000	-1.4315841671e+000
 8.1237731145e-001	 1.5711523371e+000	-1.3839886727e+000
 9.7129731225e-001	 1.4856670324e+000	-1.8794014324e+000
 9.5603349577e-001	 1.4955350063e+000	-1.8198938391e+000
 9.4068657600e-001	 1.5052354519e+000	-1.7631694913e+000
 9.2525927034e-001	 1.5147674022e+000	-1.7089098526e+000
 9.0975430904e-001	 1.5241299476e+000	-1.6567919308e+000
 8.9417443365e-001	 1.5333222369e+000	-1.6064890394e+000
 8.7852239555e-001	 1.5423434768e+000	-1.5576715584e+000
 8.6280095443e-001	 1.5511929322e+000	-1.5100076933e+000
 8.4701287676e-001	 1.5598699262e+000	-1.4631642304e+000
 8.3116093431e-001	 1.5683738398e+000	-1.4168072863e+000
 8.1524790265e-001	 1.5767041121e+000	-1.3706030498e+000
 9.7471737321e-001	 1.4908982544e+000	-1.8706558202e+000
 9.5939981090e-001	 1.5008009746e+000	-1.8084614918e+000
 9.4399885268e-001	 1.5105355767e+000	-1.7495357407e+000
 9.2851722552e-001	 1.5201010902e+000	-1.6935529138e+000
 9.1295766928e-001	 1.5294966023e+000	-1.6401824841e+000
 8.9732293518e-001	 1.5387212589e+000	-1.5890898266e+000
 8.8161578427e-001	 1.5477742637e+000	-1.5399369954e+000
 8.6583898596e-001	 1.5566548792e+000	-1.4923834986e+000
 8.4999531647e-001	 1.5653624259e+000	-1.4460870700e+000
 8.3408755731e-001	 1.5738962829e+000	-1.4007044353e+000
 8.1811849386e-001	 1.5822558872e+000	-1.3558920707e+000
 9.7813743417e-001	 1.4961294763e+000	-1.8604836167e+000
 9.6276612603e-001	 1.5060669429e+000	-1.7956203887e+000
 9.4731112936e-001	 1.5158357016e+000	-1.7345093519e+000
 9.3177518070e-001	 1.5254347782e+000	-1.6768177007e+000
 9.1616102953e-001	 1.5348632571e+000	-1.6222073379e+000
 9.0047143670e-001	 1.5441202808e+000	-1.5703356665e+000
 8.8470917299e-001	 1.5532050506e+000	-1.5208563817e+000
 8.6887701750e-001	 1.5621168261e+000	-1.4734202628e+000
 8.5297775618e-001	 1.5708549257e+000	-1.4276759605e+000
 8.3701418032e-001	 1.5794187260e+000	-1.3832707804e+000
 8.2098908506e-001	 1.5878076622e+000	-1.3398514588e+000
 9.8155749513e-001	 1.5013606983e+000	-1.8488762586e+000
 9.6613244116e-001	 1.5113329113e+000	-1.7813622539e+000
 9.5062340604e-001	 1.5211358264e+000	-1.7180823673e+000
 9.3503313588e-001	 1.5307684663e+000	-1.6586966045e+000
 9.1936438977e-001	 1.5402299118e+000	-1.6028592629e+000
 9.0361993823e-001	 1.5495193028e+000	-1.5502197389e+000
 8.8780256171e-001	 1.5586358375e+000	-1.5004233360e+000
 8.7191504903e-001	 1.5675787731e+000	-1.4531120722e+000
 8.5596019588e-001	 1.5763474254e+000	-1.4079254844e+000
 8.3994080333e-001	 1.5849411691e+000	-1.3645014288e+000
 8.2385967627e-001	 1.5933594373e+000	-1.3224768730e+000
 9.8497755610e-001	 1.5065919202e+000	-1.8358251497e+000
 9.6949875629e-001	 1.5165988796e+000	-1.7656787771e+000
 9.5393568272e-001	 1.5264359512e+000	-1.7002467932e+000
 9.3829109107e-001	 1.5361021543e+000	-1.6391819785e+000
 9.2256775002e-001	 1.5455965666e+000	-1.5821309892e+000
 9.0676843976e-001	 1.5549183247e+000	-1.5287351806e+000
 8.9089595043e-001	 1.5640666244e+000	-1.4786314304e+000
 8.7495308056e-001	 1.5730407200e+000	-1.4314529631e+000
 8.5894263559e-001	 1.5818399251e+000	-1.3868301706e+000
 8.4286742634e-001	 1.5904636122e+000	-1.3443914293e+000
 8.2673026748e-001	 1.5989112123e+000	-1.3037639097e+000
 9.8839761706e-001	 1.5118231421e+000	-1.8213216616e+000
 9.7286507142e-001	 1.5218648479e+000	-1.7485616142e+000
 9.5724795940e-001	 1.5317360761e+000	-1.6809946006e+000
 9.4154904625e-001	 1.5414358423e+000	-1.6182661386e+000
 9.2577111027e-001	 1.5509632213e+000	-1.5600152074e+000
 9.0991694130e-001	 1.5603173467e+000	-1.5058750856e+000
 8.9398933915e-001	 1.5694974113e+000	-1.4554741914e+000
 8.7799111209e-001	 1.5785026670e+000	-1.4084369228e+000
 8.6192507530e-001	 1.5873324249e+000	-1.3643844949e+000
 8.4579404935e-001	 1.5959860553e+000	-1.3229357737e+000
 8.2960085869e-001	 1.6044629873e+000	-1.2837081035e+000
 9.9181767803e-001	 1.5170543641e+000	-1.8053571337e+000
 9.7623138655e-001	 1.5271308162e+000	-1.7300023883e+000
 9.6056023608e-001	 1.5370362009e+000	-1.6603177258e+000
 9.4480700143e-001	 1.5467695304e+000	-1.5959413642e+000
 9.2897447052e-001	 1.5563298761e+000	-1.5365045687e+000
 9.1306544283e-001	 1.5657163687e+000	-1.4816325062e+000
 8.9708272787e-001	 1.5749281982e+000	-1.4309451007e+000
 8.8102914363e-001	 1.5839646139e+000	-1.3840578902e+000
 8.6490751501e-001	 1.5928249246e+000	-1.3405828809e+000
 8.4872067236e-001	 1.6015084983e+000	-1.3001293975e+000
 8.3247144989e-001	 1.6100147624e+000	-1.2623049280e+000
 8.0376553783e-001	 1.5544970119e+000	-1.4162351898e+000
 7.8801914338e-001	 1.5625382650e+000	-1.3727436950e+000
 7.7221799855e-001	 1.5704073875e+000	-1.3330627872e+000
 7.5636484241e-001	 1.5781039969e+000	-1.2968486883e+000
 7.4046241198e-001	 1.5856277673e+000	-1.2637567101e+000
 7.2451344093e-001	 1.5929784285e+000	-1.2334419802e+000
 7.0852065808e-001	 1.6001557665e+000	-1.2055601539e+000
 6.9248678611e-001	 1.6071596221e+000	-1.1797681128e+000
 6.7641454021e-001	 1.6139898915e+000	-1.1557246475e+000
 6.6030662669e-001	 1.6206465249e+000	-1.1330911237e+000
 6.4416574173e-001	 1.6271295268e+000	-1.1115321296e+000
 8.0663612904e-001	 1.5600487870e+000	-1.4068006310e+000
 7.9083349746e-001	 1.5681187588e+000	-1.3646074796e+000
 7.7497591997e-001	 1.5760159853e+000	-1.3260459171e+000
 7.5906614541e-001	 1.5837400826e+000	-1.2907676315e+000
 7.4310692060e-001	 1.5912907236e+000	-1.2584236163e+000
 7.2710098893e-001	 1.5986676372e+000	-1.2286649008e+000
 7.1105108900e-001	 1.6058706085e+000	-1.2011432683e+000
 6.9495995321e-001	 1.6128994779e+000	-1.1755119596e+000
 6.7883030642e-001	 1.6197541411e+000	-1.1514263597e+000
 6.6266486464e-001	 1.6264345482e+000	-1.1285446686e+000
 6.4646633367e-001	 1.6329407037e+000	-1.1065285517e+000
 8.0950672024e-001	 1.5656005620e+000	-1.3960531513e+000
 7.9364785154e-001	 1.5736992526e+000	-1.3551858050e+000
 7.7773384140e-001	 1.5816245831e+000	-1.3177730223e+000
 7.6176744842e-001	 1.5893761683e+000	-1.2834619001e+000
 7.4575142921e-001	 1.5969536799e+000	-1.2518990546e+000
 7.2968853693e-001	 1.6043568459e+000	-1.2227313583e+000
 7.1358151992e-001	 1.6115854505e+000	-1.1956066631e+000
 6.9743312030e-001	 1.6186393337e+000	-1.1701745089e+000
 6.8124607264e-001	 1.6255183907e+000	-1.1460868152e+000
 6.6502310259e-001	 1.6322225715e+000	-1.1229985553e+000
 6.4876692560e-001	 1.6387518806e+000	-1.1005684117e+000
 8.1237731145e-001	 1.5711523371e+000	-1.3839886727e+000
 7.9646220562e-001	 1.5792797464e+000	-1.3444748683e+000
 7.8049176282e-001	 1.5872331809e+000	-1.3082405595e+000
 7.6446875143e-001	 1.5950122540e+000	-1.2749281943e+000
 7.4839593782e-001	 1.6026166362e+000	-1.2441799533e+000
 7.3227608493e-001	 1.6100460546e+000	-1.2156384930e+000
 7.1611195084e-001	 1.6173002926e+000	-1.1889476745e+000
 6.9990628739e-001	 1.6243791895e+000	-1.1637532766e+000
 6.8366183885e-001	 1.6312826403e+000	-1.1397036929e+000
 6.6738134054e-001	 1.6380105948e+000	-1.1164506098e+000
 6.5106751754e-001	 1.6445630575e+000	-1.0936496659e+000
 8.1524790265e-001	 1.5767041121e+000	-1.3706030498e+000
 7.9927655970e-001	 1.5848602402e+000	-1.3324707981e+000
 7.8324968424e-001	 1.5928417787e+000	-1.2974449164e+000
 7.6717005443e-001	 1.6006483397e+000	-1.2651631453e+000
 7.5104044643e-001	 1.6082795925e+000	-1.2352631715e+000
 7.3486363293e-001	 1.6157352633e+000	-1.2073833762e+000
 7.1864238176e-001	 1.6230151346e+000	-1.1811635699e+000
 7.0237945448e-001	 1.6301190453e+000	-1.1562457105e+000
 6.8607760506e-001	 1.6370468899e+000	-1.1322746049e+000
 6.6973957849e-001	 1.6437986181e+000	-1.1088985922e+000
 6.5336810947e-001	 1.6503742344e+000	-1.0857702059e+000
 8.1811849386e-001	 1.5822558872e+000	-1.3558920707e+000
 8.0209091379e-001	 1.5904407340e+000	-1.3191696563e+000
 7.8600760566e-001	 1.5984503765e+000	-1.2853824129e+000
 7.6987135744e-001	 1.6062844254e+000	-1.2541633163e+000
 7.5368495505e-001	 1.6139425488e+000	-1.2251455002e+000
 7.3745118093e-001	 1.6214244719e+000	-1.1979630114e+000
 7.2117281268e-001	 1.6287299766e+000	-1.1722515495e+000
 7.0485262157e-001	 1.6358589011e+000	-1.1476491915e+000
 6.8849337128e-001	 1.6428111395e+000	-1.1237970972e+000
 6.7209781644e-001	 1.6495866414e+000	-1.1003401974e+000
 6.5566870140e-001	 1.6561854113e+000	-1.0769278598e+000
 8.2098908506e-001	 1.5878076622e+000	-1.3398514588e+000
 8.0490526787e-001	 1.5960212278e+000	-1.3045674386e+000
 7.8876552708e-001	 1.6040589744e+000	-1.2720493029e+000
 7.7257266045e-001	 1.6119205112e+000	-1.2419252041e+000
 7.5632946366e-001	 1.6196055052e+000	-1.2138236639e+000
 7.4003872894e-001	 1.6271136806e+000	-1.1873743352e+000
 7.2370324360e-001	 1.6344448186e+000	-1.1622087471e+000
 7.0732578866e-001	 1.6415987569e+000	-1.1379610349e+000
 6.9090913749e-001	 1.6485753891e+000	-1.1142686510e+000
 6.7445605440e-001	 1.6553746647e+000	-1.0907730565e+000
 6.5796929334e-001	 1.6619965881e+000	-1.0671203929e+000
 8.2385967627e-001	 1.5933594373e+000	-1.3224768730e+000
 8.0771962195e-001	 1.6016017216e+000	-1.2886600761e+000
 7.9152344851e-001	 1.6096675722e+000	-1.2574417748e+000
 7.7527396346e-001	 1.6175565969e+000	-1.2284452395e+000
 7.5897397227e-001	 1.6252684615e+000	-1.2012943212e+000
 7.4262627694e-001	 1.6328028893e+000	-1.1756142190e+000
 7.2623367452e-001	 1.6401596607e+000	-1.1510322314e+000
 7.0979895576e-001	 1.6473386127e+000	-1.1271784916e+000
 6.9332490370e-001	 1.6543396388e+000	-1.1036866835e+000
 6.7681429235e-001	 1.6611626880e+000	-1.0801947383e+000
 6.6026988527e-001	 1.6678077650e+000	-1.0563455093e+000
 8.2673026748e-001	 1.5989112123e+000	-1.3037639097e+000
 8.1053397604e-001	 1.6071822154e+000	-1.2714434363e+000
 7.9428136993e-001	 1.6152761700e+000	-1.2415559529e+000
 7.7797526646e-001	 1.6231926826e+000	-1.2137197893e+000
 7.6161848089e-001	 1.6309314178e+000	-1.1875540665e+000
 7.4521382494e-001	 1.6384920980e+000	-1.1626794698e+000
 7.2876410544e-001	 1.6458745027e+000	-1.1387190072e+000
 7.1227212285e-001	 1.6530784685e+000	-1.1152987490e+000
 6.9574066992e-001	 1.6601038884e+000	-1.0920485499e+000
 6.7917253030e-001	 1.6669507113e+000	-1.0686027496e+000
 6.6257047720e-001	 1.6736189419e+000	-1.0446008525e+000
 8.2960085869e-001	 1.6044629873e+000	-1.2837081035e+000
 8.1334833012e-001	 1.6127627093e+000	-1.2529133243e+000
 7.9703929135e-001	 1.6208847678e+000	-1.2243878985e+000
 7.8067656947e-001	 1.6288287683e+000	-1.1977451568e+000
 7.6426298950e-001	 1.6365943741e+000	-1.1725994304e+000
 7.4780137294e-001	 1.6441813066e+000	-1.1485668314e+000
 7.3129453636e-001	 1.6515893447e+000	-1.1252660163e+000
 7.1474528994e-001	 1.6588183243e+000	-1.1023189322e+000
 6.9815643613e-001	 1.6658681380e+000	-1.0793515432e+000
 6.8153076824e-001	 1.6727387347e+000	-1.0559945368e+000
 6.6487106913e-001	 1.6794301188e+000	-1.0318840069e+000
 8.3247144989e-001	 1.6100147624e+000	-1.2623049280e+000
 8.1616268421e-001	 1.6183432031e+000	-1.2330654835e+000
 7.9979721278e-001	 1.6264933656e+000	-1.2059336111e+000
 7.8337787248e-001	 1.6344648540e+000	-1.1805175831e+000
 7.6690749811e-001	 1.6422573304e+000	-1.1564268817e+000
 7.5038892094e-001	 1.6498705153e+000	-1.1332729854e+000
 7.3382496728e-001	 1.6573041867e+000	-1.1106701389e+000
 7.1721845703e-001	 1.6645581801e+000	-1.0882361051e+000
 7.0057220234e-001	 1.6716323876e+000	-1.0655928966e+000
 6.8388900619e-001	 1.6785267580e+000	-1.0423674869e+000
 6.6717166106e-001	 1.6852412957e+000	-1.0181924984e+000
 6.4416574173e-001	 1.6271295268e+000	-1.1115321296e+000
 6.2799457010e-001	 1.6334389551e+000	-9.7566547050e-001
 6.1179578385e-001	 1.6395749202e+000	-9.4815022917e-001
 5.9557204113e-001	 1.6455375851e+000	-9.4309133546e-001
 5.7932598494e-001	 1.6513271642e+000	-9.3531413745e-001
 5.6306024200e-001	 1.6569439230e+000	-9.2464861717e-001
 5.4677742154e-001	 1.6623881771e+000	-9.1094292373e-001
 5.3048011421e-001	 1.6676602917e+000	-8.9406382317e-001
 5.1417089098e-001	 1.6727606807e+000	-8.7389709474e-001
 4.9785230209e-001	 1.6776898060e+000	-8.5034787368e-001
 4.8152687596e-001	 1.6824481768e+000	-8.2334094047e-001
 6.4646633367e-001	 1.6329407037e+000	-1.1065285517e+000
 6.3023740785e-001	 1.6392726656e+000	-9.7352204711e-001
 6.1398076879e-001	 1.6454305449e+000	-9.3003375237e-001
 5.9769908413e-001	 1.6514145050e+000	-9.2739113787e-001
 5.8139500632e-001	 1.6572247612e+000	-9.2207923560e-001
 5.6507117144e-001	 1.6628615798e+000	-9.1391831531e-001
 5.4873019804e-001	 1.6683252777e+000	-9.0274701327e-001
 5.3237468605e-001	 1.6736162213e+000	-8.8842279482e-001
 5.1600721560e-001	 1.6787348260e+000	-8.7082236288e-001
 4.9963034602e-001	 1.6836815553e+000	-8.4984201201e-001
 4.8324661480e-001	 1.6884569203e+000	-8.2539792839e-001
 6.4876692560e-001	 1.6387518806e+000	-1.1005684117e+000
 6.3248024560e-001	 1.6451063762e+000	-9.7044026974e-001
 6.1616575374e-001	 1.6512861696e+000	-9.1133438301e-001
 5.9982612714e-001	 1.6572914249e+000	-9.1113936401e-001
 5.8346402769e-001	 1.6631223582e+000	-9.0832200574e-001
 5.6708210087e-001	 1.6687792367e+000	-9.0269279591e-001
 5.5068297455e-001	 1.6742623783e+000	-8.9408079129e-001
 5.3426925789e-001	 1.6795721509e+000	-8.8233409320e-001
 5.1784354021e-001	 1.6847089713e+000	-8.6732026812e-001
 5.0140838996e-001	 1.6896733047e+000	-8.4892671327e-001
 4.8496635365e-001	 1.6944656638e+000	-8.2706096717e-001
 6.5106751754e-001	 1.6445630575e+000	-1.0936496659e+000
 6.3472308335e-001	 1.6509400867e+000	-9.6641848760e-001
 6.1835073868e-001	 1.6571417943e+000	-8.9204505251e-001
 6.0195317014e-001	 1.6631683449e+000	-8.9432961249e-001
 5.8553304907e-001	 1.6690199552e+000	-8.9403671940e-001
 5.6909303031e-001	 1.6746968936e+000	-8.9096700854e-001
 5.5263575106e-001	 1.6801994790e+000	-8.8493988999e-001
 5.3616382972e-001	 1.6855280805e+000	-8.7579403712e-001
 5.1967986482e-001	 1.6906831166e+000	-8.6338781935e-001
 5.0318643390e-001	 1.6956650540e+000	-8.4759967926e-001
 4.8668609249e-001	 1.7004744073e+000	-8.2832845390e-001
 6.5336810947e-001	 1.6503742344e+000	-1.0857702059e+000
 6.3696592110e-001	 1.6567737973e+000	-9.6145498275e-001
 6.2053572362e-001	 1.6629974190e+000	-8.7215862261e-001
 6.0408021315e-001	 1.6690452648e+000	-8.7695540949e-001
 5.8760207044e-001	 1.6749175522e+000	-8.7921757281e-001
 5.7110395975e-001	 1.6806145504e+000	-8.7873582448e-001
 5.5458852756e-001	 1.6861365796e+000	-8.7531986015e-001
 5.3805840156e-001	 1.6914840101e+000	-8.6879886069e-001
 5.2151618943e-001	 1.6966572618e+000	-8.5902193730e-001
 5.0496447784e-001	 1.7016568033e+000	-8.4585852010e-001
 4.8840583134e-001	 1.7064831508e+000	-8.2919869024e-001
 6.5566870140e-001	 1.6561854113e+000	-1.0769278598e+000
 6.3920875885e-001	 1.6626075078e+000	-9.5554797122e-001
 6.2272070856e-001	 1.6688530437e+000	-8.5166788650e-001
 6.0620725615e-001	 1.6749221848e+000	-8.5901021003e-001
 5.8967109182e-001	 1.6808151493e+000	-8.6385868822e-001
 5.7311488918e-001	 1.6865322073e+000	-8.6599403809e-001
 5.5654130407e-001	 1.6920736802e+000	-8.6521617250e-001
 5.3995297340e-001	 1.6974399397e+000	-8.6134471476e-001
 5.2335251404e-001	 1.7026314071e+000	-8.5421945608e-001
 5.0674252177e-001	 1.7076485526e+000	-8.4370075575e-001
 4.9012557018e-001	 1.7124918943e+000	-8.2966988410e-001
 6.5796929334e-001	 1.6619965881e+000	-1.0671203929e+000
 6.4145159660e-001	 1.6684412184e+000	-9.4869560423e-001
 6.2490569350e-001	 1.6747086685e+000	-8.3056557008e-001
 6.0833429915e-001	 1.6807991047e+000	-8.4048739918e-001
 5.9174011319e-001	 1.6867127463e+000	-8.4795411522e-001
 5.7512581862e-001	 1.6924498642e+000	-8.5273636816e-001
 5.5849408057e-001	 1.6980107809e+000	-8.5462421919e-001
 5.4184754523e-001	 1.7033958694e+000	-8.5342766840e-001
 5.2518883865e-001	 1.7086055524e+000	-8.4897712471e-001
 5.0852056571e-001	 1.7136403019e+000	-8.4112381767e-001
 4.9184530902e-001	 1.7185006378e+000	-8.2974015129e-001
 6.6026988527e-001	 1.6678077650e+000	-1.0563455093e+000
 6.4369443435e-001	 1.6742749289e+000	-9.4089596924e-001
 6.2709067844e-001	 1.6805642932e+000	-8.2513417888e-001
 6.1046134215e-001	 1.6866760247e+000	-8.2138029333e-001
 5.9380913457e-001	 1.6926103433e+000	-8.3149783195e-001
 5.7713674805e-001	 1.6983675210e+000	-8.3895745922e-001
 5.6044685708e-001	 1.7039478815e+000	-8.4353931510e-001
 5.4374211707e-001	 1.7093517990e+000	-8.4504371030e-001
 5.2702516326e-001	 1.7145796977e+000	-8.4329160859e-001
 5.1029860964e-001	 1.7196320512e+000	-8.3812505030e-001
 4.9356504787e-001	 1.7245093812e+000	-8.2940751710e-001
 6.6257047720e-001	 1.6736189419e+000	-1.0446008525e+000
 6.4593727209e-001	 1.6801086395e+000	-9.3214709114e-001
 6.2927566338e-001	 1.6864199179e+000	-8.1951442606e-001
 6.1258838515e-001	 1.6925529446e+000	-8.0168214134e-001
 5.9587815594e-001	 1.6985079403e+000	-8.1448374642e-001
 5.7914767748e-001	 1.7042851779e+000	-8.2465188280e-001
 5.6239963358e-001	 1.7098849821e+000	-8.3195669922e-001
 5.4563668890e-001	 1.7153077286e+000	-8.3618875021e-001
 5.2886148787e-001	 1.7205538430e+000	-8.3715949096e-001
 5.1207665358e-001	 1.7256238005e+000	-8.3470171259e-001
 4.9528478671e-001	 1.7305181247e+000	-8.2866991789e-001
 6.6487106913e-001	 1.6794301188e+000	-1.0318840069e+000
 6.4818010984e-001	 1.6859423500e+000	-9.2244693326e-001
 6.3146064832e-001	 1.6922755426e+000	-8.1296322842e-001
 6.1471542815e-001	 1.6984298646e+000	-7.8138612574e-001
 5.9794717731e-001	 1.7044055373e+000	-7.9690569766e-001
 5.8115860692e-001	 1.7102028348e+000	-8.0981413877e-001
 5.6435241008e-001	 1.7158220828e+000	-8.1987153596e-001
 5.4753126074e-001	 1.7212636582e+000	-8.2685862026e-001
 5.3069781248e-001	 1.7265279883e+000	-8.3057727431e-001
 5.1385469751e-001	 1.7316155498e+000	-8.3085097949e-001
 4.9700452555e-001	 1.7365268682e+000	-8.2752520262e-001
 6.6717166106e-001	 1.6852412957e+000	-1.0181924984e+000
 6.5042294759e-001	 1.6917760606e+000	-9.1179339847e-001
 6.3364563326e-001	 1.6981311673e+000	-8.0547887474e-001
 6.1684247115e-001	 1.7043067845e+000	-7.6048536385e-001
 6.0001619868e-001	 1.7103031343e+000	-7.7875745691e-001
 5.8316953635e-001	 1.7161204916e+000	-7.9443865648e-001
 5.6630518659e-001	 1.7217591834e+000	-8.0727891639e-001
 5.4942583257e-001	 1.7272195878e+000	-8.1704907630e-001
 5.3253413709e-001	 1.7325021336e+000	-8.2354138179e-001
 5.1563274145e-001	 1.7376072991e+000	-8.2656994339e-001
 4.9872426439e-001	 1.7425356117e+000	-8.2597113436e-001
 4.8152687596e-001	 1.6824481768e+000	-8.2334094047e-001
 4.6519711827e-001	 1.6870363485e+000	-8.1730623157e-001
 4.4886551091e-001	 1.6914549220e+000	-8.0964474742e-001
 4.3253451111e-001	 1.6957045429e+000	-8.0013700582e-001
 4.1620655049e-001	 1.6997859004e+000	-7.8858539869e-001
 3.9988403418e-001	 1.7036997268e+000	-7.7481439185e-001
 3.8356934003e-001	 1.7074467961e+000	-7.5867066946e-001
 3.6726481775e-001	 1.7110279231e+000	-7.4002322394e-001
 3.5097278819e-001	 1.7144439629e+000	-7.1876339254e-001
 3.3469554254e-001	 1.7176958094e+000	-6.9480484170e-001
 3.1843534169e-001	 1.7207843947e+000	-6.6808350047e-001
 4.8324661480e-001	 1.6884569203e+000	-8.2539792839e-001
 4.6685853655e-001	 1.6930614783e+000	-8.1962129197e-001
 4.5046860203e-001	 1.6974958324e+000	-8.1219935845e-001
 4.3407927723e-001	 1.7017606305e+000	-8.0291606303e-001
 4.1769300246e-001	 1.7058565644e+000	-7.9157731486e-001
 4.0131219145e-001	 1.7097843687e+000	-7.7801119600e-001
 3.8493923053e-001	 1.7135448203e+000	-7.6206810475e-001
 3.6857647782e-001	 1.7171387371e+000	-7.4362084409e-001
 3.5222626243e-001	 1.7205669771e+000	-7.2256465647e-001
 3.3589088376e-001	 1.7238304373e+000	-6.9881720600e-001
 3.1957261077e-001	 1.7269300533e+000	-6.7231850940e-001
 4.8496635365e-001	 1.6944656638e+000	-8.2706096717e-001
 4.6851995483e-001	 1.6990866081e+000	-8.2170234366e-001
 4.5207169314e-001	 1.7035367429e+000	-8.1467703008e-001
 4.3562404334e-001	 1.7078167182e+000	-8.0577227592e-001
 4.1917945442e-001	 1.7119272283e+000	-7.9479740881e-001
 4.0274034871e-001	 1.7158690106e+000	-7.8158403288e-001
 3.8630912103e-001	 1.7196428446e+000	-7.6598617096e-001
 3.6988813788e-001	 1.7232495511e+000	-7.4788035160e-001
 3.5347973668e-001	 1.7266899912e+000	-7.2716564203e-001
 3.3708622499e-001	 1.7299650652e+000	-7.0376362827e-001
 3.2070987985e-001	 1.7330757118e+000	-6.7761834361e-001
 4.8668609249e-001	 1.7004744073e+000	-8.2832845390e-001
 4.7018137311e-001	 1.7051117379e+000	-8.2354692311e-001
 4.5367478425e-001	 1.7095776533e+000	-8.1707444305e-001
 4.3716880945e-001	 1.7138728058e+000	-8.0870147440e-001
 4.2066590639e-001	 1.7179978922e+000	-7.9824066474e-001
 4.0416850598e-001	 1.7219536525e+000	-7.8552704621e-001
 3.8767901153e-001	 1.7257408689e+000	-7.7041817667e-001
 3.7119979795e-001	 1.7293603651e+000	-7.5279422534e-001
 3.5473321092e-001	 1.7328130054e+000	-7.3255800400e-001
 3.3828156621e-001	 1.7360996931e+000	-7.0963494493e-001
 3.2184714893e-001	 1.7392213704e+000	-6.8397302699e-001
 4.8840583134e-001	 1.7064831508e+000	-8.2919869024e-001
 4.7184279139e-001	 1.7111368678e+000	-8.2515248949e-001
 4.5527787536e-001	 1.7156185637e+000	-8.1938821867e-001
 4.3871357557e-001	 1.7199288935e+000	-8.1169944674e-001
 4.2215235836e-001	 1.7240685562e+000	-8.0190204276e-001
 4.0559666325e-001	 1.7280382944e+000	-7.8983437293e-001
 3.8904890203e-001	 1.7318388932e+000	-7.7535744081e-001
 3.7251145801e-001	 1.7354711792e+000	-7.5835497152e-001
 3.5598668517e-001	 1.7389360195e+000	-7.3873344122e-001
 3.3947690744e-001	 1.7422343210e+000	-7.1642205296e-001
 3.2298441800e-001	 1.7453670290e+000	-6.9137266031e-001
 4.9012557018e-001	 1.7124918943e+000	-8.2966988410e-001
 4.7350420967e-001	 1.7171619976e+000	-8.2651642599e-001
 4.5688096647e-001	 1.7216594742e+000	-8.2161491993e-001
 4.4025834168e-001	 1.7259849811e+000	-8.1476194029e-001
 4.2363881033e-001	 1.7301392201e+000	-8.0577647929e-001
 4.0702482051e-001	 1.7341229362e+000	-7.9450014338e-001
 3.9041879254e-001	 1.7379369174e+000	-7.8079729256e-001
 3.7382311808e-001	 1.7415819932e+000	-7.6455512320e-001
 3.5724015941e-001	 1.7450590337e+000	-7.4568369581e-001
 3.4067224866e-001	 1.7483689489e+000	-7.2411590882e-001
 3.2412168708e-001	 1.7515126875e+000	-6.9980741976e-001
 4.9184530902e-001	 1.7185006378e+000	-8.2974015129e-001
 4.7516562795e-001	 1.7231871274e+000	-8.2763604119e-001
 4.5848405758e-001	 1.7277003846e+000	-8.2375105246e-001
 4.4180310779e-001	 1.7320410688e+000	-8.1788466219e-001
 4.2512526229e-001	 1.7362098840e+000	-8.0985888748e-001
 4.0845297778e-001	 1.7402075781e+000	-7.9951848137e-001
 3.9178868304e-001	 1.7440349417e+000	-7.8673107111e-001
 3.7513477814e-001	 1.7476928072e+000	-7.7138723979e-001
 3.5849363366e-001	 1.7511820478e+000	-7.5340055239e-001
 3.4186758989e-001	 1.7545035768e+000	-7.3270752742e-001
 3.2525895616e-001	 1.7576583461e+000	-7.0926755575e-001
 4.9356504787e-001	 1.7245093812e+000	-8.2940751710e-001
 4.7682704623e-001	 1.7292122572e+000	-8.2850857032e-001
 4.6008714869e-001	 1.7337412950e+000	-8.2579306557e-001
 4.4334787390e-001	 1.7380971564e+000	-8.2106328007e-001
 4.2661171426e-001	 1.7422805479e+000	-8.1414415764e-001
 4.0988113505e-001	 1.7462922200e+000	-8.0488350428e-001
 3.9315857354e-001	 1.7501329660e+000	-7.9315212550e-001
 3.7644643821e-001	 1.7538036212e+000	-7.7884390667e-001
 3.5974710790e-001	 1.7573050620e+000	-7.6187583738e-001
 3.4306293112e-001	 1.7606382047e+000	-7.4218798111e-001
 3.2639622525e-001	 1.7638040046e+000	-7.1974339151e-001
 4.9528478671e-001	 1.7305181247e+000	-8.2866991789e-001
 4.7848846451e-001	 1.7352373870e+000	-8.2913117655e-001
 4.6169023980e-001	 1.7397822055e+000	-8.2773735324e-001
 4.4489264001e-001	 1.7441532441e+000	-8.2429342274e-001
 4.2809816623e-001	 1.7483512119e+000	-8.1862715760e-001
 4.1130929231e-001	 1.7523768619e+000	-8.1058932323e-001
 3.9452846404e-001	 1.7562309902e+000	-8.0005381447e-001
 3.7775809827e-001	 1.7599144352e+000	-7.8691773464e-001
 3.6100058215e-001	 1.7634280761e+000	-7.7110141826e-001
 3.4425827234e-001	 1.7667728326e+000	-7.5254839865e-001
 3.2753349433e-001	 1.7699496632e+000	-7.3122532190e-001
 4.9700452555e-001	 1.7365268682e+000	-8.2752520262e-001
 4.8014988279e-001	 1.7412625168e+000	-8.2950095224e-001
 4.6329333091e-001	 1.7458231159e+000	-8.2958025503e-001
 4.4643740612e-001	 1.7502093317e+000	-8.2757068087e-001
 4.2958461819e-001	 1.7544218758e+000	-8.2330273309e-001
 4.1273744958e-001	 1.7584615038e+000	-8.1663004312e-001
 3.9589835454e-001	 1.7623290145e+000	-8.0742950627e-001
 3.7906975834e-001	 1.7660252492e+000	-7.9560135956e-001
 3.6225405640e-001	 1.7695510903e+000	-7.8106920282e-001
 3.4545361357e-001	 1.7729074605e+000	-7.6377996430e-001
 3.2867076341e-001	 1.7760953217e+000	-7.4370381215e-001
 4.9872426439e-001	 1.7425356117e+000	-8.2597113436e-001
 4.8181130107e-001	 1.7472876466e+000	-8.2961492016e-001
 4.6489642202e-001	 1.7518640263e+000	-8.3131805703e-001
 4.4798217224e-001	 1.7562654194e+000	-8.3089060764e-001
 4.3107107016e-001	 1.7604925397e+000	-8.2816570820e-001
 4.1416560684e-001	 1.7645461456e+000	-8.2299976281e-001
 3.9726824505e-001	 1.7684270388e+000	-8.1527257851e-001
 3.8038141841e-001	 1.7721360632e+000	-8.0488744187e-001
 3.6350753064e-001	 1.7756741044e+000	-7.9177113854e-001
 3.4664895480e-001	 1.7790420884e+000	-7.7587391677e-001
 3.2980803249e-001	 1.7822409803e+000	-7.5716939662e-001
 3.1843534169e-001	 1.7207843947e+000	-6.6808350047e-001
 3.0219441552e-001	 1.7237106878e+000	-6.5305152362e-001
 2.8597496227e-001	 1.7264756937e+000	-6.3810283563e-001
 2.6977914795e-001	 1.7290804525e+000	-6.2322777606e-001
 2.5360910576e-001	 1.7315260384e+000	-6.0843585434e-001
 2.3746693558e-001	 1.7338135582e+000	-5.9375551091e-001
 2.2135470344e-001	 1.7359441510e+000	-5.7923383864e-001
 2.0527444105e-001	 1.7379189866e+000	-5.6493626622e-001
 1.8922814542e-001	 1.7397392647e+000	-5.5094620552e-001
 1.7321777839e-001	 1.7414062138e+000	-5.3736466446e-001
 1.5724526631e-001	 1.7429210901e+000	-5.2430982758e-001
 3.1957261077e-001	 1.7269300533e+000	-6.7231850940e-001
 3.0327368129e-001	 1.7298667974e+000	-6.5775040287e-001
 2.8699630142e-001	 1.7326416783e+000	-6.4326639776e-001
 2.7074264490e-001	 1.7352557399e+000	-6.2885703558e-001
 2.5451485257e-001	 1.7377100599e+000	-6.1453219178e-001
 2.3831503178e-001	 1.7400057495e+000	-6.0032083522e-001
 2.2214525595e-001	 1.7421439515e+000	-5.8627074756e-001
 2.0600756406e-001	 1.7441258401e+000	-5.7244820423e-001
 1.8990396023e-001	 1.7459526192e+000	-5.5893761893e-001
 1.7383641331e-001	 1.7476255217e+000	-5.4584115346e-001
 1.5780685655e-001	 1.7491458083e+000	-5.3327829478e-001
 3.2070987985e-001	 1.7330757118e+000	-6.7761834361e-001
 3.0435294706e-001	 1.7360229070e+000	-6.6358274769e-001
 2.8801764057e-001	 1.7388076630e+000	-6.4962866320e-001
 2.7170614186e-001	 1.7414310272e+000	-6.3574679757e-001
 2.5542059938e-001	 1.7438940815e+000	-6.2194736038e-001
 2.3916312798e-001	 1.7461979408e+000	-6.0825982113e-001
 2.2293580847e-001	 1.7483437521e+000	-5.9473262652e-001
 2.0674068707e-001	 1.7503326936e+000	-5.8143287896e-001
 1.9057977504e-001	 1.7521659737e+000	-5.6844597825e-001
 1.7445504824e-001	 1.7538448296e+000	-5.5587522816e-001
 1.5836844679e-001	 1.7553705264e+000	-5.4384141002e-001
 3.2184714893e-001	 1.7392213704e+000	-6.8397302699e-001
 3.0543221283e-001	 1.7421790166e+000	-6.7053839550e-001
 2.8903897972e-001	 1.7449736476e+000	-6.5717928589e-001
 2.7266963882e-001	 1.7476063145e+000	-6.4388653541e-001
 2.5632634618e-001	 1.7500781031e+000	-6.3067065576e-001
 2.4001122418e-001	 1.7523901320e+000	-6.1756158920e-001
 2.2372636098e-001	 1.7545435526e+000	-6.0460842367e-001
 2.0747381007e-001	 1.7565395472e+000	-5.9187906876e-001
 1.9125558984e-001	 1.7583793282e+000	-5.7945989450e-001
 1.7507368317e-001	 1.7600641375e+000	-5.6745533474e-001
 1.5893003703e-001	 1.7615952446e+000	-5.5598745707e-001
 3.2298441800e-001	 1.7453670290e+000	-6.9137266031e-001
 3.0651147860e-001	 1.7483351262e+000	-6.7860726790e-001
 2.9006031887e-001	 1.7511396322e+000	-6.6590801107e-001
 2.7363313578e-001	 1.7537816019e+000	-6.5326582064e-001
 2.5723209299e-001	 1.7562621246e+000	-6.4069147842e-001
 2.4085932038e-001	 1.7585823233e+000	-6.2821537145e-001
 2.2451691349e-001	 1.7607433531e+000	-6.1588720499e-001
 2.0820693308e-001	 1.7627464007e+000	-6.0377567595e-001
 1.9193140465e-001	 1.7645926827e+000	-5.9196810870e-001
 1.7569231809e-001	 1.7662834454e+000	-5.8057005512e-001
 1.5949162727e-001	 1.7678199628e+000	-5.6970486097e-001
 3.2412168708e-001	 1.7515126875e+000	-6.9980741976e-001
 3.0759074437e-001	 1.7544912358e+000	-6.8777936912e-001
 2.9108165803e-001	 1.7573056168e+000	-6.7580467360e-001
 2.7459663274e-001	 1.7599568892e+000	-6.6387432133e-001
 2.5813783980e-001	 1.7624461462e+000	-6.5199933201e-001
 2.4170741659e-001	 1.7647745146e+000	-6.4021050944e-001
 2.2530746601e-001	 1.7669431537e+000	-6.2855815224e-001
 2.0894005609e-001	 1.7689532542e+000	-6.1711172468e-001
 1.9260721946e-001	 1.7708060373e+000	-6.0595948949e-001
 1.7631095302e-001	 1.7725027533e+000	-5.9520810456e-001
 1.6005321751e-001	 1.7740446810e+000	-5.8498218557e-001
 3.2525895616e-001	 1.7576583461e+000	-7.0926755575e-001
 3.0867001014e-001	 1.7606473454e+000	-6.9804478464e-001
 2.9210299718e-001	 1.7634716014e+000	-6.8685919649e-001
 2.7556012970e-001	 1.7661321765e+000	-6.7570180029e-001
 2.5904358661e-001	 1.7686301678e+000	-6.6458382143e-001
 2.4255551279e-001	 1.7709667059e+000	-6.5353645233e-001
 2.2609801853e-001	 1.7731429542e+000	-6.4261056091e-001
 2.0967317909e-001	 1.7751601077e+000	-6.3187635878e-001
 1.9328303427e-001	 1.7770193918e+000	-6.2142303098e-001
 1.7692958795e-001	 1.7787220612e+000	-6.1135832929e-001
 1.6061480775e-001	 1.7802693992e+000	-6.0180813108e-001
 3.2639622525e-001	 1.7638040046e+000	-7.1974339151e-001
 3.0974927592e-001	 1.7668034550e+000	-7.0939367974e-001
 2.9312433634e-001	 1.7696375861e+000	-6.9906158926e-001
 2.7652362666e-001	 1.7723074639e+000	-6.8873811350e-001
 2.5994933342e-001	 1.7748141893e+000	-6.7843465115e-001
 2.4340360899e-001	 1.7771588971e+000	-6.6818275504e-001
 2.2688857104e-001	 1.7793427548e+000	-6.5803383826e-001
 2.1040630210e-001	 1.7813669612e+000	-6.4805883967e-001
 1.9395884908e-001	 1.7832327463e+000	-6.3834785052e-001
 1.7754822287e-001	 1.7849413691e+000	-6.2900970430e-001
 1.6117639799e-001	 1.7864941173e+000	-6.2017153175e-001
 3.2753349433e-001	 1.7699496632e+000	-7.3122532190e-001
 3.1082854169e-001	 1.7729595646e+000	-7.2181629809e-001
 2.9414567549e-001	 1.7758035707e+000	-7.1240194653e-001
 2.7748712362e-001	 1.7784827512e+000	-7.0297320844e-001
 2.6085508023e-001	 1.7809982109e+000	-6.9354162341e-001
 2.4425170519e-001	 1.7833510884e+000	-6.8413907637e-001
 2.2767912356e-001	 1.7855425553e+000	-6.7481750137e-001
 2.1113942511e-001	 1.7875738148e+000	-6.6564854434e-001
 1.9463466389e-001	 1.7894461008e+000	-6.5672318659e-001
 1.7816685780e-001	 1.7911606770e+000	-6.4815133105e-001
 1.6173798823e-001	 1.7927188355e+000	-6.4006135347e-001
 3.2867076341e-001	 1.7760953217e+000	-7.4370381215e-001
 3.1190780747e-001	 1.7791156742e+000	-7.3530296046e-001
 2.9516701465e-001	 1.7819695553e+000	-7.2687044649e-001
 2.7845062058e-001	 1.7846580385e+000	-7.1839712254e-001
 2.6176082705e-001	 1.7871822324e+000	-7.0989463658e-001
 2.4509980140e-001	 1.7895432797e+000	-7.0139517723e-001
 2.2846967608e-001	 1.7917423558e+000	-6.9295117523e-001
 2.1187254812e-001	 1.7937806683e+000	-6.8463496335e-001
 1.9531047870e-001	 1.7956594553e+000	-6.7653839666e-001
 1.7878549273e-001	 1.7973799849e+000	-6.6877243529e-001
 1.6229957847e-001	 1.7989435537e+000	-6.6146669155e-001
 3.2980803249e-001	 1.7822409803e+000	-7.5716939662e-001
 3.1298707324e-001	 1.7852717838e+000	-7.4984406334e-001
 2.9618835380e-001	 1.7881355399e+000	-7.4245734947e-001
 2.7941411755e-001	 1.7908333258e+000	-7.3499998160e-001
 2.6266657386e-001	 1.7933662540e+000	-7.2748368345e-001
 2.4594789760e-001	 1.7957354710e+000	-7.1994091888e-001
 2.2926022860e-001	 1.7979421564e+000	-7.1242459092e-001
 2.1260567113e-001	 1.7999875218e+000	-7.0500769884e-001
 1.9598629351e-001	 1.8018728098e+000	-6.9778295521e-001
 1.7940412766e-001	 1.8035992928e+000	-6.9086236493e-001
 1.6286116871e-001	 1.8051682719e+000	-6.8437676845e-001
 1.5724526631e-001	 1.7429210901e+000	-5.2430982758e-001
 1.4131249968e-001	 1.7442851766e+000	-5.2296726721e-001
 1.2542133286e-001	 1.7454997821e+000	-5.1801010116e-001
 1.0957358381e-001	 1.7465662397e+000	-5.0953332828e-001
 9.3771033799e-002	 1.7474859064e+000	-4.9765259474e-001
 7.8015427255e-002	 1.7482601617e+000	-4.8250357890e-001
 6.2308471545e-002	 1.7488904066e+000	-4.6424135072e-001
 4.6651836836e-002	 1.7493780627e+000	-4.4303970814e-001
 3.1047155971e-002	 1.7497245709e+000	-4.1909049241e-001
 1.5496024379e-002	 1.7499313910e+000	-3.9260288473e-001
 0.0000000000e+000	 1.7500000000e+000	-3.6380268608e-001
 1.5780685655e-001	 1.7491458083e+000	-5.3327829478e-001
 1.4181718718e-001	 1.7505147666e+000	-5.3076717695e-001
 1.2586926620e-001	 1.7517337099e+000	-5.2492556799e-001
 1.0996491804e-001	 1.7528039763e+000	-5.1583548835e-001
 9.4105930354e-002	 1.7537269275e+000	-5.0359982361e-001
 7.8294053787e-002	 1.7545039480e+000	-4.8834171608e-001
 6.2531001806e-002	 1.7551364438e+000	-4.7020393053e-001
 4.6818450543e-002	 1.7556258415e+000	-4.4934819612e-001
 3.1158038674e-002	 1.7559735873e+000	-4.2595452680e-001
 1.5551367325e-002	 1.7561811460e+000	-4.0022052233e-001
 0.0000000000e+000	 1.7562500000e+000	-3.7236065203e-001
 1.5836844679e-001	 1.7553705264e+000	-5.4384141002e-001
 1.4232187468e-001	 1.7567443565e+000	-5.4002889884e-001
 1.2631719954e-001	 1.7579676377e+000	-5.3316505091e-001
 1.1035625227e-001	 1.7590417129e+000	-5.2331899039e-001
 9.4440826909e-002	 1.7599679486e+000	-5.1058092730e-001
 7.8572680318e-002	 1.7607477343e+000	-4.9506155593e-001
 6.2753532066e-002	 1.7613824810e+000	-4.7689142662e-001
 4.6985064250e-002	 1.7618736203e+000	-4.5622029313e-001
 3.1268921377e-002	 1.7622226036e+000	-4.3321643800e-001
 1.5606710270e-002	 1.7624309009e+000	-4.0806597780e-001
 0.0000000000e+000	 1.7625000000e+000	-3.8097215072e-001
 1.5893003703e-001	 1.7615952446e+000	-5.5598745707e-001
 1.4282656219e-001	 1.7629739464e+000	-5.5074231962e-001
 1.2676513287e-001	 1.7642015655e+000	-5.4272005660e-001
 1.1074758651e-001	 1.7652794494e+000	-5.3197697700e-001
 9.4775723463e-002	 1.7662089697e+000	-5.1859069955e-001
 7.8851306848e-002	 1.7669915206e+000	-5.0265955765e-001
 6.2976062325e-002	 1.7676285181e+000	-4.8430197710e-001
 4.7151677956e-002	 1.7681213990e+000	-4.6365582885e-001
 3.1379804079e-002	 1.7684716199e+000	-4.4087775910e-001
 1.5662053216e-002	 1.7686806559e+000	-4.1614249872e-001
 0.0000000000e+000	 1.7687500000e+000	-3.8964215442e-001
 1.5949162727e-001	 1.7678199628e+000	-5.6970486097e-001
 1.4333124969e-001	 1.7692035363e+000	-5.6289744787e-001
 1.2721306621e-001	 1.7704354933e+000	-5.5358219365e-001
 1.1113892074e-001	 1.7715171860e+000	-5.4180267248e-001
 9.5110620016e-002	 1.7724499908e+000	-5.2762399517e-001
 7.9129933378e-002	 1.7732353069e+000	-5.1113222049e-001
 6.3198592584e-002	 1.7738745553e+000	-4.9243373880e-001
 4.7318291662e-002	 1.7743691778e+000	-4.7165463001e-001
 3.1490686781e-002	 1.7747206362e+000	-4.4893999823e-001
 1.5717396161e-002	 1.7749304109e+000	-4.2445328529e-001
 0.0000000000e+000	 1.7750000000e+000	-3.9837556534e-001
 1.6005321751e-001	 1.7740446810e+000	-5.8498218557e-001
 1.4383593719e-001	 1.7754331262e+000	-5.7648441183e-001
 1.2766099954e-001	 1.7766694211e+000	-5.6574317085e-001
 1.1153025497e-001	 1.7777549226e+000	-5.5278938143e-001
 9.5445516570e-002	 1.7786910119e+000	-5.3767572895e-001
 7.9408559908e-002	 1.7794790932e+000	-5.2047608305e-001
 6.3421122843e-002	 1.7801205925e+000	-5.0128488694e-001
 4.7484905367e-002	 1.7806169566e+000	-4.8021652038e-001
 3.1601569483e-002	 1.7809696526e+000	-4.5740463890e-001
 1.5772739106e-002	 1.7811801658e+000	-4.3300149115e-001
 0.0000000000e+000	 1.7812500000e+000	-4.0717721692e-001
 1.6061480775e-001	 1.7802693992e+000	-6.0180813108e-001
 1.4434062470e-001	 1.7816627161e+000	-5.9149345737e-001
 1.2810893288e-001	 1.7829033489e+000	-5.7919479541e-001
 1.1192158920e-001	 1.7839926591e+000	-5.6493048728e-001
 9.5780413122e-002	 1.7849320330e+000	-5.4874087464e-001
 7.9687186437e-002	 1.7857228795e+000	-5.3068772265e-001
 6.3643653101e-002	 1.7863666296e+000	-5.1085361478e-001
 4.7651519072e-002	 1.7868647354e+000	-4.8934132085e-001
 3.1712452184e-002	 1.7872186689e+000	-4.6627314047e-001
 1.5828082051e-002	 1.7874299208e+000	-4.4179022425e-001
 0.0000000000e+000	 1.7875000000e+000	-4.1605187496e-001
 1.6117639799e-001	 1.7864941173e+000	-6.2017153175e-001
 1.4484531220e-001	 1.7878923061e+000	-6.0791494587e-001
 1.2855686622e-001	 1.7891372766e+000	-5.9392897124e-001
 1.1231292343e-001	 1.7902303957e+000	-5.7821945098e-001
 9.6115309675e-002	 1.7911730541e+000	-5.6081446392e-001
 7.9965812965e-002	 1.7919666658e+000	-5.4176375456e-001
 6.3866183359e-002	 1.7926126668e+000	-5.2113813336e-001
 4.7818132777e-002	 1.7931125142e+000	-4.9902884948e-001
 3.1823334885e-002	 1.7934676852e+000	-4.7554693858e-001
 1.5883424996e-002	 1.7936796758e+000	-4.5082254757e-001
 0.0000000000e+000	 1.7937500000e+000	-4.2500423887e-001
 1.6173798823e-001	 1.7927188355e+000	-6.4006135347e-001
 1.4534999970e-001	 1.7941218960e+000	-6.2573935227e-001
 1.2900479955e-001	 1.7953712044e+000	-6.0993769726e-001
 1.1270425766e-001	 1.7964681323e+000	-5.9264980961e-001
 9.6450206226e-002	 1.7974140752e+000	-5.7389158537e-001
 8.0244439493e-002	 1.7982104521e+000	-5.5370083145e-001
 6.4088713616e-002	 1.7988587040e+000	-5.3213667112e-001
 4.7984746481e-002	 1.7993602930e+000	-5.0927892155e-001
 3.1934217586e-002	 1.7997167015e+000	-4.8522744557e-001
 1.5938767941e-002	 1.7999294307e+000	-4.6010147998e-001
 0.0000000000e+000	 1.8000000000e+000	-4.3403894277e-001
 1.6229957847e-001	 1.7989435537e+000	-6.6146669155e-001
 1.4585468720e-001	 1.8003514859e+000	-6.4495726307e-001
 1.2945273288e-001	 1.8016051322e+000	-6.2721306580e-001
 1.1309559190e-001	 1.8027058689e+000	-6.0821517509e-001
 9.6785102778e-002	 1.8036550963e+000	-5.8796738352e-001
 8.0523066021e-002	 1.8044542384e+000	-5.6649564265e-001
 6.4311243872e-002	 1.8051047411e+000	-5.4384747369e-001
 4.8151360185e-002	 1.8056080718e+000	-5.2009134960e-001
 3.2045100287e-002	 1.8059657179e+000	-4.9531605082e-001
 1.5994110885e-002	 1.8061791857e+000	-4.6962999693e-001
 0.0000000000e+000	 1.8062500000e+000	-4.4316055665e-001
 1.6286116871e-001	 1.8051682719e+000	-6.8437676845e-001
 1.4635937471e-001	 1.8065810758e+000	-6.6555937442e-001
 1.2990066622e-001	 1.8078390600e+000	-6.4574726092e-001
 1.1348692612e-001	 1.8089436054e+000	-6.2490923288e-001
 9.7119999328e-002	 1.8098961174e+000	-6.0303705787e-001
 8.0801692547e-002	 1.8106980247e+000	-5.8014491357e-001
 6.4533774129e-002	 1.8113507783e+000	-5.5626880349e-001
 4.8317973888e-002	 1.8118558506e+000	-5.3146594348e-001
 3.2155982987e-002	 1.8122147342e+000	-5.0581412123e-001
 1.6049453830e-002	 1.8124289407e+000	-4.7941103125e-001
 0.0000000000e+000	 1.8125000000e+000	-4.5237358746e-001
 1.8125000000e+000	 0.0000000000e+000	 3.4949676932e+000
 1.8124289407e+000	 1.6049453830e-002	 3.4867814829e+000
 1.8122147342e+000	 3.2155982987e-002	 3.4733216507e+000
 1.8118558506e+000	 4.8317973888e-002	 3.4543699091e+000
 1.8113507783e+000	 6.4533774129e-002	 3.4297406796e+000
 1.8106980247e+000	 8.0801692547e-002	 3.3992822976e+000
 1.8098961174e+000	 9.7119999328e-002	 3.3628781829e+000
 1.8089436054e+000	 1.1348692612e-001	 3.3204479709e+000
 1.8078390600e+000	 1.2990066622e-001	 3.2719486019e+000
 1.8065810758e+000	 1.4635937471e-001	 3.2173753645e+000
 1.8051682719e+000	 1.6286116871e-001	 3.1567628881e+000
 1.8187500000e+000	 0.0000000000e+000	 3.5031787957e+000
 1.8186786957e+000	 1.6104796774e-002	 3.4914152043e+000
 1.8184637505e+000	 3.2266865687e-002	 3.4745469798e+000
 1.8181036294e+000	 4.8484587592e-002	 3.4523624450e+000
 1.8175968155e+000	 6.4756304385e-002	 3.4246829203e+000
 1.8169418109e+000	 8.1080319074e-002	 3.3913639309e+000
 1.8161371385e+000	 9.7454895879e-002	 3.3522963792e+000
 1.8151813420e+000	 1.1387826035e-001	 3.3074076778e+000
 1.8140729878e+000	 1.3034859955e-001	 3.2566628397e+000
 1.8128106657e+000	 1.4686406221e-001	 3.2000655218e+000
 1.8113929900e+000	 1.6342275895e-001	 3.1376590169e+000
 1.8250000000e+000	 0.0000000000e+000	 3.5116309811e+000
 1.8249284506e+000	 1.6160139718e-002	 3.4963817973e+000
 1.8247127668e+000	 3.2377748387e-002	 3.4761904809e+000
 1.8243514082e+000	 4.8651201295e-002	 3.4508518749e+000
 1.8238428526e+000	 6.4978834640e-002	 3.4201941131e+000
 1.8231855972e+000	 8.1358945601e-002	 3.3840798297e+000
 1.8223781596e+000	 9.7789792429e-002	 3.3424073342e+000
 1.8214190786e+000	 1.1426959458e-001	 3.2951117463e+000
 1.8203069156e+000	 1.3079653289e-001	 3.2421660866e+000
 1.8190402556e+000	 1.4736874971e-001	 3.1835823211e+000
 1.8176177082e+000	 1.6398434919e-001	 3.1194123525e+000
 1.8312500000e+000	 0.0000000000e+000	 3.5203179830e+000
 1.8311782056e+000	 1.6215482662e-002	 3.5016741318e+000
 1.8309617831e+000	 3.2488631086e-002	 3.4782441711e+000
 1.8305991870e+000	 4.8817814998e-002	 3.4498293747e+000
 1.8300888898e+000	 6.5201364896e-002	 3.4162646046e+000
 1.8294293835e+000	 8.1637572127e-002	 3.3774195241e+000
 1.8286191807e+000	 9.8124688979e-002	 3.3331997747e+000
 1.8276568151e+000	 1.1466092881e-001	 3.2835481132e+000
 1.8265408434e+000	 1.3124446622e-001	 3.2284455038e+000
 1.8252698455e+000	 1.4787343721e-001	 3.1679121626e+000
 1.8238424264e+000	 1.6454593943e-001	 3.1020085496e+000
 1.8375000000e+000	 0.0000000000e+000	 3.5292336206e+000
 1.8374279606e+000	 1.6270825606e-002	 3.5072851726e+000
 1.8372107995e+000	 3.2599513786e-002	 3.4807001720e+000
 1.8368469658e+000	 4.8984428701e-002	 3.4492862339e+000
 1.8363349270e+000	 6.5423895152e-002	 3.4128848640e+000
 1.8356731698e+000	 8.1916198653e-002	 3.3713726749e+000
 1.8348602018e+000	 9.8459585529e-002	 3.3246625658e+000
 1.8338945517e+000	 1.1505226304e-001	 3.2727048613e+000
 1.8327747712e+000	 1.3169239955e-001	 3.2154884053e+000
 1.8314994355e+000	 1.4837812471e-001	 3.1530416059e+000
 1.8300671446e+000	 1.6510752967e-001	 3.0854334279e+000
 1.8437500000e+000	 0.0000000000e+000	 3.5383717967e+000
 1.8436777155e+000	 1.6326168550e-002	 3.5132079785e+000
 1.8434598158e+000	 3.2710396486e-002	 3.4835507084e+000
 1.8430947446e+000	 4.9151042404e-002	 3.4492138540e+000
 1.8425809641e+000	 6.5646425408e-002	 3.4100454806e+000
 1.8419169561e+000	 8.2194825179e-002	 3.3659290713e+000
 1.8411012229e+000	 9.8794482079e-002	 3.3167847086e+000
 1.8401322883e+000	 1.1544359727e-001	 3.2625702164e+000
 1.8390086990e+000	 1.3214033289e-001	 3.2032822549e+000
 1.8377290254e+000	 1.4888281221e-001	 3.1389573667e+000
 1.8362918628e+000	 1.6566911991e-001	 3.0696729694e+000
 1.8500000000e+000	 0.0000000000e+000	 3.5477264964e+000
 1.8499274705e+000	 1.6381511495e-002	 3.5194357000e+000
 1.8497088321e+000	 3.2821279186e-002	 3.4867881060e+000
 1.8493425234e+000	 4.9317656107e-002	 3.4496037462e+000
 1.8488270013e+000	 6.5868955663e-002	 3.4077371623e+000
 1.8481607424e+000	 8.2473451706e-002	 3.3610786287e+000
 1.8473422440e+000	 9.9129378628e-002	 3.3095553382e+000
 1.8463700248e+000	 1.1583493150e-001	 3.2531325454e+000
 1.8452426268e+000	 1.3258826622e-001	 3.1918146642e+000
 1.8439586153e+000	 1.4938749971e-001	 3.1256463145e+000
 1.8425165809e+000	 1.6623071015e-001	 3.0547133157e+000
 1.8562500000e+000	 0.0000000000e+000	 3.5572917860e+000
 1.8561772255e+000	 1.6436854439e-002	 3.5259615780e+000
 1.8559578484e+000	 3.2932161886e-002	 3.4904047899e+000
 1.8555903022e+000	 4.9484269810e-002	 3.4504475300e+000
 1.8550730385e+000	 6.6091485919e-002	 3.4059507330e+000
 1.8544045287e+000	 8.2752078231e-002	 3.3568113867e+000
 1.8535832650e+000	 9.9464275178e-002	 3.3029637210e+000
 1.8526077614e+000	 1.1622626573e-001	 3.2443803536e+000
 1.8514765546e+000	 1.3303619955e-001	 3.1810733897e+000
 1.8501882052e+000	 1.4989218721e-001	 3.1130954701e+000
 1.8487412991e+000	 1.6679230039e-001	 3.0405407650e+000
 1.8625000000e+000	 0.0000000000e+000	 3.5670618115e+000
 1.8624269804e+000	 1.6492197383e-002	 3.5327789424e+000
 1.8622068648e+000	 3.3043044586e-002	 3.4943932831e+000
 1.8618380810e+000	 4.9650883512e-002	 3.4517369309e+000
 1.8613190756e+000	 6.6314016174e-002	 3.4046771310e+000
 1.8606483150e+000	 8.3030704757e-002	 3.3531175068e+000
 1.8598242861e+000	 9.9799171727e-002	 3.2969992527e+000
 1.8588454980e+000	 1.1661759995e-001	 3.2363022824e+000
 1.8577104824e+000	 1.3348413288e-001	 3.1710463304e+000
 1.8564177951e+000	 1.5039687471e-001	 3.1012920026e+000
 1.8549660173e+000	 1.6735389062e-001	 3.0271417697e+000
 1.8687500000e+000	 0.0000000000e+000	 3.5770307970e+000
 1.8686767354e+000	 1.6547540327e-002	 3.5398812105e+000
 1.8684558811e+000	 3.3153927285e-002	 3.4987462046e+000
 1.8680858598e+000	 4.9817497215e-002	 3.4534637791e+000
 1.8675651128e+000	 6.6536546429e-002	 3.4039074071e+000
 1.8668921013e+000	 8.3309331283e-002	 3.3499872707e+000
 1.8660653072e+000	 1.0013406828e-001	 3.2916514563e+000
 1.8650832346e+000	 1.1700893418e-001	 3.2288871071e+000
 1.8639444102e+000	 1.3393206621e-001	 3.1617215259e+000
 1.8626473850e+000	 1.5090156221e-001	 3.0902232276e+000
 1.8611907355e+000	 1.6791548086e-001	 3.0145029339e+000
 1.8750000000e+000	 0.0000000000e+000	 3.5871930436e+000
 1.8749264904e+000	 1.6602883271e-002	 3.5472618853e+000
 1.8747048974e+000	 3.3264809985e-002	 3.5034562682e+000
 1.8743336386e+000	 4.9984110918e-002	 3.4556200074e+000
 1.8738111500e+000	 6.6759076684e-002	 3.4036327227e+000
 1.8731358876e+000	 8.3587957808e-002	 3.3474110777e+000
 1.8723063283e+000	 1.0046896482e-001	 3.2869099797e+000
 1.8713209711e+000	 1.1740026841e-001	 3.2221237347e+000
 1.8701783379e+000	 1.3437999954e-001	 3.1530871531e+000
 1.8688769750e+000	 1.5140624971e-001	 3.0798766040e+000
 1.8674154536e+000	 1.6847707110e-001	 3.0026110108e+000
 1.8051682719e+000	 1.6286116871e-001	 3.1567628881e+000
 1.8035992928e+000	 1.7940412766e-001	 3.0979709863e+000
 1.8018728098e+000	 1.9598629351e-001	 3.0374269142e+000
 1.7999875218e+000	 2.1260567113e-001	 2.9752502290e+000
 1.7979421564e+000	 2.2926022860e-001	 2.9115985131e+000
 1.7957354710e+000	 2.4594789760e-001	 2.8466679896e+000
 1.7933662540e+000	 2.6266657386e-001	 2.7806940689e+000
 1.7908333258e+000	 2.7941411755e-001	 2.7139518223e+000
 1.7881355399e+000	 2.9618835380e-001	 2.6467563789e+000
 1.7852717838e+000	 3.1298707324e-001	 2.5794632427e+000
 1.7822409803e+000	 3.2980803249e-001	 2.5124685263e+000
 1.8113929900e+000	 1.6342275895e-001	 3.1376590169e+000
 1.8098186007e+000	 1.8002276258e-001	 3.0763766091e+000
 1.8080861643e+000	 1.9666210832e-001	 3.0137751279e+000
 1.8061943753e+000	 2.1333879414e-001	 2.9499786640e+000
 1.8041419569e+000	 2.3005078111e-001	 2.8851493516e+000
 1.8019276622e+000	 2.4679599381e-001	 2.8194879799e+000
 1.7995502756e+000	 2.6357232067e-001	 2.7532345337e+000
 1.7970086132e+000	 2.8037761451e-001	 2.6866686609e+000
 1.7943015245e+000	 2.9720969296e-001	 2.6201100627e+000
 1.7914278934e+000	 3.1406633902e-001	 2.5539188035e+000
 1.7883866388e+000	 3.3094530157e-001	 2.4884955375e+000
 1.8176177082e+000	 1.6398434919e-001	 3.1194123525e+000
 1.8160379086e+000	 1.8064139751e-001	 3.0555751286e+000
 1.8142995189e+000	 1.9733792313e-001	 2.9908431796e+000
 1.8124012288e+000	 2.1407191715e-001	 2.9253451144e+000
 1.8103417574e+000	 2.3084133363e-001	 2.8592476117e+000
 1.8081198535e+000	 2.4764409001e-001	 2.7927560270e+000
 1.8057342971e+000	 2.6447806748e-001	 2.7261149276e+000
 1.8031839005e+000	 2.8134111147e-001	 2.6596085540e+000
 1.8004675091e+000	 2.9823103212e-001	 2.5935612040e+000
 1.7975840030e+000	 3.1514560479e-001	 2.5283375353e+000
 1.7945322974e+000	 3.3208257065e-001	 2.4643427840e+000
 1.8238424264e+000	 1.6454593943e-001	 3.1020085496e+000
 1.8222572165e+000	 1.8126003244e-001	 3.0355523682e+000
 1.8205128734e+000	 1.9801373794e-001	 2.9686170943e+000
 1.8186080824e+000	 2.1480504015e-001	 2.9013358399e+000
 1.8165415580e+000	 2.3163188615e-001	 2.8338798213e+000
 1.8143120448e+000	 2.4849218621e-001	 2.7664589608e+000
 1.8119183187e+000	 2.6538381429e-001	 2.6993224166e+000
 1.8093591878e+000	 2.8230460843e-001	 2.6327590386e+000
 1.8066334938e+000	 2.9925237127e-001	 2.5670977457e+000
 1.8037401126e+000	 3.1622487056e-001	 2.5027078219e+000
 1.8006779559e+000	 3.3321983974e-001	 2.4399991269e+000
 1.8300671446e+000	 1.6510752967e-001	 3.0854334279e+000
 1.8284765244e+000	 1.8187866736e-001	 3.0162943098e+000
 1.8267262279e+000	 1.9868955275e-001	 2.9470830479e+000
 1.8248149359e+000	 2.1553816316e-001	 2.8779372429e+000
 1.8227413585e+000	 2.3242243866e-001	 2.8090326421e+000
 1.8205042361e+000	 2.4934028242e-001	 2.7405837353e+000
 1.8181023403e+000	 2.6628956110e-001	 2.6728442807e+000
 1.8155344751e+000	 2.8326810539e-001	 2.6061077544e+000
 1.8127994784e+000	 3.0027371043e-001	 2.5407077217e+000
 1.8098962222e+000	 3.1730413634e-001	 2.4770181261e+000
 1.8068236145e+000	 3.3435710882e-001	 2.4154534927e+000
 1.8362918628e+000	 1.6566911991e-001	 3.0696729694e+000
 1.8346958323e+000	 1.8249730229e-001	 2.9977870908e+000
 1.8329395824e+000	 1.9936536755e-001	 2.9262273644e+000
 1.8310217894e+000	 2.1627128617e-001	 2.8551358661e+000
 1.8289411590e+000	 2.3321299118e-001	 2.7846928671e+000
 1.8266964273e+000	 2.5018837862e-001	 2.7151174266e+000
 1.8242863618e+000	 2.6719530791e-001	 2.6466679119e+000
 1.8217097625e+000	 2.8423160235e-001	 2.5796424426e+000
 1.8189654630e+000	 3.0129504958e-001	 2.5143792557e+000
 1.8160523318e+000	 3.1838340211e-001	 2.4512569880e+000
 1.8129692730e+000	 3.3549437790e-001	 2.3906948722e+000
 1.8425165809e+000	 1.6623071015e-001	 3.0547133157e+000
 1.8409151402e+000	 1.8311593721e-001	 2.9800170015e+000
 1.8391529369e+000	 2.0004118236e-001	 2.9060365139e+000
 1.8372286429e+000	 2.1700440917e-001	 2.8329183898e+000
 1.8351409596e+000	 2.3400354369e-001	 2.7608474189e+000
 1.8328886186e+000	 2.5103647482e-001	 2.6900472311e+000
 1.8304703834e+000	 2.6810105472e-001	 2.6207808125e+000
 1.8278850498e+000	 2.8519509931e-001	 2.5533509437e+000
 1.8251314476e+000	 3.0231638873e-001	 2.4881005595e+000
 1.8222084414e+000	 3.1946266788e-001	 2.4254130240e+000
 1.8191149316e+000	 3.3663164698e-001	 2.3657123197e+000
 1.8487412991e+000	 1.6679230039e-001	 3.0405407650e+000
 1.8471344481e+000	 1.8373457213e-001	 2.9629704828e+000
 1.8453662914e+000	 2.0071699717e-001	 2.8864971096e+000
 1.8434354964e+000	 2.1773753218e-001	 2.8112716304e+000
 1.8413407601e+000	 2.3479409621e-001	 2.7374833472e+000
 1.8390808099e+000	 2.5188457102e-001	 2.6653604631e+000
 1.8366544049e+000	 2.6900680153e-001	 2.5951705927e+000
 1.8340603371e+000	 2.8615859627e-001	 2.5272211961e+000
 1.8312974322e+000	 3.0333772789e-001	 2.4618599316e+000
 1.8283645510e+000	 3.2054193365e-001	 2.3994749251e+000
 1.8252605901e+000	 3.3776891605e-001	 2.3404949519e+000
 1.8549660173e+000	 1.6735389062e-001	 3.0271417697e+000
 1.8533537560e+000	 1.8435320706e-001	 2.9466341233e+000
 1.8515796459e+000	 2.0139281197e-001	 2.8675959057e+000
 1.8496423500e+000	 2.1847065518e-001	 2.7901825371e+000
 1.8475405607e+000	 2.3558464872e-001	 2.7145878266e+000
 1.8452730012e+000	 2.5273266722e-001	 2.6410445529e+000
 1.8428384265e+000	 2.6991254834e-001	 2.5698249696e+000
 1.8402356245e+000	 2.8712209323e-001	 2.5012412343e+000
 1.8374634169e+000	 3.0435906704e-001	 2.4356457555e+000
 1.8345206606e+000	 3.2162119942e-001	 2.3734314560e+000
 1.8314062487e+000	 3.3890618513e-001	 2.3150319466e+000
 1.8611907355e+000	 1.6791548086e-001	 3.0145029339e+000
 1.8595730640e+000	 1.8497184198e-001	 2.9309946570e+000
 1.8577930005e+000	 2.0206862678e-001	 2.8493197950e+000
 1.8558492035e+000	 2.1920377819e-001	 2.7696381904e+000
 1.8537403612e+000	 2.3637520123e-001	 2.6921481550e+000
 1.8514651925e+000	 2.5358076342e-001	 2.6170870452e+000
 1.8490224481e+000	 2.7081829514e-001	 2.5447317648e+000
 1.8464109118e+000	 2.8808559019e-001	 2.4753991874e+000
 1.8436294015e+000	 3.0538040619e-001	 2.4094464990e+000
 1.8406767702e+000	 3.2270046519e-001	 2.3472714536e+000
 1.8375519072e+000	 3.4004345421e-001	 2.2893125419e+000
 1.8674154536e+000	 1.6847707110e-001	 3.0026110108e+000
 1.8657923719e+000	 1.8559047690e-001	 2.9160389611e+000
 1.8640063550e+000	 2.0274444158e-001	 2.8316558065e+000
 1.8620560570e+000	 2.1993690119e-001	 2.7496257999e+000
 1.8599401617e+000	 2.3716575374e-001	 2.6701517507e+000
 1.8576573837e+000	 2.5442885961e-001	 2.5934755968e+000
 1.8552064696e+000	 2.7172404195e-001	 2.5198789027e+000
 1.8525861991e+000	 2.8904908714e-001	 2.4496832776e+000
 1.8497953861e+000	 3.0640174534e-001	 2.3832507117e+000
 1.8468328798e+000	 3.2377973096e-001	 2.3209838263e+000
 1.8436975658e+000	 3.4118072329e-001	 2.2633260351e+000
 1.7822409803e+000	 3.2980803249e-001	 2.5124685263e+000
 1.7790420884e+000	 3.4664895480e-001	 2.4447236031e+000
 1.7756741044e+000	 3.6350753064e-001	 2.3728955479e+000
 1.7721360632e+000	 3.8038141841e-001	 2.2974130835e+000
 1.7684270388e+000	 3.9726824505e-001	 2.2187488511e+000
 1.7645461456e+000	 4.1416560684e-001	 2.1374193349e+000
 1.7604925397e+000	 4.3107107016e-001	 2.0539846854e+000
 1.7562654194e+000	 4.4798217224e-001	 1.9690484404e+000
 1.7518640263e+000	 4.6489642202e-001	 1.8832571413e+000
 1.7472876466e+000	 4.8181130107e-001	 1.7972998425e+000
 1.7425356117e+000	 4.9872426439e-001	 1.7119075128e+000
 1.7883866388e+000	 3.3094530157e-001	 2.4884955375e+000
 1.7851767162e+000	 3.4784429602e-001	 2.4219754639e+000
 1.7817971186e+000	 3.6476100489e-001	 2.3513475255e+000
 1.7782468772e+000	 3.8169307847e-001	 2.2770499002e+000
 1.7745250630e+000	 3.9863813555e-001	 2.1995651701e+000
 1.7706307875e+000	 4.1559376411e-001	 2.1194202399e+000
 1.7665632037e+000	 4.3255752213e-001	 2.0371861530e+000
 1.7623215070e+000	 4.4952693835e-001	 1.9534778052e+000
 1.7579049368e+000	 4.6649951313e-001	 1.8689535509e+000
 1.7533127765e+000	 4.8347271934e-001	 1.7843147027e+000
 1.7485443552e+000	 5.0044400323e-001	 1.7003049202e+000
 1.7945322974e+000	 3.3208257065e-001	 2.4643427840e+000
 1.7913113441e+000	 3.4903963725e-001	 2.3990100496e+000
 1.7879201327e+000	 3.6601447914e-001	 2.3295399575e+000
 1.7843576912e+000	 3.8300473854e-001	 2.2563801914e+000
 1.7806230873e+000	 4.0000802605e-001	 2.1800233305e+000
 1.7767154294e+000	 4.1702192138e-001	 2.1010067624e+000
 1.7726338676e+000	 4.3404397409e-001	 2.0199124929e+000
 1.7683775947e+000	 4.5107170446e-001	 1.9373668507e+000
 1.7639458472e+000	 4.6810260424e-001	 1.8540400853e+000
 1.7593379063e+000	 4.8513413762e-001	 1.7706458547e+000
 1.7545530987e+000	 5.0216374207e-001	 1.6879406041e+000
 1.8006779559e+000	 3.3321983974e-001	 2.4399991269e+000
 1.7974459720e+000	 3.5023497848e-001	 2.3758155664e+000
 1.7940431469e+000	 3.6726795338e-001	 2.3074603935e+000
 1.7904685052e+000	 3.8431639860e-001	 2.2353908480e+000
 1.7867211116e+000	 4.0137791655e-001	 2.1601095631e+000
 1.7828000713e+000	 4.1845007864e-001	 2.0821644729e+000
 1.7787045315e+000	 4.3553042606e-001	 2.0021486146e+000
 1.7744336823e+000	 4.5261647057e-001	 1.9206998262e+000
 1.7699867576e+000	 4.6970569535e-001	 1.8385003340e+000
 1.7653630361e+000	 4.8679555590e-001	 1.7562762305e+000
 1.7605618422e+000	 5.0388348091e-001	 1.6747968408e+000
 1.8068236145e+000	 3.3435710882e-001	 2.4154534927e+000
 1.8035805999e+000	 3.5143031970e-001	 2.3523802884e+000
 1.8001661610e+000	 3.6852142763e-001	 2.2850964525e+000
 1.7965793192e+000	 3.8562805867e-001	 2.2140688319e+000
 1.7928191358e+000	 4.0274780705e-001	 2.1398101715e+000
 1.7888847132e+000	 4.1987823591e-001	 2.0628790151e+000
 1.7847751954e+000	 4.3701687803e-001	 1.9838795022e+000
 1.7804897700e+000	 4.5416123668e-001	 1.9034610560e+000
 1.7760276681e+000	 4.7130878647e-001	 1.8223179624e+000
 1.7713881659e+000	 4.8845697418e-001	 1.7411888378e+000
 1.7665705857e+000	 5.0560321976e-001	 1.6608559825e+000
 1.8129692730e+000	 3.3549437790e-001	 2.3906948722e+000
 1.8097152278e+000	 3.5262566093e-001	 2.3286925558e+000
 1.8062891752e+000	 3.6977490188e-001	 2.2624358214e+000
 1.8026901332e+000	 3.8693971873e-001	 2.1924011746e+000
 1.7989171601e+000	 4.0411769756e-001	 2.1191115297e+000
 1.7949693550e+000	 4.2130639318e-001	 2.0431361052e+000
 1.7908458594e+000	 4.3850333000e-001	 1.9650902126e+000
 1.7865458576e+000	 4.5570600279e-001	 1.8856349379e+000
 1.7820685785e+000	 4.7291187758e-001	 1.8054767103e+000
 1.7774132957e+000	 4.9011839246e-001	 1.7253667591e+000
 1.7725793291e+000	 5.0732295860e-001	 1.6461004564e+000
 1.8191149316e+000	 3.3663164698e-001	 2.3657123197e+000
 1.8158498557e+000	 3.5382100216e-001	 2.3047407743e+000
 1.8124121893e+000	 3.7102837612e-001	 2.2394662542e+000
 1.8088009473e+000	 3.8825137880e-001	 2.1703749761e+000
 1.8050151844e+000	 4.0548758806e-001	 2.0980000821e+000
 1.8010539969e+000	 4.2273455044e-001	 2.0229215299e+000
 1.7969165233e+000	 4.3998978196e-001	 1.9457658748e+000
 1.7926019453e+000	 4.5725076891e-001	 1.8672059428e+000
 1.7881094889e+000	 4.7451496869e-001	 1.7879603902e+000
 1.7834384255e+000	 4.9177981074e-001	 1.7087931502e+000
 1.7785880726e+000	 5.0904269744e-001	 1.6305127628e+000
 1.8252605901e+000	 3.3776891605e-001	 2.3404949519e+000
 1.8219844836e+000	 3.5501634338e-001	 2.2805134137e+000
 1.8185352035e+000	 3.7228185037e-001	 2.2161755709e+000
 1.8149117613e+000	 3.8956303886e-001	 2.1479774038e+000
 1.8111132087e+000	 4.0685747856e-001	 2.0764623414e+000
 1.8071386388e+000	 4.2416270771e-001	 2.0022211459e+000
 1.8029871872e+000	 4.4147623393e-001	 1.9258916883e+000
 1.7986580329e+000	 4.5879553502e-001	 1.8481586126e+000
 1.7941503994e+000	 4.7611805980e-001	 1.7697528870e+000
 1.7894635554e+000	 4.9344122902e-001	 1.6914512392e+000
 1.7845968161e+000	 5.1076243629e-001	 1.6140754746e+000
 1.8314062487e+000	 3.3890618513e-001	 2.3150319466e+000
 1.8281191115e+000	 3.5621168461e-001	 2.2559990069e+000
 1.8246582176e+000	 3.7353532461e-001	 2.1925516561e+000
 1.8210225753e+000	 3.9087469893e-001	 2.1251956914e+000
 1.8172112329e+000	 4.0822736906e-001	 2.0544848880e+000
 1.8132232807e+000	 4.2559086498e-001	 1.9810208787e+000
 1.8090578512e+000	 4.4296268590e-001	 1.9054529221e+000
 1.8047141206e+000	 4.6034030113e-001	 1.8284775595e+000
 1.8001913098e+000	 4.7772115091e-001	 1.7508381559e+000
 1.7954886852e+000	 4.9510264730e-001	 1.6733243250e+000
 1.7906055596e+000	 5.1248217513e-001	 1.5967712356e+000
 1.8375519072e+000	 3.4004345421e-001	 2.2893125419e+000
 1.8342537394e+000	 3.5740702583e-001	 2.2311861488e+000
 1.8307812318e+000	 3.7478879886e-001	 2.1685824582e+000
 1.8271333893e+000	 3.9218635899e-001	 2.1020171375e+000
 1.8233092572e+000	 4.0959725956e-001	 2.0320543685e+000
 1.8193079226e+000	 4.2701902224e-001	 1.9593067207e+000
 1.8151285151e+000	 4.4444913787e-001	 1.8844349136e+000
 1.8107702083e+000	 4.6188506724e-001	 1.8081474647e+000
 1.8062322202e+000	 4.7932424202e-001	 1.7312002215e+000
 1.8015138150e+000	 4.9676406559e-001	 1.6543957762e+000
 1.7966143031e+000	 5.1420191397e-001	 1.5785827593e+000
 1.8436975658e+000	 3.4118072329e-001	 2.2633260351e+000
 1.8403883673e+000	 3.5860236705e-001	 2.2060634954e+000
 1.8369042460e+000	 3.7604227310e-001	 2.1442559881e+000
 1.8332442033e+000	 3.9349801906e-001	 2.0784291051e+000
 1.8294072815e+000	 4.1096715006e-001	 2.0091574950e+000
 1.8253925644e+000	 4.2844717951e-001	 1.9370647312e+000
 1.8211991790e+000	 4.4593558983e-001	 1.8628230674e+000
 1.8168262959e+000	 4.6342983336e-001	 1.7871530772e+000
 1.8122731307e+000	 4.8092733314e-001	 1.7108231771e+000
 1.8075389448e+000	 4.9842548387e-001	 1.6346490303e+000
 1.8026230466e+000	 5.1592165282e-001	 1.5594928280e+000
 1.7425356117e+000	 4.9872426439e-001	 1.7119075128e+000
 1.7376072991e+000	 5.1563274145e-001	 1.6380537932e+000
 1.7325021336e+000	 5.3253413709e-001	 1.5694993816e+000
 1.7272195878e+000	 5.4942583257e-001	 1.5071124242e+000
 1.7217591834e+000	 5.6630518659e-001	 1.4517968252e+000
 1.7161204916e+000	 5.8316953635e-001	 1.4044910352e+000
 1.7103031343e+000	 6.0001619868e-001	 1.3661667295e+000
 1.7043067845e+000	 6.1684247115e-001	 1.3378273781e+000
 1.6981311673e+000	 6.3364563326e-001	 1.2751880201e+000
 1.6917760606e+000	 6.5042294759e-001	 1.1809003000e+000
 1.6852412957e+000	 6.6717166106e-001	 1.0976713715e+000
 1.7485443552e+000	 5.0044400323e-001	 1.7003049202e+000
 1.7435990484e+000	 5.1741078538e-001	 1.6278200957e+000
 1.7384762789e+000	 5.3437046170e-001	 1.5605577249e+000
 1.7331755174e+000	 5.5132040440e-001	 1.4994024103e+000
 1.7276962840e+000	 5.6825796309e-001	 1.4452750693e+000
 1.7220381485e+000	 5.8518046578e-001	 1.3991317043e+000
 1.7162007313e+000	 6.0208522005e-001	 1.3619620620e+000
 1.7101837045e+000	 6.1896951415e-001	 1.3347881824e+000
 1.7039867920e+000	 6.3583061820e-001	 1.2620469695e+000
 1.6976097712e+000	 6.5266578533e-001	 1.1689792459e+000
 1.6910524726e+000	 6.6947225300e-001	 1.0871393301e+000
 1.7545530987e+000	 5.0216374207e-001	 1.6879406041e+000
 1.7495907977e+000	 5.1918882931e-001	 1.6167863269e+000
 1.7444504241e+000	 5.3620678630e-001	 1.5507749362e+000
 1.7391314470e+000	 5.5321497623e-001	 1.4908075933e+000
 1.7336333847e+000	 5.7021073959e-001	 1.4378223359e+000
 1.7279558054e+000	 5.8719139521e-001	 1.3927928308e+000
 1.7220983284e+000	 6.0415424142e-001	 1.3567270135e+000
 1.7160606244e+000	 6.2109655715e-001	 1.3306656164e+000
 1.7098424167e+000	 6.3801560314e-001	 1.2479137945e+000
 1.7034434817e+000	 6.5490862308e-001	 1.1561415823e+000
 1.6968636494e+000	 6.7177284493e-001	 1.0757650437e+000
 1.7605618422e+000	 5.0388348091e-001	 1.6747968408e+000
 1.7555825470e+000	 5.2096687325e-001	 1.6049336624e+000
 1.7504245694e+000	 5.3804311091e-001	 1.5401310811e+000
 1.7450873766e+000	 5.5510954807e-001	 1.4813069198e+000
 1.7395704853e+000	 5.7216351609e-001	 1.4294164451e+000
 1.7338734622e+000	 5.8920232464e-001	 1.3854511012e+000
 1.7279959254e+000	 6.0622326279e-001	 1.3504371307e+000
 1.7219375444e+000	 6.2322360016e-001	 1.3254340817e+000
 1.7156980415e+000	 6.4020058808e-001	 1.2328036920e+000
 1.7092771923e+000	 6.5715146083e-001	 1.1424026935e+000
 1.7026748263e+000	 6.7407343686e-001	 1.0635640803e+000
 1.7665705857e+000	 5.0560321976e-001	 1.6608559825e+000
 1.7615742963e+000	 5.2274491718e-001	 1.5922433598e+000
 1.7563987147e+000	 5.3987943552e-001	 1.5286063129e+000
 1.7510433062e+000	 5.5700411990e-001	 1.4708794305e+000
 1.7455075859e+000	 5.7411629260e-001	 1.4200353166e+000
 1.7397911191e+000	 5.9121325408e-001	 1.3770833074e+000
 1.7338935224e+000	 6.0829228417e-001	 1.3430680715e+000
 1.7278144643e+000	 6.2535064316e-001	 1.3172652368e+000
 1.7215536662e+000	 6.4238557302e-001	 1.2167319816e+000
 1.7151109028e+000	 6.5939429858e-001	 1.1277780920e+000
 1.7084860032e+000	 6.7637402879e-001	 1.0505521414e+000
 1.7725793291e+000	 5.0732295860e-001	 1.6461004564e+000
 1.7675660456e+000	 5.2452296112e-001	 1.5786967571e+000
 1.7623728600e+000	 5.4171576013e-001	 1.5161808714e+000
 1.7569992359e+000	 5.5889869174e-001	 1.4595042579e+000
 1.7514446866e+000	 5.7606906910e-001	 1.4096569682e+000
 1.7457087760e+000	 5.9322418351e-001	 1.3676663450e+000
 1.7397911194e+000	 6.1036130554e-001	 1.3345956031e+000
 1.7336913842e+000	 6.2747768616e-001	 1.2988891536e+000
 1.7274092909e+000	 6.4457055796e-001	 1.1997141028e+000
 1.7209446134e+000	 6.6163713633e-001	 1.1122834160e+000
 1.7142971801e+000	 6.7867462073e-001	 1.0367450594e+000
 1.7785880726e+000	 5.0904269744e-001	 1.6305127628e+000
 1.7735577949e+000	 5.2630100506e-001	 1.5642752719e+000
 1.7683470053e+000	 5.4355208474e-001	 1.5028350814e+000
 1.7629551655e+000	 5.6079326358e-001	 1.4471606255e+000
 1.7573817872e+000	 5.7802184561e-001	 1.3982595138e+000
 1.7516264328e+000	 5.9523511295e-001	 1.3571772114e+000
 1.7456887164e+000	 6.1243032692e-001	 1.3249955999e+000
 1.7395683042e+000	 6.2960472917e-001	 1.2795050969e+000
 1.7332649156e+000	 6.4675554290e-001	 1.1817656138e+000
 1.7267783239e+000	 6.6387997408e-001	 1.0959344272e+000
 1.7201083570e+000	 6.8097521267e-001	 1.0221587958e+000
 1.7845968161e+000	 5.1076243629e-001	 1.6140754746e+000
 1.7795495443e+000	 5.2807904899e-001	 1.5489603994e+000
 1.7743211506e+000	 5.4538840935e-001	 1.4885493512e+000
 1.7689110951e+000	 5.6268783541e-001	 1.4338278457e+000
 1.7633188878e+000	 5.7997462211e-001	 1.3858211621e+000
 1.7575440897e+000	 5.9724604239e-001	 1.3455930042e+000
 1.7515863134e+000	 6.1449934829e-001	 1.3142440421e+000
 1.7454452241e+000	 6.3173177217e-001	 1.2591285279e+000
 1.7391205403e+000	 6.4894052785e-001	 1.1629021887e+000
 1.7326120345e+000	 6.6612281183e-001	 1.0787470089e+000
 1.7259195339e+000	 6.8327580460e-001	 1.0068094386e+000
 1.7906055596e+000	 5.1248217513e-001	 1.5967712356e+000
 1.7855412936e+000	 5.2985709293e-001	 1.5327337117e+000
 1.7802952959e+000	 5.4722473397e-001	 1.4733041713e+000
 1.7748670247e+000	 5.6458240725e-001	 1.4194853188e+000
 1.7692559885e+000	 5.8192739862e-001	 1.3723202148e+000
 1.7634617466e+000	 5.9925697182e-001	 1.3328909193e+000
 1.7574839104e+000	 6.1656836967e-001	 1.3023170135e+000
 1.7513221441e+000	 6.3385881518e-001	 1.2377750172e+000
 1.7449761650e+000	 6.5112551279e-001	 1.1431396162e+000
 1.7384457450e+000	 6.6836564959e-001	 1.0607371640e+000
 1.7317307107e+000	 6.8557639654e-001	 9.9071320066e-001
 1.7966143031e+000	 5.1420191397e-001	 1.5785827593e+000
 1.7915330429e+000	 5.3163513687e-001	 1.5155768558e+000
 1.7862694412e+000	 5.4906105858e-001	 1.4570801130e+000
 1.7808229543e+000	 5.6647697909e-001	 1.4041125310e+000
 1.7751930891e+000	 5.8388017513e-001	 1.3577350651e+000
 1.7693794035e+000	 6.0126790126e-001	 1.3190482498e+000
 1.7633815075e+000	 6.1863739105e-001	 1.2891907001e+000
 1.7571990640e+000	 6.3598585819e-001	 1.2154602423e+000
 1.7508317898e+000	 6.5331049774e-001	 1.1224937971e+000
 1.7442794556e+000	 6.7060848734e-001	 1.0419210126e+000
 1.7375418876e+000	 6.8787698848e-001	 9.7388641713e-001
 1.8026230466e+000	 5.1592165282e-001	 1.5594928280e+000
 1.7975247922e+000	 5.3341318081e-001	 1.4974715533e+000
 1.7922435864e+000	 5.5089738319e-001	 1.4398578268e+000
 1.7867788839e+000	 5.6837155093e-001	 1.3876890534e+000
 1.7811301897e+000	 5.8583295164e-001	 1.3420441964e+000
 1.7752970603e+000	 6.0327883070e-001	 1.3040423835e+000
 1.7692791045e+000	 6.2070641243e-001	 1.2748413882e+000
 1.7630759840e+000	 6.3811290120e-001	 1.1921999866e+000
 1.7566874145e+000	 6.5549548268e-001	 1.1009807432e+000
 1.7501131661e+000	 6.7285132510e-001	 1.0223147907e+000
 1.7433530645e+000	 6.9017758042e-001	 9.5634554371e-001
 1.6852412957e+000	 6.6717166106e-001	 1.0976713715e+000
 1.6785267580e+000	 6.8388900619e-001	 1.0351656572e+000
 1.6716323876e+000	 7.0057220234e-001	 9.6843700050e-001
 1.6645581801e+000	 7.1721845703e-001	 8.9753974690e-001
 1.6573041867e+000	 7.3382496728e-001	 8.2253668506e-001
 1.6498705153e+000	 7.5038892094e-001	 7.4349984805e-001
 1.6422573304e+000	 7.6690749811e-001	 6.6051130660e-001
 1.6344648540e+000	 7.8337787248e-001	 5.7366395119e-001
 1.6264933656e+000	 7.9979721278e-001	 4.8306226020e-001
 1.6183432031e+000	 8.1616268421e-001	 3.8882305116e-001
 1.6100147624e+000	 8.3247144989e-001	 2.9107621215e-001
 1.6910524726e+000	 6.6947225300e-001	 1.0871393301e+000
 1.6843147813e+000	 6.8624724414e-001	 1.0259867771e+000
 1.6773966372e+000	 7.0298796855e-001	 9.6048960879e-001
 1.6702980359e+000	 7.1969162412e-001	 8.9069009960e-001
 1.6630190288e+000	 7.3635539819e-001	 8.1663913557e-001
 1.6555597240e+000	 7.5297646894e-001	 7.3839703883e-001
 1.6479202867e+000	 7.6955200673e-001	 6.5603438398e-001
 1.6401009397e+000	 7.8607917549e-001	 5.6963280331e-001
 1.6321019634e+000	 8.0255513420e-001	 4.7928577796e-001
 1.6239236969e+000	 8.1897703829e-001	 3.8509941192e-001
 1.6155665374e+000	 8.3534204110e-001	 2.8719318596e-001
 1.6968636494e+000	 6.7177284493e-001	 1.0757650437e+000
 1.6901028046e+000	 6.8860548209e-001	 1.0159201488e+000
 1.6831608868e+000	 7.0540373476e-001	 9.5160934187e-001
 1.6760378917e+000	 7.2216479121e-001	 8.8286279263e-001
 1.6687338708e+000	 7.3888582912e-001	 8.0971945161e-001
 1.6612489327e+000	 7.5556401695e-001	 7.3222789783e-001
 1.6535832430e+000	 7.7219651534e-001	 6.5044717848e-001
 1.6457370254e+000	 7.8878047850e-001	 5.6444763741e-001
 1.6377105612e+000	 8.0531305563e-001	 4.7431172929e-001
 1.6295041907e+000	 8.2179139238e-001	 3.8013481658e-001
 1.6211183125e+000	 8.3821263231e-001	 2.8202594605e-001
 1.7026748263e+000	 6.7407343686e-001	 1.0635640803e+000
 1.6958908279e+000	 6.9096372004e-001	 1.0049827342e+000
 1.6889251364e+000	 7.0781950098e-001	 9.4181453316e-001
 1.6817777475e+000	 7.2463795830e-001	 8.7407750785e-001
 1.6744487128e+000	 7.4141626004e-001	 8.0179863938e-001
 1.6669381413e+000	 7.5815156495e-001	 7.2501473056e-001
 1.6592461994e+000	 7.7484102395e-001	 6.4377326903e-001
 1.6513731111e+000	 7.9148178151e-001	 5.5813327896e-001
 1.6433191591e+000	 8.0807097705e-001	 4.6816615850e-001
 1.6350846845e+000	 8.2460574646e-001	 3.7395649968e-001
 1.6266700875e+000	 8.4108322352e-001	 2.7560288771e-001
 1.7084860032e+000	 6.7637402879e-001	 1.0505521414e+000
 1.7016788512e+000	 6.9332195800e-001	 9.9319161729e-001
 1.6946893861e+000	 7.1023526719e-001	 9.3112362735e-001
 1.6875176033e+000	 7.2711112540e-001	 8.6435402760e-001
 1.6801635548e+000	 7.4394669096e-001	 7.9289779493e-001
 1.6726273500e+000	 7.6073911296e-001	 7.1677992199e-001
 1.6649091557e+000	 7.7748553257e-001	 6.3603630372e-001
 1.6570091968e+000	 7.9418308452e-001	 5.5071461256e-001
 1.6489277569e+000	 8.1082889848e-001	 4.6087515915e-001
 1.6406651783e+000	 8.2742010055e-001	 3.6659173538e-001
 1.6322218626e+000	 8.4395381473e-001	 2.6795243646e-001
 1.7142971801e+000	 6.7867462073e-001	 1.0367450594e+000
 1.7074668745e+000	 6.9568019595e-001	 9.8056400232e-001
 1.7004536357e+000	 7.1265103341e-001	 9.1955517852e-001
 1.6932574591e+000	 7.2958429249e-001	 8.5371223297e-001
 1.6858783969e+000	 7.4647712188e-001	 7.8303810266e-001
 1.6783165587e+000	 7.6332666096e-001	 7.0754593514e-001
 1.6705721120e+000	 7.8013004119e-001	 6.2725999866e-001
 1.6626452825e+000	 7.9688438753e-001	 5.4221658094e-001
 1.6545363547e+000	 8.1358681990e-001	 4.5246487330e-001
 1.6462456721e+000	 8.3023445463e-001	 3.5806783683e-001
 1.6377736376e+000	 8.4682440594e-001	 2.5910304754e-001
 1.7201083570e+000	 6.8097521267e-001	 1.0221587958e+000
 1.7132548978e+000	 6.9803843390e-001	 9.6711721166e-001
 1.7062178853e+000	 7.1506679963e-001	 9.0712784827e-001
 1.6989973148e+000	 7.3205745959e-001	 8.4217210217e-001
 1.6915932389e+000	 7.4900755281e-001	 7.7224083381e-001
 1.6840057674e+000	 7.6591420897e-001	 6.9733530980e-001
 1.6762350683e+000	 7.8277454980e-001	 6.1746813681e-001
 1.6682813682e+000	 7.9958569054e-001	 5.3266418401e-001
 1.6601449525e+000	 8.1634474133e-001	 4.4296149062e-001
 1.6518261659e+000	 8.3304880872e-001	 3.4841215552e-001
 1.6433254126e+000	 8.4969499715e-001	 2.4908320539e-001
 1.7259195339e+000	 6.8327580460e-001	 1.0068094386e+000
 1.7190429211e+000	 7.0039667186e-001	 9.5286868382e-001
 1.7119821349e+000	 7.1748256584e-001	 8.9386040393e-001
 1.7047371706e+000	 7.3453062668e-001	 8.2975370886e-001
 1.6973080809e+000	 7.5153798373e-001	 7.6052734497e-001
 1.6896949760e+000	 7.6850175697e-001	 6.8617066122e-001
 1.6818980246e+000	 7.8541905842e-001	 6.0668456690e-001
 1.6739174539e+000	 8.0228699355e-001	 5.2208247784e-001
 1.6657535503e+000	 8.1910266275e-001	 4.3239124763e-001
 1.6574066597e+000	 8.3586316280e-001	 3.3765208060e-001
 1.6488771877e+000	 8.5256558836e-001	 2.3792142320e-001
 1.7317307107e+000	 6.8557639654e-001	 9.9071320066e-001
 1.7248309444e+000	 7.0275490981e-001	 9.3783597148e-001
 1.7177463845e+000	 7.1989833206e-001	 8.7977171676e-001
 1.7104770264e+000	 7.3700379378e-001	 8.1647722057e-001
 1.7030229229e+000	 7.5406841466e-001	 7.4791907672e-001
 1.6953841847e+000	 7.7108930498e-001	 6.7407467886e-001
 1.6875609809e+000	 7.8806356704e-001	 5.9493320224e-001
 1.6795535396e+000	 8.0498829656e-001	 5.1049657374e-001
 1.6713621481e+000	 8.2186058418e-001	 4.2078042687e-001
 1.6629871535e+000	 8.3867751689e-001	 3.2581503827e-001
 1.6544289627e+000	 8.5543617956e-001	 2.2564624236e-001
 1.7375418876e+000	 6.8787698848e-001	 9.7388641713e-001
 1.7306189677e+000	 7.0511314777e-001	 9.2203673962e-001
 1.7235106341e+000	 7.2231409828e-001	 8.6488076024e-001
 1.7162168822e+000	 7.3947696088e-001	 8.0236289712e-001
 1.7087377650e+000	 7.5659884558e-001	 7.3443755214e-001
 1.7010733934e+000	 7.7367685299e-001	 6.6107012513e-001
 1.6932239372e+000	 7.9070807566e-001	 5.8223801973e-001
 1.6851896253e+000	 8.0768959958e-001	 4.9793163738e-001
 1.6769707460e+000	 8.2461850561e-001	 4.0815535621e-001
 1.6685676473e+000	 8.4149187098e-001	 3.1292849116e-001
 1.6599807378e+000	 8.5830677077e-001	 2.1228623207e-001
 1.7433530645e+000	 6.9017758042e-001	 9.5634554371e-001
 1.7364069910e+000	 7.0747138573e-001	 9.0548876362e-001
 1.7292748837e+000	 7.2472986450e-001	 8.4920660836e-001
 1.7219567380e+000	 7.4195012798e-001	 7.8743108909e-001
 1.7144526070e+000	 7.5912927651e-001	 7.2010437550e-001
 1.7067626021e+000	 7.7626440100e-001	 6.4717983419e-001
 1.6988868936e+000	 7.9335258428e-001	 5.6862305874e-001
 1.6908257110e+000	 8.1039090259e-001	 4.8441288782e-001
 1.6825793438e+000	 8.2737642703e-001	 3.9454240800e-001
 1.6741481411e+000	 8.4430622506e-001	 2.9901993772e-001
 1.6655325128e+000	 8.6117736198e-001	 1.9786998880e-001
 1.6100147624e+000	 8.3247144989e-001	 2.9107621215e-001
 1.6015084983e+000	 8.4872067236e-001	 1.9945678827e-001
 1.5928249246e+000	 8.6490751501e-001	 1.0980681822e-001
 1.5839646139e+000	 8.8102914363e-001	 2.2386107330e-002
 1.5749281982e+000	 8.9708272787e-001	-6.2533539577e-002
 1.5657163687e+000	 9.1306544283e-001	-1.4466785286e-001
 1.5563298761e+000	 9.2897447052e-001	-2.2371966624e-001
 1.5467695304e+000	 9.4480700143e-001	-2.9937852094e-001
 1.5370362009e+000	 9.6056023608e-001	-3.7132030819e-001
 1.5271308162e+000	 9.7623138655e-001	-4.3920695241e-001
 1.5170543641e+000	 9.9181767803e-001	-5.0268613719e-001
 1.6155665374e+000	 8.3534204110e-001	 2.8719318596e-001
 1.6070309414e+000	 8.5164729537e-001	 1.9608747079e-001
 1.5983174243e+000	 8.6788995472e-001	 1.0695272710e-001
 1.5894265608e+000	 8.8406717516e-001	 2.0040746535e-002
 1.5803589850e+000	 9.0017611659e-001	-6.4384505871e-002
 1.5711153906e+000	 9.1621394436e-001	-1.4604640939e-001
 1.5616965308e+000	 9.3217783076e-001	-2.2465523908e-001
 1.5521032184e+000	 9.4806495661e-001	-2.9990775365e-001
 1.5423363257e+000	 9.6387251276e-001	-3.7148682205e-001
 1.5323967846e+000	 9.7959770168e-001	-4.3906109124e-001
 1.5222855860e+000	 9.9523773899e-001	-5.0228469725e-001
 1.6211183125e+000	 8.3821263231e-001	 2.8202594605e-001
 1.6125533845e+000	 8.5457391839e-001	 1.9139508113e-001
 1.6038099241e+000	 8.7087239443e-001	 1.0273520628e-001
 1.5948885078e+000	 8.8710520669e-001	 1.6290068859e-002
 1.5857897719e+000	 9.0326950531e-001	-6.7684233840e-002
 1.5765144126e+000	 9.1936244589e-001	-1.4891875520e-001
 1.5670631856e+000	 9.3538119101e-001	-2.2713123398e-001
 1.5574369064e+000	 9.5132291179e-001	-3.0202566577e-001
 1.5476364506e+000	 9.6718478944e-001	-3.7329191363e-001
 1.5376627529e+000	 9.8296401681e-001	-4.4060536031e-001
 1.5275168080e+000	 9.9865779995e-001	-5.0362660435e-001
 1.6266700875e+000	 8.4108322352e-001	 2.7560288771e-001
 1.6180758276e+000	 8.5750054140e-001	 1.8540910114e-001
 1.6093024238e+000	 8.7385483414e-001	 9.7184809203e-002
 1.6003504547e+000	 8.9014323823e-001	 1.1165683727e-002
 1.5912205588e+000	 9.0636289403e-001	-7.2400074402e-002
 1.5819134345e+000	 9.2251094742e-001	-1.5325121857e-001
 1.5724298403e+000	 9.3858455126e-001	-2.3111297426e-001
 1.5627705945e+000	 9.5458086697e-001	-3.0569659405e-001
 1.5529365754e+000	 9.7049706612e-001	-3.7669895212e-001
 1.5429287212e+000	 9.8633033194e-001	-4.4380218088e-001
 1.5327480299e+000	 1.0020778609e+000	-5.0667335205e-001
 1.6322218626e+000	 8.4395381473e-001	 2.6795243646e-001
 1.6235982707e+000	 8.6042716441e-001	 1.7815903423e-001
 1.6147949236e+000	 8.7683727385e-001	 9.0332102320e-002
 1.6058124017e+000	 8.9318126976e-001	 4.6992049748e-003
 1.5966513457e+000	 9.0945628275e-001	-7.8499382652e-002
 1.5873124565e+000	 9.2565944895e-001	-1.5901014053e-001
 1.5777964950e+000	 9.4178791150e-001	-2.3656580459e-001
 1.5681042825e+000	 9.5783882215e-001	-3.1088490510e-001
 1.5582367002e+000	 9.7380934280e-001	-3.8167134503e-001
 1.5481946896e+000	 9.8969664707e-001	-4.4861402102e-001
 1.5379792519e+000	 1.0054979219e+000	-5.1138648919e-001
 1.6377736376e+000	 8.4682440594e-001	 2.5910304754e-001
 1.6291207138e+000	 8.6335378742e-001	 1.6967440511e-001
 1.6202874233e+000	 8.7981971356e-001	 8.2207664869e-002
 1.6112743486e+000	 8.9621930129e-001	-3.0777492249e-003
 1.6020821326e+000	 9.1254967147e-001	-8.5949517794e-002
 1.5927114785e+000	 9.2880795048e-001	-1.6616187465e-001
 1.5831631498e+000	 9.4499127175e-001	-2.4345509055e-001
 1.5734379705e+000	 9.6109677733e-001	-3.1755499485e-001
 1.5635368251e+000	 9.7712161948e-001	-3.8817253762e-001
 1.5534606579e+000	 9.9306296220e-001	-4.5500339483e-001
 1.5432104738e+000	 1.0089179828e+000	-5.1772761892e-001
 1.6433254126e+000	 8.4969499715e-001	 2.4908320539e-001
 1.6346431569e+000	 8.6628041043e-001	 1.5998475937e-001
 1.6257799231e+000	 8.8280215327e-001	 7.2842088664e-002
 1.6167362956e+000	 8.9925733282e-001	-1.2133556437e-002
 1.6075129195e+000	 9.1564306019e-001	-9.4717843072e-002
 1.5981105004e+000	 9.3195645201e-001	-1.7467278683e-001
 1.5885298045e+000	 9.4819463199e-001	-2.5174621834e-001
 1.5787716586e+000	 9.6435473251e-001	-3.2567128807e-001
 1.5688369499e+000	 9.8043389616e-001	-3.9616601216e-001
 1.5587266262e+000	 9.9642927732e-001	-4.6293286166e-001
 1.5484416958e+000	 1.0123380438e+000	-5.2565839781e-001
 1.6488771877e+000	 8.5256558836e-001	 2.3792142320e-001
 1.6401656000e+000	 8.6920703344e-001	 1.4911966312e-001
 1.6312724228e+000	 8.8578459298e-001	 6.2265977882e-002
 1.6221982425e+000	 9.0229536435e-001	-2.2436590035e-002
 1.6129437064e+000	 9.1873644891e-001	-1.0477172570e-001
 1.6035095224e+000	 9.3510495354e-001	-1.8450925509e-001
 1.5938964593e+000	 9.5139799224e-001	-2.6140459440e-001
 1.5841053466e+000	 9.6761268769e-001	-3.3519823792e-001
 1.5741370747e+000	 9.8374617283e-001	-4.0561528740e-001
 1.5639925946e+000	 9.9979559245e-001	-4.7236502536e-001
 1.5536729177e+000	 1.0157581047e+000	-5.3514053493e-001
 1.6544289627e+000	 8.5543617956e-001	 2.2564624236e-001
 1.6456880431e+000	 8.7213365645e-001	 1.3710870269e-001
 1.6367649225e+000	 8.8876703269e-001	 5.0509948857e-002
 1.6276601895e+000	 9.0533339588e-001	-3.3955219271e-002
 1.6183744933e+000	 9.2182983762e-001	-1.1607853679e-001
 1.6089085444e+000	 9.3825345506e-001	-1.9563766935e-001
 1.5992631140e+000	 9.5460135248e-001	-2.7239564507e-001
 1.5894390347e+000	 9.7087064286e-001	-3.4610032539e-001
 1.5794371995e+000	 9.8705844951e-001	-4.1648391788e-001
 1.5692585629e+000	 1.0031619076e+000	-4.8326253351e-001
 1.5589041396e+000	 1.0191781657e+000	-5.4613579097e-001
 1.6599807378e+000	 8.5830677077e-001	 2.1228623207e-001
 1.6512104862e+000	 8.7506027946e-001	 1.2398148426e-001
 1.6422574223e+000	 8.9174947240e-001	 3.7604629873e-002
 1.6331221364e+000	 9.0837142741e-001	-4.6657809347e-002
 1.6238052802e+000	 9.2492322634e-001	-1.2860565130e-001
 1.6143075663e+000	 9.4140195659e-001	-2.0802443127e-001
 1.6046297688e+000	 9.5780471272e-001	-2.8468481628e-001
 1.5947727227e+000	 9.7412859804e-001	-3.5834205891e-001
 1.5847373244e+000	 9.9037072618e-001	-4.2873549339e-001
 1.5745245312e+000	 1.0065282227e+000	-4.9558807672e-001
 1.5641353616e+000	 1.0225982267e+000	-5.5860597740e-001
 1.6655325128e+000	 8.6117736198e-001	 1.9786998880e-001
 1.6567329293e+000	 8.7798690247e-001	 1.0976763355e-001
 1.6477499220e+000	 8.9473191210e-001	 2.3580660969e-002
 1.6385840834e+000	 9.1140945894e-001	-6.0512721480e-002
 1.6292360671e+000	 9.2801661506e-001	-1.4232044796e-001
 1.6197065883e+000	 9.4455045811e-001	-2.2163595399e-001
 1.6099964235e+000	 9.6100807296e-001	-2.9823757321e-001
 1.6001064107e+000	 9.7738655321e-001	-3.7188797388e-001
 1.5900374492e+000	 9.9368300285e-001	-4.4233363836e-001
 1.5797904996e+000	 1.0098945378e+000	-5.0930438787e-001
 1.5693665835e+000	 1.0260182876e+000	-5.7251295562e-001
 1.5170543641e+000	 9.9181767803e-001	-5.0268613719e-001
 1.5068078910e+000	 1.0073163504e+000	-6.1014423774e-001
 1.4963925022e+000	 1.0227246596e+000	-7.1512229221e-001
 1.4858093614e+000	 1.0380398795e+000	-8.1734382529e-001
 1.4750596903e+000	 1.0532593033e+000	-9.1651552337e-001
 1.4641447683e+000	 1.0683802448e+000	-1.0123270613e+000
 1.4530659320e+000	 1.0834000403e+000	-1.1044509844e+000
 1.4418245748e+000	 1.0983160499e+000	-1.1925426468e+000
 1.4304221464e+000	 1.1131256591e+000	-1.2762402086e+000
 1.4188601522e+000	 1.1278262803e+000	-1.3551646910e+000
 1.4071401525e+000	 1.1424153541e+000	-1.4289200928e+000
 1.5222855860e+000	 9.9523773899e-001	-5.0228469725e-001
 1.5120037803e+000	 1.0107898550e+000	-6.1071901805e-001
 1.5015524764e+000	 1.0262512963e+000	-7.1655189297e-001
 1.4909328420e+000	 1.0416193274e+000	-8.1949842563e-001
 1.4801461031e+000	 1.0568912319e+000	-9.1925666246e-001
 1.4691935434e+000	 1.0720643146e+000	-1.0155074230e+000
 1.4580765042e+000	 1.0871359025e+000	-1.1079141862e+000
 1.4467963837e+000	 1.1021033466e+000	-1.1961230338e+000
 1.4353546366e+000	 1.1169640234e+000	-1.2797626528e+000
 1.4237527734e+000	 1.1317153364e+000	-1.3584443977e+000
 1.4119923599e+000	 1.1463547174e+000	-1.4317624131e+000
 1.5275168080e+000	 9.9865779995e-001	-5.0362660435e-001
 1.5171996696e+000	 1.0142633597e+000	-6.1294309283e-001
 1.5067124505e+000	 1.0297779331e+000	-7.1953954130e-001
 1.4960563226e+000	 1.0451987753e+000	-8.2312270600e-001
 1.4852325158e+000	 1.0605231606e+000	-9.2338206317e-001
 1.4742423184e+000	 1.0757483844e+000	-1.0199896428e+000
 1.4630870764e+000	 1.0908717647e+000	-1.1125999189e+000
 1.4517681926e+000	 1.1058906433e+000	-1.2008497582e+000
 1.4402871268e+000	 1.1208023878e+000	-1.2843584279e+000
 1.4286453946e+000	 1.1356043926e+000	-1.3627276639e+000
 1.4168445673e+000	 1.1502940807e+000	-1.4355418010e+000
 1.5327480299e+000	 1.0020778609e+000	-5.0667335205e-001
 1.5223955588e+000	 1.0177368643e+000	-6.1677857380e-001
 1.5118724247e+000	 1.0333045699e+000	-7.2404797693e-001
 1.5011798031e+000	 1.0487782231e+000	-8.2818004380e-001
 1.4903189285e+000	 1.0641550892e+000	-9.2885574999e-001
 1.4792910935e+000	 1.0794324542e+000	-1.0257384014e+000
 1.4680976486e+000	 1.0946076269e+000	-1.1184735287e+000
 1.4567400015e+000	 1.1096779401e+000	-1.2066888404e+000
 1.4452196169e+000	 1.1246407521e+000	-1.2899942365e+000
 1.4335380158e+000	 1.1394934487e+000	-1.3679818829e+000
 1.4216967747e+000	 1.1542334440e+000	-1.4402263483e+000
 1.5379792519e+000	 1.0054979219e+000	-5.1138648919e-001
 1.5275914481e+000	 1.0212103690e+000	-6.2218761559e-001
 1.5170323988e+000	 1.0368312066e+000	-7.3003997026e-001
 1.5063032837e+000	 1.0523576710e+000	-8.3463383497e-001
 1.4954053412e+000	 1.0677870178e+000	-9.3564175400e-001
 1.4843398686e+000	 1.0831165240e+000	-1.0327183744e+000
 1.4731082207e+000	 1.0983434891e+000	-1.1255003446e+000
 1.4617118104e+000	 1.1134652368e+000	-1.2136062718e+000
 1.4501521071e+000	 1.1284791165e+000	-1.2966367413e+000
 1.4384306371e+000	 1.1433825049e+000	-1.3741743968e+000
 1.4265489822e+000	 1.1581728073e+000	-1.4457840843e+000
 1.5432104738e+000	 1.0089179828e+000	-5.1772761892e-001
 1.5327873374e+000	 1.0246838736e+000	-6.2913241504e-001
 1.5221923730e+000	 1.0403578434e+000	-7.3747832188e-001
 1.5114267642e+000	 1.0559371188e+000	-8.4244749373e-001
 1.5004917540e+000	 1.0714189465e+000	-9.4370411272e-001
 1.4893886436e+000	 1.0868005938e+000	-1.0408942322e+000
 1.4781187929e+000	 1.1020793513e+000	-1.1336456791e+000
 1.4666836192e+000	 1.1172525335e+000	-1.2215680160e+000
 1.4550845973e+000	 1.1323174808e+000	-1.3042525656e+000
 1.4433232583e+000	 1.1472715610e+000	-1.3812724972e+000
 1.4314011896e+000	 1.1621121706e+000	-1.4521829771e+000
 1.5484416958e+000	 1.0123380438e+000	-5.2565839781e-001
 1.5379832267e+000	 1.0281573783e+000	-6.3757521045e-001
 1.5273523471e+000	 1.0438844801e+000	-7.4632586200e-001
 1.5165502448e+000	 1.0595165667e+000	-8.5158445222e-001
 1.5055781667e+000	 1.0750508751e+000	-9.5300687005e-001
 1.4944374187e+000	 1.0904846636e+000	-1.0502306400e+000
 1.4831293651e+000	 1.1058152135e+000	-1.1428748281e+000
 1.4716554281e+000	 1.1210398302e+000	-1.2305400088e+000
 1.4600170874e+000	 1.1361558452e+000	-1.3128082940e+000
 1.4482158795e+000	 1.1511606171e+000	-1.3892434261e+000
 1.4362533970e+000	 1.1660515339e+000	-1.4593909346e+000
 1.5536729177e+000	 1.0157581047e+000	-5.3514053493e-001
 1.5431791159e+000	 1.0316308830e+000	-6.4747828088e-001
 1.5325123212e+000	 1.0474111169e+000	-7.5654544999e-001
 1.5216737253e+000	 1.0630960146e+000	-8.6200816024e-001
 1.5106645794e+000	 1.0786828037e+000	-9.6351407615e-001
 1.4994861938e+000	 1.0941687335e+000	-1.0606922581e+000
 1.4881399373e+000	 1.1095510757e+000	-1.1531530716e+000
 1.4766272370e+000	 1.1248271269e+000	-1.2404881590e+000
 1.4649495776e+000	 1.1399942095e+000	-1.3222704733e+000
 1.4531085007e+000	 1.1550496733e+000	-1.3980543769e+000
 1.4411056044e+000	 1.1699908971e+000	-1.4673758053e+000
 1.5589041396e+000	 1.0191781657e+000	-5.4613579097e-001
 1.5483750052e+000	 1.0351043876e+000	-6.5880394551e-001
 1.5376722954e+000	 1.0509377536e+000	-7.6809997389e-001
 1.5267972059e+000	 1.0666754624e+000	-8.7368208491e-001
 1.5157509921e+000	 1.0823147324e+000	-9.7518978729e-001
 1.5045349688e+000	 1.0978528033e+000	-1.0722437416e+000
 1.4931505094e+000	 1.1132869379e+000	-1.1644456734e+000
 1.4815990459e+000	 1.1286144237e+000	-1.2513783486e+000
 1.4698820677e+000	 1.1438325738e+000	-1.3326056126e+000
 1.4580011219e+000	 1.1589387294e+000	-1.4076724950e+000
 1.4459578118e+000	 1.1739302604e+000	-1.4761053796e+000
 1.5641353616e+000	 1.0225982267e+000	-5.5860597740e-001
 1.5535708945e+000	 1.0385778923e+000	-6.7151456293e-001
 1.5428322695e+000	 1.0544643904e+000	-7.8095234991e-001
 1.5319206864e+000	 1.0702549103e+000	-8.8656971044e-001
 1.5208374049e+000	 1.0859466610e+000	-9.8799806581e-001
 1.5095837439e+000	 1.1015368731e+000	-1.0848497412e+000
 1.4981610816e+000	 1.1170228001e+000	-1.1767178820e+000
 1.4865708547e+000	 1.1324017204e+000	-1.2631764333e+000
 1.4748145579e+000	 1.1476709382e+000	-1.3437801846e+000
 1.4628937431e+000	 1.1628277855e+000	-1.4180648790e+000
 1.4508100193e+000	 1.1778696237e+000	-1.4855473905e+000
 1.5693665835e+000	 1.0260182876e+000	-5.7251295562e-001
 1.5587667838e+000	 1.0420513969e+000	-6.8557253048e-001
 1.5479922437e+000	 1.0579910272e+000	-7.9506552198e-001
 1.5370441670e+000	 1.0738343581e+000	-9.0063453776e-001
 1.5259238176e+000	 1.0895785896e+000	-1.0019029800e+000
 1.5146325189e+000	 1.1052209429e+000	-1.0984749024e+000
 1.5031716538e+000	 1.1207586623e+000	-1.1899349302e+000
 1.4915426636e+000	 1.1361890171e+000	-1.2758482433e+000
 1.4797470480e+000	 1.1515093025e+000	-1.3557606257e+000
 1.4677863643e+000	 1.1667168417e+000	-1.4291985808e+000
 1.4556622267e+000	 1.1818089870e+000	-1.4956695145e+000
 1.4071401525e+000	 1.1424153541e+000	-1.4289200928e+000
 1.3952637621e+000	 1.1568903510e+000	-1.5549266640e+000
 1.3832326494e+000	 1.1712487727e+000	-1.6511571825e+000
 1.3710485360e+000	 1.1854881534e+000	-1.7166792047e+000
 1.3587131953e+000	 1.1996060615e+000	-1.7505651473e+000
 1.3462284521e+000	 1.2136001008e+000	-1.7518932626e+000
 1.3335961816e+000	 1.2274679117e+000	-1.7197486487e+000
 1.3208183085e+000	 1.2412071728e+000	-1.6532242924e+000
 1.3078968059e+000	 1.2548156020e+000	-1.6346195855e+000
 1.2948336943e+000	 1.2682909579e+000	-1.7435519660e+000
 1.2816310409e+000	 1.2816310409e+000	-1.8345316442e+000
 1.4119923599e+000	 1.1463547174e+000	-1.4317624131e+000
 1.4000750164e+000	 1.1608796281e+000	-1.5521030669e+000
 1.3880024172e+000	 1.1752875615e+000	-1.6422714434e+000
 1.3757762896e+000	 1.1895760436e+000	-1.7013466708e+000
 1.3633984132e+000	 1.2037426341e+000	-1.7284128520e+000
 1.3508706192e+000	 1.2177849287e+000	-1.7225600275e+000
 1.3381947892e+000	 1.2317005596e+000	-1.6828851737e+000
 1.3253728544e+000	 1.2454871975e+000	-1.6084932350e+000
 1.3124067949e+000	 1.2591425524e+000	-1.6527883358e+000
 1.2992986381e+000	 1.2726643750e+000	-1.7518336396e+000
 1.2860504583e+000	 1.2860504583e+000	-1.8327038684e+000
 1.4168445673e+000	 1.1502940807e+000	-1.4355418010e+000
 1.4048862708e+000	 1.1648689052e+000	-1.5503961015e+000
 1.3927721850e+000	 1.1793263504e+000	-1.6346866409e+000
 1.3805040432e+000	 1.1936639338e+000	-1.6875040339e+000
 1.3680836311e+000	 1.2078792068e+000	-1.7079439780e+000
 1.3555127863e+000	 1.2219697566e+000	-1.6951082049e+000
 1.3427933967e+000	 1.2359332076e+000	-1.6481054668e+000
 1.3299274003e+000	 1.2497672223e+000	-1.5660525571e+000
 1.3169167838e+000	 1.2634695027e+000	-1.6700486857e+000
 1.3037635819e+000	 1.2770377921e+000	-1.7593878831e+000
 1.2904698756e+000	 1.2904698756e+000	-1.8303307342e+000
 1.4216967747e+000	 1.1542334440e+000	-1.4402263483e+000
 1.4096975251e+000	 1.1688581822e+000	-1.5497720803e+000
 1.3975419527e+000	 1.1833651393e+000	-1.6283673011e+000
 1.3852317967e+000	 1.1977518239e+000	-1.6751140276e+000
 1.3727688491e+000	 1.2120157794e+000	-1.6891194613e+000
 1.3601549534e+000	 1.2261545846e+000	-1.6694969287e+000
 1.3473920042e+000	 1.2401658556e+000	-1.6153668559e+000
 1.3344819462e+000	 1.2540472470e+000	-1.5880328834e+000
 1.3214267728e+000	 1.2677964531e+000	-1.6864094557e+000
 1.3082285256e+000	 1.2814112092e+000	-1.7662215151e+000
 1.2948892930e+000	 1.2948892930e+000	-1.8274170285e+000
 1.4265489822e+000	 1.1581728073e+000	-1.4457840843e+000
 1.4145087795e+000	 1.1728474593e+000	-1.5501972761e+000
 1.4023117205e+000	 1.1874039282e+000	-1.6232779341e+000
 1.3899595503e+000	 1.2018397141e+000	-1.6641393930e+000
 1.3774540670e+000	 1.2161523520e+000	-1.6719002690e+000
 1.3647971204e+000	 1.2303394125e+000	-1.6456853880e+000
 1.3519906117e+000	 1.2443985036e+000	-1.5846267491e+000
 1.3390364921e+000	 1.2583272717e+000	-1.6126125270e+000
 1.3259367618e+000	 1.2721234034e+000	-1.7018795962e+000
 1.3126934694e+000	 1.2857846263e+000	-1.7723415101e+000
 1.2993087104e+000	 1.2993087104e+000	-1.8239677198e+000
 1.4314011896e+000	 1.1621121706e+000	-1.4521829771e+000
 1.4193200338e+000	 1.1768367364e+000	-1.5516379231e+000
 1.4070814882e+000	 1.1914427170e+000	-1.6193830337e+000
 1.3946873039e+000	 1.2059276043e+000	-1.6545428784e+000
 1.3821392849e+000	 1.2202889246e+000	-1.6562473992e+000
 1.3694392875e+000	 1.2345242404e+000	-1.6236328270e+000
 1.3565892193e+000	 1.2486311515e+000	-1.5558426331e+000
 1.3435910380e+000	 1.2626072965e+000	-1.6361366363e+000
 1.3304467508e+000	 1.2764503538e+000	-1.7164681859e+000
 1.3171584132e+000	 1.2901580434e+000	-1.7777549958e+000
 1.3037281278e+000	 1.3037281278e+000	-1.8199879551e+000
 1.4362533970e+000	 1.1660515339e+000	-1.4593909346e+000
 1.4241312882e+000	 1.1808260135e+000	-1.5540602174e+000
 1.4118512560e+000	 1.1954815059e+000	-1.6166470782e+000
 1.3994150575e+000	 1.2100154945e+000	-1.6462872393e+000
 1.3868245028e+000	 1.2244254973e+000	-1.6421218803e+000
 1.3740814546e+000	 1.2387090684e+000	-1.6032985431e+000
 1.3611878268e+000	 1.2528637995e+000	-1.5677764141e+000
 1.3481455839e+000	 1.2668873212e+000	-1.6586163120e+000
 1.3349567398e+000	 1.2807773041e+000	-1.7301844295e+000
 1.3216233570e+000	 1.2945314605e+000	-1.7824692501e+000
 1.3081475452e+000	 1.3081475452e+000	-1.8154830569e+000
 1.4411056044e+000	 1.1699908971e+000	-1.4673758053e+000
 1.4289425425e+000	 1.1848152905e+000	-1.5574303174e+000
 1.4166210237e+000	 1.1995202948e+000	-1.6150345305e+000
 1.4041428110e+000	 1.2141033847e+000	-1.6393352380e+000
 1.3915097207e+000	 1.2285620699e+000	-1.6294847702e+000
 1.3787236217e+000	 1.2428938963e+000	-1.5846418869e+000
 1.3657864343e+000	 1.2570964475e+000	-1.5975576293e+000
 1.3527001298e+000	 1.2711673459e+000	-1.6800627546e+000
 1.3394667288e+000	 1.2851042545e+000	-1.7430376554e+000
 1.3260883007e+000	 1.2989048776e+000	-1.7864916993e+000
 1.3125669626e+000	 1.3125669626e+000	-1.8104585200e+000
 1.4459578118e+000	 1.1739302604e+000	-1.4761053796e+000
 1.4337537969e+000	 1.1888045676e+000	-1.5617143446e+000
 1.4213907915e+000	 1.2035590836e+000	-1.6145098381e+000
 1.4088705646e+000	 1.2181912749e+000	-1.6336496439e+000
 1.3961949386e+000	 1.2326986425e+000	-1.6182971562e+000
 1.3833657887e+000	 1.2470787242e+000	-1.5676222608e+000
 1.3703850418e+000	 1.2613290954e+000	-1.6261495544e+000
 1.3572546756e+000	 1.2754473707e+000	-1.7004872629e+000
 1.3439767178e+000	 1.2894312048e+000	-1.7550373135e+000
 1.3305532445e+000	 1.3032782947e+000	-1.7898299150e+000
 1.3169863799e+000	 1.3169863799e+000	-1.8049200089e+000
 1.4508100193e+000	 1.1778696237e+000	-1.4855473905e+000
 1.4385650512e+000	 1.1927938447e+000	-1.5668783845e+000
 1.4261605593e+000	 1.2075978725e+000	-1.6150374337e+000
 1.4135983182e+000	 1.2222791650e+000	-1.6291932328e+000
 1.4008801566e+000	 1.2368352151e+000	-1.6085201542e+000
 1.3880079558e+000	 1.2512635522e+000	-1.5671600341e+000
 1.3749836494e+000	 1.2655617434e+000	-1.6535653796e+000
 1.3618092215e+000	 1.2797273954e+000	-1.7199012321e+000
 1.3484867067e+000	 1.2937581552e+000	-1.7661929736e+000
 1.3350181883e+000	 1.3076517118e+000	-1.7924916120e+000
 1.3214057973e+000	 1.3214057973e+000	-1.7988733549e+000
 1.4556622267e+000	 1.1818089870e+000	-1.4956695145e+000
 1.4433763056e+000	 1.1967831217e+000	-1.5728884866e+000
 1.4309303270e+000	 1.2116366614e+000	-1.6165817355e+000
 1.4183260717e+000	 1.2263670552e+000	-1.6259287876e+000
 1.4055653745e+000	 1.2409717878e+000	-1.6001149087e+000
 1.3926501229e+000	 1.2554483801e+000	-1.6009753226e+000
 1.3795822569e+000	 1.2697943914e+000	-1.6798183678e+000
 1.3663637674e+000	 1.2840074201e+000	-1.7383161524e+000
 1.3529966957e+000	 1.2980851055e+000	-1.7765143233e+000
 1.3394831320e+000	 1.3120251289e+000	-1.7944846457e+000
 1.3258252147e+000	 1.3258252147e+000	-1.7923245532e+000
 1.2816310409e+000	 1.2816310409e+000	-1.8345316442e+000
 1.2682909579e+000	 1.2948336943e+000	-1.9873547287e+000
 1.2548156020e+000	 1.3078968059e+000	-2.1422674189e+000
 1.2412071728e+000	 1.3208183085e+000	-2.1605853573e+000
 1.2274679117e+000	 1.3335961816e+000	-2.1123304391e+000
 1.2136001008e+000	 1.3462284521e+000	-2.0750086310e+000
 1.1996060615e+000	 1.3587131953e+000	-2.0481197213e+000
 1.1854881534e+000	 1.3710485360e+000	-2.0311451406e+000
 1.1712487727e+000	 1.3832326494e+000	-2.0235488382e+000
 1.1568903510e+000	 1.3952637621e+000	-2.0247781913e+000
 1.1424153541e+000	 1.4071401525e+000	-2.0342649469e+000
 1.2860504583e+000	 1.2860504583e+000	-1.8327038684e+000
 1.2726643750e+000	 1.2992986381e+000	-1.9753269095e+000
 1.2591425524e+000	 1.3124067949e+000	-2.1210341580e+000
 1.2454871975e+000	 1.3253728544e+000	-2.1984196017e+000
 1.2317005596e+000	 1.3381947892e+000	-2.1399425100e+000
 1.2177849287e+000	 1.3508706192e+000	-2.0935204961e+000
 1.2037426341e+000	 1.3633984132e+000	-2.0586395555e+000
 1.1895760436e+000	 1.3757762896e+000	-2.0347662364e+000
 1.1752875615e+000	 1.3880024172e+000	-2.0213485372e+000
 1.1608796281e+000	 1.4000750164e+000	-2.0178168393e+000
 1.1463547174e+000	 1.4119923599e+000	-2.0235848734e+000
 1.2904698756e+000	 1.2904698756e+000	-1.8303307342e+000
 1.2770377921e+000	 1.3037635819e+000	-1.9626636381e+000
 1.2634695027e+000	 1.3169167838e+000	-2.0990682805e+000
 1.2497672223e+000	 1.3299274003e+000	-2.2357254726e+000
 1.2359332076e+000	 1.3427933967e+000	-2.1669263468e+000
 1.2219697566e+000	 1.3555127863e+000	-2.1112997707e+000
 1.2078792068e+000	 1.3680836311e+000	-2.0683179751e+000
 1.1936639338e+000	 1.3805040432e+000	-2.0374326559e+000
 1.1793263504e+000	 1.3927721850e+000	-2.0180758931e+000
 1.1648689052e+000	 1.4048862708e+000	-2.0096611066e+000
 1.1502940807e+000	 1.4168445673e+000	-2.0115840469e+000
 1.2948892930e+000	 1.2948892930e+000	-1.8274170285e+000
 1.2814112092e+000	 1.3082285256e+000	-1.9493704381e+000
 1.2677964531e+000	 1.3214267728e+000	-2.0763761020e+000
 1.2540472470e+000	 1.3344819462e+000	-2.2082950485e+000
 1.2401658556e+000	 1.3473920042e+000	-2.1932591730e+000
 1.2261545846e+000	 1.3601549534e+000	-2.1283249241e+000
 1.2120157794e+000	 1.3727688491e+000	-2.0771347642e+000
 1.1977518239e+000	 1.3852317967e+000	-2.0391255664e+000
 1.1833651393e+000	 1.3975419527e+000	-2.0137135237e+000
 1.1688581822e+000	 1.4096975251e+000	-2.0002951278e+000
 1.1542334440e+000	 1.4216967747e+000	-1.9982481847e+000
 1.2993087104e+000	 1.2993087104e+000	-1.8239677198e+000
 1.2857846263e+000	 1.3126934694e+000	-1.9354530030e+000
 1.2721234034e+000	 1.3259367618e+000	-2.0529640944e+000
 1.2583272717e+000	 1.3390364921e+000	-2.1763580266e+000
 1.2443985036e+000	 1.3519906117e+000	-2.2189183400e+000
 1.2303394125e+000	 1.3647971204e+000	-2.1445745383e+000
 1.2161523520e+000	 1.3774540670e+000	-2.0850698033e+000
 1.2018397141e+000	 1.3899595503e+000	-2.0398262143e+000
 1.1874039282e+000	 1.4023117205e+000	-2.0082441078e+000
 1.1728474593e+000	 1.4145087795e+000	-1.9897030801e+000
 1.1581728073e+000	 1.4265489822e+000	-1.9835630266e+000
 1.3037281278e+000	 1.3037281278e+000	-1.8199879551e+000
 1.2901580434e+000	 1.3171584132e+000	-1.9209171926e+000
 1.2764503538e+000	 1.3304467508e+000	-2.0288388839e+000
 1.2626072965e+000	 1.3435910380e+000	-2.1436061553e+000
 1.2486311515e+000	 1.3565892193e+000	-2.2438813251e+000
 1.2345242404e+000	 1.3694392875e+000	-2.1600273059e+000
 1.2202889246e+000	 1.3821392849e+000	-2.0921030678e+000
 1.2059276043e+000	 1.3946873039e+000	-2.0395159240e+000
 1.1914427170e+000	 1.4070814882e+000	-2.0016503847e+000
 1.1768367364e+000	 1.4193200338e+000	-1.9778691821e+000
 1.1621121706e+000	 1.4314011896e+000	-1.9675143349e+000
 1.3081475452e+000	 1.3081475452e+000	-1.8154830569e+000
 1.2945314605e+000	 1.3216233570e+000	-1.9057690306e+000
 1.2807773041e+000	 1.3349567398e+000	-2.0040072477e+000
 1.2668873212e+000	 1.3481455839e+000	-2.1100470176e+000
 1.2528637995e+000	 1.3611878268e+000	-2.2237347205e+000
 1.2387090684e+000	 1.3740814546e+000	-2.1746620286e+000
 1.2244254973e+000	 1.3868245028e+000	-2.0982146259e+000
 1.2100154945e+000	 1.3994150575e+000	-2.0381760962e+000
 1.1954815059e+000	 1.4118512560e+000	-1.9939151523e+000
 1.1808260135e+000	 1.4241312882e+000	-1.9647776933e+000
 1.1660515339e+000	 1.4362533970e+000	-1.9500878937e+000
 1.3125669626e+000	 1.3125669626e+000	-1.8104585200e+000
 1.2989048776e+000	 1.3260883007e+000	-1.8900147019e+000
 1.2851042545e+000	 1.3394667288e+000	-1.9784761119e+000
 1.2711673459e+000	 1.3527001298e+000	-2.0756883322e+000
 1.2570964475e+000	 1.3657864343e+000	-2.1814932624e+000
 1.2428938963e+000	 1.3787236217e+000	-2.1884576150e+000
 1.2285620699e+000	 1.3915097207e+000	-2.1033846375e+000
 1.2141033847e+000	 1.4041428110e+000	-2.0357882070e+000
 1.1995202948e+000	 1.4166210237e+000	-1.9850212669e+000
 1.1848152905e+000	 1.4289425425e+000	-1.9504129134e+000
 1.1699908971e+000	 1.4411056044e+000	-1.9312695087e+000
 1.3169863799e+000	 1.3169863799e+000	-1.8049200089e+000
 1.3032782947e+000	 1.3305532445e+000	-1.8736605496e+000
 1.2894312048e+000	 1.3439767178e+000	-1.9522525490e+000
 1.2754473707e+000	 1.3572546756e+000	-2.0405379513e+000
 1.2613290954e+000	 1.3703850418e+000	-2.1383542699e+000
 1.2470787242e+000	 1.3833657887e+000	-2.2013930790e+000
 1.2326986425e+000	 1.3961949386e+000	-2.1075933525e+000
 1.2181912749e+000	 1.4088705646e+000	-2.0323338061e+000
 1.2035590836e+000	 1.4213907915e+000	-1.9749516418e+000
 1.1888045676e+000	 1.4337537969e+000	-1.9347591817e+000
 1.1739302604e+000	 1.4459578118e+000	-1.9110450065e+000
 1.3214057973e+000	 1.3214057973e+000	-1.7988733549e+000
 1.3076517118e+000	 1.3350181883e+000	-1.8567130725e+000
 1.2937581552e+000	 1.3484867067e+000	-1.9253437753e+000
 1.2797273954e+000	 1.3618092215e+000	-2.0046038582e+000
 1.2655617434e+000	 1.3749836494e+000	-2.0943265429e+000
 1.2512635522e+000	 1.3880079558e+000	-2.1943395708e+000
 1.2368352151e+000	 1.4008801566e+000	-2.1108211092e+000
 1.2222791650e+000	 1.4135983182e+000	-2.0277945164e+000
 1.2075978725e+000	 1.4261605593e+000	-1.9636892465e+000
 1.1927938447e+000	 1.4385650512e+000	-1.9178008763e+000
 1.1778696237e+000	 1.4508100193e+000	-1.8894002349e+000
 1.3258252147e+000	 1.3258252147e+000	-1.7923245532e+000
 1.3120251289e+000	 1.3394831320e+000	-1.8391789226e+000
 1.2980851055e+000	 1.3529966957e+000	-1.8977571484e+000
 1.2840074201e+000	 1.3663637674e+000	-1.9678941651e+000
 1.2697943914e+000	 1.3795822569e+000	-2.0494189968e+000
 1.2554483801e+000	 1.3926501229e+000	-2.1421544513e+000
 1.2409717878e+000	 1.4055653745e+000	-2.1130483329e+000
 1.2263670552e+000	 1.4183260717e+000	-2.0221520319e+000
 1.2116366614e+000	 1.4309303270e+000	-1.9512171058e+000
 1.1967831217e+000	 1.4433763056e+000	-1.8995224136e+000
 1.1818089870e+000	 1.4556622267e+000	-1.8663210620e+000
 1.1424153541e+000	 1.4071401525e+000	-2.0342649469e+000
 1.1278262803e+000	 1.4188601522e+000	-1.9854031043e+000
 1.1131256591e+000	 1.4304221464e+000	-1.9430566866e+000
 1.0983160499e+000	 1.4418245748e+000	-1.9069674036e+000
 1.0834000403e+000	 1.4530659320e+000	-1.8768642512e+000
 1.0683802448e+000	 1.4641447683e+000	-1.8524642141e+000
 1.0532593033e+000	 1.4750596903e+000	-1.8334729895e+000
 1.0380398795e+000	 1.4858093614e+000	-1.8195857294e+000
 1.0227246596e+000	 1.4963925022e+000	-1.8104878004e+000
 1.0073163504e+000	 1.5068078910e+000	-1.8058555580e+000
 9.9181767803e-001	 1.5170543641e+000	-1.8053571337e+000
 1.1463547174e+000	 1.4119923599e+000	-2.0235848734e+000
 1.1317153364e+000	 1.4237527734e+000	-1.9751945558e+000
 1.1169640234e+000	 1.4353546366e+000	-1.9332354773e+000
 1.1021033466e+000	 1.4467963837e+000	-1.8974418060e+000
 1.0871359025e+000	 1.4580765042e+000	-1.8675350732e+000
 1.0720643146e+000	 1.4691935434e+000	-1.8432248864e+000
 1.0568912319e+000	 1.4801461031e+000	-1.8242096646e+000
 1.0416193274e+000	 1.4909328420e+000	-1.8101773917e+000
 1.0262512963e+000	 1.5015524764e+000	-1.8008063862e+000
 1.0107898550e+000	 1.5120037803e+000	-1.7957660875e+000
 9.9523773899e-001	 1.5222855860e+000	-1.7947178524e+000
 1.1502940807e+000	 1.4168445673e+000	-2.0115840469e+000
 1.1356043926e+000	 1.4286453946e+000	-1.9636400633e+000
 1.1208023878e+000	 1.4402871268e+000	-1.9220462792e+000
 1.1058906433e+000	 1.4517681926e+000	-1.8865292957e+000
 1.0908717647e+000	 1.4630870764e+000	-1.8568031507e+000
 1.0757483844e+000	 1.4742423184e+000	-1.8325700443e+000
 1.0605231606e+000	 1.4852325158e+000	-1.8135210840e+000
 1.0451987753e+000	 1.4960563226e+000	-1.7993370496e+000
 1.0297779331e+000	 1.5067124505e+000	-1.7896891745e+000
 1.0142633597e+000	 1.5171996696e+000	-1.7842399414e+000
 9.9865779995e-001	 1.5275168080e+000	-1.7826438904e+000
 1.1542334440e+000	 1.4216967747e+000	-1.9982481847e+000
 1.1394934487e+000	 1.4335380158e+000	-1.9507259112e+000
 1.1246407521e+000	 1.4452196169e+000	-1.9094759318e+000
 1.1096779401e+000	 1.4567400015e+000	-1.8742172542e+000
 1.0946076269e+000	 1.4680976486e+000	-1.8446563950e+000
 1.0794324542e+000	 1.4792910935e+000	-1.8204881152e+000
 1.0641550892e+000	 1.4903189285e+000	-1.8013961775e+000
 1.0487782231e+000	 1.5011798031e+000	-1.7870541222e+000
 1.0333045699e+000	 1.5118724247e+000	-1.7771260589e+000
 1.0177368643e+000	 1.5223955588e+000	-1.7712674735e+000
 1.0020778609e+000	 1.5327480299e+000	-1.7691260470e+000
 1.1581728073e+000	 1.4265489822e+000	-1.9835630266e+000
 1.1433825049e+000	 1.4384306371e+000	-1.9364384008e+000
 1.1284791165e+000	 1.4501521071e+000	-1.8955112855e+000
 1.1134652368e+000	 1.4617118104e+000	-1.8604930694e+000
 1.0983434891e+000	 1.4731082207e+000	-1.8310827182e+000
 1.0831165240e+000	 1.4843398686e+000	-1.8069675228e+000
 1.0677870178e+000	 1.4954053412e+000	-1.7878238674e+000
 1.0523576710e+000	 1.5063032837e+000	-1.7733180162e+000
 1.0368312066e+000	 1.5170323988e+000	-1.7631069167e+000
 1.0212103690e+000	 1.5275914481e+000	-1.7568390176e+000
 1.0054979219e+000	 1.5379792519e+000	-1.7541550979e+000
 1.1621121706e+000	 1.4314011896e+000	-1.9675143349e+000
 1.1472715610e+000	 1.4433232583e+000	-1.9207638499e+000
 1.1323174808e+000	 1.4550845973e+000	-1.8801392025e+000
 1.1172525335e+000	 1.4666836192e+000	-1.8453441351e+000
 1.1020793513e+000	 1.4781187929e+000	-1.8160700338e+000
 1.0868005938e+000	 1.4893886436e+000	-1.7919966876e+000
 1.0714189465e+000	 1.5004917540e+000	-1.7727930677e+000
 1.0559371188e+000	 1.5114267642e+000	-1.7581181259e+000
 1.0403578434e+000	 1.5221923730e+000	-1.7476216091e+000
 1.0246838736e+000	 1.5327873374e+000	-1.7409448877e+000
 1.0089179828e+000	 1.5432104738e+000	-1.7377217956e+000
 1.1660515339e+000	 1.4362533970e+000	-1.9500878937e+000
 1.1511606171e+000	 1.4482158795e+000	-1.9036885929e+000
 1.1361558452e+000	 1.4600170874e+000	-1.8633465556e+000
 1.1210398302e+000	 1.4716554281e+000	-1.8287578512e+000
 1.1058152135e+000	 1.4831293651e+000	-1.7996062565e+000
 1.0904846636e+000	 1.4944374187e+000	-1.7755640262e+000
 1.0750508751e+000	 1.5055781667e+000	-1.7562926845e+000
 1.0595165667e+000	 1.5165502448e+000	-1.7414438340e+000
 1.0438844801e+000	 1.5273523471e+000	-1.7306599817e+000
 1.0281573783e+000	 1.5379832267e+000	-1.7235753783e+000
 1.0123380438e+000	 1.5484416958e+000	-1.7198168699e+000
 1.1699908971e+000	 1.4411056044e+000	-1.9312695087e+000
 1.1550496733e+000	 1.4531085007e+000	-1.8851989800e+000
 1.1399942095e+000	 1.4649495776e+000	-1.8451202287e+000
 1.1248271269e+000	 1.4766272370e+000	-1.8107216235e+000
 1.1095510757e+000	 1.4881399373e+000	-1.7816793018e+000
 1.0941687335e+000	 1.4994861938e+000	-1.7576579521e+000
 1.0786828037e+000	 1.5106645794e+000	-1.7383116165e+000
 1.0630960146e+000	 1.5216737253e+000	-1.7232845112e+000
 1.0474111169e+000	 1.5325123212e+000	-1.7122118641e+000
 1.0316308830e+000	 1.5431791159e+000	-1.7047207650e+000
 1.0157581047e+000	 1.5536729177e+000	-1.7004310279e+000
 1.1739302604e+000	 1.4459578118e+000	-1.9110450065e+000
 1.1589387294e+000	 1.4580011219e+000	-1.8652813775e+000
 1.1438325738e+000	 1.4698820677e+000	-1.8254471163e+000
 1.1286144237e+000	 1.4815990459e+000	-1.7912228634e+000
 1.1132869379e+000	 1.4931505094e+000	-1.7622770866e+000
 1.0978528033e+000	 1.5045349688e+000	-1.7382668754e+000
 1.0823147324e+000	 1.5157509921e+000	-1.7188387545e+000
 1.0666754624e+000	 1.5267972059e+000	-1.7036295168e+000
 1.0509377536e+000	 1.5376722954e+000	-1.6922670711e+000
 1.0351043876e+000	 1.5483750052e+000	-1.6843713045e+000
 1.0191781657e+000	 1.5589041396e+000	-1.6795549551e+000
 1.1778696237e+000	 1.4508100193e+000	-1.8894002349e+000
 1.1628277855e+000	 1.4628937431e+000	-1.8439221671e+000
 1.1476709382e+000	 1.4748145579e+000	-1.8043141234e+000
 1.1324017204e+000	 1.4865708547e+000	-1.7702489879e+000
 1.1170228001e+000	 1.4981610816e+000	-1.7413875286e+000
 1.1015368731e+000	 1.5095837439e+000	-1.7173792026e+000
 1.0859466610e+000	 1.5208374049e+000	-1.6978629821e+000
 1.0702549103e+000	 1.5319206864e+000	-1.6824681986e+000
 1.0544643904e+000	 1.5428322695e+000	-1.6708154022e+000
 1.0385778923e+000	 1.5535708945e+000	-1.6625172349e+000
 1.0225982267e+000	 1.5641353616e+000	-1.6571793150e+000
 1.1818089870e+000	 1.4556622267e+000	-1.8663210620e+000
 1.1667168417e+000	 1.4677863643e+000	-1.8211077458e+000
 1.1515093025e+000	 1.4797470480e+000	-1.7817081653e+000
 1.1361890171e+000	 1.4915426636e+000	-1.7477874200e+000
 1.1207586623e+000	 1.5031716538e+000	-1.7189985467e+000
 1.1052209429e+000	 1.5146325189e+000	-1.6949833373e+000
 1.0895785896e+000	 1.5259238176e+000	-1.6753731756e+000
 1.0738343581e+000	 1.5370441670e+000	-1.6597898935e+000
 1.0579910272e+000	 1.5479922437e+000	-1.6478466422e+000
 1.0420513969e+000	 1.5587667838e+000	-1.6391487763e+000
 1.0260182876e+000	 1.5693665835e+000	-1.6332947498e+000
 9.9181767803e-001	 1.5170543641e+000	-1.8053571337e+000
 9.7623138655e-001	 1.5271308162e+000	-1.7300023883e+000
 9.6056023608e-001	 1.5370362009e+000	-1.6603177258e+000
 9.4480700143e-001	 1.5467695304e+000	-1.5959413642e+000
 9.2897447052e-001	 1.5563298761e+000	-1.5365045687e+000
 9.1306544283e-001	 1.5657163687e+000	-1.4816325062e+000
 8.9708272787e-001	 1.5749281982e+000	-1.4309451007e+000
 8.8102914363e-001	 1.5839646139e+000	-1.3840578902e+000
 8.6490751501e-001	 1.5928249246e+000	-1.3405828809e+000
 8.4872067236e-001	 1.6015084983e+000	-1.3001293975e+000
 8.3247144989e-001	 1.6100147624e+000	-1.2623049280e+000
 9.9523773899e-001	 1.5222855860e+000	-1.7947178524e+000
 9.7959770168e-001	 1.5323967846e+000	-1.7186698475e+000
 9.6387251276e-001	 1.5423363257e+000	-1.6484760517e+000
 9.4806495661e-001	 1.5521032184e+000	-1.5837617054e+000
 9.3217783076e-001	 1.5616965308e+000	-1.5241450010e+000
 9.1621394436e-001	 1.5711153906e+000	-1.4692379556e+000
 9.0017611659e-001	 1.5803589850e+000	-1.4186472855e+000
 8.8406717516e-001	 1.5894265608e+000	-1.3719752809e+000
 8.6788995472e-001	 1.5983174243e+000	-1.3288206793e+000
 8.5164729537e-001	 1.6070309414e+000	-1.2887795336e+000
 8.3534204110e-001	 1.6155665374e+000	-1.2514460752e+000
 9.9865779995e-001	 1.5275168080e+000	-1.7826438904e+000
 9.8296401681e-001	 1.5376627529e+000	-1.7058504905e+000
 9.6718478944e-001	 1.5476364506e+000	-1.6350959378e+000
 9.5132291179e-001	 1.5574369064e+000	-1.5699924829e+000
 9.3538119101e-001	 1.5670631856e+000	-1.5101452325e+000
 9.1936244589e-001	 1.5765144126e+000	-1.4551530406e+000
 9.0326950531e-001	 1.5857897719e+000	-1.4046094016e+000
 8.8710520669e-001	 1.5948885078e+000	-1.3581033441e+000
 8.7087239443e-001	 1.6038099241e+000	-1.3152203221e+000
 8.5457391839e-001	 1.6125533845e+000	-1.2755431019e+000
 8.3821263231e-001	 1.6211183125e+000	-1.2386526429e+000
 1.0020778609e+000	 1.5327480299e+000	-1.7691260470e+000
 9.8633033194e-001	 1.5429287212e+000	-1.6915361302e+000
 9.7049706612e-001	 1.5529365754e+000	-1.6201702185e+000
 9.5458086697e-001	 1.5627705945e+000	-1.5546275599e+000
 9.3858455126e-001	 1.5724298403e+000	-1.4945001619e+000
 9.2251094742e-001	 1.5819134345e+000	-1.4393737011e+000
 9.0636289403e-001	 1.5912205588e+000	-1.3888284360e+000
 8.9014323823e-001	 1.6003504547e+000	-1.3424401184e+000
 8.7385483414e-001	 1.6093024238e+000	-1.2997809036e+000
 8.5750054140e-001	 1.6180758276e+000	-1.2604202558e+000
 8.4108322352e-001	 1.6266700875e+000	-1.2239258468e+000
 1.0054979219e+000	 1.5379792519e+000	-1.7541550979e+000
 9.8969664707e-001	 1.5481946896e+000	-1.6757185446e+000
 9.7380934280e-001	 1.5582367002e+000	-1.6036916821e+000
 9.5783882215e-001	 1.5681042825e+000	-1.5376607423e+000
 9.4178791150e-001	 1.5777964950e+000	-1.4772046190e+000
 9.2565944895e-001	 1.5873124565e+000	-1.4218957973e+000
 9.0945628275e-001	 1.5966513457e+000	-1.3713012842e+000
 8.9318126976e-001	 1.6058124017e+000	-1.3249835395e+000
 8.7683727385e-001	 1.6147949236e+000	-1.2825014040e+000
 8.6042716441e-001	 1.6235982707e+000	-1.2434110234e+000
 8.4395381473e-001	 1.6322218626e+000	-1.2072667655e+000
 1.0089179828e+000	 1.5432104738e+000	-1.7377217956e+000
 9.9306296220e-001	 1.5534606579e+000	-1.6583894777e+000
 9.7712161948e-001	 1.5635368251e+000	-1.5856530720e+000
 9.6109677733e-001	 1.5734379705e+000	-1.5190857796e+000
 9.4499127175e-001	 1.5831631498e+000	-1.4582533666e+000
 9.2880795048e-001	 1.5927114785e+000	-1.4027151108e+000
 9.1254967147e-001	 1.6020821326e+000	-1.3520247522e+000
 8.9621930129e-001	 1.6112743486e+000	-1.3057314423e+000
 8.7981971356e-001	 1.6202874233e+000	-1.2633806910e+000
 8.6335378742e-001	 1.6291207138e+000	-1.2245153089e+000
 8.4682440594e-001	 1.6377736376e+000	-1.1886763425e+000
 1.0123380438e+000	 1.5484416958e+000	-1.7198168699e+000
 9.9642927732e-001	 1.5587266262e+000	-1.6395406399e+000
 9.8043389616e-001	 1.5688369499e+000	-1.5660470867e+000
 9.6435473251e-001	 1.5787716586e+000	-1.4988963662e+000
 9.4819463199e-001	 1.5885298045e+000	-1.4376411009e+000
 9.3195645201e-001	 1.5981105004e+000	-1.3818273457e+000
 9.1564306019e-001	 1.6075129195e+000	-1.3309955574e+000
 8.9925733282e-001	 1.6167362956e+000	-1.2846815623e+000
 8.8280215327e-001	 1.6257799231e+000	-1.2424175222e+000
 8.6628041043e-001	 1.6346431569e+000	-1.2037328952e+000
 8.4969499715e-001	 1.6433254126e+000	-1.1681553891e+000
 1.0157581047e+000	 1.5536729177e+000	-1.7004310279e+000
 9.9979559245e-001	 1.5639925946e+000	-1.6191637085e+000
 9.8374617283e-001	 1.5741370747e+000	-1.5448663813e+000
 9.6761268769e-001	 1.5841053466e+000	-1.4770861420e+000
 9.5139799224e-001	 1.5938964593e+000	-1.4153624532e+000
 9.3510495354e-001	 1.6035095224e+000	-1.3592281306e+000
 9.1873644891e-001	 1.6129437064e+000	-1.3082103306e+000
 9.0229536435e-001	 1.6221982425e+000	-1.2618315371e+000
 8.8578459298e-001	 1.6312724228e+000	-1.2196105463e+000
 8.6920703344e-001	 1.6401656000e+000	-1.1810634456e+000
 8.5256558836e-001	 1.6488771877e+000	-1.1457045858e+000
 1.0191781657e+000	 1.5589041396e+000	-1.6795549551e+000
 1.0031619076e+000	 1.5692585629e+000	-1.5972503283e+000
 9.8705844951e-001	 1.5794371995e+000	-1.5221035681e+000
 9.7087064286e-001	 1.5894390347e+000	-1.4536486933e+000
 9.5460135248e-001	 1.5992631140e+000	-1.3914119905e+000
 9.3825345506e-001	 1.6089085444e+000	-1.3349130190e+000
 9.2182983762e-001	 1.6183744933e+000	-1.2836656172e+000
 9.0533339588e-001	 1.6276601895e+000	-1.2371789087e+000
 8.8876703269e-001	 1.6367649225e+000	-1.1949583056e+000
 8.7213365645e-001	 1.6456880431e+000	-1.1565065062e+000
 8.5543617956e-001	 1.6544289627e+000	-1.1213244853e+000
 1.0225982267e+000	 1.5641353616e+000	-1.6571793150e+000
 1.0065282227e+000	 1.5745245312e+000	-1.5737921124e+000
 9.9037072618e-001	 1.5847373244e+000	-1.4977512169e+000
 9.7412859804e-001	 1.5947727227e+000	-1.4285775540e+000
 9.5780471272e-001	 1.6046297688e+000	-1.3657842170e+000
 9.4140195659e-001	 1.6143075663e+000	-1.3088774912e+000
 9.2492322634e-001	 1.6238052802e+000	-1.2573578788e+000
 9.0837142741e-001	 1.6331221364e+000	-1.2107211245e+000
 8.9174947240e-001	 1.6422574223e+000	-1.1684592374e+000
 8.7506027946e-001	 1.6512104862e+000	-1.1300615074e+000
 8.5830677077e-001	 1.6599807378e+000	-1.0950155140e+000
 1.0260182876e+000	 1.5693665835e+000	-1.6332947498e+000
 1.0098945378e+000	 1.5797904996e+000	-1.5487806422e+000
 9.9368300285e-001	 1.5900374492e+000	-1.4718018560e+000
 9.7738655321e-001	 1.6001064107e+000	-1.4018662061e+000
 9.6100807296e-001	 1.6099964235e+000	-1.3384735750e+000
 9.4455045811e-001	 1.6197065883e+000	-1.2811169552e+000
 9.2801661506e-001	 1.6292360671e+000	-1.2292834944e+000
 9.1140945894e-001	 1.6385840834e+000	-1.1824555390e+000
 8.9473191210e-001	 1.6477499220e+000	-1.1401116757e+000
 8.7798690247e-001	 1.6567329293e+000	-1.1017277662e+000
 8.6117736198e-001	 1.6655325128e+000	-1.0667779746e+000
 8.3247144989e-001	 1.6100147624e+000	-1.2623049280e+000
 8.1616268421e-001	 1.6183432031e+000	-1.2330654835e+000
 7.9979721278e-001	 1.6264933656e+000	-1.2059336111e+000
 7.8337787248e-001	 1.6344648540e+000	-1.1805175831e+000
 7.6690749811e-001	 1.6422573304e+000	-1.1564268817e+000
 7.5038892094e-001	 1.6498705153e+000	-1.1332729854e+000
 7.3382496728e-001	 1.6573041867e+000	-1.1106701389e+000
 7.1721845703e-001	 1.6645581801e+000	-1.0882361051e+000
 7.0057220234e-001	 1.6716323876e+000	-1.0655928966e+000
 6.8388900619e-001	 1.6785267580e+000	-1.0423674869e+000
 6.6717166106e-001	 1.6852412957e+000	-1.0181924984e+000
 8.3534204110e-001	 1.6155665374e+000	-1.2514460752e+000
 8.1897703829e-001	 1.6239236969e+000	-1.2228465317e+000
 8.0255513420e-001	 1.6321019634e+000	-1.1963314343e+000
 7.8607917549e-001	 1.6401009397e+000	-1.1715109561e+000
 7.6955200673e-001	 1.6479202867e+000	-1.1479964770e+000
 7.5297646894e-001	 1.6555597240e+000	-1.1254013724e+000
 7.3635539819e-001	 1.6630190288e+000	-1.1033417850e+000
 7.1969162412e-001	 1.6702980359e+000	-1.0814373786e+000
 7.0298796855e-001	 1.6773966372e+000	-1.0593120719e+000
 6.8624724414e-001	 1.6843147813e+000	-1.0365947507e+000
 6.6947225300e-001	 1.6910524726e+000	-1.0129199581e+000
 8.3821263231e-001	 1.6211183125e+000	-1.2386526429e+000
 8.2179139238e-001	 1.6295041907e+000	-1.2108093009e+000
 8.0531305563e-001	 1.6377105612e+000	-1.1850279326e+000
 7.8878047850e-001	 1.6457370254e+000	-1.1609205191e+000
 7.7219651534e-001	 1.6535832430e+000	-1.1381002458e+000
 7.5556401695e-001	 1.6612489327e+000	-1.1161822932e+000
 7.3888582912e-001	 1.6687338708e+000	-1.0947846111e+000
 7.2216479121e-001	 1.6760378917e+000	-1.0735286738e+000
 7.0540373476e-001	 1.6831608868e+000	-1.0520402164e+000
 6.8860548209e-001	 1.6901028046e+000	-1.0299499486e+000
 6.7177284493e-001	 1.6968636494e+000	-1.0068942466e+000
 8.4108322352e-001	 1.6266700875e+000	-1.2239258468e+000
 8.2460574646e-001	 1.6350846845e+000	-1.1969543928e+000
 8.0807097705e-001	 1.6433191591e+000	-1.1720230922e+000
 7.9148178151e-001	 1.6513731111e+000	-1.1487456417e+000
 7.7484102395e-001	 1.6592461994e+000	-1.1267369403e+000
 7.5815156495e-001	 1.6669381413e+000	-1.1056138820e+000
 7.4141626004e-001	 1.6744487128e+000	-1.0849961324e+000
 7.2463795830e-001	 1.6817777475e+000	-1.0645068866e+000
 7.0781950098e-001	 1.6889251364e+000	-1.0437736064e+000
 6.9096372004e-001	 1.6958908279e+000	-1.0224287371e+000
 6.7407343686e-001	 1.7026748263e+000	-1.0001104006e+000
 8.4395381473e-001	 1.6322218626e+000	-1.2072667655e+000
 8.2742010055e-001	 1.6406651783e+000	-1.1812822831e+000
 8.1082889848e-001	 1.6489277569e+000	-1.1573167849e+000
 7.9418308452e-001	 1.6570091968e+000	-1.1349855908e+000
 7.7748553257e-001	 1.6649091557e+000	-1.1139052212e+000
 7.6073911296e-001	 1.6726273500e+000	-1.0936941925e+000
 7.4394669096e-001	 1.6801635548e+000	-1.0739737954e+000
 7.2711112540e-001	 1.6875176033e+000	-1.0543688554e+000
 7.1023526719e-001	 1.6946893861e+000	-1.0345084723e+000
 6.9332195800e-001	 1.7016788512e+000	-1.0140267383e+000
 6.7637402879e-001	 1.7084860032e+000	-9.9256343403e-001
 8.4682440594e-001	 1.6377736376e+000	-1.1886763425e+000
 8.3023445463e-001	 1.6462456721e+000	-1.1637933239e+000
 8.1358681990e-001	 1.6545363547e+000	-1.1409087699e+000
 7.9688438753e-001	 1.6626452825e+000	-1.1196395316e+000
 7.8013004119e-001	 1.6705721120e+000	-1.0996036591e+000
 7.6332666096e-001	 1.6783165587e+000	-1.0804211997e+000
 7.4647712188e-001	 1.6858783969e+000	-1.0617149789e+000
 7.2958429249e-001	 1.6932574591e+000	-1.0431113627e+000
 7.1265103341e-001	 1.7004536357e+000	-1.0242409995e+000
 6.9568019595e-001	 1.7074668745e+000	-1.0047395407e+000
 6.7867462073e-001	 1.7142971801e+000	-9.8424833831e-001
 8.4969499715e-001	 1.6433254126e+000	-1.1681553891e+000
 8.3304880872e-001	 1.6518261659e+000	-1.1444877455e+000
 8.1634474133e-001	 1.6601449525e+000	-1.1227986958e+000
 7.9958569054e-001	 1.6682813682e+000	-1.1027065298e+000
 7.8277454980e-001	 1.6762350683e+000	-1.0838307359e+000
 7.6591420897e-001	 1.6840057674e+000	-1.0657928013e+000
 7.4900755281e-001	 1.6915932389e+000	-1.0482169955e+000
 7.3205745959e-001	 1.6989973148e+000	-1.0307311353e+000
 7.1506679963e-001	 1.7062178853e+000	-1.0129673291e+000
 6.9803843390e-001	 1.7132548978e+000	-9.9456269953e-001
 6.8097521267e-001	 1.7201083570e+000	-9.7516008279e-001
 8.5256558836e-001	 1.6488771877e+000	-1.1457045858e+000
 8.3586316280e-001	 1.6574066597e+000	-1.1233656590e+000
 8.1910266275e-001	 1.6657535503e+000	-1.1029861024e+000
 8.0228699355e-001	 1.6739174539e+000	-1.0841855533e+000
 7.8541905842e-001	 1.6818980246e+000	-1.0665848466e+000
 7.6850175697e-001	 1.6896949760e+000	-1.0498068184e+000
 7.5153798373e-001	 1.6973080809e+000	-1.0334770921e+000
 7.3453062668e-001	 1.7047371706e+000	-1.0172248458e+000
 7.1748256584e-001	 1.7119821349e+000	-1.0006835590e+000
 7.0039667186e-001	 1.7190429211e+000	-9.8349173737e-001
 6.8327580460e-001	 1.7259195339e+000	-9.6529361511e-001
 8.5543617956e-001	 1.6544289627e+000	-1.1213244853e+000
 8.3867751689e-001	 1.6629871535e+000	-1.1004270574e+000
 8.2186058418e-001	 1.6713621481e+000	-1.0814704227e+000
 8.0498829656e-001	 1.6795535396e+000	-1.0640754736e+000
 7.8806356704e-001	 1.6875609809e+000	-1.0478643005e+000
 7.7108930498e-001	 1.6953841847e+000	-1.0324609975e+000
 7.5406841466e-001	 1.7030229229e+000	-1.0174924518e+000
 7.3700379378e-001	 1.7104770264e+000	-1.0025891133e+000
 7.1989833206e-001	 1.7177463845e+000	-9.8738574377e-001
 7.0275490981e-001	 1.7248309444e+000	-9.7152214483e-001
 6.8557639654e-001	 1.7317307107e+000	-9.5464386153e-001
 8.5830677077e-001	 1.6599807378e+000	-1.0950155140e+000
 8.4149187098e-001	 1.6685676473e+000	-1.0756718186e+000
 8.2461850561e-001	 1.6769707460e+000	-1.0582509843e+000
 8.0768959958e-001	 1.6851896253e+000	-1.0423750675e+000
 7.9070807566e-001	 1.6932239372e+000	-1.0276673226e+000
 7.7367685299e-001	 1.7010733934e+000	-1.0137530113e+000
 7.5659884558e-001	 1.7087377650e+000	-1.0002601943e+000
 7.3947696088e-001	 1.7162168822e+000	-9.8682050405e-001
 7.2231409828e-001	 1.7235106341e+000	-9.7306989638e-001
 7.0511314777e-001	 1.7306189677e+000	-9.5864938096e-001
 6.8787698848e-001	 1.7375418876e+000	-9.4320572736e-001
 8.6117736198e-001	 1.6655325128e+000	-1.0667779746e+000
 8.4430622506e-001	 1.6741481411e+000	-1.0490997064e+000
 8.2737642703e-001	 1.6825793438e+000	-1.0333270116e+000
 8.1039090259e-001	 1.6908257110e+000	-1.0190830187e+000
 7.9335258428e-001	 1.6988868936e+000	-1.0059920553e+000
 7.7626440100e-001	 1.7067626021e+000	-9.9368046003e-001
 7.5912927651e-001	 1.7144526070e+000	-9.8177737734e-001
 7.4195012798e-001	 1.7219567380e+000	-9.6991553286e-001
 7.2472986450e-001	 1.7292748837e+000	-9.5773198826e-001
 7.0747138573e-001	 1.7364069910e+000	-9.4486887380e-001
 6.9017758042e-001	 1.7433530645e+000	-9.3097409724e-001
 6.6717166106e-001	 1.6852412957e+000	-1.0181924984e+000
 6.5042294759e-001	 1.6917760606e+000	-9.1179339847e-001
 6.3364563326e-001	 1.6981311673e+000	-8.0547887474e-001
 6.1684247115e-001	 1.7043067845e+000	-7.6048536385e-001
 6.0001619868e-001	 1.7103031343e+000	-7.7875745691e-001
 5.8316953635e-001	 1.7161204916e+000	-7.9443865648e-001
 5.6630518659e-001	 1.7217591834e+000	-8.0727891639e-001
 5.4942583257e-001	 1.7272195878e+000	-8.1704907630e-001
 5.3253413709e-001	 1.7325021336e+000	-8.2354138179e-001
 5.1563274145e-001	 1.7376072991e+000	-8.2656994339e-001
 4.9872426439e-001	 1.7425356117e+000	-8.2597113436e-001
 6.6947225300e-001	 1.6910524726e+000	-1.0129199581e+000
 6.5266578533e-001	 1.6976097712e+000	-9.1002587897e-001
 6.3583061820e-001	 1.7039867920e+000	-8.0706960699e-001
 6.1896951415e-001	 1.7101837045e+000	-7.4887754457e-001
 6.0208522005e-001	 1.7162007313e+000	-7.6956143002e-001
 5.8518046578e-001	 1.7220381485e+000	-7.8740550631e-001
 5.6825796309e-001	 1.7276962840e+000	-8.0215322348e-001
 5.5132040440e-001	 1.7331755174e+000	-8.1356935773e-001
 5.3437046170e-001	 1.7384762789e+000	-8.2144053740e-001
 5.1741078538e-001	 1.7435990484e+000	-8.2557570685e-001
 5.0044400323e-001	 1.7485443552e+000	-8.2580652831e-001
 6.7177284493e-001	 1.6968636494e+000	-1.0068942466e+000
 6.5490862308e-001	 1.7034434817e+000	-9.0754095227e-001
 6.3801560314e-001	 1.7098424167e+000	-8.0797955087e-001
 6.2109655715e-001	 1.7160606244e+000	-7.3692451275e-001
 6.0415424142e-001	 1.7220983284e+000	-7.6007542455e-001
 5.8719139521e-001	 1.7279558054e+000	-7.8013736112e-001
 5.7021073959e-001	 1.7336333847e+000	-7.9684717455e-001
 5.5321497623e-001	 1.7391314470e+000	-8.0996348591e-001
 5.3620678630e-001	 1.7444504241e+000	-8.1926721713e-001
 5.1918882931e-001	 1.7495907977e+000	-8.2456205992e-001
 5.0216374207e-001	 1.7545530987e+000	-8.2567488169e-001
 6.7407343686e-001	 1.7026748263e+000	-1.0001104006e+000
 6.5715146083e-001	 1.7092771923e+000	-9.0433388516e-001
 6.4020058808e-001	 1.7156980415e+000	-8.0820419234e-001
 6.2322360016e-001	 1.7219375444e+000	-7.2461639648e-001
 6.0622326279e-001	 1.7279959254e+000	-7.5029001666e-001
 5.8920232464e-001	 1.7338734622e+000	-7.7262523007e-001
 5.7216351609e-001	 1.7395704853e+000	-7.9135219637e-001
 5.5510954807e-001	 1.7450873766e+000	-8.0622328946e-001
 5.3804311091e-001	 1.7504245694e+000	-8.1701363544e-001
 5.2096687325e-001	 1.7555825470e+000	-8.2352158659e-001
 5.0388348091e-001	 1.7605618422e+000	-8.2556913145e-001
 6.7637402879e-001	 1.7084860032e+000	-9.9256343403e-001
 6.5939429858e-001	 1.7151109028e+000	-9.0039992146e-001
 6.4238557302e-001	 1.7215536662e+000	-8.0773899443e-001
 6.2535064316e-001	 1.7278144643e+000	-7.1448366442e-001
 6.0829228417e-001	 1.7338935224e+000	-7.4019576007e-001
 5.9121325408e-001	 1.7397911191e+000	-7.6486010032e-001
 5.7411629260e-001	 1.7455075859e+000	-7.8565969424e-001
 5.5700411990e-001	 1.7510433062e+000	-8.0234057625e-001
 5.3987943552e-001	 1.7563987147e+000	-8.1467198688e-001
 5.2274491718e-001	 1.7615742963e+000	-8.2244685189e-001
 5.0560321976e-001	 1.7665705857e+000	-8.2548219666e-001
 6.7867462073e-001	 1.7142971801e+000	-9.8424833831e-001
 6.6163713633e-001	 1.7209446134e+000	-8.9573428246e-001
 6.4457055796e-001	 1.7274092909e+000	-8.0657939764e-001
 6.2747768616e-001	 1.7336913842e+000	-7.1668279207e-001
 6.1036130554e-001	 1.7397911194e+000	-7.2978318644e-001
 5.9322418351e-001	 1.7457087760e+000	-7.5683293737e-001
 5.7606906910e-001	 1.7514446866e+000	-7.7976105237e-001
 5.5889869174e-001	 1.7569992359e+000	-7.9830713375e-001
 5.4171576013e-001	 1.7623728600e+000	-8.1223444638e-001
 5.2452296112e-001	 1.7675660456e+000	-8.2133040219e-001
 5.0732295860e-001	 1.7725793291e+000	-8.2540697880e-001
 6.8097521267e-001	 1.7201083570e+000	-9.7516008279e-001
 6.6387997408e-001	 1.7267783239e+000	-8.9033216722e-001
 6.4675554290e-001	 1.7332649156e+000	-8.0472082032e-001
 6.2960472917e-001	 1.7395683042e+000	-7.1822119209e-001
 6.1243032692e-001	 1.7456887164e+000	-7.1904280570e-001
 5.9523511295e-001	 1.7516264328e+000	-7.4853468544e-001
 5.7802184561e-001	 1.7573817872e+000	-7.7364763426e-001
 5.6079326358e-001	 1.7629551655e+000	-7.9411472936e-001
 5.4355208474e-001	 1.7683470053e+000	-8.0969316964e-001
 5.2630100506e-001	 1.7735577949e+000	-8.2016476552e-001
 5.0904269744e-001	 1.7785880726e+000	-8.2533636205e-001
 6.8327580460e-001	 1.7259195339e+000	-9.6529361511e-001
 6.6612281183e-001	 1.7326120345e+000	-8.8418875301e-001
 6.4894052785e-001	 1.7391205403e+000	-8.0215865903e-001
 6.3173177217e-001	 1.7454452241e+000	-7.1909446987e-001
 6.1449934829e-001	 1.7515863134e+000	-7.0796510646e-001
 5.9724604239e-001	 1.7575440897e+000	-7.3995626782e-001
 5.7997462211e-001	 1.7633188878e+000	-7.6731078300e-001
 5.6268783541e-001	 1.7689110951e+000	-7.8975511077e-001
 5.4538840935e-001	 1.7743211506e+000	-8.0704029339e-001
 5.2807904899e-001	 1.7795495443e+000	-8.1894245188e-001
 5.1076243629e-001	 1.7845968161e+000	-8.2526321359e-001
 6.8557639654e-001	 1.7317307107e+000	-9.5464386153e-001
 6.6836564959e-001	 1.7384457450e+000	-8.7729919565e-001
 6.5112551279e-001	 1.7449761650e+000	-7.9888828891e-001
 6.3385881518e-001	 1.7513221441e+000	-7.1929820951e-001
 6.1656836967e-001	 1.7574839104e+000	-6.9654055635e-001
 5.9925697182e-001	 1.7634617466e+000	-7.3108858725e-001
 5.8192739862e-001	 1.7692559885e+000	-7.6074182164e-001
 5.6458240725e-001	 1.7748670247e+000	-7.8522000626e-001
 5.4722473397e-001	 1.7802952959e+000	-8.0426793578e-001
 5.2985709293e-001	 1.7855412936e+000	-8.1765595356e-001
 5.1248217513e-001	 1.7906055596e+000	-8.2518038389e-001
 6.8787698848e-001	 1.7375418876e+000	-9.4320572736e-001
 6.7060848734e-001	 1.7442794556e+000	-8.6965862987e-001
 6.5331049774e-001	 1.7508317898e+000	-7.9490506405e-001
 6.3598585819e-001	 1.7571990640e+000	-7.1882797423e-001
 6.1863739105e-001	 1.7633815075e+000	-6.8475960235e-001
 6.0126790126e-001	 1.7693794035e+000	-7.2192252622e-001
 5.8388017513e-001	 1.7751930891e+000	-7.5393205353e-001
 5.6647697909e-001	 1.7808229543e+000	-7.8050112506e-001
 5.4906105858e-001	 1.7862694412e+000	-8.0136819661e-001
 5.3163513687e-001	 1.7915330429e+000	-8.1629774541e-001
 5.1420191397e-001	 1.7966143031e+000	-8.2508070698e-001
 6.9017758042e-001	 1.7433530645e+000	-9.3097409724e-001
 6.7285132510e-001	 1.7501131661e+000	-8.6126216967e-001
 6.5549548268e-001	 1.7566874145e+000	-7.9020431782e-001
 6.3811290120e-001	 1.7630759840e+000	-7.1767930667e-001
 6.2070641243e-001	 1.7692791045e+000	-6.7261267120e-001
 6.0327883070e-001	 1.7752970603e+000	-7.1244894733e-001
 5.8583295164e-001	 1.7811301897e+000	-7.4687276263e-001
 5.6837155093e-001	 1.7867788839e+000	-7.7559015764e-001
 5.5089738319e-001	 1.7922435864e+000	-7.9833315771e-001
 5.3341318081e-001	 1.7975247922e+000	-8.1486028512e-001
 5.1592165282e-001	 1.8026230466e+000	-8.2495700074e-001
 4.9872426439e-001	 1.7425356117e+000	-8.2597113436e-001
 4.8181130107e-001	 1.7472876466e+000	-8.2961492016e-001
 4.6489642202e-001	 1.7518640263e+000	-8.3131805703e-001
 4.4798217224e-001	 1.7562654194e+000	-8.3089060764e-001
 4.3107107016e-001	 1.7604925397e+000	-8.2816570820e-001
 4.1416560684e-001	 1.7645461456e+000	-8.2299976281e-001
 3.9726824505e-001	 1.7684270388e+000	-8.1527257851e-001
 3.8038141841e-001	 1.7721360632e+000	-8.0488744187e-001
 3.6350753064e-001	 1.7756741044e+000	-7.9177113854e-001
 3.4664895480e-001	 1.7790420884e+000	-7.7587391677e-001
 3.2980803249e-001	 1.7822409803e+000	-7.5716939662e-001
 5.0044400323e-001	 1.7485443552e+000	-8.2580652831e-001
 4.8347271934e-001	 1.7533127765e+000	-8.2916968812e-001
 4.6649951313e-001	 1.7579049368e+000	-8.3060238210e-001
 4.4952693835e-001	 1.7623215070e+000	-8.2990427263e-001
 4.3255752213e-001	 1.7665632037e+000	-8.2689840518e-001
 4.1559376411e-001	 1.7706307875e+000	-8.2143141211e-001
 3.9863813555e-001	 1.7745250630e+000	-8.1337365631e-001
 3.8169307847e-001	 1.7782468772e+000	-8.0261931560e-001
 3.6476100489e-001	 1.7817971186e+000	-7.8908640911e-001
 3.4784429602e-001	 1.7851767162e+000	-7.7271676699e-001
 3.3094530157e-001	 1.7883866388e+000	-7.5347594476e-001
 5.0216374207e-001	 1.7545530987e+000	-8.2567488169e-001
 4.8513413762e-001	 1.7593379063e+000	-8.2875451960e-001
 4.6810260424e-001	 1.7639458472e+000	-8.2991114007e-001
 4.5107170446e-001	 1.7683775947e+000	-8.2893396870e-001
 4.3404397409e-001	 1.7726338676e+000	-8.2563592731e-001
 4.1702192138e-001	 1.7767154294e+000	-8.1985384724e-001
 4.0000802605e-001	 1.7806230873e+000	-8.1144862159e-001
 3.8300473854e-001	 1.7843576912e+000	-8.0030529733e-001
 3.6601447914e-001	 1.7879201327e+000	-7.8633310867e-001
 3.4903963725e-001	 1.7913113441e+000	-7.6946545275e-001
 3.3208257065e-001	 1.7945322974e+000	-7.4965980930e-001
 5.0388348091e-001	 1.7605618422e+000	-8.2556913145e-001
 4.8679555590e-001	 1.7653630361e+000	-8.2836324558e-001
 4.6970569535e-001	 1.7699867576e+000	-8.2923905818e-001
 4.5261647057e-001	 1.7744336823e+000	-8.2797532092e-001
 4.3553042606e-001	 1.7787045315e+000	-8.2437479849e-001
 4.1845007864e-001	 1.7828000713e+000	-8.1826449136e-001
 4.0137791655e-001	 1.7867211116e+000	-8.0949579656e-001
 3.8431639860e-001	 1.7904685052e+000	-7.9794460765e-001
 3.6726795338e-001	 1.7940431469e+000	-7.8351135488e-001
 3.5023497848e-001	 1.7974459720e+000	-7.6612098702e-001
 3.3321983974e-001	 1.8006779559e+000	-7.4572289618e-001
 5.0560321976e-001	 1.7665705857e+000	-8.2548219666e-001
 4.8845697418e-001	 1.7713881659e+000	-8.2798967280e-001
 4.7130878647e-001	 1.7760276681e+000	-8.2858083287e-001
 4.5416123668e-001	 1.7804897700e+000	-8.2702391691e-001
 4.3701687803e-001	 1.7847751954e+000	-8.2311149841e-001
 4.1987823591e-001	 1.7888847132e+000	-8.1666071645e-001
 4.0274780705e-001	 1.7928191358e+000	-8.0751344526e-001
 3.8562805867e-001	 1.7965793192e+000	-7.9553640179e-001
 3.6852142763e-001	 1.8001661610e+000	-7.8062119282e-001
 3.5143031970e-001	 1.8035805999e+000	-7.6268430280e-001
 3.3435710882e-001	 1.8068236145e+000	-7.4166702390e-001
 5.0732295860e-001	 1.7725793291e+000	-8.2540697880e-001
 4.9011839246e-001	 1.7774132957e+000	-8.2762758412e-001
 4.7291187758e-001	 1.7820685785e+000	-8.2793113032e-001
 4.5570600279e-001	 1.7865458576e+000	-8.2607530750e-001
 4.3850333000e-001	 1.7908458594e+000	-8.2184246323e-001
 4.2130639318e-001	 1.7949693550e+000	-8.1503984425e-001
 4.0411769756e-001	 1.7989171601e+000	-8.0549977455e-001
 3.8693971873e-001	 1.8026901332e+000	-7.9307977079e-001
 3.6977490188e-001	 1.8062891752e+000	-7.7766259620e-001
 3.5262566093e-001	 1.8097152278e+000	-7.5915625448e-001
 3.3549437790e-001	 1.8129692730e+000	-7.3749392500e-001
 5.0904269744e-001	 1.7785880726e+000	-8.2533636205e-001
 4.9177981074e-001	 1.7834384255e+000	-8.2727073894e-001
 4.7451496869e-001	 1.7881094889e+000	-8.2728458694e-001
 4.5725076891e-001	 1.7926019453e+000	-8.2512500730e-001
 4.3998978196e-001	 1.7969165233e+000	-8.2056408640e-001
 4.2273455044e-001	 1.8010539969e+000	-8.1339914703e-001
 4.0548758806e-001	 1.8050151844e+000	-8.0345293506e-001
 3.8825137880e-001	 1.8088009473e+000	-7.9057374254e-001
 3.7102837612e-001	 1.8124121893e+000	-7.7463546859e-001
 3.5382100216e-001	 1.8158498557e+000	-7.5553761917e-001
 3.3663164698e-001	 1.8191149316e+000	-7.3320524751e-001
 5.1076243629e-001	 1.7845968161e+000	-8.2526321359e-001
 4.9344122902e-001	 1.7894635554e+000	-8.2691287360e-001
 4.7611805980e-001	 1.7941503994e+000	-8.2663580990e-001
 4.5879553502e-001	 1.7986580329e+000	-8.2416849535e-001
 4.4147623393e-001	 1.8029871872e+000	-8.1927271932e-001
 4.2416270771e-001	 1.8071386388e+000	-8.1173584850e-001
 4.0685747856e-001	 1.8111132087e+000	-8.0137102213e-001
 3.8956303886e-001	 1.8149117613e+000	-7.8801728288e-001
 3.7228185037e-001	 1.8185352035e+000	-7.7153964458e-001
 3.5501634338e-001	 1.8219844836e+000	-7.5182909801e-001
 3.3776891605e-001	 1.8252605901e+000	-7.2880255638e-001
 5.1248217513e-001	 1.7906055596e+000	-8.2518038389e-001
 4.9510264730e-001	 1.7954886852e+000	-8.2654770176e-001
 4.7772115091e-001	 1.8001913098e+000	-8.2597937757e-001
 4.6034030113e-001	 1.8047141206e+000	-8.2320121570e-001
 4.4296268590e-001	 1.8090578512e+000	-8.1796467209e-001
 4.2559086498e-001	 1.8132232807e+000	-8.1004712459e-001
 4.0822736906e-001	 1.8172112329e+000	-7.9925207677e-001
 3.9087469893e-001	 1.8210225753e+000	-7.8540929660e-001
 3.7353532461e-001	 1.8246582176e+000	-7.6837489095e-001
 3.5621168461e-001	 1.8281191115e+000	-7.4803131741e-001
 3.3890618513e-001	 1.8314062487e+000	-7.2428733485e-001
 5.1420191397e-001	 1.7966143031e+000	-8.2508070698e-001
 4.9676406559e-001	 1.8015138150e+000	-8.2616891479e-001
 4.7932424202e-001	 1.8062322202e+000	-8.2530984006e-001
 4.6188506724e-001	 1.8107702083e+000	-8.2221857800e-001
 4.4444913787e-001	 1.8151285151e+000	-8.1663621417e-001
 4.2701902224e-001	 1.8193079226e+000	-8.0833010423e-001
 4.0959725956e-001	 1.8233092572e+000	-7.9709408655e-001
 3.9218635899e-001	 1.8271333893e+000	-7.8274862849e-001
 3.7478879886e-001	 1.8307812318e+000	-7.6514090780e-001
 3.5740702583e-001	 1.8342537394e+000	-7.4414483034e-001
 3.4004345421e-001	 1.8375519072e+000	-7.1966098583e-001
 5.1592165282e-001	 1.8026230466e+000	-8.2495700074e-001
 4.9842548387e-001	 1.8075389448e+000	-8.2577018212e-001
 4.8092733314e-001	 1.8122731307e+000	-8.2462171964e-001
 4.6342983336e-001	 1.8168262959e+000	-8.2121595809e-001
 4.4593558983e-001	 1.8211991790e+000	-8.1528357504e-001
 4.2844717951e-001	 1.8253925644e+000	-8.0658187017e-001
 4.1096715006e-001	 1.8294072815e+000	-7.9489498648e-001
 3.9349801906e-001	 1.8332442033e+000	-7.8003406433e-001
 3.7604227310e-001	 1.8369042460e+000	-7.6183732963e-001
 3.5860236705e-001	 1.8403883673e+000	-7.4017011755e-001
 3.4118072329e-001	 1.8436975658e+000	-7.1492483327e-001
 3.2980803249e-001	 1.7822409803e+000	-7.5716939662e-001
 3.1298707324e-001	 1.7852717838e+000	-7.4984406334e-001
 2.9618835380e-001	 1.7881355399e+000	-7.4245734947e-001
 2.7941411755e-001	 1.7908333258e+000	-7.3499998160e-001
 2.6266657386e-001	 1.7933662540e+000	-7.2748368345e-001
 2.4594789760e-001	 1.7957354710e+000	-7.1994091888e-001
 2.2926022860e-001	 1.7979421564e+000	-7.1242459092e-001
 2.1260567113e-001	 1.7999875218e+000	-7.0500769884e-001
 1.9598629351e-001	 1.8018728098e+000	-6.9778295521e-001
 1.7940412766e-001	 1.8035992928e+000	-6.9086236493e-001
 1.6286116871e-001	 1.8051682719e+000	-6.8437676845e-001
 3.3094530157e-001	 1.7883866388e+000	-7.5347594476e-001
 3.1406633902e-001	 1.7914278934e+000	-7.4559166509e-001
 2.9720969296e-001	 1.7943015245e+000	-7.3804959933e-001
 2.8037761451e-001	 1.7970086132e+000	-7.3084558457e-001
 2.6357232067e-001	 1.7995502756e+000	-7.2399617454e-001
 2.4679599381e-001	 1.8019276622e+000	-7.1753838589e-001
 2.3005078111e-001	 1.8041419569e+000	-7.1152940050e-001
 2.1333879414e-001	 1.8061943753e+000	-7.0604622581e-001
 1.9666210832e-001	 1.8080861643e+000	-7.0118531514e-001
 1.8002276258e-001	 1.8098186007e+000	-6.9706215005e-001
 1.6342275895e-001	 1.8113929900e+000	-6.9381078675e-001
 3.3208257065e-001	 1.7945322974e+000	-7.4965980930e-001
 3.1514560479e-001	 1.7975840030e+000	-7.4140361505e-001
 2.9823103212e-001	 1.8004675091e+000	-7.3388637488e-001
 2.8134111147e-001	 1.8031839005e+000	-7.2710898275e-001
 2.6447806748e-001	 1.8057342971e+000	-7.2109277518e-001
 2.4764409001e-001	 1.8081198535e+000	-7.1587928075e-001
 2.3084133363e-001	 1.8103417574e+000	-7.1152992558e-001
 2.1407191715e-001	 1.8124012288e+000	-7.0812569690e-001
 1.9733792313e-001	 1.8142995189e+000	-7.0576676651e-001
 1.8064139751e-001	 1.8160379086e+000	-7.0457207636e-001
 1.6398434919e-001	 1.8176177082e+000	-7.0467888815e-001
 3.3321983974e-001	 1.8006779559e+000	-7.4572289618e-001
 3.1622487056e-001	 1.8037401126e+000	-7.3728047228e-001
 2.9925237127e-001	 1.8066334938e+000	-7.2996692512e-001
 2.8230460843e-001	 1.8093591878e+000	-7.2378815192e-001
 2.6538381429e-001	 1.8119183187e+000	-7.1877022484e-001
 2.4849218621e-001	 1.8143120448e+000	-7.1495914355e-001
 2.3163188615e-001	 1.8165415580e+000	-7.1242054386e-001
 2.1480504015e-001	 1.8186080824e+000	-7.1123936437e-001
 1.9801373794e-001	 1.8205128734e+000	-7.1151947310e-001
 1.8126003244e-001	 1.8222572165e+000	-7.1338325612e-001
 1.6454593943e-001	 1.8238424264e+000	-7.1697117023e-001
 3.3435710882e-001	 1.8068236145e+000	-7.4166702390e-001
 3.1730413634e-001	 1.8098962222e+000	-7.3322273129e-001
 3.0027371043e-001	 1.8127994784e+000	-7.2629045664e-001
 2.8326810539e-001	 1.8155344751e+000	-7.2088104702e-001
 2.6628956110e-001	 1.8181023403e+000	-7.1702526307e-001
 2.4934028242e-001	 1.8205042361e+000	-7.1477353475e-001
 2.3242243866e-001	 1.8227413585e+000	-7.1419567298e-001
 2.1553816316e-001	 1.8248149359e+000	-7.1538053939e-001
 1.9868955275e-001	 1.8267262279e+000	-7.1843567590e-001
 1.8187866736e-001	 1.8284765244e+000	-7.2348689639e-001
 1.6510752967e-001	 1.8300671446e+000	-7.3067784240e-001
 3.3549437790e-001	 1.8129692730e+000	-7.3749392500e-001
 3.1838340211e-001	 1.8160523318e+000	-7.2923082303e-001
 3.0129504958e-001	 1.8189654630e+000	-7.2285613441e-001
 2.8423160235e-001	 1.8217097625e+000	-7.1838560254e-001
 2.6719530791e-001	 1.8242863618e+000	-7.1585462952e-001
 2.5018837862e-001	 1.8266964273e+000	-7.1531803479e-001
 2.3321299118e-001	 1.8289411590e+000	-7.1684976989e-001
 2.1627128617e-001	 1.8310217894e+000	-7.2054259104e-001
 1.9936536755e-001	 1.8329395824e+000	-7.2650769177e-001
 1.8249730229e-001	 1.8346958323e+000	-7.3487429747e-001
 1.6566911991e-001	 1.8362918628e+000	-7.4578922394e-001
 3.3663164698e-001	 1.8191149316e+000	-7.3320524751e-001
 3.1946266788e-001	 1.8222084414e+000	-7.2530511609e-001
 3.0231638873e-001	 1.8251314476e+000	-7.1966308240e-001
 2.8519509931e-001	 1.8278850498e+000	-7.1629973284e-001
 2.6810105472e-001	 1.8304703834e+000	-7.1525506391e-001
 2.5103647482e-001	 1.8328886186e+000	-7.1658824381e-001
 2.3400354369e-001	 1.8351409596e+000	-7.2037733012e-001
 2.1700440917e-001	 1.8372286429e+000	-7.2671894531e-001
 2.0004118236e-001	 1.8391529369e+000	-7.3572791220e-001
 1.8311593721e-001	 1.8409151402e+000	-7.4753685130e-001
 1.6623071015e-001	 1.8425165809e+000	-7.6229574220e-001
 3.3776891605e-001	 1.8252605901e+000	-7.2880255638e-001
 3.2054193365e-001	 1.8283645510e+000	-7.2144591763e-001
 3.0333772789e-001	 1.8312974322e+000	-7.1671038432e-001
 2.8615859627e-001	 1.8340603371e+000	-7.1462133250e-001
 2.6900680153e-001	 1.8366544049e+000	-7.1522330606e-001
 2.5188457102e-001	 1.8390808099e+000	-7.1857978125e-001
 2.3479409621e-001	 1.8413407601e+000	-7.2477288719e-001
 2.1773753218e-001	 1.8434354964e+000	-7.3390308419e-001
 2.0071699717e-001	 1.8453662914e+000	-7.4608880201e-001
 1.8373457213e-001	 1.8471344481e+000	-7.6146603991e-001
 1.6679230039e-001	 1.8487412991e+000	-7.8018793076e-001
 3.3890618513e-001	 1.8314062487e+000	-7.2428733485e-001
 3.2162119942e-001	 1.8345206606e+000	-7.1765347449e-001
 3.0435906704e-001	 1.8374634169e+000	-7.1399708429e-001
 2.8712209323e-001	 1.8402356245e+000	-7.1334827664e-001
 2.6991254834e-001	 1.8428384265e+000	-7.1575609588e-001
 2.5273266722e-001	 1.8452730012e+000	-7.2128828560e-001
 2.3558464872e-001	 1.8475405607e+000	-7.3003101193e-001
 2.1847065518e-001	 1.8496423500e+000	-7.4208854467e-001
 2.0139281197e-001	 1.8515796459e+000	-7.5758289814e-001
 1.8435320706e-001	 1.8533537560e+000	-7.7665343393e-001
 1.6735389062e-001	 1.8549660173e+000	-7.9945642765e-001
 3.4004345421e-001	 1.8375519072e+000	-7.1966098583e-001
 3.2270046519e-001	 1.8406767702e+000	-7.1392797419e-001
 3.0538040619e-001	 1.8436294015e+000	-7.1152218749e-001
 2.8808559019e-001	 1.8464109118e+000	-7.1247842126e-001
 2.7081829514e-001	 1.8490224481e+000	-7.1685017335e-001
 2.5358076342e-001	 1.8514651925e+000	-7.2470941400e-001
 2.3637520123e-001	 1.8537403612e+000	-7.3614631190e-001
 2.1920377819e-001	 1.8558492035e+000	-7.5126891787e-001
 2.0206862678e-001	 1.8577930005e+000	-7.7020280843e-001
 1.8497184198e-001	 1.8595730640e+000	-7.9309069110e-001
 1.6791548086e-001	 1.8611907355e+000	-8.2009197357e-001
 3.4118072329e-001	 1.8436975658e+000	-7.1492483327e-001
 3.2377973096e-001	 1.8468328798e+000	-7.1026954588e-001
 3.0640174534e-001	 1.8497953861e+000	-7.0928466081e-001
 2.8904908714e-001	 1.8525861991e+000	-7.1200960355e-001
 2.7172404195e-001	 1.8552064696e+000	-7.1850227853e-001
 2.5442885961e-001	 1.8576573837e+000	-7.2883884202e-001
 2.3716575374e-001	 1.8599401617e+000	-7.4311343071e-001
 2.1993690119e-001	 1.8620560570e+000	-7.6143784808e-001
 2.0274444158e-001	 1.8640063550e+000	-7.8394121048e-001
 1.8559047690e-001	 1.8657923719e+000	-8.1076955482e-001
 1.6847707110e-001	 1.8674154536e+000	-8.4208541025e-001
 1.6286116871e-001	 1.8051682719e+000	-6.8437676845e-001
 1.4635937471e-001	 1.8065810758e+000	-6.6555937442e-001
 1.2990066622e-001	 1.8078390600e+000	-6.4574726092e-001
 1.1348692612e-001	 1.8089436054e+000	-6.2490923288e-001
 9.7119999328e-002	 1.8098961174e+000	-6.0303705787e-001
 8.0801692547e-002	 1.8106980247e+000	-5.8014491357e-001
 6.4533774129e-002	 1.8113507783e+000	-5.5626880349e-001
 4.8317973888e-002	 1.8118558506e+000	-5.3146594348e-001
 3.2155982987e-002	 1.8122147342e+000	-5.0581412123e-001
 1.6049453830e-002	 1.8124289407e+000	-4.7941103125e-001
 0.0000000000e+000	 1.8125000000e+000	-4.5237358746e-001
 1.6342275895e-001	 1.8113929900e+000	-6.9381078675e-001
 1.4686406221e-001	 1.8128106657e+000	-6.7510560781e-001
 1.3034859955e-001	 1.8140729878e+000	-6.5546527791e-001
 1.1387826035e-001	 1.8151813420e+000	-6.3485691429e-001
 9.7454895879e-002	 1.8161371385e+000	-6.1327076939e-001
 8.1080319074e-002	 1.8169418109e+000	-5.9071967573e-001
 6.4756304385e-002	 1.8175968155e+000	-5.6723845879e-001
 4.8484587592e-002	 1.8181036294e+000	-5.4288332024e-001
 3.2266865687e-002	 1.8184637505e+000	-5.1773119404e-001
 1.6104796774e-002	 1.8186786957e+000	-4.9187907758e-001
 0.0000000000e+000	 1.8187500000e+000	-4.6544334025e-001
 1.6398434919e-001	 1.8176177082e+000	-7.0467888815e-001
 1.4736874971e-001	 1.8190402556e+000	-6.8609284007e-001
 1.3079653289e-001	 1.8203069156e+000	-6.6662714880e-001
 1.1426959458e-001	 1.8214190786e+000	-6.4624726151e-001
 9.7789792429e-002	 1.8223781596e+000	-6.2494193678e-001
 8.1358945601e-002	 1.8231855972e+000	-6.0272268680e-001
 6.4978834640e-002	 1.8238428526e+000	-5.7962318723e-001
 4.8651201295e-002	 1.8243514082e+000	-5.5569865723e-001
 3.2377748387e-002	 1.8247127668e+000	-5.3102521184e-001
 1.6160139718e-002	 1.8249284506e+000	-5.0569918933e-001
 0.0000000000e+000	 1.8250000000e+000	-4.7983645560e-001
 1.6454593943e-001	 1.8238424264e+000	-7.1697117023e-001
 1.4787343721e-001	 1.8252698455e+000	-6.9851131638e-001
 1.3124446622e-001	 1.8265408434e+000	-6.7922327189e-001
 1.1466092881e-001	 1.8276568151e+000	-6.5907083131e-001
 9.8124688979e-002	 1.8286191807e+000	-6.3804128044e-001
 8.1637572127e-002	 1.8294293835e+000	-6.1614483576e-001
 6.5201364896e-002	 1.8300888898e+000	-5.9341405124e-001
 4.8817814998e-002	 1.8305991870e+000	-5.6990319492e-001
 3.2488631086e-002	 1.8309617831e+000	-5.4568759764e-001
 1.6215482662e-002	 1.8311782056e+000	-5.2086297637e-001
 0.0000000000e+000	 1.8312500000e+000	-4.9554473441e-001
 1.6510752967e-001	 1.8300671446e+000	-7.3067784240e-001
 1.4837812471e-001	 1.8314994355e+000	-7.1235139472e-001
 1.3169239955e-001	 1.8327747712e+000	-6.9324415903e-001
 1.1505226304e-001	 1.8338945517e+000	-6.7331829454e-001
 9.8459585529e-002	 1.8348602018e+000	-6.5255963515e-001
 8.1916198653e-002	 1.8356731698e+000	-6.3097712610e-001
 6.5423895152e-002	 1.8363349270e+000	-6.0860222755e-001
 4.8984428701e-002	 1.8368469658e+000	-5.8548828773e-001
 3.2599513786e-002	 1.8372107995e+000	-5.6170988780e-001
 1.6270825606e-002	 1.8374279606e+000	-5.3736216112e-001
 0.0000000000e+000	 1.8375000000e+000	-5.1256008910e-001
 1.6566911991e-001	 1.8362918628e+000	-7.4578922394e-001
 1.4888281221e-001	 1.8377290254e+000	-7.2760354393e-001
 1.3214033289e-001	 1.8390086990e+000	-7.0868043374e-001
 1.1544359727e-001	 1.8401322883e+000	-6.8898043424e-001
 9.8794482079e-002	 1.8411012229e+000	-6.6848794819e-001
 8.2194825179e-002	 1.8419169561e+000	-6.4721067383e-001
 6.5646425408e-002	 1.8425809641e+000	-6.2517900533e-001
 4.9151042404e-002	 1.8430947446e+000	-6.0244540215e-001
 3.2710396486e-002	 1.8434598158e+000	-5.7908373018e-001
 1.6326168550e-002	 1.8436777155e+000	-5.5518857668e-001
 0.0000000000e+000	 1.8437500000e+000	-5.3087454177e-001
 1.6623071015e-001	 1.8425165809e+000	-7.6229574220e-001
 1.4938749971e-001	 1.8439586153e+000	-7.4425834192e-001
 1.3258826622e-001	 1.8452426268e+000	-7.2552282928e-001
 1.1583493150e-001	 1.8463700248e+000	-7.0604814373e-001
 9.9129378628e-002	 1.8473422440e+000	-6.8581727739e-001
 8.2473451706e-002	 1.8481607424e+000	-6.6483670566e-001
 6.5868955663e-002	 1.8488270013e+000	-6.4313578423e-001
 4.9317656107e-002	 1.8493425234e+000	-6.2076611480e-001
 3.2821279186e-002	 1.8497088321e+000	-5.9780088219e-001
 1.6381511495e-002	 1.8499274705e+000	-5.7433416495e-001
 0.0000000000e+000	 1.8500000000e+000	-5.5048022233e-001
 1.6679230039e-001	 1.8487412991e+000	-7.8018793076e-001
 1.4989218721e-001	 1.8501882052e+000	-7.6230647375e-001
 1.3303619955e-001	 1.8514765546e+000	-7.4376218682e-001
 1.1622626573e-001	 1.8526077614e+000	-7.2451242473e-001
 9.9464275178e-002	 1.8535832650e+000	-7.0453878931e-001
 8.2752078231e-002	 1.8544045287e+000	-6.8384655704e-001
 6.6091485919e-002	 1.8550730385e+000	-6.6246407256e-001
 4.9484269810e-002	 1.8555903022e+000	-6.4044211062e-001
 3.2932161886e-002	 1.8559578484e+000	-6.1785320899e-001
 1.6436854439e-002	 1.8561772255e+000	-5.9479097479e-001
 0.0000000000e+000	 1.8562500000e+000	-5.7136936668e-001
 1.6735389062e-001	 1.8549660173e+000	-7.9945642765e-001
 1.5039687471e-001	 1.8564177951e+000	-7.8173872985e-001
 1.3348413288e-001	 1.8577104824e+000	-7.6338945366e-001
 1.1661759995e-001	 1.8588454980e+000	-7.4436438559e-001
 9.9799171727e-002	 1.8598242861e+000	-7.2464375739e-001
 8.3030704757e-002	 1.8606483150e+000	-7.0423167041e-001
 6.6314016174e-002	 1.8613190756e+000	-6.8315548547e-001
 4.9650883512e-002	 1.8618380810e+000	-6.6146518100e-001
 3.3043044586e-002	 1.8622068648e+000	-6.3923268167e-001
 1.6492197383e-002	 1.8624269804e+000	-6.1655116023e-001
 0.0000000000e+000	 1.8625000000e+000	-5.9353431494e-001
 1.6791548086e-001	 1.8611907355e+000	-8.2009197357e-001
 1.5090156221e-001	 1.8626473850e+000	-8.0254600431e-001
 1.3393206621e-001	 1.8639444102e+000	-7.8439568139e-001
 1.1700893418e-001	 1.8650832346e+000	-7.6559523945e-001
 1.0013406828e-001	 1.8660653072e+000	-7.4612356018e-001
 8.3309331283e-002	 1.8668921013e+000	-7.2598359335e-001
 6.6536546429e-002	 1.8675651128e+000	-7.0520174312e-001
 4.9817497215e-002	 1.8680858598e+000	-6.8382722204e-001
 3.3153927285e-002	 1.8684558811e+000	-6.6193137546e-001
 1.6547540327e-002	 1.8686767354e+000	-6.3960697872e-001
 0.0000000000e+000	 1.8687500000e+000	-6.1696750969e-001
 1.6847707110e-001	 1.8674154536e+000	-8.4208541025e-001
 1.5140624971e-001	 1.8688769750e+000	-8.2471929308e-001
 1.3437999954e-001	 1.8701783379e+000	-8.0677202422e-001
 1.1740026841e-001	 1.8713209711e+000	-7.8819630256e-001
 1.0046896482e-001	 1.8723063283e+000	-7.6896967956e-001
 8.3587957808e-002	 1.8731358876e+000	-7.4909397691e-001
 6.6759076684e-002	 1.8738111500e+000	-7.2859466898e-001
 4.9984110918e-002	 1.8743336386e+000	-7.0752023281e-001
 3.3264809985e-002	 1.8747048974e+000	-6.8594146803e-001
 1.6602883271e-002	 1.8749264904e+000	-6.6395078940e-001
 0.0000000000e+000	 1.8750000000e+000	-6.4166149430e-001
 1.8750000000e+000	 0.0000000000e+000	 3.5871930436e+000
 1.8749264904e+000	 1.6602883271e-002	 3.5472618853e+000
 1.8747048974e+000	 3.3264809985e-002	 3.5034562682e+000
 1.8743336386e+000	 4.9984110918e-002	 3.4556200074e+000
 1.8738111500e+000	 6.6759076684e-002	 3.4036327227e+000
 1.8731358876e+000	 8.3587957808e-002	 3.3474110777e+000
 1.8723063283e+000	 1.0046896482e-001	 3.2869099797e+000
 1.8713209711e+000	 1.1740026841e-001	 3.2221237347e+000
 1.8701783379e+000	 1.3437999954e-001	 3.1530871531e+000
 1.8688769750e+000	 1.5140624971e-001	 3.0798766040e+000
 1.8674154536e+000	 1.6847707110e-001	 3.0026110108e+000
 1.8812500000e+000	 0.0000000000e+000	 3.6145955964e+000
 1.8811762453e+000	 1.6658226215e-002	 3.5652250545e+000
 1.8809539137e+000	 3.3375692685e-002	 3.5137797607e+000
 1.8805814174e+000	 5.0150724621e-002	 3.4607336365e+000
 1.8800571871e+000	 6.6981606940e-002	 3.4065560861e+000
 1.8793796739e+000	 8.3866584334e-002	 3.3517114160e+000
 1.8785473494e+000	 1.0080386137e-001	 3.2966582576e+000
 1.8775587077e+000	 1.1779160264e-001	 3.2418489941e+000
 1.8764122657e+000	 1.3482793287e-001	 3.1877291930e+000
 1.8751065649e+000	 1.5191093720e-001	 3.1347370456e+000
 1.8736401718e+000	 1.6903866133e-001	 3.0652694028e+000
 1.8875000000e+000	 0.0000000000e+000	 3.6425445782e+000
 1.8874260003e+000	 1.6713569159e-002	 3.5835354476e+000
 1.8872029301e+000	 3.3486575385e-002	 3.5235000053e+000
 1.8868291962e+000	 5.0317338324e-002	 3.4629236362e+000
 1.8863032243e+000	 6.7204137195e-002	 3.4022864185e+000
 1.8856234602e+000	 8.4145210859e-002	 3.3420625153e+000
 1.8847883705e+000	 1.0113875792e-001	 3.2827195679e+000
 1.8837964443e+000	 1.1818293686e-001	 3.2247180955e+000
 1.8826461935e+000	 1.3527586621e-001	 3.1685108996e+000
 1.8813361548e+000	 1.5241562470e-001	 3.1145424762e+000
 1.8798648900e+000	 1.6960025157e-001	 3.0632484365e+000
 1.8937500000e+000	 0.0000000000e+000	 3.6710321881e+000
 1.8936757553e+000	 1.6768912104e-002	 3.6023426250e+000
 1.8934519464e+000	 3.3597458084e-002	 3.5336692578e+000
 1.8930769750e+000	 5.0483952026e-002	 3.4655088754e+000
 1.8925492615e+000	 6.7426667450e-002	 3.3983521724e+000
 1.8918672464e+000	 8.4423837385e-002	 3.3326831116e+000
 1.8910293916e+000	 1.0147365447e-001	 3.2689782897e+000
 1.8900341808e+000	 1.1857427109e-001	 3.2077063084e+000
 1.8888801213e+000	 1.3572379954e-001	 3.1493271512e+000
 1.8875657447e+000	 1.5292031220e-001	 3.0942915691e+000
 1.8860896082e+000	 1.7016184180e-001	 3.0430404741e+000
 1.9000000000e+000	 0.0000000000e+000	 3.7000507279e+000
 1.8999255102e+000	 1.6824255048e-002	 3.6216393295e+000
 1.8997009627e+000	 3.3708340784e-002	 3.5442807767e+000
 1.8993247537e+000	 5.0650565729e-002	 3.4684832038e+000
 1.8987952986e+000	 6.7649197705e-002	 3.3947478643e+000
 1.8981110327e+000	 8.4702463910e-002	 3.3235684649e+000
 1.8972704127e+000	 1.0180855102e-001	 3.2554305032e+000
 1.8962719174e+000	 1.1896560532e-001	 3.1908106102e+000
 1.8951140491e+000	 1.3617173287e-001	 3.1301759004e+000
 1.8937953346e+000	 1.5342499970e-001	 3.0739833298e+000
 1.8923143264e+000	 1.7072343204e-001	 3.0226790637e+000
 1.9062500000e+000	 0.0000000000e+000	 3.7295926003e+000
 1.9061752652e+000	 1.6879597992e-002	 3.6414184013e+000
 1.9059499790e+000	 3.3819223484e-002	 3.5553279135e+000
 1.9055725325e+000	 5.0817179432e-002	 3.4718405584e+000
 1.9050413358e+000	 6.7871727960e-002	 3.3914680917e+000
 1.9043548190e+000	 8.4981090436e-002	 3.3147139088e+000
 1.9035114338e+000	 1.0214344757e-001	 3.2420723537e+000
 1.9025096540e+000	 1.1935693955e-001	 3.1740280346e+000
 1.9013479769e+000	 1.3661966620e-001	 3.1110551458e+000
 1.9000249246e+000	 1.5392968720e-001	 3.0536167991e+000
 1.8985390445e+000	 1.7128502228e-001	 3.0021643653e+000
 1.9125000000e+000	 0.0000000000e+000	 3.7596503073e+000
 1.9124250202e+000	 1.6934940936e-002	 3.6616727761e+000
 1.9121989954e+000	 3.3930106184e-002	 3.5668041105e+000
 1.9118203113e+000	 5.0983793135e-002	 3.4755749619e+000
 1.9112873730e+000	 6.8094258216e-002	 3.3885075318e+000
 1.9105986053e+000	 8.5259716961e-002	 3.3061148491e+000
 1.9097524549e+000	 1.0247834412e-001	 3.2289000509e+000
 1.9087473906e+000	 1.1974827377e-001	 3.1573556704e+000
 1.9075819047e+000	 1.3706759953e-001	 3.0919629311e+000
 1.9062545145e+000	 1.5443437469e-001	 3.0331910519e+000
 1.9047637627e+000	 1.7184661251e-001	 2.9814965615e+000
 1.9187500000e+000	 0.0000000000e+000	 3.7902164487e+000
 1.9186747751e+000	 1.6990283880e-002	 3.6823954838e+000
 1.9184480117e+000	 3.4040988883e-002	 3.5787029001e+000
 1.9180680901e+000	 5.1150406837e-002	 3.4796805214e+000
 1.9175334101e+000	 6.8316788471e-002	 3.3858609396e+000
 1.9168423916e+000	 8.5538343487e-002	 3.2977667626e+000
 1.9159934760e+000	 1.0281324067e-001	 3.2159098675e+000
 1.9149851271e+000	 1.2013960800e-001	 3.1407906606e+000
 1.9138158325e+000	 1.3751553286e-001	 3.0728973447e+000
 1.9124841044e+000	 1.5493906219e-001	 3.0127051968e+000
 1.9109884809e+000	 1.7240820275e-001	 2.9606758569e+000
 1.9250000000e+000	 0.0000000000e+000	 3.8212837202e+000
 1.9249245301e+000	 1.7045626824e-002	 3.7035796470e+000
 1.9246970280e+000	 3.4151871583e-002	 3.5910179026e+000
 1.9243158689e+000	 5.1317020540e-002	 3.4841514272e+000
 1.9237794473e+000	 6.8539318726e-002	 3.3835231474e+000
 1.9230861779e+000	 8.5816970012e-002	 3.2896651962e+000
 1.9222344971e+000	 1.0314813721e-001	 3.2030981383e+000
 1.9212228637e+000	 1.2053094223e-001	 3.1243302018e+000
 1.9200497603e+000	 1.3796346619e-001	 3.0538565186e+000
 1.9187136943e+000	 1.5544374969e-001	 2.9921583759e+000
 1.9172131991e+000	 1.7296979298e-001	 2.9397024781e+000
 1.9312500000e+000	 0.0000000000e+000	 3.8528449122e+000
 1.9311742851e+000	 1.7100969768e-002	 3.7252184793e+000
 1.9309460443e+000	 3.4262754283e-002	 3.6037428253e+000
 1.9305636477e+000	 5.1483634243e-002	 3.4889819509e+000
 1.9300254845e+000	 6.8761848981e-002	 3.3814890628e+000
 1.9293299642e+000	 8.6095596538e-002	 3.2818057658e+000
 1.9284755182e+000	 1.0348303376e-001	 3.1904612594e+000
 1.9274606003e+000	 1.2092227645e-001	 3.1079715428e+000
 1.9262836881e+000	 1.3841139952e-001	 3.0348386279e+000
 1.9249432842e+000	 1.5594843719e-001	 2.9715497637e+000
 1.9234379173e+000	 1.7353138322e-001	 2.9185766729e+000
 1.9375000000e+000	 0.0000000000e+000	 3.8848929081e+000
 1.9374240400e+000	 1.7156312713e-002	 3.7473052839e+000
 1.9371950607e+000	 3.4373636983e-002	 3.6168714608e+000
 1.9368114265e+000	 5.1650247946e-002	 3.4941664447e+000
 1.9362715216e+000	 6.8984379236e-002	 3.3797536683e+000
 1.9355737505e+000	 8.6374223063e-002	 3.2741841546e+000
 1.9347165393e+000	 1.0381793031e-001	 3.1779956868e+000
 1.9336983368e+000	 1.2131361068e-001	 3.0917119844e+000
 1.9325176159e+000	 1.3885933285e-001	 3.0158418901e+000
 1.9311728741e+000	 1.5645312469e-001	 2.9508785673e+000
 1.9296626355e+000	 1.7409297346e-001	 2.8972987106e+000
 1.8674154536e+000	 1.6847707110e-001	 3.0026110108e+000
 1.8657923719e+000	 1.8559047690e-001	 2.9160389611e+000
 1.8640063550e+000	 2.0274444158e-001	 2.8316558065e+000
 1.8620560570e+000	 2.1993690119e-001	 2.7496257999e+000
 1.8599401617e+000	 2.3716575374e-001	 2.6701517507e+000
 1.8576573837e+000	 2.5442885961e-001	 2.5934755968e+000
 1.8552064696e+000	 2.7172404195e-001	 2.5198789027e+000
 1.8525861991e+000	 2.8904908714e-001	 2.4496832776e+000
 1.8497953861e+000	 3.0640174534e-001	 2.3832507117e+000
 1.8468328798e+000	 3.2377973096e-001	 2.3209838263e+000
 1.8436975658e+000	 3.4118072329e-001	 2.2633260351e+000
 1.8736401718e+000	 1.6903866133e-001	 3.0652694028e+000
 1.8720116798e+000	 1.8620911182e-001	 2.9830720032e+000
 1.8702197095e+000	 2.0342025638e-001	 2.9015147422e+000
 1.8682629105e+000	 2.2067002419e-001	 2.8207588684e+000
 1.8661399623e+000	 2.3795630626e-001	 2.7410057877e+000
 1.8638495750e+000	 2.5527695581e-001	 2.6624976716e+000
 1.8613904912e+000	 2.7262978875e-001	 2.5855179868e+000
 1.8587614865e+000	 2.9001258410e-001	 2.5103919459e+000
 1.8559613707e+000	 3.0742308449e-001	 2.4374868729e+000
 1.8529889894e+000	 3.2485899673e-001	 2.3672124814e+000
 1.8498432243e+000	 3.4231799237e-001	 2.3000210613e+000
 1.8798648900e+000	 1.6960025157e-001	 3.0632484365e+000
 1.8782309877e+000	 1.8682774675e-001	 3.0040878623e+000
 1.8764330640e+000	 2.0409607119e-001	 2.9497134647e+000
 1.8744697641e+000	 2.2140314719e-001	 2.8919754602e+000
 1.8723397628e+000	 2.3874685877e-001	 2.8120373835e+000
 1.8700417663e+000	 2.5612505201e-001	 2.7317960712e+000
 1.8675745128e+000	 2.7353553556e-001	 2.6515369504e+000
 1.8649367738e+000	 2.9097608106e-001	 2.5715888960e+000
 1.8621273554e+000	 3.0844442364e-001	 2.4923246258e+000
 1.8591450990e+000	 3.2593826250e-001	 2.4141610068e+000
 1.8559888829e+000	 3.4345526144e-001	 2.3375592674e+000
 1.8860896082e+000	 1.7016184180e-001	 3.0430404741e+000
 1.8844502956e+000	 1.8744638167e-001	 2.9825594061e+000
 1.8826464185e+000	 2.0477188599e-001	 2.9257033613e+000
 1.8806766176e+000	 2.2213627020e-001	 2.8727754601e+000
 1.8785395634e+000	 2.3953741128e-001	 2.8240649550e+000
 1.8762339576e+000	 2.5697314821e-001	 2.7798467523e+000
 1.8737585344e+000	 2.7444128236e-001	 2.7179223990e+000
 1.8711120611e+000	 2.9193957801e-001	 2.6332588036e+000
 1.8682933400e+000	 3.0946576279e-001	 2.5477466130e+000
 1.8653012086e+000	 3.2701752827e-001	 2.4618099085e+000
 1.8621345414e+000	 3.4459253052e-001	 2.3759189195e+000
 1.8923143264e+000	 1.7072343204e-001	 3.0226790637e+000
 1.8906696035e+000	 1.8806501659e-001	 2.9609716078e+000
 1.8888597731e+000	 2.0544770080e-001	 2.9017372630e+000
 1.8868834711e+000	 2.2286939320e-001	 2.8452758394e+000
 1.8847393639e+000	 2.4032796379e-001	 2.7918740780e+000
 1.8824261489e+000	 2.5782124440e-001	 2.7418051937e+000
 1.8799425559e+000	 2.7534702917e-001	 2.6953284400e+000
 1.8772873485e+000	 2.9290307497e-001	 2.6526886969e+000
 1.8744593246e+000	 3.1048710194e-001	 2.6037356350e+000
 1.8714573182e+000	 3.2809679404e-001	 2.5101398723e+000
 1.8682802000e+000	 3.4572979960e-001	 2.4150784866e+000
 1.8985390445e+000	 1.7128502228e-001	 3.0021643653e+000
 1.8968889114e+000	 1.8868365151e-001	 2.9393238911e+000
 1.8950731276e+000	 2.0612351560e-001	 2.8778137814e+000
 1.8930903247e+000	 2.2360251620e-001	 2.8179305626e+000
 1.8909391644e+000	 2.4111851630e-001	 2.7599584847e+000
 1.8886183402e+000	 2.5866934060e-001	 2.7041690860e+000
 1.8861265775e+000	 2.7625277597e-001	 2.6508207786e+000
 1.8834626358e+000	 2.9386657192e-001	 2.6001584563e+000
 1.8806253092e+000	 3.1150844109e-001	 2.5524131265e+000
 1.8776134278e+000	 3.2917605981e-001	 2.5078015665e+000
 1.8744258586e+000	 3.4686706868e-001	 2.4550166370e+000
 1.9047637627e+000	 1.7184661251e-001	 2.9814965615e+000
 1.9031082193e+000	 1.8930228643e-001	 2.9176157147e+000
 1.9012864821e+000	 2.0679933040e-001	 2.8539315769e+000
 1.8992971782e+000	 2.2433563921e-001	 2.7907374163e+000
 1.8971389650e+000	 2.4190906881e-001	 2.7283150125e+000
 1.8948105314e+000	 2.5951743680e-001	 2.6669342413e+000
 1.8923105991e+000	 2.7715852278e-001	 2.6068526821e+000
 1.8896379231e+000	 2.9483006888e-001	 2.5483152451e+000
 1.8867912938e+000	 3.1252978024e-001	 2.4915538238e+000
 1.8837695374e+000	 3.3025532558e-001	 2.4367869710e+000
 1.8805715171e+000	 3.4800433775e-001	 2.3842196009e+000
 1.9109884809e+000	 1.7240820275e-001	 2.9606758569e+000
 1.9093275272e+000	 1.8992092135e-001	 2.8958465719e+000
 1.9074998366e+000	 2.0747514521e-001	 2.8300893577e+000
 1.9055040317e+000	 2.2506876221e-001	 2.7636942497e+000
 1.9033387655e+000	 2.4269962132e-001	 2.6969405767e+000
 1.9010027227e+000	 2.6036553300e-001	 2.6300965663e+000
 1.8984946206e+000	 2.7806426959e-001	 2.5634189730e+000
 1.8958132105e+000	 2.9579356584e-001	 2.4971527257e+000
 1.8929572785e+000	 3.1355111939e-001	 2.4315306002e+000
 1.8899256470e+000	 3.3133459135e-001	 2.3667729146e+000
 1.8867171757e+000	 3.4914160683e-001	 2.3030872505e+000
 1.9172131991e+000	 1.7296979298e-001	 2.9397024781e+000
 1.9155468351e+000	 1.9053955628e-001	 2.8740159900e+000
 1.9137131911e+000	 2.0815096001e-001	 2.8062858790e+000
 1.9117108852e+000	 2.2580188521e-001	 2.7367989731e+000
 1.9095385661e+000	 2.4349017383e-001	 2.6658321691e+000
 1.9071949140e+000	 2.6121362919e-001	 2.5936520603e+000
 1.9046786422e+000	 2.7897001639e-001	 2.5205145837e+000
 1.9019884978e+000	 2.9675706279e-001	 2.4466646891e+000
 1.8991232631e+000	 3.1457245854e-001	 2.3723360302e+000
 1.8960817566e+000	 3.3241385712e-001	 2.2977506800e+000
 1.8928628342e+000	 3.5027887591e-001	 2.2231188710e+000
 1.9234379173e+000	 1.7353138322e-001	 2.9185766729e+000
 1.9217661430e+000	 1.9115819120e-001	 2.8521235295e+000
 1.9199265457e+000	 2.0882677482e-001	 2.7825199426e+000
 1.9179177388e+000	 2.2653500821e-001	 2.7100495569e+000
 1.9157383666e+000	 2.4428072634e-001	 2.6349868567e+000
 1.9133871053e+000	 2.6206172539e-001	 2.5575968137e+000
 1.9108626638e+000	 2.7987576320e-001	 2.4781345551e+000
 1.9081637851e+000	 2.9772055975e-001	 2.3968450527e+000
 1.9052892477e+000	 3.1559379769e-001	 2.3139628337e+000
 1.9022378662e+000	 3.3349312289e-001	 2.2297117154e+000
 1.8990084928e+000	 3.5141614499e-001	 2.1443045645e+000
 1.9296626355e+000	 1.7409297346e-001	 2.8972987106e+000
 1.9279854509e+000	 1.9177682612e-001	 2.8301687838e+000
 1.9261399002e+000	 2.0950258962e-001	 2.7587903956e+000
 1.9241245923e+000	 2.2726813122e-001	 2.6834440313e+000
 1.9219381672e+000	 2.4507127886e-001	 2.6044017807e+000
 1.9195792966e+000	 2.6290982159e-001	 2.5219270070e+000
 1.9170466853e+000	 2.8078151000e-001	 2.4362740346e+000
 1.9143390725e+000	 2.9868405670e-001	 2.3476878583e+000
 1.9114552323e+000	 3.1661513684e-001	 2.2564038739e+000
 1.9083939758e+000	 3.3457238866e-001	 2.1626476324e+000
 1.9051541513e+000	 3.5255341406e-001	 2.0666346171e+000
 1.8436975658e+000	 3.4118072329e-001	 2.2633260351e+000
 1.8403883673e+000	 3.5860236705e-001	 2.2060634954e+000
 1.8369042460e+000	 3.7604227310e-001	 2.1442559881e+000
 1.8332442033e+000	 3.9349801906e-001	 2.0784291051e+000
 1.8294072815e+000	 4.1096715006e-001	 2.0091574950e+000
 1.8253925644e+000	 4.2844717951e-001	 1.9370647312e+000
 1.8211991790e+000	 4.4593558983e-001	 1.8628230674e+000
 1.8168262959e+000	 4.6342983336e-001	 1.7871530772e+000
 1.8122731307e+000	 4.8092733314e-001	 1.7108231771e+000
 1.8075389448e+000	 4.9842548387e-001	 1.6346490303e+000
 1.8026230466e+000	 5.1592165282e-001	 1.5594928280e+000
 1.8498432243e+000	 3.4231799237e-001	 2.3000210613e+000
 1.8465229952e+000	 3.5979770828e-001	 2.2333005830e+000
 1.8430272601e+000	 3.7729574734e-001	 2.1630128294e+000
 1.8393550173e+000	 3.9480967912e-001	 2.0897002677e+000
 1.8355053058e+000	 4.1233704056e-001	 2.0139541376e+000
 1.8314772063e+000	 4.2987533677e-001	 1.9364142928e+000
 1.8272698430e+000	 4.4742204180e-001	 1.8577689288e+000
 1.8228823836e+000	 4.6497459947e-001	 1.7787541944e+000
 1.8183140411e+000	 4.8253042425e-001	 1.7001536862e+000
 1.8135640746e+000	 5.0008690215e-001	 1.6227978222e+000
 1.8086317901e+000	 5.1764139166e-001	 1.5475630945e+000
 1.8559888829e+000	 3.4345526144e-001	 2.3375592674e+000
 1.8526576230e+000	 3.6099304950e-001	 2.2613005730e+000
 1.8491502743e+000	 3.7854922159e-001	 2.1824404135e+000
 1.8454658313e+000	 3.9612133919e-001	 2.1015381429e+000
 1.8416033300e+000	 4.1370693107e-001	 2.0192016142e+000
 1.8375618482e+000	 4.3130349404e-001	 1.9360869936e+000
 1.8333405069e+000	 4.4890849377e-001	 1.8528984606e+000
 1.8289384712e+000	 4.6651936558e-001	 1.7703877921e+000
 1.8243549516e+000	 4.8413351536e-001	 1.6893538276e+000
 1.8195892044e+000	 5.0174832043e-001	 1.6106418141e+000
 1.8146405336e+000	 5.1936113051e-001	 1.5351426285e+000
 1.8621345414e+000	 3.4459253052e-001	 2.3759189195e+000
 1.8587922509e+000	 3.6218839072e-001	 2.2900414548e+000
 1.8552732884e+000	 3.7980269583e-001	 2.2025165189e+000
 1.8515766454e+000	 3.9743299925e-001	 2.1139203657e+000
 1.8477013543e+000	 4.1507682157e-001	 2.0248774840e+000
 1.8436464901e+000	 4.3273165131e-001	 1.9360603855e+000
 1.8394111708e+000	 4.5039494574e-001	 1.8481892770e+000
 1.8349945589e+000	 4.6806413170e-001	 1.7620316172e+000
 1.8303958620e+000	 4.8573660647e-001	 1.6784015525e+000
 1.8256143343e+000	 5.0340973871e-001	 1.5981592333e+000
 1.8206492771e+000	 5.2108086936e-001	 1.5222100061e+000
 1.8682802000e+000	 3.4572979960e-001	 2.4150784866e+000
 1.8649268788e+000	 3.6338373195e-001	 2.3195014177e+000
 1.8613963026e+000	 3.8105617008e-001	 2.2232191200e+000
 1.8576874594e+000	 3.9874465931e-001	 2.1268247613e+000
 1.8537993786e+000	 4.1644671207e-001	 2.0309594900e+000
 1.8497311320e+000	 4.3415980857e-001	 1.9363121968e+000
 1.8454818348e+000	 4.5188139770e-001	 1.8436191604e+000
 1.8410506465e+000	 4.6960889781e-001	 1.7536635751e+000
 1.8364367724e+000	 4.8733969759e-001	 1.6672749595e+000
 1.8316394641e+000	 5.0507115699e-001	 1.5853284423e+000
 1.8266580206e+000	 5.2280060820e-001	 1.5087439256e+000
 1.8744258586e+000	 3.4686706868e-001	 2.4550166370e+000
 1.8710615067e+000	 3.6457907317e-001	 2.3496588471e+000
 1.8675193167e+000	 3.8230964432e-001	 2.2445263836e+000
 1.8637982734e+000	 4.0005631938e-001	 2.1402293423e+000
 1.8598974029e+000	 4.1781660257e-001	 2.0374255561e+000
 1.8558157739e+000	 4.3558796584e-001	 1.9368203296e+000
 1.8515524987e+000	 4.5336784967e-001	 1.8391660579e+000
 1.8471067342e+000	 4.7115366392e-001	 1.7452617267e+000
 1.8424776829e+000	 4.8894278870e-001	 1.6559522919e+000
 1.8376645939e+000	 5.0673257528e-001	 1.5721279368e+000
 1.8326667640e+000	 5.2452034705e-001	 1.4947232055e+000
 1.8805715171e+000	 3.4800433775e-001	 2.3842196009e+000
 1.8771961346e+000	 3.6577441439e-001	 2.3358020750e+000
 1.8736423309e+000	 3.8356311856e-001	 2.2664166655e+000
 1.8699090874e+000	 4.0136797944e-001	 2.1541123054e+000
 1.8659954271e+000	 4.1918649307e-001	 2.0442537844e+000
 1.8619004158e+000	 4.3701612311e-001	 1.9375628567e+000
 1.8576231626e+000	 4.5485430164e-001	 1.8348080795e+000
 1.8531628218e+000	 4.7269843003e-001	 1.7368042859e+000
 1.8485185933e+000	 4.9054587981e-001	 1.6444119357e+000
 1.8436897237e+000	 5.0839399356e-001	 1.5585363435e+000
 1.8386755075e+000	 5.2624008589e-001	 1.4801267827e+000
 1.8867171757e+000	 3.4914160683e-001	 2.3030872505e+000
 1.8833307625e+000	 3.6696975562e-001	 2.2427970549e+000
 1.8797653450e+000	 3.8481659281e-001	 2.1908037073e+000
 1.8760199014e+000	 4.0267963951e-001	 2.1472514428e+000
 1.8720934514e+000	 4.2055638357e-001	 2.0514224521e+000
 1.8679850576e+000	 4.3844428037e-001	 1.9385180188e+000
 1.8636938265e+000	 4.5634075361e-001	 1.8305234948e+000
 1.8592189095e+000	 4.7424319615e-001	 1.7282696173e+000
 1.8545595037e+000	 4.9214897092e-001	 1.6326324171e+000
 1.8497148535e+000	 5.1005541184e-001	 1.5445324179e+000
 1.8446842510e+000	 5.2795982474e-001	 1.4649337101e+000
 1.8928628342e+000	 3.5027887591e-001	 2.2231188710e+000
 1.8894653904e+000	 3.6816509684e-001	 2.1509404296e+000
 1.8858883592e+000	 3.8607006705e-001	 2.0883132200e+000
 1.8821307154e+000	 4.0399129957e-001	 2.0353890763e+000
 1.8781914757e+000	 4.2192627407e-001	 1.9922988511e+000
 1.8740696995e+000	 4.3987243764e-001	 1.9396642220e+000
 1.8697644905e+000	 4.5782720557e-001	 1.8262907306e+000
 1.8652749971e+000	 4.7578796226e-001	 1.7196362334e+000
 1.8606004142e+000	 4.9375206204e-001	 1.6205924002e+000
 1.8557399833e+000	 5.1171683012e-001	 1.5300950420e+000
 1.8506929945e+000	 5.2967956358e-001	 1.4491231555e+000
 1.8990084928e+000	 3.5141614499e-001	 2.1443045645e+000
 1.8956000183e+000	 3.6936043806e-001	 2.0602227901e+000
 1.8920113734e+000	 3.8732354130e-001	 1.9869395806e+000
 1.8882415294e+000	 4.0530295964e-001	 1.9246142842e+000
 1.8842894999e+000	 4.2329616457e-001	 1.8733841486e+000
 1.8801543414e+000	 4.4130059490e-001	 1.8333640486e+000
 1.8758351544e+000	 4.5931365754e-001	 1.8046462523e+000
 1.8713310848e+000	 4.7733272837e-001	 1.7108827926e+000
 1.8666413246e+000	 4.9535515315e-001	 1.6082706849e+000
 1.8617651131e+000	 5.1337824840e-001	 1.5152032230e+000
 1.8567017380e+000	 5.3139930243e-001	 1.4326743988e+000
 1.9051541513e+000	 3.5255341406e-001	 2.0666346171e+000
 1.9017346462e+000	 3.7055577929e-001	 1.9706349083e+000
 1.8981343875e+000	 3.8857701554e-001	 1.8866741271e+000
 1.8943523434e+000	 4.0661461970e-001	 1.8149190508e+000
 1.8903875242e+000	 4.2466605508e-001	 1.7555132399e+000
 1.8862389833e+000	 4.4272875217e-001	 1.7085767414e+000
 1.8819058183e+000	 4.6080010951e-001	 1.6742058328e+000
 1.8773871724e+000	 4.7887749449e-001	 1.6524728075e+000
 1.8726822350e+000	 4.9695824426e-001	 1.5956462046e+000
 1.8677902430e+000	 5.1503966669e-001	 1.4998360902e+000
 1.8627104815e+000	 5.3311904127e-001	 1.4155668310e+000
 1.8026230466e+000	 5.1592165282e-001	 1.5594928280e+000
 1.7975247922e+000	 5.3341318081e-001	 1.4974715533e+000
 1.7922435864e+000	 5.5089738319e-001	 1.4398578268e+000
 1.7867788839e+000	 5.6837155093e-001	 1.3876890534e+000
 1.7811301897e+000	 5.8583295164e-001	 1.3420441964e+000
 1.7752970603e+000	 6.0327883070e-001	 1.3040423835e+000
 1.7692791045e+000	 6.2070641243e-001	 1.2748413882e+000
 1.7630759840e+000	 6.3811290120e-001	 1.1921999866e+000
 1.7566874145e+000	 6.5549548268e-001	 1.1009807432e+000
 1.7501131661e+000	 6.7285132510e-001	 1.0223147907e+000
 1.7433530645e+000	 6.9017758042e-001	 9.5634554371e-001
 1.8086317901e+000	 5.1764139166e-001	 1.5475630945e+000
 1.8035165415e+000	 5.3519122475e-001	 1.4863941540e+000
 1.7982177317e+000	 5.5273370781e-001	 1.4295567767e+000
 1.7927348135e+000	 5.7026612277e-001	 1.3780987318e+000
 1.7870672903e+000	 5.8778572815e-001	 1.3331098361e+000
 1.7812147172e+000	 6.0528976014e-001	 1.2957205466e+000
 1.7751767015e+000	 6.2277543381e-001	 1.2671004268e+000
 1.7689529039e+000	 6.4023994420e-001	 1.1758418555e+000
 1.7625430392e+000	 6.5768046763e-001	 1.0864088910e+000
 1.7559468767e+000	 6.7509416285e-001	 1.0096638219e+000
 1.7491642414e+000	 6.9247817236e-001	 9.4574098008e-001
 1.8146405336e+000	 5.1936113051e-001	 1.5351426285e+000
 1.8095082908e+000	 5.3696926869e-001	 1.4746920164e+000
 1.8041918770e+000	 5.5457003242e-001	 1.4184938375e+000
 1.7986907432e+000	 5.7216069461e-001	 1.3676063703e+000
 1.7930043910e+000	 5.8973850466e-001	 1.3231304358e+000
 1.7871323741e+000	 6.0730068958e-001	 1.2862079765e+000
 1.7810742985e+000	 6.2484445518e-001	 1.2580205084e+000
 1.7748298239e+000	 6.4236698721e-001	 1.1584149037e+000
 1.7683986639e+000	 6.5986545258e-001	 1.0707604269e+000
 1.7617805873e+000	 6.7733700061e-001	 9.9592727903e-001
 1.7549754183e+000	 6.9477876430e-001	 9.3404064532e-001
 1.8206492771e+000	 5.2108086936e-001	 1.5222100061e+000
 1.8155000401e+000	 5.3874731262e-001	 1.4623435117e+000
 1.8101660223e+000	 5.5640635704e-001	 1.4066471694e+000
 1.8046466728e+000	 5.7405526645e-001	 1.3561899119e+000
 1.7989414916e+000	 5.9169128117e-001	 1.3120837156e+000
 1.7930500309e+000	 6.0931161902e-001	 1.2754821653e+000
 1.7869718955e+000	 6.2691347656e-001	 1.2386501490e+000
 1.7807067438e+000	 6.4449403022e-001	 1.1399367572e+000
 1.7742542886e+000	 6.6205043753e-001	 1.0540540764e+000
 1.7676142978e+000	 6.7957983836e-001	 9.8112498389e-001
 1.7607865951e+000	 6.9707935624e-001	 9.2126545307e-001
 1.8266580206e+000	 5.2280060820e-001	 1.5087439256e+000
 1.8214917894e+000	 5.4052535656e-001	 1.4493271278e+000
 1.8161401676e+000	 5.5824268165e-001	 1.3939950429e+000
 1.8106026024e+000	 5.7594983829e-001	 1.3438274038e+000
 1.8048785922e+000	 5.9364405768e-001	 1.2999474933e+000
 1.7989676878e+000	 6.1132254846e-001	 1.2635206963e+000
 1.7928694925e+000	 6.2898249794e-001	 1.2175125671e+000
 1.7865836638e+000	 6.4662107323e-001	 1.1204251204e+000
 1.7801099133e+000	 6.6423542247e-001	 1.0363086369e+000
 1.7734480084e+000	 6.8182267612e-001	 9.6527682344e-001
 1.7665977720e+000	 6.9937994818e-001	 9.0743637557e-001
 1.8326667640e+000	 5.2452034705e-001	 1.4947232055e+000
 1.8274835387e+000	 5.4230340050e-001	 1.4356214664e+000
 1.8221143129e+000	 5.6007900626e-001	 1.3805158367e+000
 1.8165585320e+000	 5.7784441013e-001	 1.3304969950e+000
 1.8108156929e+000	 5.9559683418e-001	 1.2866996827e+000
 1.8048853447e+000	 6.1333347790e-001	 1.2503012426e+000
 1.7987670895e+000	 6.3105151932e-001	 1.1953626748e+000
 1.7924605837e+000	 6.4874811624e-001	 1.0998977752e+000
 1.7859655380e+000	 6.6642040742e-001	 1.0175429769e+000
 1.7792817189e+000	 6.8406551387e-001	 9.4840274890e-001
 1.7724089489e+000	 7.0168054012e-001	 8.9257444279e-001
 1.8386755075e+000	 5.2624008589e-001	 1.4801267827e+000
 1.8334752880e+000	 5.4408144444e-001	 1.4212052420e+000
 1.8280884582e+000	 5.6191533088e-001	 1.3661880359e+000
 1.8225144616e+000	 5.7973898197e-001	 1.3161769352e+000
 1.8167527935e+000	 5.9754961069e-001	 1.2723182923e+000
 1.8108030015e+000	 6.1534440734e-001	 1.2358015657e+000
 1.8046646866e+000	 6.3312054070e-001	 1.1722172465e+000
 1.7983375037e+000	 6.5087515924e-001	 1.0783725789e+000
 1.7918211628e+000	 6.6860539236e-001	 9.9777603402e-001
 1.7851154295e+000	 6.8630835162e-001	 9.3052277472e-001
 1.7782201258e+000	 7.0398113206e-001	 8.7670074139e-001
 1.8446842510e+000	 5.2795982474e-001	 1.4649337101e+000
 1.8394670373e+000	 5.4585948838e-001	 1.4060572795e+000
 1.8340626035e+000	 5.6375165549e-001	 1.3509902307e+000
 1.8284703912e+000	 5.8163355381e-001	 1.3008455733e+000
 1.8226898941e+000	 5.9950238720e-001	 1.2567814234e+000
 1.8167206584e+000	 6.1735533678e-001	 1.2199995142e+000
 1.8105622836e+000	 6.3518956208e-001	 1.1480931376e+000
 1.8042144236e+000	 6.5300220225e-001	 1.0558674639e+000
 1.7976767875e+000	 6.7079037731e-001	 9.7702681460e-001
 1.7909491400e+000	 6.8855118938e-001	 9.1165697748e-001
 1.7840313027e+000	 7.0628172399e-001	 8.5983641389e-001
 1.8506929945e+000	 5.2967956358e-001	 1.4491231555e+000
 1.8454587866e+000	 5.4763753232e-001	 1.3901565127e+000
 1.8400367487e+000	 5.6558798010e-001	 1.3349011141e+000
 1.8344263208e+000	 5.8352812565e-001	 1.2844813550e+000
 1.8286269948e+000	 6.0145516371e-001	 1.2400672687e+000
 1.8226383153e+000	 6.1936626622e-001	 1.2028730220e+000
 1.8164598806e+000	 6.3725858346e-001	 1.1230072827e+000
 1.8100913435e+000	 6.5512924526e-001	 1.0324004360e+000
 1.8035324122e+000	 6.7297536225e-001	 9.5531439223e-001
 1.7967828506e+000	 6.9079402713e-001	 8.9182549490e-001
 1.7898424795e+000	 7.0858231593e-001	 8.4200265766e-001
 1.8567017380e+000	 5.3139930243e-001	 1.4326743988e+000
 1.8514505359e+000	 5.4941557626e-001	 1.3734819825e+000
 1.8460108940e+000	 5.6742430472e-001	 1.3178994805e+000
 1.8403822504e+000	 5.8542269749e-001	 1.2670628221e+000
 1.8345640954e+000	 6.0340794022e-001	 1.2221541109e+000
 1.8285559721e+000	 6.2137719566e-001	 1.1844001073e+000
 1.8223574776e+000	 6.3932760483e-001	 1.0969766949e+000
 1.8159682635e+000	 6.5725628827e-001	 1.0079895730e+000
 1.8093880369e+000	 6.7516034720e-001	 9.3265790677e-001
 1.8026165611e+000	 6.9303686488e-001	 8.7104852491e-001
 1.7956536564e+000	 7.1088290787e-001	 8.2322072415e-001
 1.8627104815e+000	 5.3311904127e-001	 1.4155668310e+000
 1.8574422852e+000	 5.5119362020e-001	 1.3560128349e+000
 1.8519850393e+000	 5.6926062933e-001	 1.2999642245e+000
 1.8463381800e+000	 5.8731726933e-001	 1.2485686105e+000
 1.8405011960e+000	 6.0536071673e-001	 1.2030203214e+000
 1.8344736290e+000	 6.2338812510e-001	 1.1645588708e+000
 1.8282550746e+000	 6.4139662621e-001	 1.0700184642e+000
 1.8218451834e+000	 6.5938333127e-001	 9.8265302421e-001
 1.8152436616e+000	 6.7734533214e-001	 9.0907656328e-001
 1.8084502717e+000	 6.9527970264e-001	 8.4934632457e-001
 1.8014648333e+000	 7.1318349980e-001	 8.0351191790e-001
 1.7433530645e+000	 6.9017758042e-001	 9.5634554371e-001
 1.7364069910e+000	 7.0747138573e-001	 9.0548876362e-001
 1.7292748837e+000	 7.2472986450e-001	 8.4920660836e-001
 1.7219567380e+000	 7.4195012798e-001	 7.8743108909e-001
 1.7144526070e+000	 7.5912927651e-001	 7.2010437550e-001
 1.7067626021e+000	 7.7626440100e-001	 6.4717983419e-001
 1.6988868936e+000	 7.9335258428e-001	 5.6862305874e-001
 1.6908257110e+000	 8.1039090259e-001	 4.8441288782e-001
 1.6825793438e+000	 8.2737642703e-001	 3.9454240800e-001
 1.6741481411e+000	 8.4430622506e-001	 2.9901993772e-001
 1.6655325128e+000	 8.6117736198e-001	 1.9786998880e-001
 1.7491642414e+000	 6.9247817236e-001	 9.4574098008e-001
 1.7421950143e+000	 7.0982962369e-001	 8.9581006224e-001
 1.7350391334e+000	 7.2714563073e-001	 8.4032388076e-001
 1.7276965938e+000	 7.4442329508e-001	 7.7920994975e-001
 1.7201674490e+000	 7.6165970744e-001	 7.1240620946e-001
 1.7124518107e+000	 7.7885194901e-001	 6.3986208183e-001
 1.7045498499e+000	 7.9599709290e-001	 5.6153951748e-001
 1.6964617967e+000	 8.1309220560e-001	 4.7741403044e-001
 1.6881879416e+000	 8.3013434846e-001	 3.8747571722e-001
 1.6797286349e+000	 8.4712057915e-001	 2.9173025668e-001
 1.6710842879e+000	 8.6404795319e-001	 1.9019988703e-001
 1.7549754183e+000	 6.9477876430e-001	 9.3404064532e-001
 1.7479830376e+000	 7.1218786165e-001	 8.8509209617e-001
 1.7408033830e+000	 7.2956139695e-001	 8.3045873667e-001
 1.7334364496e+000	 7.4689646218e-001	 7.7006350188e-001
 1.7258822910e+000	 7.6419013837e-001	 7.0384002094e-001
 1.7181410194e+000	 7.8143949701e-001	 6.3173368994e-001
 1.7102128062e+000	 7.9864160151e-001	 5.5370273592e-001
 1.7020978824e+000	 8.1579350861e-001	 4.6971926843e-001
 1.6937965394e+000	 8.3289226989e-001	 3.7977031497e-001
 1.6853091287e+000	 8.4993493324e-001	 2.8385883697e-001
 1.6766360629e+000	 8.6691854440e-001	 1.8200472232e-001
 1.7607865951e+000	 6.9707935624e-001	 9.2126545307e-001
 1.7537710609e+000	 7.1454609960e-001	 8.7335619282e-001
 1.7465676326e+000	 7.3197716317e-001	 8.1963289482e-001
 1.7391763054e+000	 7.4936962927e-001	 7.6001383258e-001
 1.7315971331e+000	 7.6672056929e-001	 6.9442824197e-001
 1.7238302281e+000	 7.8402704502e-001	 6.2281741155e-001
 1.7158757625e+000	 8.0128611013e-001	 5.4513576372e-001
 1.7077339682e+000	 8.1849481163e-001	 4.6135192324e-001
 1.6994051372e+000	 8.3565019131e-001	 3.7144976927e-001
 1.6908896225e+000	 8.5274928732e-001	 2.7542946746e-001
 1.6821878380e+000	 8.6978913561e-001	 1.7330847833e-001
 1.7665977720e+000	 6.9937994818e-001	 9.0743637557e-001
 1.7595590842e+000	 7.1690433756e-001	 8.6062374037e-001
 1.7523318822e+000	 7.3439292938e-001	 8.0786813701e-001
 1.7449161612e+000	 7.5184279637e-001	 7.4908309448e-001
 1.7373119751e+000	 7.6925100022e-001	 6.8419337274e-001
 1.7295194368e+000	 7.8661459303e-001	 6.1313607063e-001
 1.7215387188e+000	 8.0393061875e-001	 5.3586172441e-001
 1.7133700539e+000	 8.2119611464e-001	 4.5233539332e-001
 1.7050137350e+000	 8.3840811274e-001	 3.6253772835e-001
 1.6964701163e+000	 8.5556364141e-001	 2.6646602069e-001
 1.6877396130e+000	 8.7265972681e-001	 1.6413522601e-001
 1.7724089489e+000	 7.0168054012e-001	 8.9257444279e-001
 1.7653471075e+000	 7.1926257552e-001	 8.4691618675e-001
 1.7580961318e+000	 7.3680869560e-001	 7.9518630704e-001
 1.7506560170e+000	 7.5431596347e-001	 7.3729350463e-001
 1.7430268171e+000	 7.7178143114e-001	 6.7315798042e-001
 1.7352086454e+000	 7.8920214103e-001	 6.0271256089e-001
 1.7272016751e+000	 8.0657512737e-001	 5.2590381419e-001
 1.7190061396e+000	 8.2389741765e-001	 4.4269315282e-001
 1.7106223328e+000	 8.4116603416e-001	 3.5305791939e-001
 1.7020506101e+000	 8.5837799549e-001	 2.5699245152e-001
 1.6932913881e+000	 8.7553031802e-001	 1.5450912216e-001
 1.7782201258e+000	 7.0398113206e-001	 8.7670074139e-001
 1.7711351308e+000	 7.2162081347e-001	 8.3225503870e-001
 1.7638603814e+000	 7.3922446182e-001	 7.8160930975e-001
 1.7563958728e+000	 7.5678913056e-001	 7.2466734349e-001
 1.7487416591e+000	 7.7431186207e-001	 6.6134469813e-001
 1.7408978541e+000	 7.9178968904e-001	 5.9156984469e-001
 1.7328646314e+000	 8.0921963598e-001	 5.1528530071e-001
 1.7246422253e+000	 8.2659872066e-001	 4.3244875037e-001
 1.7162309307e+000	 8.4392395559e-001	 3.4303414724e-001
 1.7076311039e+000	 8.6119234957e-001	 2.4703279580e-001
 1.6988431631e+000	 8.7840090923e-001	 1.4445440802e-001
 1.7840313027e+000	 7.0628172399e-001	 8.5983641389e-001
 1.7769231541e+000	 7.2397905143e-001	 8.1666186081e-001
 1.7696246310e+000	 7.4164022804e-001	 7.6715910999e-001
 1.7621357286e+000	 7.5926229766e-001	 7.1122695387e-001
 1.7544565012e+000	 7.7684229299e-001	 6.4877622385e-001
 1.7465870628e+000	 7.9437723704e-001	 5.7973095186e-001
 1.7385275877e+000	 8.1186414460e-001	 5.0402952195e-001
 1.7302783110e+000	 8.2930002367e-001	 4.2162580788e-001
 1.7218395285e+000	 8.4668187701e-001	 3.3249029309e-001
 1.7132115978e+000	 8.6400670366e-001	 2.3661116899e-001
 1.7043949381e+000	 8.8127150043e-001	 1.3399540792e-001
 1.7898424795e+000	 7.0858231593e-001	 8.4200265766e-001
 1.7827111774e+000	 7.2633728938e-001	 8.0015827454e-001
 1.7753888806e+000	 7.4405599425e-001	 7.5185773166e-001
 1.7678755844e+000	 7.6173546475e-001	 6.9699473994e-001
 1.7601713432e+000	 7.7937272391e-001	 6.3547531934e-001
 1.7522762715e+000	 7.9696478505e-001	 5.6721897865e-001
 1.7441905441e+000	 8.1450865321e-001	 4.9215988504e-001
 1.7359143967e+000	 8.3200132667e-001	 4.1024801934e-001
 1.7274481263e+000	 8.4943979843e-001	 3.2145031331e-001
 1.7187920916e+000	 8.6682105774e-001	 2.2575176494e-001
 1.7099467132e+000	 8.8414209164e-001	 1.2315652789e-001
 1.7956536564e+000	 7.1088290787e-001	 8.2322072415e-001
 1.7884992007e+000	 7.2869552733e-001	 7.8276595735e-001
 1.7811531302e+000	 7.4647176047e-001	 7.3572725675e-001
 1.7736154402e+000	 7.6420863185e-001	 6.8199316621e-001
 1.7658861852e+000	 7.8190315483e-001	 6.2146480914e-001
 1.7579654801e+000	 7.9955233305e-001	 5.5405708665e-001
 1.7498535004e+000	 8.1715316182e-001	 4.7969986517e-001
 1.7415504824e+000	 8.3470262968e-001	 3.9833914963e-001
 1.7330567241e+000	 8.5219771986e-001	 3.0993823817e-001
 1.7243725854e+000	 8.6963541182e-001	 2.1447885459e-001
 1.7154984882e+000	 8.8701268284e-001	 1.1196225438e-001
 1.8014648333e+000	 7.1318349980e-001	 8.0351191790e-001
 1.7942872240e+000	 7.3105376529e-001	 7.6450664176e-001
 1.7869173799e+000	 7.4888752669e-001	 7.1878982439e-001
 1.7793552960e+000	 7.6668179894e-001	 6.6624475657e-001
 1.7716010272e+000	 7.8443358575e-001	 6.0676757955e-001
 1.7636546888e+000	 8.0213988105e-001	 5.4026850171e-001
 1.7555164567e+000	 8.1979767044e-001	 4.6667300448e-001
 1.7471865681e+000	 8.3740393269e-001	 3.8592303343e-001
 1.7386653219e+000	 8.5495564128e-001	 2.9797817070e-001
 1.7299530791e+000	 8.7244976590e-001	 2.0281678470e-001
 1.7210502633e+000	 8.8988327405e-001	 1.0043715294e-001
 1.6655325128e+000	 8.6117736198e-001	 1.9786998880e-001
 1.6567329293e+000	 8.7798690247e-001	 1.0976763355e-001
 1.6477499220e+000	 8.9473191210e-001	 2.3580660969e-002
 1.6385840834e+000	 9.1140945894e-001	-6.0512721480e-002
 1.6292360671e+000	 9.2801661506e-001	-1.4232044796e-001
 1.6197065883e+000	 9.4455045811e-001	-2.2163595399e-001
 1.6099964235e+000	 9.6100807296e-001	-2.9823757321e-001
 1.6001064107e+000	 9.7738655321e-001	-3.7188797388e-001
 1.5900374492e+000	 9.9368300285e-001	-4.4233363836e-001
 1.5797904996e+000	 1.0098945378e+000	-5.0930438787e-001
 1.5693665835e+000	 1.0260182876e+000	-5.7251295562e-001
 1.6710842879e+000	 8.6404795319e-001	 1.9019988703e-001
 1.6622553725e+000	 8.8091352548e-001	 1.0237855799e-001
 1.6532424218e+000	 8.9771435181e-001	 1.6483425433e-002
 1.6440460303e+000	 9.1444749047e-001	-6.7325575551e-002
 1.6346668540e+000	 9.3111000377e-001	-1.4887454822e-001
 1.6251056103e+000	 9.4769895964e-001	-2.2797496615e-001
 1.6153630783e+000	 9.6421143320e-001	-3.0442304238e-001
 1.6054400988e+000	 9.8064450839e-001	-3.7799913858e-001
 1.5953375740e+000	 9.9699527953e-001	-4.4846721734e-001
 1.5850564679e+000	 1.0132608529e+000	-5.1557434024e-001
 1.5745978055e+000	 1.0294383486e+000	-5.7905021458e-001
 1.6766360629e+000	 8.6691854440e-001	 1.8200472232e-001
 1.6677778156e+000	 8.8384014848e-001	 9.4329125685e-002
 1.6587349215e+000	 9.0069679152e-001	 8.5886346800e-003
 1.6495079773e+000	 9.1748552200e-001	-7.5075076699e-002
 1.6400976409e+000	 9.3420339249e-001	-1.5650626627e-001
 1.6305046322e+000	 9.5084746116e-001	-2.3553442784e-001
 1.6207297330e+000	 9.6741479344e-001	-3.1197363267e-001
 1.6107737868e+000	 9.8390246356e-001	-3.8562191119e-001
 1.6006376989e+000	 1.0003075562e+000	-4.5626067814e-001
 1.5903224362e+000	 1.0166271681e+000	-5.2365420381e-001
 1.5798290274e+000	 1.0328584095e+000	-5.8754913431e-001
 1.6821878380e+000	 8.6978913561e-001	 1.7330847833e-001
 1.6733002587e+000	 8.8676677149e-001	 8.5645385685e-002
 1.6642274213e+000	 9.0367923122e-001	-7.5609231966e-005
 1.6549699242e+000	 9.2052355353e-001	-8.3731083352e-002
 1.6455284278e+000	 9.3729678120e-001	-1.6518343568e-001
 1.6359036542e+000	 9.5399596269e-001	-2.4428016359e-001
 1.6260963878e+000	 9.7061815368e-001	-3.2085317649e-001
 1.6161074748e+000	 9.8716041874e-001	-3.9471815011e-001
 1.6059378237e+000	 1.0036198329e+000	-4.6567392431e-001
 1.5955884046e+000	 1.0199934832e+000	-5.3350194754e-001
 1.5850602494e+000	 1.0362784705e+000	-5.9796577057e-001
 1.6877396130e+000	 8.7265972681e-001	 1.6413522601e-001
 1.6788227018e+000	 8.8969339450e-001	 7.6353453098e-002
 1.6697199210e+000	 9.0666167093e-001	-9.4811594053e-003
 1.6604318711e+000	 9.2356158506e-001	-9.3263430361e-002
 1.6509592146e+000	 9.4039016992e-001	-1.7487388774e-001
 1.6413026761e+000	 9.5714446421e-001	-2.5417801690e-001
 1.6314630425e+000	 9.7382151392e-001	-3.3102554652e-001
 1.6214411629e+000	 9.9041837391e-001	-4.0524977520e-001
 1.6112379485e+000	 1.0069321095e+000	-4.7666694208e-001
 1.6008543729e+000	 1.0233597983e+000	-5.4507564424e-001
 1.5902914713e+000	 1.0396985314e+000	-6.1025630408e-001
 1.6932913881e+000	 8.7553031802e-001	 1.5450912216e-001
 1.6843451448e+000	 8.9262001751e-001	 6.6479508030e-002
 1.6752124207e+000	 9.0964411064e-001	-1.9599824839e-002
 1.6658938181e+000	 9.2659961659e-001	-1.0364192938e-001
 1.6563900015e+000	 9.4348355863e-001	-1.8554545142e-001
 1.6467016981e+000	 9.6029296574e-001	-2.6519384992e-001
 1.6368296973e+000	 9.7702487416e-001	-3.4245465497e-001
 1.6267748509e+000	 9.9367632909e-001	-4.1717876681e-001
 1.6165380734e+000	 1.0102443862e+000	-4.8919979899e-001
 1.6061203412e+000	 1.0267261134e+000	-5.5833346893e-001
 1.5955226933e+000	 1.0431185924e+000	-6.2437703855e-001
 1.6988431631e+000	 8.7840090923e-001	 1.4445440802e-001
 1.6898675879e+000	 8.9554664052e-001	 5.6049794514e-002
 1.6807049205e+000	 9.1262655034e-001	-3.0403371152e-002
 1.6713557650e+000	 9.2963764811e-001	-1.1483636925e-001
 1.6618207884e+000	 9.4657694735e-001	-1.9716595349e-001
 1.6521007201e+000	 9.6344146726e-001	-2.7729354314e-001
 1.6421963520e+000	 9.8022823440e-001	-3.5510445299e-001
 1.6321085390e+000	 9.9693428426e-001	-4.3046716472e-001
 1.6218381982e+000	 1.0135566629e+000	-5.0323264263e-001
 1.6113863096e+000	 1.0300924286e+000	-5.7323369707e-001
 1.6007539152e+000	 1.0465386534e+000	-6.4028439858e-001
 1.7043949381e+000	 8.8127150043e-001	 1.3399540792e-001
 1.6953900310e+000	 8.9847326352e-001	 4.5090619476e-002
 1.6861974202e+000	 9.1560899005e-001	-4.1863521283e-002
 1.6768177120e+000	 9.3267567964e-001	-1.2681651637e-001
 1.6672515753e+000	 9.4967033606e-001	-2.0970321853e-001
 1.6574997420e+000	 9.6658996879e-001	-2.9044299510e-001
 1.6475630068e+000	 9.8343159465e-001	-3.6893893001e-001
 1.6374422270e+000	 1.0001922394e+000	-4.4507706727e-001
 1.6271383230e+000	 1.0168689396e+000	-5.1872569925e-001
 1.6166522779e+000	 1.0334587437e+000	-5.8973470302e-001
 1.6059851372e+000	 1.0499587143e+000	-6.5793492778e-001
 1.7099467132e+000	 8.8414209164e-001	 1.2315652789e-001
 1.7009124741e+000	 9.0139988653e-001	 3.3628351706e-002
 1.6916899200e+000	 9.1859142975e-001	-5.3951956191e-002
 1.6822796589e+000	 9.3571371117e-001	-1.3955211506e-001
 1.6726823622e+000	 9.5276372478e-001	-2.2312506892e-001
 1.6628987640e+000	 9.6973847031e-001	-3.0460812210e-001
 1.6529296615e+000	 9.8663495489e-001	-3.8392211312e-001
 1.6427759150e+000	 1.0034501946e+000	-4.6097063031e-001
 1.6324384479e+000	 1.0201812162e+000	-5.3563927253e-001
 1.6219182462e+000	 1.0368250588e+000	-6.0779495835e-001
 1.6112163591e+000	 1.0533787753e+000	-6.7728528676e-001
 1.7154984882e+000	 8.8701268284e-001	 1.1196225438e-001
 1.7064349172e+000	 9.0432650953e-001	 2.1689420865e-002
 1.6971824197e+000	 9.2157386946e-001	-6.6640315530e-002
 1.6877416059e+000	 9.3875174270e-001	-1.5301288792e-001
 1.6781131491e+000	 9.5585711349e-001	-2.3739932494e-001
 1.6682977859e+000	 9.7288697184e-001	-3.1975485791e-001
 1.6582963162e+000	 9.8983831513e-001	-4.0001806648e-001
 1.6481096031e+000	 1.0067081498e+000	-4.7811006635e-001
 1.6377385727e+000	 1.0234934929e+000	-5.5393374234e-001
 1.6271842146e+000	 1.0401913739e+000	-6.2737303035e-001
 1.6164475810e+000	 1.0567988362e+000	-6.9829225129e-001
 1.7210502633e+000	 8.8988327405e-001	 1.0043715294e-001
 1.7119573603e+000	 9.0725313254e-001	 9.3003164971e-003
 1.7026749194e+000	 9.2455630916e-001	-7.9900198318e-002
 1.6932035528e+000	 9.4178977422e-001	-1.6716853619e-001
 1.6835439360e+000	 9.5895050220e-001	-2.5249380479e-001
 1.6736968079e+000	 9.7603547336e-001	-3.3584915348e-001
 1.6636629710e+000	 9.9304167537e-001	-4.1719089069e-001
 1.6534432911e+000	 1.0099661050e+000	-4.9645764359e-001
 1.6430386975e+000	 1.0268057696e+000	-5.7356956346e-001
 1.6324501829e+000	 1.0435576891e+000	-6.4842758042e-001
 1.6216788030e+000	 1.0602188972e+000	-7.2091271043e-001
 1.5693665835e+000	 1.0260182876e+000	-5.7251295562e-001
 1.5587667838e+000	 1.0420513969e+000	-6.8557253048e-001
 1.5479922437e+000	 1.0579910272e+000	-7.9506552198e-001
 1.5370441670e+000	 1.0738343581e+000	-9.0063453776e-001
 1.5259238176e+000	 1.0895785896e+000	-1.0019029800e+000
 1.5146325189e+000	 1.1052209429e+000	-1.0984749024e+000
 1.5031716538e+000	 1.1207586623e+000	-1.1899349302e+000
 1.4915426636e+000	 1.1361890171e+000	-1.2758482433e+000
 1.4797470480e+000	 1.1515093025e+000	-1.3557606257e+000
 1.4677863643e+000	 1.1667168417e+000	-1.4291985808e+000
 1.4556622267e+000	 1.1818089870e+000	-1.4956695145e+000
 1.5745978055e+000	 1.0294383486e+000	-5.7905021458e-001
 1.5639626731e+000	 1.0455249016e+000	-6.9207282993e-001
 1.5531522178e+000	 1.0615176639e+000	-8.0123376510e-001
 1.5421676476e+000	 1.0774138060e+000	-9.0616611358e-001
 1.5310102303e+000	 1.0932105182e+000	-1.0064837020e+000
 1.5196812940e+000	 1.1089050127e+000	-1.1017809525e+000
 1.5081822260e+000	 1.1244945245e+000	-1.1916328087e+000
 1.4965144725e+000	 1.1399763138e+000	-1.2755947255e+000
 1.4846795382e+000	 1.1553476669e+000	-1.3532027251e+000
 1.4726789855e+000	 1.1706058978e+000	-1.4239735200e+000
 1.4605144341e+000	 1.1857483503e+000	-1.4874047043e+000
 1.5798290274e+000	 1.0328584095e+000	-5.8754913431e-001
 1.5691585623e+000	 1.0489984062e+000	-7.0043163062e-001
 1.5583121920e+000	 1.0650443007e+000	-8.0916171279e-001
 1.5472911281e+000	 1.0809932538e+000	-9.1336304282e-001
 1.5360966430e+000	 1.0968424469e+000	-1.0126399494e+000
 1.5247300691e+000	 1.1125890825e+000	-1.1065772958e+000
 1.5131927982e+000	 1.1282303867e+000	-1.1947404113e+000
 1.5014862814e+000	 1.1437636105e+000	-1.2766750877e+000
 1.4896120284e+000	 1.1591860312e+000	-1.3519076421e+000
 1.4775716068e+000	 1.1744949539e+000	-1.4199450473e+000
 1.4653666415e+000	 1.1896877136e+000	-1.4802751308e+000
 1.5850602494e+000	 1.0362784705e+000	-5.9796577057e-001
 1.5743544516e+000	 1.0524719109e+000	-7.1060563801e-001
 1.5634721661e+000	 1.0685709374e+000	-8.1880671675e-001
 1.5524146087e+000	 1.0845727017e+000	-9.2218331964e-001
 1.5411830558e+000	 1.1004743755e+000	-1.0203303549e+000
 1.5297788441e+000	 1.1162731523e+000	-1.1128231991e+000
 1.5182033703e+000	 1.1319662489e+000	-1.1992176345e+000
 1.5064580902e+000	 1.1475509073e+000	-1.2790498515e+000
 1.4945445185e+000	 1.1630243955e+000	-1.3518365184e+000
 1.4824642280e+000	 1.1783840101e+000	-1.4170749189e+000
 1.4702188489e+000	 1.1936270769e+000	-1.4742431593e+000
 1.5902914713e+000	 1.0396985314e+000	-6.1025630408e-001
 1.5795503409e+000	 1.0559454155e+000	-7.2255167019e-001
 1.5686321403e+000	 1.0720975742e+000	-8.3012622922e-001
 1.5575380892e+000	 1.0881521496e+000	-9.3258502701e-001
 1.5462694685e+000	 1.1041063041e+000	-1.0295136285e+000
 1.5348276192e+000	 1.1199572221e+000	-1.1204779957e+000
 1.5232139425e+000	 1.1357021112e+000	-1.2050244305e+000
 1.5114298991e+000	 1.1513382040e+000	-1.2826795835e+000
 1.4994770087e+000	 1.1668627599e+000	-1.3529505302e+000
 1.4873568492e+000	 1.1822730662e+000	-1.4153249159e+000
 1.4750710564e+000	 1.1975664401e+000	-1.4692711703e+000
 1.5955226933e+000	 1.0431185924e+000	-6.2437703855e-001
 1.5847462302e+000	 1.0594189202e+000	-7.3622665605e-001
 1.5737921144e+000	 1.0756242109e+000	-8.4307780135e-001
 1.5626615698e+000	 1.0917315974e+000	-9.4452633522e-001
 1.5513558812e+000	 1.1077382328e+000	-1.0401485562e+000
 1.5398763943e+000	 1.1236412919e+000	-1.1295010836e+000
 1.5282245147e+000	 1.1394379734e+000	-1.2121208056e+000
 1.5164017080e+000	 1.1551255007e+000	-1.2875248941e+000
 1.5044094988e+000	 1.1707011242e+000	-1.3552108877e+000
 1.4922494704e+000	 1.1861621224e+000	-1.4146568434e+000
 1.4799232638e+000	 1.2015058034e+000	-1.4653215589e+000
 1.6007539152e+000	 1.0465386534e+000	-6.4028439858e-001
 1.5899421195e+000	 1.0628924248e+000	-7.5158763346e-001
 1.5789520885e+000	 1.0791508477e+000	-8.5761908163e-001
 1.5677850503e+000	 1.0953110453e+000	-9.5796550047e-001
 1.5564422939e+000	 1.1113701614e+000	-1.0521939989e+000
 1.5449251693e+000	 1.1273253617e+000	-1.1398519249e+000
 1.5332350869e+000	 1.1431738356e+000	-1.2204668196e+000
 1.5213735169e+000	 1.1589127974e+000	-1.2935464371e+000
 1.5093419890e+000	 1.1745394885e+000	-1.3585788344e+000
 1.4971420916e+000	 1.1900511785e+000	-1.4150325302e+000
 1.4847754712e+000	 1.2054451667e+000	-1.4623567349e+000
 1.6059851372e+000	 1.0499587143e+000	-6.5793492778e-001
 1.5951380087e+000	 1.0663659295e+000	-7.6859174749e-001
 1.5841120627e+000	 1.0826774844e+000	-8.7370781423e-001
 1.5729085309e+000	 1.0988904931e+000	-9.7286086346e-001
 1.5615287067e+000	 1.1150020900e+000	-1.0656088909e+000
 1.5499739444e+000	 1.1310094315e+000	-1.1514900448e+000
 1.5382456590e+000	 1.1469096978e+000	-1.2300225849e+000
 1.5263453258e+000	 1.1627000942e+000	-1.3007049086e+000
 1.5142744792e+000	 1.1783778529e+000	-1.3630156465e+000
 1.5020347128e+000	 1.1939402346e+000	-1.4164138288e+000
 1.4896276786e+000	 1.2093845300e+000	-1.4603391222e+000
 1.6112163591e+000	 1.0533787753e+000	-6.7728528676e-001
 1.6003338980e+000	 1.0698394341e+000	-7.8719624867e-001
 1.5892720368e+000	 1.0862041212e+000	-8.9130183749e-001
 1.5780320115e+000	 1.1024699410e+000	-9.8917084802e-001
 1.5666151194e+000	 1.1186340186e+000	-1.0803522391e+000
 1.5550227194e+000	 1.1346935013e+000	-1.1643750302e+000
 1.5432562312e+000	 1.1506455600e+000	-1.2407482658e+000
 1.5313171346e+000	 1.1664873909e+000	-1.3089610468e+000
 1.5192069693e+000	 1.1822162172e+000	-1.3684826328e+000
 1.5069273340e+000	 1.1978292908e+000	-1.4187626145e+000
 1.4944798861e+000	 1.2133238933e+000	-1.4592311590e+000
 1.6164475810e+000	 1.0567988362e+000	-6.9829225129e-001
 1.6055297873e+000	 1.0733129388e+000	-8.0735849131e-001
 1.5944320110e+000	 1.0897307580e+000	-9.1035908239e-001
 1.5831554920e+000	 1.1060493889e+000	-1.0068539598e+000
 1.5717015321e+000	 1.1222659473e+000	-1.0963831214e+000
 1.5600714945e+000	 1.1383775711e+000	-1.1784665291e+000
 1.5482668034e+000	 1.1543814222e+000	-1.2526040774e+000
 1.5362889435e+000	 1.1702746876e+000	-1.3182756312e+000
 1.5241394595e+000	 1.1860545816e+000	-1.3749411335e+000
 1.5118199553e+000	 1.2017183469e+000	-1.4220407853e+000
 1.4993320935e+000	 1.2172632566e+000	-1.4589952973e+000
 1.6216788030e+000	 1.0602188972e+000	-7.2091271043e-001
 1.6107256766e+000	 1.0767864435e+000	-8.2903593179e-001
 1.5995919851e+000	 1.0932573947e+000	-9.3083757108e-001
 1.5882789726e+000	 1.1096288367e+000	-1.0258687848e+000
 1.5767879448e+000	 1.1258978759e+000	-1.1136606859e+000
 1.5651202696e+000	 1.1420616410e+000	-1.1937242491e+000
 1.5532773756e+000	 1.1581172844e+000	-1.2655502848e+000
 1.5412607524e+000	 1.1740619843e+000	-1.3286094815e+000
 1.5290719496e+000	 1.1898929459e+000	-1.3823525205e+000
 1.5167125765e+000	 1.2056074031e+000	-1.4262102616e+000
 1.5041843009e+000	 1.2212026199e+000	-1.4595940026e+000
 1.4556622267e+000	 1.1818089870e+000	-1.4956695145e+000
 1.4433763056e+000	 1.1967831217e+000	-1.5728884866e+000
 1.4309303270e+000	 1.2116366614e+000	-1.6165817355e+000
 1.4183260717e+000	 1.2263670552e+000	-1.6259287876e+000
 1.4055653745e+000	 1.2409717878e+000	-1.6001149087e+000
 1.3926501229e+000	 1.2554483801e+000	-1.6009753226e+000
 1.3795822569e+000	 1.2697943914e+000	-1.6798183678e+000
 1.3663637674e+000	 1.2840074201e+000	-1.7383161524e+000
 1.3529966957e+000	 1.2980851055e+000	-1.7765143233e+000
 1.3394831320e+000	 1.3120251289e+000	-1.7944846457e+000
 1.3258252147e+000	 1.3258252147e+000	-1.7923245532e+000
 1.4605144341e+000	 1.1857483503e+000	-1.4874047043e+000
 1.4481875599e+000	 1.2007723988e+000	-1.5590444700e+000
 1.4357000948e+000	 1.2156754502e+000	-1.5977611179e+000
 1.4230538253e+000	 1.2304549454e+000	-1.6027384116e+000
 1.4102505924e+000	 1.2451083604e+000	-1.5731649900e+000
 1.3972922900e+000	 1.2596332080e+000	-1.6157349036e+000
 1.3841808644e+000	 1.2740270394e+000	-1.6902293286e+000
 1.3709183133e+000	 1.2882874449e+000	-1.7450136570e+000
 1.3575066847e+000	 1.3024120559e+000	-1.7801427080e+000
 1.3439480758e+000	 1.3163985460e+000	-1.7956970327e+000
 1.3302446321e+000	 1.3302446321e+000	-1.7917824498e+000
 1.4653666415e+000	 1.1896877136e+000	-1.4802751308e+000
 1.4529988143e+000	 1.2047616759e+000	-1.5464229815e+000
 1.4404698625e+000	 1.2197142391e+000	-1.5802487721e+000
 1.4277815789e+000	 1.2345428356e+000	-1.5809404570e+000
 1.4149358103e+000	 1.2492449330e+000	-1.5476899993e+000
 1.4019344570e+000	 1.2638180360e+000	-1.6292796064e+000
 1.3887794719e+000	 1.2782596873e+000	-1.6994785027e+000
 1.3754728592e+000	 1.2925674696e+000	-1.7505973568e+000
 1.3620166737e+000	 1.3067390062e+000	-1.7827001713e+000
 1.3484130196e+000	 1.3207719631e+000	-1.7958762979e+000
 1.3346640495e+000	 1.3346640495e+000	-1.7902399611e+000
 1.4702188489e+000	 1.1936270769e+000	-1.4742431593e+000
 1.4578100686e+000	 1.2087509529e+000	-1.5349855665e+000
 1.4452396303e+000	 1.2237530280e+000	-1.5640054819e+000
 1.4325093325e+000	 1.2386307258e+000	-1.5604950042e+000
 1.4196210282e+000	 1.2533815056e+000	-1.5571650914e+000
 1.4065766241e+000	 1.2680028639e+000	-1.6416237827e+000
 1.3933780794e+000	 1.2824923353e+000	-1.7075796171e+000
 1.3800274051e+000	 1.2968474943e+000	-1.7550803839e+000
 1.3665266627e+000	 1.3110659566e+000	-1.7841992798e+000
 1.3528779634e+000	 1.3251453802e+000	-1.7950344734e+000
 1.3390834668e+000	 1.3390834668e+000	-1.7877086147e+000
 1.4750710564e+000	 1.1975664401e+000	-1.4692711703e+000
 1.4626213230e+000	 1.2127402300e+000	-1.5246937949e+000
 1.4500093980e+000	 1.2277918168e+000	-1.5489920643e+000
 1.4372370860e+000	 1.2427186159e+000	-1.5413621757e+000
 1.4243062461e+000	 1.2575180782e+000	-1.5731247216e+000
 1.4112187912e+000	 1.2721876918e+000	-1.6527818415e+000
 1.3979766870e+000	 1.2867249833e+000	-1.7145464633e+000
 1.3845819510e+000	 1.3011275190e+000	-1.7584759412e+000
 1.3710366517e+000	 1.3153929069e+000	-1.7846526772e+000
 1.3573429071e+000	 1.3295187973e+000	-1.7931836730e+000
 1.3435028842e+000	 1.3435028842e+000	-1.7842000250e+000
 1.4799232638e+000	 1.2015058034e+000	-1.4653215589e+000
 1.4674325773e+000	 1.2167295071e+000	-1.5155092608e+000
 1.4547791658e+000	 1.2318306057e+000	-1.5351693696e+000
 1.4419648396e+000	 1.2468065061e+000	-1.5235021351e+000
 1.4289914640e+000	 1.2616546509e+000	-1.5878564314e+000
 1.4158609583e+000	 1.2763725198e+000	-1.6627682484e+000
 1.4025752945e+000	 1.2909576312e+000	-1.7203928963e+000
 1.3891364969e+000	 1.3054075438e+000	-1.7607973012e+000
 1.3755466407e+000	 1.3197198573e+000	-1.7840730825e+000
 1.3618078509e+000	 1.3338922144e+000	-1.7903360913e+000
 1.3479223016e+000	 1.3479223016e+000	-1.7797258921e+000
 1.4847754712e+000	 1.2054451667e+000	-1.4623567349e+000
 1.4722438317e+000	 1.2207187841e+000	-1.5073935822e+000
 1.4595489335e+000	 1.2358693946e+000	-1.5224982803e+000
 1.4466925932e+000	 1.2508943963e+000	-1.5144146375e+000
 1.4336766820e+000	 1.2657912235e+000	-1.6013753735e+000
 1.4205031254e+000	 1.2805573477e+000	-1.6715975246e+000
 1.4071739020e+000	 1.2951902792e+000	-1.7251328332e+000
 1.3936910428e+000	 1.3096875685e+000	-1.7620578048e+000
 1.3800566296e+000	 1.3240468076e+000	-1.7824732887e+000
 1.3662727947e+000	 1.3382656315e+000	-1.7865040024e+000
 1.3523417190e+000	 1.3523417190e+000	-1.7742979997e+000
 1.4896276786e+000	 1.2093845300e+000	-1.4603391222e+000
 1.4770550860e+000	 1.2247080612e+000	-1.5003084001e+000
 1.4643187013e+000	 1.2399081835e+000	-1.5109397110e+000
 1.4514203468e+000	 1.2549822865e+000	-1.5319560982e+000
 1.4383618999e+000	 1.2699277961e+000	-1.6136967482e+000
 1.4251452924e+000	 1.2847421756e+000	-1.6792842460e+000
 1.4117725095e+000	 1.2994229272e+000	-1.7287802524e+000
 1.3982455887e+000	 1.3139675933e+000	-1.7622708605e+000
 1.3845666186e+000	 1.3283737580e+000	-1.7798661622e+000
 1.3707377385e+000	 1.3426390486e+000	-1.7816997585e+000
 1.3567611364e+000	 1.3567611364e+000	-1.7679282147e+000
 1.4944798861e+000	 1.2133238933e+000	-1.4592311590e+000
 1.4818663404e+000	 1.2286973383e+000	-1.4942153788e+000
 1.4690884691e+000	 1.2439469723e+000	-1.5004546077e+000
 1.4561481003e+000	 1.2590701767e+000	-1.5482558903e+000
 1.4430471178e+000	 1.2740643687e+000	-1.6248358024e+000
 1.4297874595e+000	 1.2889270036e+000	-1.6858430421e+000
 1.4163711171e+000	 1.3036555751e+000	-1.7313491927e+000
 1.4028001346e+000	 1.3182476180e+000	-1.7614499431e+000
 1.3890766076e+000	 1.3327007084e+000	-1.7762646407e+000
 1.3752026822e+000	 1.3470124657e+000	-1.7759357884e+000
 1.3611805538e+000	 1.3611805538e+000	-1.7606284848e+000
 1.4993320935e+000	 1.2172632566e+000	-1.4589952973e+000
 1.4866775947e+000	 1.2326866154e+000	-1.4890762050e+000
 1.4738582368e+000	 1.2479857612e+000	-1.4910039471e+000
 1.4608758539e+000	 1.2631580669e+000	-1.5633299432e+000
 1.4477323357e+000	 1.2782009414e+000	-1.6348078292e+000
 1.4344296266e+000	 1.2931118315e+000	-1.6912885957e+000
 1.4209697246e+000	 1.3078882231e+000	-1.7328537522e+000
 1.4073546805e+000	 1.3225276427e+000	-1.7596085924e+000
 1.3935865966e+000	 1.3370276587e+000	-1.7716817331e+000
 1.3796676260e+000	 1.3513858828e+000	-1.7692245966e+000
 1.3655999711e+000	 1.3655999711e+000	-1.7524108382e+000
 1.5041843009e+000	 1.2212026199e+000	-1.4595940026e+000
 1.4914888491e+000	 1.2366758924e+000	-1.4848525878e+000
 1.4786280046e+000	 1.2520245501e+000	-1.4962662566e+000
 1.4656036075e+000	 1.2672459570e+000	-1.5771942240e+000
 1.4524175536e+000	 1.2823375140e+000	-1.6436281671e+000
 1.4390717937e+000	 1.2972966594e+000	-1.6956356413e+000
 1.4255683321e+000	 1.3121208711e+000	-1.7333080873e+000
 1.4119092263e+000	 1.3268076675e+000	-1.7567604126e+000
 1.3980965856e+000	 1.3413546091e+000	-1.7661305174e+000
 1.3841325698e+000	 1.3557592999e+000	-1.7615787622e+000
 1.3700193885e+000	 1.3700193885e+000	-1.7432873816e+000
 1.3258252147e+000	 1.3258252147e+000	-1.7923245532e+000
 1.3120251289e+000	 1.3394831320e+000	-1.8391789226e+000
 1.2980851055e+000	 1.3529966957e+000	-1.8977571484e+000
 1.2840074201e+000	 1.3663637674e+000	-1.9678941651e+000
 1.2697943914e+000	 1.3795822569e+000	-2.0494189968e+000
 1.2554483801e+000	 1.3926501229e+000	-2.1421544513e+000
 1.2409717878e+000	 1.4055653745e+000	-2.1130483329e+000
 1.2263670552e+000	 1.4183260717e+000	-2.0221520319e+000
 1.2116366614e+000	 1.4309303270e+000	-1.9512171058e+000
 1.1967831217e+000	 1.4433763056e+000	-1.8995224136e+000
 1.1818089870e+000	 1.4556622267e+000	-1.8663210620e+000
 1.3302446321e+000	 1.3302446321e+000	-1.7917824498e+000
 1.3163985460e+000	 1.3439480758e+000	-1.8341284661e+000
 1.3024120559e+000	 1.3575066847e+000	-1.8879183075e+000
 1.2882874449e+000	 1.3709183133e+000	-1.9529927292e+000
 1.2740270394e+000	 1.3841808644e+000	-2.0291869861e+000
 1.2596332080e+000	 1.3972922900e+000	-2.1163305152e+000
 1.2451083604e+000	 1.4102505924e+000	-2.1422299384e+000
 1.2304549454e+000	 1.4230538253e+000	-2.0428461496e+000
 1.2156754502e+000	 1.4357000948e+000	-1.9633256745e+000
 1.2007723988e+000	 1.4481875599e+000	-1.9029465069e+000
 1.1857483503e+000	 1.4605144341e+000	-1.8609609311e+000
 1.3346640495e+000	 1.3346640495e+000	-1.7902399611e+000
 1.3207719631e+000	 1.3484130196e+000	-1.8280868569e+000
 1.3067390062e+000	 1.3620166737e+000	-1.8770988693e+000
 1.2925674696e+000	 1.3754728592e+000	-1.9371226122e+000
 1.2782596873e+000	 1.3887794719e+000	-2.0079996097e+000
 1.2638180360e+000	 1.4019344570e+000	-2.0895659666e+000
 1.2492449330e+000	 1.4149358103e+000	-2.1705334173e+000
 1.2345428356e+000	 1.4277815789e+000	-2.0627008863e+000
 1.2197142391e+000	 1.4404698625e+000	-1.9746373467e+000
 1.2047616759e+000	 1.4529988143e+000	-1.9056198738e+000
 1.1896877136e+000	 1.4653666415e+000	-1.8548998729e+000
 1.3390834668e+000	 1.3390834668e+000	-1.7877086147e+000
 1.3251453802e+000	 1.3528779634e+000	-1.8210653322e+000
 1.3110659566e+000	 1.3665266627e+000	-1.8653097492e+000
 1.2968474943e+000	 1.3800274051e+000	-1.9202943768e+000
 1.2824923353e+000	 1.3933780794e+000	-1.9858670470e+000
 1.2680028639e+000	 1.4065766241e+000	-2.0618705712e+000
 1.2533815056e+000	 1.4196210282e+000	-2.1481423884e+000
 1.2386307258e+000	 1.4325093325e+000	-2.0816951712e+000
 1.2237530280e+000	 1.4452396303e+000	-1.9851308853e+000
 1.2087509529e+000	 1.4578100686e+000	-1.9075210962e+000
 1.1936270769e+000	 1.4702188489e+000	-1.8481162733e+000
 1.3435028842e+000	 1.3435028842e+000	-1.7842000250e+000
 1.3295187973e+000	 1.3573429071e+000	-1.8130752178e+000
 1.3153929069e+000	 1.3710366517e+000	-1.8525619536e+000
 1.3011275190e+000	 1.3845819510e+000	-1.9025186793e+000
 1.2867249833e+000	 1.3979766870e+000	-1.9627995735e+000
 1.2721876918e+000	 1.4112187912e+000	-2.0332541937e+000
 1.2575180782e+000	 1.4243062461e+000	-2.1137271120e+000
 1.2427186159e+000	 1.4372370860e+000	-2.0998080393e+000
 1.2277918168e+000	 1.4500093980e+000	-1.9947851628e+000
 1.2127402300e+000	 1.4626213230e+000	-1.9086288698e+000
 1.1975664401e+000	 1.4750710564e+000	-1.8405886372e+000
 1.3479223016e+000	 1.3479223016e+000	-1.7797258921e+000
 1.3338922144e+000	 1.3618078509e+000	-1.8041279270e+000
 1.3197198573e+000	 1.3755466407e+000	-1.8388665782e+000
 1.3054075438e+000	 1.3891364969e+000	-1.8838062673e+000
 1.2909576312e+000	 1.4025752945e+000	-1.9388075590e+000
 1.2763725198e+000	 1.4158609583e+000	-2.0037267966e+000
 1.2616546509e+000	 1.4289914640e+000	-2.0784157248e+000
 1.2468065061e+000	 1.4419648396e+000	-2.1170186301e+000
 1.2318306057e+000	 1.4547791658e+000	-2.0035791602e+000
 1.2167295071e+000	 1.4674325773e+000	-1.9089220025e+000
 1.2015058034e+000	 1.4799232638e+000	-1.8322955853e+000
 1.3523417190e+000	 1.3523417190e+000	-1.7742979997e+000
 1.3382656315e+000	 1.3662727947e+000	-1.7942349588e+000
 1.3240468076e+000	 1.3800566296e+000	-1.8242348068e+000
 1.3096875685e+000	 1.3936910428e+000	-1.8641679793e+000
 1.2951902792e+000	 1.4071739020e+000	-1.9139014667e+000
 1.2805573477e+000	 1.4205031254e+000	-1.9732984380e+000
 1.2657912235e+000	 1.4336766820e+000	-2.0422178511e+000
 1.2508943963e+000	 1.4466925932e+000	-2.1205140515e+000
 1.2358693946e+000	 1.4595489335e+000	-2.0114919643e+000
 1.2207187841e+000	 1.4722438317e+000	-1.9083794126e+000
 1.2054451667e+000	 1.4847754712e+000	-1.8232158533e+000
 1.3567611364e+000	 1.3567611364e+000	-1.7679282147e+000
 1.3426390486e+000	 1.3707377385e+000	-1.7834078968e+000
 1.3283737580e+000	 1.3845666186e+000	-1.8086779097e+000
 1.3139675933e+000	 1.3982455887e+000	-1.8436147423e+000
 1.2994229272e+000	 1.4117725095e+000	-1.8880918509e+000
 1.2847421756e+000	 1.4251452924e+000	-1.9419792705e+000
 1.2699277961e+000	 1.4383618999e+000	-2.0051432127e+000
 1.2549822865e+000	 1.4514203468e+000	-2.0774456510e+000
 1.2399081835e+000	 1.4643187013e+000	-2.0185027667e+000
 1.2247080612e+000	 1.4770550860e+000	-1.9069801266e+000
 1.2093845300e+000	 1.4896276786e+000	-1.8133282893e+000
 1.3611805538e+000	 1.3611805538e+000	-1.7606284848e+000
 1.3470124657e+000	 1.3752026822e+000	-1.7716584075e+000
 1.3327007084e+000	 1.3890766076e+000	-1.7922072421e+000
 1.3182476180e+000	 1.4028001346e+000	-1.8221575708e+000
 1.3036555751e+000	 1.4163711171e+000	-1.8613893559e+000
 1.2889270036e+000	 1.4297874595e+000	-1.9097795394e+000
 1.2740643687e+000	 1.4430471178e+000	-1.9672016274e+000
 1.2590701767e+000	 1.4561481003e+000	-2.0335252628e+000
 1.2439469723e+000	 1.4690884691e+000	-2.0245908618e+000
 1.2286973383e+000	 1.4818663404e+000	-1.9047032781e+000
 1.2133238933e+000	 1.4944798861e+000	-1.8026118525e+000
 1.3655999711e+000	 1.3655999711e+000	-1.7524108382e+000
 1.3513858828e+000	 1.3796676260e+000	-1.7589982394e+000
 1.3370276587e+000	 1.3935865966e+000	-1.7748342434e+000
 1.3225276427e+000	 1.4073546805e+000	-1.7998075655e+000
 1.3078882231e+000	 1.4209697246e+000	-1.8338047148e+000
 1.2931118315e+000	 1.4344296266e+000	-1.8767095813e+000
 1.2782009414e+000	 1.4477323357e+000	-1.9284030072e+000
 1.2631580669e+000	 1.4608758539e+000	-1.9887623462e+000
 1.2479857612e+000	 1.4738582368e+000	-2.0297356453e+000
 1.2326866154e+000	 1.4866775947e+000	-1.9015281054e+000
 1.2172632566e+000	 1.4993320935e+000	-1.7910456109e+000
 1.3700193885e+000	 1.3700193885e+000	-1.7432873816e+000
 1.3557592999e+000	 1.3841325698e+000	-1.7454392213e+000
 1.3413546091e+000	 1.3980965856e+000	-1.7565704349e+000
 1.3268076675e+000	 1.4119092263e+000	-1.7765759114e+000
 1.3121208711e+000	 1.4255683321e+000	-1.8053487476e+000
 1.2972966594e+000	 1.4390717937e+000	-1.8427798227e+000
 1.2823375140e+000	 1.4524175536e+000	-1.8887573571e+000
 1.2672459570e+000	 1.4656036075e+000	-1.9431664571e+000
 1.2520245501e+000	 1.4786280046e+000	-2.0058886477e+000
 1.2366758924e+000	 1.4914888491e+000	-1.8974339502e+000
 1.2212026199e+000	 1.5041843009e+000	-1.7786087400e+000
 1.1818089870e+000	 1.4556622267e+000	-1.8663210620e+000
 1.1667168417e+000	 1.4677863643e+000	-1.8211077458e+000
 1.1515093025e+000	 1.4797470480e+000	-1.7817081653e+000
 1.1361890171e+000	 1.4915426636e+000	-1.7477874200e+000
 1.1207586623e+000	 1.5031716538e+000	-1.7189985467e+000
 1.1052209429e+000	 1.5146325189e+000	-1.6949833373e+000
 1.0895785896e+000	 1.5259238176e+000	-1.6753731756e+000
 1.0738343581e+000	 1.5370441670e+000	-1.6597898935e+000
 1.0579910272e+000	 1.5479922437e+000	-1.6478466422e+000
 1.0420513969e+000	 1.5587667838e+000	-1.6391487763e+000
 1.0260182876e+000	 1.5693665835e+000	-1.6332947498e+000
 1.1857483503e+000	 1.4605144341e+000	-1.8609609311e+000
 1.1706058978e+000	 1.4726789855e+000	-1.8117790798e+000
 1.1553476669e+000	 1.4846795382e+000	-1.7691110940e+000
 1.1399763138e+000	 1.4965144725e+000	-1.7325939996e+000
 1.1244945245e+000	 1.5081822260e+000	-1.7018521931e+000
 1.1089050127e+000	 1.5196812940e+000	-1.6764982964e+000
 1.0932105182e+000	 1.5310102303e+000	-1.6561340318e+000
 1.0774138060e+000	 1.5421676476e+000	-1.6403511159e+000
 1.0615176639e+000	 1.5531522178e+000	-1.6287321693e+000
 1.0455249016e+000	 1.5639626731e+000	-1.6208516403e+000
 1.0294383486e+000	 1.5745978055e+000	-1.6162767397e+000
 1.1896877136e+000	 1.4653666415e+000	-1.8548998729e+000
 1.1744949539e+000	 1.4775716068e+000	-1.8015332100e+000
 1.1591860312e+000	 1.4896120284e+000	-1.7553788305e+000
 1.1437636105e+000	 1.5014862814e+000	-1.7160457623e+000
 1.1282303867e+000	 1.5131927982e+000	-1.6831298382e+000
 1.1125890825e+000	 1.5247300691e+000	-1.6562145864e+000
 1.0968424469e+000	 1.5360966430e+000	-1.6348721443e+000
 1.0809932538e+000	 1.5472911281e+000	-1.6186641894e+000
 1.0650443007e+000	 1.5583121920e+000	-1.6071428886e+000
 1.0489984062e+000	 1.5691585623e+000	-1.5998518602e+000
 1.0328584095e+000	 1.5798290274e+000	-1.5963271481e+000
 1.1936270769e+000	 1.4702188489e+000	-1.8481162733e+000
 1.1783840101e+000	 1.4824642280e+000	-1.7903509822e+000
 1.1630243955e+000	 1.4945445185e+000	-1.7404947168e+000
 1.1475509073e+000	 1.5064580902e+000	-1.6981285825e+000
 1.1319662489e+000	 1.5182033703e+000	-1.6628199228e+000
 1.1162731523e+000	 1.5297788441e+000	-1.6341232477e+000
 1.1004743755e+000	 1.5411830558e+000	-1.6115811841e+000
 1.0845727017e+000	 1.5524146087e+000	-1.5947254461e+000
 1.0685709374e+000	 1.5634721661e+000	-1.5830778216e+000
 1.0524719109e+000	 1.5743544516e+000	-1.5761511740e+000
 1.0362784705e+000	 1.5850602494e+000	-1.5734504553e+000
 1.1975664401e+000	 1.4750710564e+000	-1.8405886372e+000
 1.1822730662e+000	 1.4873568492e+000	-1.7782133298e+000
 1.1668627599e+000	 1.4994770087e+000	-1.7244421522e+000
 1.1513382040e+000	 1.5114298991e+000	-1.6788283604e+000
 1.1357021112e+000	 1.5232139425e+000	-1.6409108821e+000
 1.1199572221e+000	 1.5348276192e+000	-1.6102152826e+000
 1.1041063041e+000	 1.5462694685e+000	-1.5862547524e+000
 1.0881521496e+000	 1.5575380892e+000	-1.5685311153e+000
 1.0720975742e+000	 1.5686321403e+000	-1.5565358540e+000
 1.0559454155e+000	 1.5795503409e+000	-1.5497511506e+000
 1.0396985314e+000	 1.5902914713e+000	-1.5476509387e+000
 1.2015058034e+000	 1.4799232638e+000	-1.8322955853e+000
 1.1861621224e+000	 1.4922494704e+000	-1.7651012730e+000
 1.1707011242e+000	 1.5044094988e+000	-1.7072045921e+000
 1.1551255007e+000	 1.5164017080e+000	-1.6581310214e+000
 1.1394379734e+000	 1.5282245147e+000	-1.6173911453e+000
 1.1236412919e+000	 1.5398763943e+000	-1.5844816564e+000
 1.1077382328e+000	 1.5513558812e+000	-1.5588863810e+000
 1.0917315974e+000	 1.5626615698e+000	-1.5400773248e+000
 1.0756242109e+000	 1.5737921144e+000	-1.5275157377e+000
 1.0594189202e+000	 1.5847462302e+000	-1.5206531924e+000
 1.0431185924e+000	 1.5955226933e+000	-1.5189326762e+000
 1.2054451667e+000	 1.4847754712e+000	-1.8232158533e+000
 1.1900511785e+000	 1.4971420916e+000	-1.7509959167e+000
 1.1745394885e+000	 1.5093419890e+000	-1.6887655470e+000
 1.1589127974e+000	 1.5213735169e+000	-1.6360225161e+000
 1.1431738356e+000	 1.5332350869e+000	-1.5922491361e+000
 1.1273253617e+000	 1.5449251693e+000	-1.5569132977e+000
 1.1113701614e+000	 1.5564422939e+000	-1.5294695338e+000
 1.0953110453e+000	 1.5677850503e+000	-1.5093601031e+000
 1.0791508477e+000	 1.5789520885e+000	-1.4960160931e+000
 1.0628924248e+000	 1.5899421195e+000	-1.4888585381e+000
 1.0465386534e+000	 1.6007539152e+000	-1.4872995496e+000
 1.2093845300e+000	 1.4896276786e+000	-1.8133282893e+000
 1.1939402346e+000	 1.5020347128e+000	-1.7358784499e+000
 1.1783778529e+000	 1.5142744792e+000	-1.6691085817e+000
 1.1627000942e+000	 1.5263453258e+000	-1.6124888196e+000
 1.1469096978e+000	 1.5382456590e+000	-1.5654732725e+000
 1.1310094315e+000	 1.5499739444e+000	-1.5275010990e+000
 1.1150020900e+000	 1.5615287067e+000	-1.4979976079e+000
 1.0988904931e+000	 1.5729085309e+000	-1.4763753805e+000
 1.0826774844e+000	 1.5841120627e+000	-1.4620354113e+000
 1.0663659295e+000	 1.5951380087e+000	-1.4543682653e+000
 1.0499587143e+000	 1.6059851372e+000	-1.4527552474e+000
 1.2133238933e+000	 1.4944798861e+000	-1.8026118525e+000
 1.1978292908e+000	 1.5069273340e+000	-1.7197301437e+000
 1.1822162172e+000	 1.5192069693e+000	-1.6482173145e+000
 1.1664873909e+000	 1.5313171346e+000	-1.5875159310e+000
 1.1506455600e+000	 1.5432562312e+000	-1.5370519672e+000
 1.1346935013e+000	 1.5550227194e+000	-1.4962359175e+000
 1.1186340186e+000	 1.5666151194e+000	-1.4644639349e+000
 1.1024699410e+000	 1.5780320115e+000	-1.4411189912e+000
 1.0862041212e+000	 1.5892720368e+000	-1.4255720561e+000
 1.0698394341e+000	 1.6003338980e+000	-1.4171832932e+000
 1.0533787753e+000	 1.6112163591e+000	-1.4153032686e+000
 1.2172632566e+000	 1.4993320935e+000	-1.7910456109e+000
 1.2017183469e+000	 1.5118199553e+000	-1.7025323502e+000
 1.1860545816e+000	 1.5241394595e+000	-1.6260754163e+000
 1.1702746876e+000	 1.5362889435e+000	-1.5610898734e+000
 1.1543814222e+000	 1.5482668034e+000	-1.5069736273e+000
 1.1383775711e+000	 1.5600714945e+000	-1.4631085752e+000
 1.1222659473e+000	 1.5717015321e+000	-1.4288617813e+000
 1.1060493889e+000	 1.5831554920e+000	-1.4035866744e+000
 1.0897307580e+000	 1.5944320110e+000	-1.3866242661e+000
 1.0733129388e+000	 1.6055297873e+000	-1.3773043850e+000
 1.0567988362e+000	 1.6164475810e+000	-1.3749469249e+000
 1.2212026199e+000	 1.5041843009e+000	-1.7786087400e+000
 1.2056074031e+000	 1.5167125765e+000	-1.6842665013e+000
 1.1898929459e+000	 1.5290719496e+000	-1.6026666097e+000
 1.1740619843e+000	 1.5412607524e+000	-1.5331966931e+000
 1.1581172844e+000	 1.5532773756e+000	-1.4752266547e+000
 1.1420616410e+000	 1.5651202696e+000	-1.4281098602e+000
 1.1258978759e+000	 1.5767879448e+000	-1.3911843502e+000
 1.1096288367e+000	 1.5882789726e+000	-1.3637740762e+000
 1.0932573947e+000	 1.5995919851e+000	-1.3451901567e+000
 1.0767864435e+000	 1.6107256766e+000	-1.3347321506e+000
 1.0602188972e+000	 1.6216788030e+000	-1.3316893444e+000
 1.0260182876e+000	 1.5693665835e+000	-1.6332947498e+000
 1.0098945378e+000	 1.5797904996e+000	-1.5487806422e+000
 9.9368300285e-001	 1.5900374492e+000	-1.4718018560e+000
 9.7738655321e-001	 1.6001064107e+000	-1.4018662061e+000
 9.6100807296e-001	 1.6099964235e+000	-1.3384735750e+000
 9.4455045811e-001	 1.6197065883e+000	-1.2811169552e+000
 9.2801661506e-001	 1.6292360671e+000	-1.2292834944e+000
 9.1140945894e-001	 1.6385840834e+000	-1.1824555390e+000
 8.9473191210e-001	 1.6477499220e+000	-1.1401116757e+000
 8.7798690247e-001	 1.6567329293e+000	-1.1017277662e+000
 8.6117736198e-001	 1.6655325128e+000	-1.0667779746e+000
 1.0294383486e+000	 1.5745978055e+000	-1.6162767397e+000
 1.0132608529e+000	 1.5850564679e+000	-1.5327105828e+000
 9.9699527953e-001	 1.5953375740e+000	-1.4565452948e+000
 9.8064450839e-001	 1.6054400988e+000	-1.3872951631e+000
 9.6421143320e-001	 1.6153630783e+000	-1.3244665715e+000
 9.4769895964e-001	 1.6251056103e+000	-1.2675590403e+000
 9.3111000377e-001	 1.6346668540e+000	-1.2160662688e+000
 9.1444749047e-001	 1.6440460303e+000	-1.1694771764e+000
 8.9771435181e-001	 1.6532424218e+000	-1.1272769408e+000
 8.8091352548e-001	 1.6622553725e+000	-1.0889480311e+000
 8.6404795319e-001	 1.6710842879e+000	-1.0539712319e+000
 1.0328584095e+000	 1.5798290274e+000	-1.5963271481e+000
 1.0166271681e+000	 1.5903224362e+000	-1.5138629663e+000
 1.0003075562e+000	 1.6006376989e+000	-1.4386674403e+000
 9.8390246356e-001	 1.6107737868e+000	-1.3702612123e+000
 9.6741479344e-001	 1.6207297330e+000	-1.3081570488e+000
 9.5084746116e-001	 1.6305046322e+000	-1.2518608787e+000
 9.3420339249e-001	 1.6400976409e+000	-1.2008728327e+000
 9.1748552200e-001	 1.6495079773e+000	-1.1546882823e+000
 9.0069679152e-001	 1.6587349215e+000	-1.1127988754e+000
 8.8384014848e-001	 1.6677778156e+000	-1.0746935669e+000
 8.6691854440e-001	 1.6766360629e+000	-1.0398596403e+000
 1.0362784705e+000	 1.5850602494e+000	-1.5734504553e+000
 1.0199934832e+000	 1.5955884046e+000	-1.4922412375e+000
 1.0036198329e+000	 1.6059378237e+000	-1.4181706926e+000
 9.8716041874e-001	 1.6161074748e+000	-1.3507657005e+000
 9.7061815368e-001	 1.6260963878e+000	-1.2895452926e+000
 9.5399596269e-001	 1.6359036542e+000	-1.2340216871e+000
 9.3729678120e-001	 1.6455284278e+000	-1.1837013265e+000
 9.2052355353e-001	 1.6549699242e+000	-1.1380859140e+000
 9.0367923122e-001	 1.6642274213e+000	-1.0966734470e+000
 8.8676677149e-001	 1.6733002587e+000	-1.0589592451e+000
 8.6978913561e-001	 1.6821878380e+000	-1.0244369696e+000
 1.0396985314e+000	 1.5902914713e+000	-1.5476509387e+000
 1.0233597983e+000	 1.6008543729e+000	-1.4678486542e+000
 1.0069321095e+000	 1.6112379485e+000	-1.3950572814e+000
 9.9041837391e-001	 1.6214411629e+000	-1.3288098210e+000
 9.7382151392e-001	 1.6314630425e+000	-1.2686314515e+000
 9.5714446421e-001	 1.6413026761e+000	-1.2140405619e+000
 9.4039016992e-001	 1.6509592146e+000	-1.1645497871e+000
 9.2356158506e-001	 1.6604318711e+000	-1.1196670422e+000
 9.0666167093e-001	 1.6697199210e+000	-1.0788965537e+000
 8.8969339450e-001	 1.6788227018e+000	-1.0417398851e+000
 8.7265972681e-001	 1.6877396130e+000	-1.0076969551e+000
 1.0431185924e+000	 1.5955226933e+000	-1.5189326762e+000
 1.0267261134e+000	 1.6061203412e+000	-1.4406882911e+000
 1.0102443862e+000	 1.6165380734e+000	-1.3693292691e+000
 9.9367632909e-001	 1.6267748509e+000	-1.3043946157e+000
 9.7702487416e-001	 1.6368296973e+000	-1.2454155391e+000
 9.6029296574e-001	 1.6467016981e+000	-1.1919164810e+000
 9.4348355863e-001	 1.6563900015e+000	-1.1434161496e+000
 9.2659961659e-001	 1.6658938181e+000	-1.0994285525e+000
 9.0964411064e-001	 1.6752124207e+000	-1.0594640253e+000
 8.9262001751e-001	 1.6843451448e+000	-1.0230302554e+000
 8.7553031802e-001	 1.6932913881e+000	-9.8963329812e-001
 1.0465386534e+000	 1.6007539152e+000	-1.4872995496e+000
 1.0300924286e+000	 1.6113863096e+000	-1.4107630418e+000
 1.0135566629e+000	 1.6218381982e+000	-1.3409885530e+000
 9.9693428426e-001	 1.6321085390e+000	-1.2775209777e+000
 9.8022823440e-001	 1.6421963520e+000	-1.2198974364e+000
 9.6344146726e-001	 1.6521007201e+000	-1.1676483058e+000
 9.4657694735e-001	 1.6618207884e+000	-1.1202982491e+000
 9.2963764811e-001	 1.6713557650e+000	-1.0773672470e+000
 9.1262655034e-001	 1.6807049205e+000	-1.0383716246e+000
 8.9554664052e-001	 1.6898675879e+000	-1.0028250738e+000
 8.7840090923e-001	 1.6988431631e+000	-9.7023966610e-001
 1.0499587143e+000	 1.6059851372e+000	-1.4527552474e+000
 1.0334587437e+000	 1.6166522779e+000	-1.3780756225e+000
 1.0168689396e+000	 1.6271383230e+000	-1.3100368687e+000
 1.0001922394e+000	 1.6374422270e+000	-1.2481896534e+000
 9.8343159465e-001	 1.6475630068e+000	-1.1920768936e+000
 9.6658996879e-001	 1.6574997420e+000	-1.1412347830e+000
 9.4967033606e-001	 1.6672515753e+000	-1.0951938219e+000
 9.3267567964e-001	 1.6768177120e+000	-1.0534798452e+000
 9.1560899005e-001	 1.6861974202e+000	-1.0156150487e+000
 8.9847326352e-001	 1.6953900310e+000	-9.8111900858e-001
 8.8127150043e-001	 1.7043949381e+000	-9.4950969364e-001
 1.0533787753e+000	 1.6112163591e+000	-1.4153032686e+000
 1.0368250588e+000	 1.6219182462e+000	-1.3426285747e+000
 1.0201812162e+000	 1.6324384479e+000	-1.2764757919e+000
 1.0034501946e+000	 1.6427759150e+000	-1.2164012455e+000
 9.8663495489e-001	 1.6529296615e+000	-1.1619535325e+000
 9.6973847031e-001	 1.6628987640e+000	-1.1126745469e+000
 9.5276372478e-001	 1.6726823622e+000	-1.0681005077e+000
 9.3571371117e-001	 1.6822796589e+000	-1.0277629861e+000
 9.1859142975e-001	 1.6916899200e+000	-9.9118992943e-001
 9.0139988653e-001	 1.7009124741e+000	-9.5790667944e-001
 8.8414209164e-001	 1.7099467132e+000	-9.2743698277e-001
 1.0567988362e+000	 1.6164475810e+000	-1.3749469249e+000
 1.0401913739e+000	 1.6271842146e+000	-1.3044242678e+000
 1.0234934929e+000	 1.6377385727e+000	-1.2403067416e+000
 1.0067081498e+000	 1.6481096031e+000	-1.1821562149e+000
 9.8983831513e-001	 1.6582963162e+000	-1.1295268486e+000
 9.7288697184e-001	 1.6682977859e+000	-1.0819661203e+000
 9.5585711349e-001	 1.6781131491e+000	-1.0390158505e+000
 9.3875174270e-001	 1.6877416059e+000	-1.0002132286e+000
 9.2157386946e-001	 1.6971824197e+000	-9.6509183489e-001
 9.0432650953e-001	 1.7064349172e+000	-9.3318265803e-001
 8.8701268284e-001	 1.7154984882e+000	-9.0401510359e-001
 1.0602188972e+000	 1.6216788030e+000	-1.3316893444e+000
 1.0435576891e+000	 1.6324501829e+000	-1.2634649020e+000
 1.0268057696e+000	 1.6430386975e+000	-1.2015309825e+000
 1.0099661050e+000	 1.6534432911e+000	-1.1454548830e+000
 9.9304167537e-001	 1.6636629710e+000	-1.0947962131e+000
 9.7603547336e-001	 1.6736968079e+000	-1.0491079174e+000
 9.5895050220e-001	 1.6835439360e+000	-1.0079373009e+000
 9.4178977422e-001	 1.6932035528e+000	-9.7082705342e-001
 9.2455630916e-001	 1.7026749194e+000	-9.3731627038e-001
 9.0725313254e-001	 1.7119573603e+000	-9.0694146880e-001
 8.8988327405e-001	 1.7210502633e+000	-8.7923759473e-001
 8.6117736198e-001	 1.6655325128e+000	-1.0667779746e+000
 8.4430622506e-001	 1.6741481411e+000	-1.0490997064e+000
 8.2737642703e-001	 1.6825793438e+000	-1.0333270116e+000
 8.1039090259e-001	 1.6908257110e+000	-1.0190830187e+000
 7.9335258428e-001	 1.6988868936e+000	-1.0059920553e+000
 7.7626440100e-001	 1.7067626021e+000	-9.9368046003e-001
 7.5912927651e-001	 1.7144526070e+000	-9.8177737734e-001
 7.4195012798e-001	 1.7219567380e+000	-9.6991553286e-001
 7.2472986450e-001	 1.7292748837e+000	-9.5773198826e-001
 7.0747138573e-001	 1.7364069910e+000	-9.4486887380e-001
 6.9017758042e-001	 1.7433530645e+000	-9.3097409724e-001
 8.6404795319e-001	 1.6710842879e+000	-1.0539712319e+000
 8.4712057915e-001	 1.6797286349e+000	-1.0376450567e+000
 8.3013434846e-001	 1.6881879416e+000	-1.0229885439e+000
 8.1309220560e-001	 1.6964617967e+000	-1.0096175515e+000
 7.9599709290e-001	 1.7045498499e+000	-9.9714944081e-001
 7.7885194901e-001	 1.7124518107e+000	-9.8520389641e-001
 7.6165970744e-001	 1.7201674490e+000	-9.7340372838e-001
 7.4442329508e-001	 1.7276965938e+000	-9.6137565469e-001
 7.2714563073e-001	 1.7350391334e+000	-9.4875106225e-001
 7.0982962369e-001	 1.7421950143e+000	-9.3516674525e-001
 6.9247817236e-001	 1.7491642414e+000	-9.2026561920e-001
 8.6691854440e-001	 1.6766360629e+000	-1.0398596403e+000
 8.4993493324e-001	 1.6853091287e+000	-1.0248920811e+000
 8.3289226989e-001	 1.6937965394e+000	-1.0113606358e+000
 8.1579350861e-001	 1.7020978824e+000	-9.9887383914e-001
 7.9864160151e-001	 1.7102128062e+000	-9.8704203267e-001
 7.8143949701e-001	 1.7181410194e+000	-9.7547819256e-001
 7.6419013837e-001	 1.7258822910e+000	-9.6379873940e-001
 7.4689646218e-001	 1.7334364496e+000	-9.5162432757e-001
 7.2956139695e-001	 1.7408033830e+000	-9.3858061272e-001
 7.1218786165e-001	 1.7479830376e+000	-9.2429899591e-001
 6.9477876430e-001	 1.7549754183e+000	-9.0841734291e-001
 8.6978913561e-001	 1.6821878380e+000	-1.0244369696e+000
 8.5274928732e-001	 1.6908896225e+000	-1.0108350717e+000
 8.3565019131e-001	 1.6994051372e+000	-9.9843808326e-001
 8.1849481163e-001	 1.7077339682e+000	-9.8684716337e-001
 8.0128611013e-001	 1.7158757625e+000	-9.7566557992e-001
 7.8402704502e-001	 1.7238302281e+000	-9.6449954608e-001
 7.6672056929e-001	 1.7315971331e+000	-9.5295903754e-001
 7.4936962927e-001	 1.7391763054e+000	-9.4065858900e-001
 7.3197716317e-001	 1.7465676326e+000	-9.2721806813e-001
 7.1454609960e-001	 1.7537710609e+000	-9.1226342567e-001
 6.9707935624e-001	 1.7607865951e+000	-8.9542741996e-001
 8.7265972681e-001	 1.6877396130e+000	-1.0076969551e+000
 8.5556364141e-001	 1.6964701163e+000	-9.9546828173e-001
 8.3840811274e-001	 1.7050137350e+000	-9.8421563999e-001
 8.2119611464e-001	 1.7133700539e+000	-9.7353276014e-001
 8.0393061875e-001	 1.7215387188e+000	-9.6301578256e-001
 7.8661459303e-001	 1.7295194368e+000	-9.5226410251e-001
 7.6925100022e-001	 1.7373119751e+000	-9.4088119517e-001
 7.5184279637e-001	 1.7449161612e+000	-9.2847541925e-001
 7.3439292938e-001	 1.7523318822e+000	-9.1466079755e-001
 7.1690433756e-001	 1.7595590842e+000	-8.9905777305e-001
 6.9937994818e-001	 1.7665977720e+000	-8.8129393887e-001
 8.7553031802e-001	 1.6932913881e+000	-9.8963329812e-001
 8.5837799549e-001	 1.7020506101e+000	-9.7878592651e-001
 8.4116603416e-001	 1.7106223328e+000	-9.6868801788e-001
 8.2389741765e-001	 1.7190061396e+000	-9.5892582026e-001
 8.0657512737e-001	 1.7272016751e+000	-9.4908829225e-001
 7.8920214103e-001	 1.7352086454e+000	-9.3876795615e-001
 7.7178143114e-001	 1.7430268171e+000	-9.2756173076e-001
 7.5431596347e-001	 1.7506560170e+000	-9.1507174227e-001
 7.3680869560e-001	 1.7580961318e+000	-9.0090611154e-001
 7.1926257552e-001	 1.7653471075e+000	-8.8467971617e-001
 7.0168054012e-001	 1.7724089489e+000	-8.6601492609e-001
 8.7840090923e-001	 1.6988431631e+000	-9.7023966610e-001
 8.6119234957e-001	 1.7076311039e+000	-9.6078218388e-001
 8.4392395559e-001	 1.7162309307e+000	-9.5184988779e-001
 8.2659872066e-001	 1.7246422253e+000	-9.4302149010e-001
 8.0921963598e-001	 1.7328646314e+000	-9.3387871314e-001
 7.9178968904e-001	 1.7408978541e+000	-9.2400715091e-001
 7.7431186207e-001	 1.7487416591e+000	-9.1299710976e-001
 7.5678913056e-001	 1.7563958728e+000	-9.0044442665e-001
 7.3922446182e-001	 1.7638603814e+000	-8.8595126315e-001
 7.2162081347e-001	 1.7711351308e+000	-8.6912687377e-001
 7.0398113206e-001	 1.7782201258e+000	-8.4958834702e-001
 8.8127150043e-001	 1.7043949381e+000	-9.4950969364e-001
 8.6400670366e-001	 1.7132115978e+000	-9.4145119487e-001
 8.4668187701e-001	 1.7218395285e+000	-9.3369588022e-001
 8.2930002367e-001	 1.7302783110e+000	-9.2581487236e-001
 8.1186414460e-001	 1.7385275877e+000	-9.1738260263e-001
 7.9437723704e-001	 1.7465870628e+000	-9.0797768113e-001
 7.7684229299e-001	 1.7544565012e+000	-8.9718374547e-001
 7.5926229766e-001	 1.7621357286e+000	-8.8459028645e-001
 7.4164022804e-001	 1.7696246310e+000	-8.6979344886e-001
 7.2397905143e-001	 1.7769231541e+000	-8.5239680612e-001
 7.0628172399e-001	 1.7840313027e+000	-8.3201210705e-001
 8.8414209164e-001	 1.7099467132e+000	-9.2743698277e-001
 8.6682105774e-001	 1.7187920916e+000	-9.2078706426e-001
 8.4943979843e-001	 1.7274481263e+000	-9.1422058594e-001
 8.3200132667e-001	 1.7359143967e+000	-9.0730102678e-001
 8.1450865321e-001	 1.7441905441e+000	-8.9959547213e-001
 7.9696478505e-001	 1.7522762715e+000	-8.9067549239e-001
 7.7937272391e-001	 1.7601713432e+000	-8.8011799991e-001
 7.6173546475e-001	 1.7678755844e+000	-8.6750608216e-001
 7.4405599425e-001	 1.7753888806e+000	-8.5242980947e-001
 7.2633728938e-001	 1.7827111774e+000	-8.3448701605e-001
 7.0858231593e-001	 1.7898424795e+000	-8.1328405247e-001
 8.8701268284e-001	 1.7154984882e+000	-9.0401510359e-001
 8.6963541182e-001	 1.7243725854e+000	-8.9878386123e-001
 8.5219771986e-001	 1.7330567241e+000	-8.9341855665e-001
 8.3470262968e-001	 1.7415504824e+000	-8.8747497081e-001
 8.1715316182e-001	 1.7498535004e+000	-8.8051278779e-001
 7.9955233305e-001	 1.7579654801e+000	-8.7209648228e-001
 7.8190315483e-001	 1.7658861852e+000	-8.6179618461e-001
 7.6420863185e-001	 1.7736154402e+000	-8.4918852152e-001
 7.4647176047e-001	 1.7811531302e+000	-8.3385743103e-001
 7.2869552733e-001	 1.7884992007e+000	-8.1539494979e-001
 7.1088290787e-001	 1.7956536564e+000	-7.9340197148e-001
 8.8988327405e-001	 1.7210502633e+000	-8.7923759473e-001
 8.7244976590e-001	 1.7299530791e+000	-8.7543561985e-001
 8.5495564128e-001	 1.7386653219e+000	-8.7128430561e-001
 8.3740393269e-001	 1.7471865681e+000	-8.6633168031e-001
 8.1979767044e-001	 1.7555164567e+000	-8.6012997128e-001
 8.0213988105e-001	 1.7636546888e+000	-8.5223650121e-001
 7.8443358575e-001	 1.7716010272e+000	-8.4221456142e-001
 7.6668179894e-001	 1.7793552960e+000	-8.2963426040e-001
 7.4888752669e-001	 1.7869173799e+000	-8.1407334572e-001
 7.3105376529e-001	 1.7942872240e+000	-7.9511799798e-001
 7.1318349980e-001	 1.8014648333e+000	-7.7236359510e-001
 6.9017758042e-001	 1.7433530645e+000	-9.3097409724e-001
 6.7285132510e-001	 1.7501131661e+000	-8.6126216967e-001
 6.5549548268e-001	 1.7566874145e+000	-7.9020431782e-001
 6.3811290120e-001	 1.7630759840e+000	-7.1767930667e-001
 6.2070641243e-001	 1.7692791045e+000	-6.7261267120e-001
 6.0327883070e-001	 1.7752970603e+000	-7.1244894733e-001
 5.8583295164e-001	 1.7811301897e+000	-7.4687276263e-001
 5.6837155093e-001	 1.7867788839e+000	-7.7559015764e-001
 5.5089738319e-001	 1.7922435864e+000	-7.9833315771e-001
 5.3341318081e-001	 1.7975247922e+000	-8.1486028512e-001
 5.1592165282e-001	 1.8026230466e+000	-8.2495700074e-001
 6.9247817236e-001	 1.7491642414e+000	-9.2026561920e-001
 6.7509416285e-001	 1.7559468767e+000	-8.5193519658e-001
 6.5768046763e-001	 1.7625430392e+000	-7.8270087261e-001
 6.4023994420e-001	 1.7689529039e+000	-7.1243002215e-001
 6.2277543381e-001	 1.7751767015e+000	-6.5590121505e-001
 6.0528976014e-001	 1.7812147172e+000	-6.9825644375e-001
 5.8778572815e-001	 1.7870672903e+000	-7.3548919475e-001
 5.7026612277e-001	 1.7927348135e+000	-7.6728969301e-001
 5.5273370781e-001	 1.7982177317e+000	-7.9337424116e-001
 5.3519122475e-001	 1.8035165415e+000	-8.1348575271e-001
 5.1764139166e-001	 1.8086317901e+000	-8.2739421381e-001
 6.9477876430e-001	 1.7549754183e+000	-9.0841734291e-001
 6.7733700061e-001	 1.7617805873e+000	-8.4146791956e-001
 6.5986545258e-001	 1.7683986639e+000	-7.7405356582e-001
 6.4236698721e-001	 1.7748298239e+000	-7.0603025374e-001
 6.2484445518e-001	 1.7810742985e+000	-6.3829165277e-001
 6.0730068958e-001	 1.7871323741e+000	-6.8317165087e-001
 5.8973850466e-001	 1.7930043910e+000	-7.2321504077e-001
 5.7216069461e-001	 1.7986907432e+000	-7.5809618707e-001
 5.5457003242e-001	 1.8041918770e+000	-7.8751562923e-001
 5.3696926869e-001	 1.8095082908e+000	-8.1120063583e-001
 5.1936113051e-001	 1.8146405336e+000	-8.2890568662e-001
 6.9707935624e-001	 1.7607865951e+000	-8.9542741996e-001
 6.7957983836e-001	 1.7676142978e+000	-8.2985910111e-001
 6.6205043753e-001	 1.7742542886e+000	-7.6426179892e-001
 6.4449403022e-001	 1.7807067438e+000	-6.9848006936e-001
 6.2691347656e-001	 1.7869718955e+000	-6.3236342754e-001
 6.0931161902e-001	 1.7930500309e+000	-6.6719098187e-001
 5.9169128117e-001	 1.7989414916e+000	-7.1004770242e-001
 5.7405526645e-001	 1.8046466728e+000	-7.4800805095e-001
 5.5640635704e-001	 1.8101660223e+000	-7.8075676244e-001
 5.3874731262e-001	 1.8155000401e+000	-8.0800542363e-001
 5.2108086936e-001	 1.8206492771e+000	-8.2949297527e-001
 6.9937994818e-001	 1.7665977720e+000	-8.8129393887e-001
 6.8182267612e-001	 1.7734480084e+000	-8.1710743554e-001
 6.6423542247e-001	 1.7801099133e+000	-7.5332489970e-001
 6.4662107323e-001	 1.7865836638e+000	-6.8977945738e-001
 6.2898249794e-001	 1.7928694925e+000	-6.2630897954e-001
 6.1132254846e-001	 1.7989676878e+000	-6.5031075752e-001
 5.9364405768e-001	 1.8048785922e+000	-6.9598448207e-001
 5.7594983829e-001	 1.8106026024e+000	-7.3702358907e-001
 5.5824268165e-001	 1.8161401676e+000	-7.7309696698e-001
 5.4052535656e-001	 1.8214917894e+000	-8.0390048287e-001
 5.2280060820e-001	 1.8266580206e+000	-8.2915750516e-001
 7.0168054012e-001	 1.7724089489e+000	-8.6601492609e-001
 6.8406551387e-001	 1.7792817189e+000	-8.0321155007e-001
 6.6642040742e-001	 1.7859655380e+000	-7.4124212346e-001
 6.4874811624e-001	 1.7924605837e+000	-6.7992832789e-001
 6.3105151932e-001	 1.7987670895e+000	-6.1909637813e-001
 6.1333347790e-001	 1.8048853447e+000	-6.3252720772e-001
 5.9559683418e-001	 1.8108156929e+000	-6.8102258434e-001
 5.7784441013e-001	 1.8165585320e+000	-7.2514100096e-001
 5.6007900626e-001	 1.8221143129e+000	-7.6453545653e-001
 5.4230340050e-001	 1.8274835387e+000	-7.9888605998e-001
 5.2452034705e-001	 1.8326667640e+000	-8.2790057313e-001
 7.0398113206e-001	 1.7782201258e+000	-8.4958834702e-001
 6.8630835162e-001	 1.7851154295e+000	-7.8817000595e-001
 6.6860539236e-001	 1.7918211628e+000	-7.2801265418e-001
 6.5087515924e-001	 1.7983375037e+000	-6.6892651403e-001
 6.3312054070e-001	 1.8046646866e+000	-6.1072613137e-001
 6.1534440734e-001	 1.8108030015e+000	-6.1383647296e-001
 5.9754961069e-001	 1.8167527935e+000	-6.6515911771e-001
 5.7973898197e-001	 1.8225144616e+000	-7.1235838287e-001
 5.6191533088e-001	 1.8280884582e+000	-7.5507133416e-001
 5.4408144444e-001	 1.8334752880e+000	-7.9296228296e-001
 5.2624008589e-001	 1.8386755075e+000	-8.2572334954e-001
 7.0628172399e-001	 1.7840313027e+000	-8.3201210705e-001
 6.8855118938e-001	 1.7909491400e+000	-7.7198129951e-001
 6.7079037731e-001	 1.7976767875e+000	-7.1363560575e-001
 6.5300220225e-001	 1.8042144236e+000	-6.5677377322e-001
 6.3518956208e-001	 1.8105622836e+000	-6.0119866567e-001
 6.1735533678e-001	 1.8167206584e+000	-5.9423460579e-001
 5.9950238720e-001	 1.8226898941e+000	-6.4839109611e-001
 5.8163355381e-001	 1.8284703912e+000	-6.9867372956e-001
 5.6375165549e-001	 1.8340626035e+000	-7.4470359410e-001
 5.4585948838e-001	 1.8394670373e+000	-7.8612916338e-001
 5.2795982474e-001	 1.8446842510e+000	-8.2262688033e-001
 7.0858231593e-001	 1.7898424795e+000	-8.1328405247e-001
 6.9079402713e-001	 1.7967828506e+000	-7.5464386323e-001
 6.7297536225e-001	 1.8035324122e+000	-6.9811002302e-001
 6.5512924526e-001	 1.8100913435e+000	-6.4346978836e-001
 6.3725858346e-001	 1.8164598806e+000	-5.9051432708e-001
 6.1936626622e-001	 1.8226383153e+000	-5.7371757224e-001
 6.0145516371e-001	 1.8286269948e+000	-6.3071544041e-001
 5.8352812565e-001	 1.8344263208e+000	-6.8408493586e-001
 5.6558798010e-001	 1.8400367487e+000	-7.3343112348e-001
 5.4763753232e-001	 1.8454587866e+000	-7.7838659821e-001
 5.2967956358e-001	 1.8506929945e+000	-8.1861208908e-001
 7.1088290787e-001	 1.7956536564e+000	-7.9340197148e-001
 6.9303686488e-001	 1.8026165611e+000	-7.3615606676e-001
 6.7516034720e-001	 1.8093880369e+000	-6.8143488298e-001
 6.5725628827e-001	 1.8159682635e+000	-6.2901416909e-001
 6.3932760483e-001	 1.8223574776e+000	-5.7867338265e-001
 6.2137719566e-001	 1.8285559721e+000	-5.5228125320e-001
 6.0340794022e-001	 1.8345640954e+000	-6.1212897994e-001
 5.8542269749e-001	 1.8403822504e+000	-6.6858979835e-001
 5.6742430472e-001	 1.8460108940e+000	-7.2125270411e-001
 5.4941557626e-001	 1.8514505359e+000	-7.6973437172e-001
 5.3139930243e-001	 1.8567017380e+000	-8.1367977893e-001
 7.1318349980e-001	 1.8014648333e+000	-7.7236359510e-001
 6.9527970264e-001	 1.8084502717e+000	-7.1651621795e-001
 6.7734533214e-001	 1.8152436616e+000	-6.6360909583e-001
 6.5938333127e-001	 1.8218451834e+000	-6.1340645293e-001
 6.4139662621e-001	 1.8282550746e+000	-5.6567602164e-001
 6.2338812510e-001	 1.8344736290e+000	-5.2992144584e-001
 6.0536071673e-001	 1.8405011960e+000	-5.9262845399e-001
 5.8731726933e-001	 1.8463381800e+000	-6.5218601690e-001
 5.6926062933e-001	 1.8519850393e+000	-7.0816701415e-001
 5.5119362020e-001	 1.8574422852e+000	-7.6017215727e-001
 5.3311904127e-001	 1.8627104815e+000	-8.0783063457e-001
 5.1592165282e-001	 1.8026230466e+000	-8.2495700074e-001
 4.9842548387e-001	 1.8075389448e+000	-8.2577018212e-001
 4.8092733314e-001	 1.8122731307e+000	-8.2462171964e-001
 4.6342983336e-001	 1.8168262959e+000	-8.2121595809e-001
 4.4593558983e-001	 1.8211991790e+000	-8.1528357504e-001
 4.2844717951e-001	 1.8253925644e+000	-8.0658187017e-001
 4.1096715006e-001	 1.8294072815e+000	-7.9489498648e-001
 3.9349801906e-001	 1.8332442033e+000	-7.8003406433e-001
 3.7604227310e-001	 1.8369042460e+000	-7.6183732963e-001
 3.5860236705e-001	 1.8403883673e+000	-7.4017011755e-001
 3.4118072329e-001	 1.8436975658e+000	-7.1492483327e-001
 5.1764139166e-001	 1.8086317901e+000	-8.2739421381e-001
 5.0008690215e-001	 1.8135640746e+000	-8.3120804438e-001
 4.8253042425e-001	 1.8183140411e+000	-8.3390606038e-001
 4.6497459947e-001	 1.8228823836e+000	-8.3519243218e-001
 4.4742204180e-001	 1.8272698430e+000	-8.3479704625e-001
 4.2987533677e-001	 1.8314772063e+000	-8.3247581099e-001
 4.1233704056e-001	 1.8355053058e+000	-8.2801089448e-001
 3.9480967912e-001	 1.8393550173e+000	-8.2121089524e-001
 3.7729574734e-001	 1.8430272601e+000	-8.1191094724e-001
 3.5979770828e-001	 1.8465229952e+000	-7.9997276037e-001
 3.4231799237e-001	 1.8498432243e+000	-7.8528459807e-001
 5.1936113051e-001	 1.8146405336e+000	-8.2890568662e-001
 5.0174832043e-001	 1.8195892044e+000	-8.3594405370e-001
 4.8413351536e-001	 1.8243549516e+000	-8.4270326041e-001
 4.6651936558e-001	 1.8289384712e+000	-8.4888721924e-001
 4.4890849377e-001	 1.8333405069e+000	-8.5422495014e-001
 4.3130349404e-001	 1.8375618482e+000	-8.5847090284e-001
 4.1370693107e-001	 1.8416033300e+000	-8.6140521110e-001
 3.9612133919e-001	 1.8454658313e+000	-8.6283388018e-001
 3.7854922159e-001	 1.8491502743e+000	-8.6258890852e-001
 3.6099304950e-001	 1.8526576230e+000	-8.6052834502e-001
 3.4345526144e-001	 1.8559888829e+000	-8.5653628340e-001
 5.2108086936e-001	 1.8206492771e+000	-8.2949297527e-001
 5.0340973871e-001	 1.8256143343e+000	-8.3997844145e-001
 4.8573660647e-001	 1.8303958620e+000	-8.5101229121e-001
 4.6806413170e-001	 1.8349945589e+000	-8.6229809551e-001
 4.5039494574e-001	 1.8394111708e+000	-8.7356393223e-001
 4.3273165131e-001	 1.8436464901e+000	-8.8456272476e-001
 4.1507682157e-001	 1.8477013543e+000	-8.9507251293e-001
 3.9743299925e-001	 1.8515766454e+000	-9.0489665697e-001
 3.7980269583e-001	 1.8552732884e+000	-9.1386397595e-001
 3.6218839072e-001	 1.8587922509e+000	-9.2182882169e-001
 3.4459253052e-001	 1.8621345414e+000	-9.2867108985e-001
 5.2280060820e-001	 1.8266580206e+000	-8.2915750516e-001
 5.0507115699e-001	 1.8316394641e+000	-8.4331133131e-001
 4.8733969759e-001	 1.8364367724e+000	-8.5883203861e-001
 4.6960889781e-001	 1.8410506465e+000	-8.7542277275e-001
 4.5188139770e-001	 1.8454818348e+000	-8.9281059366e-001
 4.3415980857e-001	 1.8497311320e+000	-9.1074683061e-001
 4.1644671207e-001	 1.8537993786e+000	-9.2900736955e-001
 3.9874465931e-001	 1.8576874594e+000	-9.4739287370e-001
 3.8105617008e-001	 1.8613963026e+000	-9.6572893855e-001
 3.6338373195e-001	 1.8649268788e+000	-9.8386618246e-001
 3.4572979960e-001	 1.8682802000e+000	-1.0016802743e+000
 5.2452034705e-001	 1.8326667640e+000	-8.2790057313e-001
 5.0673257528e-001	 1.8376645939e+000	-8.4594274103e-001
 4.8894278870e-001	 1.8424776829e+000	-8.6616130425e-001
 4.7115366392e-001	 1.8471067342e+000	-8.8825889921e-001
 4.5336784967e-001	 1.8515524987e+000	-9.1196149193e-001
 4.3558796584e-001	 1.8558157739e+000	-9.3701874945e-001
 4.1781660257e-001	 1.8598974029e+000	-9.6320434369e-001
 4.0005631938e-001	 1.8637982734e+000	-9.9031618857e-001
 3.8230964432e-001	 1.8675193167e+000	-1.0181766115e+000
 3.6457907317e-001	 1.8710615067e+000	-1.0466324606e+000
 3.4686706868e-001	 1.8744258586e+000	-1.0755551490e+000
 5.2624008589e-001	 1.8386755075e+000	-8.2572334954e-001
 5.0839399356e-001	 1.8436897237e+000	-8.4787258417e-001
 4.9054587981e-001	 1.8485185933e+000	-8.7299880691e-001
 4.7269843003e-001	 1.8531628218e+000	-9.0080406075e-001
 4.5485430164e-001	 1.8576231626e+000	-9.3101314159e-001
 4.3701612311e-001	 1.8619004158e+000	-9.6337398596e-001
 4.1918649307e-001	 1.8659954271e+000	-9.9765799135e-001
 4.0136797944e-001	 1.8699090874e+000	-1.0336602697e+000
 3.8356311856e-001	 1.8736423309e+000	-1.0711998357e+000
 3.6577441439e-001	 1.8771961346e+000	-1.0582387189e+000
 3.4800433775e-001	 1.8805715171e+000	-1.0215691505e+000
 5.2795982474e-001	 1.8446842510e+000	-8.2262688033e-001
 5.1005541184e-001	 1.8497148535e+000	-8.4910067181e-001
 4.9214897092e-001	 1.8545595037e+000	-8.7934318386e-001
 4.7424319615e-001	 1.8592189095e+000	-9.1305578180e-001
 4.5634075361e-001	 1.8636938265e+000	-9.4996201496e-001
 4.3844428037e-001	 1.8679850576e+000	-9.8980802087e-001
 4.2055638357e-001	 1.8720934514e+000	-1.0323628619e+000
 4.0267963951e-001	 1.8760199014e+000	-1.0523194697e+000
 3.8481659281e-001	 1.8797653450e+000	-1.0096057453e+000
 3.6696975562e-001	 1.8833307625e+000	-9.7693700847e-001
 3.4914160683e-001	 1.8867171757e+000	-9.5432382337e-001
 5.2967956358e-001	 1.8506929945e+000	-8.1861208908e-001
 5.1171683012e-001	 1.8557399833e+000	-8.4962671415e-001
 4.9375206204e-001	 1.8606004142e+000	-8.8519299222e-001
 4.7578796226e-001	 1.8652749971e+000	-9.2501152638e-001
 4.5782720557e-001	 1.8697644905e+000	-9.6880454283e-001
 4.3987243764e-001	 1.8740696995e+000	-1.0163163113e+000
 4.2192627407e-001	 1.8781914757e+000	-9.8731188684e-001
 4.0399129957e-001	 1.8821307154e+000	-9.4565045782e-001
 3.8607006705e-001	 1.8858883592e+000	-9.1503387172e-001
 3.6816509684e-001	 1.8894653904e+000	-8.9549356754e-001
 3.5027887591e-001	 1.8928628342e+000	-8.8704013818e-001
 5.3139930243e-001	 1.8567017380e+000	-8.1367977893e-001
 5.1337824840e-001	 1.8617651131e+000	-8.4945032225e-001
 4.9535515315e-001	 1.8666413246e+000	-8.9054671021e-001
 4.7733272837e-001	 1.8713310848e+000	-9.3666869907e-001
 4.5931365754e-001	 1.8758351544e+000	-9.6600134545e-001
 4.4130059490e-001	 1.8801543414e+000	-9.1157677266e-001
 4.2329616457e-001	 1.8842894999e+000	-8.6908927534e-001
 4.0530295964e-001	 1.8882415294e+000	-8.3861586376e-001
 3.8732354130e-001	 1.8920113734e+000	-8.2021119960e-001
 3.6936043806e-001	 1.8956000183e+000	-8.1390781324e-001
 3.5141614499e-001	 1.8990084928e+000	-8.1971635448e-001
 5.3311904127e-001	 1.8627104815e+000	-8.0783063457e-001
 5.1503966669e-001	 1.8677902430e+000	-8.4857100951e-001
 4.9695824426e-001	 1.8726822350e+000	-8.9540273846e-001
 4.7887749449e-001	 1.8773871724e+000	-8.8571306400e-001
 4.6080010951e-001	 1.8819058183e+000	-8.2772303505e-001
 4.4272875217e-001	 1.8862389833e+000	-7.8257849115e-001
 4.2466605508e-001	 1.8903875242e+000	-7.5038327994e-001
 4.0661461970e-001	 1.8943523434e+000	-7.3121764005e-001
 3.8857701554e-001	 1.8981343875e+000	-7.2513839795e-001
 3.7055577929e-001	 1.9017346462e+000	-7.3217920063e-001
 3.5255341406e-001	 1.9051541513e+000	-7.5235078279e-001
 3.4118072329e-001	 1.8436975658e+000	-7.1492483327e-001
 3.2377973096e-001	 1.8468328798e+000	-7.1026954588e-001
 3.0640174534e-001	 1.8497953861e+000	-7.0928466081e-001
 2.8904908714e-001	 1.8525861991e+000	-7.1200960355e-001
 2.7172404195e-001	 1.8552064696e+000	-7.1850227853e-001
 2.5442885961e-001	 1.8576573837e+000	-7.2883884202e-001
 2.3716575374e-001	 1.8599401617e+000	-7.4311343071e-001
 2.1993690119e-001	 1.8620560570e+000	-7.6143784808e-001
 2.0274444158e-001	 1.8640063550e+000	-7.8394121048e-001
 1.8559047690e-001	 1.8657923719e+000	-8.1076955482e-001
 1.6847707110e-001	 1.8674154536e+000	-8.4208541025e-001
 3.4231799237e-001	 1.8498432243e+000	-7.8528459807e-001
 3.2485899673e-001	 1.8529889894e+000	-7.9248884278e-001
 3.0742308449e-001	 1.8559613707e+000	-8.0164935440e-001
 2.9001258410e-001	 1.8587614865e+000	-8.1281458021e-001
 2.7262978875e-001	 1.8613904912e+000	-8.2605291219e-001
 2.5527695581e-001	 1.8638495750e+000	-8.4145242260e-001
 2.3795630626e-001	 1.8661399623e+000	-8.5912055425e-001
 2.2067002419e-001	 1.8682629105e+000	-8.7918376737e-001
 2.0342025638e-001	 1.8702197095e+000	-9.0178714528e-001
 1.8620911182e-001	 1.8720116798e+000	-9.2709396097e-001
 1.6903866133e-001	 1.8736401718e+000	-9.5528520662e-001
 3.4345526144e-001	 1.8559888829e+000	-8.5653628340e-001
 3.2593826250e-001	 1.8591450990e+000	-8.7560227393e-001
 3.0844442364e-001	 1.8621273554e+000	-8.9491786345e-001
 2.9097608106e-001	 1.8649367738e+000	-9.1454040774e-001
 2.7353553556e-001	 1.8675745128e+000	-9.3454867221e-001
 2.5612505201e-001	 1.8700417663e+000	-9.5504253032e-001
 2.3874685877e-001	 1.8723397628e+000	-9.7614261555e-001
 2.2140314719e-001	 1.8744697641e+000	-9.9798992899e-001
 2.0409607119e-001	 1.8764330640e+000	-9.9612416363e-001
 1.8682774675e-001	 1.8782309877e+000	-9.9190328011e-001
 1.6960025157e-001	 1.8798648900e+000	-9.9482603570e-001
 3.4459253052e-001	 1.8621345414e+000	-9.2867108985e-001
 3.2701752827e-001	 1.8653012086e+000	-9.5960161131e-001
 3.0946576279e-001	 1.8682933400e+000	-9.8908242372e-001
 2.9193957801e-001	 1.8711120611e+000	-1.0171796787e+000
 2.7444128236e-001	 1.8737585344e+000	-1.0439824017e+000
 2.5697314821e-001	 1.8762339576e+000	-1.0453425493e+000
 2.3953741128e-001	 1.8785395634e+000	-1.0272770422e+000
 2.2213627020e-001	 1.8806766176e+000	-1.0150987060e+000
 2.0477188599e-001	 1.8826464185e+000	-1.0088005588e+000
 1.8744638167e-001	 1.8844502956e+000	-1.0083600134e+000
 1.7016184180e-001	 1.8860896082e+000	-1.0137392021e+000
 3.4572979960e-001	 1.8682802000e+000	-1.0016802743e+000
 3.2809679404e-001	 1.8714573182e+000	-1.0444786801e+000
 3.1048710194e-001	 1.8744593246e+000	-1.0841353223e+000
 2.9290307497e-001	 1.8772873485e+000	-1.0723594998e+000
 2.7534702917e-001	 1.8799425559e+000	-1.0532103831e+000
 2.5782124440e-001	 1.8824261489e+000	-1.0385228998e+000
 2.4032796379e-001	 1.8847393639e+000	-1.0283360071e+000
 2.2286939320e-001	 1.8868834711e+000	-1.0226732940e+000
 2.0544770080e-001	 1.8888597731e+000	-1.0215432320e+000
 1.8806501659e-001	 1.8906696035e+000	-1.0249394472e+000
 1.7072343204e-001	 1.8923143264e+000	-1.0328410127e+000
 3.4686706868e-001	 1.8744258586e+000	-1.0755551490e+000
 3.2917605981e-001	 1.8776134278e+000	-1.0715081127e+000
 3.1150844109e-001	 1.8806253092e+000	-1.0570711033e+000
 2.9386657192e-001	 1.8834626358e+000	-1.0455643176e+000
 2.7625277597e-001	 1.8861265775e+000	-1.0370701263e+000
 2.5866934060e-001	 1.8886183402e+000	-1.0316559836e+000
 2.4111851630e-001	 1.8909391644e+000	-1.0293746000e+000
 2.2360251620e-001	 1.8930903247e+000	-1.0302641368e+000
 2.0612351560e-001	 1.8950731276e+000	-1.0343484254e+000
 1.8868365151e-001	 1.8968889114e+000	-1.0416372069e+000
 1.7128502228e-001	 1.8985390445e+000	-1.0521263926e+000
 3.4800433775e-001	 1.8805715171e+000	-1.0215691505e+000
 3.3025532558e-001	 1.8837695374e+000	-1.0191499656e+000
 3.1252978024e-001	 1.8867912938e+000	-1.0181559958e+000
 2.9483006888e-001	 1.8896379231e+000	-1.0186957123e+000
 2.7715852278e-001	 1.8923105991e+000	-1.0208634320e+000
 2.5951743680e-001	 1.8948105314e+000	-1.0247394332e+000
 2.4190906881e-001	 1.8971389650e+000	-1.0303900963e+000
 2.2433563921e-001	 1.8992971782e+000	-1.0378680675e+000
 2.0679933040e-001	 1.9012864821e+000	-1.0472124453e+000
 1.8930228643e-001	 1.9031082193e+000	-1.0584489886e+000
 1.7184661251e-001	 1.9047637627e+000	-1.0715903457e+000
 3.4914160683e-001	 1.8867171757e+000	-9.5432382337e-001
 3.3133459135e-001	 1.8899256470e+000	-9.6673242035e-001
 3.1355111939e-001	 1.8929572785e+000	-9.7916860473e-001
 2.9579356584e-001	 1.8958132105e+000	-9.9175181822e-001
 2.7806426959e-001	 1.8984946206e+000	-1.0045882520e+000
 2.6036553300e-001	 1.9010027227e+000	-1.0177709316e+000
 2.4269962132e-001	 1.9033387655e+000	-1.0313798253e+000
 2.2506876221e-001	 1.9055040317e+000	-1.0454819771e+000
 2.0747514521e-001	 1.9074998366e+000	-1.0601316611e+000
 1.8992092135e-001	 1.9093275272e+000	-1.0753705582e+000
 1.7240820275e-001	 1.9109884809e+000	-1.0912279526e+000
 3.5027887591e-001	 1.8928628342e+000	-8.8704013818e-001
 3.3241385712e-001	 1.8960817566e+000	-9.1425376340e-001
 3.1457245854e-001	 1.8991232631e+000	-9.4010720750e-001
 2.9675706279e-001	 1.9019884978e+000	-9.6473081698e-001
 2.7897001639e-001	 1.9046786422e+000	-9.8824258640e-001
 2.6121362919e-001	 1.9071949140e+000	-1.0107482119e+000
 2.4349017383e-001	 1.9095385661e+000	-1.0323411690e+000
 2.2580188521e-001	 1.9117108852e+000	-1.0531028134e+000
 2.0815096001e-001	 1.9137131911e+000	-1.0731025044e+000
 1.9053955628e-001	 1.9155468351e+000	-1.0923977496e+000
 1.7296979298e-001	 1.9172131991e+000	-1.1110343700e+000
 3.5141614499e-001	 1.8990084928e+000	-8.1971635448e-001
 3.3349312289e-001	 1.9022378662e+000	-8.6171233016e-001
 3.1559379769e-001	 1.9052892477e+000	-9.0097012890e-001
 2.9772055975e-001	 1.9081637851e+000	-9.3763093707e-001
 2.7987576320e-001	 1.9108626638e+000	-9.7182448231e-001
 2.6206172539e-001	 1.9133871053e+000	-1.0036690563e+000
 2.4428072634e-001	 1.9157383666e+000	-1.0332715615e+000
 2.2653500821e-001	 1.9179177388e+000	-1.0607275804e+000
 2.0882677482e-001	 1.9199265457e+000	-1.0861214679e+000
 1.9115819120e-001	 1.9217661430e+000	-1.1095264643e+000
 1.7353138322e-001	 1.9234379173e+000	-1.1310048292e+000
 3.5255341406e-001	 1.9051541513e+000	-7.5235078279e-001
 3.3457238866e-001	 1.9083939758e+000	-8.0910650420e-001
 3.1661513684e-001	 1.9114552323e+000	-8.6175574022e-001
 2.9868405670e-001	 1.9143390725e+000	-9.1045045285e-001
 2.8078151000e-001	 1.9170466853e+000	-9.5533203353e-001
 2.6290982159e-001	 1.9195792966e+000	-9.9653129517e-001
 2.4507127886e-001	 1.9219381672e+000	-1.0341684877e+000
 2.2726813122e-001	 1.9241245923e+000	-1.0683533367e+000
 2.0950258962e-001	 1.9261399002e+000	-1.0991851041e+000
 1.9177682612e-001	 1.9279854509e+000	-1.1267526698e+000
 1.7409297346e-001	 1.9296626355e+000	-1.1511346347e+000
 1.6847707110e-001	 1.8674154536e+000	-8.4208541025e-001
 1.5140624971e-001	 1.8688769750e+000	-8.2471929308e-001
 1.3437999954e-001	 1.8701783379e+000	-8.0677202422e-001
 1.1740026841e-001	 1.8713209711e+000	-7.8819630256e-001
 1.0046896482e-001	 1.8723063283e+000	-7.6896967956e-001
 8.3587957808e-002	 1.8731358876e+000	-7.4909397691e-001
 6.6759076684e-002	 1.8738111500e+000	-7.2859466898e-001
 4.9984110918e-002	 1.8743336386e+000	-7.0752023281e-001
 3.3264809985e-002	 1.8747048974e+000	-6.8594146803e-001
 1.6602883271e-002	 1.8749264904e+000	-6.6395078940e-001
 0.0000000000e+000	 1.8750000000e+000	-6.4166149430e-001
 1.6903866133e-001	 1.8736401718e+000	-9.5528520662e-001
 1.5191093720e-001	 1.8751065649e+000	-9.2851342345e-001
 1.3482793287e-001	 1.8764122657e+000	-8.8605120675e-001
 1.1779160264e-001	 1.8775587077e+000	-8.4832859802e-001
 1.0080386137e-001	 1.8785473494e+000	-8.1494797412e-001
 8.3866584334e-002	 1.8793796739e+000	-7.8550602834e-001
 6.6981606940e-002	 1.8800571871e+000	-7.5959429179e-001
 5.0150724621e-002	 1.8805814174e+000	-7.3679965536e-001
 3.3375692685e-002	 1.8809539137e+000	-7.1670489112e-001
 1.6658226215e-002	 1.8811762453e+000	-6.9888917223e-001
 0.0000000000e+000	 1.8812500000e+000	-6.8292859049e-001
 1.6960025157e-001	 1.8798648900e+000	-9.9482603570e-001
 1.5241562470e-001	 1.8813361548e+000	-9.4527207703e-001
 1.3527586621e-001	 1.8826461935e+000	-9.0182441348e-001
 1.1818293686e-001	 1.8837964443e+000	-8.6409566740e-001
 1.0113875792e-001	 1.8847883705e+000	-8.3169128185e-001
 8.4145210859e-002	 1.8856234602e+000	-8.0421005943e-001
 6.7204137195e-002	 1.8863032243e+000	-7.8124470325e-001
 5.0317338324e-002	 1.8868291962e+000	-7.6238235907e-001
 3.3486575385e-002	 1.8872029301e+000	-7.4720515750e-001
 1.6713569159e-002	 1.8874260003e+000	-7.3529075530e-001
 0.0000000000e+000	 1.8875000000e+000	-7.2621287480e-001
 1.7016184180e-001	 1.8860896082e+000	-1.0137392021e+000
 1.5292031220e-001	 1.8875657447e+000	-9.6243145473e-001
 1.3572379954e-001	 1.8888801213e+000	-9.1819929933e-001
 1.1857427109e-001	 1.8900341808e+000	-8.8065939253e-001
 1.0147365447e-001	 1.8910293916e+000	-8.4942023876e-001
 8.4423837385e-002	 1.8918672464e+000	-8.2408274786e-001
 6.7426667450e-002	 1.8925492615e+000	-8.0424079558e-001
 5.0483952026e-002	 1.8930769750e+000	-7.8948178584e-001
 3.3597458084e-002	 1.8934519464e+000	-7.7938721369e-001
 1.6768912104e-002	 1.8936757553e+000	-7.7353322794e-001
 0.0000000000e+000	 1.8937500000e+000	-7.7149119240e-001
 1.7072343204e-001	 1.8923143264e+000	-1.0328410127e+000
 1.5342499970e-001	 1.8937953346e+000	-9.7998432032e-001
 1.3617173287e-001	 1.8951140491e+000	-9.3516661544e-001
 1.1896560532e-001	 1.8962719174e+000	-8.9800858134e-001
 1.0180855102e-001	 1.8972704127e+000	-8.6812177902e-001
 8.4702463910e-002	 1.8981110327e+000	-8.4510922356e-001
 6.7649197705e-002	 1.8987952986e+000	-8.2856596397e-001
 5.0650565729e-002	 1.8993247537e+000	-8.1807966557e-001
 3.3708340784e-002	 1.8997009627e+000	-8.1323119369e-001
 1.6824255048e-002	 1.8999255102e+000	-8.1359519752e-001
 0.0000000000e+000	 1.9000000000e+000	-8.1874069311e-001
 1.7128502228e-001	 1.8985390445e+000	-1.0521263926e+000
 1.5392968720e-001	 1.9000249246e+000	-9.9792354309e-001
 1.3661966620e-001	 1.9013479769e+000	-9.5271724350e-001
 1.1935693955e-001	 1.9025096540e+000	-9.1613219641e-001
 1.0214344757e-001	 1.9035114338e+000	-8.8778301478e-001
 8.4981090436e-002	 1.9043548190e+000	-8.6727481685e-001
 6.7871727960e-002	 1.9050413358e+000	-8.5420382556e-001
 5.0817179432e-002	 1.9055725325e+000	-8.4815797085e-001
 3.3819223484e-002	 1.9059499790e+000	-8.4871749406e-001
 1.6879597992e-002	 1.9061752652e+000	-8.5545555294e-001
 0.0000000000e+000	 1.9062500000e+000	-8.6793882642e-001
 1.7184661251e-001	 1.9047637627e+000	-1.0715903457e+000
 1.5443437469e-001	 1.9062545145e+000	-1.0162420962e+000
 1.3706759953e-001	 1.9075819047e+000	-9.7084219358e-001
 1.1974827377e-001	 1.9087473906e+000	-9.3501935253e-001
 1.0247834412e-001	 1.9097524549e+000	-9.0839123322e-001
 8.5259716961e-002	 1.9105986053e+000	-8.9056505519e-001
 6.8094258216e-002	 1.9112873730e+000	-8.8113821586e-001
 5.0983793135e-002	 1.9118203113e+000	-8.7969891299e-001
 3.3930106184e-002	 1.9121989954e+000	-8.8582676957e-001
 1.6934940936e-002	 1.9124250202e+000	-8.9909346002e-001
 0.0000000000e+000	 1.9125000000e+000	-9.1906333661e-001
 1.7240820275e-001	 1.9109884809e+000	-1.0912279526e+000
 1.5493906219e-001	 1.9124841044e+000	-1.0349330547e+000
 1.3751553286e-001	 1.9138158325e+000	-9.8953260210e-001
 1.2013960800e-001	 1.9149851271e+000	-9.5465931412e-001
 1.0281324067e-001	 1.9159934760e+000	-9.2993389379e-001
 8.5538343487e-002	 1.9168423916e+000	-9.1496565994e-001
 6.8316788471e-002	 1.9175334101e+000	-9.0935318517e-001
 5.1150406837e-002	 1.9180680901e+000	-9.1268493813e-001
 3.4040988883e-002	 1.9184480117e+000	-9.2453992905e-001
 1.6990283880e-002	 1.9186747751e+000	-9.4448835701e-001
 0.0000000000e+000	 1.9187500000e+000	-9.7209225795e-001
 1.7296979298e-001	 1.9172131991e+000	-1.1110343700e+000
 1.5544374969e-001	 1.9187136943e+000	-1.0539895945e+000
 1.3796346619e-001	 1.9200497603e+000	-1.0087797297e+000
 1.2053094223e-001	 1.9212228637e+000	-9.7504149289e-001
 1.0314813721e-001	 1.9222344971e+000	-9.5239862533e-001
 8.5816970012e-002	 1.9230861779e+000	-9.4046254327e-001
 6.8539318726e-002	 1.9237794473e+000	-9.3883299508e-001
 5.1317020540e-002	 1.9243158689e+000	-9.4709872343e-001
 3.4151871583e-002	 1.9246970280e+000	-9.6483813126e-001
 1.7045626824e-002	 1.9249245301e+000	-9.9161995017e-001
 0.0000000000e+000	 1.9250000000e+000	-1.0270039099e+000
 1.7353138322e-001	 1.9234379173e+000	-1.1310048292e+000
 1.5594843719e-001	 1.9249432842e+000	-1.0734049899e+000
 1.3841139952e-001	 1.9262836881e+000	-1.0285749593e+000
 1.2092227645e-001	 1.9274606003e+000	-9.9615544542e-001
 1.0348303376e-001	 1.9284755182e+000	-9.7577322336e-001
 8.6095596538e-002	 1.9293299642e+000	-9.6704180500e-001
 6.8761848981e-002	 1.9300254845e+000	-9.6956211507e-001
 5.1483634243e-002	 1.9305636477e+000	-9.8292317331e-001
 3.4262754283e-002	 1.9309460443e+000	-1.0067027808e+000
 1.7100969768e-002	 1.9311742851e+000	-1.0404682094e+000
 0.0000000000e+000	 1.9312500000e+000	-1.0837768928e+000
 1.7409297346e-001	 1.9296626355e+000	-1.1511346347e+000
 1.5645312469e-001	 1.9311728741e+000	-1.0931726128e+000
 1.3885933285e-001	 1.9325176159e+000	-1.0489097942e+000
 1.2131361068e-001	 1.9336983368e+000	-1.0179908708e+000
 1.0381793031e-001	 1.9347165393e+000	-1.0000456474e+000
 8.6374223063e-002	 1.9355737505e+000	-9.9468972963e-001
 6.8984379236e-002	 1.9362715216e+000	-1.0015252192e+000
 5.1650247946e-002	 1.9368114265e+000	-1.0201414158e+000
 3.4373636983e-002	 1.9371950607e+000	-1.0501155242e+000
 1.7156312713e-002	 1.9374240400e+000	-1.0910133641e+000
 0.0000000000e+000	 1.9375000000e+000	-1.1423900827e+000
 1.9375000000e+000	 0.0000000000e+000	 3.8848929081e+000
 1.9374240400e+000	 1.7156312713e-002	 3.7473052839e+000
 1.9371950607e+000	 3.4373636983e-002	 3.6168714608e+000
 1.9368114265e+000	 5.1650247946e-002	 3.4941664447e+000
 1.9362715216e+000	 6.8984379236e-002	 3.3797536683e+000
 1.9355737505e+000	 8.6374223063e-002	 3.2741841546e+000
 1.9347165393e+000	 1.0381793031e-001	 3.1779956868e+000
 1.9336983368e+000	 1.2131361068e-001	 3.0917119844e+000
 1.9325176159e+000	 1.3885933285e-001	 3.0158418901e+000
 1.9311728741e+000	 1.5645312469e-001	 2.9508785673e+000
 1.9296626355e+000	 1.7409297346e-001	 2.8972987106e+000
 1.9437500000e+000	 0.0000000000e+000	 3.9297230260e+000
 1.9436737950e+000	 1.7211655657e-002	 3.7755607461e+000
 1.9434440770e+000	 3.4484519682e-002	 3.6308259091e+000
 1.9430592053e+000	 5.1816861648e-002	 3.4961012687e+000
 1.9425175588e+000	 6.9206909491e-002	 3.3719560918e+000
 1.9418175368e+000	 8.6652849589e-002	 3.2589452711e+000
 1.9409575604e+000	 1.0415282686e-001	 3.1576084442e+000
 1.9399360734e+000	 1.2170494491e-001	 3.0684691218e+000
 1.9387515437e+000	 1.3930726618e-001	 2.9920338261e+000
 1.9374024641e+000	 1.5695781218e-001	 2.9287912420e+000
 1.9358873536e+000	 1.7465456369e-001	 2.8792113832e+000
 1.9500000000e+000	 0.0000000000e+000	 3.9768055578e+000
 1.9499235500e+000	 1.7266998600e-002	 3.8057999236e+000
 1.9496930933e+000	 3.4595402381e-002	 3.6464811542e+000
 1.9493069841e+000	 5.1983475350e-002	 3.4994396896e+000
 1.9487635960e+000	 6.9429439746e-002	 3.3652505756e+000
 1.9480613231e+000	 8.6931476113e-002	 3.2444725249e+000
 1.9471985815e+000	 1.0448772341e-001	 3.1376469865e+000
 1.9461738100e+000	 1.2209627913e-001	 3.0452972249e+000
 1.9449854715e+000	 1.3975519951e-001	 2.9679274111e+000
 1.9436320540e+000	 1.5746249968e-001	 2.9060217278e+000
 1.9421120718e+000	 1.7521615392e-001	 2.8600434903e+000
 1.9562500000e+000	 0.0000000000e+000	 4.0261166007e+000
 1.9561733049e+000	 1.7322341544e-002	 3.8380015348e+000
 1.9559421096e+000	 3.4706285080e-002	 3.6638186881e+000
 1.9555547629e+000	 5.2150089052e-002	 3.5041661266e+000
 1.9550096331e+000	 6.9651969999e-002	 3.3596246198e+000
 1.9543051094e+000	 8.7210102637e-002	 3.2307566515e+000
 1.9534396026e+000	 1.0482261995e-001	 3.1181054391e+000
 1.9524115466e+000	 1.2248761336e-001	 3.0221939638e+000
 1.9512193993e+000	 1.4020313284e-001	 2.9435240152e+000
 1.9498616439e+000	 1.5796718717e-001	 2.8825752495e+000
 1.9483367900e+000	 1.7577774416e-001	 2.8398042667e+000
 1.9625000000e+000	 0.0000000000e+000	 4.0776325562e+000
 1.9624230599e+000	 1.7377684488e-002	 3.8721445708e+000
 1.9621911260e+000	 3.4817167779e-002	 3.6828202428e+000
 1.9618025417e+000	 5.2316702753e-002	 3.5102652038e+000
 1.9612556703e+000	 6.9874500252e-002	 3.3550658928e+000
 1.9605488957e+000	 8.7488729159e-002	 3.2177885157e+000
 1.9596806237e+000	 1.0515751650e-001	 3.0989780156e+000
 1.9586492831e+000	 1.2287894758e-001	 2.9991570543e+000
 1.9574533271e+000	 1.4065106617e-001	 2.9188250093e+000
 1.9560912338e+000	 1.5847187467e-001	 2.8584569865e+000
 1.9545615082e+000	 1.7633933439e-001	 2.8185028533e+000
 1.9687500000e+000	 0.0000000000e+000	 4.1313301254e+000
 1.9686728149e+000	 1.7433027431e-002	 3.9082082918e+000
 1.9684401423e+000	 3.4928050477e-002	 3.7034677865e+000
 1.9680503205e+000	 5.2483316453e-002	 3.5177217470e+000
 1.9675017075e+000	 7.0097030504e-002	 3.3515622278e+000
 1.9667926820e+000	 8.7767355682e-002	 3.2055591090e+000
 1.9659216448e+000	 1.0549241305e-001	 3.0802590168e+000
 1.9648870197e+000	 1.2327028181e-001	 2.9761842572e+000
 1.9636872549e+000	 1.4109899950e-001	 2.8938317654e+000
 1.9623208237e+000	 1.5897656216e-001	 2.8336720737e+000
 1.9607862263e+000	 1.7690092462e-001	 2.7961482990e+000
 1.9750000000e+000	 0.0000000000e+000	 4.1871863045e+000
 1.9749225698e+000	 1.7488370374e-002	 3.9461722226e+000
 1.9746891586e+000	 3.5038933175e-002	 3.7257435195e+000
 1.9742980993e+000	 5.2649930153e-002	 3.5265207802e+000
 1.9737477446e+000	 7.0319560756e-002	 3.3491016209e+000
 1.9730364682e+000	 8.8045982203e-002	 3.1940595479e+000
 1.9721626658e+000	 1.0582730959e-001	 3.0619428287e+000
 1.9711247563e+000	 1.2366161603e-001	 2.9532733773e+000
 1.9699211826e+000	 1.4154693282e-001	 2.8685456569e+000
 1.9685504136e+000	 1.5948124966e-001	 2.8082256019e+000
 1.9670109445e+000	 1.7746251485e-001	 2.7727495621e+000
 1.9812500000e+000	 0.0000000000e+000	 4.2451783799e+000
 1.9811723248e+000	 1.7543713317e-002	 3.9860161481e+000
 1.9809381749e+000	 3.5149815872e-002	 3.7496298712e+000
 1.9805458781e+000	 5.2816543852e-002	 3.5366475228e+000
 1.9799937818e+000	 7.0542091007e-002	 3.3476722280e+000
 1.9792802545e+000	 8.8324608724e-002	 3.1832810720e+000
 1.9784036869e+000	 1.0616220613e-001	 3.0440239216e+000
 1.9773624928e+000	 1.2405295025e-001	 2.9304222632e+000
 1.9761551104e+000	 1.4199486615e-001	 2.8429680580e+000
 1.9747800035e+000	 1.5998593715e-001	 2.7821226191e+000
 1.9732356627e+000	 1.7802410508e-001	 2.7483155115e+000
 1.9875000000e+000	 0.0000000000e+000	 4.3052839236e+000
 1.9874220798e+000	 1.7599056260e-002	 4.0277201097e+000
 1.9871871913e+000	 3.5260698569e-002	 3.7751094959e+000
 1.9867936569e+000	 5.2983157551e-002	 3.5480873864e+000
 1.9862398189e+000	 7.0764621258e-002	 3.3472623628e+000
 1.9855240408e+000	 8.8603235243e-002	 3.1732150419e+000
 1.9846447080e+000	 1.0649710268e-001	 3.0264968488e+000
 1.9836002294e+000	 1.2444428447e-001	 2.9076288063e+000
 1.9823890382e+000	 1.4244279947e-001	 2.8171003441e+000
 1.9810095935e+000	 1.6049062464e-001	 2.7553681303e+000
 1.9794603809e+000	 1.7858569531e-001	 2.7228549283e+000
 1.9937500000e+000	 0.0000000000e+000	 4.3674807890e+000
 1.9936718348e+000	 1.7654399202e-002	 4.0712644011e+000
 1.9934362076e+000	 3.5371581266e-002	 3.8021652694e+000
 1.9930414357e+000	 5.3149771250e-002	 3.5608259717e+000
 1.9924858561e+000	 7.0987151507e-002	 3.3478604938e+000
 1.9917678271e+000	 8.8881861763e-002	 3.1638529374e+000
 1.9908857291e+000	 1.0683199922e-001	 3.0093562448e+000
 1.9898379660e+000	 1.2483561869e-001	 2.8848909399e+000
 1.9886229660e+000	 1.4289073279e-001	 2.7909438914e+000
 1.9872391834e+000	 1.6099531213e-001	 2.7279670992e+000
 1.9856850990e+000	 1.7914728554e-001	 2.6963765070e+000
 2.0000000000e+000	 0.0000000000e+000	 4.4317471063e+000
 1.9999215897e+000	 1.7709742145e-002	 4.1166295642e+000
 1.9996852239e+000	 3.5482463962e-002	 3.8307802859e+000
 1.9992892145e+000	 5.3316384948e-002	 3.5748490659e+000
 1.9987318933e+000	 7.1209681757e-002	 3.3494552422e+000
 1.9980116134e+000	 8.9160488281e-002	 3.1551863557e+000
 1.9971267502e+000	 1.0716689576e-001	 2.9925968246e+000
 1.9960757025e+000	 1.2522695291e-001	 2.8622066391e+000
 1.9948568938e+000	 1.4333866611e-001	 2.7645000775e+000
 1.9934687733e+000	 1.6149999962e-001	 2.6999244478e+000
 1.9919098172e+000	 1.7970887576e-001	 2.6688888572e+000
 1.9296626355e+000	 1.7409297346e-001	 2.8972987106e+000
 1.9279854509e+000	 1.9177682612e-001	 2.8301687838e+000
 1.9261399002e+000	 2.0950258962e-001	 2.7587903956e+000
 1.9241245923e+000	 2.2726813122e-001	 2.6834440313e+000
 1.9219381672e+000	 2.4507127886e-001	 2.6044017807e+000
 1.9195792966e+000	 2.6290982159e-001	 2.5219270070e+000
 1.9170466853e+000	 2.8078151000e-001	 2.4362740346e+000
 1.9143390725e+000	 2.9868405670e-001	 2.3476878583e+000
 1.9114552323e+000	 3.1661513684e-001	 2.2564038739e+000
 1.9083939758e+000	 3.3457238866e-001	 2.1626476324e+000
 1.9051541513e+000	 3.5255341406e-001	 2.0666346171e+000
 1.9358873536e+000	 1.7465456369e-001	 2.8792113832e+000
 1.9342047588e+000	 1.9239546104e-001	 2.8172353740e+000
 1.9323532547e+000	 2.1017840442e-001	 2.7506299419e+000
 1.9303314458e+000	 2.2800125422e-001	 2.6796663104e+000
 1.9281379677e+000	 2.4586183137e-001	 2.6046073373e+000
 1.9257714878e+000	 2.6375791779e-001	 2.5257071946e+000
 1.9232307069e+000	 2.8168725681e-001	 2.4432110673e+000
 1.9205143598e+000	 2.9964755366e-001	 2.3573548738e+000
 1.9176212170e+000	 3.1763647599e-001	 2.2683650093e+000
 1.9145500854e+000	 3.3565165443e-001	 2.1764581107e+000
 1.9112998099e+000	 3.5369068314e-001	 2.0818408480e+000
 1.9421120718e+000	 1.7521615392e-001	 2.8600434903e+000
 1.9404240668e+000	 1.9301409596e-001	 2.8031624124e+000
 1.9385666092e+000	 2.1085421923e-001	 2.7412745222e+000
 1.9365382993e+000	 2.2873437722e-001	 2.6746418151e+000
 1.9343377682e+000	 2.4665238388e-001	 2.6035179483e+000
 1.9319636791e+000	 2.6460601398e-001	 2.5281479314e+000
 1.9294147285e+000	 2.8259300361e-001	 2.4487678360e+000
 1.9266896471e+000	 3.0061105062e-001	 2.3656045283e+000
 1.9237872016e+000	 3.1865781514e-001	 2.2788754231e+000
 1.9207061950e+000	 3.3673092019e-001	 2.1887882620e+000
 1.9174454684e+000	 3.5482795222e-001	 2.0955409165e+000
 1.9483367900e+000	 1.7577774416e-001	 2.8398042667e+000
 1.9466433747e+000	 1.9363273088e-001	 2.7879599064e+000
 1.9447799637e+000	 2.1153003403e-001	 2.7307348975e+000
 1.9427451529e+000	 2.2946750022e-001	 2.6683820405e+000
 1.9405375688e+000	 2.4744293639e-001	 2.6011458230e+000
 1.9381558704e+000	 2.6545411018e-001	 2.5292621202e+000
 1.9355987500e+000	 2.8349875041e-001	 2.4529579164e+000
 1.9328649345e+000	 3.0157454757e-001	 2.3724510480e+000
 1.9299531862e+000	 3.1967915429e-001	 2.2879499703e+000
 1.9268623046e+000	 3.3781018596e-001	 2.1996535470e+000
 1.9235911270e+000	 3.5596522129e-001	 2.1077508661e+000
 1.9545615082e+000	 1.7633933439e-001	 2.8185028533e+000
 1.9528626826e+000	 1.9425136580e-001	 2.7716377624e+000
 1.9509933182e+000	 2.1220584883e-001	 2.7190217212e+000
 1.9489520064e+000	 2.3020062322e-001	 2.6608983681e+000
 1.9467373693e+000	 2.4823348889e-001	 2.5975030511e+000
 1.9443480617e+000	 2.6630220637e-001	 2.5290625388e+000
 1.9417827716e+000	 2.8440449722e-001	 2.4557947531e+000
 1.9390402218e+000	 3.0253804452e-001	 2.3779085236e+000
 1.9361191708e+000	 3.2070049344e-001	 2.2956033654e+000
 1.9330184142e+000	 3.3888945173e-001	 2.2090692816e+000
 1.9297367855e+000	 3.5710249037e-001	 2.1184865908e+000
 1.9607862263e+000	 1.7690092462e-001	 2.7961482990e+000
 1.9590819905e+000	 1.9487000072e-001	 2.7542057881e+000
 1.9572066727e+000	 2.1288166363e-001	 2.7061455414e+000
 1.9551588599e+000	 2.3093374622e-001	 2.6522020675e+000
 1.9529371698e+000	 2.4902404140e-001	 2.5926016043e+000
 1.9505402530e+000	 2.6715030256e-001	 2.5275618412e+000
 1.9479667931e+000	 2.8531024402e-001	 2.4572916622e+000
 1.9452155091e+000	 3.0350154148e-001	 2.3819909118e+000
 1.9422851554e+000	 3.2172183259e-001	 2.3018501845e+000
 1.9391745238e+000	 3.3996871750e-001	 2.2170506391e+000
 1.9358824441e+000	 3.5823975944e-001	 2.1277638386e+000
 1.9670109445e+000	 1.7746251485e-001	 2.7727495621e+000
 1.9653012984e+000	 1.9548863563e-001	 2.7356736934e+000
 1.9634200273e+000	 2.1355747843e-001	 2.6921168020e+000
 1.9613657134e+000	 2.3166686921e-001	 2.6423042979e+000
 1.9591369704e+000	 2.4981459391e-001	 2.5864533382e+000
 1.9567324442e+000	 2.6799839876e-001	 2.5247725598e+000
 1.9541508147e+000	 2.8621599082e-001	 2.4574618326e+000
 1.9513907964e+000	 3.0446503843e-001	 2.3847120376e+000
 1.9484511400e+000	 3.2274317173e-001	 2.3067048673e+000
 1.9453306334e+000	 3.4104798326e-001	 2.2236126520e+000
 1.9420281026e+000	 3.5937702852e-001	 2.1355982127e+000
 1.9732356627e+000	 1.7802410508e-001	 2.7483155115e+000
 1.9715206063e+000	 1.9610727055e-001	 2.7160510926e+000
 1.9696333818e+000	 2.1423329322e-001	 2.6769458446e+000
 1.9675725669e+000	 2.3239999221e-001	 2.6312161103e+000
 1.9653367709e+000	 2.5060514641e-001	 2.5790699945e+000
 1.9629246355e+000	 2.6884649495e-001	 2.5207071074e+000
 1.9603348363e+000	 2.8712173762e-001	 2.4563183288e+000
 1.9575660838e+000	 3.0542853538e-001	 2.3860855965e+000
 1.9546171247e+000	 3.2376451088e-001	 2.3101817194e+000
 1.9514867430e+000	 3.4212724903e-001	 2.2287702151e+000
 1.9481737612e+000	 3.6051429759e-001	 2.1420051745e+000
 1.9794603809e+000	 1.7858569531e-001	 2.7228549283e+000
 1.9777399142e+000	 1.9672590546e-001	 2.6953475052e+000
 1.9758467363e+000	 2.1490910802e-001	 2.6606429101e+000
 1.9737794204e+000	 2.3313311521e-001	 2.6189484489e+000
 1.9715365714e+000	 2.5139569892e-001	 2.5704632023e+000
 1.9691168268e+000	 2.6969459114e-001	 2.5153777793e+000
 1.9665188578e+000	 2.8802748442e-001	 2.4538740922e+000
 1.9637413711e+000	 3.0639203233e-001	 2.3861251565e+000
 1.9607831093e+000	 3.2478585002e-001	 2.3122949148e+000
 1.9576428526e+000	 3.4320651479e-001	 2.2325380867e+000
 1.9543194197e+000	 3.6165156667e-001	 2.1470000457e+000
 1.9856850990e+000	 1.7914728554e-001	 2.6963765070e+000
 1.9839592221e+000	 1.9734454038e-001	 2.6735723580e+000
 1.9820600908e+000	 2.1558492282e-001	 2.6432181404e+000
 1.9799862740e+000	 2.3386623820e-001	 2.6055121530e+000
 1.9777363720e+000	 2.5218625142e-001	 2.5606444801e+000
 1.9753090180e+000	 2.7054268733e-001	 2.5087967544e+000
 1.9727028794e+000	 2.8893323122e-001	 2.4501419434e+000
 1.9699166584e+000	 3.0735552928e-001	 2.3848441599e+000
 1.9669490939e+000	 3.2580718917e-001	 2.3130584972e+000
 1.9637989621e+000	 3.4428578056e-001	 2.2349308914e+000
 1.9604650783e+000	 3.6278883574e-001	 2.1505980102e+000
 1.9919098172e+000	 1.7970887576e-001	 2.6688888572e+000
 1.9901785300e+000	 1.9796317529e-001	 2.6507349863e+000
 1.9882734453e+000	 2.1626073761e-001	 2.6246815795e+000
 1.9861931275e+000	 2.3459936119e-001	 2.5909179584e+000
 1.9839361725e+000	 2.5297680392e-001	 2.5496252375e+000
 1.9815012093e+000	 2.7139078352e-001	 2.5009760980e+000
 1.9788869009e+000	 2.8983897801e-001	 2.4451345842e+000
 1.9760919457e+000	 3.0831902623e-001	 2.3822559254e+000
 1.9731150785e+000	 3.2682852831e-001	 2.3124863827e+000
 1.9699550717e+000	 3.4536504632e-001	 2.2359631221e+000
 1.9666107368e+000	 3.6392610481e-001	 2.1528141166e+000
 1.9051541513e+000	 3.5255341406e-001	 2.0666346171e+000
 1.9017346462e+000	 3.7055577929e-001	 1.9706349083e+000
 1.8981343875e+000	 3.8857701554e-001	 1.8866741271e+000
 1.8943523434e+000	 4.0661461970e-001	 1.8149190508e+000
 1.8903875242e+000	 4.2466605508e-001	 1.7555132399e+000
 1.8862389833e+000	 4.4272875217e-001	 1.7085767414e+000
 1.8819058183e+000	 4.6080010951e-001	 1.6742058328e+000
 1.8773871724e+000	 4.7887749449e-001	 1.6524728075e+000
 1.8726822350e+000	 4.9695824426e-001	 1.5956462046e+000
 1.8677902430e+000	 5.1503966669e-001	 1.4998360902e+000
 1.8627104815e+000	 5.3311904127e-001	 1.4155668310e+000
 1.9112998099e+000	 3.5369068314e-001	 2.0818408480e+000
 1.9078692741e+000	 3.7175112051e-001	 1.9850477045e+000
 1.9042574017e+000	 3.8983048978e-001	 1.8989270475e+000
 1.9004631574e+000	 4.0792627976e-001	 1.8236642631e+000
 1.8964855485e+000	 4.2603594558e-001	 1.7594228982e+000
 1.8923236251e+000	 4.4415690944e-001	 1.7063443724e+000
 1.8879764823e+000	 4.6228656148e-001	 1.6645477307e+000
 1.8834432601e+000	 4.8042226060e-001	 1.6341294355e+000
 1.8787231455e+000	 4.9856133537e-001	 1.6151632006e+000
 1.8738153728e+000	 5.1670108497e-001	 1.5836290639e+000
 1.8687192250e+000	 5.3483878012e-001	 1.4857941987e+000
 1.9174454684e+000	 3.5482795222e-001	 2.0955409165e+000
 1.9140039020e+000	 3.7294646173e-001	 1.9983367032e+000
 1.9103804158e+000	 3.9108396403e-001	 1.9104492799e+000
 1.9065739715e+000	 4.0923793983e-001	 1.8320825365e+000
 1.9025835727e+000	 4.2740583608e-001	 1.7634198918e+000
 1.8984082670e+000	 4.4558506670e-001	 1.7046240161e+000
 1.8940471462e+000	 4.6377301344e-001	 1.6558365910e+000
 1.8894993477e+000	 4.8196702671e-001	 1.6171781085e+000
 1.8847640559e+000	 5.0016442649e-001	 1.5887477101e+000
 1.8798405026e+000	 5.1836250325e-001	 1.5706230676e+000
 1.8747279684e+000	 5.3655851896e-001	 1.5574355547e+000
 1.9235911270e+000	 3.5596522129e-001	 2.1077508661e+000
 1.9201385298e+000	 3.7414180296e-001	 2.0105146301e+000
 1.9165034300e+000	 3.9233743827e-001	 1.9212501414e+000
 1.9126847855e+000	 4.1054959989e-001	 1.8401796883e+000
 1.9086815970e+000	 4.2877572658e-001	 1.7675064489e+000
 1.9044929089e+000	 4.4701322397e-001	 1.7034142220e+000
 1.9001178101e+000	 4.6525946541e-001	 1.6480671960e+000
 1.8955554354e+000	 4.8351179282e-001	 1.6016097537e+000
 1.8908049663e+000	 5.0176751760e-001	 1.5641663174e+000
 1.8858656324e+000	 5.2002392153e-001	 1.5358412332e+000
 1.8807367119e+000	 5.3827825781e-001	 1.5167186956e+000
 1.9297367855e+000	 3.5710249037e-001	 2.1184865908e+000
 1.9262731577e+000	 3.7533714418e-001	 2.0215941075e+000
 1.9226264441e+000	 3.9359091251e-001	 1.9313388924e+000
 1.9187955995e+000	 4.1186125995e-001	 1.8479615281e+000
 1.9147796213e+000	 4.3014561708e-001	 1.7716848389e+000
 1.9105775508e+000	 4.4844138123e-001	 1.7027136316e+000
 1.9061884740e+000	 4.6674591738e-001	 1.6412344714e+000
 1.9016115230e+000	 4.8505655894e-001	 1.5874154947e+000
 1.8968458768e+000	 5.0337060871e-001	 1.5414062583e+000
 1.8918907622e+000	 5.2168533981e-001	 1.5033376277e+000
 1.8867454554e+000	 5.3999799665e-001	 1.4733217047e+000
 1.9358824441e+000	 3.5823975944e-001	 2.1277638386e+000
 1.9324077856e+000	 3.7653248540e-001	 2.0315876562e+000
 1.9287494583e+000	 3.9484438676e-001	 1.9407247382e+000
 1.9249064135e+000	 4.1317292002e-001	 1.8554338573e+000
 1.9208776456e+000	 4.3151550758e-001	 1.7759573720e+000
 1.9166621927e+000	 4.4986953850e-001	 1.7025209764e+000
 1.9122591380e+000	 4.6823236934e-001	 1.6353334844e+000
 1.9076676107e+000	 4.8660132505e-001	 1.5745866484e+000
 1.9028867872e+000	 5.0497369982e-001	 1.5204550145e+000
 1.8979158920e+000	 5.2334675809e-001	 1.4730958143e+000
 1.8927541989e+000	 5.4171773550e-001	 1.4326488946e+000
 1.9420281026e+000	 3.5937702852e-001	 2.1355982127e+000
 1.9385424135e+000	 3.7772782662e-001	 2.0405076971e+000
 1.9348724724e+000	 3.9609786100e-001	 1.9494168294e+000
 1.9310172275e+000	 4.1448458008e-001	 1.8626024694e+000
 1.9269756698e+000	 4.3288539808e-001	 1.7803263981e+000
 1.9227468346e+000	 4.5129769576e-001	 1.7028350773e+000
 1.9183298019e+000	 4.6971882131e-001	 1.6303594411e+000
 1.9137236984e+000	 4.8814609116e-001	 1.5631147220e+000
 1.9089276977e+000	 5.0657679093e-001	 1.5013003106e+000
 1.9039410219e+000	 5.2500817637e-001	 1.4450996521e+000
 1.8987629424e+000	 5.4343747434e-001	 1.3946801771e+000
 1.9481737612e+000	 3.6051429759e-001	 2.1420051745e+000
 1.9446770414e+000	 3.7892316784e-001	 2.0483665526e+000
 1.9409954866e+000	 3.9735133524e-001	 1.9574242632e+000
 1.9371280415e+000	 4.1579624014e-001	 1.8694731503e+000
 1.9330736941e+000	 4.3425528858e-001	 1.7847943067e+000
 1.9288314764e+000	 4.5272585303e-001	 1.7036548424e+000
 1.9244004658e+000	 4.7120527328e-001	 1.6263076845e+000
 1.9197797860e+000	 4.8969085727e-001	 1.5529914098e+000
 1.9149686081e+000	 5.0817988204e-001	 1.4839301101e+000
 1.9099661517e+000	 5.2666959465e-001	 1.4193332915e+000
 1.9047716859e+000	 5.4515721318e-001	 1.3593958092e+000
 1.9543194197e+000	 3.6165156667e-001	 2.1470000457e+000
 1.9508116693e+000	 3.8011850906e-001	 2.0551764481e+000
 1.9471185007e+000	 3.9860480948e-001	 1.9647560837e+000
 1.9432388555e+000	 4.1710790020e-001	 1.8760516783e+000
 1.9391717184e+000	 4.3562517908e-001	 1.7893635258e+000
 1.9349161183e+000	 4.5415401029e-001	 1.7049792660e+000
 1.9304711298e+000	 4.7269172524e-001	 1.6231736922e+000
 1.9258358737e+000	 4.9123562338e-001	 1.5442085907e+000
 1.9210095185e+000	 5.0978297315e-001	 1.4683326111e+000
 1.9159912815e+000	 5.2833101293e-001	 1.3957811700e+000
 1.9107804294e+000	 5.4687695202e-001	 1.3267763873e+000
 1.9604650783e+000	 3.6278883574e-001	 2.1505980102e+000
 1.9569462972e+000	 3.8131385028e-001	 2.0609495138e+000
 1.9532415149e+000	 3.9985828372e-001	 1.9714212833e+000
 1.9493496695e+000	 4.1841956027e-001	 1.8823438242e+000
 1.9452697426e+000	 4.3699506958e-001	 1.7940365218e+000
 1.9410007602e+000	 4.5558216756e-001	 1.7068074273e+000
 1.9365417937e+000	 4.7417817721e-001	 1.6209530745e+000
 1.9318919613e+000	 4.9278038949e-001	 1.5367583248e+000
 1.9270504290e+000	 5.1138606426e-001	 1.4544962435e+000
 1.9220164113e+000	 5.2999243121e-001	 1.3744280071e+000
 1.9167891729e+000	 5.4859669086e-001	 1.2968028421e+000
 1.9666107368e+000	 3.6392610481e-001	 2.1528141166e+000
 1.9630809251e+000	 3.8250919150e-001	 2.0656977862e+000
 1.9593645290e+000	 4.0111175796e-001	 1.9774288031e+000
 1.9554604835e+000	 4.1973122033e-001	 1.8883553515e+000
 1.9513677669e+000	 4.3836496007e-001	 1.7988157982e+000
 1.9470854021e+000	 4.5701032482e-001	 1.7091384890e+000
 1.9426124576e+000	 4.7566462917e-001	 1.6196415721e+000
 1.9379480490e+000	 4.9432515560e-001	 1.5306328508e+000
 1.9330913394e+000	 5.1298915537e-001	 1.4424096646e+000
 1.9280415411e+000	 5.3165384949e-001	 1.3552588002e+000
 1.9227979164e+000	 5.5031642970e-001	 1.2694564333e+000
 1.8627104815e+000	 5.3311904127e-001	 1.4155668310e+000
 1.8574422852e+000	 5.5119362020e-001	 1.3560128349e+000
 1.8519850393e+000	 5.6926062933e-001	 1.2999642245e+000
 1.8463381800e+000	 5.8731726933e-001	 1.2485686105e+000
 1.8405011960e+000	 6.0536071673e-001	 1.2030203214e+000
 1.8344736290e+000	 6.2338812510e-001	 1.1645588708e+000
 1.8282550746e+000	 6.4139662621e-001	 1.0700184642e+000
 1.8218451834e+000	 6.5938333127e-001	 9.8265302421e-001
 1.8152436616e+000	 6.7734533214e-001	 9.0907656328e-001
 1.8084502717e+000	 6.9527970264e-001	 8.4934632457e-001
 1.8014648333e+000	 7.1318349980e-001	 8.0351191790e-001
 1.8687192250e+000	 5.3483878012e-001	 1.4857941987e+000
 1.8634340345e+000	 5.5297166414e-001	 1.4130735265e+000
 1.8579591846e+000	 5.7109695395e-001	 1.3447222555e+000
 1.8522941097e+000	 5.8921184117e-001	 1.2819043275e+000
 1.8464382967e+000	 6.0731349324e-001	 1.2258301297e+000
 1.8403912859e+000	 6.2539905453e-001	 1.1761831928e+000
 1.8341526716e+000	 6.4346564759e-001	 1.0688036198e+000
 1.8277221034e+000	 6.6151037428e-001	 9.7627518294e-001
 1.8210992863e+000	 6.7953031709e-001	 8.9865424042e-001
 1.8142839822e+000	 6.9752254039e-001	 8.3598772515e-001
 1.8072760102e+000	 7.1548409174e-001	 7.8831393071e-001
 1.8747279684e+000	 5.3655851896e-001	 1.5574355547e+000
 1.8694257839e+000	 5.5474970807e-001	 1.4713684446e+000
 1.8639333299e+000	 5.7293327856e-001	 1.3905253492e+000
 1.8582500393e+000	 5.9110641301e-001	 1.3160866663e+000
 1.8523753973e+000	 6.0926626974e-001	 1.2492789761e+000
 1.8463089427e+000	 6.2740998397e-001	 1.1821951342e+000
 1.8400502686e+000	 6.4553466896e-001	 1.0684552737e+000
 1.8335990233e+000	 6.6363741728e-001	 9.7068702744e-001
 1.8269549110e+000	 6.8171530203e-001	 8.8893737651e-001
 1.8201176928e+000	 6.9976537814e-001	 8.2324286910e-001
 1.8130871871e+000	 7.1778468367e-001	 7.7363041297e-001
 1.8807367119e+000	 5.3827825781e-001	 1.5167186956e+000
 1.8754175332e+000	 5.5652775201e-001	 1.5227234798e+000
 1.8699074752e+000	 5.7476960317e-001	 1.4373333231e+000
 1.8642059689e+000	 5.9300098485e-001	 1.3510757048e+000
 1.8583124979e+000	 6.1121904625e-001	 1.2733272527e+000
 1.8522265996e+000	 6.2942091341e-001	 1.1891417382e+000
 1.8459478657e+000	 6.4760369034e-001	 1.0689738729e+000
 1.8394759433e+000	 6.6576446029e-001	 9.6589082202e-001
 1.8328105357e+000	 6.8390028698e-001	 8.7993010986e-001
 1.8259514033e+000	 7.0200821589e-001	 8.1111782488e-001
 1.8188983639e+000	 7.2008527561e-001	 7.5946941873e-001
 1.8867454554e+000	 5.3999799665e-001	 1.4733217047e+000
 1.8814092825e+000	 5.5830579595e-001	 1.4674615463e+000
 1.8758816205e+000	 5.7660592778e-001	 1.4684131423e+000
 1.8701618985e+000	 5.9489555668e-001	 1.3868318493e+000
 1.8642495986e+000	 6.1317182276e-001	 1.2979356667e+000
 1.8581442565e+000	 6.3143184285e-001	 1.1970219940e+000
 1.8518454627e+000	 6.4967271172e-001	 1.0703601517e+000
 1.8453528632e+000	 6.6789150329e-001	 9.6188910263e-001
 1.8386661605e+000	 6.8608527192e-001	 8.7163683422e-001
 1.8317851139e+000	 7.0425105364e-001	 7.9961889938e-001
 1.8247095408e+000	 7.2238586754e-001	 7.4583922260e-001
 1.8927541989e+000	 5.4171773550e-001	 1.4326488946e+000
 1.8874010318e+000	 5.6008383989e-001	 1.4148558298e+000
 1.8818557658e+000	 5.7844225239e-001	 1.4049472193e+000
 1.8761178281e+000	 5.9679012852e-001	 1.4028557341e+000
 1.8701866992e+000	 6.1512459926e-001	 1.3230652357e+000
 1.8640619133e+000	 6.3344277228e-001	 1.2058351871e+000
 1.8577430597e+000	 6.5174173309e-001	 1.0726151265e+000
 1.8512297832e+000	 6.7001854630e-001	 9.5868467256e-001
 1.8445217852e+000	 6.8827025686e-001	 8.6406219475e-001
 1.8376188244e+000	 7.0649389139e-001	 7.8875263413e-001
 1.8305207177e+000	 7.2468645948e-001	 7.3274831632e-001
 1.8987629424e+000	 5.4343747434e-001	 1.3946801771e+000
 1.8933927811e+000	 5.6186188382e-001	 1.3648873367e+000
 1.8878299110e+000	 5.8027857700e-001	 1.3440455735e+000
 1.8820737577e+000	 5.9868470036e-001	 1.3320849421e+000
 1.8761237998e+000	 6.1707737577e-001	 1.3289143554e+000
 1.8699795702e+000	 6.3545370172e-001	 1.2155808955e+000
 1.8636406567e+000	 6.5381075447e-001	 1.0757400921e+000
 1.8571067031e+000	 6.7214558930e-001	 9.5628059823e-001
 1.8503774099e+000	 6.9045524180e-001	 8.5721108404e-001
 1.8434525350e+000	 7.0873672914e-001	 7.7852580161e-001
 1.8363318946e+000	 7.2698705142e-001	 7.2020540526e-001
 1.9047716859e+000	 5.4515721318e-001	 1.3593958092e+000
 1.8993845304e+000	 5.6363992776e-001	 1.3175374084e+000
 1.8938040563e+000	 5.8211490161e-001	 1.2856906944e+000
 1.8880296873e+000	 6.0057927219e-001	 1.2637830496e+000
 1.8820609005e+000	 6.1903015227e-001	 1.2517196357e+000
 1.8758972271e+000	 6.3746463115e-001	 1.2111831509e+000
 1.8695382537e+000	 6.5587977584e-001	 1.0797366166e+000
 1.8629836231e+000	 6.7427263231e-001	 9.5468020498e-001
 1.8562330346e+000	 6.9264022675e-001	 8.5108863817e-001
 1.8492862456e+000	 7.1097956689e-001	 7.6894540158e-001
 1.8421430715e+000	 7.2928764335e-001	 7.0821940508e-001
 1.9107804294e+000	 5.4687695202e-001	 1.3267763873e+000
 1.9053762797e+000	 5.6541797169e-001	 1.2727877161e+000
 1.8997782016e+000	 5.8395122622e-001	 1.2298653909e+000
 1.8939856170e+000	 6.0247384403e-001	 1.1979340660e+000
 1.8879980011e+000	 6.2098292878e-001	 1.1768950980e+000
 1.8818148839e+000	 6.3947556059e-001	 1.1244739080e+000
 1.8754358508e+000	 6.5794879721e-001	 1.0776175513e+000
 1.8688605430e+000	 6.7639967531e-001	 9.5388707307e-001
 1.8620886593e+000	 6.9482521169e-001	 8.4570023294e-001
 1.8551199561e+000	 7.1322240464e-001	 7.6001865751e-001
 1.8479542484e+000	 7.3158823529e-001	 6.9679943840e-001
 1.9167891729e+000	 5.4859669086e-001	 1.2968028421e+000
 1.9113680290e+000	 5.6719601562e-001	 1.2306202557e+000
 1.9057523469e+000	 5.8578755083e-001	 1.1765527862e+000
 1.8999415466e+000	 6.0436841586e-001	 1.1345223034e+000
 1.8939351017e+000	 6.2293570528e-001	 1.1044263053e+000
 1.8877325408e+000	 6.4148649002e-001	 1.0406108627e+000
 1.8813334478e+000	 6.6001781859e-001	 9.8978329583e-001
 1.8747374630e+000	 6.7852671831e-001	 9.5390503365e-001
 1.8679442841e+000	 6.9701019663e-001	 8.4105148005e-001
 1.8609536667e+000	 7.1546524239e-001	 7.5175301309e-001
 1.8537654253e+000	 7.3388882722e-001	 6.8595483160e-001
 1.9227979164e+000	 5.5031642970e-001	 1.2694564333e+000
 1.9173597783e+000	 5.6897405956e-001	 1.1910173426e+000
 1.9117264922e+000	 5.8762387544e-001	 1.1257363126e+000
 1.9058974762e+000	 6.0626298769e-001	 1.0735323725e+000
 1.8998722024e+000	 6.2488848178e-001	 1.0342991075e+000
 1.8936501977e+000	 6.4349741945e-001	 9.5956792230e-001
 1.8872310448e+000	 6.6208683996e-001	 9.0465145184e-001
 1.8806143829e+000	 6.8065376131e-001	 8.6972611165e-001
 1.8737999088e+000	 6.9919518157e-001	 8.3714822346e-001
 1.8667873772e+000	 7.1770808014e-001	 7.4415612878e-001
 1.8595766022e+000	 7.3618941916e-001	 6.7569511159e-001
 1.8014648333e+000	 7.1318349980e-001	 8.0351191790e-001
 1.7942872240e+000	 7.3105376529e-001	 7.6450664176e-001
 1.7869173799e+000	 7.4888752669e-001	 7.1878982439e-001
 1.7793552960e+000	 7.6668179894e-001	 6.6624475657e-001
 1.7716010272e+000	 7.8443358575e-001	 6.0676757955e-001
 1.7636546888e+000	 8.0213988105e-001	 5.4026850171e-001
 1.7555164567e+000	 8.1979767044e-001	 4.6667300448e-001
 1.7471865681e+000	 8.3740393269e-001	 3.8592303343e-001
 1.7386653219e+000	 8.5495564128e-001	 2.9797817070e-001
 1.7299530791e+000	 8.7244976590e-001	 2.0281678470e-001
 1.7210502633e+000	 8.8988327405e-001	 1.0043715294e-001
 1.8072760102e+000	 7.1548409174e-001	 7.8831393071e-001
 1.8000752473e+000	 7.3341200324e-001	 7.4772093773e-001
 1.7926816295e+000	 7.5130329290e-001	 7.0079310472e-001
 1.7850951517e+000	 7.6915496603e-001	 6.4739963270e-001
 1.7773158692e+000	 7.8696401667e-001	 5.8742229461e-001
 1.7693438975e+000	 8.0472742905e-001	 5.2075667354e-001
 1.7611794130e+000	 8.2244217905e-001	 4.4731339052e-001
 1.7528226538e+000	 8.4010523569e-001	 3.6701931814e-001
 1.7442739197e+000	 8.5771356270e-001	 2.7981877584e-001
 1.7355335729e+000	 8.7526411998e-001	 1.8567470280e-001
 1.7266020383e+000	 8.9275386525e-001	 8.4569804421e-002
 1.8130871871e+000	 7.1778468367e-001	 7.7363041297e-001
 1.8058632706e+000	 7.3577024119e-001	 7.3138328925e-001
 1.7984458791e+000	 7.5371905912e-001	 6.8317487522e-001
 1.7908350075e+000	 7.7162813312e-001	 6.2886023467e-001
 1.7830307112e+000	 7.8949444760e-001	 5.6830672764e-001
 1.7750331061e+000	 8.0731497706e-001	 5.0139527020e-001
 1.7668423693e+000	 8.2508668766e-001	 4.2802158443e-001
 1.7584587395e+000	 8.4280653870e-001	 3.4809743461e-001
 1.7498825175e+000	 8.6047148412e-001	 2.6155184549e-001
 1.7411140667e+000	 8.7807847407e-001	 1.6833229860e-001
 1.7321538133e+000	 8.9562445645e-001	 6.8405902398e-002
 1.8188983639e+000	 7.2008527561e-001	 7.5946941873e-001
 1.8116512939e+000	 7.3812847915e-001	 7.1550340262e-001
 1.8042101287e+000	 7.5613482533e-001	 6.6594650493e-001
 1.7965748633e+000	 7.7410130022e-001	 6.1063960385e-001
 1.7887455533e+000	 7.9202487852e-001	 5.4943560101e-001
 1.7807223148e+000	 8.0990252506e-001	 4.8220070289e-001
 1.7725053256e+000	 8.2773119628e-001	 4.0881569311e-001
 1.7640948252e+000	 8.4550784171e-001	 3.2917719138e-001
 1.7554911153e+000	 8.6322940554e-001	 2.4319889488e-001
 1.7466945606e+000	 8.8089282815e-001	 1.5081279810e-001
 1.7377055884e+000	 8.9849504766e-001	 5.1970386827e-002
 1.8247095408e+000	 7.2238586754e-001	 7.4583922260e-001
 1.8174393172e+000	 7.4048671710e-001	 7.0009119103e-001
 1.8099743783e+000	 7.5855059155e-001	 6.4911955577e-001
 1.8023147191e+000	 7.7657446731e-001	 5.9275096027e-001
 1.7944603953e+000	 7.9455530944e-001	 5.3082380129e-001
 1.7864115235e+000	 8.1249007306e-001	 4.6318953224e-001
 1.7781682819e+000	 8.3037570489e-001	 3.8971395792e-001
 1.7697309109e+000	 8.4820914472e-001	 3.1027851626e-001
 1.7610997131e+000	 8.6598732697e-001	 2.2478154306e-001
 1.7522750544e+000	 8.8370718223e-001	 1.3313951549e-001
 1.7432573634e+000	 9.0136563886e-001	 3.5288269982e-002
 1.8305207177e+000	 7.2468645948e-001	 7.3274831632e-001
 1.8232273405e+000	 7.4284495505e-001	 6.8515677123e-001
 1.8157386279e+000	 7.6096635776e-001	 6.3270577951e-001
 1.8080545749e+000	 7.7904763441e-001	 5.7520769978e-001
 1.8001752373e+000	 7.9708574036e-001	 5.1248637661e-001
 1.7921007322e+000	 8.1507762107e-001	 4.4437846599e-001
 1.7838312382e+000	 8.3302021351e-001	 3.7073475257e-001
 1.7753669966e+000	 8.5091044773e-001	 2.9142145444e-001
 1.7667083109e+000	 8.6874524839e-001	 2.0632151130e-001
 1.7578555482e+000	 8.8652153631e-001	 1.1533585176e-001
 1.7488091385e+000	 9.0423623007e-001	 1.8384635309e-002
 1.8363318946e+000	 7.2698705142e-001	 7.2020540526e-001
 1.8290153638e+000	 7.4520319301e-001	 6.7071046037e-001
 1.8215028775e+000	 7.6338212398e-001	 6.1671711476e-001
 1.8137944307e+000	 7.8152080150e-001	 5.5802339127e-001
 1.8058900793e+000	 7.9961617129e-001	 4.9443853412e-001
 1.7977899408e+000	 8.1766516907e-001	 4.2578435662e-001
 1.7894941945e+000	 8.3566472212e-001	 3.5189658104e-001
 1.7810030823e+000	 8.5361175074e-001	 2.7262616665e-001
 1.7723169088e+000	 8.7150316981e-001	 1.8784062144e-001
 1.7634360420e+000	 8.8933589040e-001	 9.7425293303e-002
 1.7543609135e+000	 9.0710682128e-001	 1.2846363000e-003
 1.8421430715e+000	 7.2928764335e-001	 7.0821940508e-001
 1.8348033872e+000	 7.4756143096e-001	 6.5676277277e-001
 1.8272671271e+000	 7.6579789020e-001	 6.0116568399e-001
 1.8195342865e+000	 7.8399396860e-001	 5.4121177396e-001
 1.8116049214e+000	 8.0214660221e-001	 4.7669563750e-001
 1.8034791495e+000	 8.2025271708e-001	 4.0742419906e-001
 1.7951571508e+000	 8.3830923074e-001	 3.3321807548e-001
 1.7866391680e+000	 8.5631305375e-001	 2.5391292733e-001
 1.7779255066e+000	 8.7426109124e-001	 1.6936079432e-001
 1.7690165358e+000	 8.9215024448e-001	 7.9431410606e-002
 1.7599126886e+000	 9.0997741248e-001	-1.5986504611e-002
 1.8479542484e+000	 7.3158823529e-001	 6.9679943840e-001
 1.8405914105e+000	 7.4991966891e-001	 6.4332441690e-001
 1.8330313768e+000	 7.6821365641e-001	 5.8606379068e-001
 1.8252741423e+000	 7.8646713569e-001	 5.2478675471e-001
 1.8173197634e+000	 8.0467703313e-001	 4.5927320446e-001
 1.8091683582e+000	 8.2284026509e-001	 3.8931512849e-001
 1.8008201072e+000	 8.4095373936e-001	 3.1471799426e-001
 1.7922752537e+000	 8.5901435676e-001	 2.3530212282e-001
 1.7835341044e+000	 8.7701901266e-001	 1.5090404822e-001
 1.7745970296e+000	 8.9496459857e-001	 6.1377856891e-002
 1.7654644636e+000	 9.1284800369e-001	-3.3403497135e-002
 1.8537654253e+000	 7.3388882722e-001	 6.8595483160e-001
 1.8463794338e+000	 7.5227790687e-001	 6.3040629225e-001
 1.8387956264e+000	 7.7062942263e-001	 5.7142391647e-001
 1.8310139981e+000	 7.8894030279e-001	 5.0876240538e-001
 1.8230346054e+000	 8.0720746406e-001	 4.4218690433e-001
 1.8148575669e+000	 8.2542781309e-001	 3.7147441812e-001
 1.8064830635e+000	 8.4359824797e-001	 2.9641521992e-001
 1.7979113394e+000	 8.6171565977e-001	 2.1681424965e-001
 1.7891427022e+000	 8.7977693409e-001	 1.3249249732e-001
 1.7801775234e+000	 8.9777895265e-001	 4.3288366834e-002
 1.7710162387e+000	 9.1571859490e-001	-5.0940984189e-002
 1.8595766022e+000	 7.3618941916e-001	 6.7569511159e-001
 1.8521674571e+000	 7.5463614482e-001	 6.1801948642e-001
 1.8445598760e+000	 7.7304518885e-001	 5.5725871834e-001
 1.8367538539e+000	 7.9141346989e-001	 4.9315296026e-001
 1.8287494475e+000	 8.0973789499e-001	 4.2545255575e-001
 1.8205467756e+000	 8.2801536110e-001	 3.5391947704e-001
 1.8121460198e+000	 8.4624275659e-001	 2.7832875730e-001
 1.8035474251e+000	 8.6441696278e-001	 1.9846991277e-001
 1.7947513000e+000	 8.8253485552e-001	 1.1414835022e-001
 1.7857580172e+000	 9.0059330674e-001	 2.5186755292e-002
 1.7765680137e+000	 9.1858918611e-001	-6.8573542938e-002
 1.7210502633e+000	 8.8988327405e-001	 1.0043715294e-001
 1.7119573603e+000	 9.0725313254e-001	 9.3003164971e-003
 1.7026749194e+000	 9.2455630916e-001	-7.9900198318e-002
 1.6932035528e+000	 9.4178977422e-001	-1.6716853619e-001
 1.6835439360e+000	 9.5895050220e-001	-2.5249380479e-001
 1.6736968079e+000	 9.7603547336e-001	-3.3584915348e-001
 1.6636629710e+000	 9.9304167537e-001	-4.1719089069e-001
 1.6534432911e+000	 1.0099661050e+000	-4.9645764359e-001
 1.6430386975e+000	 1.0268057696e+000	-5.7356956346e-001
 1.6324501829e+000	 1.0435576891e+000	-6.4842758042e-001
 1.6216788030e+000	 1.0602188972e+000	-7.2091271043e-001
 1.7266020383e+000	 8.9275386525e-001	 8.4569804421e-002
 1.7174798034e+000	 9.1017975555e-001	-6.1928358559e-003
 1.7081674192e+000	 9.2753874886e-001	-9.4985820016e-002
 1.6986654997e+000	 9.4482780575e-001	-1.8183743658e-001
 1.6889747229e+000	 9.6204389092e-001	-2.6676088892e-001
 1.6790958299e+000	 9.7918397489e-001	-3.4975334004e-001
 1.6690296257e+000	 9.9624503561e-001	-4.3079499601e-001
 1.6587769791e+000	 1.0132240601e+000	-5.0984823182e-001
 1.6483388224e+000	 1.0301180463e+000	-5.8685676322e-001
 1.6377161512e+000	 1.0469240042e+000	-6.6174486797e-001
 1.6269100249e+000	 1.0636389581e+000	-7.3441665988e-001
 1.7321538133e+000	 8.9562445645e-001	 6.8405902398e-002
 1.7230022465e+000	 9.1310637855e-001	-2.2158897174e-002
 1.7136599189e+000	 9.3052118857e-001	-1.1072309891e-001
 1.7041274467e+000	 9.4786583728e-001	-1.9733910813e-001
 1.6944055098e+000	 9.6513727963e-001	-2.8204419321e-001
 1.6844948518e+000	 9.8233247641e-001	-3.6485949627e-001
 1.6743962805e+000	 9.9944839585e-001	-4.4578908273e-001
 1.6641106672e+000	 1.0164820153e+000	-5.2481903327e-001
 1.6536389472e+000	 1.0334303229e+000	-6.0191658197e-001
 1.6429821196e+000	 1.0502903193e+000	-6.7702930417e-001
 1.6321412469e+000	 1.0670590191e+000	-7.5008435749e-001
 1.7377055884e+000	 8.9849504766e-001	 5.1970386827e-002
 1.7285246896e+000	 9.1603300156e-001	-3.8570476571e-002
 1.7191524186e+000	 9.3350362827e-001	-1.2708220235e-001
 1.7095893936e+000	 9.5090386881e-001	-2.1364128691e-001
 1.6998362966e+000	 9.6823066835e-001	-2.9830903421e-001
 1.6898938738e+000	 9.8548097793e-001	-3.8113053237e-001
 1.6797629352e+000	 1.0026517561e+000	-4.6213366916e-001
 1.6694443552e+000	 1.0197399705e+000	-5.4132819006e-001
 1.6589390720e+000	 1.0367425996e+000	-6.1870480268e-001
 1.6482480879e+000	 1.0536566344e+000	-6.9423433118e-001
 1.6373724688e+000	 1.0704790801e+000	-7.6786692416e-001
 1.7432573634e+000	 9.0136563886e-001	 3.5288269982e-002
 1.7340471327e+000	 9.1895962456e-001	-5.5400136286e-002
 1.7246449184e+000	 9.3648606798e-001	-1.4403327630e-001
 1.7150513406e+000	 9.5394190033e-001	-2.3071171316e-001
 1.7052670835e+000	 9.7132405706e-001	-3.1552075833e-001
 1.6952928957e+000	 9.8862947946e-001	-3.9852941406e-001
 1.6851295900e+000	 1.0058551163e+000	-4.7978935477e-001
 1.6747780432e+000	 1.0229979257e+000	-5.5933395117e-001
 1.6642391968e+000	 1.0400548763e+000	-6.3717734087e-001
 1.6535140562e+000	 1.0570229496e+000	-7.1331354935e-001
 1.6426036908e+000	 1.0738991410e+000	-7.8771566464e-001
 1.7488091385e+000	 9.0423623007e-001	 1.8384635309e-002
 1.7395695758e+000	 9.2188624757e-001	-7.2620392422e-002
 1.7301374181e+000	 9.3946850768e-001	-1.6154644572e-001
 1.7205132875e+000	 9.5697993186e-001	-2.4851813130e-001
 1.7106978704e+000	 9.7441744578e-001	-3.3364474133e-001
 1.7006919177e+000	 9.9177798098e-001	-4.1701916162e-001
 1.6904962447e+000	 1.0090584766e+000	-4.9871681888e-001
 1.6801117313e+000	 1.0262558808e+000	-5.7879467071e-001
 1.6695393217e+000	 1.0433671530e+000	-6.5729024250e-001
 1.6587800246e+000	 1.0603892647e+000	-7.3422071476e-001
 1.6478349127e+000	 1.0773192020e+000	-8.0958206468e-001
 1.7543609135e+000	 9.0710682128e-001	 1.2846363000e-003
 1.7450920189e+000	 9.2481287058e-001	-9.0203715679e-002
 1.7356299179e+000	 9.4245094739e-001	-1.7959181486e-001
 1.7259752345e+000	 9.6001796339e-001	-2.6702828980e-001
 1.7161286573e+000	 9.7751083449e-001	-3.5264638784e-001
 1.7060909397e+000	 9.9492648251e-001	-4.3656284912e-001
 1.6958628995e+000	 1.0122618368e+000	-5.1887681944e-001
 1.6854454193e+000	 1.0295138360e+000	-5.9966880633e-001
 1.6748394465e+000	 1.0466794296e+000	-6.7899968191e-001
 1.6640459929e+000	 1.0637555798e+000	-7.5690973673e-001
 1.6530661347e+000	 1.0807392629e+000	-8.3341778809e-001
 1.7599126886e+000	 9.0997741248e-001	-1.5986504611e-002
 1.7506144620e+000	 9.2773949359e-001	-1.0812253207e-001
 1.7411224176e+000	 9.4543338710e-001	-1.9813946763e-001
 1.7314371814e+000	 9.6305599492e-001	-2.8620994115e-001
 1.7215594442e+000	 9.8060422320e-001	-3.7249113096e-001
 1.7114899616e+000	 9.9807498403e-001	-4.5712360347e-001
 1.7012295542e+000	 1.0154651971e+000	-5.4023019177e-001
 1.6907791073e+000	 1.0327717912e+000	-6.2191491750e-001
 1.6801395713e+000	 1.0499917063e+000	-7.0226195978e-001
 1.6693119612e+000	 1.0671218949e+000	-7.8133467542e-001
 1.6582973566e+000	 1.0841593239e+000	-8.5917467399e-001
 1.7654644636e+000	 9.1284800369e-001	-3.3403497135e-002
 1.7561369051e+000	 9.3066611660e-001	-1.2634922362e-001
 1.7466149174e+000	 9.4841582680e-001	-2.1715946787e-001
 1.7368991284e+000	 9.6609402644e-001	-3.0603084178e-001
 1.7269902311e+000	 9.8369761192e-001	-3.9314443174e-001
 1.7168889836e+000	 1.0012234856e+000	-4.7866460367e-001
 1.7065962090e+000	 1.0186685573e+000	-5.6273784735e-001
 1.6961127954e+000	 1.0360297464e+000	-6.4549166397e-001
 1.6854396962e+000	 1.0533039830e+000	-7.2703350116e-001
 1.6745779296e+000	 1.0704882100e+000	-8.0744973945e-001
 1.6635285786e+000	 1.0875793848e+000	-8.8680473403e-001
 1.7710162387e+000	 9.1571859490e-001	-5.0940984189e-002
 1.7616593482e+000	 9.3359273960e-001	-1.4485612907e-001
 1.7521074171e+000	 9.5139826651e-001	-2.3662185968e-001
 1.7423610753e+000	 9.6913205797e-001	-3.2645875203e-001
 1.7324210180e+000	 9.8679100063e-001	-4.1457177879e-001
 1.7222880056e+000	 1.0043719871e+000	-5.0114907996e-001
 1.7119628637e+000	 1.0218719175e+000	-5.8636077260e-001
 1.7014464834e+000	 1.0392877015e+000	-6.7035780418e-001
 1.6907398210e+000	 1.0566162596e+000	-7.5327085353e-001
 1.6798438979e+000	 1.0738545252e+000	-8.3520928357e-001
 1.6687598005e+000	 1.0909994458e+000	-9.1626014967e-001
 1.7765680137e+000	 9.1858918611e-001	-6.8573542938e-002
 1.7671817913e+000	 9.3651936261e-001	-1.6361554453e-001
 1.7575999169e+000	 9.5438070622e-001	-2.5649666778e-001
 1.7478230223e+000	 9.7217008950e-001	-3.4746143603e-001
 1.7378518049e+000	 9.8988438935e-001	-4.3673868786e-001
 1.7276870275e+000	 1.0075204886e+000	-5.2454031302e-001
 1.7173295184e+000	 1.0250752778e+000	-6.1106002774e-001
 1.7067801715e+000	 1.0425456567e+000	-6.9647219371e-001
 1.6960399458e+000	 1.0599285363e+000	-7.8093068487e-001
 1.6851098662e+000	 1.0772208403e+000	-8.6456780637e-001
 1.6739910224e+000	 1.0944195067e+000	-9.4749326955e-001
 1.6216788030e+000	 1.0602188972e+000	-7.2091271043e-001
 1.6107256766e+000	 1.0767864435e+000	-8.2903593179e-001
 1.5995919851e+000	 1.0932573947e+000	-9.3083757108e-001
 1.5882789726e+000	 1.1096288367e+000	-1.0258687848e+000
 1.5767879448e+000	 1.1258978759e+000	-1.1136606859e+000
 1.5651202696e+000	 1.1420616410e+000	-1.1937242491e+000
 1.5532773756e+000	 1.1581172844e+000	-1.2655502848e+000
 1.5412607524e+000	 1.1740619843e+000	-1.3286094815e+000
 1.5290719496e+000	 1.1898929459e+000	-1.3823525205e+000
 1.5167125765e+000	 1.2056074031e+000	-1.4262102616e+000
 1.5041843009e+000	 1.2212026199e+000	-1.4595940026e+000
 1.6269100249e+000	 1.0636389581e+000	-7.3441665988e-001
 1.6159215659e+000	 1.0802599481e+000	-8.4009038724e-001
 1.6047519593e+000	 1.0967840315e+000	-9.3944614593e-001
 1.5934024531e+000	 1.1132082846e+000	-1.0320280232e+000
 1.5818743576e+000	 1.1295298045e+000	-1.1173597277e+000
 1.5701690446e+000	 1.1457457108e+000	-1.1949444963e+000
 1.5582879478e+000	 1.1618531466e+000	-1.2642650699e+000
 1.5462325613e+000	 1.1778492811e+000	-1.3247837395e+000
 1.5340044398e+000	 1.1937313103e+000	-1.3759424641e+000
 1.5216051977e+000	 1.2094964592e+000	-1.4171630622e+000
 1.5090365083e+000	 1.2251419832e+000	-1.4478474765e+000
 1.6321412469e+000	 1.0670590191e+000	-7.5008435749e-001
 1.6211174551e+000	 1.0837334528e+000	-8.5321988006e-001
 1.6099119334e+000	 1.1003106682e+000	-9.5004389563e-001
 1.5985259337e+000	 1.1167877324e+000	-1.0400934950e+000
 1.5869607703e+000	 1.1331617332e+000	-1.1228850511e+000
 1.5752178197e+000	 1.1494297806e+000	-1.1979141273e+000
 1.5632985200e+000	 1.1655890088e+000	-1.2646554552e+000
 1.5512043702e+000	 1.1816365778e+000	-1.3225629837e+000
 1.5389369300e+000	 1.1975696746e+000	-1.3710700009e+000
 1.5264978189e+000	 1.2133855153e+000	-1.4095893301e+000
 1.5138887157e+000	 1.2290813465e+000	-1.4375136005e+000
 1.6373724688e+000	 1.0704790801e+000	-7.6786692416e-001
 1.6263133444e+000	 1.0872069574e+000	-8.6837598463e-001
 1.6150719076e+000	 1.1038373050e+000	-9.6258286152e-001
 1.6036494142e+000	 1.1203671803e+000	-1.0500177217e+000
 1.5920471830e+000	 1.1367936618e+000	-1.1301896711e+000
 1.5802665948e+000	 1.1531138504e+000	-1.2025866638e+000
 1.5683090921e+000	 1.1693248710e+000	-1.2666754820e+000
 1.5561761790e+000	 1.1854238745e+000	-1.3219017879e+000
 1.5438694201e+000	 1.2014080390e+000	-1.3676902494e+000
 1.5313904401e+000	 1.2172745715e+000	-1.4034447411e+000
 1.5187409232e+000	 1.2330207098e+000	-1.4285486201e+000
 1.6426036908e+000	 1.0738991410e+000	-7.8771566464e-001
 1.6315092337e+000	 1.0906804621e+000	-8.8551044973e-001
 1.6202318817e+000	 1.1073639417e+000	-9.7701524992e-001
 1.6087728948e+000	 1.1239466282e+000	-1.0617533808e+000
 1.5971335957e+000	 1.1404255904e+000	-1.1392267495e+000
 1.5853153698e+000	 1.1567979202e+000	-1.2089157651e+000
 1.5733196643e+000	 1.1730607332e+000	-1.2702793200e+000
 1.5611479879e+000	 1.1892111712e+000	-1.3227548450e+000
 1.5488019103e+000	 1.2052464033e+000	-1.3657584386e+000
 1.5362830613e+000	 1.2211636276e+000	-1.3986850724e+000
 1.5235931306e+000	 1.2369600731e+000	-1.4209088731e+000
 1.6478349127e+000	 1.0773192020e+000	-8.0958206468e-001
 1.6367051230e+000	 1.0941539667e+000	-9.0457519579e-001
 1.6253918559e+000	 1.1108905785e+000	-9.9329342956e-001
 1.6138963754e+000	 1.1275260760e+000	-1.0752533027e+000
 1.6022200085e+000	 1.1440575191e+000	-1.1499495918e+000
 1.5903641449e+000	 1.1604819900e+000	-1.2168552250e+000
 1.5783302365e+000	 1.1767965954e+000	-1.2754212645e+000
 1.5661197968e+000	 1.1929984680e+000	-1.3250769648e+000
 1.5537344005e+000	 1.2090847676e+000	-1.3652299055e+000
 1.5411756826e+000	 1.2250526838e+000	-1.3952662010e+000
 1.5284453380e+000	 1.2408994364e+000	-1.4145507883e+000
 1.6530661347e+000	 1.0807392629e+000	-8.3341778809e-001
 1.6419010123e+000	 1.0976274714e+000	-9.2552231218e-001
 1.6305518300e+000	 1.1144172152e+000	-1.0113699290e+000
 1.6190198559e+000	 1.1311055239e+000	-1.0904704686e+000
 1.6073064212e+000	 1.1476894477e+000	-1.1623116456e+000
 1.5954129200e+000	 1.1641660598e+000	-1.2263589706e+000
 1.5833408087e+000	 1.1805324576e+000	-1.2820557353e+000
 1.5710916057e+000	 1.1967857647e+000	-1.3288230728e+000
 1.5586668906e+000	 1.2129231320e+000	-1.3660600940e+000
 1.5460683038e+000	 1.2289417399e+000	-1.3931441017e+000
 1.5332975454e+000	 1.2448387996e+000	-1.4094308843e+000
 1.6582973566e+000	 1.0841593239e+000	-8.5917467399e-001
 1.6470969015e+000	 1.1011009760e+000	-9.4830405452e-001
 1.6357118042e+000	 1.1179438520e+000	-1.0311974340e+000
 1.6241433365e+000	 1.1346849717e+000	-1.1073580084e+000
 1.6123928339e+000	 1.1513213763e+000	-1.1762664979e+000
 1.6004616950e+000	 1.1678501296e+000	-1.2373810597e+000
 1.5883513809e+000	 1.1842683199e+000	-1.2901372741e+000
 1.5760634146e+000	 1.2005730614e+000	-1.3339482077e+000
 1.5635993808e+000	 1.2167614963e+000	-1.3682045528e+000
 1.5509609250e+000	 1.2328307960e+000	-1.3922748461e+000
 1.5381497529e+000	 1.2487781629e+000	-1.4055057676e+000
 1.6635285786e+000	 1.0875793848e+000	-8.8680473403e-001
 1.6522927908e+000	 1.1045744807e+000	-9.7287284210e-001
 1.6408717783e+000	 1.1214704887e+000	-1.0527287854e+000
 1.6292668170e+000	 1.1382644196e+000	-1.1258691977e+000
 1.6174792466e+000	 1.1549533049e+000	-1.1917678730e+000
 1.6055104701e+000	 1.1715341994e+000	-1.2498756787e+000
 1.5933619530e+000	 1.1880041821e+000	-1.2996205429e+000
 1.5810352234e+000	 1.2043603581e+000	-1.3404075202e+000
 1.5685318709e+000	 1.2205998607e+000	-1.3716189341e+000
 1.5558535462e+000	 1.2367198522e+000	-1.3926146007e+000
 1.5430019603e+000	 1.2527175262e+000	-1.4133949767e+000
 1.6687598005e+000	 1.0909994458e+000	-9.1626014967e-001
 1.6574886801e+000	 1.1080479853e+000	-9.9918125526e-001
 1.6460317524e+000	 1.1249971255e+000	-1.0759169761e+000
 1.6343902976e+000	 1.1418438674e+000	-1.1459574560e+000
 1.6225656594e+000	 1.1585852336e+000	-1.2087696306e+000
 1.6105592451e+000	 1.1752182692e+000	-1.2637971409e+000
 1.5983725252e+000	 1.1917400443e+000	-1.3104603219e+000
 1.5860070323e+000	 1.2081476548e+000	-1.3481562705e+000
 1.5734643611e+000	 1.2244382250e+000	-1.3762589917e+000
 1.5607461674e+000	 1.2406089083e+000	-1.3941196254e+000
 1.5478541677e+000	 1.2566568895e+000	-1.4257143968e+000
 1.6739910224e+000	 1.0944195067e+000	-9.4749326955e-001
 1.6626845694e+000	 1.1115214900e+000	-1.0271820330e+000
 1.6511917266e+000	 1.1285237622e+000	-1.1007151493e+000
 1.6395137781e+000	 1.1454233153e+000	-1.1675763444e+000
 1.6276520721e+000	 1.1622171622e+000	-1.2272257635e+000
 1.6156080202e+000	 1.1789023390e+000	-1.2790998843e+000
 1.6033830974e+000	 1.1954759064e+000	-1.3226115078e+000
 1.5909788412e+000	 1.2119349515e+000	-1.3571498276e+000
 1.5783968513e+000	 1.2282765893e+000	-1.3820805795e+000
 1.5656387886e+000	 1.2444979644e+000	-1.3967462725e+000
 1.5527063751e+000	 1.2605962528e+000	-1.4374063059e+000
 1.5041843009e+000	 1.2212026199e+000	-1.4595940026e+000
 1.4914888491e+000	 1.2366758924e+000	-1.4848525878e+000
 1.4786280046e+000	 1.2520245501e+000	-1.4962662566e+000
 1.4656036075e+000	 1.2672459570e+000	-1.5771942240e+000
 1.4524175536e+000	 1.2823375140e+000	-1.6436281671e+000
 1.4390717937e+000	 1.2972966594e+000	-1.6956356413e+000
 1.4255683321e+000	 1.3121208711e+000	-1.7333080873e+000
 1.4119092263e+000	 1.3268076675e+000	-1.7567604126e+000
 1.3980965856e+000	 1.3413546091e+000	-1.7661305174e+000
 1.3841325698e+000	 1.3557592999e+000	-1.7615787622e+000
 1.3700193885e+000	 1.3700193885e+000	-1.7432873816e+000
 1.5090365083e+000	 1.2251419832e+000	-1.4478474765e+000
 1.4963001034e+000	 1.2406651695e+000	-1.4695209064e+000
 1.4833977723e+000	 1.2560633390e+000	-1.5039284675e+000
 1.4703313610e+000	 1.2713338472e+000	-1.5810181445e+000
 1.4571027715e+000	 1.2864740866e+000	-1.6444283656e+000
 1.4437139607e+000	 1.3014814874e+000	-1.6942269849e+000
 1.4301669396e+000	 1.3163535191e+000	-1.7305051907e+000
 1.4164637722e+000	 1.3310876922e+000	-1.7533770837e+000
 1.4026065746e+000	 1.3456815594e+000	-1.7629791984e+000
 1.3885975136e+000	 1.3601327170e+000	-1.7594699683e+000
 1.3744388059e+000	 1.3744388059e+000	-1.7430291372e+000
 1.5138887157e+000	 1.2290813465e+000	-1.4375136005e+000
 1.5011113578e+000	 1.2446544466e+000	-1.4555877692e+000
 1.4881675401e+000	 1.2601021278e+000	-1.5108154526e+000
 1.4750591146e+000	 1.2754217374e+000	-1.5840315839e+000
 1.4617879895e+000	 1.2906106593e+000	-1.6443763659e+000
 1.4483561278e+000	 1.3056663153e+000	-1.6919179979e+000
 1.4347655472e+000	 1.3205861670e+000	-1.7267474683e+000
 1.4210183181e+000	 1.3353677169e+000	-1.7489781288e+000
 1.4071165636e+000	 1.3500085098e+000	-1.7587452121e+000
 1.3930624573e+000	 1.3645061341e+000	-1.7562052938e+000
 1.3788582233e+000	 1.3788582233e+000	-1.7415357015e+000
 1.5187409232e+000	 1.2330207098e+000	-1.4285486201e+000
 1.5059226122e+000	 1.2486437237e+000	-1.4430095871e+000
 1.4929373079e+000	 1.2641409167e+000	-1.5169394716e+000
 1.4797868682e+000	 1.2795096276e+000	-1.5862471001e+000
 1.4664732074e+000	 1.2947472319e+000	-1.6434850627e+000
 1.4529982949e+000	 1.3098511432e+000	-1.6887219507e+000
 1.4393641547e+000	 1.3248188150e+000	-1.7220486047e+000
 1.4255728640e+000	 1.3396477417e+000	-1.7435776855e+000
 1.4116265526e+000	 1.3543354601e+000	-1.7534431873e+000
 1.3975274011e+000	 1.3688795512e+000	-1.7517998974e+000
 1.3832776407e+000	 1.3832776407e+000	-1.7388228012e+000
 1.5235931306e+000	 1.2369600731e+000	-1.4209088731e+000
 1.5107338665e+000	 1.2526330007e+000	-1.4456271038e+000
 1.4977070756e+000	 1.2681797056e+000	-1.5223128697e+000
 1.4845146218e+000	 1.2835975178e+000	-1.5876773317e+000
 1.4711584253e+000	 1.2988838045e+000	-1.6417674264e+000
 1.4576404620e+000	 1.3140359712e+000	-1.6846521831e+000
 1.4439627622e+000	 1.3290514630e+000	-1.7164223475e+000
 1.4301274099e+000	 1.3439277664e+000	-1.7371899469e+000
 1.4161365415e+000	 1.3586624105e+000	-1.7470878010e+000
 1.4019923449e+000	 1.3732529683e+000	-1.7462689773e+000
 1.3876970581e+000	 1.3876970581e+000	-1.7349061937e+000
 1.5284453380e+000	 1.2408994364e+000	-1.4145507883e+000
 1.5155451209e+000	 1.2566222778e+000	-1.4550277934e+000
 1.5024768434e+000	 1.2722184944e+000	-1.5269480756e+000
 1.4892423753e+000	 1.2876854080e+000	-1.5883349965e+000
 1.4758436432e+000	 1.3030203772e+000	-1.6392365009e+000
 1.4622826291e+000	 1.3182207991e+000	-1.6797221032e+000
 1.4485613697e+000	 1.3332841110e+000	-1.7098825059e+000
 1.4346819558e+000	 1.3482077911e+000	-1.7298291611e+000
 1.4206465305e+000	 1.3629893608e+000	-1.7396937771e+000
 1.4064572887e+000	 1.3776263854e+000	-1.7396277706e+000
 1.3921164755e+000	 1.3921164755e+000	-1.7298016664e+000
 1.5332975454e+000	 1.2448387996e+000	-1.4094308843e+000
 1.5203563752e+000	 1.2606115549e+000	-1.4637305407e+000
 1.5072466111e+000	 1.2762572833e+000	-1.5308576005e+000
 1.4939701289e+000	 1.2917732982e+000	-1.5882328902e+000
 1.4805288611e+000	 1.3071569498e+000	-1.6359054036e+000
 1.4669247961e+000	 1.3224056271e+000	-1.6739451864e+000
 1.4531599773e+000	 1.3375167589e+000	-1.7024429503e+000
 1.4392365017e+000	 1.3524878159e+000	-1.7215096301e+000
 1.4251565195e+000	 1.3673163112e+000	-1.7312758861e+000
 1.4109222324e+000	 1.3819998025e+000	-1.7318915530e+000
 1.3965358928e+000	 1.3965358928e+000	-1.7235250364e+000
 1.5381497529e+000	 1.2487781629e+000	-1.4055057676e+000
 1.5251676296e+000	 1.2646008320e+000	-1.4717476943e+000
 1.5120163789e+000	 1.2802960722e+000	-1.5340540370e+000
 1.4986978825e+000	 1.2958611884e+000	-1.5873838855e+000
 1.4852140790e+000	 1.3112935224e+000	-1.6317873232e+000
 1.4715669632e+000	 1.3265904550e+000	-1.6673349741e+000
 1.4577585848e+000	 1.3417494069e+000	-1.6941176110e+000
 1.4437910476e+000	 1.3567678406e+000	-1.7122457092e+000
 1.4296665085e+000	 1.3716432616e+000	-1.7218489443e+000
 1.4153871762e+000	 1.3863732196e+000	-1.7230756377e+000
 1.4009553102e+000	 1.4009553102e+000	-1.7160921501e+000
 1.5430019603e+000	 1.2527175262e+000	-1.4133949767e+000
 1.5299788839e+000	 1.2685901090e+000	-1.4790916865e+000
 1.5167861467e+000	 1.2843348611e+000	-1.5365500575e+000
 1.5034256361e+000	 1.2999490785e+000	-1.5858009304e+000
 1.4898992970e+000	 1.3154300950e+000	-1.6268955194e+000
 1.4762091303e+000	 1.3307752829e+000	-1.6599050728e+000
 1.4623571923e+000	 1.3459820549e+000	-1.6849204772e+000
 1.4483455935e+000	 1.3610478654e+000	-1.7020518058e+000
 1.4341764975e+000	 1.3759702119e+000	-1.7114278128e+000
 1.4198521200e+000	 1.3907466367e+000	-1.7131953752e+000
 1.4053747276e+000	 1.4053747276e+000	-1.7075188825e+000
 1.5478541677e+000	 1.2566568895e+000	-1.4257143968e+000
 1.5347901383e+000	 1.2725793861e+000	-1.4857750319e+000
 1.5215559144e+000	 1.2883736499e+000	-1.5383584130e+000
 1.5081533897e+000	 1.3040369687e+000	-1.5834970475e+000
 1.4945845149e+000	 1.3195666677e+000	-1.6212433212e+000
 1.4808512974e+000	 1.3349601109e+000	-1.6516691534e+000
 1.4669557999e+000	 1.3502147029e+000	-1.6748655963e+000
 1.4529001394e+000	 1.3653278901e+000	-1.6909423790e+000
 1.4386864865e+000	 1.3802971623e+000	-1.7000273975e+000
 1.4243170638e+000	 1.3951200538e+000	-1.7022661526e+000
 1.4097941450e+000	 1.4097941450e+000	-1.6978211369e+000
 1.5527063751e+000	 1.2605962528e+000	-1.4374063059e+000
 1.5396013926e+000	 1.2765686632e+000	-1.4918103263e+000
 1.5263256822e+000	 1.2924124388e+000	-1.5394919321e+000
 1.5128811432e+000	 1.3081248589e+000	-1.5804853327e+000
 1.4992697328e+000	 1.3237032403e+000	-1.6148441261e+000
 1.4854934645e+000	 1.3391449388e+000	-1.6426409495e+000
 1.4715544074e+000	 1.3544473509e+000	-1.6639670728e+000
 1.4574546853e+000	 1.3696079148e+000	-1.6789319384e+000
 1.4431964755e+000	 1.3846241126e+000	-1.6876626473e+000
 1.4287820076e+000	 1.3994934709e+000	-1.6903033929e+000
 1.4142135624e+000	 1.4142135624e+000	-1.6870148445e+000
 1.3700193885e+000	 1.3700193885e+000	-1.7432873816e+000
 1.3557592999e+000	 1.3841325698e+000	-1.7454392213e+000
 1.3413546091e+000	 1.3980965856e+000	-1.7565704349e+000
 1.3268076675e+000	 1.4119092263e+000	-1.7765759114e+000
 1.3121208711e+000	 1.4255683321e+000	-1.8053487476e+000
 1.2972966594e+000	 1.4390717937e+000	-1.8427798227e+000
 1.2823375140e+000	 1.4524175536e+000	-1.8887573571e+000
 1.2672459570e+000	 1.4656036075e+000	-1.9431664571e+000
 1.2520245501e+000	 1.4786280046e+000	-2.0058886477e+000
 1.2366758924e+000	 1.4914888491e+000	-1.8974339502e+000
 1.2212026199e+000	 1.5041843009e+000	-1.7786087400e+000
 1.3744388059e+000	 1.3744388059e+000	-1.7430291372e+000
 1.3601327170e+000	 1.3885975136e+000	-1.7439264218e+000
 1.3456815594e+000	 1.4026065746e+000	-1.7529027025e+000
 1.3310876922e+000	 1.4164637722e+000	-1.7698684437e+000
 1.3163535191e+000	 1.4301669396e+000	-1.7947333221e+000
 1.3014814874e+000	 1.4437139607e+000	-1.8274057780e+000
 1.2864740866e+000	 1.4571027715e+000	-1.8677925491e+000
 1.2713338472e+000	 1.4703313610e+000	-1.9157981888e+000
 1.2560633390e+000	 1.4833977723e+000	-1.9713245698e+000
 1.2406651695e+000	 1.4963001034e+000	-1.9088279996e+000
 1.2251419832e+000	 1.5090365083e+000	-1.7795778457e+000
 1.3788582233e+000	 1.3788582233e+000	-1.7415357015e+000
 1.3645061341e+000	 1.3930624573e+000	-1.7412765523e+000
 1.3500085098e+000	 1.4071165636e+000	-1.7482010252e+000
 1.3353677169e+000	 1.4210183181e+000	-1.7622351535e+000
 1.3205861670e+000	 1.4347655472e+000	-1.7833051858e+000
 1.3056663153e+000	 1.4483561278e+000	-1.8113371138e+000
 1.2906106593e+000	 1.4617879895e+000	-1.8462561804e+000
 1.2754217374e+000	 1.4750591146e+000	-1.8879863717e+000
 1.2601021278e+000	 1.4881675401e+000	-1.9364498927e+000
 1.2446544466e+000	 1.5011113578e+000	-1.9198726955e+000
 1.2290813465e+000	 1.5138887157e+000	-1.7803712733e+000
 1.3832776407e+000	 1.3832776407e+000	-1.7388228012e+000
 1.3688795512e+000	 1.3975274011e+000	-1.7375041877e+000
 1.3543354601e+000	 1.4116265526e+000	-1.7424787589e+000
 1.3396477417e+000	 1.4255728640e+000	-1.7536881119e+000
 1.3248188150e+000	 1.4393641547e+000	-1.7710750599e+000
 1.3098511432e+000	 1.4529982949e+000	-1.7945831367e+000
 1.2947472319e+000	 1.4664732074e+000	-1.8241560796e+000
 1.2795096276e+000	 1.4797868682e+000	-1.8597372941e+000
 1.2641409167e+000	 1.4929373079e+000	-1.9012693021e+000
 1.2486437237e+000	 1.5059226122e+000	-1.9305418269e+000
 1.2330207098e+000	 1.5187409232e+000	-1.7809614528e+000
 1.3876970581e+000	 1.3876970581e+000	-1.7349061937e+000
 1.3732529683e+000	 1.4019923449e+000	-1.7326239460e+000
 1.3586624105e+000	 1.4161365415e+000	-1.7357493166e+000
 1.3439277664e+000	 1.4301274099e+000	-1.7442394612e+000
 1.3290514630e+000	 1.4439627622e+000	-1.7580537516e+000
 1.3140359712e+000	 1.4576404620e+000	-1.7771532553e+000
 1.2988838045e+000	 1.4711584253e+000	-1.8015001935e+000
 1.2835975178e+000	 1.4845146218e+000	-1.8310573792e+000
 1.2681797056e+000	 1.4977070756e+000	-1.8657876371e+000
 1.2526330007e+000	 1.5107338665e+000	-1.9056532083e+000
 1.2369600731e+000	 1.5235931306e+000	-1.7813210046e+000
 1.3921164755e+000	 1.3921164755e+000	-1.7298016664e+000
 1.3776263854e+000	 1.4064572887e+000	-1.7266504882e+000
 1.3629893608e+000	 1.4206465305e+000	-1.7280261670e+000
 1.3482077911e+000	 1.4346819558e+000	-1.7339014138e+000
 1.3332841110e+000	 1.4485613697e+000	-1.7442521530e+000
 1.3182207991e+000	 1.4622826291e+000	-1.7590569782e+000
 1.3030203772e+000	 1.4758436432e+000	-1.7782965853e+000
 1.2876854080e+000	 1.4892423753e+000	-1.8019531834e+000
 1.2722184944e+000	 1.5024768434e+000	-1.8300098869e+000
 1.2566222778e+000	 1.5155451209e+000	-1.8624500904e+000
 1.2408994364e+000	 1.5284453380e+000	-1.7814227368e+000
 1.3965358928e+000	 1.3965358928e+000	-1.7235250364e+000
 1.3819998025e+000	 1.4109222324e+000	-1.7195985171e+000
 1.3673163112e+000	 1.4251565195e+000	-1.7193228343e+000
 1.3524878159e+000	 1.4392365017e+000	-1.7226862511e+000
 1.3375167589e+000	 1.4531599773e+000	-1.7296812394e+000
 1.3224056271e+000	 1.4669247961e+000	-1.7403039126e+000
 1.3071569498e+000	 1.4805288611e+000	-1.7545534325e+000
 1.2917732982e+000	 1.4939701289e+000	-1.7724313941e+000
 1.2762572833e+000	 1.5072466111e+000	-1.7939411893e+000
 1.2606115549e+000	 1.5203563752e+000	-1.8190873518e+000
 1.2448387996e+000	 1.5332975454e+000	-1.7812396418e+000
 1.4009553102e+000	 1.4009553102e+000	-1.7160921501e+000
 1.3863732196e+000	 1.4153871762e+000	-1.7114827770e+000
 1.3716432616e+000	 1.4296665085e+000	-1.7096528969e+000
 1.3567678406e+000	 1.4437910476e+000	-1.7106063221e+000
 1.3417494069e+000	 1.4577585848e+000	-1.7143520684e+000
 1.3265904550e+000	 1.4715669632e+000	-1.7209037627e+000
 1.3112935224e+000	 1.4852140790e+000	-1.7302790254e+000
 1.2958611884e+000	 1.4986978825e+000	-1.7424988278e+000
 1.2802960722e+000	 1.5120163789e+000	-1.7575868276e+000
 1.2646008320e+000	 1.5251676296e+000	-1.7755686849e+000
 1.2487781629e+000	 1.5381497529e+000	-1.7807448936e+000
 1.4053747276e+000	 1.4053747276e+000	-1.7075188825e+000
 1.3907466367e+000	 1.4198521200e+000	-1.7023180530e+000
 1.3759702119e+000	 1.4341764975e+000	-1.6990299864e+000
 1.3610478654e+000	 1.4483455935e+000	-1.6976740429e+000
 1.3459820549e+000	 1.4623571923e+000	-1.6982757783e+000
 1.3307752829e+000	 1.4762091303e+000	-1.7008663284e+000
 1.3154300950e+000	 1.4898992970e+000	-1.7054817651e+000
 1.2999490785e+000	 1.5034256361e+000	-1.7121624274e+000
 1.2843348611e+000	 1.5167861467e+000	-1.7209522288e+000
 1.2685901090e+000	 1.5299788839e+000	-1.7318979432e+000
 1.2527175262e+000	 1.5430019603e+000	-1.7450484728e+000
 1.4097941450e+000	 1.4097941450e+000	-1.6978211369e+000
 1.3951200538e+000	 1.4243170638e+000	-1.6921191702e+000
 1.3802971623e+000	 1.4386864865e+000	-1.6874677871e+000
 1.3653278901e+000	 1.4529001394e+000	-1.6839018950e+000
 1.3502147029e+000	 1.4669557999e+000	-1.6814635871e+000
 1.3349601109e+000	 1.4808512974e+000	-1.6802015036e+000
 1.3195666677e+000	 1.4945845149e+000	-1.6801701620e+000
 1.3040369687e+000	 1.5081533897e+000	-1.6814292614e+000
 1.2883736499e+000	 1.5215559144e+000	-1.6840429613e+000
 1.2725793861e+000	 1.5347901383e+000	-1.6880791384e+000
 1.2566568895e+000	 1.5478541677e+000	-1.6936086231e+000
 1.4142135624e+000	 1.4142135624e+000	-1.6870148445e+000
 1.3994934709e+000	 1.4287820076e+000	-1.6809009930e+000
 1.3846241126e+000	 1.4431964755e+000	-1.6749800353e+000
 1.3696079148e+000	 1.4574546853e+000	-1.6693024249e+000
 1.3544473509e+000	 1.4715544074e+000	-1.6639267911e+000
 1.3391449388e+000	 1.4854934645e+000	-1.6589192746e+000
 1.3237032403e+000	 1.4992697328e+000	-1.6543528337e+000
 1.3081248589e+000	 1.5128811432e+000	-1.6503065206e+000
 1.2924124388e+000	 1.5263256822e+000	-1.6468647324e+000
 1.2765686632e+000	 1.5396013926e+000	-1.6441164381e+000
 1.2605962528e+000	 1.5527063751e+000	-1.6421543840e+000
 1.2212026199e+000	 1.5041843009e+000	-1.7786087400e+000
 1.2056074031e+000	 1.5167125765e+000	-1.6842665013e+000
 1.1898929459e+000	 1.5290719496e+000	-1.6026666097e+000
 1.1740619843e+000	 1.5412607524e+000	-1.5331966931e+000
 1.1581172844e+000	 1.5532773756e+000	-1.4752266547e+000
 1.1420616410e+000	 1.5651202696e+000	-1.4281098602e+000
 1.1258978759e+000	 1.5767879448e+000	-1.3911843502e+000
 1.1096288367e+000	 1.5882789726e+000	-1.3637740762e+000
 1.0932573947e+000	 1.5995919851e+000	-1.3451901567e+000
 1.0767864435e+000	 1.6107256766e+000	-1.3347321506e+000
 1.0602188972e+000	 1.6216788030e+000	-1.3316893444e+000
 1.2251419832e+000	 1.5090365083e+000	-1.7795778457e+000
 1.2094964592e+000	 1.5216051977e+000	-1.6769603616e+000
 1.1937313103e+000	 1.5340044398e+000	-1.5884191781e+000
 1.1778492811e+000	 1.5462325613e+000	-1.5132885396e+000
 1.1618531466e+000	 1.5582879478e+000	-1.4508839062e+000
 1.1457457108e+000	 1.5701690446e+000	-1.4005032076e+000
 1.1295298045e+000	 1.5818743576e+000	-1.3614281247e+000
 1.1132082846e+000	 1.5934024531e+000	-1.3329253941e+000
 1.0967840315e+000	 1.6047519593e+000	-1.3142481350e+000
 1.0802599481e+000	 1.6159215659e+000	-1.3046371927e+000
 1.0636389581e+000	 1.6269100249e+000	-1.3033224972e+000
 1.2290813465e+000	 1.5138887157e+000	-1.7803712733e+000
 1.2133855153e+000	 1.5264978189e+000	-1.6690380349e+000
 1.1975696746e+000	 1.5389369300e+000	-1.5731097793e+000
 1.1816365778e+000	 1.5512043702e+000	-1.4918675579e+000
 1.1655890088e+000	 1.5632985200e+000	-1.4245725806e+000
 1.1494297806e+000	 1.5752178197e+000	-1.3704675359e+000
 1.1331617332e+000	 1.5869607703e+000	-1.3287779411e+000
 1.1167877324e+000	 1.5985259337e+000	-1.2987135162e+000
 1.1003106682e+000	 1.6099119334e+000	-1.2794695799e+000
 1.0837334528e+000	 1.6211174551e+000	-1.2702284643e+000
 1.0670590191e+000	 1.6321412469e+000	-1.2701609449e+000
 1.2330207098e+000	 1.5187409232e+000	-1.7809614528e+000
 1.2172745715e+000	 1.5313904401e+000	-1.6604764999e+000
 1.2014080390e+000	 1.5438694201e+000	-1.5567200111e+000
 1.1854238745e+000	 1.5561761790e+000	-1.4689200335e+000
 1.1693248710e+000	 1.5683090921e+000	-1.3962837168e+000
 1.1531138504e+000	 1.5802665948e+000	-1.3379987007e+000
 1.1367936618e+000	 1.5920471830e+000	-1.2932345325e+000
 1.1203671803e+000	 1.6036494142e+000	-1.2611441107e+000
 1.1038373050e+000	 1.6150719076e+000	-1.2408651504e+000
 1.0872069574e+000	 1.6263133444e+000	-1.2315216686e+000
 1.0704790801e+000	 1.6373724688e+000	-1.2322254849e+000
 1.2369600731e+000	 1.5235931306e+000	-1.7813210046e+000
 1.2211636276e+000	 1.5362830613e+000	-1.6512528695e+000
 1.2052464033e+000	 1.5488019103e+000	-1.5392315489e+000
 1.1892111712e+000	 1.5611479879e+000	-1.4444322717e+000
 1.1730607332e+000	 1.5733196643e+000	-1.3660083151e+000
 1.1567979202e+000	 1.5853153698e+000	-1.3030924595e+000
 1.1404255904e+000	 1.5971335957e+000	-1.2547984738e+000
 1.1239466282e+000	 1.6087728948e+000	-1.2202226275e+000
 1.1073639417e+000	 1.6202318817e+000	-1.1984452262e+000
 1.0906804621e+000	 1.6315092337e+000	-1.1885321671e+000
 1.0738991410e+000	 1.6426036908e+000	-1.1895365101e+000
 1.2408994364e+000	 1.5284453380e+000	-1.7814227368e+000
 1.2250526838e+000	 1.5411756826e+000	-1.6413443889e+000
 1.2090847676e+000	 1.5537344005e+000	-1.5206261444e+000
 1.1929984680e+000	 1.5661197968e+000	-1.4183905970e+000
 1.1767965954e+000	 1.5783302365e+000	-1.3337373373e+000
 1.1604819900e+000	 1.5903641449e+000	-1.2657444734e+000
 1.1440575191e+000	 1.6022200085e+000	-1.2134701844e+000
 1.1275260760e+000	 1.6138963754e+000	-1.1759543012e+000
 1.1108905785e+000	 1.6253918559e+000	-1.1522199113e+000
 1.0941539667e+000	 1.6367051230e+000	-1.1412749847e+000
 1.0773192020e+000	 1.6478349127e+000	-1.1421140156e+000
 1.2448387996e+000	 1.5332975454e+000	-1.7812396418e+000
 1.2289417399e+000	 1.5460683038e+000	-1.6307284338e+000
 1.2129231320e+000	 1.5586668906e+000	-1.5008856242e+000
 1.1967857647e+000	 1.5710916057e+000	-1.3907813534e+000
 1.1805324576e+000	 1.5833408087e+000	-1.2994617079e+000
 1.1641660598e+000	 1.5954129200e+000	-1.2259503086e+000
 1.1476894477e+000	 1.6073064212e+000	-1.1692499309e+000
 1.1311055239e+000	 1.6190198559e+000	-1.1283441548e+000
 1.1144172152e+000	 1.6305518300e+000	-1.1021990387e+000
 1.0976274714e+000	 1.6419010123e+000	-1.0897648156e+000
 1.0807392629e+000	 1.6530661347e+000	-1.0899776051e+000
 1.2487781629e+000	 1.5381497529e+000	-1.7807448936e+000
 1.2328307960e+000	 1.5509609250e+000	-1.6193825074e+000
 1.2167614963e+000	 1.5635993808e+000	-1.4799918888e+000
 1.2005730614e+000	 1.5760634146e+000	-1.3615909034e+000
 1.1842683199e+000	 1.5883513809e+000	-1.2631723145e+000
 1.1678501296e+000	 1.6004616950e+000	-1.1837054378e+000
 1.1513213763e+000	 1.6123928339e+000	-1.1221378292e+000
 1.1346849717e+000	 1.6241433365e+000	-1.0773970029e+000
 1.1179438520e+000	 1.6357118042e+000	-1.0483921748e+000
 1.1011009760e+000	 1.6470969015e+000	-1.0340160282e+000
 1.0841593239e+000	 1.6582973566e+000	-1.0331464968e+000
 1.2527175262e+000	 1.5430019603e+000	-1.7450484728e+000
 1.2367198522e+000	 1.5558535462e+000	-1.6072842395e+000
 1.2205998607e+000	 1.5685318709e+000	-1.4579269114e+000
 1.2043603581e+000	 1.5810352234e+000	-1.3308056281e+000
 1.1880041821e+000	 1.5933619530e+000	-1.2248600082e+000
 1.1715341994e+000	 1.6055104701e+000	-1.1390052420e+000
 1.1549533049e+000	 1.6174792466e+000	-1.0721338472e+000
 1.1382644196e+000	 1.6292668170e+000	-1.0231174551e+000
 1.1214704887e+000	 1.6408717783e+000	-9.9080862307e-001
 1.1045744807e+000	 1.6522927908e+000	-9.7404267004e-001
 1.0875793848e+000	 1.6635285786e+000	-9.7163952986e-001
 1.2566568895e+000	 1.5478541677e+000	-1.6936086231e+000
 1.2406089083e+000	 1.5607461674e+000	-1.5944113839e+000
 1.2244382250e+000	 1.5734643611e+000	-1.4346727367e+000
 1.2081476548e+000	 1.5860070323e+000	-1.2984119270e+000
 1.1917400443e+000	 1.5983725252e+000	-1.1845156043e+000
 1.1752182692e+000	 1.6105592451e+000	-1.0918450114e+000
 1.1585852336e+000	 1.6225656594e+000	-1.0192378068e+000
 1.1418438674e+000	 1.6343902976e+000	-9.6550991909e-001
 1.1249971255e+000	 1.6460317524e+000	-9.2945742887e-001
 1.1080479853e+000	 1.6574886801e+000	-9.0985847328e-001
 1.0909994458e+000	 1.6687598005e+000	-9.0547516989e-001
 1.2605962528e+000	 1.5527063751e+000	-1.6421543840e+000
 1.2444979644e+000	 1.5656387886e+000	-1.5807418164e+000
 1.2282765893e+000	 1.5783968513e+000	-1.4102114799e+000
 1.2119349515e+000	 1.5909788412e+000	-1.2643962173e+000
 1.1954759064e+000	 1.6033830974e+000	-1.1421298830e+000
 1.1789023390e+000	 1.6156080202e+000	-1.0422199472e+000
 1.1622171622e+000	 1.6276520721e+000	-9.6344938616e-001
 1.1454233153e+000	 1.6395137781e+000	-9.0457860382e-001
 1.1285237622e+000	 1.6511917266e+000	-8.6434738297e-001
 1.1115214900e+000	 1.6626845694e+000	-8.4147685926e-001
 1.0944195067e+000	 1.6739910224e+000	-8.3467151511e-001
 1.0602188972e+000	 1.6216788030e+000	-1.3316893444e+000
 1.0435576891e+000	 1.6324501829e+000	-1.2634649020e+000
 1.0268057696e+000	 1.6430386975e+000	-1.2015309825e+000
 1.0099661050e+000	 1.6534432911e+000	-1.1454548830e+000
 9.9304167537e-001	 1.6636629710e+000	-1.0947962131e+000
 9.7603547336e-001	 1.6736968079e+000	-1.0491079174e+000
 9.5895050220e-001	 1.6835439360e+000	-1.0079373009e+000
 9.4178977422e-001	 1.6932035528e+000	-9.7082705342e-001
 9.2455630916e-001	 1.7026749194e+000	-9.3731627038e-001
 9.0725313254e-001	 1.7119573603e+000	-9.0694146880e-001
 8.8988327405e-001	 1.7210502633e+000	-8.7923759473e-001
 1.0636389581e+000	 1.6269100249e+000	-1.3033224972e+000
 1.0469240042e+000	 1.6377161512e+000	-1.2402330059e+000
 1.0301180463e+000	 1.6483388224e+000	-1.1825600230e+000
 1.0132240601e+000	 1.6587769791e+000	-1.1299017030e+000
 9.9624503561e-001	 1.6690296257e+000	-1.0818490206e+000
 9.7918397489e-001	 1.6790958299e+000	-1.0379867618e+000
 9.6204389092e-001	 1.6889747229e+000	-9.9789451554e-001
 9.4482780575e-001	 1.6986654997e+000	-9.6114766523e-001
 9.2753874886e-001	 1.7081674192e+000	-9.2731837687e-001
 9.1017975555e-001	 1.7174798034e+000	-8.9597658121e-001
 8.9275386525e-001	 1.7266020383e+000	-8.6669094782e-001
 1.0670590191e+000	 1.6321412469e+000	-1.2701609449e+000
 1.0502903193e+000	 1.6429821196e+000	-1.2125840218e+000
 1.0334303229e+000	 1.6536389472e+000	-1.1595559884e+000
 1.0164820153e+000	 1.6641106672e+000	-1.1107056162e+000
 9.9944839585e-001	 1.6743962805e+000	-1.0656550023e+000
 9.8233247641e-001	 1.6844948518e+000	-1.0240205276e+000
 9.6513727963e-001	 1.6944055098e+000	-9.8541381683e-001
 9.4786583728e-001	 1.7041274467e+000	-9.4944269675e-001
 9.3052118857e-001	 1.7136599189e+000	-9.1571215161e-001
 9.1310637855e-001	 1.7230022465e+000	-8.8382527208e-001
 8.9562445645e-001	 1.7321538133e+000	-8.5338419622e-001
 1.0704790801e+000	 1.6373724688e+000	-1.2322254849e+000
 1.0536566344e+000	 1.6482480879e+000	-1.1805356259e+000
 1.0367425996e+000	 1.6589390720e+000	-1.1325333860e+000
 1.0197399705e+000	 1.6694443552e+000	-1.0878779147e+000
 1.0026517561e+000	 1.6797629352e+000	-1.0462221897e+000
 9.8548097793e-001	 1.6898938738e+000	-1.0072139425e+000
 9.6823066835e-001	 1.6998362966e+000	-9.7049658698e-001
 9.5090386881e-001	 1.7095893936e+000	-9.3571014444e-001
 9.3350362827e-001	 1.7191524186e+000	-9.0249216677e-001
 9.1603300156e-001	 1.7285246896e+000	-8.7047865244e-001
 8.9849504766e-001	 1.7377055884e+000	-8.3930495456e-001
 1.0738991410e+000	 1.6426036908e+000	-1.1895365101e+000
 1.0570229496e+000	 1.6535140562e+000	-1.1441051326e+000
 1.0400548763e+000	 1.6642391968e+000	-1.1015064040e+000
 1.0229979257e+000	 1.6747780432e+000	-1.0614296147e+000
 1.0058551163e+000	 1.6851295900e+000	-1.0235583826e+000
 9.8862947946e-001	 1.6952928957e+000	-9.8757154746e-001
 9.7132405706e-001	 1.7052670835e+000	-9.5314406664e-001
 9.5394190033e-001	 1.7150513406e+000	-9.1994790909e-001
 9.3648606798e-001	 1.7246449184e+000	-8.8765294523e-001
 9.1895962456e-001	 1.7340471327e+000	-8.5592783084e-001
 9.0136563886e-001	 1.7432573634e+000	-8.2444088227e-001
 1.0773192020e+000	 1.6478349127e+000	-1.1421140156e+000
 1.0603892647e+000	 1.6587800246e+000	-1.1033094998e+000
 1.0433671530e+000	 1.6695393217e+000	-1.0664889165e+000
 1.0262558808e+000	 1.6801117313e+000	-1.0313714612e+000
 1.0090584766e+000	 1.6904962447e+000	-9.9767115338e-001
 9.9177798098e-001	 1.7006919177e+000	-9.6509769951e-001
 9.7441744578e-001	 1.7106978704e+000	-9.3335735725e-001
 9.5697993186e-001	 1.7205132875e+000	-9.0215379729e-001
 9.3946850768e-001	 1.7301374181e+000	-8.7118896129e-001
 9.2188624757e-001	 1.7395695758e+000	-8.4016391334e-001
 9.0423623007e-001	 1.7488091385e+000	-8.0877968288e-001
 1.0807392629e+000	 1.6530661347e+000	-1.0899776051e+000
 1.0637555798e+000	 1.6640459929e+000	-1.0581653350e+000
 1.0466794296e+000	 1.6748394465e+000	-1.0274944887e+000
 1.0295138360e+000	 1.6854454193e+000	-9.9771393236e-001
 1.0122618368e+000	 1.6958628995e+000	-9.6856784991e-001
 9.9492648251e-001	 1.7060909397e+000	-9.3979657490e-001
 9.7751083449e-001	 1.7161286573e+000	-9.1113742313e-001
 9.6001796339e-001	 1.7259752345e+000	-8.8232552300e-001
 9.4245094739e-001	 1.7356299179e+000	-8.5309464147e-001
 9.2481287058e-001	 1.7450920189e+000	-8.2317800361e-001
 9.0710682128e-001	 1.7543609135e+000	-7.9230910334e-001
 1.0841593239e+000	 1.6582973566e+000	-1.0331464968e+000
 1.0671218949e+000	 1.6693119612e+000	-1.0086889005e+000
 1.0499917063e+000	 1.6801395713e+000	-9.8453638126e-001
 1.0327717912e+000	 1.6907791073e+000	-9.6046724341e-001
 1.0154651971e+000	 1.7012295542e+000	-9.3625559948e-001
 9.9807498403e-001	 1.7114899616e+000	-9.1167217178e-001
 9.8060422320e-001	 1.7215594442e+000	-8.8648509377e-001
 9.6305599492e-001	 1.7314371814e+000	-8.6046070893e-001
 9.4543338710e-001	 1.7411224176e+000	-8.3336436525e-001
 9.2773949359e-001	 1.7506144620e+000	-8.0496120294e-001
 9.0997741248e-001	 1.7599126886e+000	-7.7501693332e-001
 1.0875793848e+000	 1.6635285786e+000	-9.7163952986e-001
 1.0704882100e+000	 1.6745779296e+000	-9.5489611879e-001
 1.0533039830e+000	 1.6854396962e+000	-9.3762755567e-001
 1.0360297464e+000	 1.6961127954e+000	-9.1964135110e-001
 1.0186685573e+000	 1.7065962090e+000	-9.0074131213e-001
 1.0012234856e+000	 1.7168889836e+000	-8.8072831304e-001
 9.8369761192e-001	 1.7269902311e+000	-8.5940106583e-001
 9.6609402644e-001	 1.7368991284e+000	-8.3655688804e-001
 9.4841582680e-001	 1.7466149174e+000	-8.1199246583e-001
 9.3066611660e-001	 1.7561369051e+000	-7.8550461025e-001
 9.1284800369e-001	 1.7654644636e+000	-7.5689100451e-001
 1.0909994458e+000	 1.6687598005e+000	-9.0547516989e-001
 1.0738545252e+000	 1.6798438979e+000	-8.9680257830e-001
 1.0566162596e+000	 1.6907398210e+000	-8.8678067854e-001
 1.0392877015e+000	 1.7014464834e+000	-8.7524595758e-001
 1.0218719175e+000	 1.7119628637e+000	-8.6203168411e-001
 1.0043719871e+000	 1.7222880056e+000	-8.4696864903e-001
 9.8679100063e-001	 1.7324210180e+000	-8.2988590531e-001
 9.6913205797e-001	 1.7423610753e+000	-8.1061150490e-001
 9.5139826651e-001	 1.7521074171e+000	-7.8897323083e-001
 9.3359273960e-001	 1.7616593482e+000	-7.6479932216e-001
 9.1571859490e-001	 1.7710162387e+000	-7.3791919002e-001
 1.0944195067e+000	 1.6739910224e+000	-8.3467151511e-001
 1.0772208403e+000	 1.6851098662e+000	-8.3442353817e-001
 1.0599285363e+000	 1.6960399458e+000	-8.3200812638e-001
 1.0425456567e+000	 1.7067801715e+000	-8.2729051441e-001
 1.0250752778e+000	 1.7173295184e+000	-8.2013320120e-001
 1.0075204886e+000	 1.7276870275e+000	-8.1039666033e-001
 9.8988438935e-001	 1.7378518049e+000	-7.9794004955e-001
 9.7217008950e-001	 1.7478230223e+000	-7.8262191711e-001
 9.5438070622e-001	 1.7575999169e+000	-7.6430090302e-001
 9.3651936261e-001	 1.7671817913e+000	-7.4283643305e-001
 9.1858918611e-001	 1.7765680137e+000	-7.1808940370e-001
 8.8988327405e-001	 1.7210502633e+000	-8.7923759473e-001
 8.7244976590e-001	 1.7299530791e+000	-8.7543561985e-001
 8.5495564128e-001	 1.7386653219e+000	-8.7128430561e-001
 8.3740393269e-001	 1.7471865681e+000	-8.6633168031e-001
 8.1979767044e-001	 1.7555164567e+000	-8.6012997128e-001
 8.0213988105e-001	 1.7636546888e+000	-8.5223650121e-001
 7.8443358575e-001	 1.7716010272e+000	-8.4221456142e-001
 7.6668179894e-001	 1.7793552960e+000	-8.2963426040e-001
 7.4888752669e-001	 1.7869173799e+000	-8.1407334572e-001
 7.3105376529e-001	 1.7942872240e+000	-7.9511799798e-001
 7.1318349980e-001	 1.8014648333e+000	-7.7236359510e-001
 8.9275386525e-001	 1.7266020383e+000	-8.6669094782e-001
 8.7526411998e-001	 1.7355335729e+000	-8.6111957678e-001
 8.5771356270e-001	 1.7442739197e+000	-8.5582179394e-001
 8.4010523569e-001	 1.7528226538e+000	-8.5032831328e-001
 8.2244217905e-001	 1.7611794130e+000	-8.4417367652e-001
 8.0472742905e-001	 1.7693438975e+000	-8.3689717644e-001
 7.8696401667e-001	 1.7773158692e+000	-8.2804375727e-001
 7.6915496603e-001	 1.7850951517e+000	-8.1716489021e-001
 7.5130329290e-001	 1.7926816295e+000	-8.0381942244e-001
 7.3341200324e-001	 1.8000752473e+000	-7.8757439786e-001
 7.1548409174e-001	 1.8072760102e+000	-7.6800584827e-001
 8.9562445645e-001	 1.7321538133e+000	-8.5338419622e-001
 8.7807847407e-001	 1.7411140667e+000	-8.4599956477e-001
 8.6047148412e-001	 1.7498825175e+000	-8.3950851278e-001
 8.4280653870e-001	 1.7584587395e+000	-8.3342443797e-001
 8.2508668766e-001	 1.7668423693e+000	-8.2726419634e-001
 8.0731497706e-001	 1.7750331061e+000	-8.2054905259e-001
 7.8949444760e-001	 1.7830307112e+000	-8.1280560753e-001
 7.7162813312e-001	 1.7908350075e+000	-8.0356670077e-001
 7.5371905912e-001	 1.7984458791e+000	-7.9237228666e-001
 7.3577024119e-001	 1.8058632706e+000	-7.7877028200e-001
 7.1778468367e-001	 1.8130871871e+000	-7.6231738389e-001
 8.9849504766e-001	 1.7377055884e+000	-8.3930495456e-001
 8.8089282815e-001	 1.7466945606e+000	-8.3006421472e-001
 8.6322940554e-001	 1.7554911153e+000	-8.2233414290e-001
 8.4550784171e-001	 1.7640948252e+000	-8.1561081777e-001
 8.2773119628e-001	 1.7725053256e+000	-8.0939340873e-001
 8.0990252506e-001	 1.7807223148e+000	-8.0318515338e-001
 7.9202487852e-001	 1.7887455533e+000	-7.9649431209e-001
 7.7410130022e-001	 1.7965748633e+000	-7.8883509765e-001
 7.5613482533e-001	 1.8042101287e+000	-7.7972857838e-001
 7.3812847915e-001	 1.8116512939e+000	-7.6870355266e-001
 7.2008527561e-001	 1.8188983639e+000	-7.5529739356e-001
 9.0136563886e-001	 1.7432573634e+000	-8.2444088227e-001
 8.8370718223e-001	 1.7522750544e+000	-8.1330219222e-001
 8.6598732697e-001	 1.7610997131e+000	-8.0428838916e-001
 8.4820914472e-001	 1.7697309109e+000	-7.9687822917e-001
 8.3037570489e-001	 1.7781682819e+000	-7.9055319339e-001
 8.1249007306e-001	 1.7864115235e+000	-7.8479849257e-001
 7.9455530944e-001	 1.7944603953e+000	-7.7910404868e-001
 7.7657446731e-001	 1.8023147191e+000	-7.7296545180e-001
 7.5855059155e-001	 1.8099743783e+000	-7.6588489010e-001
 7.4048671710e-001	 1.8174393172e+000	-7.5737205140e-001
 7.2238586754e-001	 1.8247095408e+000	-7.4694499457e-001
 9.0423623007e-001	 1.7488091385e+000	-8.0877968288e-001
 8.8652153631e-001	 1.7578555482e+000	-7.9570219697e-001
 8.6874524839e-001	 1.7667083109e+000	-7.8536098012e-001
 8.5091044773e-001	 1.7753669966e+000	-7.7721746157e-001
 8.3302021351e-001	 1.7838312382e+000	-7.7073543178e-001
 8.1507762107e-001	 1.7921007322e+000	-7.6538207405e-001
 7.9708574036e-001	 1.8001752373e+000	-7.6062897331e-001
 7.7904763441e-001	 1.8080545749e+000	-7.5595310007e-001
 7.6096635776e-001	 1.8157386279e+000	-7.5083776752e-001
 7.4284495505e-001	 1.8232273405e+000	-7.4477355999e-001
 7.2468645948e-001	 1.8305207177e+000	-7.3725923104e-001
 9.0710682128e-001	 1.7543609135e+000	-7.9230910334e-001
 8.8933589040e-001	 1.7634360420e+000	-7.7725296221e-001
 8.7150316981e-001	 1.7723169088e+000	-7.6554166768e-001
 8.5361175074e-001	 1.7810030823e+000	-7.5661931711e-001
 8.3566472212e-001	 1.7894941945e+000	-7.4993200707e-001
 8.1766516907e-001	 1.7977899408e+000	-7.4492889206e-001
 7.9961617129e-001	 1.8058900793e+000	-7.4106322050e-001
 7.8152080150e-001	 1.8137944307e+000	-7.3779334577e-001
 7.6338212398e-001	 1.8215028775e+000	-7.3458371037e-001
 7.4520319301e-001	 1.8290153638e+000	-7.3090580134e-001
 7.2698705142e-001	 1.8363318946e+000	-7.2623907511e-001
 9.0997741248e-001	 1.7599126886e+000	-7.7501693332e-001
 8.9215024448e-001	 1.7690165358e+000	-7.5794325426e-001
 8.7426109124e-001	 1.7779255066e+000	-7.4482022672e-001
 8.5631305375e-001	 1.7866391680e+000	-7.3507461043e-001
 8.3830923074e-001	 1.7951571508e+000	-7.2813480408e-001
 8.2025271708e-001	 1.8034791495e+000	-7.2343193130e-001
 8.0214660221e-001	 1.8116049214e+000	-7.2040090372e-001
 7.8399396860e-001	 1.8195342865e+000	-7.1848145920e-001
 7.6579789020e-001	 1.8272671271e+000	-7.1711917308e-001
 7.4756143096e-001	 1.8348033872e+000	-7.1576644050e-001
 7.2928764335e-001	 1.8421430715e+000	-7.1388342809e-001
 9.1284800369e-001	 1.7654644636e+000	-7.5689100451e-001
 8.9496459857e-001	 1.7745970296e+000	-7.3776187192e-001
 8.7701901266e-001	 1.7835341044e+000	-7.2318645472e-001
 8.5901435676e-001	 1.7922752537e+000	-7.1257416847e-001
 8.4095373936e-001	 1.8008201072e+000	-7.0533570932e-001
 8.2284026509e-001	 1.8091683582e+000	-7.0088416711e-001
 8.0467703313e-001	 1.8173197634e+000	-6.9863611565e-001
 7.8646713569e-001	 1.8252741423e+000	-6.9801267815e-001
 7.6821365641e-001	 1.8330313768e+000	-6.9844056548e-001
 7.4991966891e-001	 1.8405914105e+000	-6.9935308549e-001
 7.3158823529e-001	 1.8479542484e+000	-7.0019112151e-001
 9.1571859490e-001	 1.7710162387e+000	-7.3791919002e-001
 8.9777895265e-001	 1.7801775234e+000	-7.1669764603e-001
 8.7977693409e-001	 1.7891427022e+000	-7.0063017142e-001
 8.6171565977e-001	 1.7979113394e+000	-6.8910883032e-001
 8.4359824797e-001	 1.8064830635e+000	-6.8152661090e-001
 8.2542781309e-001	 1.8148575669e+000	-6.7727856558e-001
 8.0720746406e-001	 1.8230346054e+000	-6.7576292857e-001
 7.8894030279e-001	 1.8310139981e+000	-6.7638220844e-001
 7.7062942263e-001	 1.8387956264e+000	-6.7854425354e-001
 7.5227790687e-001	 1.8463794338e+000	-6.8166328825e-001
 7.3388882722e-001	 1.8537654253e+000	-6.8516091830e-001
 9.1858918611e-001	 1.7765680137e+000	-7.1808940370e-001
 9.0059330674e-001	 1.7857580172e+000	-6.9473943893e-001
 8.8253485552e-001	 1.7947513000e+000	-6.7714121844e-001
 8.6441696278e-001	 1.8035474251e+000	-6.6466944699e-001
 8.4624275659e-001	 1.8121460198e+000	-6.5669939855e-001
 8.2801536110e-001	 1.8205467756e+000	-6.5260808374e-001
 8.0973789499e-001	 1.8287494475e+000	-6.5177539460e-001
 7.9141346989e-001	 1.8367538539e+000	-6.5358522438e-001
 7.7304518885e-001	 1.8445598760e+000	-6.5742656003e-001
 7.5463614482e-001	 1.8521674571e+000	-6.6269454549e-001
 7.3618941916e-001	 1.8595766022e+000	-6.6879151377e-001
 7.1318349980e-001	 1.8014648333e+000	-7.7236359510e-001
 6.9527970264e-001	 1.8084502717e+000	-7.1651621795e-001
 6.7734533214e-001	 1.8152436616e+000	-6.6360909583e-001
 6.5938333127e-001	 1.8218451834e+000	-6.1340645293e-001
 6.4139662621e-001	 1.8282550746e+000	-5.6567602164e-001
 6.2338812510e-001	 1.8344736290e+000	-5.2992144584e-001
 6.0536071673e-001	 1.8405011960e+000	-5.9262845399e-001
 5.8731726933e-001	 1.8463381800e+000	-6.5218601690e-001
 5.6926062933e-001	 1.8519850393e+000	-7.0816701415e-001
 5.5119362020e-001	 1.8574422852e+000	-7.6017215727e-001
 5.3311904127e-001	 1.8627104815e+000	-8.0783063457e-001
 7.1548409174e-001	 1.8072760102e+000	-7.6800584827e-001
 6.9752254039e-001	 1.8142839822e+000	-7.1855644421e-001
 6.7953031709e-001	 1.8210992863e+000	-6.7361600715e-001
 6.6151037428e-001	 1.8277221034e+000	-6.3294291805e-001
 6.4346564759e-001	 1.8341526716e+000	-5.9629771839e-001
 6.2539905453e-001	 1.8403912859e+000	-5.6344372778e-001
 6.0731349324e-001	 1.8464382967e+000	-6.3745421371e-001
 5.8921184117e-001	 1.8522941097e+000	-7.1210814633e-001
 5.7109695395e-001	 1.8579591846e+000	-7.8457601920e-001
 5.5297166414e-001	 1.8634340345e+000	-8.5444153548e-001
 5.3483878012e-001	 1.8687192250e+000	-9.2131599018e-001
 7.1778468367e-001	 1.8130871871e+000	-7.6231738389e-001
 6.9976537814e-001	 1.8201176928e+000	-7.1943201000e-001
 6.8171530203e-001	 1.8269549110e+000	-6.8261369582e-001
 6.6363741728e-001	 1.8335990233e+000	-6.5161494249e-001
 6.4553466896e-001	 1.8400502686e+000	-6.2618907110e-001
 6.2740998397e-001	 1.8463089427e+000	-6.0609087027e-001
 6.0926626974e-001	 1.8523753973e+000	-6.8203568405e-001
 5.9110641301e-001	 1.8582500393e+000	-7.7190681719e-001
 5.7293327856e-001	 1.8639333299e+000	-8.6097051401e-001
 5.5474970807e-001	 1.8694257839e+000	-9.4879343565e-001
 5.3655851896e-001	 1.8747279684e+000	-1.0349689591e+000
 7.2008527561e-001	 1.8188983639e+000	-7.5529739356e-001
 7.0200821589e-001	 1.8259514033e+000	-7.1914113027e-001
 6.8390028698e-001	 1.8328105357e+000	-6.9059949976e-001
 6.6576446029e-001	 1.8394759433e+000	-6.6941908635e-001
 6.4760369034e-001	 1.8459478657e+000	-6.5534596085e-001
 6.2942091341e-001	 1.8522265996e+000	-6.4812635819e-001
 6.1121904625e-001	 1.8583124979e+000	-7.2636285806e-001
 5.9300098485e-001	 1.8642059689e+000	-8.3157187593e-001
 5.7476960317e-001	 1.8699074752e+000	-9.3734029065e-001
 5.5652775201e-001	 1.8754175332e+000	-1.0320140605e+000
 5.3827825781e-001	 1.8807367119e+000	-9.9533853688e-001
 7.2238586754e-001	 1.8247095408e+000	-7.4694499457e-001
 7.0425105364e-001	 1.8317851139e+000	-7.1768196096e-001
 6.8608527192e-001	 1.8386661605e+000	-6.9757071185e-001
 6.6789150329e-001	 1.8453528632e+000	-6.8635187736e-001
 6.4967271172e-001	 1.8518454627e+000	-6.8376424782e-001
 6.3143184285e-001	 1.8581442565e+000	-6.8954548122e-001
 6.1317182276e-001	 1.8642495986e+000	-7.7042572698e-001
 5.9489555668e-001	 1.8701618985e+000	-8.9109317483e-001
 5.7660592778e-001	 1.8758816205e+000	-9.8996203837e-001
 5.5830579595e-001	 1.8814092825e+000	-9.6556200015e-001
 5.3999799665e-001	 1.8867454554e+000	-9.4821940361e-001
 7.2468645948e-001	 1.8305207177e+000	-7.3725923104e-001
 7.0649389139e-001	 1.8376188244e+000	-7.1505259987e-001
 6.8827025686e-001	 1.8445217852e+000	-7.0352458060e-001
 6.7001854630e-001	 1.8512297832e+000	-7.0240981145e-001
 6.5174173309e-001	 1.8577430597e+000	-7.1143977162e-001
 6.3344277228e-001	 1.8640619133e+000	-7.3034351849e-001
 6.1512459926e-001	 1.8701866992e+000	-8.1421428026e-001
 5.9679012852e-001	 1.8761178281e+000	-9.2038198975e-001
 5.7844225239e-001	 1.8818557658e+000	-9.0543356243e-001
 5.6008383989e-001	 1.8874010318e+000	-8.9886702144e-001
 5.4171773550e-001	 1.8927541989e+000	-9.0088130363e-001
 7.2698705142e-001	 1.8363318946e+000	-7.2623907511e-001
 7.0873672914e-001	 1.8434525350e+000	-7.1125108761e-001
 6.9045524180e-001	 1.8503774099e+000	-7.0845831089e-001
 6.7214558930e-001	 1.8571067031e+000	-7.1758935323e-001
 6.5381075447e-001	 1.8636406567e+000	-7.3836835162e-001
 6.3545370172e-001	 1.8699795702e+000	-7.7051573874e-001
 6.1707737577e-001	 1.8761237998e+000	-8.2752778364e-001
 5.9868470036e-001	 1.8820737577e+000	-8.1923518720e-001
 5.8027857700e-001	 1.8878299110e+000	-8.2063196637e-001
 5.6186188382e-001	 1.8933927811e+000	-8.3193180011e-001
 5.4343747434e-001	 1.8987629424e+000	-8.5332644630e-001
 7.2928764335e-001	 1.8421430715e+000	-7.1388342809e-001
 7.1097956689e-001	 1.8492862456e+000	-7.0627540851e-001
 6.9264022675e-001	 1.8562330346e+000	-7.1236906466e-001
 6.7427263231e-001	 1.8629836231e+000	-7.3188693647e-001
 6.5587977584e-001	 1.8695382537e+000	-7.6454578727e-001
 6.3746463115e-001	 1.8758972271e+000	-7.8603647665e-001
 6.1903015227e-001	 1.8820609005e+000	-7.1120000251e-001
 6.0057927219e-001	 1.8880296873e+000	-7.1777681613e-001
 5.8211490161e-001	 1.8938040563e+000	-7.3556049971e-001
 5.6363992776e-001	 1.8993845304e+000	-7.6475902844e-001
 5.4515721318e-001	 1.9047716859e+000	-8.0555706124e-001
 7.3158823529e-001	 1.8479542484e+000	-7.0019112151e-001
 7.1322240464e-001	 1.8551199561e+000	-7.0012349148e-001
 6.9482521169e-001	 1.8620886593e+000	-7.1525396155e-001
 6.7639967531e-001	 1.8688605430e+000	-7.4529896460e-001
 6.5794879721e-001	 1.8754358508e+000	-7.7835162664e-001
 6.3947556059e-001	 1.8818148839e+000	-6.6651415872e-001
 6.2098292878e-001	 1.8879980011e+000	-5.9451414911e-001
 6.0247384403e-001	 1.8939856170e+000	-6.1601078375e-001
 5.8395122622e-001	 1.8997782016e+000	-6.5022242344e-001
 5.6541797169e-001	 1.9053762797e+000	-6.9735141497e-001
 5.4687695202e-001	 1.9107804294e+000	-7.5757539796e-001
 7.3388882722e-001	 1.8537654253e+000	-6.8516091830e-001
 7.1546524239e-001	 1.8609536667e+000	-6.9279321090e-001
 6.9701019663e-001	 1.8679442841e+000	-7.1711007961e-001
 6.7852671831e-001	 1.8747374630e+000	-7.5782181118e-001
 6.6001781859e-001	 1.8813334478e+000	-6.4586419406e-001
 6.4148649002e-001	 1.8877325408e+000	-5.4636196702e-001
 6.2293570528e-001	 1.8939351017e+000	-4.7747486932e-001
 6.0436841586e-001	 1.8999415466e+000	-5.1394100265e-001
 5.8578755083e-001	 1.9057523469e+000	-5.6462100980e-001
 5.6719601562e-001	 1.9113680290e+000	-6.2971168422e-001
 5.4859669086e-001	 1.9167891729e+000	-7.0938372557e-001
 7.3618941916e-001	 1.8595766022e+000	-6.6879151377e-001
 7.1770808014e-001	 1.8667873772e+000	-6.8428238745e-001
 6.9919518157e-001	 1.8737999088e+000	-7.1793445592e-001
 6.8065376131e-001	 1.8806143829e+000	-6.2069722634e-001
 6.6208683996e-001	 1.8872310448e+000	-5.1268057485e-001
 6.4349741945e-001	 1.8936501977e+000	-4.2558639732e-001
 6.2488848178e-001	 1.8998722024e+000	-3.6008680733e-001
 6.0626298769e-001	 1.9058974762e+000	-4.1157139070e-001
 5.8762387544e-001	 1.9117264922e+000	-4.7875954212e-001
 5.6897405956e-001	 1.9173597783e+000	-5.6184257650e-001
 5.5031642970e-001	 1.9227979164e+000	-6.6098433248e-001
 5.3311904127e-001	 1.8627104815e+000	-8.0783063457e-001
 5.1503966669e-001	 1.8677902430e+000	-8.4857100951e-001
 4.9695824426e-001	 1.8726822350e+000	-8.9540273846e-001
 4.7887749449e-001	 1.8773871724e+000	-8.8571306400e-001
 4.6080010951e-001	 1.8819058183e+000	-8.2772303505e-001
 4.4272875217e-001	 1.8862389833e+000	-7.8257849115e-001
 4.2466605508e-001	 1.8903875242e+000	-7.5038327994e-001
 4.0661461970e-001	 1.8943523434e+000	-7.3121764005e-001
 3.8857701554e-001	 1.8981343875e+000	-7.2513839795e-001
 3.7055577929e-001	 1.9017346462e+000	-7.3217920063e-001
 3.5255341406e-001	 1.9051541513e+000	-7.5235078279e-001
 5.3483878012e-001	 1.8687192250e+000	-9.2131599018e-001
 5.1670108497e-001	 1.8738153728e+000	-9.8146945185e-001
 4.9856133537e-001	 1.8787231455e+000	-9.4682866820e-001
 4.8042226060e-001	 1.8834432601e+000	-8.9084189459e-001
 4.6228656148e-001	 1.8879764823e+000	-8.4513199687e-001
 4.4415690944e-001	 1.8923236251e+000	-8.0985163458e-001
 4.2603594558e-001	 1.8964855485e+000	-7.8513133084e-001
 4.0792627976e-001	 1.9004631574e+000	-7.7107957472e-001
 3.8983048978e-001	 1.9042574017e+000	-7.6778295981e-001
 3.7175112051e-001	 1.9078692741e+000	-7.7530635802e-001
 3.5369068314e-001	 1.9112998099e+000	-7.9369312737e-001
 5.3655851896e-001	 1.8747279684e+000	-1.0349689591e+000
 5.1836250325e-001	 1.8798405026e+000	-9.8591854149e-001
 5.0016442649e-001	 1.8847640559e+000	-9.3703580660e-001
 4.8196702671e-001	 1.8894993477e+000	-8.9580689702e-001
 4.6377301344e-001	 1.8940471462e+000	-8.6242990783e-001
 4.4558506670e-001	 1.8984082670e+000	-8.3708241357e-001
 4.2740583608e-001	 1.9025835727e+000	-8.1992147681e-001
 4.0923793983e-001	 1.9065739715e+000	-8.1108369310e-001
 3.9108396403e-001	 1.9103804158e+000	-8.1068527141e-001
 3.7294646173e-001	 1.9140039020e+000	-8.1882214920e-001
 3.5482795222e-001	 1.9174454684e+000	-8.3557014125e-001
 5.3827825781e-001	 1.8807367119e+000	-9.9533853688e-001
 5.2002392153e-001	 1.8858656324e+000	-9.5870035050e-001
 5.0176751760e-001	 1.8908049663e+000	-9.2704383370e-001
 4.8351179282e-001	 1.8955554354e+000	-9.0060896102e-001
 4.6525946541e-001	 1.9001178101e+000	-8.7961694351e-001
 4.4701322397e-001	 1.9044929089e+000	-8.6427014446e-001
 4.2877572658e-001	 1.9086815970e+000	-8.5475203153e-001
 4.1054959989e-001	 1.9126847855e+000	-8.5122716442e-001
 3.9233743827e-001	 1.9165034300e+000	-8.5384121740e-001
 3.7414180296e-001	 1.9201385298e+000	-8.6272103602e-001
 3.5596522129e-001	 1.9235911270e+000	-8.7797472703e-001
 5.3999799665e-001	 1.8867454554e+000	-9.4821940361e-001
 5.2168533981e-001	 1.8918907622e+000	-9.3126478268e-001
 5.0337060871e-001	 1.8968458768e+000	-9.1685423246e-001
 4.8505655894e-001	 1.9016115230e+000	-9.0524900714e-001
 4.6674591738e-001	 1.9061884740e+000	-8.9669331729e-001
 4.4844138123e-001	 1.9105775508e+000	-8.9141419029e-001
 4.3014561708e-001	 1.9147796213e+000	-8.8962136611e-001
 4.1186125995e-001	 1.9187955995e+000	-8.9150722788e-001
 3.9359091251e-001	 1.9226264441e+000	-8.9724676688e-001
 3.7533714418e-001	 1.9262731577e+000	-9.0699758097e-001
 3.5710249037e-001	 1.9297367855e+000	-9.2089990595e-001
 5.4171773550e-001	 1.8927541989e+000	-9.0088130363e-001
 5.2334675809e-001	 1.8979158920e+000	-9.0361375938e-001
 5.0497369982e-001	 1.9028867872e+000	-9.0646851113e-001
 4.8660132505e-001	 1.9076676107e+000	-9.0972798617e-001
 4.6823236934e-001	 1.9122591380e+000	-9.1365927973e-001
 4.4986953850e-001	 1.9166621927e+000	-9.1851396006e-001
 4.3151550758e-001	 1.9208776456e+000	-9.2452790816e-001
 4.1317292002e-001	 1.9249064135e+000	-9.3192119161e-001
 3.9484438676e-001	 1.9287494583e+000	-9.4089797202e-001
 3.7653248540e-001	 1.9324077856e+000	-9.5164644557e-001
 3.5823975944e-001	 1.9358824441e+000	-9.6433881593e-001
 5.4343747434e-001	 1.8987629424e+000	-8.5332644630e-001
 5.2500817637e-001	 1.9039410219e+000	-8.7574922374e-001
 5.0657679093e-001	 1.9089276977e+000	-8.9588820280e-001
 4.8814609116e-001	 1.9137236984e+000	-9.1404687879e-001
 4.6971882131e-001	 1.9183298019e+000	-9.3051511802e-001
 4.5129769576e-001	 1.9227468346e+000	-9.4556890794e-001
 4.3288539808e-001	 1.9269756698e+000	-9.5947014093e-001
 4.1448458008e-001	 1.9310172275e+000	-9.7246643154e-001
 3.9609786100e-001	 1.9348724724e+000	-9.8479096676e-001
 3.7772782662e-001	 1.9385424135e+000	-9.9666238878e-001
 3.5937702852e-001	 1.9420281026e+000	-1.0082847098e+000
 5.4515721318e-001	 1.9047716859e+000	-8.0555706124e-001
 5.2666959465e-001	 1.9099661517e+000	-8.4767314033e-001
 5.0817988204e-001	 1.9149686081e+000	-8.8511486507e-001
 4.8969085727e-001	 1.9197797860e+000	-9.1820669496e-001
 4.7120527328e-001	 1.9244004658e+000	-9.4726115535e-001
 4.5272585303e-001	 1.9288314764e+000	-9.7257853263e-001
 4.3425528858e-001	 1.9330736941e+000	-9.9444660240e-001
 4.1579624014e-001	 1.9371280415e+000	-1.0131403904e+000
 3.9735133524e-001	 1.9409954866e+000	-1.0289219655e+000
 3.7892316784e-001	 1.9446770414e+000	-1.0420402655e+000
 3.6051429759e-001	 1.9481737612e+000	-1.0527309534e+000
 5.4687695202e-001	 1.9107804294e+000	-7.5757539796e-001
 5.2833101293e-001	 1.9159912815e+000	-8.1938749482e-001
 5.0978297315e-001	 1.9210095185e+000	-8.7415007960e-001
 4.9123562338e-001	 1.9258358737e+000	-9.2220847359e-001
 4.7269172524e-001	 1.9304711298e+000	-9.6389775040e-001
 4.5415401029e-001	 1.9349161183e+000	-9.9954237662e-001
 4.3562517908e-001	 1.9391717184e+000	-1.0294558844e+000
 4.1710790020e-001	 1.9432388555e+000	-1.0539405764e+000
 3.9860480948e-001	 1.9471185007e+000	-1.0732872619e+000
 3.8011850906e-001	 1.9508116693e+000	-1.0877750251e+000
 3.6165156667e-001	 1.9543194197e+000	-1.0976710240e+000
 5.4859669086e-001	 1.9167891729e+000	-7.0938372557e-001
 5.2999243121e-001	 1.9220164113e+000	-7.9089429363e-001
 5.1138606426e-001	 1.9270504290e+000	-8.6299545179e-001
 4.9278038949e-001	 1.9318919613e+000	-9.2605328197e-001
 4.7417817721e-001	 1.9365417937e+000	-9.8042529674e-001
 4.5558216756e-001	 1.9410007602e+000	-1.0264600255e+000
 4.3699506958e-001	 1.9452697426e+000	-1.0644966320e+000
 4.1841956027e-001	 1.9493496695e+000	-1.0948645628e+000
 3.9985828372e-001	 1.9532415149e+000	-1.1178832276e+000
 3.8131385028e-001	 1.9569462972e+000	-1.1338617098e+000
 3.6278883574e-001	 1.9604650783e+000	-1.1430985083e+000
 5.5031642970e-001	 1.9227979164e+000	-6.6098433248e-001
 5.3165384949e-001	 1.9280415411e+000	-7.6219556364e-001
 5.1298915537e-001	 1.9330913394e+000	-8.5165261038e-001
 4.9432515560e-001	 1.9379480490e+000	-9.2974221542e-001
 4.7566462917e-001	 1.9426124576e+000	-9.9684422230e-001
 4.5701032482e-001	 1.9470854021e+000	-1.0533311074e+000
 4.3836496007e-001	 1.9513677669e+000	-1.0995675421e+000
 4.1973122033e-001	 1.9554604835e+000	-1.1359099861e+000
 4.0111175796e-001	 1.9593645290e+000	-1.1627063108e+000
 3.8250919150e-001	 1.9630809251e+000	-1.1802954533e+000
 3.6392610481e-001	 1.9666107368e+000	-1.1890071008e+000
 3.5255341406e-001	 1.9051541513e+000	-7.5235078279e-001
 3.3457238866e-001	 1.9083939758e+000	-8.0910650420e-001
 3.1661513684e-001	 1.9114552323e+000	-8.6175574022e-001
 2.9868405670e-001	 1.9143390725e+000	-9.1045045285e-001
 2.8078151000e-001	 1.9170466853e+000	-9.5533203353e-001
 2.6290982159e-001	 1.9195792966e+000	-9.9653129517e-001
 2.4507127886e-001	 1.9219381672e+000	-1.0341684877e+000
 2.2726813122e-001	 1.9241245923e+000	-1.0683533367e+000
 2.0950258962e-001	 1.9261399002e+000	-1.0991851041e+000
 1.9177682612e-001	 1.9279854509e+000	-1.1267526698e+000
 1.7409297346e-001	 1.9296626355e+000	-1.1511346347e+000
 3.5369068314e-001	 1.9112998099e+000	-7.9369312737e-001
 3.3565165443e-001	 1.9145500854e+000	-8.4790678655e-001
 3.1763647599e-001	 1.9176212170e+000	-8.9845064172e-001
 2.9964755366e-001	 1.9205143598e+000	-9.4542445848e-001
 2.8168725681e-001	 1.9232307069e+000	-9.8891796221e-001
 2.6375791779e-001	 1.9257714878e+000	-1.0290108681e+000
 2.4586183137e-001	 1.9281379677e+000	-1.0657729334e+000
 2.2800125422e-001	 1.9303314458e+000	-1.0992640309e+000
 2.1017840442e-001	 1.9323532547e+000	-1.1295342437e+000
 1.9239546104e-001	 1.9342047588e+000	-1.1566239786e+000
 1.7465456369e-001	 1.9358873536e+000	-1.1805641001e+000
 3.5482795222e-001	 1.9174454684e+000	-8.3557014125e-001
 3.3673092019e-001	 1.9207061950e+000	-8.8663347976e-001
 3.1865781514e-001	 1.9237872016e+000	-9.3446372198e-001
 3.0061105062e-001	 1.9266896471e+000	-9.7910870313e-001
 2.8259300361e-001	 1.9294147285e+000	-1.0206067441e+000
 2.6460601398e-001	 1.9319636791e+000	-1.0589867194e+000
 2.4665238388e-001	 1.9343377682e+000	-1.0942681457e+000
 2.2873437722e-001	 1.9365382993e+000	-1.1264612909e+000
 2.1085421923e-001	 1.9385666092e+000	-1.1555673013e+000
 1.9301409596e-001	 1.9404240668e+000	-1.1815783484e+000
 1.7521615392e-001	 1.9421120718e+000	-1.2044777924e+000
 3.5596522129e-001	 1.9235911270e+000	-8.7797472703e-001
 3.3781018596e-001	 1.9268623046e+000	-9.2528516586e-001
 3.1967915429e-001	 1.9299531862e+000	-9.6979925141e-001
 3.0157454757e-001	 1.9328649345e+000	-1.0115131522e+000
 2.8349875041e-001	 1.9355987500e+000	-1.0504140439e+000
 2.6545411018e-001	 1.9381558704e+000	-1.0864802150e+000
 2.4744293639e-001	 1.9405375688e+000	-1.1196811918e+000
 2.2946750022e-001	 1.9427451529e+000	-1.1499778820e+000
 2.1153003403e-001	 1.9447799637e+000	-1.1773227361e+000
 1.9363273088e-001	 1.9466433747e+000	-1.2016599252e+000
 1.7577774416e-001	 1.9483367900e+000	-1.2229255356e+000
 3.5710249037e-001	 1.9297367855e+000	-9.2089990595e-001
 3.3888945173e-001	 1.9330184142e+000	-9.6386047128e-001
 3.2070049344e-001	 1.9361191708e+000	-1.0044614706e+000
 3.0253804452e-001	 1.9390402218e+000	-1.0426476670e+000
 2.8440449722e-001	 1.9417827716e+000	-1.0783553478e+000
 2.6630220637e-001	 1.9443480617e+000	-1.1115124681e+000
 2.4823348889e-001	 1.9467373693e+000	-1.1420388115e+000
 2.3020062322e-001	 1.9489520064e+000	-1.1698461687e+000
 2.1220584883e-001	 1.9509933182e+000	-1.1948385322e+000
 1.9425136580e-001	 1.9528626826e+000	-1.2169123061e+000
 1.7633933439e-001	 1.9545615082e+000	-1.2359565308e+000
 3.5823975944e-001	 1.9358824441e+000	-9.6433881593e-001
 3.3996871750e-001	 1.9391745238e+000	-1.0023580662e+000
 3.2172183259e-001	 1.9422851554e+000	-1.0384545906e+000
 3.0350154148e-001	 1.9452155091e+000	-1.0725220061e+000
 2.8531024402e-001	 1.9479667931e+000	-1.1044459664e+000
 2.6715030256e-001	 1.9505402530e+000	-1.1341043432e+000
 2.4902404140e-001	 1.9529371698e+000	-1.1613674229e+000
 2.3093374622e-001	 1.9551588599e+000	-1.1860981203e+000
 2.1288166363e-001	 1.9572066727e+000	-1.2081522058e+000
 1.9487000072e-001	 1.9590819905e+000	-1.2273785475e+000
 1.7690092462e-001	 1.9607862263e+000	-1.2436193660e+000
 3.5937702852e-001	 1.9420281026e+000	-1.0082847098e+000
 3.4104798326e-001	 1.9453306334e+000	-1.0407766637e+000
 3.2274317173e-001	 1.9484511400e+000	-1.0717827939e+000
 3.0446503843e-001	 1.9513907964e+000	-1.1011458276e+000
 2.8621599082e-001	 1.9541508147e+000	-1.1287010375e+000
 2.6799839876e-001	 1.9567324442e+000	-1.1542764598e+000
 2.4981459391e-001	 1.9591369704e+000	-1.1776931275e+000
 2.3166686921e-001	 1.9613657134e+000	-1.1987653177e+000
 2.1355747843e-001	 1.9634200273e+000	-1.2173008128e+000
 1.9548863563e-001	 1.9653012984e+000	-1.2331011739e+000
 1.7746251485e-001	 1.9670109445e+000	-1.2459620256e+000
 3.6051429759e-001	 1.9481737612e+000	-1.0527309534e+000
 3.4212724903e-001	 1.9514867430e+000	-1.0791150194e+000
 3.2376451088e-001	 1.9546171247e+000	-1.1044502342e+000
 3.0542853538e-001	 1.9575660838e+000	-1.1285286900e+000
 2.8712173762e-001	 1.9603348363e+000	-1.1511355286e+000
 2.6884649495e-001	 1.9629246355e+000	-1.1720491967e+000
 2.5060514641e-001	 1.9653367709e+000	-1.1910417148e+000
 2.3239999221e-001	 1.9675725669e+000	-1.2078789593e+000
 2.1423329322e-001	 1.9696333818e+000	-1.2223209562e+000
 1.9610727055e-001	 1.9715206063e+000	-1.2341221863e+000
 1.7802410508e-001	 1.9732356627e+000	-1.2430319003e+000
 3.6165156667e-001	 1.9543194197e+000	-1.0976710240e+000
 3.4320651479e-001	 1.9576428526e+000	-1.1173719305e+000
 3.2478585002e-001	 1.9607831093e+000	-1.1364610372e+000
 3.0639203233e-001	 1.9637413711e+000	-1.1546800540e+000
 2.8802748442e-001	 1.9665188578e+000	-1.1717642398e+000
 2.6969459114e-001	 1.9691168268e+000	-1.1874426953e+000
 2.5139569892e-001	 1.9715365714e+000	-1.2014386677e+000
 2.3313311521e-001	 1.9737794204e+000	-1.2134698670e+000
 2.1490910802e-001	 1.9758467363e+000	-1.2232487927e+000
 1.9672590546e-001	 1.9777399142e+000	-1.2304830703e+000
 1.7858569531e-001	 1.9794603809e+000	-1.2348757964e+000
 3.6278883574e-001	 1.9604650783e+000	-1.1430985083e+000
 3.4428578056e-001	 1.9637989621e+000	-1.1555462351e+000
 3.2580718917e-001	 1.9669490939e+000	-1.1678193014e+000
 3.0735552928e-001	 1.9699166584e+000	-1.1796092845e+000
 2.8893323122e-001	 1.9727028794e+000	-1.1906018065e+000
 2.7054268733e-001	 1.9753090180e+000	-1.2004768636e+000
 2.5218625142e-001	 1.9777363720e+000	-1.2089091669e+000
 2.3386623820e-001	 1.9799862740e+000	-1.2155684923e+000
 2.1558492282e-001	 1.9820600908e+000	-1.2201200405e+000
 1.9734454038e-001	 1.9839592221e+000	-1.2222248044e+000
 1.7914728554e-001	 1.9856850990e+000	-1.2215399444e+000
 3.6392610481e-001	 1.9666107368e+000	-1.1890071008e+000
 3.4536504632e-001	 1.9699550717e+000	-1.1936368119e+000
 3.2682852831e-001	 1.9731150785e+000	-1.1985290978e+000
 3.0831902623e-001	 1.9760919457e+000	-1.2033256513e+000
 2.8983897801e-001	 1.9788869009e+000	-1.2076627016e+000
 2.7139078352e-001	 1.9815012093e+000	-1.2111713799e+000
 2.5297680392e-001	 1.9839361725e+000	-1.2134780958e+000
 2.3459936119e-001	 1.9861931275e+000	-1.2142049218e+000
 2.1626073761e-001	 1.9882734453e+000	-1.2129699853e+000
 1.9796317529e-001	 1.9901785300e+000	-1.2093878675e+000
 1.7970887576e-001	 1.9919098172e+000	-1.2030700089e+000
 1.7409297346e-001	 1.9296626355e+000	-1.1511346347e+000
 1.5645312469e-001	 1.9311728741e+000	-1.0931726128e+000
 1.3885933285e-001	 1.9325176159e+000	-1.0489097942e+000
 1.2131361068e-001	 1.9336983368e+000	-1.0179908708e+000
 1.0381793031e-001	 1.9347165393e+000	-1.0000456474e+000
 8.6374223063e-002	 1.9355737505e+000	-9.9468972963e-001
 6.8984379236e-002	 1.9362715216e+000	-1.0015252192e+000
 5.1650247946e-002	 1.9368114265e+000	-1.0201414158e+000
 3.4373636983e-002	 1.9371950607e+000	-1.0501155242e+000
 1.7156312713e-002	 1.9374240400e+000	-1.0910133641e+000
 0.0000000000e+000	 1.9375000000e+000	-1.1423900827e+000
 1.7465456369e-001	 1.9358873536e+000	-1.1805641001e+000
 1.5695781218e-001	 1.9374024641e+000	-1.1207491001e+000
 1.3930726618e-001	 1.9387515437e+000	-1.0755448877e+000
 1.2170494491e-001	 1.9399360734e+000	-1.0447256184e+000
 1.0415282686e-001	 1.9409575604e+000	-1.0280469616e+000
 8.6652849589e-002	 1.9418175368e+000	-1.0252467517e+000
 6.9206909491e-002	 1.9425175588e+000	-1.0360456531e+000
 5.1816861648e-002	 1.9430592053e+000	-1.0601478360e+000
 3.4484519682e-002	 1.9434440770e+000	-1.0972416630e+000
 1.7211655657e-002	 1.9436737950e+000	-1.1470003829e+000
 0.0000000000e+000	 1.9437500000e+000	-1.2090828329e+000
 1.7521615392e-001	 1.9421120718e+000	-1.2044777924e+000
 1.5746249968e-001	 1.9436320540e+000	-1.1446223140e+000
 1.3975519951e-001	 1.9449854715e+000	-1.1002778313e+000
 1.2209627913e-001	 1.9461738100e+000	-1.0713473897e+000
 1.0448772341e-001	 1.9471985815e+000	-1.0577119635e+000
 8.6931476113e-002	 1.9480613231e+000	-1.0592310718e+000
 6.9429439746e-002	 1.9487635960e+000	-1.0757434121e+000
 5.1983475350e-002	 1.9493069841e+000	-1.1070675115e+000
 3.4595402381e-002	 1.9496930933e+000	-1.1530023917e+000
 1.7266998600e-002	 1.9499235500e+000	-1.2133282477e+000
 0.0000000000e+000	 1.9500000000e+000	-1.2878071386e+000
 1.7577774416e-001	 1.9483367900e+000	-1.2229255356e+000
 1.5796718717e-001	 1.9498616439e+000	-1.1648246549e+000
 1.4020313284e-001	 1.9512193993e+000	-1.1231237217e+000
 1.2248761336e-001	 1.9524115466e+000	-1.0978541025e+000
 1.0482261995e-001	 1.9534396026e+000	-1.0890215225e+000
 8.7210102637e-002	 1.9543051094e+000	-1.0966066463e+000
 6.9651969999e-002	 1.9550096331e+000	-1.1205656808e+000
 5.2150089052e-002	 1.9555547629e+000	-1.1608310006e+000
 3.4706285080e-002	 1.9559421096e+000	-1.2173117929e+000
 1.7322341544e-002	 1.9561733049e+000	-1.2898947203e+000
 0.0000000000e+000	 1.9562500000e+000	-1.3784446007e+000
 1.7633933439e-001	 1.9545615082e+000	-1.2359565308e+000
 1.5847187467e-001	 1.9560912338e+000	-1.1813881209e+000
 1.4065106617e-001	 1.9574533271e+000	-1.1440974720e+000
 1.2287894758e-001	 1.9586492831e+000	-1.1242437084e+000
 1.0515751650e-001	 1.9596806237e+000	-1.1219567577e+000
 8.7488729159e-002	 1.9605488957e+000	-1.1373378961e+000
 6.9874500252e-002	 1.9612556703e+000	-1.1704603206e+000
 5.2316702753e-002	 1.9618025417e+000	-1.2213697492e+000
 3.4817167779e-002	 1.9621911260e+000	-1.2900850456e+000
 1.7377684488e-002	 1.9624230599e+000	-1.3765988659e+000
 0.0000000000e+000	 1.9625000000e+000	-1.4808783278e+000
 1.7690092462e-001	 1.9607862263e+000	-1.2436193660e+000
 1.5897656216e-001	 1.9623208237e+000	-1.1943443139e+000
 1.4109899950e-001	 1.9636872549e+000	-1.1632138149e+000
 1.2327028181e-001	 1.9648870197e+000	-1.1505141929e+000
 1.0549241305e-001	 1.9659216448e+000	-1.1564990347e+000
 8.7767355682e-002	 1.9667926820e+000	-1.1813896990e+000
 7.0097030504e-002	 1.9675017075e+000	-1.2253758589e+000
 5.2483316453e-002	 1.9680503205e+000	-1.2886160767e+000
 3.4928050477e-002	 1.9684401423e+000	-1.3712384077e+000
 1.7433027431e-002	 1.9686728149e+000	-1.4733410322e+000
 0.0000000000e+000	 1.9687500000e+000	-1.5949929132e+000
 1.7746251485e-001	 1.9670109445e+000	-1.2459620256e+000
 1.5948124966e-001	 1.9685504136e+000	-1.2037244463e+000
 1.4154693282e-001	 1.9699211826e+000	-1.1804873056e+000
 1.2366161603e-001	 1.9711247563e+000	-1.1766635747e+000
 1.0582730959e-001	 1.9721626658e+000	-1.1926299612e+000
 8.8045982203e-002	 1.9730364682e+000	-1.2287273826e+000
 7.0319560756e-002	 1.9737477446e+000	-1.2852614790e+000
 5.2649930153e-002	 1.9742980993e+000	-1.3625031620e+000
 3.5038933175e-002	 1.9746891586e+000	-1.4606891991e+000
 1.7488370374e-002	 1.9749225698e+000	-1.5800228294e+000
 0.0000000000e+000	 1.9750000000e+000	-1.7206744109e+000
 1.7802410508e-001	 1.9732356627e+000	-1.2430319003e+000
 1.5998593715e-001	 1.9747800035e+000	-1.2095593468e+000
 1.4199486615e-001	 1.9761551104e+000	-1.1959323245e+000
 1.2405295025e-001	 1.9773624928e+000	-1.2026899050e+000
 1.0616220613e-001	 1.9784036869e+000	-1.2303313833e+000
 8.8324608724e-002	 1.9792802545e+000	-1.2793167173e+000
 7.0542091007e-002	 1.9799937818e+000	-1.3500670092e+000
 5.2816543852e-002	 1.9805458781e+000	-1.4429650305e+000
 3.5149815872e-002	 1.9809381749e+000	-1.5583557850e+000
 1.7543713317e-002	 1.9811723248e+000	-1.6965471101e+000
 0.0000000000e+000	 1.9812500000e+000	-1.8578103127e+000
 1.7858569531e-001	 1.9794603809e+000	-1.2348757964e+000
 1.6049062464e-001	 1.9810095935e+000	-1.2118794663e+000
 1.4244279947e-001	 1.9823890382e+000	-1.2095630800e+000
 1.2444428447e-001	 1.9836002294e+000	-1.2285912669e+000
 1.0649710268e-001	 1.9846447080e+000	-1.2695853820e+000
 8.8603235243e-002	 1.9855240408e+000	-1.3331239091e+000
 7.0764621258e-002	 1.9862398189e+000	-1.4197429133e+000
 5.2983157551e-002	 1.9867936569e+000	-1.5299365401e+000
 3.5260698569e-002	 1.9871871913e+000	-1.6641575593e+000
 1.7599056260e-002	 1.9874220798e+000	-1.8228179498e+000
 0.0000000000e+000	 1.9875000000e+000	-2.0062895257e+000
 1.7914728554e-001	 1.9856850990e+000	-1.2215399444e+000
 1.6099531213e-001	 1.9872391834e+000	-1.2107148843e+000
 1.4289073279e-001	 1.9886229660e+000	-1.2213936111e+000
 1.2483561869e-001	 1.9898379660e+000	-1.2543657756e+000
 1.0683199922e-001	 1.9908857291e+000	-1.3103742692e+000
 8.8881861763e-002	 1.9917678271e+000	-1.3901155930e+000
 7.0987151507e-002	 1.9924858561e+000	-1.4942402798e+000
 5.3149771250e-002	 1.9930414357e+000	-1.6233533687e+000
 3.5371581266e-002	 1.9934362076e+000	-1.7780149285e+000
 1.7654399202e-002	 1.9936718348e+000	-1.9587406279e+000
 0.0000000000e+000	 1.9937500000e+000	-2.1660023500e+000
 1.7970887576e-001	 1.9919098172e+000	-1.2030700089e+000
 1.6149999962e-001	 1.9934687733e+000	-1.2060953143e+000
 1.4333866611e-001	 1.9948568938e+000	-1.2314377903e+000
 1.2522695291e-001	 1.9960757025e+000	-1.2800115769e+000
 1.0716689576e-001	 1.9971267502e+000	-1.3526805842e+000
 8.9160488281e-002	 1.9980116134e+000	-1.4502588261e+000
 7.1209681757e-002	 1.9987318933e+000	-1.5735108129e+000
 5.3316384948e-002	 1.9992892145e+000	-1.7231520010e+000
 3.5482463962e-002	 1.9996852239e+000	-1.8998492960e+000
 1.7709742145e-002	 1.9999215897e+000	-2.1042216084e+000
 0.0000000000e+000	 2.0000000000e+000	-2.3368404567e+000
