x	y	stress_yy
 1.000000000000000e+000	 0.000000000000000e+000	 2.857067606393415e+001
 9.999607948607566e-001	 8.854871081647989e-003	 2.857428095965046e+001
 9.998426119589265e-001	 1.774123199891274e-002	 2.856575885369054e+001
 9.996446072361988e-001	 2.665819249913576e-002	 2.854493669938573e+001
 9.993659466433188e-001	 3.560484091004573e-002	 2.851164312339471e+001
 9.990058067093817e-001	 4.458024417780557e-002	 2.846570849932138e+001
 9.985633751160035e-001	 5.358344792087626e-002	 2.840696502112808e+001
 9.980378512759272e-001	 6.261347650004139e-002	 2.833524677637647e+001
 9.974284469156016e-001	 7.166933310492561e-002	 2.825038981933423e+001
 9.967343866612564e-001	 8.074999985732718e-002	 2.815223224399209e+001
 9.959549086279672e-001	 8.985443793167208e-002	 2.804061425704226e+001
 1.006250000000000e+000	 0.000000000000000e+000	 2.814162057055308e+001
 1.006210549828649e+000	 8.910214024010909e-003	 2.814673901710542e+001
 1.006091628283720e+000	 1.785211469529380e-002	 2.813978995373345e+001
 1.005892386031539e+000	 2.682480619711326e-002	 2.812059983885038e+001
 1.005611983810042e+000	 3.582737115924851e-002	 2.808899676886108e+001
 1.005249593001633e+000	 4.485887069627818e-002	 2.804481055030430e+001
 1.004804396210937e+000	 5.391834446178077e-002	 2.798787277178415e+001
 1.004275587847028e+000	 6.300481071879691e-002	 2.791801687572591e+001
 1.003662374709645e+000	 7.211726642688852e-002	 2.783507822999942e+001
 1.002963976578931e+000	 8.125468734611727e-002	 2.773889419945852e+001
 1.002179626808183e+000	 9.041602815825124e-002	 2.762930421745227e+001
 1.012500000000000e+000	 0.000000000000000e+000	 2.772932769246730e+001
 1.012460304796536e+000	 8.965556966565645e-003	 2.773589373801095e+001
 1.012340644608494e+000	 1.796299739204931e-002	 2.773045257510333e+001
 1.012140164826835e+000	 2.699141989563863e-002	 2.771283022096768e+001
 1.011858020976688e+000	 3.604990140916314e-002	 2.768285429547454e+001
 1.011493379293763e+000	 4.513749721561711e-002	 2.764035409174075e+001
 1.011045417305696e+000	 5.425324100369643e-002	 2.758516064650906e+001
 1.010513324417890e+000	 6.339614493869869e-002	 2.751710681034766e+001
 1.009896302503375e+000	 7.256519975012293e-002	 2.743602731771688e+001
 1.009193566496209e+000	 8.175937483629397e-002	 2.734175885695661e+001
 1.008404344987907e+000	 9.097761838632214e-002	 2.723414014025451e+001
 1.018750000000000e+000	 0.000000000000000e+000	 2.733352258497642e+001
 1.018710059764419e+000	 9.020899909312182e-003	 2.734147051462906e+001
 1.018589660933249e+000	 1.807388008917931e-002	 2.733747234518069e+001
 1.018387943622088e+000	 2.715803359471185e-002	 2.732135370641030e+001
 1.018104058143257e+000	 3.627243165978964e-002	 2.729294179538992e+001
 1.017737165585772e+000	 4.541612373582237e-002	 2.725206544547216e+001
 1.017286438400280e+000	 5.458813754662327e-002	 2.719855519504797e+001
 1.016751060988513e+000	 6.378747915974670e-002	 2.713224335611815e+001
 1.016130230296793e+000	 7.301313307462874e-002	 2.705296408273023e+001
 1.015423156413090e+000	 8.226406232785734e-002	 2.696055343933903e+001
 1.014629063167139e+000	 9.153920861588473e-002	 2.685484946915542e+001
 1.025000000000000e+000	 0.000000000000000e+000	 2.695393710690728e+001
 1.024959814732297e+000	 9.076242852250532e-003	 2.696320142366800e+001
 1.024838677257986e+000	 1.818476278668377e-002	 2.696058155687386e+001
 1.024635722417298e+000	 2.732464729433293e-002	 2.694590280263176e+001
 1.024350095309748e+000	 3.649496191112799e-002	 2.691899198897620e+001
 1.023980951877660e+000	 4.569475025689399e-002	 2.687967754317686e+001
 1.023527459494689e+000	 5.492303409056130e-002	 2.682778955880418e+001
 1.022988797558898e+000	 6.417881338194095e-002	 2.676315986260098e+001
 1.022364158089898e+000	 7.346106640040602e-002	 2.668562208121610e+001
 1.021652746329574e+000	 8.276874982080731e-002	 2.659501170786285e+001
 1.020853781345879e+000	 9.210079884693902e-002	 2.649116616897217e+001
 1.031250000000000e+000	 0.000000000000000e+000	 2.659030961747671e+001
 1.031209569700170e+000	 9.131585795380684e-003	 2.660082502372327e+001
 1.031087693582703e+000	 1.829564548456270e-002	 2.659951896663316e+001
 1.030883501212465e+000	 2.749126099450188e-002	 2.658621646244869e+001
 1.030596132476163e+000	 3.671749216317822e-002	 2.656074402396161e+001
 1.030224738169427e+000	 4.597337677883193e-002	 2.652292972607224e+001
 1.029768480588924e+000	 5.525793063551050e-002	 2.647260327109225e+001
 1.029226534129045e+000	 6.457014760528150e-002	 2.640959605384444e+001
 1.028598085882691e+000	 7.390899972745471e-002	 2.633374122661923e+001
 1.027882336245661e+000	 8.327343731514393e-002	 2.624487376405588e+001
 1.027078499524128e+000	 9.266238907948500e-002	 2.614283052802330e+001
 1.037500000000000e+000	 0.000000000000000e+000	 2.624238478049680e+001
 1.037459324668038e+000	 9.186928738702643e-003	 2.625408616004011e+001
 1.037336709907401e+000	 1.840652818281611e-002	 2.625402959976613e+001
 1.037131280007589e+000	 2.765787469521869e-002	 2.624203988990352e+001
 1.036842169642501e+000	 3.694002241594029e-002	 2.621794328183852e+001
 1.036468524461074e+000	 4.625200330163622e-002	 2.618156755185619e+001
 1.036009501682984e+000	 5.559282718147087e-002	 2.613274206461045e+001
 1.035464270698953e+000	 6.496148182976827e-002	 2.607129783637890e+001
 1.034832013675171e+000	 7.435693305577489e-002	 2.599706759816872e+001
 1.034111926161351e+000	 8.377812481086717e-002	 2.590988585874488e+001
 1.033303217701885e+000	 9.322397931352272e-002	 2.580958896766186e+001
 1.043750000000000e+000	 0.000000000000000e+000	 2.590991337561458e+001
 1.043709079635903e+000	 9.242271682216415e-003	 2.592273577629050e+001
 1.043585726232079e+000	 1.851741088144399e-002	 2.592386456274711e+001
 1.043379058802669e+000	 2.782448839648337e-002	 2.591312435310211e+001
 1.043088206808762e+000	 3.716255266941421e-002	 2.589034119122372e+001
 1.042712310752600e+000	 4.653062982530682e-002	 2.585534260858514e+001
 1.042250522776870e+000	 5.592772372844242e-002	 2.580795768583048e+001
 1.041702007268623e+000	 6.535281605540129e-002	 2.574801711411263e+001
 1.041065941467338e+000	 7.480486638536647e-002	 2.567535325627361e+001
 1.040341516076644e+000	 8.428281230797707e-002	 2.558980020794478e+001
 1.039527935879150e+000	 9.378556954905211e-002	 2.549119385865165e+001
 1.050000000000000e+000	 0.000000000000000e+000	 2.559265211629319e+001
 1.049958834603761e+000	 9.297614625921994e-003	 2.560653073307244e+001
 1.049834742556739e+000	 1.862829358044632e-002	 2.560878086223025e+001
 1.049626837597706e+000	 2.799110209829589e-002	 2.559922700373566e+001
 1.049334243974945e+000	 3.738508292360002e-002	 2.557769504788469e+001
 1.048956097044005e+000	 4.680925634984378e-002	 2.554401233519906e+001
 1.048491543870581e+000	 5.626262027642513e-002	 2.549800771601634e+001
 1.047939743838054e+000	 6.574415028218054e-002	 2.543951160983838e+001
 1.047299869259194e+000	 7.525279971622952e-002	 2.536835606451175e+001
 1.046571105991540e+000	 8.478749980647360e-002	 2.528437481532325e+001
 1.045752654055923e+000	 9.434715978607323e-002	 2.518740334410140e+001
 1.056250000000000e+000	 0.000000000000000e+000	 2.529036347425523e+001
 1.056208589571615e+000	 9.352957569819380e-003	 2.530523363285303e+001
 1.056083758881379e+000	 1.873917627982314e-002	 2.530854123048804e+001
 1.055874616392700e+000	 2.815771580065629e-002	 2.530011070301013e+001
 1.055580281141052e+000	 3.760761317849765e-002	 2.527976784115523e+001
 1.055199883335289e+000	 4.708788287524708e-002	 2.524733984841835e+001
 1.054732564964118e+000	 5.659751682541903e-002	 2.520265539859714e+001
 1.054177480407246e+000	 6.613548451010608e-002	 2.514554469307725e+001
 1.053533797050736e+000	 7.570073304836400e-002	 2.507583951793825e+001
 1.052800695906040e+000	 8.529218730635675e-002	 2.499337330096860e+001
 1.051977372232205e+000	 9.490875002458604e-002	 2.489798116868540e+001
 1.062500000000000e+000	 0.000000000000000e+000	 2.500281551012226e+001
 1.062458344539465e+000	 9.408300513908575e-003	 2.501861265108994e+001
 1.062332775206001e+000	 1.885005897957442e-002	 2.502291395701077e+001
 1.062122395187651e+000	 2.832432950356454e-002	 2.501554385371952e+001
 1.061826318307081e+000	 3.783014343410716e-002	 2.499632808647761e+001
 1.061443669626452e+000	 4.736650940151670e-002	 2.496509377575050e+001
 1.060973586057479e+000	 5.693241337542408e-002	 2.492166947263302e+001
 1.060415216976200e+000	 6.652681873917786e-002	 2.486588521399822e+001
 1.059767724841966e+000	 7.614866638176993e-002	 2.479757257745400e+001
 1.059030285820142e+000	 8.579687480762653e-002	 2.471656473620075e+001
 1.058202090407995e+000	 9.547034026459059e-002	 2.462269651389165e+001
 9.959549086279672e-001	 8.985443793167208e-002	 2.804061425704226e+001
 9.950892650105072e-001	 9.898158769347730e-002	 2.794327568148380e+001
 9.941367226775285e-001	 1.081303688543235e-001	 2.783226778393728e+001
 9.930965637671553e-001	 1.172996806447691e-001	 2.770752465512087e+001
 9.919680862820067e-001	 1.264884020066531e-001	 2.756898444343652e+001
 9.907506046851590e-001	 1.356953918032302e-001	 2.741658937818298e+001
 9.894434504957538e-001	 1.449194890479376e-001	 2.725028578995325e+001
 9.880459728836375e-001	 1.541595131519814e-001	 2.707002412830151e+001
 9.865575392624050e-001	 1.634142641909074e-001	 2.687575897677529e+001
 9.849775358802030e-001	 1.726825231903043e-001	 2.666744906542014e+001
 9.833053684076398e-001	 1.819630524307584e-001	 2.644505728087146e+001
 1.002179626808183e+000	 9.041602815825124e-002	 2.762930421745227e+001
 1.001308572918378e+000	 9.960022260605443e-002	 2.753624956043907e+001
 1.000350077196086e+000	 1.088061836492667e-001	 2.742960658870545e+001
 9.993034172927953e-001	 1.180328036386388e-001	 2.730930829694707e+001
 9.981678868236400e-001	 1.272789545093971e-001	 2.717529166563240e+001
 9.969427959670911e-001	 1.365434879926932e-001	 2.702749768250138e+001
 9.956274720642854e-001	 1.458252358457992e-001	 2.686587136130580e+001
 9.942212602173799e-001	 1.551230101012422e-001	 2.669036175788326e+001
 9.927235238863055e-001	 1.644356033350417e-001	 2.650092198366831e+001
 9.911336454832593e-001	 1.737617889541970e-001	 2.629750921675398e+001
 9.894510269642906e-001	 1.831003215035492e-001	 2.608008471062689e+001
 1.008404344987907e+000	 9.097761838632214e-002	 2.723414014025451e+001
 1.007527880825667e+000	 1.002188575202089e-001	 2.714529732441250e+001
 1.006563431713990e+000	 1.094819984458440e-001	 2.704294822714786e+001
 1.005510270817730e+000	 1.187659266341701e-001	 2.692702480120535e+001
 1.004367687364536e+000	 1.280695070138010e-001	 2.679746291266501e+001
 1.003134987248274e+000	 1.373915841837843e-001	 2.665420236064629e+001
 1.001811493632075e+000	 1.467309826452273e-001	 2.649718689431014e+001
 1.000396547550409e+000	 1.560865070519778e-001	 2.632636422725889e+001
 9.988895085095403e-001	 1.654569424805282e-001	 2.614168604944391e+001
 9.972897550857186e-001	 1.748410547192886e-001	 2.594310803670138e+001
 9.955966855204339e-001	 1.842375905773546e-001	 2.573058985804767e+001
 1.014629063167139e+000	 9.153920861588473e-002	 2.685484946915542e+001
 1.013747188732373e+000	 1.008374924359407e-001	 2.677014694218177e+001
 1.012776786231242e+000	 1.101578132440554e-001	 2.667202119709843e+001
 1.011717124341959e+000	 1.194990496313631e-001	 2.656040319869654e+001
 1.010567487904694e+000	 1.288600595198647e-001	 2.643522775213044e+001
 1.009327178528707e+000	 1.382396803765038e-001	 2.629643352074658e+001
 1.007995515199123e+000	 1.476367294462221e-001	 2.614396304126679e+001
 1.006571834882724e+000	 1.570500040041881e-001	 2.597776273643190e+001
 1.005055493132110e+000	 1.664782816273670e-001	 2.579778292522324e+001
 1.003445864687581e+000	 1.759203204855793e-001	 2.560397783079035e+001
 1.001742344076070e+000	 1.853748596521748e-001	 2.539630558622269e+001
 1.020853781345879e+000	 9.210079884693902e-002	 2.649116616897217e+001
 1.019966496638497e+000	 1.014561273532498e-001	 2.641053287912345e+001
 1.018990140747839e+000	 1.108336280439009e-001	 2.631656046859142e+001
 1.017923977865483e+000	 1.202321726302178e-001	 2.620917896814745e+001
 1.016767288444116e+000	 1.296506120275883e-001	 2.608832217541122e+001
 1.015519369808391e+000	 1.390877765708514e-001	 2.595392767072444e+001
 1.014179536765429e+000	 1.485424762487834e-001	 2.580593683043366e+001
 1.012747122214324e+000	 1.580135009578730e-001	 2.564429483769540e+001
 1.011221477754013e+000	 1.674996207755580e-001	 2.546895069092919e+001
 1.009601974288847e+000	 1.769995862530690e-001	 2.527985721005345e+001
 1.007888002631199e+000	 1.865121287280096e-001	 2.507697104065073e+001
 1.027078499524128e+000	 9.266238907948500e-002	 2.614283052802330e+001
 1.026185804544039e+000	 1.020747622721364e-001	 2.606619590034632e+001
 1.025203495263784e+000	 1.115094428453806e-001	 2.597630728773415e+001
 1.024130831388303e+000	 1.209652956307342e-001	 2.587309384081893e+001
 1.022967088982800e+000	 1.304411645369716e-001	 2.575648840301614e+001
 1.021711561087324e+000	 1.399358727668273e-001	 2.562642752436223e+001
 1.020363558330993e+000	 1.494482230529114e-001	 2.548285147281503e+001
 1.018922409545211e+000	 1.589769979130328e-001	 2.532570424313859e+001
 1.017387462375251e+000	 1.685209599251013e-001	 2.515493356350425e+001
 1.015758083889515e+000	 1.780788520217576e-001	 2.497049089995175e+001
 1.014033661185820e+000	 1.876493978048591e-001	 2.477233145886414e+001
 1.033303217701885e+000	 9.322397931352272e-002	 2.580958896766186e+001
 1.032405112449000e+000	 1.026933971926002e-001	 2.573688288094053e+001
 1.031416849779075e+000	 1.121852576484942e-001	 2.565100898766864e+001
 1.030337684910417e+000	 1.216984186329123e-001	 2.555189561217683e+001
 1.029166889520747e+000	 1.312317170480148e-001	 2.543947469695624e+001
 1.027903752365509e+000	 1.407839689644315e-001	 2.531368181437896e+001
 1.026547579895815e+000	 1.503539698586061e-001	 2.517445617593440e+001
 1.025097696875384e+000	 1.599404948696673e-001	 2.502174063911058e+001
 1.023553446995823e+000	 1.695422990759969e-001	 2.485548171206076e+001
 1.021914193489587e+000	 1.791581177916453e-001	 2.467562955620560e+001
 1.020179319739934e+000	 1.887866668827233e-001	 2.448213798693386e+001
 1.039527935879150e+000	 9.378556954905211e-002	 2.549119385865165e+001
 1.038624420353377e+000	 1.033120321146414e-001	 2.542234662304403e+001
 1.037630204293712e+000	 1.128610724532421e-001	 2.534041880632507e+001
 1.036544538431826e+000	 1.224315416367520e-001	 2.524533796032875e+001
 1.035366690057957e+000	 1.320222695607179e-001	 2.513703517986122e+001
 1.034095943642944e+000	 1.416320651636639e-001	 2.501544511222270e+001
 1.032731601459895e+000	 1.512597166658673e-001	 2.488050596429775e+001
 1.031272984204843e+000	 1.609039918277765e-001	 2.473215950735040e+001
 1.029719431615729e+000	 1.705636382282448e-001	 2.457035107967204e+001
 1.028070303089062e+000	 1.802373835627320e-001	 2.439502958724144e+001
 1.026324978293541e+000	 1.899239359616020e-001	 2.420614750256693e+001
 1.045752654055923e+000	 9.434715978607323e-002	 2.518740334410140e+001
 1.044843728257173e+000	 1.039306670382599e-001	 2.512234567944216e+001
 1.043843558807697e+000	 1.135368872596240e-001	 2.504429571068404e+001
 1.042751391952530e+000	 1.231646646422535e-001	 2.495318027094553e+001
 1.041566490594429e+000	 1.328128220750807e-001	 2.484892966055627e+001
 1.040288134919629e+000	 1.424801613645245e-001	 2.473147765429865e+001
 1.038915623023234e+000	 1.521654634746952e-001	 2.460076150626935e+001
 1.037448271533587e+000	 1.618674887873604e-001	 2.445672195250504e+001
 1.035885416234970e+000	 1.715849773818449e-001	 2.429930321152822e+001
 1.034226412687940e+000	 1.813166493350177e-001	 2.412845298298057e+001
 1.032470636846640e+000	 1.910612050414955e-001	 2.394412244452219e+001
 1.051977372232205e+000	 9.490875002458604e-002	 2.489798116868540e+001
 1.051063036160387e+000	 1.045493019634557e-001	 2.483664418343051e+001
 1.050056913321028e+000	 1.142127020676400e-001	 2.476240422727805e+001
 1.048958245472530e+000	 1.238977876494167e-001	 2.467518746839840e+001
 1.047766291130164e+000	 1.336033745911034e-001	 2.457492346583164e+001
 1.046480326195565e+000	 1.433282575670133e-001	 2.446154517436710e+001
 1.045099644585831e+000	 1.530712102850897e-001	 2.433498894709338e+001
 1.043623558861619e+000	 1.628309857484191e-001	 2.419519453577127e+001
 1.042051400853544e+000	 1.726063165367973e-001	 2.404210508919330e+001
 1.040382522286221e+000	 1.823959151085023e-001	 2.387566714970609e+001
 1.038616295399233e+000	 1.921984741224037e-001	 2.369583064808200e+001
 1.058202090407995e+000	 9.547034026459059e-002	 2.462269651389165e+001
 1.057282344063019e+000	 1.051679368902289e-001	 2.456501168468205e+001
 1.056270267833706e+000	 1.148885168772901e-001	 2.449451427867532e+001
 1.055165098991823e+000	 1.246309106582416e-001	 2.441112985285607e+001
 1.053966091665163e+000	 1.343939271087860e-001	 2.431478727814936e+001
 1.052672517470751e+000	 1.441763537711304e-001	 2.420541874185626e+001
 1.051283666147685e+000	 1.539769570970509e-001	 2.408295974780934e+001
 1.049798846188935e+000	 1.637944827109525e-001	 2.394734911440878e+001
 1.048217385471454e+000	 1.736276556931020e-001	 2.379852897071157e+001
 1.046538631883905e+000	 1.834751808831860e-001	 2.363644475075804e+001
 1.044761953951317e+000	 1.933357432043265e-001	 2.346104518633083e+001
 9.833053684076398e-001	 1.819630524307584e-001	 2.644505728087146e+001
 9.815404625233627e-001	 1.912545957719429e-001	 2.624454722987034e+001
 9.796822644929402e-001	 2.005558789966087e-001	 2.603045459507028e+001
 9.777302417428043e-001	 2.098656101739950e-001	 2.580288681052359e+001
 9.756838834310224e-001	 2.191824800423044e-001	 2.556195720084440e+001
 9.735427010105087e-001	 2.285051624109132e-001	 2.530778487890659e+001
 9.713062287851815e-001	 2.378323145820489e-001	 2.504049463778180e+001
 9.689740244583481e-001	 2.471625777918797e-001	 2.476021683715862e+001
 9.665456696725904e-001	 2.564945776709276e-001	 2.446708728450114e+001
 9.640207705404181e-001	 2.658269247236917e-001	 2.416124711121983e+001
 9.613989581649598e-001	 2.751582148273362e-001	 2.384284264414198e+001
 9.894510269642906e-001	 1.831003215035492e-001	 2.608008471062689e+001
 9.876750904185349e-001	 1.924499369918288e-001	 2.588757143577795e+001
 9.858052786507170e-001	 2.018093532378621e-001	 2.568151927796868e+001
 9.838410557586839e-001	 2.111772702363209e-001	 2.546202666325092e+001
 9.817819077077410e-001	 2.205523705425216e-001	 2.522919772928207e+001
 9.796273428973832e-001	 2.299333196771487e-001	 2.498314222740764e+001
 9.773768927209279e-001	 2.393187665505685e-001	 2.472397541933039e+001
 9.750301121173280e-001	 2.487073439066751e-001	 2.445181796861267e+001
 9.725865801144320e-001	 2.580976687861810e-001	 2.416679582727303e+001
 9.700459003629525e-001	 2.674883430092384e-001	 2.386904011775224e+001
 9.674077016604118e-001	 2.768779536772433e-001	 2.355868701053898e+001
 9.955966855204339e-001	 1.842375905773546e-001	 2.573058985804767e+001
 9.938097183132900e-001	 1.936452782125293e-001	 2.554584783079500e+001
 9.919282928081482e-001	 2.030628274797300e-001	 2.534761203915442e+001
 9.899518697742694e-001	 2.124889302990612e-001	 2.513597201493683e+001
 9.878799319841977e-001	 2.219222610429529e-001	 2.491102282219730e+001
 9.857119847840075e-001	 2.313614769433978e-001	 2.467286496357795e+001
 9.834475566564155e-001	 2.408052185189014e-001	 2.442160428158425e+001
 9.810861997760217e-001	 2.502521100210835e-001	 2.415735185504505e+001
 9.786274905559385e-001	 2.597007599008472e-001	 2.388022389102077e+001
 9.760710301850823e-001	 2.691497612939977e-001	 2.359034161243821e+001
 9.734164451553701e-001	 2.785976925261632e-001	 2.328783114174465e+001
 1.001742344076070e+000	 1.853748596521748e-001	 2.539630558622269e+001
 9.999443462076284e-001	 1.948406194340444e-001	 2.521911289499251e+001
 9.980513069652333e-001	 2.043163017222124e-001	 2.502847298066302e+001
 9.960626837895606e-001	 2.138005903622157e-001	 2.482446659313650e+001
 9.939779562603913e-001	 2.232921515435979e-001	 2.460717983476491e+001
 9.917966266703808e-001	 2.327896342096607e-001	 2.437670407083038e+001
 9.895182205916453e-001	 2.422916704870477e-001	 2.413313583530469e+001
 9.871422874344286e-001	 2.517968761351050e-001	 2.387657673214191e+001
 9.846684009971100e-001	 2.613038510149262e-001	 2.360713333237329e+001
 9.820961600068084e-001	 2.708111795779695e-001	 2.332491706728498e+001
 9.794251886498347e-001	 2.803174313740955e-001	 2.303004411797446e+001
 1.007888002631199e+000	 1.865121287280096e-001	 2.507697104065073e+001
 1.006078974101550e+000	 1.960359606563743e-001	 2.490710929342295e+001
 1.004174321121972e+000	 2.055697759653093e-001	 2.472384829225646e+001
 1.002173497804557e+000	 2.151122504257846e-001	 2.452726011609199e+001
 1.000075980536322e+000	 2.246620420444571e-001	 2.431742201606534e+001
 9.978812685565039e-001	 2.342177914759371e-001	 2.409441633000326e+001
 9.955888845266165e-001	 2.437781224550072e-001	 2.385833039254269e+001
 9.931983750925488e-001	 2.533416422487393e-001	 2.360925644113220e+001
 9.907093114379462e-001	 2.629069421284179e-001	 2.334729151818821e+001
 9.881212898281303e-001	 2.724725978611540e-001	 2.307253736969134e+001
 9.854339321438055e-001	 2.820371702210403e-001	 2.278510034051970e+001
 1.014033661185820e+000	 1.876493978048591e-001	 2.477233145886414e+001
 1.012213601995054e+000	 1.972313018795186e-001	 2.460958568869683e+001
 1.010297335278366e+000	 2.068232502090207e-001	 2.443349006694693e+001
 1.008284311819260e+000	 2.164239104897676e-001	 2.424410811119650e+001
 1.006174004811991e+000	 2.260319325455302e-001	 2.404150833048140e+001
 1.003965910442377e+000	 2.356459487422272e-001	 2.382576414368069e+001
 1.001659548461329e+000	 2.452645744227801e-001	 2.359695379387297e+001
 9.992544627503827e-001	 2.548864083619868e-001	 2.335516025892288e+001
 9.967502218784475e-001	 2.645100332413224e-001	 2.310047115857518e+001
 9.941464196490478e-001	 2.741340161435512e-001	 2.283297865834485e+001
 9.914426756372828e-001	 2.837569090669979e-001	 2.255277937050304e+001
 1.020179319739934e+000	 1.887866668827233e-001	 2.448213798693386e+001
 1.018348229888142e+000	 1.984266431034778e-001	 2.432629656033300e+001
 1.016420349434413e+000	 2.080767244533466e-001	 2.415715612318768e+001
 1.014395125833667e+000	 2.177355705541648e-001	 2.397477174001973e+001
 1.012272029087398e+000	 2.274018230468172e-001	 2.377920328555058e+001
 1.010050552327999e+000	 2.370741060085309e-001	 2.357051536686298e+001
 1.007730212395783e+000	 2.467510263903663e-001	 2.334877724187191e+001
 1.005310550407930e+000	 2.564311744748473e-001	 2.311406273437367e+001
 1.002791132318613e+000	 2.661131243536397e-001	 2.286645014595443e+001
 1.000171549469561e+000	 2.757954344251608e-001	 2.260602216505007e+001
 9.974514191302661e-001	 2.854766479119678e-001	 2.233286577346195e+001
 1.026324978293541e+000	 1.899239359616020e-001	 2.420614750256693e+001
 1.024482857780812e+000	 1.996219843282515e-001	 2.405700203059979e+001
 1.022543363590114e+000	 2.093301986982870e-001	 2.389460983345278e+001
 1.020505939847781e+000	 2.190472306189765e-001	 2.371901762962004e+001
 1.018370053362542e+000	 2.287717135483183e-001	 2.353027676600239e+001
 1.016135194213371e+000	 2.385022632748483e-001	 2.332844314372039e+001
 1.013800876329979e+000	 2.482374783577657e-001	 2.311357714057848e+001
 1.011366638065190e+000	 2.579759405873207e-001	 2.288574353045410e+001
 1.008832042758445e+000	 2.677162154653696e-001	 2.264501139989778e+001
 1.006196679289671e+000	 2.774568527059831e-001	 2.239145406224055e+001
 1.003460162622756e+000	 2.871963867559504e-001	 2.212514896951562e+001
 1.032470636846640e+000	 1.910612050414955e-001	 2.394412244452219e+001
 1.030617485673066e+000	 2.008173255538399e-001	 2.380146769657594e+001
 1.028666377745470e+000	 2.105836729438419e-001	 2.364561995893869e+001
 1.026616753861601e+000	 2.203588906842023e-001	 2.347661770988097e+001
 1.024468077637423e+000	 2.301416040500333e-001	 2.329450387372267e+001
 1.022219836098492e+000	 2.399304205411792e-001	 2.309932575017750e+001
 1.019871540263917e+000	 2.497239303249786e-001	 2.289113494068892e+001
 1.017422725722164e+000	 2.595207066994071e-001	 2.266998727203764e+001
 1.014872953197941e+000	 2.693193065765124e-001	 2.243594271751110e+001
 1.012221809109376e+000	 2.791182709860179e-001	 2.218906531593591e+001
 1.009468906114752e+000	 2.889161255989454e-001	 2.192942308888360e+001
 1.038616295399233e+000	 1.921984741224037e-001	 2.369583064808200e+001
 1.036752113564902e+000	 2.020126667802429e-001	 2.355946446817405e+001
 1.034789391900480e+000	 2.118371471900113e-001	 2.340996049013481e+001
 1.032727567875125e+000	 2.216705507498424e-001	 2.324734905662288e+001
 1.030566101912042e+000	 2.315114945519622e-001	 2.307166477339992e+001
 1.028304477983363e+000	 2.413585778075239e-001	 2.288294644208606e+001
 1.025942204197595e+000	 2.512103822920045e-001	 2.268123699024734e+001
 1.023478813378851e+000	 2.610654728111065e-001	 2.246658339910004e+001
 1.020913863637101e+000	 2.709223976870679e-001	 2.223903662912831e+001
 1.018246938928678e+000	 2.807796892652655e-001	 2.199865154391975e+001
 1.015477649606254e+000	 2.906358644409532e-001	 2.174548683253357e+001
 1.044761953951317e+000	 1.933357432043265e-001	 2.346104518633083e+001
 1.042886741456322e+000	 2.032080080074606e-001	 2.333076841188056e+001
 1.040912406055143e+000	 2.130906214367952e-001	 2.318741049302036e+001
 1.038838381888356e+000	 2.229822108158968e-001	 2.303099374025186e+001
 1.036664126186398e+000	 2.328813850541052e-001	 2.286154454361925e+001
 1.034389119867983e+000	 2.427867350738821e-001	 2.267909330875650e+001
 1.032012868131015e+000	 2.526968342588440e-001	 2.248367439060580e+001
 1.029534901035252e+000	 2.626102389224190e-001	 2.227532602509845e+001
 1.026954774075927e+000	 2.725254887970361e-001	 2.205409025909900e+001
 1.024272068747575e+000	 2.824411075437255e-001	 2.182001287892312e+001
 1.021486393097262e+000	 2.923556032819735e-001	 2.157314333774740e+001
 9.613989581649598e-001	 2.751582148273362e-001	 2.384284264414198e+001
 9.586798891490923e-001	 2.844870297499801e-001	 2.354337443729503e+001
 9.558632460948671e-001	 2.938119376861946e-001	 2.323232940841436e+001
 9.529487380907490e-001	 3.031314938110319e-001	 2.290993961328294e+001
 9.499361011842371e-001	 3.124442408536596e-001	 2.257644207182823e+001
 9.468250988417173e-001	 3.217487096881426e-001	 2.223207855070853e+001
 9.436155223939604e-001	 3.310434199417801e-001	 2.187709534156462e+001
 9.403071914665516e-001	 3.403268806206379e-001	 2.151174303538084e+001
 9.368999543945393e-001	 3.495975907518840e-001	 2.113627629341296e+001
 9.333936886206079e-001	 3.588540400425035e-001	 2.075095361514879e+001
 9.297883010760839e-001	 3.680947095539379e-001	 2.035603710377557e+001
 9.674077016604118e-001	 2.768779536772433e-001	 2.355868701053898e+001
 9.646716384633743e-001	 2.862650736941871e-001	 2.326892076301130e+001
 9.618373913900709e-001	 2.956482623056765e-001	 2.296767963061505e+001
 9.589046677107685e-001	 3.050260656566050e-001	 2.265519184436925e+001
 9.558732018232626e-001	 3.143970173681948e-001	 2.233169043339634e+001
 9.527427557156019e-001	 3.237596391324711e-001	 2.199741300777180e+001
 9.495131194143737e-001	 3.331124413244013e-001	 2.165260153732320e+001
 9.461841114178221e-001	 3.424539236313368e-001	 2.129750212683166e+001
 9.427555791130885e-001	 3.517825756993629e-001	 2.093236478809989e+001
 9.392273991768735e-001	 3.610968777961314e-001	 2.055744320935896e+001
 9.355994779588220e-001	 3.703953014897153e-001	 2.017299452249451e+001
 9.734164451553701e-001	 2.785976925261632e-001	 2.328783114174465e+001
 9.706633877770767e-001	 2.880431176372358e-001	 2.300767893747192e+001
 9.678115366846392e-001	 2.974845869238874e-001	 2.271615475488846e+001
 9.648605973301261e-001	 3.069206375008531e-001	 2.241348304175582e+001
 9.618103024616286e-001	 3.163497938814106e-001	 2.209989287649990e+001
 9.586604125888596e-001	 3.257705685755453e-001	 2.177561775125601e+001
 9.554107164342227e-001	 3.351814627058936e-001	 2.144089535114940e+001
 9.520610313686210e-001	 3.445809666410922e-001	 2.109596733027331e+001
 9.486112038312892e-001	 3.539675606461448e-001	 2.074107908483496e+001
 9.450611097329433e-001	 3.633397155493698e-001	 2.037647952394936e+001
 9.414106548415501e-001	 3.726958934254723e-001	 2.000242083856705e+001
 9.794251886498347e-001	 2.803174313740955e-001	 2.303004411797446e+001
 9.766551370902001e-001	 2.898211615791261e-001	 2.275941946133301e+001
 9.737856819785720e-001	 2.993209115408273e-001	 2.247752672045996e+001
 9.708165269488213e-001	 3.088152093437767e-001	 2.218458660084685e+001
 9.677474030993347e-001	 3.183025703933070e-001	 2.188082426978847e+001
 9.645780694614899e-001	 3.277814980173654e-001	 2.156646913955507e+001
 9.613083134535068e-001	 3.372504840862564e-001	 2.124175464708923e+001
 9.579379513189482e-001	 3.467080096499040e-001	 2.090691803069559e+001
 9.544668285491412e-001	 3.561525455922294e-001	 2.056220010420387e+001
 9.508948202888189e-001	 3.655825533022183e-001	 2.020784502909000e+001
 9.472218317242678e-001	 3.749964853612087e-001	 1.984410008504892e+001
 9.854339321438055e-001	 2.820371702210403e-001	 2.278510034051970e+001
 9.826468864027443e-001	 2.915992055198580e-001	 2.252391811572342e+001
 9.797598272718694e-001	 3.011572361564964e-001	 2.225157270633914e+001
 9.767724565668539e-001	 3.107097811853754e-001	 2.196828111607423e+001
 9.736845037363812e-001	 3.202553469038840e-001	 2.167426464013213e+001
 9.704957263334932e-001	 3.297924274579311e-001	 2.136974864844379e+001
 9.672059104722268e-001	 3.393195054654904e-001	 2.105496236571429e+001
 9.638148712688032e-001	 3.488350526577722e-001	 2.073013864876171e+001
 9.603224532666447e-001	 3.583375305376169e-001	 2.039551376163472e+001
 9.567285308444996e-001	 3.678253910546772e-001	 2.005132714900219e+001
 9.530330086069752e-001	 3.772970772969245e-001	 1.969782120831420e+001
 9.914426756372828e-001	 2.837569090669979e-001	 2.255277937050304e+001
 9.886386357147093e-001	 2.933772494594315e-001	 2.230095580223047e+001
 9.857339725645314e-001	 3.029935607708943e-001	 2.203807497253839e+001
 9.827283861842243e-001	 3.126043530256493e-001	 2.176435022335129e+001
 9.796216043727680e-001	 3.222081234131418e-001	 2.147999901631199e+001
 9.764133832048695e-001	 3.318033568972424e-001	 2.118524271600509e+001
 9.731035074903818e-001	 3.413885268435949e-001	 2.088030637028752e+001
 9.696917912181867e-001	 3.509620956646967e-001	 2.056541848821228e+001
 9.661780779837998e-001	 3.605225154823070e-001	 2.024081081603963e+001
 9.625622413999857e-001	 3.700682288067466e-001	 1.990671811183594e+001
 9.588441854896722e-001	 3.795976692326198e-001	 1.956337791916674e+001
 9.974514191302661e-001	 2.854766479119678e-001	 2.233286577346195e+001
 9.946303850260952e-001	 2.951552933978466e-001	 2.209031838866901e+001
 9.917081178565577e-001	 3.048298853840213e-001	 2.183682070703067e+001
 9.886843158009320e-001	 3.144989248645985e-001	 2.157258244822081e+001
 9.855587050084953e-001	 3.241608999210802e-001	 2.129781727836009e+001
 9.823310400756183e-001	 3.338142863352995e-001	 2.101274259316364e+001
 9.790011045079724e-001	 3.434575482205705e-001	 2.071757929848965e+001
 9.755687111670983e-001	 3.530891386706777e-001	 2.041255158878462e+001
 9.720337027006057e-001	 3.627075004262999e-001	 2.009788672392624e+001
 9.683959519552767e-001	 3.723110665584262e-001	 1.977381480497316e+001
 9.646553623723591e-001	 3.818982611682945e-001	 1.944056854933345e+001
 1.003460162622756e+000	 2.871963867559504e-001	 2.212514896951562e+001
 1.000622134336902e+000	 2.969333373351034e-001	 2.189179656039210e+001
 9.976822631479484e-001	 3.066662099958773e-001	 2.164760187820583e+001
 9.946402454169778e-001	 3.163934967022228e-001	 2.139277105945903e+001
 9.914958056435629e-001	 3.261136764276992e-001	 2.112751401231242e+001
 9.882486969457400e-001	 3.358252157721023e-001	 2.085204419958829e+001
 9.848987015249984e-001	 3.455265695964168e-001	 2.056657841947247e+001
 9.814456311155381e-001	 3.552161816757151e-001	 2.027133658441647e+001
 9.778893274170635e-001	 3.648924853695956e-001	 1.996654149875145e+001
 9.742296625103727e-001	 3.745539043097161e-001	 1.965241863552971e+001
 9.704665392550355e-001	 3.841988531039485e-001	 1.932919591311327e+001
 1.009468906114752e+000	 2.889161255989454e-001	 2.192942308888360e+001
 1.006613883647129e+000	 2.987113812712017e-001	 2.170518567691202e+001
 1.003656408438704e+000	 3.085025346064623e-001	 2.147021509259613e+001
 1.000596175032361e+000	 3.182880685385224e-001	 2.122471392790804e+001
 9.974329062779707e-001	 3.280664529329989e-001	 2.096888837014902e+001
 9.941663538152350e-001	 3.378361452076508e-001	 2.070294798474161e+001
 9.907962985414597e-001	 3.475955909711339e-001	 2.042710549601744e+001
 9.873225510635061e-001	 3.573432246798089e-001	 2.014157656651393e+001
 9.837449521331725e-001	 3.670774703121942e-001	 1.984657957529795e+001
 9.800633730652741e-001	 3.767967420606166e-001	 1.954233539584012e+001
 9.762777161377017e-001	 3.864994450395821e-001	 1.922906717396750e+001
 1.015477649606254e+000	 2.906358644409532e-001	 2.174548683253357e+001
 1.012605632956777e+000	 3.004894252061417e-001	 2.153028563361115e+001
 1.009630553728824e+000	 3.103388592157763e-001	 2.130446145765321e+001
 1.006552104647081e+000	 3.201826403734970e-001	 2.106821339031973e+001
 1.003370006911719e+000	 3.300192294369790e-001	 2.082174393470748e+001
 1.000084010684102e+000	 3.398470746419450e-001	 2.056525879386224e+001
 9.966938955573562e-001	 3.496646123447218e-001	 2.029896665158800e+001
 9.931994710110024e-001	 3.594702676829590e-001	 2.002307895207375e+001
 9.896005768489328e-001	 3.692624552540955e-001	 1.973780967886577e+001
 9.858970836199806e-001	 3.790395798111272e-001	 1.944337513371663e+001
 9.820888930203577e-001	 3.888000369751951e-001	 1.913999371584607e+001
 1.021486393097262e+000	 2.923556032819735e-001	 2.157314333774740e+001
 1.018597382265846e+000	 3.022674691399233e-001	 2.136690072833435e+001
 1.015604699018308e+000	 3.121751838238193e-001	 2.115014644936807e+001
 1.012508034261140e+000	 3.220772122071471e-001	 2.092307611800587e+001
 1.009307107544807e+000	 3.319720059396401e-001	 2.068588858936297e+001
 1.006001667552343e+000	 3.418580040749850e-001	 2.043878573867749e+001
 1.002591492572689e+000	 3.517336337171807e-001	 2.018197224207446e+001
 9.990763909580268e-001	 3.615973106851656e-001	 1.991565535645995e+001
 9.954562015643447e-001	 3.714474401952996e-001	 1.964004469908053e+001
 9.917307941744925e-001	 3.812824175612483e-001	 1.935535202728868e+001
 9.879000699030032e-001	 3.911006289107875e-001	 1.906179101905606e+001
 9.297883010760839e-001	 3.680947095539379e-001	 2.035603710377557e+001
 9.260837285441588e-001	 3.773180723910820e-001	 2.001000709492801e+001
 9.222799380044703e-001	 3.865225944084204e-001	 1.965311072492279e+001
 9.183769269585733e-001	 3.957067349304588e-001	 1.928560724511838e+001
 9.143747237357484e-001	 4.048689474837917e-001	 1.890775990429546e+001
 9.102733877783561e-001	 4.140076805434688e-001	 1.851983573200472e+001
 9.060730099062141e-001	 4.231213782919209e-001	 1.812210532090056e+001
 9.017737125594307e-001	 4.322084813897782e-001	 1.771484260849240e+001
 8.973756500191495e-001	 4.412674277578942e-001	 1.729832465873968e+001
 8.928790086056798e-001	 4.502966533698555e-001	 1.687283144391298e+001
 8.882840068535240e-001	 4.592945930542355e-001	 1.643864562713672e+001
 9.355994779588220e-001	 3.703953014897153e-001	 2.017299452249451e+001
 9.318717518471498e-001	 3.796763103422681e-001	 1.983740458049163e+001
 9.280441876152455e-001	 3.889383606202209e-001	 1.949085070538748e+001
 9.241167827490499e-001	 3.981799020188594e-001	 1.913357224211040e+001
 9.200895657549018e-001	 4.073993783993218e-001	 1.876581236887401e+001
 9.159625964466770e-001	 4.165952285396289e-001	 1.838781789880613e+001
 9.117359662118176e-001	 4.257658868983534e-001	 1.799983908111374e+001
 9.074097982556840e-001	 4.349097843902569e-001	 1.760212940219428e+001
 9.029842478236767e-001	 4.440253491731999e-001	 1.719494538709643e+001
 8.984595024006081e-001	 4.531110074456053e-001	 1.677854640173072e+001
 8.938357818868211e-001	 4.621651842537271e-001	 1.635319445621922e+001
 9.414106548415501e-001	 3.726958934254723e-001	 2.000242083856705e+001
 9.376597751503261e-001	 3.820345482938096e-001	 1.967691205022213e+001
 9.338084372263915e-001	 3.913541268327034e-001	 1.934034434446235e+001
 9.298566385400727e-001	 4.006530691082200e-001	 1.899293731963169e+001
 9.258044077747668e-001	 4.099298093160402e-001	 1.863491424161841e+001
 9.216518051158653e-001	 4.191827765371557e-001	 1.826650186360966e+001
 9.173989225184354e-001	 4.284103955062817e-001	 1.788793024593475e+001
 9.130458839530871e-001	 4.376110873923096e-001	 1.749943257638484e+001
 9.085928456294795e-001	 4.467832705901070e-001	 1.710124499139121e+001
 9.040399961969269e-001	 4.559253615229333e-001	 1.669360639843844e+001
 8.993875569216142e-001	 4.650357754547226e-001	 1.627675830007635e+001
 9.472218317242678e-001	 3.749964853612087e-001	 1.984410008504892e+001
 9.434477984536868e-001	 3.843927862457061e-001	 1.952832030977477e+001
 9.395726868379075e-001	 3.937698930458680e-001	 1.920138920881636e+001
 9.355964943316413e-001	 4.031262361985404e-001	 1.886350679053694e+001
 9.315192497953437e-001	 4.124602402339468e-001	 1.851487656346823e+001
 9.273410137859220e-001	 4.217703245360497e-001	 1.815570537404019e+001
 9.230618788260666e-001	 4.310549041157054e-001	 1.778620324495133e+001
 9.186819696516398e-001	 4.403123903959360e-001	 1.740658321454820e+001
 9.142014434365575e-001	 4.495411920086156e-001	 1.701706117757515e+001
 9.096204899946369e-001	 4.587397156018397e-001	 1.661785572764511e+001
 9.049393319579037e-001	 4.679063666572221e-001	 1.620918800177486e+001
 9.530330086069752e-001	 3.772970772969245e-001	 1.969782120831420e+001
 9.492358217572325e-001	 3.867510241979578e-001	 1.939142491070831e+001
 9.453369364497942e-001	 3.961856592597147e-001	 1.907378744427549e+001
 9.413363501237561e-001	 4.055994032898206e-001	 1.874508938083755e+001
 9.372340918166331e-001	 4.149906711530419e-001	 1.840551462334659e+001
 9.330302224568464e-001	 4.243578725363106e-001	 1.805525026144023e+001
 9.287248351347118e-001	 4.336994127266246e-001	 1.769448642819045e+001
 9.243180553513419e-001	 4.430136934011362e-001	 1.732341615839700e+001
 9.198100412449111e-001	 4.522991134287255e-001	 1.694223524876435e+001
 9.152009837937379e-001	 4.615540696823244e-001	 1.655114212029055e+001
 9.104911069956888e-001	 4.707769578612255e-001	 1.615033768318581e+001
 9.588441854896722e-001	 3.795976692326198e-001	 1.956337791916674e+001
 9.550238450609632e-001	 3.891092621505646e-001	 1.926602600667012e+001
 9.511011860620510e-001	 3.986014254742433e-001	 1.895734563705973e+001
 9.470762059164168e-001	 4.080725703820609e-001	 1.863749809596905e+001
 9.429489338386340e-001	 4.175211020733251e-001	 1.830664782943319e+001
 9.387194311286392e-001	 4.269454205379385e-001	 1.796496231712075e+001
 9.343877914443709e-001	 4.363439213390395e-001	 1.761261194731680e+001
 9.299541410521941e-001	 4.457149964079103e-001	 1.724976989398576e+001
 9.254186390545400e-001	 4.550570348504373e-001	 1.687661199623511e+001
 9.207814775942297e-001	 4.643684237643875e-001	 1.649331664048328e+001
 9.160428820349702e-001	 4.736475490667329e-001	 1.610006464562621e+001
 9.646553623723591e-001	 3.818982611682945e-001	 1.944056854933345e+001
 9.608118683648785e-001	 3.914675001035264e-001	 1.915192821477875e+001
 9.568654356746783e-001	 4.010171916894542e-001	 1.885187468003640e+001
 9.528160617096242e-001	 4.105457374752611e-001	 1.854055009189342e+001
 9.486637758613471e-001	 4.200515329947967e-001	 1.821809958509050e+001
 9.444086398012995e-001	 4.295329685409332e-001	 1.788467117308540e+001
 9.400507477550439e-001	 4.389884299529501e-001	 1.754041564112594e+001
 9.355902267541963e-001	 4.484162994162584e-001	 1.718548644194257e+001
 9.310272368654446e-001	 4.578149562737503e-001	 1.682003959435897e+001
 9.263619713961120e-001	 4.671827778480285e-001	 1.644423358510402e+001
 9.215946570757476e-001	 4.765181402737442e-001	 1.605822927409287e+001
 9.704665392550355e-001	 3.841988531039485e-001	 1.932919591311327e+001
 9.665998916689790e-001	 3.938257380568436e-001	 1.904894048198742e+001
 9.626296852876759e-001	 4.034329579053472e-001	 1.875718964377879e+001
 9.585559175033773e-001	 4.130189045694211e-001	 1.845406655083156e+001
 9.543786178847724e-001	 4.225819639174567e-001	 1.813969716924756e+001
 9.500978484748277e-001	 4.321205165452952e-001	 1.781421018703921e+001
 9.457137040667309e-001	 4.416329385683561e-001	 1.747773692515085e+001
 9.412263124573480e-001	 4.511176024261802e-001	 1.713041125164274e+001
 9.366358346776241e-001	 4.605728776986650e-001	 1.677236949931224e+001
 9.319424651993858e-001	 4.699971319332482e-001	 1.640375038701609e+001
 9.271464321180208e-001	 4.793887314822593e-001	 1.602469494493647e+001
 9.762777161377017e-001	 3.864994450395821e-001	 1.922906717396750e+001
 9.723879149732645e-001	 3.961839760105157e-001	 1.895687595621956e+001
 9.683939349010442e-001	 4.058487241219221e-001	 1.867310965222972e+001
 9.642957732976766e-001	 4.154920716645411e-001	 1.837787256143406e+001
 9.600934599089094e-001	 4.251123948413049e-001	 1.807127162105569e+001
 9.557870571492237e-001	 4.347080645510238e-001	 1.775341633150492e+001
 9.513766603794318e-001	 4.442774471852578e-001	 1.742441868521178e+001
 9.468623981616492e-001	 4.538189054376757e-001	 1.708439309916340e+001
 9.422444324910795e-001	 4.633307991251810e-001	 1.673345635140332e+001
 9.375229590040501e-001	 4.728114860200457e-001	 1.637172752173273e+001
 9.326982071617905e-001	 4.822593226922785e-001	 1.599932793683324e+001
 9.820888930203577e-001	 3.888000369751951e-001	 1.913999371584607e+001
 9.781759382777346e-001	 3.985422139645430e-001	 1.887555186208007e+001
 9.741581845147824e-001	 4.082644903391791e-001	 1.859945776277914e+001
 9.700356290925217e-001	 4.179652387606209e-001	 1.831179700320667e+001
 9.658083019337587e-001	 4.276428257663415e-001	 1.801265762863921e+001
 9.614762658244883e-001	 4.372956125581196e-001	 1.770213008687582e+001
 9.570396166931465e-001	 4.469219558036551e-001	 1.738030717474453e+001
 9.524984838671006e-001	 4.565202084507454e-001	 1.704728398885972e+001
 9.478530303058101e-001	 4.660887205532986e-001	 1.670315788086753e+001
 9.431034528101057e-001	 4.756258401084219e-001	 1.634802841739745e+001
 9.382499822070561e-001	 4.851299139038015e-001	 1.598199734491750e+001
 9.879000699030032e-001	 3.911006289107875e-001	 1.906179101905606e+001
 9.839639615823895e-001	 4.009004519189254e-001	 1.880478938095300e+001
 9.799224341288911e-001	 4.106802565571183e-001	 1.853606085057486e+001
 9.757754848879133e-001	 4.204384058576606e-001	 1.825567243501443e+001
 9.715231439593195e-001	 4.301732566925663e-001	 1.796369342177298e+001
 9.671654745006203e-001	 4.398831605665822e-001	 1.766019533824293e+001
 9.627025730078750e-001	 4.495664644235478e-001	 1.734525191575353e+001
 9.581345695737014e-001	 4.592215114653888e-001	 1.701893905841610e+001
 9.534616281218166e-001	 4.688466419830178e-001	 1.668133481698687e+001
 9.486839466175517e-001	 4.784401941983761e-001	 1.633251936794254e+001
 9.438017572538180e-001	 4.880005051168285e-001	 1.597257499794428e+001
 8.882840068535240e-001	 4.592945930542355e-001	 1.643864562713672e+001
 8.835908956630776e-001	 4.682596813065159e-001	 1.600244526249250e+001
 8.787999584278387e-001	 4.771903531077779e-001	 1.556730314798283e+001
 8.739115111371587e-001	 4.860850447508238e-001	 1.513397145349698e+001
 8.689259024546855e-001	 4.949421946742140e-001	 1.470319923895681e+001
 8.638435137714190e-001	 5.037602443012851e-001	 1.427573171361670e+001
 8.586647592332956e-001	 5.125376388839769e-001	 1.385230949981190e+001
 8.533900857430293e-001	 5.212728283505861e-001	 1.343366790238537e+001
 8.480199729359588e-001	 5.299642681565356e-001	 1.302053618502621e+001
 8.425549331296908e-001	 5.386104201372436e-001	 1.261363685472820e+001
 8.369955112473729e-001	 5.472097533621585e-001	 1.221368495556480e+001
 8.938357818868211e-001	 4.621651842537271e-001	 1.635319445621922e+001
 8.891133387508623e-001	 4.711863043084627e-001	 1.593427340729947e+001
 8.842924581574628e-001	 4.801727928093434e-001	 1.551616988923972e+001
 8.793734580709076e-001	 4.891230762760006e-001	 1.509961336224516e+001
 8.743566893339935e-001	 4.980355833872363e-001	 1.468533011907007e+001
 8.692425357214143e-001	 5.069087458252820e-001	 1.427404256743818e+001
 8.640314139675195e-001	 5.157409991249025e-001	 1.386646851731621e+001
 8.587237737681656e-001	 5.245307835264460e-001	 1.346332047424514e+001
 8.533200977564116e-001	 5.332765448319313e-001	 1.306530493991689e+001
 8.478209014518509e-001	 5.419767352632480e-001	 1.267312172117601e+001
 8.422267331834006e-001	 5.506298143215286e-001	 1.228746324859935e+001
 8.993875569216142e-001	 4.650357754547226e-001	 1.627675830007635e+001
 8.946357818402336e-001	 4.741129273118137e-001	 1.587471978451835e+001
 8.897849578887436e-001	 4.831552325122127e-001	 1.547326148677736e+001
 8.848354050063640e-001	 4.921611078023813e-001	 1.507309032467795e+001
 8.797874762150402e-001	 5.011289721013621e-001	 1.467490998868839e+001
 8.746415576731595e-001	 5.100572473502825e-001	 1.427942024731208e+001
 8.693980687034842e-001	 5.189443593667312e-001	 1.388731625774403e+001
 8.640574617950126e-001	 5.277887387031086e-001	 1.349928788296264e+001
 8.586202225785263e-001	 5.365888215080297e-001	 1.311601901641042e+001
 8.530868697756032e-001	 5.453430503898551e-001	 1.273818691540336e+001
 8.474579551209306e-001	 5.540498752814010e-001	 1.236646154438875e+001
 9.049393319579037e-001	 4.679063666572221e-001	 1.620918800177486e+001
 9.001582249311910e-001	 4.770395503165684e-001	 1.582364304655958e+001
 8.952774576216817e-001	 4.861376722163857e-001	 1.543844437002746e+001
 8.902973519435287e-001	 4.951991393299655e-001	 1.505427651095620e+001
 8.852182630978255e-001	 5.042223608165914e-001	 1.467182071842722e+001
 8.800405796266542e-001	 5.132057488762861e-001	 1.429175428004278e+001
 8.747647234411891e-001	 5.221477196094631e-001	 1.391474985582480e+001
 8.693911498235714e-001	 5.310466938805744e-001	 1.354147481893044e+001
 8.639203474023033e-001	 5.399010981848309e-001	 1.317259060430243e+001
 8.583528381009483e-001	 5.487093655170648e-001	 1.280875206635787e+001
 8.526891770599635e-001	 5.574699362417763e-001	 1.245060684679781e+001
 9.104911069956888e-001	 4.707769578612255e-001	 1.615033768318581e+001
 9.056806680237345e-001	 4.799661733227270e-001	 1.578090493575559e+001
 9.007699573562762e-001	 4.891201119218625e-001	 1.541158787061950e+001
 8.957592988824005e-001	 4.982371708587535e-001	 1.504304880696553e+001
 8.906490499823491e-001	 5.073157495329240e-001	 1.467594670949710e+001
 8.854396015818979e-001	 5.163542504032929e-001	 1.431093653933589e+001
 8.801313781806343e-001	 5.253510798530979e-001	 1.394866861102465e+001
 8.747248378538414e-001	 5.343046490588429e-001	 1.358978795673271e+001
 8.692204722277422e-001	 5.432133748623349e-001	 1.323493369874650e+001
 8.636188064278857e-001	 5.520756806448774e-001	 1.288473843131267e+001
 8.579203990004989e-001	 5.608899972026541e-001	 1.253982761287573e+001
 9.160428820349702e-001	 4.736475490667329e-001	 1.610006464562621e+001
 9.112031111178643e-001	 4.828927963302895e-001	 1.574637019072626e+001
 9.062624570925274e-001	 4.921025516286432e-001	 1.539256413443533e+001
 9.012212458229799e-001	 5.012752023887450e-001	 1.503928673202159e+001
 8.960798368686113e-001	 5.104091382503604e-001	 1.468717481701982e+001
 8.908386235388917e-001	 5.195027519313031e-001	 1.433686117468158e+001
 8.854980329218201e-001	 5.285544400976361e-001	 1.398897392194904e+001
 8.800585258858227e-001	 5.375626042379142e-001	 1.364413589501874e+001
 8.745205970548431e-001	 5.465256515405417e-001	 1.330296404554664e+001
 8.688847747564155e-001	 5.554419957732926e-001	 1.296606884652259e+001
 8.631516209425372e-001	 5.643100581640347e-001	 1.263405370882066e+001
 9.215946570757476e-001	 4.765181402737442e-001	 1.605822927409287e+001
 9.167255542135807e-001	 4.858194193392559e-001	 1.571990645612963e+001
 9.117549568304357e-001	 4.950849913367277e-001	 1.538124803684220e+001
 9.066831927652669e-001	 5.043132339199404e-001	 1.504287235954970e+001
 9.015106237566121e-001	 5.135025269689000e-001	 1.470539427611434e+001
 8.962376454976346e-001	 5.226512534603166e-001	 1.436942454280605e+001
 8.908646876647466e-001	 5.317578003430773e-001	 1.403556922311511e+001
 8.853922139195154e-001	 5.408205594177888e-001	 1.370442909854856e+001
 8.798207218836061e-001	 5.498379282194513e-001	 1.337659908842554e+001
 8.741507430865380e-001	 5.588083109023104e-001	 1.305266767966524e+001
 8.683828428860779e-001	 5.677301191259179e-001	 1.273321636753511e+001
 9.271464321180208e-001	 4.793887314822593e-001	 1.602469494493647e+001
 9.222479973108830e-001	 4.887460423496261e-001	 1.570138419565431e+001
 9.172474565700006e-001	 4.980674310461160e-001	 1.537751710097204e+001
 9.121451397092617e-001	 5.073512654523392e-001	 1.505369024061447e+001
 9.069414106463511e-001	 5.165959156885432e-001	 1.473049663063990e+001
 9.016366674581270e-001	 5.257997549903334e-001	 1.440852514158650e+001
 8.962313424094134e-001	 5.349611605894217e-001	 1.408835992399653e+001
 8.907259019549193e-001	 5.440785145984661e-001	 1.377057984232182e+001
 8.851208467140310e-001	 5.531502048990636e-001	 1.345575791818993e+001
 8.794167114182530e-001	 5.621746260319308e-001	 1.314446078398997e+001
 8.736140648311213e-001	 5.711501800883038e-001	 1.283724814770694e+001
 9.326982071617905e-001	 4.822593226922785e-001	 1.599932793683324e+001
 9.277704404097719e-001	 4.916726653614004e-001	 1.569067660812046e+001
 9.227399563112224e-001	 5.010498707568080e-001	 1.538125141891857e+001
 9.176070866549638e-001	 5.103892969859419e-001	 1.507162733018089e+001
 9.123721975378291e-001	 5.196893044092901e-001	 1.476237566448375e+001
 9.070356894203693e-001	 5.289482565213536e-001	 1.445406354632681e+001
 9.015979971558207e-001	 5.381645208366691e-001	 1.414725335024483e+001
 8.960595899920347e-001	 5.473364697799464e-001	 1.384250215770141e+001
 8.904209715461180e-001	 5.564624815793788e-001	 1.354036122370972e+001
 8.846826797515603e-001	 5.655409411621540e-001	 1.324137545410337e+001
 8.788452867776674e-001	 5.745702410511923e-001	 1.294608289435126e+001
 9.382499822070561e-001	 4.851299139038015e-001	 1.598199734491750e+001
 9.332928835102468e-001	 4.945992883745785e-001	 1.568765954655797e+001
 9.282324560541010e-001	 5.040323104688039e-001	 1.539233357573260e+001
 9.230690336023735e-001	 5.134273285207481e-001	 1.509657291599252e+001
 9.178029844310450e-001	 5.227826931311401e-001	 1.480092733528746e+001
 9.124347113843607e-001	 5.320967580533770e-001	 1.450594234829470e+001
 9.069646519039684e-001	 5.413678810848195e-001	 1.421215868699778e+001
 9.013932780308612e-001	 5.505944249622297e-001	 1.392011178045024e+001
 8.957210963798671e-001	 5.597747582603967e-001	 1.363033124463803e+001
 8.899486480864601e-001	 5.689072562929800e-001	 1.334334038332706e+001
 8.840765087257161e-001	 5.779903020145834e-001	 1.305965570075355e+001
 9.438017572538180e-001	 4.880005051168285e-001	 1.597257499794428e+001
 9.388153266123082e-001	 4.975259113891605e-001	 1.569221144014176e+001
 9.337249557986366e-001	 5.070147501821035e-001	 1.541064857609995e+001
 9.285309805514910e-001	 5.164653600567580e-001	 1.512841854996078e+001
 9.232337713259999e-001	 5.258760818540937e-001	 1.484604971051353e+001
 9.178337333501018e-001	 5.352452595864037e-001	 1.456406609542934e+001
 9.123313066538566e-001	 5.445712413338730e-001	 1.428298692418887e+001
 9.067269660713992e-001	 5.538523801453158e-001	 1.400332610060148e+001
 9.010212212152782e-001	 5.630870349421173e-001	 1.372559172579982e+001
 8.952146164229524e-001	 5.722735714244085e-001	 1.345028562255800e+001
 8.893077306752676e-001	 5.814103629784772e-001	 1.317790287175567e+001
 8.369955112473729e-001	 5.472097533621585e-001	 1.221368495556480e+001
 8.313422847138690e-001	 5.557607449888236e-001	 1.188683057480375e+001
 8.255958633264965e-001	 5.642618811166034e-001	 1.153684327259392e+001
 8.197568890991047e-001	 5.727116576387267e-001	 1.116335033619171e+001
 8.138260360782970e-001	 5.811085810912837e-001	 1.076599322217945e+001
 8.078040101335782e-001	 5.894511694988002e-001	 1.034442816856329e+001
 8.016915487208972e-001	 5.977379532152196e-001	 9.898326797489190e+000
 7.954894206196910e-001	 6.059674757593239e-001	 9.427376707307131e+000
 7.891984256435692e-001	 6.141382946436216e-001	 8.931282052726838e+000
 7.828193943248217e-001	 6.222489821957410e-001	 8.409764111801492e+000
 7.763531875729710e-001	 6.302981263713646e-001	 8.217122550178033e+000
 8.422267331834006e-001	 5.506298143215286e-001	 1.228746324859935e+001
 8.365381739848065e-001	 5.592342496465289e-001	 1.195435435623254e+001
 8.307558374645957e-001	 5.677885178757133e-001	 1.159690134808816e+001
 8.248803696492035e-001	 5.762911055016424e-001	 1.121468765922387e+001
 8.189124487980262e-001	 5.847405097262575e-001	 1.080731178529822e+001
 8.128527851922518e-001	 5.931352393117365e-001	 1.037438794901948e+001
 8.067021208969293e-001	 6.014738154267356e-001	 9.915546756421778e+000
 8.004612294963673e-001	 6.097547724870285e-001	 9.430435841604780e+000
 7.941309158030103e-001	 6.179766589895769e-001	 8.918720498578123e+000
 7.877120155399752e-001	 6.261380383390564e-001	 8.454625256667550e+000
 7.812053949974684e-001	 6.342374896658723e-001	 8.426754155069974e+000
 8.474579551209306e-001	 5.540498752814010e-001	 1.236646154438875e+001
 8.417340632571412e-001	 5.627077543046416e-001	 1.202640803341974e+001
 8.359158116039771e-001	 5.713151546351452e-001	 1.166081263789446e+001
 8.300038502004604e-001	 5.798705533648052e-001	 1.126921525777343e+001
 8.239988615187779e-001	 5.883724383614128e-001	 1.085117173645493e+001
 8.179015602518032e-001	 5.968193091247992e-001	 1.040625458128797e+001
 8.117126930736842e-001	 6.052096776383326e-001	 9.934053673134185e+000
 8.054330383736014e-001	 6.135420692147788e-001	 9.434176963517249e+000
 7.990634059628341e-001	 6.218150233355521e-001	 8.906251157903476e+000
 7.926046367553262e-001	 6.300270944823767e-001	 8.676090620387356e+000
 7.860576024219685e-001	 6.381768529603801e-001	 8.630501934212468e+000
 8.526891770599635e-001	 5.574699362417763e-001	 1.245060684679781e+001
 8.469299525308739e-001	 5.661812589631622e-001	 1.210293207512659e+001
 8.410757857446412e-001	 5.748417913948997e-001	 1.172853084758078e+001
 8.351273307528753e-001	 5.834500012282151e-001	 1.132689983887538e+001
 8.290852742405529e-001	 5.920043669967496e-001	 1.089755254167275e+001
 8.229503353122322e-001	 6.005033789379881e-001	 1.044002004088042e+001
 8.167232652511619e-001	 6.089455398500103e-001	 9.953851776230774e+000
 8.104048472513931e-001	 6.173293659425744e-001	 9.438616291583530e+000
 8.039958961230403e-001	 6.256533876815478e-001	 8.935369609788410e+000
 7.974972579708748e-001	 6.339161506257018e-001	 8.892303652835723e+000
 7.909098098464712e-001	 6.421162162548878e-001	 8.828406935397069e+000
 8.579203990004989e-001	 5.608899972026541e-001	 1.253982761287573e+001
 8.521258418060043e-001	 5.696547636220899e-001	 1.218386807993931e+001
 8.462357598865884e-001	 5.783684281549765e-001	 1.180001049505355e+001
 8.402508113064474e-001	 5.870294490918719e-001	 1.138770861045777e+001
 8.341716869633500e-001	 5.956362956322685e-001	 1.094643386262854e+001
 8.279991103735390e-001	 6.041874487513033e-001	 1.047567620009122e+001
 8.217338374293622e-001	 6.126814020617690e-001	 9.974944898756043e+000
 8.153766561297424e-001	 6.211166626704153e-001	 9.443769363121620e+000
 8.089283862836297e-001	 6.294917520275636e-001	 9.163977291426026e+000
 8.023898791866210e-001	 6.378052067690325e-001	 9.103293380129962e+000
 7.957620172709765e-001	 6.460555795493954e-001	 9.020508709795159e+000
 8.631516209425372e-001	 5.643100581640347e-001	 1.263405370882066e+001
 8.573217310825322e-001	 5.731282682814256e-001	 1.226915874203277e+001
 8.513957340298181e-001	 5.818950649153756e-001	 1.187520688594180e+001
 8.453742918611770e-001	 5.906088969557758e-001	 1.145160926616276e+001
 8.392580996871702e-001	 5.992682242679684e-001	 1.099779555072397e+001
 8.330478854357238e-001	 6.078715185647449e-001	 1.051321483112580e+001
 8.267444096082854e-001	 6.164172642736086e-001	 9.997336490179981e+000
 8.203484650086497e-001	 6.249039593983020e-001	 9.449651054869145e+000
 8.138608764446016e-001	 6.333301163735998e-001	 9.387976071328458e+000
 8.072825004025651e-001	 6.416942629123679e-001	 9.309087633819983e+000
 8.006142246954845e-001	 6.499949428439030e-001	 9.206845357309758e+000
 8.683828428860779e-001	 5.677301191259179e-001	 1.273321636753511e+001
 8.625176203604578e-001	 5.766017729411685e-001	 1.235874781817014e+001
 8.565557081743306e-001	 5.854217016760971e-001	 1.195407608986996e+001
 8.504977724170650e-001	 5.941883448199268e-001	 1.151856997071749e+001
 8.443445124120129e-001	 6.029001529038505e-001	 1.105161764137106e+001
 8.380966604987861e-001	 6.115555883783124e-001	 1.055262760911516e+001
 8.317549817879313e-001	 6.201531264855286e-001	 1.002102962795232e+001
 8.253202738881147e-001	 6.286912561262344e-001	 9.680731325376884e+000
 8.187933666059560e-001	 6.371684807196562e-001	 9.607382342720012e+000
 8.121751216187066e-001	 6.455833190557083e-001	 9.509713086870068e+000
 8.054664321199953e-001	 6.539343061384108e-001	 9.387453570289209e+000
 8.736140648311213e-001	 5.711501800883038e-001	 1.283724814770694e+001
 8.677135096397814e-001	 5.800752776013194e-001	 1.245258009588924e+001
 8.617156823201255e-001	 5.889483384371410e-001	 1.203657491758440e+001
 8.556212529741105e-001	 5.977677926843246e-001	 1.158855934582865e+001
 8.494309251378784e-001	 6.065320815399140e-001	 1.110788034848255e+001
 8.431454355627260e-001	 6.152396581920063e-001	 1.059390611502171e+001
 8.367655539682997e-001	 6.238889886975297e-001	 1.004602702864012e+001
 8.302920827681372e-001	 6.324785528542120e-001	 9.913717117673089e+000
 8.237258567676933e-001	 6.410068450657327e-001	 9.822211622941968e+000
 8.170677428350462e-001	 6.494723751990542e-001	 9.705195288346296e+000
 8.103186395445086e-001	 6.578736694329185e-001	 9.562368675668788e+000
 8.788452867776674e-001	 5.745702410511923e-001	 1.294608289435126e+001
 8.729093989205023e-001	 5.835487822618776e-001	 1.255060136282460e+001
 8.668756564672034e-001	 5.924749751985072e-001	 1.212266089889578e+001
 8.607447335323135e-001	 6.013472405489695e-001	 1.166154645658285e+001
 8.545173378647667e-001	 6.101640101761590e-001	 1.116656405915994e+001
 8.481942106275439e-001	 6.189237280058265e-001	 1.063704183844298e+001
 8.417761261493910e-001	 6.276248509096117e-001	 1.022660671101930e+001
 8.352638916487176e-001	 6.362658495822352e-001	 1.014271291485360e+001
 8.286583469298133e-001	 6.448452094118297e-001	 1.003247857951972e+001
 8.219603640515831e-001	 6.533614313424049e-001	 9.895558696865946e+000
 8.151708469690246e-001	 6.618130327274262e-001	 9.731624675608206e+000
 8.840765087257161e-001	 5.779903020145834e-001	 1.305965570075355e+001
 8.781052882026207e-001	 5.870222869228433e-001	 1.265275837711863e+001
 8.720356306155638e-001	 5.960016119601955e-001	 1.221229226140501e+001
 8.658682140916744e-001	 6.049266884138616e-001	 1.173750079832825e+001
 8.596037505926780e-001	 6.137959388125859e-001	 1.122764932856895e+001
 8.532429856932395e-001	 6.226077978197729e-001	 1.068202618031362e+001
 8.467866983312052e-001	 6.313607131217749e-001	 1.046977869166480e+001
 8.402357005298555e-001	 6.400531463103039e-001	 1.036772276578017e+001
 8.335908370923163e-001	 6.486835737579469e-001	 1.023819705530550e+001
 8.268529852683179e-001	 6.572504874857605e-001	 1.008082671285966e+001
 8.200230543935434e-001	 6.657523960219339e-001	 9.895254286686576e+000
 8.893077306752676e-001	 5.814103629784772e-001	 1.317790287175567e+001
 8.833011774861371e-001	 5.904957915842167e-001	 1.275899883887764e+001
 8.771956047652072e-001	 5.995282487222066e-001	 1.230542790998008e+001
 8.709916946521930e-001	 6.085061362790005e-001	 1.181639228402012e+001
 8.646901633216118e-001	 6.174278674491944e-001	 1.129111687499686e+001
 8.582917607598128e-001	 6.262918676338456e-001	 1.080216072600129e+001
 8.517972705137420e-001	 6.350965753340185e-001	 1.070953627467559e+001
 8.452075094115517e-001	 6.438404430384181e-001	 1.058875015136294e+001
 8.385233272552016e-001	 6.525219381040842e-001	 1.043938009273383e+001
 8.317456064852504e-001	 6.611395436291214e-001	 1.026102170969426e+001
 8.248752618180649e-001	 6.696917593164417e-001	 1.005328897771286e+001
 7.763531875729710e-001	 6.302981263713646e-001	 8.217122550178033e+000
 7.698006963084499e-001	 6.382843315578651e-001	 7.892312747119409e+000
 7.631628410692363e-001	 6.462062193673844e-001	 7.562408923297182e+000
 7.564405715924578e-001	 6.540624294185955e-001	 7.227842509589094e+000
 7.496348663729667e-001	 6.618516201064840e-001	 6.889045143932010e+000
 7.427467321968386e-001	 6.695724693589142e-001	 6.546448232003882e+000
 7.357772036510774e-001	 6.772236753791965e-001	 6.200482511595027e+000
 7.287273426100210e-001	 6.848039573737854e-001	 5.851577621408604e+000
 7.215982376989776e-001	 6.923120562642575e-001	 5.500161675019303e+000
 7.143910037356571e-001	 6.997467353827424e-001	 5.146660840697644e+000
 7.071067811500000e-001	 7.071067811500000e-001	 4.791498927789645e+000
 7.812053949974684e-001	 6.342374896658723e-001	 8.426754155069974e+000
 7.746119506640276e-001	 6.422736086348736e-001	 8.094068625495774e+000
 7.679326088308434e-001	 6.502450082433322e-001	 7.757914659615770e+000
 7.611683251709004e-001	 6.581503196075381e-001	 7.418755480288701e+000
 7.543200842946432e-001	 6.659881927374464e-001	 7.077052914350813e+000
 7.473888992805597e-001	 6.737572972979691e-001	 6.733266916949322e+000
 7.403758111818231e-001	 6.814563233561881e-001	 6.387855101740168e+000
 7.332818885094852e-001	 6.890839821135986e-001	 6.041272277754937e+000
 7.261082266927623e-001	 6.966390066225364e-001	 5.693969993725204e+000
 7.188559475169745e-001	 7.041201524859572e-001	 5.346396090628169e+000
 7.115261985397499e-001	 7.115261985397501e-001	 4.998994263190750e+000
 7.860576024219685e-001	 6.381768529603801e-001	 8.630501934212468e+000
 7.794232050194221e-001	 6.462628857118767e-001	 8.290451470747646e+000
 7.727023765921125e-001	 6.542837971192601e-001	 7.948540239722208e+000
 7.658960787488796e-001	 6.622382097964361e-001	 7.605262993026217e+000
 7.590053022157611e-001	 6.701247653683284e-001	 7.261111493789010e+000
 7.520310663636572e-001	 6.779421252368990e-001	 6.916574004613119e+000
 7.449744187119097e-001	 6.856889713330001e-001	 6.572134783834925e+000
 7.378364344082850e-001	 6.933640068531670e-001	 6.228273590686637e+000
 7.306182156859071e-001	 7.009659569804954e-001	 5.885465200200855e+000
 7.233208912977073e-001	 7.084935695887666e-001	 5.544178928678163e+000
 7.159456159290000e-001	 7.159456159290000e-001	 5.204878170507491e+000
 7.909098098464712e-001	 6.421162162548878e-001	 8.828406935397069e+000
 7.842344593746349e-001	 6.502521627888752e-001	 8.481492699291303e+000
 7.774721443530439e-001	 6.583225859951677e-001	 8.134307824208173e+000
 7.706238323263961e-001	 6.663260999852894e-001	 7.787378333079212e+000
 7.636905201363202e-001	 6.742613379991307e-001	 7.441225677440450e+000
 7.566732334461310e-001	 6.821269531757044e-001	 7.096366189810325e+000
 7.495730262413374e-001	 6.899216193096325e-001	 6.753310546248161e+000
 7.423909803064202e-001	 6.976440315924901e-001	 6.412563240031660e+000
 7.351282046784118e-001	 7.052929073381342e-001	 6.074622067353675e+000
 7.277858350778547e-001	 7.128669866911712e-001	 5.739977625911905e+000
 7.203650333177502e-001	 7.203650333177500e-001	 5.409112827230043e+000
 7.957620172709765e-001	 6.460555795493954e-001	 9.020508709795159e+000
 7.890457137296651e-001	 6.542414398658686e-001	 8.667222464546533e+000
 7.822419121136377e-001	 6.623613748710557e-001	 8.315238535403507e+000
 7.753515859034492e-001	 6.704139901740972e-001	 7.965113963188764e+000
 7.683757380563214e-001	 6.783979106298531e-001	 7.617399644563617e+000
 7.613154005279805e-001	 6.863117811143845e-001	 7.272639748789108e+000
 7.541716337701051e-001	 6.941542672860843e-001	 6.931371146812483e+000
 7.469455262038905e-001	 7.019240563315687e-001	 6.594122853678567e+000
 7.396381936702769e-001	 7.096198576954532e-001	 6.261415485224600e+000
 7.322507788574174e-001	 7.172404037931707e-001	 5.933760729988650e+000
 7.247844507060000e-001	 7.247844507060000e-001	 5.611660837214263e+000
 8.006142246954845e-001	 6.499949428439030e-001	 9.206845357309758e+000
 7.938569680845125e-001	 6.582307169428567e-001	 8.847669695209099e+000
 7.870116798738938e-001	 6.664001637469236e-001	 8.491352488838915e+000
 7.800793394800391e-001	 6.745018803628601e-001	 8.138481548484799e+000
 7.730609559757637e-001	 6.825344832604956e-001	 7.789636977145817e+000
 7.659575676092065e-001	 6.904966090529396e-001	 7.445390551913231e+000
 7.587702412982139e-001	 6.983869152623565e-001	 7.106305119810500e+000
 7.515000721006965e-001	 7.062040810704022e-001	 6.772934009151192e+000
 7.441481826615024e-001	 7.139468080524523e-001	 6.445820457438324e+000
 7.367157226363951e-001	 7.216138208947655e-001	 6.125497056780458e+000
 7.292038680937500e-001	 7.292038680937500e-001	 5.812485217761975e+000
 8.054664321199953e-001	 6.539343061384108e-001	 9.387453570289209e+000
 7.986682224391778e-001	 6.622199940198401e-001	 9.022862132140579e+000
 7.917814476338122e-001	 6.704389526227714e-001	 8.662668823570787e+000
 7.848070930561664e-001	 6.785897705515782e-001	 8.307491980510484e+000
 7.777461738946476e-001	 6.866710558910580e-001	 7.957940677893777e+000
 7.705997346898081e-001	 6.946814369913700e-001	 7.614614075888595e+000
 7.633688488256633e-001	 7.026195632384487e-001	 7.278100782707307e+000
 7.560546179968379e-001	 7.104841058089907e-001	 6.948978235125645e+000
 7.486581716520880e-001	 7.182737584091314e-001	 6.627812097782010e+000
 7.411806664147876e-001	 7.259872379959550e-001	 6.315155682293433e+000
 7.336232854810001e-001	 7.336232854810001e-001	 6.011549387167205e+000
 8.103186395445086e-001	 6.578736694329185e-001	 9.562368675668788e+000
 8.034794767936607e-001	 6.662092710968188e-001	 9.192826363931134e+000
 7.965512153933930e-001	 6.744777414985995e-001	 8.829205731417158e+000
 7.895348466318304e-001	 6.826776607402515e-001	 8.472155400382812e+000
 7.824313918129733e-001	 6.908076285215407e-001	 8.122313187577460e+000
 7.752419017697861e-001	 6.988662649296754e-001	 7.780305415548495e+000
 7.679674563524535e-001	 7.068522112143608e-001	 7.446746242643598e+000
 7.606091638923145e-001	 7.147641305473342e-001	 7.122237012892589e+000
 7.531681606420335e-001	 7.226007087654903e-001	 6.807365626907214e+000
 7.456456101925956e-001	 7.303606550967398e-001	 6.502705934879274e+000
 7.380427028677500e-001	 7.380427028677499e-001	 6.208817152710383e+000
 8.151708469690246e-001	 6.618130327274262e-001	 9.731624675608206e+000
 8.082907311479610e-001	 6.701985481737921e-001	 9.357587861194718e+000
 8.013209831526360e-001	 6.785165303744075e-001	 8.990980485149319e+000
 7.942626002070312e-001	 6.867655509288797e-001	 8.632481221127883e+000
 7.871166097307399e-001	 6.949442011519432e-001	 8.282756401753568e+000
 7.798840688491400e-001	 7.030510928678558e-001	 7.942459295219707e+000
 7.725660638785843e-001	 7.110848591900935e-001	 7.612229402693738e+000
 7.651637097871264e-001	 7.190441552854328e-001	 7.292691777767847e+000
 7.576781496313394e-001	 7.269276591215295e-001	 6.984456369149441e+000
 7.501105539698183e-001	 7.347340721971193e-001	 6.688117387725614e+000
 7.424621202539998e-001	 7.424621202539998e-001	 6.404252699081832e+000
 8.200230543935434e-001	 6.657523960219339e-001	 9.895254286686576e+000
 8.131019855020791e-001	 6.741878252507605e-001	 9.517171009644168e+000
 8.060907509115410e-001	 6.825553192501954e-001	 9.148009465682513e+000
 7.989903537817692e-001	 6.908534411174629e-001	 8.788478149221177e+000
 7.918018276479484e-001	 6.990807737822662e-001	 8.439271686897268e+000
 7.845262359278702e-001	 7.072359208059116e-001	 8.101070079683746e+000
 7.771646714040560e-001	 7.153175071656458e-001	 7.774537967904230e+000
 7.697182556812739e-001	 7.233241800232864e-001	 7.460323920452111e+000
 7.621881386200055e-001	 7.312546094772487e-001	 7.159059749460124e+000
 7.545754977464561e-001	 7.391074892970940e-001	 6.871359851611535e+000
 7.468815376397501e-001	 7.468815376397500e-001	 6.597820577215196e+000
 8.248752618180649e-001	 6.696917593164417e-001	 1.005328897771286e+001
 8.179132398560144e-001	 6.781771023277237e-001	 9.671599142000625e+000
 8.108605186701088e-001	 6.865941081259636e-001	 9.300308188306895e+000
 8.037181073560439e-001	 6.949413313060012e-001	 8.940154205368803e+000
 7.964870455645983e-001	 7.032173464125090e-001	 8.591859895962465e+000
 7.891684030059764e-001	 7.114207487438422e-001	 8.256131784751339e+000
 7.817632789288682e-001	 7.195501551410183e-001	 7.933659451117683e+000
 7.742728015747570e-001	 7.276042047608953e-001	 7.625114788343547e+000
 7.666981276080317e-001	 7.355815598326478e-001	 7.331151290448065e+000
 7.590404415225092e-001	 7.434809063966636e-001	 7.052403367920110e+000
 7.513009550249999e-001	 7.513009550250001e-001	 6.789485693516438e+000
 7.071067811500000e-001	 7.071067811500000e-001	 4.791498927789645e+000
 6.997467353827424e-001	 7.143910037356571e-001	 4.479743870445976e+000
 6.923120562642576e-001	 7.215982376989775e-001	 4.179342465124300e+000
 6.848039573737853e-001	 7.287273426100210e-001	 3.890784256100266e+000
 6.772236753791965e-001	 7.357772036510774e-001	 3.614542628883738e+000
 6.695724693589142e-001	 7.427467321968386e-001	 3.351074376536006e+000
 6.618516201064840e-001	 7.496348663729667e-001	 3.100819292792737e+000
 6.540624294185956e-001	 7.564405715924577e-001	 2.864199792556247e+000
 6.462062193673844e-001	 7.631628410692365e-001	 2.641620560252791e+000
 6.382843315578652e-001	 7.698006963084498e-001	 2.433468226481619e+000
 6.302981263713646e-001	 7.763531875729710e-001	 2.240111073318250e+000
 7.115261985397499e-001	 7.115261985397501e-001	 4.998994263190750e+000
 7.041201524859572e-001	 7.188559475169745e-001	 4.696798864579183e+000
 6.966390066225364e-001	 7.261082266927621e-001	 4.404672275362962e+000
 6.890839821135988e-001	 7.332818885094854e-001	 4.123079454400918e+000
 6.814563233561881e-001	 7.403758111818231e-001	 3.852470381348175e+000
 6.737572972979689e-001	 7.473888992805596e-001	 3.593279647051993e+000
 6.659881927374461e-001	 7.543200842946432e-001	 3.345926069197211e+000
 6.581503196075382e-001	 7.611683251709002e-001	 3.110812333728766e+000
 6.502450082433322e-001	 7.679326088308434e-001	 2.888324662511401e+000
 6.422736086348737e-001	 7.746119506640274e-001	 2.678832507624021e+000
 6.342374896658723e-001	 7.812053949974684e-001	 2.482688272626396e+000
 7.159456159290000e-001	 7.159456159290000e-001	 5.204878170507491e+000
 7.084935695887666e-001	 7.233208912977073e-001	 4.911743915407871e+000
 7.009659569804956e-001	 7.306182156859070e-001	 4.627412367300174e+000
 6.933640068531668e-001	 7.378364344082851e-001	 4.352324117216184e+000
 6.856889713330001e-001	 7.449744187119098e-001	 4.086905943472184e+000
 6.779421252368990e-001	 7.520310663636571e-001	 3.831570425981628e+000
 6.701247653683286e-001	 7.590053022157610e-001	 3.586715584278146e+000
 6.622382097964362e-001	 7.658960787488793e-001	 3.352724539738486e+000
 6.542837971192599e-001	 7.727023765921125e-001	 3.129965202433894e+000
 6.462628857118768e-001	 7.794232050194222e-001	 2.918789982980020e+000
 6.381768529603801e-001	 7.860576024219685e-001	 2.719535529689054e+000
 7.203650333177502e-001	 7.203650333177500e-001	 5.409112827230043e+000
 7.128669866911713e-001	 7.277858350778547e-001	 5.124550602864803e+000
 7.052929073381343e-001	 7.351282046784119e-001	 4.847543423187029e+000
 6.976440315924902e-001	 7.423909803064203e-001	 4.578507724614080e+000
 6.899216193096323e-001	 7.495730262413372e-001	 4.317847284457429e+000
 6.821269531757043e-001	 7.566732334461311e-001	 4.065952858990409e+000
 6.742613379991309e-001	 7.636905201363203e-001	 3.823201843707245e+000
 6.663260999852894e-001	 7.706238323263959e-001	 3.589957956223936e+000
 6.583225859951676e-001	 7.774721443530439e-001	 3.366570942211742e+000
 6.502521627888751e-001	 7.842344593746349e-001	 3.153376304710652e+000
 6.421162162548878e-001	 7.909098098464712e-001	 2.950695057096406e+000
 7.247844507060000e-001	 7.247844507060000e-001	 5.611660837214263e+000
 7.172404037931707e-001	 7.322507788574174e-001	 5.335190705333757e+000
 7.096198576954532e-001	 7.396381936702769e-001	 5.065046103394621e+000
 7.019240563315686e-001	 7.469455262038905e-001	 4.801619522142090e+000
 6.941542672860844e-001	 7.541716337701051e-001	 4.545291934130779e+000
 6.863117811143845e-001	 7.613154005279806e-001	 4.296432455396445e+000
 6.783979106298531e-001	 7.683757380563214e-001	 4.055398027810548e+000
 6.704139901740974e-001	 7.753515859034492e-001	 3.822533122534739e+000
 6.623613748710557e-001	 7.822419121136379e-001	 3.598169464935836e+000
 6.542414398658686e-001	 7.890457137296650e-001	 3.382625781273105e+000
 6.460555795493955e-001	 7.957620172709766e-001	 3.176207567409111e+000
 7.292038680937500e-001	 7.292038680937500e-001	 5.812485217761975e+000
 7.216138208947653e-001	 7.367157226363951e-001	 5.543636193636369e+000
 7.139468080524525e-001	 7.441481826615023e-001	 5.279901047078526e+000
 7.062040810704020e-001	 7.515000721006965e-001	 5.021648527932692e+000
 6.983869152623564e-001	 7.587702412982139e-001	 4.769236996258783e+000
 6.904966090529396e-001	 7.659575676092065e-001	 4.523014107455721e+000
 6.825344832604955e-001	 7.730609559757637e-001	 4.283316516577622e+000
 6.745018803628603e-001	 7.800793394800393e-001	 4.050469602222632e+000
 6.664001637469235e-001	 7.870116798738941e-001	 3.824787210326874e+000
 6.582307169428570e-001	 7.938569680845125e-001	 3.606571418140389e+000
 6.499949428439031e-001	 8.006142246954845e-001	 3.396112318614025e+000
 7.336232854810001e-001	 7.336232854810001e-001	 6.011549387167205e+000
 7.259872379959550e-001	 7.411806664147876e-001	 5.749859225234679e+000
 7.182737584091314e-001	 7.486581716520878e-001	 5.492088872816941e+000
 7.104841058089905e-001	 7.560546179968379e-001	 5.238583539554194e+000
 7.026195632384487e-001	 7.633688488256633e-001	 4.989679161380103e+000
 6.946814369913700e-001	 7.705997346898081e-001	 4.745702108946738e+000
 6.866710558910582e-001	 7.777461738946476e-001	 4.506968913768890e+000
 6.785897705515783e-001	 7.848070930561664e-001	 4.273786012434541e+000
 6.704389526227714e-001	 7.917814476338123e-001	 4.046449509174446e+000
 6.622199940198402e-001	 7.986682224391779e-001	 3.825244957047418e+000
 6.539343061384108e-001	 8.054664321199953e-001	 3.610447157935603e+000
 7.380427028677500e-001	 7.380427028677499e-001	 6.208817152710383e+000
 7.303606550967396e-001	 7.456456101925956e-001	 5.953832138644605e+000
 7.226007087654904e-001	 7.531681606420335e-001	 5.701590179226551e+000
 7.147641305473341e-001	 7.606091638923146e-001	 5.452413140613662e+000
 7.068522112143610e-001	 7.679674563524535e-001	 5.206614719178369e+000
 6.988662649296754e-001	 7.752419017697860e-001	 4.964500173089198e+000
 6.908076285215408e-001	 7.824313918129732e-001	 4.726366070156534e+000
 6.826776607402515e-001	 7.895348466318304e-001	 4.492500052246975e+000
 6.744777414985994e-001	 7.965512153933931e-001	 4.263180616538136e+000
 6.662092710968186e-001	 8.034794767936607e-001	 4.038676913827334e+000
 6.578736694329185e-001	 8.103186395445086e-001	 3.819248564075091e+000
 7.424621202539998e-001	 7.424621202539998e-001	 6.404252699081832e+000
 7.347340721971193e-001	 7.501105539698183e-001	 6.155527448046530e+000
 7.269276591215297e-001	 7.576781496313394e-001	 5.908385545557332e+000
 7.190441552854326e-001	 7.651637097871264e-001	 5.663125707125536e+000
 7.110848591900935e-001	 7.725660638785845e-001	 5.420039570411670e+000
 7.030510928678558e-001	 7.798840688491400e-001	 5.179411449823380e+000
 6.949442011519434e-001	 7.871166097307401e-001	 4.941518105933042e+000
 6.867655509288797e-001	 7.942626002070311e-001	 4.706628529990296e+000
 6.785165303744073e-001	 8.013209831526359e-001	 4.475003743763314e+000
 6.701985481737921e-001	 8.082907311479610e-001	 4.246896614897040e+000
 6.618130327274263e-001	 8.151708469690246e-001	 4.022551687940534e+000
 7.468815376397501e-001	 7.468815376397500e-001	 6.597820577215196e+000
 7.391074892970940e-001	 7.545754977464561e-001	 6.354917838088171e+000
 7.312546094772486e-001	 7.621881386200052e-001	 6.112455532265256e+000
 7.233241800232865e-001	 7.697182556812741e-001	 5.870709413652691e+000
 7.153175071656458e-001	 7.771646714040559e-001	 5.629949238420064e+000
 7.072359208059114e-001	 7.845262359278701e-001	 5.390438542474440e+000
 6.990807737822661e-001	 7.918018276479484e-001	 5.152434432328193e+000
 6.908534411174631e-001	 7.989903537817690e-001	 4.916187389602040e+000
 6.825553192501952e-001	 8.060907509115411e-001	 4.681941089360981e+000
 6.741878252507605e-001	 8.131019855020791e-001	 4.449932232446759e+000
 6.657523960219339e-001	 8.200230543935435e-001	 4.220390391930021e+000
 7.513009550249999e-001	 7.513009550250001e-001	 6.789485693516438e+000
 7.434809063966638e-001	 7.590404415225089e-001	 6.551976158871096e+000
 7.355815598326477e-001	 7.666981276080315e-001	 6.313780681564872e+000
 7.276042047608952e-001	 7.742728015747570e-001	 6.075152239232293e+000
 7.195501551410183e-001	 7.817632789288682e-001	 5.836338880225473e+000
 7.114207487438421e-001	 7.891684030059761e-001	 5.597583523829213e+000
 7.032173464125090e-001	 7.964870455645983e-001	 5.359123772459290e+000
 6.949413313060012e-001	 8.037181073560437e-001	 5.121191736049653e+000
 6.865941081259634e-001	 8.108605186701088e-001	 4.884013868795901e+000
 6.781771023277237e-001	 8.179132398560144e-001	 4.647810818388075e+000
 6.696917593164417e-001	 8.248752618180650e-001	 4.412797287829314e+000
 6.302981263713646e-001	 7.763531875729710e-001	 2.240111073318250e+000
 6.222489821957411e-001	 7.828193943248218e-001	 2.054319894715448e+000
 6.141382946436216e-001	 7.891984256435691e-001	 1.823966835336421e+000
 6.059674757593238e-001	 7.954894206196910e-001	 1.607132810467927e+000
 5.977379532152196e-001	 8.016915487208971e-001	 1.403798681934179e+000
 5.894511694988002e-001	 8.078040101335781e-001	 1.213930421743357e+000
 5.811085810912837e-001	 8.138260360782970e-001	 1.037479640116599e+000
 5.727116576387268e-001	 8.197568890991045e-001	 8.743841327656103e-001
 5.642618811166035e-001	 8.255958633264966e-001	 7.245684456566770e-001
 5.557607449888236e-001	 8.313422847138690e-001	 5.879444554840569e-001
 5.472097533621585e-001	 8.369955112473729e-001	 4.644119640479665e-001
 6.342374896658723e-001	 7.812053949974684e-001	 2.482688272626396e+000
 6.261380383390562e-001	 7.877120155399752e-001	 2.321123274498027e+000
 6.179766589895770e-001	 7.941309158030104e-001	 2.096726176119053e+000
 6.097547724870285e-001	 8.004612294963673e-001	 1.874033076392282e+000
 6.014738154267355e-001	 8.067021208969293e-001	 1.665196549729886e+000
 5.931352393117365e-001	 8.128527851922518e-001	 1.470164510156405e+000
 5.847405097262575e-001	 8.189124487980261e-001	 1.288870139005927e+000
 5.762911055016424e-001	 8.248803696492036e-001	 1.121232462050647e+000
 5.677885178757133e-001	 8.307558374645957e-001	 9.671569444648788e-001
 5.592342496465289e-001	 8.365381739848065e-001	 8.265361017745058e-001
 5.506298143215286e-001	 8.422267331834006e-001	 6.992501249224482e-001
 6.381768529603801e-001	 7.860576024219685e-001	 2.719535529689054e+000
 6.300270944823767e-001	 7.926046367553263e-001	 2.552514687558617e+000
 6.218150233355523e-001	 7.990634059628340e-001	 2.363304001868504e+000
 6.135420692147786e-001	 8.054330383736011e-001	 2.134609401663421e+000
 6.052096776383327e-001	 8.117126930736843e-001	 1.920127024996743e+000
 5.968193091247992e-001	 8.179015602518028e-001	 1.719786673942828e+000
 5.883724383614127e-001	 8.239988615187781e-001	 1.533503046800097e+000
 5.798705533648053e-001	 8.300038502004604e-001	 1.361176345240573e+000
 5.713151546351453e-001	 8.359158116039772e-001	 1.202692899641373e+000
 5.627077543046416e-001	 8.417340632571412e-001	 1.057925810678621e+000
 5.540498752814009e-001	 8.474579551209306e-001	 9.267356052494027e-001
 6.421162162548878e-001	 7.909098098464712e-001	 2.950695057096406e+000
 6.339161506257018e-001	 7.974972579708748e-001	 2.778048298014158e+000
 6.256533876815480e-001	 8.039958961230403e-001	 2.616886634557468e+000
 6.173293659425743e-001	 8.104048472513930e-001	 2.388879108825346e+000
 6.089455398500103e-001	 8.167232652511617e-001	 2.168612351601857e+000
 6.005033789379880e-001	 8.229503353122321e-001	 1.962824160358783e+000
 5.920043669967497e-001	 8.290852742405530e-001	 1.771410692850501e+000
 5.834500012282152e-001	 8.351273307528752e-001	 1.594253269084048e+000
 5.748417913948994e-001	 8.410757857446414e-001	 1.431219027191938e+000
 5.661812589631622e-001	 8.469299525308740e-001	 1.282161595841673e+000
 5.574699362417763e-001	 8.526891770599637e-001	 1.146921781185469e+000
 6.460555795493955e-001	 7.957620172709766e-001	 3.176207567409111e+000
 6.378052067690323e-001	 8.023898791866208e-001	 2.997768582384467e+000
 6.294917520275638e-001	 8.089283862836297e-001	 2.831145923174692e+000
 6.211166626704154e-001	 8.153766561297426e-001	 2.636857745175371e+000
 6.126814020617690e-001	 8.217338374293624e-001	 2.410672903213356e+000
 6.041874487513034e-001	 8.279991103735390e-001	 2.199302249980254e+000
 5.956362956322683e-001	 8.341716869633500e-001	 2.002623341869217e+000
 5.870294490918721e-001	 8.402508113064473e-001	 1.820498556306084e+000
 5.783684281549765e-001	 8.462357598865887e-001	 1.652775778338017e+000
 5.696547636220899e-001	 8.521258418060043e-001	 1.499289104039433e+000
 5.608899972026541e-001	 8.579203990004990e-001	 1.359859558662983e+000
 6.499949428439031e-001	 8.006142246954845e-001	 3.396112318614025e+000
 6.416942629123680e-001	 8.072825004025651e-001	 3.211718475262604e+000
 6.333301163735999e-001	 8.138608764446015e-001	 3.039470305726676e+000
 6.249039593983020e-001	 8.203484650086497e-001	 2.878559136559688e+000
 6.164172642736084e-001	 8.267444096082854e-001	 2.646327239971150e+000
 6.078715185647449e-001	 8.330478854357238e-001	 2.429244316298923e+000
 5.992682242679686e-001	 8.392580996871702e-001	 2.227169256495305e+000
 5.906088969557759e-001	 8.453742918611770e-001	 2.039945431183961e+000
 5.818950649153755e-001	 8.513957340298181e-001	 1.867401408146862e+000
 5.731282682814255e-001	 8.573217310825321e-001	 1.709351686903024e+000
 5.643100581640347e-001	 8.631516209425372e-001	 1.565597448243062e+000
 6.539343061384108e-001	 8.054664321199953e-001	 3.610447157935603e+000
 6.455833190557085e-001	 8.121751216187066e-001	 3.419939415755758e+000
 6.371684807196563e-001	 8.187933666059560e-001	 3.241904886223860e+000
 6.286912561262342e-001	 8.253202738881146e-001	 3.076503137904641e+000
 6.201531264855286e-001	 8.317549817879312e-001	 2.875592163112177e+000
 6.115555883783125e-001	 8.380966604987860e-001	 2.652671883163628e+000
 6.029001529038502e-001	 8.443445124120130e-001	 2.445074757596512e+000
 5.941883448199269e-001	 8.504977724170649e-001	 2.252625082754992e+000
 5.854217016760971e-001	 8.565557081743307e-001	 2.075132041680191e+000
 5.766017729411685e-001	 8.625176203604578e-001	 1.912390470048071e+000
 5.677301191259179e-001	 8.683828428860779e-001	 1.764181637266892e+000
 6.578736694329185e-001	 8.103186395445086e-001	 3.819248564075091e+000
 6.494723751990542e-001	 8.170677428350462e-001	 3.622471392262062e+000
 6.410068450657329e-001	 8.237258567676933e-001	 3.438493234255828e+000
 6.324785528542118e-001	 8.302920827681373e-001	 3.267463616601928e+000
 6.238889886975298e-001	 8.367655539682998e-001	 3.098482767632345e+000
 6.152396581920062e-001	 8.431454355627260e-001	 2.869604680160394e+000
 6.065320815399140e-001	 8.494309251378784e-001	 2.656364282407408e+000
 5.977677926843248e-001	 8.556212529741104e-001	 2.458566725750709e+000
 5.889483384371409e-001	 8.617156823201256e-001	 2.276001737768030e+000
 5.800752776013194e-001	 8.677135096397812e-001	 2.108444419722440e+000
 5.711501800883038e-001	 8.736140648311213e-001	 1.955656059412306e+000
 6.618130327274263e-001	 8.151708469690246e-001	 4.022551687940534e+000
 6.533614313424048e-001	 8.219603640515832e-001	 3.819352985645422e+000
 6.448452094118298e-001	 8.286583469298133e-001	 3.629277430660035e+000
 6.362658495822350e-001	 8.352638916487175e-001	 3.452464567252191e+000
 6.276248509096118e-001	 8.417761261493911e-001	 3.289037329689935e+000
 6.189237280058265e-001	 8.481942106275439e-001	 3.080060696012042e+000
 6.101640101761588e-001	 8.545173378647667e-001	 2.861060440589479e+000
 6.013472405489696e-001	 8.607447335323133e-001	 2.657797659355938e+000
 5.924749751985071e-001	 8.668756564672034e-001	 2.470042550501638e+000
 5.835487822618776e-001	 8.729093989205021e-001	 2.297550407073800e+000
 5.745702410511921e-001	 8.788452867776672e-001	 2.140062461767705e+000
 6.657523960219339e-001	 8.200230543935435e-001	 4.220390391930021e+000
 6.572504874857605e-001	 8.268529852683177e-001	 4.010621410879281e+000
 6.486835737579468e-001	 8.335908370923160e-001	 3.814298111566264e+000
 6.400531463103039e-001	 8.402357005298556e-001	 3.631550113856313e+000
 6.313607131217749e-001	 8.467866983312054e-001	 3.462490050965755e+000
 6.226077978197729e-001	 8.532429856932396e-001	 3.284056230083398e+000
 6.137959388125858e-001	 8.596037505926779e-001	 3.059184068300831e+000
 6.049266884138617e-001	 8.658682140916743e-001	 2.850343323882196e+000
 5.960016119601955e-001	 8.720356306155639e-001	 2.657284588547614e+000
 5.870222869228434e-001	 8.781052882026210e-001	 2.479743270133746e+000
 5.779903020145834e-001	 8.840765087257161e-001	 2.317440469523766e+000
 6.696917593164417e-001	 8.248752618180650e-001	 4.412797287829314e+000
 6.611395436291213e-001	 8.317456064852504e-001	 4.196312557219157e+000
 6.525219381040842e-001	 8.385233272552015e-001	 3.993594510889014e+000
 6.438404430384179e-001	 8.452075094115514e-001	 3.804762900347492e+000
 6.350965753340184e-001	 8.517972705137421e-001	 3.629920113921817e+000
 6.262918676338455e-001	 8.582917607598127e-001	 3.469151239461150e+000
 6.174278674491944e-001	 8.646901633216116e-001	 3.250754280359026e+000
 6.085061362790006e-001	 8.709916946521928e-001	 3.036227355440534e+000
 5.995282487222066e-001	 8.771956047652072e-001	 2.837756072364262e+000
 5.904957915842167e-001	 8.833011774861372e-001	 2.655055873616136e+000
 5.814103629784772e-001	 8.893077306752675e-001	 2.487827648382290e+000
 5.472097533621585e-001	 8.369955112473729e-001	 4.644119640479665e-001
 5.386104201372436e-001	 8.425549331296908e-001	 3.633985058851666e-001
 5.299642681565356e-001	 8.480199729359587e-001	 2.657024595829975e-001
 5.212728283505860e-001	 8.533900857430293e-001	 1.712471649358304e-001
 5.125376388839767e-001	 8.586647592332956e-001	 7.995472093143269e-002
 5.037602443012850e-001	 8.638435137714189e-001	-8.253509621645203e-003
 4.949421946742140e-001	 8.689259024546855e-001	-9.345640193206552e-002
 4.860850447508238e-001	 8.739115111371586e-001	-1.757325789379657e-001
 4.771903531077779e-001	 8.787999584278388e-001	-2.551599302654218e-001
 4.682596813065159e-001	 8.835908956630776e-001	-3.318151417426771e-001
 4.592945930542355e-001	 8.882840068535240e-001	-4.057732367305714e-001
 5.506298143215286e-001	 8.422267331834006e-001	 6.992501249224482e-001
 5.419767352632479e-001	 8.478209014518507e-001	 5.949016679577184e-001
 5.332765448319313e-001	 8.533200977564116e-001	 4.937478398716400e-001
 5.245307835264458e-001	 8.587237737681656e-001	 3.956995056796040e-001
 5.157409991249025e-001	 8.640314139675194e-001	 3.006664514490221e-001
 5.069087458252820e-001	 8.692425357214143e-001	 2.085579088726115e-001
 4.980355833872363e-001	 8.743566893339935e-001	 1.192830729196127e-001
 4.891230762760007e-001	 8.793734580709077e-001	 3.275161111634702e-002
 4.801727928093434e-001	 8.842924581574628e-001	-5.112583695412835e-002
 4.711863043084628e-001	 8.891133387508624e-001	-1.324371712769934e-001
 4.621651842537271e-001	 8.938357818868210e-001	-2.112683554570101e-001
 5.540498752814009e-001	 8.474579551209306e-001	 9.267356052494027e-001
 5.453430503898551e-001	 8.530868697756032e-001	 8.190221689957551e-001
 5.365888215080298e-001	 8.586202225785264e-001	 7.143830419567476e-001
 5.277887387031085e-001	 8.640574617950126e-001	 6.127164907865264e-001
 5.189443593667312e-001	 8.693980687034841e-001	 5.139198641586270e-001
 5.100572473502824e-001	 8.746415576731595e-001	 4.178901375176081e-001
 5.011289721013621e-001	 8.797874762150403e-001	 3.245244504544143e-001
 4.921611078023814e-001	 8.848354050063642e-001	 2.337206352070600e-001
 4.831552325122125e-001	 8.897849578887439e-001	 1.453777348516467e-001
 4.741129273118136e-001	 8.946357818402334e-001	 5.939650978486488e-002
 4.650357754547226e-001	 8.993875569216143e-001	-2.432006882148600e-002
 5.574699362417763e-001	 8.526891770599637e-001	 1.146921781185469e+000
 5.487093655170648e-001	 8.583528381009483e-001	 1.035816560576218e+000
 5.399010981848309e-001	 8.639203474023032e-001	 9.276677785180898e-001
 5.310466938805742e-001	 8.693911498235714e-001	 8.223609774843437e-001
 5.221477196094632e-001	 8.747647234411891e-001	 7.197809420636605e-001
 5.132057488762861e-001	 8.800405796266541e-001	 6.198122641280616e-001
 5.042223608165914e-001	 8.852182630978254e-001	 5.223399001664900e-001
 4.951991393299656e-001	 8.902973519435287e-001	 4.272497192439406e-001
 4.861376722163856e-001	 8.952774576216817e-001	 3.344290401063342e-001
 4.770395503165683e-001	 9.001582249311909e-001	 2.437671560049387e-001
 4.679063666572221e-001	 9.049393319579037e-001	 1.551558458716288e-001
 5.608899972026541e-001	 8.579203990004990e-001	 1.359859558662983e+000
 5.520756806448774e-001	 8.636188064278857e-001	 1.245338874314919e+000
 5.432133748623350e-001	 8.692204722277421e-001	 1.133659193131202e+000
 5.343046490588427e-001	 8.747248378538415e-001	 1.024693205367812e+000
 5.253510798530979e-001	 8.801313781806344e-001	 9.183130026397681e-001
 5.163542504032929e-001	 8.854396015818981e-001	 8.143906637508199e-001
 5.073157495329240e-001	 8.906490499823491e-001	 7.127988322193636e-001
 4.982371708587534e-001	 8.957592988824004e-001	 6.134112839339354e-001
 4.891201119218626e-001	 9.007699573562762e-001	 5.161034834048150e-001
 4.799661733227270e-001	 9.056806680237346e-001	 4.207531271550540e-001
 4.707769578612255e-001	 9.104911069956888e-001	 3.272406728466714e-001
 5.643100581640347e-001	 8.631516209425372e-001	 1.565597448243062e+000
 5.554419957732925e-001	 8.688847747564156e-001	 1.447640698227942e+000
 5.465256515405419e-001	 8.745205970548434e-001	 1.332411938120005e+000
 5.375626042379142e-001	 8.800585258858226e-001	 1.219770875720933e+000
 5.285544400976362e-001	 8.854980329218202e-001	 1.109576778610219e+000
 5.195027519313031e-001	 8.908386235388917e-001	 1.001689080872356e+000
 5.104091382503603e-001	 8.960798368686113e-001	 8.959679810628262e-001
 5.012752023887452e-001	 9.012212458229798e-001	 7.922750297902935e-001
 4.921025516286431e-001	 9.062624570925274e-001	 6.904737053553344e-001
 4.828927963302895e-001	 9.112031111178643e-001	 5.904299759382757e-001
 4.736475490667328e-001	 9.160428820349702e-001	 4.920128469011973e-001
 5.677301191259179e-001	 8.683828428860779e-001	 1.764181637266892e+000
 5.588083109023104e-001	 8.741507430865381e-001	 1.642771250336183e+000
 5.498379282194512e-001	 8.798207218836058e-001	 1.523978249592853e+000
 5.408205594177887e-001	 8.853922139195153e-001	 1.407649227972737e+000
 5.317578003430774e-001	 8.908646876647466e-001	 1.293630495798357e+000
 5.226512534603167e-001	 8.962376454976346e-001	 1.181768708652840e+000
 5.135025269689000e-001	 9.015106237566118e-001	 1.071911486024941e+000
 5.043132339199405e-001	 9.066831927652670e-001	 9.639080190629571e-001
 4.950849913367276e-001	 9.117549568304356e-001	 8.576096658329083e-001
 4.858194193392559e-001	 9.167255542135807e-001	 7.528705325393449e-001
 4.765181402737442e-001	 9.215946570757476e-001	 6.495480392321540e-001
 5.711501800883038e-001	 8.736140648311213e-001	 1.955656059412306e+000
 5.621746260319308e-001	 8.794167114182531e-001	 1.830777449621573e+000
 5.531502048990638e-001	 8.851208467140310e-001	 1.708408019786116e+000
 5.440785145984660e-001	 8.907259019549193e-001	 1.588381113404920e+000
 5.349611605894217e-001	 8.962313424094134e-001	 1.470529948185741e+000
 5.257997549903335e-001	 9.016366674581272e-001	 1.354688265311731e+000
 5.165959156885432e-001	 9.069414106463511e-001	 1.240690969012313e+000
 5.073512654523393e-001	 9.121451397092618e-001	 1.128374754730044e+000
 4.980674310461160e-001	 9.172474565700007e-001	 1.017578724240085e+000
 4.887460423496261e-001	 9.222479973108831e-001	 9.081449861369666e-001
 4.793887314822593e-001	 9.271464321180207e-001	 7.999192401784716e-001
 5.745702410511921e-001	 8.788452867776672e-001	 2.140062461767705e+000
 5.655409411621540e-001	 8.846826797515603e-001	 2.011703984451626e+000
 5.564624815793788e-001	 8.904209715461181e-001	 1.885748866820634e+000
 5.473364697799463e-001	 8.960595899920347e-001	 1.762017066228018e+000
 5.381645208366691e-001	 9.015979971558207e-001	 1.640328570287785e+000
 5.289482565213536e-001	 9.070356894203694e-001	 1.520504067787843e+000
 5.196893044092901e-001	 9.123721975378291e-001	 1.402365609431912e+000
 5.103892969859419e-001	 9.176070866549637e-001	 1.285737256666875e+000
 5.010498707568080e-001	 9.227399563112226e-001	 1.170445716902918e+000
 4.916726653614004e-001	 9.277704404097718e-001	 1.056320963505331e+000
 4.822593226922785e-001	 9.326982071617905e-001	 9.431968390085905e-001
 5.779903020145834e-001	 8.840765087257161e-001	 2.317440469523766e+000
 5.689072562929800e-001	 8.899486480864601e-001	 2.185593378573401e+000
 5.597747582603968e-001	 8.957210963798673e-001	 2.056046201984813e+000
 5.505944249622295e-001	 9.013932780308613e-001	 1.928605372133182e+000
 5.413678810848195e-001	 9.069646519039685e-001	 1.803077506960280e+000
 5.320967580533770e-001	 9.124347113843607e-001	 1.679270102781716e+000
 5.227826931311401e-001	 9.178029844310451e-001	 1.556992216454745e+000
 5.134273285207482e-001	 9.230690336023735e-001	 1.436055135109887e+000
 5.040323104688038e-001	 9.282324560541011e-001	 1.316273031717375e+000
 4.945992883745785e-001	 9.332928835102466e-001	 1.197463604824542e+000
 4.851299139038015e-001	 9.382499822070561e-001	 1.079448700874861e+000
 5.814103629784772e-001	 8.893077306752675e-001	 2.487827648382290e+000
 5.722735714244086e-001	 8.952146164229528e-001	 2.352486054779784e+000
 5.630870349421174e-001	 9.010212212152780e-001	 2.219343294639907e+000
 5.538523801453157e-001	 9.067269660713994e-001	 2.088192134426012e+000
 5.445712413338730e-001	 9.123313066538565e-001	 1.958825680742569e+000
 5.352452595864036e-001	 9.178337333501018e-001	 1.831038095294148e+000
 5.258760818540936e-001	 9.232337713259999e-001	 1.704625298729308e+000
 5.164653600567581e-001	 9.285309805514910e-001	 1.579385661528476e+000
 5.070147501821034e-001	 9.337249557986366e-001	 1.455120680162276e+000
 4.975259113891605e-001	 9.388153266123082e-001	 1.331635636816293e+000
 4.880005051168285e-001	 9.438017572538180e-001	 1.208740241052775e+000
 4.592945930542355e-001	 8.882840068535240e-001	-4.057732367305714e-001
 4.502966533698555e-001	 8.928790086056798e-001	-4.449493820443129e-001
 4.412674277578943e-001	 8.973756500191494e-001	-4.809647869348070e-001
 4.322084813897782e-001	 9.017737125594310e-001	-5.139651235898304e-001
 4.231213782919209e-001	 9.060730099062141e-001	-5.440929027720683e-001
 4.140076805434689e-001	 9.102733877783562e-001	-5.714870074023993e-001
 4.048689474837917e-001	 9.143747237357485e-001	-5.962822449744204e-001
 3.957067349304588e-001	 9.183769269585733e-001	-6.186089197234050e-001
 3.865225944084202e-001	 9.222799380044704e-001	-6.385924253767467e-001
 3.773180723910820e-001	 9.260837285441589e-001	-6.563528592462138e-001
 3.680947095539379e-001	 9.297883010760839e-001	-6.720046583341518e-001
 4.621651842537271e-001	 8.938357818868210e-001	-2.112683554570101e-001
 4.531110074456053e-001	 8.984595024006081e-001	-2.567789678149570e-001
 4.440253491732000e-001	 9.029842478236768e-001	-2.990530622124479e-001
 4.349097843902569e-001	 9.074097982556841e-001	-3.382457649038517e-001
 4.257658868983534e-001	 9.117359662118177e-001	-3.745090074284317e-001
 4.165952285396289e-001	 9.159625964466769e-001	-4.079910431878550e-001
 4.073993783993218e-001	 9.200895657549018e-001	-4.388359832804619e-001
 3.981799020188594e-001	 9.241167827490497e-001	-4.671833525394983e-001
 3.889383606202208e-001	 9.280441876152459e-001	-4.931676666355822e-001
 3.796763103422681e-001	 9.318717518471500e-001	-5.169180310270042e-001
 3.703953014897153e-001	 9.355994779588222e-001	-5.385577624551623e-001
 4.650357754547226e-001	 8.993875569216143e-001	-2.432006882148600e-002
 4.559253615229333e-001	 9.040399961969269e-001	-7.612355429228120e-002
 4.467832705901071e-001	 9.085928456294796e-001	-1.246174561267458e-001
 4.376110873923095e-001	 9.130458839530872e-001	-1.699664799944390e-001
 4.284103955062817e-001	 9.173989225184354e-001	-2.123320997850658e-001
 4.191827765371558e-001	 9.216518051158654e-001	-2.518720570105636e-001
 4.099298093160402e-001	 9.258044077747669e-001	-2.887398798963832e-001
 4.006530691082201e-001	 9.298566385400726e-001	-3.230844231369540e-001
 3.913541268327034e-001	 9.338084372263916e-001	-3.550494292094612e-001
 3.820345482938097e-001	 9.376597751503261e-001	-3.847731120448931e-001
 3.726958934254723e-001	 9.414106548415501e-001	-4.123877637923517e-001
 4.679063666572221e-001	 9.049393319579037e-001	 1.551558458716288e-001
 4.587397156018397e-001	 9.096204899946366e-001	 9.710304850785644e-002
 4.495411920086155e-001	 9.142014434365573e-001	 4.243022544753700e-002
 4.403123903959358e-001	 9.186819696516396e-001	-9.037035598702904e-003
 4.310549041157054e-001	 9.230618788260665e-001	-5.746987430072396e-002
 4.217703245360497e-001	 9.273410137859220e-001	-1.030356397638894e-001
 4.124602402339468e-001	 9.315192497953438e-001	-1.458973927148482e-001
 4.031262361985404e-001	 9.355964943316413e-001	-1.862134288192621e-001
 3.937698930458679e-001	 9.395726868379074e-001	-2.241368240583544e-001
 3.843927862457060e-001	 9.434477984536867e-001	-2.598150029912636e-001
 3.749964853612087e-001	 9.472218317242677e-001	-2.933893306585008e-001
 4.707769578612255e-001	 9.104911069956888e-001	 3.272406728466714e-001
 4.615540696823245e-001	 9.152009837937380e-001	 2.629840727763139e-001
 4.522991134287257e-001	 9.198100412449112e-001	 2.021751985361903e-001
 4.430136934011363e-001	 9.243180553513423e-001	 1.446298021736814e-001
 4.336994127266247e-001	 9.287248351347118e-001	 9.016695296691911e-002
 4.243578725363107e-001	 9.330302224568465e-001	 3.860957289355577e-002
 4.149906711530419e-001	 9.372340918166332e-001	-1.021504848226155e-002
 4.055994032898208e-001	 9.413363501237559e-001	-5.647476073577337e-002
 3.961856592597146e-001	 9.453369364497942e-001	-1.003320818735293e-001
 3.867510241979578e-001	 9.492358217572325e-001	-1.419437510469389e-001
 3.772970772969245e-001	 9.530330086069749e-001	-1.814603054711618e-001
 4.736475490667328e-001	 9.160428820349702e-001	 4.920128469011973e-001
 4.643684237643874e-001	 9.207814775942297e-001	 4.215998825393967e-001
 4.550570348504373e-001	 9.254186390545399e-001	 3.546997913123145e-001
 4.457149964079103e-001	 9.299541410521942e-001	 2.911183587308300e-001
 4.363439213390395e-001	 9.343877914443708e-001	 2.306647359243800e-001
 4.269454205379384e-001	 9.387194311286390e-001	 1.731519928052179e-001
 4.175211020733251e-001	 9.429489338386340e-001	 1.183976501989833e-001
 4.080725703820610e-001	 9.470762059164168e-001	 6.622418986887585e-002
 3.986014254742433e-001	 9.511011860620511e-001	 1.645954145903002e-002
 3.891092621505646e-001	 9.550238450609633e-001	-3.106245453573480e-002
 3.795976692326197e-001	 9.588441854896720e-001	-7.650160856778972e-002
 4.765181402737442e-001	 9.215946570757476e-001	 6.495480392321540e-001
 4.671827778480285e-001	 9.263619713961119e-001	 5.730280600504421e-001
 4.578149562737504e-001	 9.310272368654444e-001	 5.000835310779571e-001
 4.484162994162583e-001	 9.355902267541962e-001	 4.305101386043912e-001
 4.389884299529501e-001	 9.400507477550438e-001	 3.641069866972275e-001
 4.295329685409333e-001	 9.444086398012995e-001	 3.006771682463845e-001
 4.200515329947968e-001	 9.486637758613471e-001	 2.400283145035680e-001
 4.105457374752612e-001	 9.528160617096241e-001	 1.819731220215541e-001
 4.010171916894542e-001	 9.568654356746784e-001	 1.263298559786100e-001
 3.914675001035264e-001	 9.608118683648785e-001	 7.292282897925304e-002
 3.818982611682945e-001	 9.646553623723591e-001	 2.158285450377105e-002
 4.793887314822593e-001	 9.271464321180207e-001	 7.999192401784716e-001
 4.699971319332482e-001	 9.319424651993856e-001	 7.173434890763905e-001
 4.605728776986650e-001	 9.366358346776242e-001	 6.384032281246687e-001
 4.511176024261801e-001	 9.412263124573479e-001	 5.628839099048566e-001
 4.416329385683561e-001	 9.457137040667309e-001	 4.905744607122631e-001
 4.321205165452952e-001	 9.500978484748277e-001	 4.212678696591294e-001
 4.225819639174567e-001	 9.543786178847723e-001	 3.547617557984625e-001
 4.130189045694212e-001	 9.585559175033771e-001	 2.908589121362613e-001
 4.034329579053471e-001	 9.626296852876761e-001	 2.293678254970737e-001
 3.938257380568436e-001	 9.665998916689790e-001	 1.701031712939256e-001
 3.841988531039485e-001	 9.704665392550355e-001	 1.128862823609804e-001
 4.822593226922785e-001	 9.326982071617905e-001	 9.431968390085905e-001
 4.728114860200457e-001	 9.375229590040501e-001	 8.546184352092532e-001
 4.633307991251812e-001	 9.422444324910794e-001	 7.697330565945166e-001
 4.538189054376757e-001	 9.468623981616493e-001	 6.883157857642619e-001
 4.442774471852578e-001	 9.513766603794317e-001	 6.101452387432798e-001
 4.347080645510238e-001	 9.557870571492240e-001	 5.350041723278431e-001
 4.251123948413049e-001	 9.600934599089094e-001	 4.626800689684413e-001
 4.154920716645411e-001	 9.642957732976765e-001	 3.929656980213633e-001
 4.058487241219220e-001	 9.683939349010439e-001	 3.256596523075765e-001
 3.961839760105157e-001	 9.723879149732645e-001	 2.605668590005981e-001
 3.864994450395821e-001	 9.762777161377017e-001	 1.974990639742818e-001
 4.851299139038015e-001	 9.382499822070561e-001	 1.079448700874861e+000
 4.756258401084219e-001	 9.431034528101053e-001	 9.849226233267827e-001
 4.660887205532987e-001	 9.478530303058101e-001	 8.941446324746838e-001
 4.565202084507454e-001	 9.524984838671006e-001	 8.068793028855070e-001
 4.469219558036550e-001	 9.570396166931465e-001	 7.228948060414511e-001
 4.372956125581196e-001	 9.614762658244883e-001	 6.419635361152112e-001
 4.276428257663415e-001	 9.658083019337586e-001	 5.638627127865845e-001
 4.179652387606210e-001	 9.700356290925217e-001	 4.883749599032215e-001
 4.082644903391791e-001	 9.741581845147825e-001	 4.152888588870441e-001
 3.985422139645430e-001	 9.781759382777345e-001	 3.443994758888456e-001
 3.888000369751951e-001	 9.820888930203577e-001	 2.755088617905647e-001
 4.880005051168285e-001	 9.438017572538180e-001	 1.208740241052775e+000
 4.784401941983761e-001	 9.486839466175517e-001	 1.108323312320651e+000
 4.688466419830179e-001	 9.534616281218163e-001	 1.011707088836476e+000
 4.592215114653888e-001	 9.581345695737015e-001	 9.186454973196684e-001
 4.495664644235478e-001	 9.627025730078751e-001	 8.288961286758295e-001
 4.398831605665823e-001	 9.671654745006202e-001	 7.422208823878642e-001
 4.301732566925663e-001	 9.715231439593196e-001	 6.583865874476430e-001
 4.204384058576607e-001	 9.757754848879134e-001	 5.771655985902749e-001
 4.106802565571181e-001	 9.799224341288914e-001	 4.983363667126041e-001
 4.009004519189254e-001	 9.839639615823896e-001	 4.216839824411152e-001
 3.911006289107875e-001	 9.879000699030034e-001	 3.470006919265068e-001
 3.680947095539379e-001	 9.297883010760839e-001	-6.720046583341518e-001
 3.588540400425035e-001	 9.333936886206078e-001	-6.600764089636385e-001
 3.495975907518841e-001	 9.368999543945393e-001	-6.478996510245024e-001
 3.403268806206378e-001	 9.403071914665516e-001	-6.356127167047057e-001
 3.310434199417800e-001	 9.436155223939605e-001	-6.233455573784199e-001
 3.217487096881426e-001	 9.468250988417171e-001	-6.112194739150433e-001
 3.124442408536596e-001	 9.499361011842371e-001	-5.993468735018142e-001
 3.031314938110319e-001	 9.529487380907489e-001	-5.878310530767544e-001
 2.938119376861946e-001	 9.558632460948671e-001	-5.767660094021033e-001
 2.844870297499801e-001	 9.586798891490925e-001	-5.662362757136422e-001
 2.751582148273362e-001	 9.613989581649598e-001	-5.563167848168098e-001
 3.703953014897153e-001	 9.355994779588222e-001	-5.385577624551623e-001
 3.610968777961315e-001	 9.392273991768732e-001	-5.335221993326437e-001
 3.517825756993630e-001	 9.427555791130884e-001	-5.280802897128321e-001
 3.424539236313367e-001	 9.461841114178223e-001	-5.223715390773599e-001
 3.331124413244013e-001	 9.495131194143741e-001	-5.165271424357288e-001
 3.237596391324712e-001	 9.527427557156019e-001	-5.106697064637287e-001
 3.143970173681948e-001	 9.558732018232629e-001	-5.049129984158577e-001
 3.050260656566050e-001	 9.589046677107687e-001	-4.993617219174568e-001
 2.956482623056764e-001	 9.618373913900710e-001	-4.941113196764130e-001
 2.862650736941870e-001	 9.646716384633742e-001	-4.892478030656701e-001
 2.768779536772433e-001	 9.674077016604118e-001	-4.848476084493373e-001
 3.726958934254723e-001	 9.414106548415501e-001	-4.123877637923517e-001
 3.633397155493697e-001	 9.450611097329433e-001	-4.140537316261576e-001
 3.539675606461448e-001	 9.486112038312892e-001	-4.151617554054028e-001
 3.445809666410922e-001	 9.520610313686210e-001	-4.158526593271956e-001
 3.351814627058935e-001	 9.554107164342228e-001	-4.162590202297761e-001
 3.257705685755453e-001	 9.586604125888596e-001	-4.165048814643777e-001
 3.163497938814106e-001	 9.618103024616285e-001	-4.167054938101696e-001
 3.069206375008533e-001	 9.648605973301261e-001	-4.169670835513049e-001
 2.974845869238874e-001	 9.678115366846392e-001	-4.173866477704651e-001
 2.880431176372357e-001	 9.706633877770767e-001	-4.180517768157830e-001
 2.785976925261631e-001	 9.734164451553701e-001	-4.190405038228296e-001
 3.749964853612087e-001	 9.472218317242677e-001	-2.933893306585008e-001
 3.655825533022183e-001	 9.508948202888189e-001	-3.015667681094346e-001
 3.561525455922296e-001	 9.544668285491412e-001	-3.090408404581181e-001
 3.467080096499038e-001	 9.579379513189481e-001	-3.159538366237561e-001
 3.372504840862564e-001	 9.613083134535069e-001	-3.224398540715417e-001
 3.277814980173654e-001	 9.645780694614899e-001	-3.286245043213061e-001
 3.183025703933071e-001	 9.677474030993348e-001	-3.346246457748020e-001
 3.088152093437768e-001	 9.708165269488214e-001	-3.405481440071945e-001
 2.993209115408272e-001	 9.737856819785721e-001	-3.464936595806893e-001
 2.898211615791260e-001	 9.766551370902001e-001	-3.525504633456230e-001
 2.803174313740955e-001	 9.794251886498347e-001	-3.587982791248643e-001
 3.772970772969245e-001	 9.530330086069749e-001	-1.814603054711618e-001
 3.678253910546773e-001	 9.567285308444995e-001	-1.959601919789072e-001
 3.583375305376169e-001	 9.603224532666446e-001	-2.096174069141960e-001
 3.488350526577720e-001	 9.638148712688035e-001	-2.225758505149970e-001
 3.393195054654902e-001	 9.672059104722267e-001	-2.349712802889936e-001
 3.297924274579310e-001	 9.704957263334932e-001	-2.469310080467621e-001
 3.202553469038841e-001	 9.736845037363813e-001	-2.585736245611431e-001
 3.107097811853755e-001	 9.767724565668540e-001	-2.700087519959779e-001
 3.011572361564963e-001	 9.797598272718694e-001	-2.813368241754843e-001
 2.915992055198580e-001	 9.826468864027445e-001	-2.926488946737434e-001
 2.820371702210404e-001	 9.854339321438055e-001	-3.040264726238939e-001
 3.795976692326197e-001	 9.588441854896720e-001	-7.650160856778972e-002
 3.700682288067467e-001	 9.625622413999854e-001	-9.713591279211574e-002
 3.605225154823070e-001	 9.661780779837994e-001	-1.167942934825832e-001
 3.509620956646967e-001	 9.696917912181867e-001	-1.356224094022731e-001
 3.413885268435948e-001	 9.731035074903820e-001	-1.537578181341284e-001
 3.318033568972424e-001	 9.764133832048694e-001	-1.713296645453032e-001
 3.222081234131418e-001	 9.796216043727681e-001	-1.884583971835719e-001
 3.126043530256494e-001	 9.827283861842243e-001	-2.052555127677521e-001
 3.029935607708942e-001	 9.857339725645313e-001	-2.218233288521222e-001
 2.933772494594315e-001	 9.886386357147092e-001	-2.382547846512288e-001
 2.837569090669977e-001	 9.914426756372825e-001	-2.546332699372709e-001
 3.818982611682945e-001	 9.646553623723591e-001	 2.158285450377105e-002
 3.723110665584262e-001	 9.683959519552766e-001	-4.998775308422108e-003
 3.627075004263000e-001	 9.720337027006055e-001	-3.047722588008944e-002
 3.530891386706776e-001	 9.755687111670984e-001	-5.500006231809858e-002
 3.434575482205703e-001	 9.790011045079724e-001	-7.870678294866693e-002
 3.338142863352994e-001	 9.823310400756183e-001	-1.017284991061448e-001
 3.241608999210802e-001	 9.855587050084952e-001	-1.241876431794384e-001
 3.144989248645985e-001	 9.886843158009319e-001	-1.461977050850448e-001
 3.048298853840212e-001	 9.917081178565576e-001	-1.678629972613908e-001
 2.951552933978466e-001	 9.946303850260949e-001	-1.892784481812044e-001
 2.854766479119678e-001	 9.974514191302661e-001	-2.105294242931050e-001
 3.841988531039485e-001	 9.704665392550355e-001	 1.128862823609804e-001
 3.745539043097163e-001	 9.742296625103728e-001	 8.054352838875610e-002
 3.648924853695958e-001	 9.778893274170635e-001	 4.942526960650207e-002
 3.552161816757149e-001	 9.814456311155383e-001	 1.938188611930229e-002
 3.455265695964167e-001	 9.848987015249986e-001	-9.728202448622048e-003
 3.358252157721023e-001	 9.882486969457400e-001	-3.803820796605407e-002
 3.261136764276992e-001	 9.914958056435628e-001	-6.567267339590098e-002
 3.163934967022229e-001	 9.946402454169776e-001	-9.274720117572051e-002
 3.066662099958771e-001	 9.976822631479484e-001	-1.193682104762606e-001
 2.969333373351033e-001	 1.000622134336902e+000	-1.456327233443543e-001
 2.871963867559504e-001	 1.003460162622756e+000	-1.716281796556631e-001
 3.864994450395821e-001	 9.762777161377017e-001	 1.974990639742818e-001
 3.767967420606166e-001	 9.800633730652739e-001	 1.595805436351593e-001
 3.670774703121943e-001	 9.837449521331725e-001	 1.230019494696280e-001
 3.573432246798088e-001	 9.873225510635062e-001	 8.761145771875643e-002
 3.475955909711338e-001	 9.907962985414597e-001	 5.326526400056410e-002
 3.378361452076508e-001	 9.941663538152349e-001	 1.982792118391106e-002
 3.280664529329988e-001	 9.974329062779704e-001	-1.282735167659762e-002
 3.182880685385224e-001	 1.000596175032361e+000	-4.481838954833966e-002
 3.085025346064622e-001	 1.003656408438704e+000	-7.625383087588050e-002
 2.987113812712017e-001	 1.006613883647129e+000	-1.072328963038137e-001
 2.889161255989454e-001	 1.009468906114752e+000	-1.378451965958000e-001
 3.888000369751951e-001	 9.820888930203577e-001	 2.755088617905647e-001
 3.790395798111272e-001	 9.858970836199806e-001	 2.321991349174751e-001
 3.692624552540956e-001	 9.896005768489330e-001	 1.903389333740188e-001
 3.594702676829590e-001	 9.931994710110025e-001	 1.497740798158720e-001
 3.496646123447218e-001	 9.966938955573566e-001	 1.103584032437277e-001
 3.398470746419451e-001	 1.000084010684103e+000	 7.195408586712490e-002
 3.300192294369791e-001	 1.003370006911719e+000	 3.443198066935229e-002
 3.201826403734971e-001	 1.006552104647081e+000	-2.328100544950570e-003
 3.103388592157763e-001	 1.009630553728824e+000	-3.843712873654327e-002
 3.004894252061416e-001	 1.012605632956777e+000	-7.399662887645801e-002
 2.906358644409532e-001	 1.015477649606254e+000	-1.090984807937343e-001
 3.911006289107875e-001	 9.879000699030034e-001	 3.470006919265068e-001
 3.812824175612483e-001	 9.917307941744925e-001	 2.984835647234494e-001
 3.714474401952996e-001	 9.954562015643447e-001	 2.515197817080980e-001
 3.615973106851656e-001	 9.990763909580269e-001	 2.059526615810830e-001
 3.517336337171806e-001	 1.002591492572689e+000	 1.616335234478110e-001
 3.418580040749850e-001	 1.006001667552343e+000	 1.184220427868539e-001
 3.319720059396401e-001	 1.009307107544807e+000	 7.618657773589758e-002
 3.220772122071473e-001	 1.012508034261140e+000	 3.480446547749678e-002
 3.121751838238193e-001	 1.015604699018308e+000	-5.837711409089752e-003
 3.022674691399232e-001	 1.018597382265846e+000	-4.584388866200848e-002
 2.923556032819735e-001	 1.021486393097262e+000	-8.530831406588126e-002
 2.751582148273362e-001	 9.613989581649598e-001	-5.563167848168098e-001
 2.658269247236917e-001	 9.640207705404181e-001	-5.318953031497107e-001
 2.564945776709277e-001	 9.665456696725904e-001	-5.076711638705269e-001
 2.471625777918796e-001	 9.689740244583481e-001	-4.837189285769724e-001
 2.378323145820488e-001	 9.713062287851813e-001	-4.601036958174601e-001
 2.285051624109132e-001	 9.735427010105087e-001	-4.368810529050943e-001
 2.191824800423044e-001	 9.756838834310223e-001	-4.140970521162128e-001
 2.098656101739950e-001	 9.777302417428043e-001	-3.917882107529742e-001
 2.005558789966087e-001	 9.796822644929403e-001	-3.699815344706629e-001
 1.912545957719429e-001	 9.815404625233627e-001	-3.486945632360384e-001
 1.819630524307584e-001	 9.833053684076398e-001	-3.279354392308655e-001
 2.768779536772433e-001	 9.674077016604118e-001	-4.848476084493373e-001
 2.674883430092385e-001	 9.700459003629525e-001	-4.662202415561081e-001
 2.580976687861811e-001	 9.725865801144321e-001	-4.475427198227381e-001
 2.487073439066750e-001	 9.750301121173285e-001	-4.288912158720186e-001
 2.393187665505684e-001	 9.773768927209279e-001	-4.103325358549807e-001
 2.299333196771486e-001	 9.796273428973831e-001	-3.919240642168099e-001
 2.205523705425217e-001	 9.817819077077411e-001	-3.737137331001775e-001
 2.111772702363210e-001	 9.838410557586842e-001	-3.557400158576589e-001
 2.018093532378621e-001	 9.858052786507170e-001	-3.380319440855146e-001
 1.924499369918288e-001	 9.876750904185350e-001	-3.206091475489787e-001
 1.831003215035492e-001	 9.894510269642906e-001	-3.034819163095986e-001
 2.785976925261631e-001	 9.734164451553701e-001	-4.190405038228296e-001
 2.691497612939977e-001	 9.760710301850823e-001	-4.060647131723498e-001
 2.597007599008473e-001	 9.786274905559387e-001	-3.927999441147950e-001
 2.502521100210834e-001	 9.810861997760217e-001	-3.793240482132205e-001
 2.408052185189014e-001	 9.834475566564155e-001	-3.657055987501373e-001
 2.313614769433978e-001	 9.857119847840073e-001	-3.520038284897591e-001
 2.219222610429528e-001	 9.878799319841973e-001	-3.382685923336088e-001
 2.124889302990613e-001	 9.899518697742695e-001	-3.245403543454093e-001
 2.030628274797300e-001	 9.919282928081484e-001	-3.108501985709674e-001
 1.936452782125293e-001	 9.938097183132900e-001	-2.972198630089430e-001
 1.842375905773547e-001	 9.955966855204340e-001	-2.836617960598817e-001
 2.803174313740955e-001	 9.794251886498347e-001	-3.587982791248643e-001
 2.708111795779696e-001	 9.820961600068084e-001	-3.513323679398664e-001
 2.613038510149262e-001	 9.846684009971100e-001	-3.433472470349966e-001
 2.517968761351048e-001	 9.871422874344286e-001	-3.349225156091937e-001
 2.422916704870476e-001	 9.895182205916453e-001	-3.261285744113301e-001
 2.327896342096607e-001	 9.917966266703809e-001	-3.170265565360447e-001
 2.232921515435980e-001	 9.939779562603915e-001	-3.076682833819412e-001
 2.138005903622158e-001	 9.960626837895604e-001	-2.980962452547797e-001
 2.043163017222123e-001	 9.980513069652331e-001	-2.883436060395915e-001
 1.948406194340444e-001	 9.999443462076283e-001	-2.784342313057728e-001
 1.853748596521748e-001	 1.001742344076070e+000	-2.683827391700231e-001
 2.820371702210404e-001	 9.854339321438055e-001	-3.040264726238939e-001
 2.724725978611541e-001	 9.881212898281302e-001	-3.019295435691171e-001
 2.629069421284180e-001	 9.907093114379463e-001	-2.990916868943998e-001
 2.533416422487393e-001	 9.931983750925491e-001	-2.955943189086392e-001
 2.437781224550072e-001	 9.955888845266164e-001	-2.915097289618386e-001
 2.342177914759371e-001	 9.978812685565041e-001	-2.869010033112782e-001
 2.246620420444571e-001	 1.000075980536323e+000	-2.818219744317047e-001
 2.151122504257846e-001	 1.002173497804557e+000	-2.763171952572444e-001
 2.055697759653092e-001	 1.004174321121972e+000	-2.704219377776980e-001
 1.960359606563742e-001	 1.006078974101550e+000	-2.641622153607949e-001
 1.865121287280096e-001	 1.007888002631199e+000	-2.575548281218668e-001
 2.837569090669977e-001	 9.914426756372825e-001	-2.546332699372709e-001
 2.741340161435512e-001	 9.941464196490479e-001	-2.577651840901304e-001
 2.645100332413225e-001	 9.967502218784476e-001	-2.599428897825513e-001
 2.548864083619867e-001	 9.992544627503825e-001	-2.612496906829915e-001
 2.452645744227801e-001	 1.001659548461329e+000	-2.617598266729767e-001
 2.356459487422271e-001	 1.003965910442377e+000	-2.615383908205057e-001
 2.260319325455302e-001	 1.006174004811991e+000	-2.606412720882229e-001
 2.164239104897676e-001	 1.008284311819260e+000	-2.591151232744460e-001
 2.068232502090207e-001	 1.010297335278366e+000	-2.569973536039661e-001
 1.972313018795187e-001	 1.012213601995055e+000	-2.543161453502502e-001
 1.876493978048591e-001	 1.014033661185820e+000	-2.510904938023582e-001
 2.854766479119678e-001	 9.974514191302661e-001	-2.105294242931050e-001
 2.757954344251609e-001	 1.000171549469561e+000	-2.187507613501094e-001
 2.661131243536398e-001	 1.002791132318613e+000	-2.258129722252766e-001
 2.564311744748472e-001	 1.005310550407929e+000	-2.318013189695601e-001
 2.467510263903661e-001	 1.007730212395783e+000	-2.367920547194304e-001
 2.370741060085309e-001	 1.010050552327999e+000	-2.408523338095301e-001
 2.274018230468173e-001	 1.012272029087397e+000	-2.440401479301906e-001
 2.177355705541650e-001	 1.014395125833667e+000	-2.464042878197674e-001
 2.080767244533466e-001	 1.016420349434413e+000	-2.479843299256375e-001
 1.984266431034777e-001	 1.018348229888142e+000	-2.488106474021654e-001
 1.887866668827233e-001	 1.020179319739934e+000	-2.489044447691436e-001
 2.871963867559504e-001	 1.003460162622756e+000	-1.716281796556631e-001
 2.774568527059831e-001	 1.006196679289671e+000	-1.848001993303098e-001
 2.677162154653698e-001	 1.008832042758445e+000	-1.966164666206199e-001
 2.579759405873205e-001	 1.011366638065190e+000	-2.071642737550805e-001
 2.482374783577657e-001	 1.013800876329979e+000	-2.165219506358489e-001
 2.385022632748483e-001	 1.016135194213371e+000	-2.247587681263345e-001
 2.287717135483184e-001	 1.018370053362542e+000	-2.319348677011235e-001
 2.190472306189766e-001	 1.020505939847781e+000	-2.381012169512286e-001
 2.093301986982869e-001	 1.022543363590114e+000	-2.432995903797779e-001
 1.996219843282515e-001	 1.024482857780812e+000	-2.475625748562144e-001
 1.899239359616020e-001	 1.026324978293541e+000	-2.509135990564486e-001
 2.889161255989454e-001	 1.009468906114752e+000	-1.378451965958000e-001
 2.791182709860181e-001	 1.012221809109376e+000	-1.558298011649329e-001
 2.693193065765125e-001	 1.014872953197940e+000	-1.722702493385553e-001
 2.595207066994070e-001	 1.017422725722164e+000	-1.872559360848192e-001
 2.497239303249784e-001	 1.019871540263916e+000	-2.008673323673766e-001
 2.399304205411792e-001	 1.022219836098492e+000	-2.131758816396220e-001
 2.301416040500333e-001	 1.024468077637423e+000	-2.242439230317369e-001
 2.203588906842024e-001	 1.026616753861601e+000	-2.341246407255926e-001
 2.105836729438419e-001	 1.028666377745470e+000	-2.428620389502788e-001
 2.008173255538399e-001	 1.030617485673066e+000	-2.504909419754235e-001
 1.910612050414955e-001	 1.032470636846640e+000	-2.570370184169437e-001
 2.906358644409532e-001	 1.015477649606254e+000	-1.090984807937343e-001
 2.807796892652655e-001	 1.018246938928678e+000	-1.317581787526607e-001
 2.709223976870681e-001	 1.020913863637101e+000	-1.526934713713317e-001
 2.610654728111064e-001	 1.023478813378851e+000	-1.719959296869064e-001
 2.512103822920046e-001	 1.025942204197595e+000	-1.897482308000956e-001
 2.413585778075238e-001	 1.028304477983363e+000	-2.060240476111221e-001
 2.315114945519623e-001	 1.030566101912042e+000	-2.208879655847128e-001
 2.216705507498425e-001	 1.032727567875125e+000	-2.343954260496285e-001
 2.118371471900113e-001	 1.034789391900480e+000	-2.465926954630229e-001
 2.020126667802429e-001	 1.036752113564902e+000	-2.575168600158874e-001
 1.921984741224037e-001	 1.038616295399233e+000	-2.671958448980380e-001
 2.923556032819735e-001	 1.021486393097262e+000	-8.530831406588126e-002
 2.824411075437256e-001	 1.024272068747575e+000	-1.125061848516676e-001
 2.725254887970363e-001	 1.026954774075927e+000	-1.378074914341482e-001
 2.626102389224189e-001	 1.029534901035252e+000	-1.613060550111516e-001
 2.526968342588440e-001	 1.032012868131015e+000	-1.830868246759199e-001
 2.427867350738821e-001	 1.034389119867983e+000	-2.032257604204713e-001
 2.328813850541052e-001	 1.036664126186398e+000	-2.217897435242992e-001
 2.229822108158968e-001	 1.038838381888356e+000	-2.388365138324477e-001
 2.130906214367951e-001	 1.040912406055143e+000	-2.544146333521771e-001
 2.032080080074605e-001	 1.042886741456322e+000	-2.685634755492186e-001
 1.933357432043266e-001	 1.044761953951317e+000	-2.813132396568150e-001
 1.819630524307584e-001	 9.833053684076398e-001	-3.279354392308655e-001
 1.726825231903044e-001	 9.849775358802030e-001	-3.063008452614145e-001
 1.634142641909075e-001	 9.865575392624050e-001	-2.853030588545450e-001
 1.541595131519813e-001	 9.880459728836374e-001	-2.649438288614852e-001
 1.449194890479376e-001	 9.894434504957537e-001	-2.452156936985807e-001
 1.356953918032302e-001	 9.907506046851591e-001	-2.261021309107157e-001
 1.264884020066532e-001	 9.919680862820068e-001	-2.075777244966027e-001
 1.172996806447692e-001	 9.930965637671554e-001	-1.896083490931306e-001
 1.081303688543234e-001	 9.941367226775286e-001	-1.721513700976557e-001
 9.898158769347724e-002	 9.950892650105072e-001	-1.551558587922415e-001
 8.985443793167208e-002	 9.959549086279671e-001	-1.385628215134014e-001
 1.831003215035492e-001	 9.894510269642906e-001	-3.034819163095986e-001
 1.737617889541971e-001	 9.911336454832593e-001	-2.857517464663012e-001
 1.644356033350418e-001	 9.927235238863055e-001	-2.684012681359192e-001
 1.551230101012422e-001	 9.942212602173800e-001	-2.514346763935124e-001
 1.458252358457991e-001	 9.956274720642854e-001	-2.348470157460578e-001
 1.365434879926932e-001	 9.969427959670911e-001	-2.186243245726218e-001
 1.272789545093972e-001	 9.981678868236399e-001	-2.027437975709889e-001
 1.180328036386388e-001	 9.993034172927950e-001	-1.871739653049711e-001
 1.088061836492666e-001	 1.000350077196086e+000	-1.718748899284803e-001
 9.960022260605439e-002	 1.001308572918378e+000	-1.567983761417980e-001
 9.041602815825124e-002	 1.002179626808183e+000	-1.418881964322294e-001
 1.842375905773547e-001	 9.955966855204340e-001	-2.836617960598817e-001
 1.748410547192887e-001	 9.972897550857186e-001	-2.697778784521000e-001
 1.654569424805282e-001	 9.988895085095403e-001	-2.560258755879956e-001
 1.560865070519777e-001	 1.000396547550409e+000	-2.424124144489787e-001
 1.467309826452272e-001	 1.001811493632075e+000	-2.289350236356552e-001
 1.373915841837843e-001	 1.003134987248274e+000	-2.155822728301305e-001
 1.280695070138011e-001	 1.004367687364536e+000	-2.023339305179149e-001
 1.187659266341701e-001	 1.005510270817729e+000	-1.891611390574434e-001
 1.094819984458439e-001	 1.006563431713990e+000	-1.760266061735808e-001
 1.002188575202089e-001	 1.007527880825667e+000	-1.628848119250266e-001
 9.097761838632212e-002	 1.008404344987907e+000	-1.496822301907483e-001
 1.853748596521748e-001	 1.001742344076070e+000	-2.683827391700231e-001
 1.759203204855793e-001	 1.003445864687581e+000	-2.582870488171088e-001
 1.664782816273670e-001	 1.005055493132110e+000	-2.480847564539201e-001
 1.570500040041880e-001	 1.006571834882724e+000	-2.377849076382823e-001
 1.476367294462220e-001	 1.007995515199123e+000	-2.273874940683496e-001
 1.382396803765038e-001	 1.009327178528707e+000	-2.168835882134756e-001
 1.288600595198647e-001	 1.010567487904694e+000	-2.062554964624251e-001
 1.194990496313631e-001	 1.011717124341959e+000	-1.954769298767592e-001
 1.101578132440553e-001	 1.012776786231242e+000	-1.845131916191798e-001
 1.008374924359407e-001	 1.013747188732373e+000	-1.733213801042733e-001
 9.153920861588473e-002	 1.014629063167139e+000	-1.618506069121838e-001
 1.865121287280096e-001	 1.007888002631199e+000	-2.575548281218668e-001
 1.769995862530690e-001	 1.009601974288847e+000	-2.511894680151560e-001
 1.674996207755581e-001	 1.011221477754013e+000	-2.444881725314596e-001
 1.580135009578730e-001	 1.012747122214324e+000	-2.374623934429837e-001
 1.485424762487834e-001	 1.014179536765429e+000	-2.301145655335153e-001
 1.390877765708515e-001	 1.015519369808391e+000	-2.224382365396297e-001
 1.296506120275883e-001	 1.016767288444116e+000	-2.144182158765894e-001
 1.202321726302179e-001	 1.017923977865484e+000	-2.060307412349515e-001
 1.108336280439009e-001	 1.018990140747839e+000	-1.972436621093535e-001
 1.014561273532498e-001	 1.019966496638497e+000	-1.880166393054063e-001
 9.210079884693902e-002	 1.020853781345879e+000	-1.783013594577068e-001
 1.876493978048591e-001	 1.014033661185820e+000	-2.510904938023582e-001
 1.780788520217577e-001	 1.015758083889515e+000	-2.483976765430211e-001
 1.685209599251014e-001	 1.017387462375251e+000	-2.451486998524047e-001
 1.589769979130328e-001	 1.018922409545211e+000	-2.413574103106340e-001
 1.494482230529114e-001	 1.020363558330993e+000	-2.370286667397046e-001
 1.399358727668273e-001	 1.021711561087324e+000	-2.321584656005448e-001
 1.304411645369717e-001	 1.022967088982800e+000	-2.267340854462426e-001
 1.209652956307342e-001	 1.024130831388303e+000	-2.207342495189649e-001
 1.115094428453805e-001	 1.025203495263784e+000	-2.141293055447647e-001
 1.020747622721363e-001	 1.026185804544039e+000	-2.068814217679940e-001
 9.266238907948500e-002	 1.027078499524128e+000	-1.989447982516696e-001
 1.887866668827233e-001	 1.020179319739934e+000	-2.489044447691436e-001
 1.791581177916453e-001	 1.021914193489587e+000	-2.498264747567062e-001
 1.695422990759969e-001	 1.023553446995823e+000	-2.499811589777016e-001
 1.599404948696673e-001	 1.025097696875384e+000	-2.493847283484664e-001
 1.503539698586061e-001	 1.026547579895815e+000	-2.480444476321889e-001
 1.407839689644315e-001	 1.027903752365509e+000	-2.459587364294602e-001
 1.312317170480149e-001	 1.029166889520747e+000	-2.431173095109491e-001
 1.216984186329123e-001	 1.030337684910417e+000	-2.395013355696156e-001
 1.121852576484942e-001	 1.031416849779075e+000	-2.350836134463381e-001
 1.026933971926001e-001	 1.032405112448999e+000	-2.298287648631802e-001
 9.322397931352271e-002	 1.033303217701885e+000	-2.236934426813418e-001
 1.899239359616020e-001	 1.026324978293541e+000	-2.509135990564486e-001
 1.802373835627320e-001	 1.028070303089062e+000	-2.553928552127845e-001
 1.705636382282448e-001	 1.029719431615729e+000	-2.589025477951094e-001
 1.609039918277765e-001	 1.031272984204843e+000	-2.614612825079084e-001
 1.512597166658673e-001	 1.032731601459896e+000	-2.630787128891142e-001
 1.416320651636639e-001	 1.034095943642944e+000	-2.637556570366110e-001
 1.320222695607179e-001	 1.035366690057957e+000	-2.634842339671009e-001
 1.224315416367521e-001	 1.036544538431826e+000	-2.622480186804454e-001
 1.128610724532420e-001	 1.037630204293712e+000	-2.600222149799744e-001
 1.033120321146413e-001	 1.038624420353377e+000	-2.567738450716965e-001
 9.378556954905211e-002	 1.039527935879150e+000	-2.524619549592899e-001
 1.910612050414955e-001	 1.032470636846640e+000	-2.570370184169437e-001
 1.813166493350177e-001	 1.034226412687940e+000	-2.650159374229524e-001
 1.715849773818450e-001	 1.035885416234970e+000	-2.718319767182029e-001
 1.618674887873604e-001	 1.037448271533588e+000	-2.775061081531519e-001
 1.521654634746952e-001	 1.038915623023234e+000	-2.820503577916930e-001
 1.424801613645244e-001	 1.040288134919629e+000	-2.854679185098416e-001
 1.328128220750808e-001	 1.041566490594429e+000	-2.877532825298325e-001
 1.231646646422536e-001	 1.042751391952530e+000	-2.888923929530880e-001
 1.135368872596239e-001	 1.043843558807697e+000	-2.888628133345802e-001
 1.039306670382598e-001	 1.044843728257173e+000	-2.876339143201111e-001
 9.434715978607323e-002	 1.045752654055923e+000	-2.851670763499338e-001
 1.921984741224037e-001	 1.038616295399233e+000	-2.671958448980380e-001
 1.823959151085024e-001	 1.040382522286221e+000	-2.786169049266962e-001
 1.726063165367974e-001	 1.042051400853545e+000	-2.886906061852939e-001
 1.628309857484190e-001	 1.043623558861618e+000	-2.974402789207507e-001
 1.530712102850897e-001	 1.045099644585831e+000	-3.048803063732382e-001
 1.433282575670133e-001	 1.046480326195565e+000	-3.110162333859112e-001
 1.336033745911035e-001	 1.047766291130165e+000	-3.158448952604727e-001
 1.238977876494168e-001	 1.048958245472530e+000	-3.193545659122670e-001
 1.142127020676399e-001	 1.050056913321028e+000	-3.215251243618265e-001
 1.045493019634557e-001	 1.051063036160387e+000	-3.223282385758943e-001
 9.490875002458606e-002	 1.051977372232205e+000	-3.217275656581540e-001
 1.933357432043266e-001	 1.044761953951317e+000	-2.813132396568150e-001
 1.834751808831861e-001	 1.046538631883905e+000	-2.961189445852603e-001
 1.736276556931020e-001	 1.048217385471454e+000	-3.094015863645892e-001
 1.637944827109525e-001	 1.049798846188935e+000	-3.211868467687683e-001
 1.539769570970508e-001	 1.051283666147685e+000	-3.314914517489297e-001
 1.441763537711304e-001	 1.052672517470751e+000	-3.403232761960430e-001
 1.343939271087860e-001	 1.053966091665163e+000	-3.476814692615638e-001
 1.246309106582417e-001	 1.055165098991823e+000	-3.535565992879596e-001
 1.148885168772901e-001	 1.056270267833706e+000	-3.579308173789753e-001
 1.051679368902289e-001	 1.057282344063018e+000	-3.607780386128355e-001
 9.547034026459057e-002	 1.058202090407995e+000	-3.620641398905489e-001
 8.985443793167208e-002	 9.959549086279671e-001	-1.385628215134014e-001
 8.074999985732721e-002	 9.967343866612564e-001	-1.278246566534518e-001
 7.166933310492567e-002	 9.974284469156016e-001	-1.182246815390577e-001
 6.261347650004133e-002	 9.980378512759270e-001	-1.096907886701510e-001
 5.358344792087624e-002	 9.985633751160036e-001	-1.021428757361785e-001
 4.458024417780558e-002	 9.990058067093818e-001	-9.549314422680764e-002
 3.560484091004575e-002	 9.993659466433188e-001	-8.964640710976797e-002
 2.665819249913583e-002	 9.996446072361989e-001	-8.450040457316949e-002
 1.774123199891268e-002	 9.998426119589265e-001	-7.994612687627320e-002
 8.854871081647956e-003	 9.999607948607566e-001	-7.586814333818498e-002
 0.000000000000000e+000	 1.000000000000000e+000	-7.214493652904565e-002
 9.041602815825124e-002	 1.002179626808183e+000	-1.418881964322294e-001
 8.125468734611731e-002	 1.002963976578931e+000	-1.330776820935384e-001
 7.211726642688858e-002	 1.003662374709645e+000	-1.251463899015606e-001
 6.300481071879685e-002	 1.004275587847028e+000	-1.180242152861403e-001
 5.391834446178074e-002	 1.004804396210937e+000	-1.116331152608065e-001
 4.485887069627818e-002	 1.005249593001633e+000	-1.058874041130334e-001
 3.582737115924854e-002	 1.005611983810042e+000	-1.006940583110374e-001
 2.682480619711332e-002	 1.005892386031539e+000	-9.595302963376380e-002
 1.785211469529373e-002	 1.006091628283720e+000	-9.155756555156830e-002
 8.910214024010878e-003	 1.006210549828649e+000	-8.739453588415963e-002
 0.000000000000000e+000	 1.006250000000000e+000	-8.334476479819383e-002
 9.097761838632212e-002	 1.008404344987907e+000	-1.496822301907483e-001
 8.175937483629399e-002	 1.009193566496209e+000	-1.428032040486592e-001
 7.256519975012298e-002	 1.009896302503375e+000	-1.365537293651322e-001
 6.339614493869862e-002	 1.010513324417890e+000	-1.308656279075017e-001
 5.425324100369641e-002	 1.011045417305696e+000	-1.256628331492099e-001
 4.513749721561711e-002	 1.011493379293763e+000	-1.208616832386877e-001
 3.604990140916318e-002	 1.011858020976688e+000	-1.163712233506440e-001
 2.699141989563868e-002	 1.012140164826834e+000	-1.120935164121423e-001
 1.796299739204925e-002	 1.012340644608495e+000	-1.079239612257925e-001
 8.965556966565612e-003	 1.012460304796537e+000	-1.037516170192870e-001
 0.000000000000000e+000	 1.012500000000000e+000	-9.945953346059643e-002
 9.153920861588473e-002	 1.014629063167139e+000	-1.618506069121838e-001
 8.226406232785735e-002	 1.015423156413090e+000	-1.569068562488643e-001
 7.301313307462881e-002	 1.016130230296793e+000	-1.523522065461678e-001
 6.378747915974664e-002	 1.016751060988513e+000	-1.481203302765604e-001
 5.458813754662326e-002	 1.017286438400280e+000	-1.441370554756828e-001
 4.541612373582238e-002	 1.017737165585772e+000	-1.403206562011783e-001
 3.627243165978967e-002	 1.018104058143257e+000	-1.365821525292343e-001
 2.715803359471191e-002	 1.018387943622088e+000	-1.328256190896079e-001
 1.807388008917924e-002	 1.018589660933250e+000	-1.289485011504585e-001
 9.020899909312152e-003	 1.018710059764419e+000	-1.248419372653346e-001
 0.000000000000000e+000	 1.018750000000000e+000	-1.203910875339300e-001
 9.210079884693902e-002	 1.020853781345879e+000	-1.783013594577068e-001
 8.276874982080734e-002	 1.021652746329574e+000	-1.752966142771071e-001
 7.346106640040606e-002	 1.022364158089898e+000	-1.724496656362598e-001
 6.417881338194091e-002	 1.022988797558899e+000	-1.696959620127108e-001
 5.492303409056127e-002	 1.023527459494690e+000	-1.669631450546332e-001
 4.569475025689399e-002	 1.023980951877660e+000	-1.641713377267612e-001
 3.649496191112803e-002	 1.024350095309749e+000	-1.612334421654722e-001
 2.732464729433300e-002	 1.024635722417298e+000	-1.580554462325324e-001
 1.818476278668370e-002	 1.024838677257986e+000	-1.545367377685721e-001
 9.076242852250494e-003	 1.024959814732297e+000	-1.505704255606782e-001
 0.000000000000000e+000	 1.025000000000000e+000	-1.460436660592508e-001
 9.266238907948500e-002	 1.027078499524128e+000	-1.989447982516696e-001
 8.327343731514396e-002	 1.027882336245661e+000	-1.978827246040501e-001
 7.390899972745478e-002	 1.028598085882691e+000	-1.967562175658521e-001
 6.457014760528142e-002	 1.029226534129045e+000	-1.955024278308234e-001
 5.525793063551046e-002	 1.029768480588924e+000	-1.940507306267149e-001
 4.597337677883193e-002	 1.030224738169427e+000	-1.923230117544034e-001
 3.671749216317824e-002	 1.030596132476163e+000	-1.902339635058917e-001
 2.749126099450195e-002	 1.030883501212465e+000	-1.876913894452441e-001
 1.829564548456264e-002	 1.031087693582703e+000	-1.845965170448017e-001
 9.131585795380650e-003	 1.031209569700170e+000	-1.808443171869574e-001
 0.000000000000000e+000	 1.031250000000000e+000	-1.763238295545515e-001
 9.322397931352271e-002	 1.033303217701885e+000	-2.236934426813418e-001
 8.377812481086722e-002	 1.034111926161351e+000	-2.245776361876435e-001
 7.435693305577493e-002	 1.034832013675171e+000	-2.251841717289990e-001
 6.496148182976819e-002	 1.035464270698953e+000	-2.254518293124889e-001
 5.559282718147084e-002	 1.036009501682985e+000	-2.253116386093623e-001
 4.625200330163622e-002	 1.036468524461074e+000	-2.246871630881417e-001
 3.694002241594032e-002	 1.036842169642501e+000	-2.234947942017365e-001
 2.765787469521876e-002	 1.037131280007589e+000	-2.216440546044943e-001
 1.840652818281604e-002	 1.037336709907401e+000	-2.190379093817743e-001
 9.186928738702612e-003	 1.037459324668039e+000	-2.155730843012254e-001
 0.000000000000000e+000	 1.037500000000000e+000	-2.111403900909618e-001
 9.378556954905211e-002	 1.039527935879150e+000	-2.524619549592899e-001
 8.428281230797712e-002	 1.040341516076645e+000	-2.552959345306283e-001
 7.480486638536651e-002	 1.041065941467339e+000	-2.576479701615043e-001
 6.535281605540122e-002	 1.041702007268623e+000	-2.594583991338686e-001
 5.592772372844239e-002	 1.042250522776870e+000	-2.606598272983922e-001
 4.653062982530682e-002	 1.042712310752600e+000	-2.611774115024387e-001
 3.716255266941425e-002	 1.043088206808762e+000	-2.609291522501611e-001
 2.782448839648342e-002	 1.043379058802669e+000	-2.598261955635255e-001
 1.851741088144391e-002	 1.043585726232079e+000	-2.577731430206964e-001
 9.242271682216382e-003	 1.043709079635902e+000	-2.546683689627825e-001
 0.000000000000000e+000	 1.043750000000000e+000	-2.504043438809235e-001
 9.434715978607323e-002	 1.045752654055923e+000	-2.851670763499338e-001
 8.478749980647361e-002	 1.046571105991540e+000	-2.899542780927926e-001
 7.525279971622957e-002	 1.047299869259194e+000	-2.940641240686713e-001
 6.574415028218049e-002	 1.047939743838054e+000	-2.974384376391051e-001
 5.626262027642508e-002	 1.048491543870581e+000	-3.000113234193629e-001
 4.680925634984378e-002	 1.048956097044005e+000	-3.017094482010857e-001
 3.738508292360004e-002	 1.049334243974945e+000	-3.024523322916193e-001
 2.799110209829597e-002	 1.049626837597707e+000	-3.021526502257989e-001
 1.862829358044626e-002	 1.049834742556739e+000	-3.007165398203159e-001
 9.297614625921961e-003	 1.049958834603761e+000	-2.980439185544921e-001
 0.000000000000000e+000	 1.050000000000000e+000	-2.940288062738879e-001
 9.490875002458606e-002	 1.051977372232205e+000	-3.217275656581540e-001
 8.529218730635679e-002	 1.052800695906040e+000	-3.284713369612598e-001
 7.570073304836404e-002	 1.053533797050736e+000	-3.343511526082113e-001
 6.613548451010601e-002	 1.054177480407246e+000	-3.393102516670897e-001
 5.659751682541899e-002	 1.054732564964118e+000	-3.432841609302117e-001
 4.708788287524708e-002	 1.055199883335289e+000	-3.462009745323801e-001
 3.760761317849768e-002	 1.055580281141052e+000	-3.479816441728562e-001
 2.815771580065636e-002	 1.055874616392700e+000	-3.485402788845087e-001
 1.873917627982307e-002	 1.056083758881379e+000	-3.477844533151890e-001
 9.352957569819345e-003	 1.056208589571615e+000	-3.456155234922413e-001
 0.000000000000000e+000	 1.056250000000000e+000	-3.419289490605524e-001
 9.547034026459057e-002	 1.058202090407995e+000	-3.620641398905489e-001
 8.579687480762657e-002	 1.059030285820142e+000	-3.707677336842694e-001
 7.614866638176999e-002	 1.059767724841966e+000	-3.784295238324537e-001
 6.652681873917778e-002	 1.060415216976200e+000	-3.849940955370226e-001
 5.693241337542406e-002	 1.060973586057479e+000	-3.903983219861215e-001
 4.736650940151671e-002	 1.061443669626452e+000	-3.945716428673713e-001
 3.783014343410719e-002	 1.061826318307081e+000	-3.974363536746504e-001
 2.832432950356462e-002	 1.062122395187651e+000	-3.989079047420897e-001
 1.885005897957436e-002	 1.062332775206001e+000	-3.988952089609198e-001
 9.408300513908539e-003	 1.062458344539465e+000	-3.973009571392469e-001
 0.000000000000000e+000	 1.062500000000000e+000	-3.940219399884373e-001
 1.062500000000000e+000	 0.000000000000000e+000	 2.500281551012226e+001
 1.062458344539465e+000	 9.408300513908575e-003	 2.501861265108994e+001
 1.062332775206001e+000	 1.885005897957442e-002	 2.502291395701077e+001
 1.062122395187651e+000	 2.832432950356454e-002	 2.501554385371952e+001
 1.061826318307081e+000	 3.783014343410716e-002	 2.499632808647761e+001
 1.061443669626452e+000	 4.736650940151670e-002	 2.496509377575050e+001
 1.060973586057479e+000	 5.693241337542408e-002	 2.492166947263302e+001
 1.060415216976200e+000	 6.652681873917786e-002	 2.486588521399822e+001
 1.059767724841966e+000	 7.614866638176993e-002	 2.479757257745400e+001
 1.059030285820142e+000	 8.579687480762653e-002	 2.471656473620075e+001
 1.058202090407995e+000	 9.547034026459059e-002	 2.462269651389165e+001
 1.068750000000000e+000	 0.000000000000000e+000	 2.468231721143328e+001
 1.068708099507314e+000	 9.463643458091291e-003	 2.469918026426037e+001
 1.068581791530622e+000	 1.896094167950338e-002	 2.470456660455454e+001
 1.068370173982603e+000	 2.849094320672514e-002	 2.469830198715659e+001
 1.068072355473110e+000	 3.805267369003405e-002	 2.468021350198939e+001
 1.067687455917616e+000	 4.764513592815908e-002	 2.465012962745239e+001
 1.067214607150841e+000	 5.726730992584744e-002	 2.460788028337441e+001
 1.066652953545155e+000	 6.691815296870349e-002	 2.455329688360400e+001
 1.066001652633196e+000	 7.659659971565526e-002	 2.448621238832482e+001
 1.065259875734244e+000	 8.630156230939116e-002	 2.440646135619396e+001
 1.064426808583786e+000	 9.603193050509512e-002	 2.431387999640892e+001
 1.075000000000000e+000	 0.000000000000000e+000	 2.437321401175495e+001
 1.074957854475168e+000	 9.518986402269241e-003	 2.439112290032480e+001
 1.074830807855262e+000	 1.907182437941319e-002	 2.439757531879732e+001
 1.074617952777596e+000	 2.865755690984252e-002	 2.439239839197840e+001
 1.074318392639217e+000	 3.827520394588388e-002	 2.437542059499945e+001
 1.073931242208900e+000	 4.792376245468060e-002	 2.434647180426107e+001
 1.073455628244378e+000	 5.760220647609615e-002	 2.430538334784401e+001
 1.072890690114347e+000	 6.730948719799063e-002	 2.425198805547012e+001
 1.072235580424738e+000	 7.704453304922805e-002	 2.418612030810518e+001
 1.071489465648743e+000	 8.680624981075884e-002	 2.410761608730470e+001
 1.070651526760067e+000	 9.659352074510795e-002	 2.401631302441387e+001
 1.081250000000000e+000	 0.000000000000000e+000	 2.407534003163499e+001
 1.081207609443027e+000	 9.574329346442423e-003	 2.409427398146859e+001
 1.081079824179922e+000	 1.918270707930388e-002	 2.410177281756017e+001
 1.080865731572633e+000	 2.882417061291670e-002	 2.409766507596612e+001
 1.080564429805401e+000	 3.849773420165664e-002	 2.408178065790595e+001
 1.080175028500304e+000	 4.820238898108127e-002	 2.405395087818640e+001
 1.079696649338089e+000	 5.793710302617022e-002	 2.401400851300110e+001
 1.079128426683778e+000	 6.770082142703926e-002	 2.396178784719131e+001
 1.078469508216592e+000	 7.749246638248822e-002	 2.389712472106357e+001
 1.077719055563640e+000	 8.731093731172958e-002	 2.381985657687030e+001
 1.076876244936841e+000	 9.715511098462908e-002	 2.372982250506848e+001
 1.087500000000000e+000	 0.000000000000000e+000	 2.378853320494187e+001
 1.087457364410891e+000	 9.629672290610840e-003	 2.380847074671529e+001
 1.087328840504600e+000	 1.929358977917544e-002	 2.381699563926829e+001
 1.087113510367714e+000	 2.899078431594769e-002	 2.381393787152128e+001
 1.086810466971661e+000	 3.872026445735231e-002	 2.379912881199473e+001
 1.086418814791830e+000	 4.848101550736109e-002	 2.377240125464567e+001
 1.085937670431974e+000	 5.827199957606966e-002	 2.373358946398560e+001
 1.085366163253448e+000	 6.809215565584935e-002	 2.368252921956988e+001
 1.084703436008760e+000	 7.794039971543583e-002	 2.361905785995793e+001
 1.083948645478932e+000	 8.781562481230332e-002	 2.354301432625485e+001
 1.083100963114107e+000	 9.771670122365847e-002	 2.345423920535442e+001
 1.093750000000000e+000	 0.000000000000000e+000	 2.351263516991274e+001
 1.093707119378759e+000	 9.685015234774493e-003	 2.353355414287379e+001
 1.093577856829299e+000	 1.940447247902788e-002	 2.354308403379084e+001
 1.093361289162837e+000	 2.915739801893547e-002	 2.354105632639068e+001
 1.093056504137999e+000	 3.894279471297092e-002	 2.352730389804258e+001
 1.092662601083477e+000	 4.875964203352006e-002	 2.350166106293771e+001
 1.092178691526035e+000	 5.860689612579449e-002	 2.346396361445556e+001
 1.091603899823356e+000	 6.848348988442095e-002	 2.341404886680991e+001
 1.090937363801241e+000	 7.838833304807083e-002	 2.335175569607898e+001
 1.090178235394623e+000	 8.832031231248014e-002	 2.327692458073417e+001
 1.089325681291864e+000	 9.827829146219616e-002	 2.318939764179246e+001
 1.100000000000000e+000	 0.000000000000000e+000	 2.324749116391577e+001
 1.099956874346632e+000	 9.740358178933380e-003	 2.326936871920375e+001
 1.099826873154016e+000	 1.951535517886117e-002	 2.327988185700216e+001
 1.099609067958004e+000	 2.932401172188006e-002	 2.327886359811702e+001
 1.099302541304414e+000	 3.916532496851245e-002	 2.326614837064976e+001
 1.098906387375244e+000	 4.903826855955819e-002	 2.324157205045086e+001
 1.098419712620269e+000	 5.894179267534468e-002	 2.320497200066341e+001
 1.097841636393502e+000	 6.887482411275402e-002	 2.315618711045453e+001
 1.097171291594033e+000	 7.883626638039325e-002	 2.309505783304167e+001
 1.096407825310710e+000	 8.882499981226001e-002	 2.302142622313448e+001
 1.095550399470112e+000	 9.883988170024215e-002	 2.293513597392149e+001
 1.106250000000000e+000	 0.000000000000000e+000	 2.299294992177969e+001
 1.106206629314510e+000	 9.795701123087501e-003	 2.301576252565136e+001
 1.106075889478752e+000	 1.962623787867533e-002	 2.302723646891734e+001
 1.105856846753214e+000	 2.949062542478145e-002	 2.302720635206713e+001
 1.105548578470905e+000	 3.938785522397691e-002	 2.301550819615477e+001
 1.105150173667133e+000	 4.931689508547545e-002	 2.299197948045688e+001
 1.104660733714679e+000	 5.927668922472023e-002	 2.295645917912287e+001
 1.104079372963887e+000	 6.926615834084861e-002	 2.290878779691886e+001
 1.103405219387138e+000	 7.928419971240305e-002	 2.284880740417728e+001
 1.102637415227194e+000	 8.932968731164291e-002	 2.277636167107696e+001
 1.101775117648852e+000	 9.940147193779644e-002	 2.269129590138833e+001
 1.112500000000000e+000	 0.000000000000000e+000	 2.274886357755059e+001
 1.112456384282393e+000	 9.851044067236857e-003	 2.277258701451540e+001
 1.112324905803507e+000	 1.973712057847036e-002	 2.278499863526111e+001
 1.112104625548468e+000	 2.965723912763964e-002	 2.278593466289759e+001
 1.111794615637474e+000	 3.961038547936430e-002	 2.277523275398979e+001
 1.111393959959142e+000	 4.959552161127187e-002	 2.275273203335033e+001
 1.110901754809263e+000	 5.961158577392116e-002	 2.271827312772498e+001
 1.110317109534511e+000	 6.965749256870467e-002	 2.267169819847657e+001
 1.109639147180557e+000	 7.973213304410030e-002	 2.261285097338405e+001
 1.108867005144075e+000	 8.983437481062885e-002	 2.254157677768558e+001
 1.107999835828085e+000	 9.996306217485904e-002	 2.245772256450655e+001
 1.118750000000000e+000	 0.000000000000000e+000	 2.251508756954166e+001
 1.118706139250280e+000	 9.906387011381447e-003	 2.253969694540955e+001
 1.118573922128282e+000	 1.984800327824626e-002	 2.255302243233647e+001
 1.118352404343764e+000	 2.982385283045462e-002	 2.255490191932325e+001
 1.118040652804120e+000	 3.983291573467462e-002	 2.254517474134306e+001
 1.117637746251272e+000	 4.987414813694744e-002	 2.252368171119812e+001
 1.117142775904022e+000	 5.994648232294745e-002	 2.249026515016906e+001
 1.116554846105373e+000	 7.004882679632221e-002	 2.244476891756567e+001
 1.115873074974287e+000	 8.018006637548496e-002	 2.238703843930123e+001
 1.115096595061353e+000	 9.033906230921783e-002	 2.231692073562336e+001
 1.114224554007809e+000	 1.005246524114299e-001	 2.223426444814837e+001
 1.125000000000000e+000	 0.000000000000000e+000	 2.229148054854803e+001
 1.124955894218173e+000	 9.961729955521271e-003	 2.231695029339250e+001
 1.124822938453075e+000	 1.995888597800303e-002	 2.233116515506401e+001
 1.124600183139104e+000	 2.999046653322640e-002	 2.233396473205995e+001
 1.124286689970844e+000	 4.005544598990785e-002	 2.232519008099881e+001
 1.123881532543523e+000	 5.015277466250215e-002	 2.230468374547085e+001
 1.123383796998955e+000	 6.028137887179912e-002	 2.227228978357907e+001
 1.122792582676474e+000	 7.044016102370125e-002	 2.222785379428381e+001
 1.122107002768330e+000	 8.062799970655701e-002	 2.217122294267740e+001
 1.121326184979027e+000	 9.084374980740984e-002	 2.210224598432738e+001
 1.120449272188024e+000	 1.010862426475091e-001	 2.202077328884032e+001
 1.058202090407995e+000	 9.547034026459059e-002	 2.462269651389165e+001
 1.057282344063019e+000	 1.051679368902289e-001	 2.456501168468205e+001
 1.056270267833706e+000	 1.148885168772901e-001	 2.449451427867532e+001
 1.055165098991823e+000	 1.246309106582416e-001	 2.441112985285607e+001
 1.053966091665163e+000	 1.343939271087860e-001	 2.431478727814936e+001
 1.052672517470751e+000	 1.441763537711304e-001	 2.420541874185626e+001
 1.051283666147685e+000	 1.539769570970509e-001	 2.408295974780934e+001
 1.049798846188935e+000	 1.637944827109525e-001	 2.394734911440878e+001
 1.048217385471454e+000	 1.736276556931020e-001	 2.379852897071157e+001
 1.046538631883905e+000	 1.834751808831860e-001	 2.363644475075804e+001
 1.044761953951317e+000	 1.933357432043265e-001	 2.346104518633083e+001
 1.064426808583786e+000	 9.603193050509512e-002	 2.431387999640892e+001
 1.063501651965647e+000	 1.057865718174997e-001	 2.425954681089362e+001
 1.062483622346374e+000	 1.155643316874306e-001	 2.419243111453053e+001
 1.061371952511095e+000	 1.253640336675448e-001	 2.411245928943466e+001
 1.060165892200122e+000	 1.351844796269298e-001	 2.401956101679789e+001
 1.058864708745877e+000	 1.450244499756868e-001	 2.391366927660994e+001
 1.057467687709453e+000	 1.548827039094243e-001	 2.379472034507027e+001
 1.055974133516133e+000	 1.647579796738662e-001	 2.366265378985741e+001
 1.054383370089207e+000	 1.746489948497500e-001	 2.351741246343567e+001
 1.052694741481390e+000	 1.845544466581708e-001	 2.335894249459033e+001
 1.050907612503156e+000	 1.944730122865031e-001	 2.318719327839455e+001
 1.070651526760067e+000	 9.659352074510795e-002	 2.401631302441387e+001
 1.069720959868854e+000	 1.064052067441884e-001	 2.396530733716900e+001
 1.068696976859676e+000	 1.162401464969178e-001	 2.390155076232738e+001
 1.067578806031029e+000	 1.260971566761428e-001	 2.382497054808547e+001
 1.066365692735741e+000	 1.359750321443365e-001	 2.373549722578860e+001
 1.065056900021631e+000	 1.458725461794938e-001	 2.363306460685655e+001
 1.063651709271786e+000	 1.557884507210560e-001	 2.351760977737034e+001
 1.062149420843805e+000	 1.657214766360660e-001	 2.338907309049358e+001
 1.060549354707311e+000	 1.756703340057323e-001	 2.324739815691501e+001
 1.058850851079074e+000	 1.856337124325587e-001	 2.309253183351142e+001
 1.057053271055009e+000	 1.956102813681722e-001	 2.292442421044117e+001
 1.076876244936841e+000	 9.715511098462908e-002	 2.372982250506848e+001
 1.075940267772638e+000	 1.070238416702949e-001	 2.368211972324462e+001
 1.074910331373612e+000	 1.169159613057517e-001	 2.362169923091436e+001
 1.073785659551625e+000	 1.268302796840359e-001	 2.354848918354967e+001
 1.072565493272020e+000	 1.367655846610058e-001	 2.346242100277993e+001
 1.071249091298013e+000	 1.467206423825510e-001	 2.336342937044071e+001
 1.069835730834687e+000	 1.566941975319458e-001	 2.325145222025405e+001
 1.068324708171952e+000	 1.666849735975519e-001	 2.312643072731985e+001
 1.066715339325768e+000	 1.766916731610488e-001	 2.298830929561256e+001
 1.065006960676958e+000	 1.867129782063497e-001	 2.283703554369007e+001
 1.063198929606877e+000	 1.967475504493340e-001	 2.267256028883276e+001
 1.083100963114107e+000	 9.771670122365847e-002	 2.345423920535442e+001
 1.082159575676999e+000	 1.076424765958193e-001	 2.340981428792924e+001
 1.081123685888183e+000	 1.175917761139322e-001	 2.335270638774304e+001
 1.079992513072882e+000	 1.275634026912237e-001	 2.328284460898325e+001
 1.078765293808959e+000	 1.375561371769380e-001	 2.320016130394037e+001
 1.077441282575024e+000	 1.475687385848588e-001	 2.310459206409889e+001
 1.076019752398154e+000	 1.575999443420937e-001	 2.299607570882848e+001
 1.074499995500573e+000	 1.676484705583237e-001	 2.287455427186348e+001
 1.072881323944578e+000	 1.777130123156997e-001	 2.273997298577173e+001
 1.071163070275040e+000	 1.877922439795438e-001	 2.259228026462727e+001
 1.069344588158759e+000	 1.978848195299885e-001	 2.243142768511331e+001
 1.089325681291864e+000	 9.827829146219616e-002	 2.318939764179246e+001
 1.088378883581937e+000	 1.082611115207616e-001	 2.314822509884477e+001
 1.087337040403388e+000	 1.182675909214594e-001	 2.309440584862229e+001
 1.086199366594801e+000	 1.282965256977065e-001	 2.302786998571634e+001
 1.084965094346558e+000	 1.383466896921329e-001	 2.294855083370533e+001
 1.083633473852662e+000	 1.484168347864170e-001	 2.285638493320526e+001
 1.082203773962188e+000	 1.585056911514998e-001	 2.275131202748989e+001
 1.080675282829669e+000	 1.686119675183815e-001	 2.263327504587563e+001
 1.079047308563739e+000	 1.787343514696848e-001	 2.250222008507991e+001
 1.077319179873321e+000	 1.888715097521410e-001	 2.235809638877548e+001
 1.075490246710656e+000	 1.990220886101357e-001	 2.220085632557501e+001
 1.095550399470112e+000	 9.883988170024215e-002	 2.293513597392149e+001
 1.094598191487453e+000	 1.088797464451217e-001	 2.289718986592598e+001
 1.093550394919226e+000	 1.189434057283332e-001	 2.284663487123078e+001
 1.092406220117382e+000	 1.290296487034842e-001	 2.278340211677120e+001
 1.091164894884817e+000	 1.391372422065906e-001	 2.270742593829219e+001
 1.089825665130928e+000	 1.492649309872257e-001	 2.261864386527633e+001
 1.088387795526788e+000	 1.594114379601640e-001	 2.251699660341004e+001
 1.086850570159240e+000	 1.695754644777254e-001	 2.240242801479104e+001
 1.085213293183253e+000	 1.797556906230042e-001	 2.227488509609336e+001
 1.083475289471801e+000	 1.899507755241413e-001	 2.213431795492046e+001
 1.081635905262568e+000	 2.001593576897755e-001	 2.198067978458924e+001
 1.101775117648852e+000	 9.940147193779644e-002	 2.269129590138833e+001
 1.100817499393547e+000	 1.094983813688997e-001	 2.265654983853011e+001
 1.099763749435698e+000	 1.196192205345538e-001	 2.260923425223932e+001
 1.098613073640624e+000	 1.297627717085569e-001	 2.254928134398940e+001
 1.097364695423735e+000	 1.399277947203110e-001	 2.247662650282521e+001
 1.096017856409824e+000	 1.501130271872848e-001	 2.239120828708558e+001
 1.094571817091955e+000	 1.603171847680864e-001	 2.229296840363280e+001
 1.093025857489286e+000	 1.705389614363553e-001	 2.218185168479899e+001
 1.091379277803119e+000	 1.807770297756579e-001	 2.205780606327476e+001
 1.089631399070481e+000	 1.910300412955447e-001	 2.192078254517777e+001
 1.087781563814494e+000	 2.012966267689080e-001	 2.177073518155354e+001
 1.107999835828085e+000	 9.996306217485904e-002	 2.245772256450655e+001
 1.107036807300217e+000	 1.101170162920956e-001	 2.242614970601504e+001
 1.105977103952806e+000	 1.202950353401210e-001	 2.238204822790103e+001
 1.104819927164528e+000	 1.304958947129244e-001	 2.232535144862690e+001
 1.103564495963313e+000	 1.407183472332943e-001	 2.225599585192793e+001
 1.102210047689347e+000	 1.509611233865944e-001	 2.217392106524617e+001
 1.100755838657688e+000	 1.612229315752669e-001	 2.207906983563956e+001
 1.099201144819806e+000	 1.715024583942713e-001	 2.197138800338399e+001
 1.097545262423338e+000	 1.817983689276460e-001	 2.185082447350144e+001
 1.095787508669359e+000	 1.921093070663513e-001	 2.171733118546089e+001
 1.093927222366435e+000	 2.024338958475332e-001	 2.157086308131219e+001
 1.114224554007809e+000	 1.005246524114299e-001	 2.223426444814837e+001
 1.113256115207465e+000	 1.107356512147094e-001	 2.220583750164985e+001
 1.112190458470546e+000	 1.209708501450349e-001	 2.216492437797348e+001
 1.111026780689094e+000	 1.312290177165869e-001	 2.211145955528092e+001
 1.109764296503551e+000	 1.415088997455403e-001	 2.204538065364784e+001
 1.108402238969498e+000	 1.518092195851545e-001	 2.196662841012595e+001
 1.106939860223988e+000	 1.621286783817055e-001	 2.187514665124772e+001
 1.105376432150801e+000	 1.724659553514732e-001	 2.177088226320025e+001
 1.103711247043908e+000	 1.828197080789682e-001	 2.165378515990878e+001
 1.101943618268437e+000	 1.931885728365609e-001	 2.152380824928580e+001
 1.100072880918391e+000	 2.035711649256510e-001	 2.138090739791488e+001
 1.120449272188024e+000	 1.010862426475091e-001	 2.202077328884032e+001
 1.119475423115290e+000	 1.113542861367410e-001	 2.199546450972818e+001
 1.118403812988922e+000	 1.216466649492955e-001	 2.195771353284365e+001
 1.117233634214321e+000	 1.319621407195442e-001	 2.190745603901939e+001
 1.115964097044449e+000	 1.422994522570490e-001	 2.184463082658350e+001
 1.114594430250278e+000	 1.526573157829650e-001	 2.176917978296542e+001
 1.113123881790855e+000	 1.630344251874023e-001	 2.168104785371240e+001
 1.111551719482271e+000	 1.734294523079613e-001	 2.158018300915030e+001
 1.109877231664831e+000	 1.838410472296248e-001	 2.146653620893830e+001
 1.108099727867712e+000	 1.942678386061737e-001	 2.134006136478204e+001
 1.106218539470361e+000	 2.047084340032615e-001	 2.120071530158299e+001
 1.044761953951317e+000	 1.933357432043265e-001	 2.346104518633083e+001
 1.042886741456322e+000	 2.032080080074606e-001	 2.333076841188056e+001
 1.040912406055143e+000	 2.130906214367952e-001	 2.318741049302036e+001
 1.038838381888356e+000	 2.229822108158968e-001	 2.303099374025186e+001
 1.036664126186398e+000	 2.328813850541052e-001	 2.286154454361925e+001
 1.034389119867983e+000	 2.427867350738821e-001	 2.267909330875650e+001
 1.032012868131015e+000	 2.526968342588440e-001	 2.248367439060580e+001
 1.029534901035252e+000	 2.626102389224190e-001	 2.227532602509845e+001
 1.026954774075927e+000	 2.725254887970361e-001	 2.205409025909900e+001
 1.024272068747575e+000	 2.824411075437255e-001	 2.182001287892312e+001
 1.021486393097262e+000	 2.923556032819735e-001	 2.157314333774740e+001
 1.050907612503156e+000	 1.944730122865031e-001	 2.318719327839455e+001
 1.049021369347448e+000	 2.044033492348819e-001	 2.306207310062433e+001
 1.047035420209470e+000	 2.143440956837328e-001	 2.292393201929055e+001
 1.044949195901212e+000	 2.242938708820547e-001	 2.277278836215413e+001
 1.042762150460347e+000	 2.342512755563016e-001	 2.260866440030818e+001
 1.040473761752168e+000	 2.442148923402438e-001	 2.243158628425768e+001
 1.038083532063977e+000	 2.541832862256367e-001	 2.224158397788903e+001
 1.035590988691176e+000	 2.641550050336347e-001	 2.203869119062836e+001
 1.032995684514263e+000	 2.741285799068576e-001	 2.182294530809849e+001
 1.030297198565975e+000	 2.841025258219888e-001	 2.159438732159240e+001
 1.027495136587771e+000	 2.940753421227468e-001	 2.135306175668911e+001
 1.057053271055009e+000	 1.956102813681722e-001	 2.292442421044117e+001
 1.055155997238402e+000	 2.055986904618959e-001	 2.280434902199658e+001
 1.053158434363470e+000	 2.155975699303630e-001	 2.267131454370803e+001
 1.051060009913613e+000	 2.256055309480054e-001	 2.252533518672276e+001
 1.048860174733743e+000	 2.356211660583910e-001	 2.236642916825926e+001
 1.046558403635732e+000	 2.456430496065987e-001	 2.219461844762345e+001
 1.044154195996280e+000	 2.556697381925228e-001	 2.200992866033306e+001
 1.041647076346433e+000	 2.656997711450439e-001	 2.181238905065862e+001
 1.039036594951954e+000	 2.757316710169727e-001	 2.160203240289827e+001
 1.036322328383784e+000	 2.857639441006457e-001	 2.137889497171274e+001
 1.033503880077773e+000	 2.957950809640140e-001	 2.114301641185434e+001
 1.063198929606877e+000	 1.967475504493340e-001	 2.267256028883276e+001
 1.061290625129187e+000	 2.067940316885026e-001	 2.255741982745268e+001
 1.059281448517142e+000	 2.168510441766860e-001	 2.242938307108733e+001
 1.057170823925559e+000	 2.269171910137492e-001	 2.228846057994905e+001
 1.054958199006586e+000	 2.369910565603735e-001	 2.213466658199270e+001
 1.052643045518674e+000	 2.470712068729467e-001	 2.196801890877244e+001
 1.050224859927923e+000	 2.571561901595022e-001	 2.178853892962555e+001
 1.047703164001023e+000	 2.672445372566465e-001	 2.159625148450007e+001
 1.045077505389002e+000	 2.773347621273814e-001	 2.139118481575310e+001
 1.042347458201002e+000	 2.874253623796964e-001	 2.117337049925330e+001
 1.039512623567269e+000	 2.975148198057748e-001	 2.094284337513016e+001
 1.069344588158759e+000	 1.978848195299885e-001	 2.243142768511331e+001
 1.067425253019799e+000	 2.079893729147019e-001	 2.232111299402859e+001
 1.065404462670486e+000	 2.181045184227018e-001	 2.219796639231002e+001
 1.063281637937050e+000	 2.282288510792857e-001	 2.206199465448256e+001
 1.061056223278877e+000	 2.383609470622489e-001	 2.191320808340072e+001
 1.058727687400997e+000	 2.484993641392879e-001	 2.175162044584969e+001
 1.056295523858908e+000	 2.586426421265750e-001	 2.157724890669260e+001
 1.053759251654946e+000	 2.687893033684428e-001	 2.139011396189000e+001
 1.051118415825406e+000	 2.789378532380837e-001	 2.119023937072618e+001
 1.048372588017630e+000	 2.890867806591407e-001	 2.097765208758593e+001
 1.045521367056259e+000	 2.992345586480293e-001	 2.075238219363084e+001
 1.075490246710656e+000	 1.990220886101357e-001	 2.220085632557501e+001
 1.073559880910241e+000	 2.091847141404939e-001	 2.209525971503846e+001
 1.071527476823503e+000	 2.193579926684103e-001	 2.197689697615105e+001
 1.069392451948086e+000	 2.295405111446151e-001	 2.184577116258374e+001
 1.067154247550614e+000	 2.397308375640175e-001	 2.170188871582294e+001
 1.064812329282697e+000	 2.499275214056223e-001	 2.154525940042007e+001
 1.062366187789234e+000	 2.601290940937411e-001	 2.137589623800641e+001
 1.059815339308203e+000	 2.703340694804324e-001	 2.119381544040866e+001
 1.057159326261165e+000	 2.805409443490797e-001	 2.099903634220916e+001
 1.054397717833667e+000	 2.907481989389787e-001	 2.079158133310230e+001
 1.051530110544742e+000	 3.009542974907776e-001	 2.057147579040574e+001
 1.081635905262568e+000	 2.001593576897755e-001	 2.198067978458924e+001
 1.079694508800512e+000	 2.103800553658786e-001	 2.187969479449858e+001
 1.077650490976193e+000	 2.206114669138116e-001	 2.176601086479333e+001
 1.075503265958668e+000	 2.308521712097374e-001	 2.163962739272585e+001
 1.073252271821799e+000	 2.411007280656790e-001	 2.150054702173241e+001
 1.070896971163778e+000	 2.513556786719500e-001	 2.134877557623493e+001
 1.068436851718901e+000	 2.616155460610006e-001	 2.118432199542756e+001
 1.065871426960793e+000	 2.718788355926156e-001	 2.100719826639293e+001
 1.063200236696281e+000	 2.821440354603693e-001	 2.081741935690130e+001
 1.060422847649113e+000	 2.924096172192104e-001	 2.061500314825303e+001
 1.057538854032719e+000	 3.026740363340195e-001	 2.039997036853179e+001
 1.087781563814494e+000	 2.012966267689080e-001	 2.177073518155354e+001
 1.085829136690613e+000	 2.115753965908560e-001	 2.167425654513019e+001
 1.083773505128554e+000	 2.218649411589056e-001	 2.156514757288403e+001
 1.081614079968794e+000	 2.321638312746525e-001	 2.144340406970201e+001
 1.079350296092431e+000	 2.424706185672335e-001	 2.130902494389002e+001
 1.076981613044237e+000	 2.527838359382706e-001	 2.116201214143009e+001
 1.074507515647908e+000	 2.631019980283533e-001	 2.100237057944272e+001
 1.071927514612715e+000	 2.734236017049924e-001	 2.083010807920856e+001
 1.069241147130752e+000	 2.837471265719525e-001	 2.064523529911153e+001
 1.066447977463969e+000	 2.940710354998359e-001	 2.044776566787382e+001
 1.063547597520190e+000	 3.043937751777553e-001	 2.023771531845774e+001
 1.093927222366435e+000	 2.024338958475332e-001	 2.157086308131219e+001
 1.091963764580542e+000	 2.127707378154261e-001	 2.147878668980037e+001
 1.089896519280589e+000	 2.231184154036924e-001	 2.137414998999328e+001
 1.087724893978466e+000	 2.334754913393606e-001	 2.125694525809945e+001
 1.085448320362511e+000	 2.438405090686810e-001	 2.112716772983101e+001
 1.083066254924076e+000	 2.542119932045847e-001	 2.098481553402074e+001
 1.080578179576257e+000	 2.645884499957995e-001	 2.082988962566389e+001
 1.077983602263972e+000	 2.749683678175625e-001	 2.066239371874946e+001
 1.075282057564579e+000	 2.853502176838293e-001	 2.048233421925280e+001
 1.072473107278234e+000	 2.957324537808551e-001	 2.028972015866885e+001
 1.069556341007155e+000	 3.061135140219848e-001	 2.008456312847084e+001
 1.100072880918391e+000	 2.035711649256510e-001	 2.138090739791488e+001
 1.098098392470301e+000	 2.139660790395888e-001	 2.129313026626658e+001
 1.096019533432296e+000	 2.243718896481720e-001	 2.119286428634294e+001
 1.093835707987683e+000	 2.347871514038614e-001	 2.108009826900901e+001
 1.091546344632037e+000	 2.452103995700215e-001	 2.095482383955258e+001
 1.089150896803293e+000	 2.556401504708917e-001	 2.081703537056407e+001
 1.086648843503947e+000	 2.660749019633391e-001	 2.066672991446184e+001
 1.084039689914561e+000	 2.765131339303262e-001	 2.050390713603748e+001
 1.081322967997762e+000	 2.869533087959997e-001	 2.032856924540307e+001
 1.078498237091908e+000	 2.973938720622679e-001	 2.014072093172881e+001
 1.075565084493613e+000	 3.078332528667079e-001	 1.994036929816545e+001
 1.106218539470361e+000	 2.047084340032615e-001	 2.120071530158299e+001
 1.104233020359888e+000	 2.151614202633443e-001	 2.111713553509636e+001
 1.102142547583675e+000	 2.256253638923442e-001	 2.102113982167702e+001
 1.099946521996445e+000	 2.360988114681552e-001	 2.091271356984462e+001
 1.097644368901011e+000	 2.465802900712551e-001	 2.079184485627907e+001
 1.095235538681890e+000	 2.570683077371921e-001	 2.065852435786645e+001
 1.092719507430977e+000	 2.675613539309719e-001	 2.051274528361166e+001
 1.090095777564483e+000	 2.780579000432834e-001	 2.035450330680224e+001
 1.087363878430301e+000	 2.885563999084638e-001	 2.018379649781492e+001
 1.084523366904992e+000	 2.990552903440744e-001	 2.000062525796407e+001
 1.081573827979565e+000	 3.095529917119247e-001	 1.980499225479526e+001
 1.021486393097262e+000	 2.923556032819735e-001	 2.157314333774740e+001
 1.018597382265846e+000	 3.022674691399233e-001	 2.136690072833435e+001
 1.015604699018308e+000	 3.121751838238193e-001	 2.115014644936807e+001
 1.012508034261140e+000	 3.220772122071471e-001	 2.092307611800587e+001
 1.009307107544807e+000	 3.319720059396401e-001	 2.068588858936297e+001
 1.006001667552343e+000	 3.418580040749850e-001	 2.043878573867749e+001
 1.002591492572689e+000	 3.517336337171807e-001	 2.018197224207446e+001
 9.990763909580268e-001	 3.615973106851656e-001	 1.991565535645995e+001
 9.954562015643447e-001	 3.714474401952996e-001	 1.964004469908053e+001
 9.917307941744925e-001	 3.812824175612483e-001	 1.935535202728868e+001
 9.879000699030032e-001	 3.911006289107875e-001	 1.906179101905606e+001
 1.027495136587771e+000	 2.940753421227468e-001	 2.135306175668911e+001
 1.024589131574418e+000	 3.040455130734152e-001	 2.115495812664138e+001
 1.021578844307302e+000	 3.140115084315447e-001	 2.094631150205054e+001
 1.018463963874720e+000	 3.239717840404660e-001	 2.072730532688825e+001
 1.015244208177435e+000	 3.339247824419712e-001	 2.049812610087339e+001
 1.011919324420144e+000	 3.438689335077114e-001	 2.025896317008523e+001
 1.008489089587609e+000	 3.538026550893571e-001	 2.001000851663371e+001
 1.004953310904672e+000	 3.637243536871364e-001	 1.975145654791477e+001
 1.001311826279414e+000	 3.736324251363294e-001	 1.948350388598439e+001
 9.975645047287045e-001	 3.835252553112720e-001	 1.920634915758695e+001
 9.937112467853965e-001	 3.934012208463747e-001	 1.892019278537472e+001
 1.033503880077773e+000	 2.957950809640140e-001	 2.114301641185434e+001
 1.030580880882573e+000	 3.058235570074865e-001	 2.095281665777319e+001
 1.027552989595951e+000	 3.158478330399054e-001	 2.075204479757517e+001
 1.024419893488006e+000	 3.258663558744470e-001	 2.054087221634247e+001
 1.021181308809800e+000	 3.358775589449619e-001	 2.031947317124910e+001
 1.017836981287696e+000	 3.458798629410648e-001	 2.008802459049150e+001
 1.014386686602271e+000	 3.558716764620983e-001	 1.984670587173481e+001
 1.010830230851030e+000	 3.658513966895787e-001	 1.959569868060106e+001
 1.007167450994148e+000	 3.758174100777077e-001	 1.933518674973079e+001
 1.003398215282511e+000	 3.857680930614904e-001	 1.906535567894878e+001
 9.995224236672948e-001	 3.957018127819724e-001	 1.878639273706670e+001
 1.039512623567269e+000	 2.975148198057748e-001	 2.094284337513016e+001
 1.036572630190313e+000	 3.076016009421368e-001	 2.076031622784305e+001
 1.033527134884255e+000	 3.176841576489017e-001	 2.056719007517418e+001
 1.030375823100999e+000	 3.277609277090907e-001	 2.036362435590445e+001
 1.027118409441903e+000	 3.378303354486122e-001	 2.014978119578080e+001
 1.023754638154996e+000	 3.478907923750453e-001	 1.992582521463464e+001
 1.020284283616674e+000	 3.579406978354039e-001	 1.969192333347504e+001
 1.016707150797100e+000	 3.679784396924929e-001	 1.944824458208277e+001
 1.013023075708545e+000	 3.780023950194349e-001	 1.919495990763309e+001
 1.009231925835913e+000	 3.880109308119037e-001	 1.893224198487478e+001
 1.005333600548698e+000	 3.980024047175801e-001	 1.866026502839434e+001
 1.045521367056259e+000	 2.992345586480293e-001	 2.075238219363084e+001
 1.042564379497636e+000	 3.093796448773664e-001	 2.057730012443271e+001
 1.039501280172214e+000	 3.195204822585336e-001	 2.039159436215154e+001
 1.036331752713698e+000	 3.296554995443966e-001	 2.019541251019048e+001
 1.033055510073744e+000	 3.397831119529223e-001	 1.998890467229749e+001
 1.029672295022046e+000	 3.499017218096532e-001	 1.977222326774237e+001
 1.026181880630818e+000	 3.600097192092741e-001	 1.954552284692977e+001
 1.022584070742883e+000	 3.701054826958791e-001	 1.930895990797228e+001
 1.018878700422607e+000	 3.801873799615105e-001	 1.906269271474936e+001
 1.015065636388909e+000	 3.902537685625118e-001	 1.880688111697748e+001
 1.011144777429607e+000	 4.003029966531984e-001	 1.854168637281399e+001
 1.051530110544742e+000	 3.009542974907776e-001	 2.057147579040574e+001
 1.048556128804544e+000	 3.111576888131752e-001	 2.040361491997903e+001
 1.045475425459828e+000	 3.213568068688009e-001	 2.022510787993810e+001
 1.042287682326103e+000	 3.315500713803650e-001	 2.003609054760934e+001
 1.038992610705323e+000	 3.417358884578922e-001	 1.983670111252246e+001
 1.035589951888846e+000	 3.519126512448882e-001	 1.962707989951801e+001
 1.032079477644703e+000	 3.620787405837090e-001	 1.940736919275321e+001
 1.028460990688379e+000	 3.722325256997370e-001	 1.917771306112887e+001
 1.024734325136332e+000	 3.823723649039346e-001	 1.893825718566118e+001
 1.020899346941500e+000	 3.924966063133147e-001	 1.868914868932065e+001
 1.016955954310020e+000	 4.026035885888267e-001	 1.843053596985640e+001
 1.057538854032719e+000	 3.026740363340195e-001	 2.039997036853179e+001
 1.054547878111036e+000	 3.129357327495632e-001	 2.023911037845429e+001
 1.051449570747097e+000	 3.231931314797037e-001	 2.006758395334915e+001
 1.048243611938215e+000	 3.334446432169957e-001	 1.988551535218628e+001
 1.044929711336640e+000	 3.436886649635217e-001	 1.969303095645151e+001
 1.041507608755395e+000	 3.539235806807503e-001	 1.949025910105855e+001
 1.037977074658330e+000	 3.641477619587086e-001	 1.927732990662165e+001
 1.034337910633587e+000	 3.743595687040667e-001	 1.905437511361178e+001
 1.030589949849721e+000	 3.845573498467075e-001	 1.882152791891893e+001
 1.026733057493686e+000	 3.947394440643126e-001	 1.857892281533884e+001
 1.022767131189939e+000	 4.049041805244654e-001	 1.832669543449963e+001
 1.063547597520190e+000	 3.043937751777553e-001	 2.023771531845774e+001
 1.060539627417111e+000	 3.147137766865302e-001	 2.008363936520971e+001
 1.057423716034020e+000	 3.250294560912418e-001	 1.991887892291849e+001
 1.054199541550033e+000	 3.353392150542888e-001	 1.974354673837604e+001
 1.050866811967694e+000	 3.456414414698108e-001	 1.955775748963314e+001
 1.047425265621694e+000	 3.559345101172395e-001	 1.936162762458953e+001
 1.043874671671698e+000	 3.662167833342726e-001	 1.915527520140854e+001
 1.040214830578508e+000	 3.764866117088681e-001	 1.893881973127945e+001
 1.036445574562775e+000	 3.867423347898289e-001	 1.871238202404826e+001
 1.032566768045466e+000	 3.969822818155050e-001	 1.847608403723321e+001
 1.028578308069363e+000	 4.072047724601144e-001	 1.823004872893585e+001
 1.069556341007155e+000	 3.061135140219848e-001	 2.008456312847084e+001
 1.066531376722771e+000	 3.164918206240767e-001	 1.993705775985818e+001
 1.063397861320599e+000	 3.268657807034156e-001	 1.977885206018712e+001
 1.060155471161557e+000	 3.372337868922444e-001	 1.961004736874760e+001
 1.056803912598486e+000	 3.475942179767597e-001	 1.943074676323750e+001
 1.053342922487742e+000	 3.579454395543559e-001	 1.924105490590507e+001
 1.049772268684806e+000	 3.682858047104012e-001	 1.904107789198203e+001
 1.046091750523143e+000	 3.786136547141414e-001	 1.883092310092962e+001
 1.042301199275492e+000	 3.889273197332989e-001	 1.861069905101720e+001
 1.038400478596842e+000	 3.992251195668925e-001	 1.838051525774793e+001
 1.034389484948292e+000	 4.095053643957736e-001	 1.814048209663856e+001
 1.075565084493613e+000	 3.078332528667079e-001	 1.994036929816545e+001
 1.072523126028015e+000	 3.182698645622022e-001	 1.979922437207700e+001
 1.069372006606833e+000	 3.287021053162249e-001	 1.964736548583132e+001
 1.066111400772787e+000	 3.391283587308624e-001	 1.948488267442772e+001
 1.062741013229016e+000	 3.495469944843681e-001	 1.931186751680414e+001
 1.059260579353540e+000	 3.599563689920994e-001	 1.912841298940783e+001
 1.055669865697657e+000	 3.703548260870943e-001	 1.893461332252365e+001
 1.051968670467490e+000	 3.807406977198866e-001	 1.873056385988219e+001
 1.048156823987874e+000	 3.911123046771176e-001	 1.851636092206716e+001
 1.044234189147812e+000	 4.014679573184747e-001	 1.829210167423327e+001
 1.040200661826726e+000	 4.118059563314432e-001	 1.805788399863944e+001
 1.081573827979565e+000	 3.095529917119247e-001	 1.980499225479526e+001
 1.078514875332843e+000	 3.200479085009069e-001	 1.967000086021717e+001
 1.075346151892721e+000	 3.305384299296696e-001	 1.952428409052035e+001
 1.072067330383723e+000	 3.410229305701427e-001	 1.936792077819676e+001
 1.068678113859284e+000	 3.514997709926364e-001	 1.920099110356539e+001
 1.065178236219087e+000	 3.619672984304700e-001	 1.902357645564786e+001
 1.061567462710248e+000	 3.724238474643520e-001	 1.883575929626942e+001
 1.057845590411549e+000	 3.828677407261033e-001	 1.863762302790919e+001
 1.054012448699919e+000	 3.932972896212848e-001	 1.842925186581673e+001
 1.050067899698377e+000	 4.037107950702518e-001	 1.821073071490637e+001
 1.046011838704666e+000	 4.141065482671229e-001	 1.798214505192967e+001
 9.879000699030032e-001	 3.911006289107875e-001	 1.906179101905606e+001
 9.839639615823895e-001	 4.009004519189254e-001	 1.880478938095300e+001
 9.799224341288911e-001	 4.106802565571183e-001	 1.853606085057486e+001
 9.757754848879133e-001	 4.204384058576606e-001	 1.825567243501443e+001
 9.715231439593195e-001	 4.301732566925663e-001	 1.796369342177298e+001
 9.671654745006203e-001	 4.398831605665822e-001	 1.766019533824293e+001
 9.627025730078750e-001	 4.495664644235478e-001	 1.734525191575353e+001
 9.581345695737014e-001	 4.592215114653888e-001	 1.701893905841610e+001
 9.534616281218166e-001	 4.688466419830178e-001	 1.668133481698687e+001
 9.486839466175517e-001	 4.784401941983761e-001	 1.633251936794254e+001
 9.438017572538180e-001	 4.880005051168285e-001	 1.597257499794428e+001
 9.937112467853965e-001	 3.934012208463747e-001	 1.892019278537472e+001
 9.897519848868421e-001	 4.032586898733955e-001	 1.866838310815627e+001
 9.856866837428477e-001	 4.130960227752230e-001	 1.840520718063044e+001
 9.815153406832023e-001	 4.229115729549293e-001	 1.813073982597497e+001
 9.772379859848284e-001	 4.327036876190686e-001	 1.784505783105063e+001
 9.728546831767505e-001	 4.424707085753560e-001	 1.754823989378821e+001
 9.683655293226513e-001	 4.522109730437700e-001	 1.724036657550647e+001
 9.637706552804002e-001	 4.619228144803652e-001	 1.692152025842412e+001
 9.590702259379706e-001	 4.716045634130582e-001	 1.659178510860946e+001
 9.542644404251961e-001	 4.812545482886249e-001	 1.625124704458969e+001
 9.493535323008276e-001	 4.908710963301073e-001	 1.589999371181971e+001
 9.995224236672948e-001	 3.957018127819724e-001	 1.878639273706670e+001
 9.955400081907047e-001	 4.056169278276854e-001	 1.853993671652538e+001
 9.914509333561281e-001	 4.155117889929768e-001	 1.828247307072329e+001
 9.872551964777404e-001	 4.253847400516961e-001	 1.801408433613855e+001
 9.829528280095203e-001	 4.352341185449375e-001	 1.773485469511528e+001
 9.785438918520075e-001	 4.450582565833847e-001	 1.744486991123305e+001
 9.740284856365097e-001	 4.548554816631561e-001	 1.714421726997799e+001
 9.694067409861449e-001	 4.646241174944336e-001	 1.683298552500674e+001
 9.646788237531452e-001	 4.743624848421395e-001	 1.651126485027222e+001
 9.598449342318453e-001	 4.840689023778835e-001	 1.617914679825988e+001
 9.549053073468374e-001	 4.937416875423862e-001	 1.583672426455747e+001
 1.005333600548698e+000	 3.980024047175801e-001	 1.866026502839434e+001
 1.001328031493977e+000	 4.079751657817954e-001	 1.841932169241100e+001
 9.972151829687338e-001	 4.179275552103799e-001	 1.816772741187326e+001
 9.929950522715274e-001	 4.278579071479609e-001	 1.790557233527833e+001
 9.886676700333955e-001	 4.377645494701730e-001	 1.763294793804101e+001
 9.842331005263925e-001	 4.476458045906685e-001	 1.734994694592075e+001
 9.796914419494494e-001	 4.574999902817053e-001	 1.705666326412587e+001
 9.750428266909359e-001	 4.673254205075943e-001	 1.675319191241288e+001
 9.702874215673403e-001	 4.771204062702619e-001	 1.643962896647656e+001
 9.654254280375000e-001	 4.868832564661527e-001	 1.611607150590313e+001
 9.604570823918472e-001	 4.966122787536652e-001	 1.578261756893749e+001
 1.011144777429607e+000	 4.003029966531984e-001	 1.854168637281399e+001
 1.007116054796660e+000	 4.103334037357254e-001	 1.830641214058779e+001
 1.002979432580664e+000	 4.203433214274323e-001	 1.806084177144808e+001
 9.987349080645636e-001	 4.303310742437235e-001	 1.780507292609973e+001
 9.943825120564540e-001	 4.402949803947749e-001	 1.753920427204506e+001
 9.899223091999051e-001	 4.502333525972074e-001	 1.726333539514240e+001
 9.853543982614713e-001	 4.601444988994182e-001	 1.697756671722165e+001
 9.806789123947730e-001	 4.700267235198471e-001	 1.668199942010096e+001
 9.758960193805562e-001	 4.798783276974255e-001	 1.637673537632635e+001
 9.710059218421597e-001	 4.896976105534321e-001	 1.606187708693341e+001
 9.660088574358569e-001	 4.994828699639441e-001	 1.573752762650369e+001
 1.016955954310020e+000	 4.026035885888267e-001	 1.843053596985640e+001
 1.012904078098752e+000	 4.126916416894754e-001	 1.820108470944219e+001
 1.008743682191919e+000	 4.227590876441337e-001	 1.796169031669649e+001
 1.004474763856849e+000	 4.328042413389841e-001	 1.771245786615674e+001
 1.000097354078696e+000	 4.428254113187435e-001	 1.745349311782668e+001
 9.956115178725451e-001	 4.528209006030011e-001	 1.718490241693838e+001
 9.910173545725747e-001	 4.627890075162947e-001	 1.690679260015585e+001
 9.863149980976560e-001	 4.727280265311919e-001	 1.661927090858910e+001
 9.815046171927924e-001	 4.826362491236299e-001	 1.632244490796827e+001
 9.765864156458245e-001	 4.925119646397218e-001	 1.601642241630128e+001
 9.715606324788668e-001	 5.023534611732231e-001	 1.570131143931280e+001
 1.022767131189939e+000	 4.049041805244654e-001	 1.832669543449963e+001
 1.018692101400255e+000	 4.150498796430453e-001	 1.810321851871079e+001
 1.014507931802498e+000	 4.251748538604843e-001	 1.787014974088767e+001
 1.010214619648383e+000	 4.352774084337428e-001	 1.762760149242986e+001
 1.005812196100121e+000	 4.453558422420786e-001	 1.737568652762147e+001
 1.001300726544313e+000	 4.554084486080500e-001	 1.711451785166812e+001
 9.966803108827598e-001	 4.654335161323346e-001	 1.684420861556257e+001
 9.919510837995851e-001	 4.754293295416290e-001	 1.656487201817574e+001
 9.871132150040491e-001	 4.853941705488754e-001	 1.627662121594809e+001
 9.821669094484945e-001	 4.953263187250217e-001	 1.597956924052982e+001
 9.771124075208765e-001	 5.052240523815021e-001	 1.567382892469362e+001
 1.028578308069363e+000	 4.072047724601144e-001	 1.823004872893585e+001
 1.024480124701167e+000	 4.174081175964353e-001	 1.801269508966806e+001
 1.020272181412401e+000	 4.275906200764842e-001	 1.778609919195511e+001
 1.015954475439166e+000	 4.377505755279995e-001	 1.755038064846115e+001
 1.011527038120730e+000	 4.478862731647804e-001	 1.730565911086447e+001
 1.006989935215208e+000	 4.579959966123540e-001	 1.705205414623818e+001
 1.002343267192027e+000	 4.680780247475380e-001	 1.678968512065147e+001
 9.975871695005606e-001	 4.781306325511582e-001	 1.651867109041462e+001
 9.927218128143263e-001	 4.881520919731618e-001	 1.623913070136927e+001
 9.877474032501694e-001	 4.981406728093321e-001	 1.595118209659673e+001
 9.826641825618862e-001	 5.080946435887809e-001	 1.565494283289362e+001
 1.034389484948292e+000	 4.095053643957736e-001	 1.814048209663856e+001
 1.030268148001490e+000	 4.197663555496453e-001	 1.792939827766747e+001
 1.026036431021630e+000	 4.300063862921332e-001	 1.770942020354492e+001
 1.021694331229198e+000	 4.402237426217543e-001	 1.748067461394497e+001
 1.017241880140521e+000	 4.504167040868485e-001	 1.724328796235837e+001
 1.012679143885230e+000	 4.605835446159128e-001	 1.699738628088469e+001
 1.008006223500375e+000	 4.707225333619048e-001	 1.674309505264091e+001
 1.003223255200582e+000	 4.808319355597795e-001	 1.648053909223659e+001
 9.983304106236239e-001	 4.909100133964893e-001	 1.620984243474224e+001
 9.933278970508498e-001	 5.009550268926525e-001	 1.593112823355060e+001
 9.882159576018960e-001	 5.109652347950598e-001	 1.564451866750313e+001
 1.040200661826726e+000	 4.118059563314432e-001	 1.805788399863944e+001
 1.036056171301222e+000	 4.221245935026752e-001	 1.785321420694369e+001
 1.031800680630183e+000	 4.324221525074314e-001	 1.763999662837615e+001
 1.027434187018479e+000	 4.426969097150069e-001	 1.741836503667923e+001
 1.022956722159496e+000	 4.529471350082833e-001	 1.718845259284998e+001
 1.018368352554380e+000	 4.631710926187268e-001	 1.695039169841004e+001
 1.013669179807806e+000	 4.733670419754353e-001	 1.670431385669114e+001
 1.008859340899649e+000	 4.835332385674930e-001	 1.645034954261525e+001
 1.003939008431942e+000	 4.936679348188580e-001	 1.618862808142000e+001
 9.989083908505351e-001	 5.037693809749833e-001	 1.591927753675514e+001
 9.937677326409059e-001	 5.138358260003388e-001	 1.564242460854635e+001
 1.046011838704666e+000	 4.141065482671229e-001	 1.798214505192967e+001
 1.041844194600365e+000	 4.244828314555251e-001	 1.778403120758815e+001
 1.037564930238061e+000	 4.348379187223787e-001	 1.757771457382195e+001
 1.033174042807009e+000	 4.451700768077574e-001	 1.736333586678457e+001
 1.028671564177654e+000	 4.554775659290847e-001	 1.714103486192082e+001
 1.024057561222658e+000	 4.657586406207956e-001	 1.691095023577802e+001
 1.019332136114318e+000	 4.760115505881292e-001	 1.667321941623852e+001
 1.014495426597762e+000	 4.862345415742986e-001	 1.642797844167680e+001
 1.009547606239281e+000	 4.964258562402674e-001	 1.617536182951938e+001
 1.004488884649226e+000	 5.065837350563242e-001	 1.591550245465770e+001
 9.993195076789155e-001	 5.167064172046177e-001	 1.564853143813566e+001
 9.438017572538180e-001	 4.880005051168285e-001	 1.597257499794428e+001
 9.388153266123082e-001	 4.975259113891605e-001	 1.569221144014176e+001
 9.337249557986366e-001	 5.070147501821035e-001	 1.541064857609995e+001
 9.285309805514910e-001	 5.164653600567580e-001	 1.512841854996078e+001
 9.232337713259999e-001	 5.258760818540937e-001	 1.484604971051353e+001
 9.178337333501018e-001	 5.352452595864037e-001	 1.456406609542934e+001
 9.123313066538566e-001	 5.445712413338730e-001	 1.428298692418887e+001
 9.067269660713992e-001	 5.538523801453158e-001	 1.400332610060148e+001
 9.010212212152782e-001	 5.630870349421173e-001	 1.372559172579982e+001
 8.952146164229524e-001	 5.722735714244085e-001	 1.345028562255800e+001
 8.893077306752676e-001	 5.814103629784772e-001	 1.317790287175567e+001
 9.493535323008276e-001	 4.908710963301073e-001	 1.589999371181971e+001
 9.443377697146625e-001	 5.004525344039444e-001	 1.563531658878388e+001
 9.392174555435003e-001	 5.099971898955551e-001	 1.536811609068134e+001
 9.339929275009622e-001	 5.195033915928697e-001	 1.509885530747553e+001
 9.286645582213239e-001	 5.289694705770992e-001	 1.482799413979841e+001
 9.232327553162176e-001	 5.383937611194319e-001	 1.455598886146345e+001
 9.176979614041151e-001	 5.477746015828783e-001	 1.428329169073415e+001
 9.120606541122929e-001	 5.571103353283035e-001	 1.401035037112403e+001
 9.063213460510206e-001	 5.663993116236897e-001	 1.373760776247437e+001
 9.004805847597411e-001	 5.756398865556386e-001	 1.346550144302707e+001
 8.945389526250703e-001	 5.848304239421225e-001	 1.319446332318052e+001
 9.549053073468374e-001	 4.937416875423862e-001	 1.583672426455747e+001
 9.498602128160170e-001	 5.033791574177283e-001	 1.558659368685703e+001
 9.447099552873641e-001	 5.129796296080067e-001	 1.533263082886024e+001
 9.394548744494335e-001	 5.225414231279816e-001	 1.507523028577725e+001
 9.340953451156480e-001	 5.320628592991045e-001	 1.481478406204653e+001
 9.286317772813337e-001	 5.415422626514604e-001	 1.455168121159463e+001
 9.230646161533735e-001	 5.509779618308833e-001	 1.428630748692532e+001
 9.173943421521864e-001	 5.603682905102909e-001	 1.401904499768174e+001
 9.116214708857622e-001	 5.697115883042616e-001	 1.375027187929984e+001
 9.057465530955298e-001	 5.790062016858684e-001	 1.348036197233677e+001
 8.997701745738730e-001	 5.882504849047675e-001	 1.320968451302790e+001
 9.604570823918472e-001	 4.966122787536652e-001	 1.578261756893749e+001
 9.553826559163713e-001	 5.063057804305123e-001	 1.554591390639354e+001
 9.502024550302282e-001	 5.159620693194583e-001	 1.530408399108854e+001
 9.449168213969048e-001	 5.255794546620933e-001	 1.505745447232664e+001
 9.395261320089718e-001	 5.351562480201099e-001	 1.480634999980893e+001
 9.340307992454494e-001	 5.446907641824886e-001	 1.455109294112087e+001
 9.284312709016320e-001	 5.541813220778885e-001	 1.429200310812775e+001
 9.227280301910803e-001	 5.636262456912787e-001	 1.402939749279423e+001
 9.169215957195043e-001	 5.730238649838336e-001	 1.376359001291411e+001
 9.110125214303183e-001	 5.823725168150984e-001	 1.349489126820441e+001
 9.050013965216758e-001	 5.916705458664125e-001	 1.322360830718395e+001
 9.660088574358569e-001	 4.994828699639441e-001	 1.573752762650369e+001
 9.609050990157256e-001	 5.092324034422963e-001	 1.551315104395770e+001
 9.556949547720921e-001	 5.189445090299099e-001	 1.528236894377363e+001
 9.503787683433757e-001	 5.286174861952050e-001	 1.504544056785784e+001
 9.449569189012961e-001	 5.382496367401154e-001	 1.480262374236023e+001
 9.394298212085654e-001	 5.478392657125171e-001	 1.455417467187973e+001
 9.337979256488903e-001	 5.573846823238936e-001	 1.430034774266256e+001
 9.280617182289737e-001	 5.668842008712662e-001	 1.404139533518198e+001
 9.222217205522466e-001	 5.763361416624059e-001	 1.377756764645644e+001
 9.162784897641069e-001	 5.857388319433282e-001	 1.350911252242904e+001
 9.102326184684784e-001	 5.950906068270576e-001	 1.323627530069682e+001
 9.715606324788668e-001	 5.023534611732231e-001	 1.570131143931280e+001
 9.664275421140801e-001	 5.121590264530802e-001	 1.548818144565926e+001
 9.611874545129556e-001	 5.219269487393613e-001	 1.526738115739384e+001
 9.558407152888472e-001	 5.316555177273168e-001	 1.503910293742754e+001
 9.503877057926200e-001	 5.413430254591207e-001	 1.480353830950584e+001
 9.448288431706811e-001	 5.509877672415453e-001	 1.456087782863316e+001
 9.391645803951488e-001	 5.605880425688988e-001	 1.431131096057911e+001
 9.333954062658674e-001	 5.701421560502539e-001	 1.405502597073182e+001
 9.275218453839885e-001	 5.796484183399778e-001	 1.379220982252488e+001
 9.215444580968955e-001	 5.891051470705582e-001	 1.352304808563229e+001
 9.154638404142811e-001	 5.985106677867028e-001	 1.324772485408636e+001
 9.771124075208765e-001	 5.052240523815021e-001	 1.567382892469362e+001
 9.719499852114345e-001	 5.150856494628642e-001	 1.547088393472301e+001
 9.666799542528194e-001	 5.249093884478128e-001	 1.525901814672401e+001
 9.613026622333182e-001	 5.346935492584285e-001	 1.503835756313333e+001
 9.558184926829442e-001	 5.444364141771262e-001	 1.480902791662428e+001
 9.502278651317970e-001	 5.541362687695737e-001	 1.457115461625726e+001
 9.445312351404072e-001	 5.637914028129040e-001	 1.432486270281079e+001
 9.387290943017611e-001	 5.734001112282416e-001	 1.407027681342970e+001
 9.328219702147307e-001	 5.829606950165500e-001	 1.380752115569167e+001
 9.268104264286842e-001	 5.924714621967882e-001	 1.353671949115519e+001
 9.206950623590838e-001	 6.019307287453479e-001	 1.325799512841576e+001
 9.826641825618862e-001	 5.080946435887809e-001	 1.565494283289362e+001
 9.774724283077889e-001	 5.180122724716482e-001	 1.546113974151402e+001
 9.721724539916833e-001	 5.278918281552644e-001	 1.525717941308660e+001
 9.667646091767896e-001	 5.377315807885402e-001	 1.504312199843475e+001
 9.612492795722680e-001	 5.475298028941316e-001	 1.481902794089338e+001
 9.556268870919128e-001	 5.572847702966022e-001	 1.458495799770478e+001
 9.498978898846656e-001	 5.669947630559090e-001	 1.434097327069769e+001
 9.440627823366548e-001	 5.766580664052291e-001	 1.408713524626200e+001
 9.381220950444729e-001	 5.862729716921222e-001	 1.382350584459400e+001
 9.320763947594726e-001	 5.958377773220180e-001	 1.355014747814550e+001
 9.259262843028865e-001	 6.053507897029929e-001	 1.326712311917482e+001
 9.882159576018960e-001	 5.109652347950598e-001	 1.564451866750313e+001
 9.829948714031436e-001	 5.209388954794321e-001	 1.545883243592105e+001
 9.776649537295472e-001	 5.308742678617159e-001	 1.526176638855001e+001
 9.722265561192605e-001	 5.407696123176519e-001	 1.505331532401340e+001
 9.666800664605924e-001	 5.506231916101370e-001	 1.483347488865593e+001
 9.610259090510285e-001	 5.604332718226305e-001	 1.460224167271130e+001
 9.552645446279243e-001	 5.701981232979142e-001	 1.435961331586304e+001
 9.493964703705483e-001	 5.799160215812167e-001	 1.410558862208602e+001
 9.434222198732148e-001	 5.895852483666942e-001	 1.384016768361803e+001
 9.373423630892613e-001	 5.992040924462480e-001	 1.356335201386647e+001
 9.311575062456892e-001	 6.087708506596380e-001	 1.327514468902034e+001
 9.937677326409059e-001	 5.138358260003388e-001	 1.564242460854635e+001
 9.885173144974978e-001	 5.238655184862160e-001	 1.546384786200690e+001
 9.831574534664112e-001	 5.338567075671676e-001	 1.527268238199708e+001
 9.776885030607319e-001	 5.438076438457636e-001	 1.506885810511353e+001
 9.721108533479164e-001	 5.537165803251424e-001	 1.485230636387841e+001
 9.664249310091441e-001	 5.635817733476586e-001	 1.462296005721442e+001
 9.606311993701828e-001	 5.734014835389195e-001	 1.438075383042889e+001
 9.547301584034420e-001	 5.831739767562043e-001	 1.412562426447200e+001
 9.487223447009568e-001	 5.928975250402664e-001	 1.385751007419035e+001
 9.426083314180499e-001	 6.025704075694779e-001	 1.357635231525744e+001
 9.363887281874921e-001	 6.121909116152833e-001	 1.328209459942004e+001
 9.993195076789155e-001	 5.167064172046177e-001	 1.564853143813566e+001
 9.940397575908523e-001	 5.267921414919999e-001	 1.547607407483676e+001
 9.886499532022749e-001	 5.368391472716192e-001	 1.528983252699137e+001
 9.831504500012031e-001	 5.468456753728753e-001	 1.508967235030415e+001
 9.775416402342402e-001	 5.568099690391477e-001	 1.487546103766180e+001
 9.718239529662599e-001	 5.667302748716870e-001	 1.464706826345897e+001
 9.659978541114411e-001	 5.766048437789245e-001	 1.440436613755743e+001
 9.600638464353356e-001	 5.864319319301918e-001	 1.414722946851616e+001
 9.540224695276989e-001	 5.962098017128384e-001	 1.387553603569405e+001
 9.478742997458384e-001	 6.059367226917078e-001	 1.358916686977664e+001
 9.416199501282946e-001	 6.156109725699284e-001	 1.328800654124059e+001
 8.893077306752676e-001	 5.814103629784772e-001	 1.317790287175567e+001
 8.833011774861371e-001	 5.904957915842167e-001	 1.275899883887764e+001
 8.771956047652072e-001	 5.995282487222066e-001	 1.230542790998008e+001
 8.709916946521930e-001	 6.085061362790005e-001	 1.181639228402012e+001
 8.646901633216118e-001	 6.174278674491944e-001	 1.129111687499686e+001
 8.582917607598128e-001	 6.262918676338456e-001	 1.080216072600129e+001
 8.517972705137420e-001	 6.350965753340185e-001	 1.070953627467559e+001
 8.452075094115517e-001	 6.438404430384181e-001	 1.058875015136294e+001
 8.385233272552016e-001	 6.525219381040842e-001	 1.043938009273383e+001
 8.317456064852504e-001	 6.611395436291214e-001	 1.026102170969426e+001
 8.248752618180649e-001	 6.696917593164417e-001	 1.005328897771286e+001
 8.945389526250703e-001	 5.848304239421225e-001	 1.319446332318052e+001
 8.884970667698546e-001	 5.939692962452940e-001	 1.275470143802728e+001
 8.823555789150016e-001	 6.030548854838786e-001	 1.228139267384100e+001
 8.761151752128126e-001	 6.120855841437631e-001	 1.177378108208807e+001
 8.697765760505967e-001	 6.210597960853935e-001	 1.123113248447057e+001
 8.633405358263870e-001	 6.299759374474814e-001	 1.093194656543592e+001
 8.568078426962297e-001	 6.388324375458027e-001	 1.082467426476194e+001
 8.501793182931480e-001	 6.476277397660551e-001	 1.069077341631981e+001
 8.434558174179381e-001	 6.563603024497318e-001	 1.052986469152047e+001
 8.366382277019836e-001	 6.650285997719848e-001	 1.034158533606777e+001
 8.297274692423369e-001	 6.736311226104494e-001	 1.012558961071950e+001
 8.997701745738730e-001	 5.882504849047675e-001	 1.320968451302790e+001
 8.936929560525773e-001	 5.974428009053709e-001	 1.274990207998011e+001
 8.875155530638155e-001	 6.065815222445504e-001	 1.225767902616764e+001
 8.812386557724770e-001	 6.156650320075253e-001	 1.173230077564103e+001
 8.748629887786613e-001	 6.246917247205931e-001	 1.117307358366859e+001
 8.683893108920857e-001	 6.336600072601172e-001	 1.105975057541251e+001
 8.618184148778968e-001	 6.425682997565868e-001	 1.093854017344460e+001
 8.551511271739886e-001	 6.514150364926921e-001	 1.079222004510292e+001
 8.483883075799927e-001	 6.601986667943791e-001	 1.062045343530396e+001
 8.415308489181202e-001	 6.689176559138483e-001	 1.042291887069996e+001
 8.345796766661077e-001	 6.775704859034570e-001	 1.019931055121285e+001
 9.050013965216758e-001	 5.916705458664125e-001	 1.322360830718395e+001
 8.988888453343049e-001	 6.009163055644483e-001	 1.274462887819666e+001
 8.926755272116499e-001	 6.101081590042226e-001	 1.223430158742655e+001
 8.863621363311862e-001	 6.192444798702882e-001	 1.169195275849360e+001
 8.799494015058048e-001	 6.283236533547921e-001	 1.129669567466677e+001
 8.734380859569084e-001	 6.373440770717529e-001	 1.118554089381378e+001
 8.668289870587426e-001	 6.463041619663712e-001	 1.105108937648754e+001
 8.601229360540730e-001	 6.552023332183291e-001	 1.089303294379266e+001
 8.533207977413665e-001	 6.640370311380266e-001	 1.071107705953943e+001
 8.464234701336607e-001	 6.728067120547113e-001	 1.050494118392860e+001
 8.394318840893770e-001	 6.815098491954648e-001	 1.027435911618839e+001
 9.102326184684784e-001	 5.950906068270576e-001	 1.323627530069682e+001
 9.040847346150374e-001	 6.043898102225255e-001	 1.273890899620959e+001
 8.978355013585039e-001	 6.136347957628946e-001	 1.221127434339410e+001
 8.914856168889398e-001	 6.228239277320505e-001	 1.165273809916940e+001
 8.850358142320283e-001	 6.319555819879916e-001	 1.143444530293676e+001
 8.784868610208556e-001	 6.410281468823886e-001	 1.130928593385939e+001
 8.718395592387676e-001	 6.500400241751554e-001	 1.116227781590390e+001
 8.650947449334013e-001	 6.589896299429662e-001	 1.099315586915493e+001
 8.582532879020587e-001	 6.678753954806741e-001	 1.080166742817966e+001
 8.513160913486050e-001	 6.766957681945748e-001	 1.058757254562941e+001
 8.442840915121451e-001	 6.854492124864724e-001	 1.035064428630492e+001
 9.154638404142811e-001	 5.985106677867028e-001	 1.324772485408636e+001
 9.092806238947746e-001	 6.078633148796027e-001	 1.273276867476432e+001
 9.029954755043774e-001	 6.171614325205665e-001	 1.218861066329067e+001
 8.966090974457384e-001	 6.264033755928133e-001	 1.168773084872294e+001
 8.901222269573309e-001	 6.355875106201908e-001	 1.156943291101709e+001
 8.835356360839272e-001	 6.447122166920246e-001	 1.143095437623955e+001
 8.768501314179713e-001	 6.537758863829396e-001	 1.127206198377657e+001
 8.700665538119737e-001	 6.627769266666032e-001	 1.109253340433611e+001
 8.631857780620701e-001	 6.717137598223216e-001	 1.089215750143214e+001
 8.562087125629527e-001	 6.805848243334380e-001	 1.067073458522848e+001
 8.491362989344119e-001	 6.893885757764802e-001	 1.042807665835171e+001
 9.206950623590838e-001	 6.019307287453479e-001	 1.325799512841576e+001
 9.144765131735172e-001	 6.113368195356798e-001	 1.272623325803476e+001
 9.081554496492713e-001	 6.206880692772386e-001	 1.216632331729640e+001
 9.017325780015811e-001	 6.299828234525756e-001	 1.183396197180962e+001
 8.952086396817131e-001	 6.392194392513900e-001	 1.170163962072085e+001
 8.885844111461226e-001	 6.483962865006602e-001	 1.155051516151638e+001
 8.818607035963542e-001	 6.575117485897236e-001	 1.138039890663212e+001
 8.750383626897896e-001	 6.665642233892400e-001	 1.119111093538600e+001
 8.681182682214003e-001	 6.755521241629691e-001	 1.098248130461502e+001
 8.611013337767044e-001	 6.844738804713013e-001	 1.075435025307935e+001
 8.539885063561773e-001	 6.933279390654877e-001	 1.050656839933560e+001
 9.259262843028865e-001	 6.053507897029929e-001	 1.326712311917482e+001
 9.196724024512643e-001	 6.148103241907570e-001	 1.271932721895027e+001
 9.133154237931845e-001	 6.242147060329106e-001	 1.214442449347338e+001
 9.068560585564688e-001	 6.335622713113382e-001	 1.197671973957556e+001
 9.002950524051748e-001	 6.428513678815895e-001	 1.183104653377917e+001
 8.936331862074425e-001	 6.520803563082961e-001	 1.166793748278236e+001
 8.868712757739163e-001	 6.612476107955078e-001	 1.148724613034261e+001
 8.800101715668497e-001	 6.703515201108770e-001	 1.128883462857714e+001
 8.730507583800486e-001	 6.793904885026165e-001	 1.107257389806977e+001
 8.659939549898594e-001	 6.883629366081646e-001	 1.083834378314835e+001
 8.588407137774413e-001	 6.972673023534953e-001	 1.058603320212483e+001
 9.311575062456892e-001	 6.087708506596380e-001	 1.327514468902034e+001
 9.248682917280169e-001	 6.182838288448341e-001	 1.271207418366873e+001
 9.184753979361177e-001	 6.277413427875828e-001	 1.225838886665963e+001
 9.119795391104016e-001	 6.371417191691008e-001	 1.211599712749084e+001
 9.053814651277160e-001	 6.464832965107887e-001	 1.195763473240569e+001
 8.986819612678864e-001	 6.557644261149318e-001	 1.178319077856765e+001
 8.918818479506576e-001	 6.649834730002920e-001	 1.159256170553815e+001
 8.849819804431539e-001	 6.741388168315142e-001	 1.138565140848821e+001
 8.779832485380164e-001	 6.832288528412640e-001	 1.116237134808716e+001
 8.708865762024185e-001	 6.922519927440280e-001	 1.092264065695845e+001
 8.636929211982041e-001	 7.012066656405031e-001	 1.066638624258723e+001
 9.363887281874921e-001	 6.121909116152833e-001	 1.328209459942004e+001
 9.300641810037740e-001	 6.217573334979114e-001	 1.270449695522910e+001
 9.236353720780708e-001	 6.312679795412548e-001	 1.240751661450449e+001
 9.171030196633783e-001	 6.407211670258631e-001	 1.225178682915838e+001
 9.104678778493364e-001	 6.501152251389881e-001	 1.208138527984157e+001
 9.037307363274547e-001	 6.594484959205677e-001	 1.189624472598369e+001
 8.968924201265778e-001	 6.687193352040762e-001	 1.169630417350675e+001
 8.899537893187014e-001	 6.779261135511512e-001	 1.148150893682276e+001
 8.829157386953028e-001	 6.870672171789115e-001	 1.125181069880861e+001
 8.757791974143812e-001	 6.961410488788915e-001	 1.100716756874046e+001
 8.685451286184657e-001	 7.051460289265109e-001	 1.074754413816588e+001
 9.416199501282946e-001	 6.156109725699284e-001	 1.328800654124059e+001
 9.352600702785360e-001	 6.252308381499884e-001	 1.270756229193709e+001
 9.287953462190436e-001	 6.347946162939269e-001	 1.255249927087317e+001
 9.222265002154001e-001	 6.443006148816257e-001	 1.238408126414397e+001
 9.155542905700362e-001	 6.537471537661873e-001	 1.220227922088276e+001
 9.087795113861474e-001	 6.631325657252033e-001	 1.200706923409604e+001
 9.019029923016771e-001	 6.724551974068604e-001	 1.179843255256527e+001
 8.949255981934933e-001	 6.817134102697883e-001	 1.157635559193292e+001
 8.878482288519077e-001	 6.909055815155590e-001	 1.134082994506268e+001
 8.806718186257476e-001	 7.000301050127549e-001	 1.109185239174755e+001
 8.733973360382255e-001	 7.090853922115186e-001	 1.082942490783580e+001
 8.248752618180649e-001	 6.696917593164417e-001	 1.005328897771286e+001
 8.179132398560144e-001	 6.781771023277237e-001	 9.671599142000625e+000
 8.108605186701088e-001	 6.865941081259636e-001	 9.300308188306895e+000
 8.037181073560439e-001	 6.949413313060012e-001	 8.940154205368803e+000
 7.964870455645983e-001	 7.032173464125090e-001	 8.591859895962465e+000
 7.891684030059764e-001	 7.114207487438422e-001	 8.256131784751339e+000
 7.817632789288682e-001	 7.195501551410183e-001	 7.933659451117683e+000
 7.742728015747570e-001	 7.276042047608953e-001	 7.625114788343547e+000
 7.666981276080317e-001	 7.355815598326478e-001	 7.331151290448065e+000
 7.590404415225092e-001	 7.434809063966636e-001	 7.052403367920110e+000
 7.513009550249999e-001	 7.513009550250001e-001	 6.789485693516438e+000
 8.297274692423369e-001	 6.736311226104494e-001	 1.012558961071950e+001
 8.227244942096533e-001	 6.821663794041871e-001	 9.754662799398238e+000
 8.156302864283369e-001	 6.906328970012317e-001	 9.393862155219031e+000
 8.084458609299415e-001	 6.990292214940396e-001	 9.043900384374815e+000
 8.011722634808386e-001	 7.073539190422515e-001	 8.705474955571855e+000
 7.938105700836452e-001	 7.156055766812728e-001	 8.379267334370070e+000
 7.863618864532205e-001	 7.237828031158907e-001	 8.065942242431577e+000
 7.788273474677623e-001	 7.318842294980039e-001	 7.766146943004411e+000
 7.712081165955679e-001	 7.399085101875472e-001	 7.480510553899460e+000
 7.635053852980647e-001	 7.478543234957333e-001	 7.209643389157566e+000
 7.557203724097500e-001	 7.557203724097500e-001	 6.954136330534689e+000
 8.345796766661077e-001	 6.775704859034570e-001	 1.019931055121285e+001
 8.275357485628805e-001	 6.861556564796555e-001	 9.838638125443728e+000
 8.204000541862239e-001	 6.946716858755192e-001	 9.487825806232141e+000
 8.131736145035482e-001	 7.031171116811227e-001	 9.147561166551334e+000
 8.058574813968183e-001	 7.114904916710747e-001	 8.818516685560176e+000
 7.984527371610637e-001	 7.197904046178286e-001	 8.501349009203246e+000
 7.909604939773127e-001	 7.280154510899435e-001	 8.196698235655285e+000
 7.833818933604777e-001	 7.361642542343574e-001	 7.905187226888311e+000
 7.757181055827641e-001	 7.442354605417662e-001	 7.627420947580105e+000
 7.679703290732098e-001	 7.522277405942081e-001	 7.363985832514722e+000
 7.601397897939999e-001	 7.601397897939999e-001	 7.115449183558682e+000
 8.394318840893770e-001	 6.815098491954648e-001	 1.027435911618839e+001
 8.323470029156969e-001	 6.901449335541291e-001	 9.923441028281619e+000
 8.251698219437696e-001	 6.987104747488275e-001	 9.582123570979467e+000
 8.179013680768644e-001	 7.072050018672511e-001	 9.251069429155683e+000
 8.105426993125370e-001	 7.156270642989773e-001	 8.930926332773023e+000
 8.030949042382316e-001	 7.239752325535089e-001	 8.622326343517635e+000
 7.955591015011446e-001	 7.322480990631757e-001	 8.325885166217674e+000
 7.879364392529029e-001	 7.404442789699562e-001	 8.042201486282478e+000
 7.802280945696203e-001	 7.485624108953051e-001	 7.771856334335236e+000
 7.724352728479451e-001	 7.566011576920877e-001	 7.515412479149787e+000
 7.645592071777499e-001	 7.645592071777499e-001	 7.273413849928157e+000
 8.442840915121451e-001	 6.854492124864724e-001	 1.035064428630492e+001
 8.371582572681015e-001	 6.941342106276072e-001	 1.000898888100858e+001
 8.299395897009747e-001	 7.027492636211556e-001	 9.676681147191220e+000
 8.226291216498892e-001	 7.112928920524242e-001	 9.354359122640387e+000
 8.152279172279952e-001	 7.197636369259598e-001	 9.042646024400549e+000
 8.077370713151492e-001	 7.281600604883144e-001	 8.742149561218186e+000
 8.001577090247163e-001	 7.364807470355881e-001	 8.453461270719297e+000
 7.924909851450380e-001	 7.447243037047999e-001	 8.177155882509789e+000
 7.847380835561363e-001	 7.528893612481642e-001	 7.913790708332437e+000
 7.769002166222706e-001	 7.609745747893724e-001	 7.663905060342818e+000
 7.689786245610000e-001	 7.689786245610000e-001	 7.428019698503050e+000
 8.491362989344119e-001	 6.893885757764802e-001	 1.042807665835171e+001
 8.419695116200950e-001	 6.981234877000905e-001	 1.009520047981781e+001
 8.347093574578381e-001	 7.067880524925034e-001	 9.771425464463603e+000
 8.273568752226230e-001	 7.153807822366423e-001	 9.457365239991685e+000
 8.199131351431929e-001	 7.239002095520221e-001	 9.153618742824982e+000
 8.123792383918161e-001	 7.323448884222447e-001	 8.860769556144730e+000
 8.047563165480275e-001	 7.407133950071803e-001	 8.579385272612495e+000
 7.970455310368827e-001	 7.490043284388884e-001	 8.310016882928082e+000
 7.892480725423123e-001	 7.572163116003433e-001	 8.053198191309569e+000
 7.813651603961859e-001	 7.653479918860618e-001	 7.809445258919882e+000
 7.733980419437501e-001	 7.733980419437501e-001	 7.579255876192181e+000
 8.539885063561773e-001	 6.933279390654877e-001	 1.050656839933560e+001
 8.467807659716774e-001	 7.021127647715790e-001	 1.018199600356942e+001
 8.394791252143606e-001	 7.108268413628713e-001	 9.866284649262045e+000
 8.320846287950663e-001	 7.194686724199052e-001	 9.560023787110941e+000
 8.245983530581295e-001	 7.280367821771648e-001	 9.263788301325151e+000
 8.170214054682327e-001	 7.365297163553000e-001	 8.978137873039014e+000
 8.093549240710782e-001	 7.449460429779523e-001	 8.703616368371002e+000
 8.016000769284374e-001	 7.532843531722215e-001	 8.440751252235202e+000
 7.937580615281480e-001	 7.615432619518425e-001	 8.190053028950880e+000
 7.858301041696911e-001	 7.697214089821564e-001	 7.952014710630613e+000
 7.778174593260001e-001	 7.778174593260001e-001	 7.727111314258091e+000
 8.588407137774413e-001	 6.972673023534953e-001	 1.058603320212483e+001
 8.515920203228483e-001	 7.061020418420723e-001	 1.026929697473297e+001
 8.442488929705422e-001	 7.148656302322591e-001	 9.961187991111634e+000
 8.368123823672184e-001	 7.235565626022134e-001	 9.662271754202068e+000
 8.292835709728056e-001	 7.321733548013872e-001	 9.373099320604911e+000
 8.216635725443985e-001	 7.407145442874802e-001	 9.094206689158455e+000
 8.139535315938687e-001	 7.491786909479045e-001	 8.826114214127516e+000
 8.061546228197020e-001	 7.575643779048001e-001	 8.569326044070355e+000
 7.982680505136439e-001	 7.658702123026613e-001	 8.324329587385492e+000
 7.902950479427863e-001	 7.740948260776560e-001	 8.091595005477172e+000
 7.822368767077499e-001	 7.822368767077499e-001	 7.871574734409120e+000
 8.636929211982041e-001	 7.012066656405031e-001	 1.066638624258723e+001
 8.564032746736080e-001	 7.100913189115707e-001	 1.035702622164496e+001
 8.490186607263824e-001	 7.189044191006671e-001	 1.005606590992698e+001
 8.415401359390796e-001	 7.276444527835663e-001	 9.764047088122023e+000
 8.339687888872210e-001	 7.363099274246895e-001	 9.481497206112589e+000
 8.263057396203141e-001	 7.448993722187852e-001	 9.208928796508010e+000
 8.185521391163990e-001	 7.534113389170363e-001	 8.946838912761654e+000
 8.107091687106761e-001	 7.618444026366236e-001	 8.695708592897219e+000
 8.027780394987998e-001	 7.701971626528004e-001	 8.456002349803969e+000
 7.947599917154716e-001	 7.784682431725606e-001	 8.228167688999685e+000
 7.866562940890000e-001	 7.866562940890000e-001	 8.012634654685577e+000
 8.685451286184657e-001	 7.051460289265109e-001	 1.074754413816588e+001
 8.612145290239563e-001	 7.140805959800740e-001	 1.044510784203236e+001
 8.537884284818815e-001	 7.229432079680949e-001	 1.015084992443669e+001
 8.462678895106500e-001	 7.317323429639641e-001	 9.865288665658827e+000
 8.386540068013757e-001	 7.404465000470717e-001	 9.588928126120880e+000
 8.309479066959788e-001	 7.490842001492152e-001	 9.322257584669311e+000
 8.231507466386688e-001	 7.576439868853482e-001	 9.065751001421619e+000
 8.152637146013603e-001	 7.661244273676917e-001	 8.819866506159960e+000
 8.072880284836156e-001	 7.745241130022594e-001	 8.585045913189100e+000
 7.992249354877469e-001	 7.828416602668703e-001	 8.361714263518351e+000
 7.910757114697501e-001	 7.910757114697501e-001	 8.150279395149028e+000
 8.733973360382255e-001	 7.090853922115186e-001	 1.082942490783580e+001
 8.660257833738934e-001	 7.180698730475822e-001	 1.053346716775187e+001
 8.585581962370394e-001	 7.269819968345425e-001	 1.024547262166136e+001
 8.509956430819292e-001	 7.358202331434069e-001	 9.965936267700549e+000
 8.433392247152693e-001	 7.445830726685337e-001	 9.695338990537113e+000
 8.355900737713932e-001	 7.532690280787702e-001	 9.434147024200458e+000
 8.277493541606786e-001	 7.618766348528402e-001	 9.182811439460894e+000
 8.198182604917543e-001	 7.704044520980049e-001	 8.941767656700391e+000
 8.117980174680912e-001	 7.788510633510380e-001	 8.711434985153938e+000
 8.036898792596121e-001	 7.872150773605848e-001	 8.492216189333581e+000
 7.954951288500000e-001	 7.954951288500001e-001	 8.284497083381387e+000
 7.513009550249999e-001	 7.513009550250001e-001	 6.789485693516438e+000
 7.434809063966638e-001	 7.590404415225089e-001	 6.551976158871096e+000
 7.355815598326477e-001	 7.666981276080315e-001	 6.313780681564872e+000
 7.276042047608952e-001	 7.742728015747570e-001	 6.075152239232293e+000
 7.195501551410183e-001	 7.817632789288682e-001	 5.836338880225473e+000
 7.114207487438421e-001	 7.891684030059761e-001	 5.597583523829213e+000
 7.032173464125090e-001	 7.964870455645983e-001	 5.359123772459290e+000
 6.949413313060012e-001	 8.037181073560437e-001	 5.121191736049653e+000
 6.865941081259634e-001	 8.108605186701088e-001	 4.884013868795901e+000
 6.781771023277237e-001	 8.179132398560144e-001	 4.647810818388075e+000
 6.696917593164417e-001	 8.248752618180650e-001	 4.412797287829314e+000
 7.557203724097500e-001	 7.557203724097500e-001	 6.954136330534689e+000
 7.478543234957333e-001	 7.635053852980646e-001	 6.718072205248112e+000
 7.399085101875471e-001	 7.712081165955678e-001	 6.481326929922561e+000
 7.318842294980038e-001	 7.788273474677624e-001	 6.244144976652012e+000
 7.237828031158908e-001	 7.863618864532206e-001	 6.006765837217687e+000
 7.156055766812727e-001	 7.938105700836452e-001	 5.769423833106601e+000
 7.073539190422516e-001	 8.011722634808387e-001	 5.532347937636396e+000
 6.990292214940396e-001	 8.084458609299414e-001	 5.295761610372697e+000
 6.906328970012315e-001	 8.156302864283369e-001	 5.059882643988513e+000
 6.821663794041871e-001	 8.227244942096533e-001	 4.824923023680092e+000
 6.736311226104494e-001	 8.297274692423370e-001	 4.591088799215963e+000
 7.601397897939999e-001	 7.601397897939999e-001	 7.115449183558682e+000
 7.522277405942079e-001	 7.679703290732098e-001	 6.880681503050237e+000
 7.442354605417662e-001	 7.757181055827641e-001	 6.645240340944735e+000
 7.361642542343575e-001	 7.833818933604778e-001	 6.409361723662252e+000
 7.280154510899434e-001	 7.909604939773127e-001	 6.173276643541519e+000
 7.197904046178286e-001	 7.984527371610638e-001	 5.937210878621860e+000
 7.114904916710747e-001	 8.058574813968182e-001	 5.701384824660952e+000
 7.031171116811228e-001	 8.131736145035482e-001	 5.466013339553107e+000
 6.946716858755194e-001	 8.204000541862240e-001	 5.231305600279934e+000
 6.861556564796555e-001	 8.275357485628805e-001	 4.997464972487473e+000
 6.775704859034571e-001	 8.345796766661078e-001	 4.764688892750985e+000
 7.645592071777499e-001	 7.645592071777499e-001	 7.273413849928157e+000
 7.566011576920877e-001	 7.724352728479451e-001	 7.039796460391599e+000
 7.485624108953051e-001	 7.802280945696202e-001	 6.805516128351483e+000
 7.404442789699561e-001	 7.879364392529029e-001	 6.570800493011829e+000
 7.322480990631757e-001	 7.955591015011446e-001	 6.335872102985991e+000
 7.239752325535090e-001	 8.030949042382317e-001	 6.100948245807635e+000
 7.156270642989772e-001	 8.105426993125373e-001	 5.866240789807028e+000
 7.072050018672513e-001	 8.179013680768642e-001	 5.631956038502411e+000
 6.987104747488274e-001	 8.251698219437699e-001	 5.398294597617960e+000
 6.901449335541289e-001	 8.323470029156969e-001	 5.165451254804865e+000
 6.815098491954648e-001	 8.394318840893770e-001	 4.933614872104598e+000
 7.689786245610000e-001	 7.689786245610000e-001	 7.428019698503050e+000
 7.609745747893724e-001	 7.769002166222704e-001	 7.195409193623429e+000
 7.528893612481644e-001	 7.847380835561363e-001	 6.962149151185026e+000
 7.447243037047998e-001	 7.924909851450378e-001	 6.728458880253056e+000
 7.364807470355881e-001	 8.001577090247161e-001	 6.494552540054086e+000
 7.281600604883143e-001	 8.077370713151493e-001	 6.260638979178171e+000
 7.197636369259599e-001	 8.152279172279953e-001	 6.026921587284342e+000
 7.112928920524244e-001	 8.226291216498891e-001	 5.793598159437558e+000
 7.027492636211554e-001	 8.299395897009746e-001	 5.560860773171702e+000
 6.941342106276072e-001	 8.371582572681015e-001	 5.328895678336021e+000
 6.854492124864724e-001	 8.442840915121451e-001	 5.097883199744199e+000
 7.733980419437501e-001	 7.733980419437501e-001	 7.579255876192181e+000
 7.653479918860620e-001	 7.813651603961856e-001	 7.347511535670043e+000
 7.572163116003433e-001	 7.892480725423123e-001	 7.115133923942143e+000
 7.490043284388881e-001	 7.970455310368827e-001	 6.882334075662085e+000
 7.407133950071803e-001	 8.047563165480275e-001	 6.649317813655925e+000
 7.323448884222447e-001	 8.123792383918163e-001	 6.416285597783315e+000
 7.239002095520221e-001	 8.199131351431929e-001	 6.183432386440121e+000
 7.153807822366424e-001	 8.273568752226231e-001	 5.950947510816293e+000
 7.067880524925033e-001	 8.347093574578384e-001	 5.719014561982360e+000
 6.981234877000905e-001	 8.419695116200950e-001	 5.487811290844786e+000
 6.893885757764802e-001	 8.491362989344119e-001	 5.257509520969685e+000
 7.778174593260001e-001	 7.778174593260001e-001	 7.727111314258091e+000
 7.697214089821564e-001	 7.858301041696911e-001	 7.496095044081085e+000
 7.615432619518423e-001	 7.937580615281481e-001	 7.264464626363474e+000
 7.532843531722219e-001	 8.016000769284377e-001	 7.032422875751783e+000
 7.449460429779523e-001	 8.093549240710783e-001	 6.800167330336413e+000
 7.365297163553000e-001	 8.170214054682325e-001	 6.567890110137041e+000
 7.280367821771648e-001	 8.245983530581295e-001	 6.335777788374605e+000
 7.194686724199053e-001	 8.320846287950662e-001	 6.104011275624690e+000
 7.108268413628713e-001	 8.394791252143609e-001	 5.872765716909351e+000
 7.021127647715790e-001	 8.467807659716774e-001	 5.642210401744407e+000
 6.933279390654878e-001	 8.539885063561774e-001	 5.412508687127390e+000
 7.822368767077499e-001	 7.822368767077499e-001	 7.871574734409120e+000
 7.740948260776560e-001	 7.902950479427863e-001	 7.641151008810311e+000
 7.658702123026613e-001	 7.982680505136440e-001	 7.410135112889071e+000
 7.575643779048000e-001	 8.061546228197020e-001	 7.178721694395322e+000
 7.491786909479045e-001	 8.139535315938687e-001	 6.947100057053468e+000
 7.407145442874802e-001	 8.216635725443986e-001	 6.715454028638995e+000
 7.321733548013872e-001	 8.292835709728056e-001	 6.483961841992719e+000
 7.235565626022132e-001	 8.368123823672182e-001	 6.252796029046808e+000
 7.148656302322591e-001	 8.442488929705422e-001	 6.022123327901999e+000
 7.061020418420723e-001	 8.515920203228483e-001	 5.792104602954956e+000
 6.972673023534953e-001	 8.588407137774413e-001	 5.562894778038623e+000
 7.866562940890000e-001	 7.866562940890000e-001	 8.012634654685577e+000
 7.784682431725607e-001	 7.947599917154716e-001	 7.782670459732460e+000
 7.701971626528001e-001	 8.027780394987996e-001	 7.552138921796344e+000
 7.618444026366233e-001	 8.107091687106761e-001	 7.321226573574674e+000
 7.534113389170364e-001	 8.185521391163991e-001	 7.090114533526481e+000
 7.448993722187852e-001	 8.263057396203140e-001	 6.858978383510756e+000
 7.363099274246895e-001	 8.339687888872210e-001	 6.627988059515877e+000
 7.276444527835663e-001	 8.415401359390796e-001	 6.397307755536842e+000
 7.189044191006671e-001	 8.490186607263823e-001	 6.167095840620017e+000
 7.100913189115709e-001	 8.564032746736080e-001	 5.937504789057534e+000
 7.012066656405031e-001	 8.636929211982041e-001	 5.708681123671916e+000
 7.910757114697501e-001	 7.910757114697501e-001	 8.150279395149028e+000
 7.828416602668701e-001	 7.992249354877468e-001	 7.920644173907657e+000
 7.745241130022591e-001	 8.072880284836151e-001	 7.690469284031506e+000
 7.661244273676917e-001	 8.152637146013604e-001	 7.459933193768025e+000
 7.576439868853483e-001	 8.231507466386689e-001	 7.229208884169672e+000
 7.490842001492152e-001	 8.309479066959787e-001	 6.998463736263884e+000
 7.404465000470717e-001	 8.386540068013757e-001	 6.767859431472862e+000
 7.317323429639643e-001	 8.462678895106499e-001	 6.537551865320847e+000
 7.229432079680946e-001	 8.537884284818814e-001	 6.307691074430728e+000
 7.140805959800740e-001	 8.612145290239563e-001	 6.078421176772876e+000
 7.051460289265109e-001	 8.685451286184657e-001	 5.849880325088466e+000
 7.954951288500000e-001	 7.954951288500001e-001	 8.284497083381387e+000
 7.872150773605848e-001	 8.036898792596122e-001	 8.055062682604635e+000
 7.788510633510382e-001	 8.117980174680909e-001	 7.825119131746688e+000
 7.704044520980049e-001	 8.198182604917542e-001	 7.594836883992326e+000
 7.618766348528402e-001	 8.277493541606785e-001	 7.364380829628960e+000
 7.532690280787701e-001	 8.355900737713932e-001	 7.133910192720212e+000
 7.445830726685337e-001	 8.433392247152695e-001	 6.903578441191087e+000
 7.358202331434069e-001	 8.509956430819292e-001	 6.673533210346735e+000
 7.269819968345423e-001	 8.585581962370394e-001	 6.443916239805446e+000
 7.180698730475822e-001	 8.660257833738934e-001	 6.214863323791226e+000
 7.090853922115185e-001	 8.733973360382255e-001	 5.986504274689425e+000
 6.696917593164417e-001	 8.248752618180650e-001	 4.412797287829314e+000
 6.611395436291213e-001	 8.317456064852504e-001	 4.196312557219157e+000
 6.525219381040842e-001	 8.385233272552015e-001	 3.993594510889014e+000
 6.438404430384179e-001	 8.452075094115514e-001	 3.804762900347492e+000
 6.350965753340184e-001	 8.517972705137421e-001	 3.629920113921817e+000
 6.262918676338455e-001	 8.582917607598127e-001	 3.469151239461150e+000
 6.174278674491944e-001	 8.646901633216116e-001	 3.250754280359026e+000
 6.085061362790006e-001	 8.709916946521928e-001	 3.036227355440534e+000
 5.995282487222066e-001	 8.771956047652072e-001	 2.837756072364262e+000
 5.904957915842167e-001	 8.833011774861372e-001	 2.655055873616136e+000
 5.814103629784772e-001	 8.893077306752675e-001	 2.487827648382290e+000
 6.736311226104494e-001	 8.297274692423370e-001	 4.591088799215963e+000
 6.650285997719848e-001	 8.366382277019835e-001	 4.374765562623666e+000
 6.563603024497319e-001	 8.434558174179377e-001	 4.171630780502708e+000
 6.476277397660551e-001	 8.501793182931483e-001	 3.981797895713213e+000
 6.388324375458027e-001	 8.568078426962298e-001	 3.805363462967875e+000
 6.299759374474814e-001	 8.633405358263870e-001	 3.642407217227627e+000
 6.210597960853935e-001	 8.697765760505964e-001	 3.455806937831547e+000
 6.120855841437632e-001	 8.761151752128127e-001	 3.237192439893037e+000
 6.030548854838785e-001	 8.823555789150014e-001	 3.034042419675563e+000
 5.939692962452940e-001	 8.884970667698550e-001	 2.846060731073789e+000
 5.848304239421225e-001	 8.945389526250702e-001	 2.672937211119642e+000
 6.775704859034571e-001	 8.345796766661078e-001	 4.764688892750985e+000
 6.689176559138483e-001	 8.415308489181202e-001	 4.548428952994685e+000
 6.601986667943791e-001	 8.483883075799925e-001	 4.344788360538135e+000
 6.514150364926920e-001	 8.551511271739887e-001	 4.153874258055369e+000
 6.425682997565868e-001	 8.618184148778967e-001	 3.975777368575516e+000
 6.336600072601171e-001	 8.683893108920856e-001	 3.810572069613681e+000
 6.246917247205931e-001	 8.748629887786612e-001	 3.655420713596956e+000
 6.156650320075257e-001	 8.812386557724771e-001	 3.432722518310241e+000
 6.065815222445504e-001	 8.875155530638156e-001	 3.224907218371210e+000
 5.974428009053711e-001	 8.936929560525773e-001	 3.031666910515722e+000
 5.882504849047675e-001	 8.997701745738731e-001	 2.852680205218022e+000
 6.815098491954648e-001	 8.394318840893770e-001	 4.933614872104598e+000
 6.728067120547113e-001	 8.464234701336608e-001	 4.717322387168833e+000
 6.640370311380267e-001	 8.533207977413663e-001	 4.513089145746479e+000
 6.552023332183290e-001	 8.601229360540732e-001	 4.321015997835271e+000
 6.463041619663711e-001	 8.668289870587422e-001	 4.141187835833831e+000
 6.373440770717527e-001	 8.734380859569084e-001	 3.973673674450668e+000
 6.283236533547921e-001	 8.799494015058048e-001	 3.818526754967550e+000
 6.192444798702883e-001	 8.863621363311862e-001	 3.622815581971184e+000
 6.101081590042224e-001	 8.926755272116498e-001	 3.410350839075999e+000
 6.009163055644483e-001	 8.988888453343047e-001	 3.211877043888569e+000
 5.916705458664124e-001	 9.050013965216758e-001	 3.027061404401393e+000
 6.854492124864724e-001	 8.442840915121451e-001	 5.097883199744199e+000
 6.766957681945748e-001	 8.513160913486051e-001	 4.881464632329720e+000
 6.678753954806741e-001	 8.582532879020587e-001	 4.676554091734268e+000
 6.589896299429660e-001	 8.650947449334013e-001	 4.483246141851767e+000
 6.500400241751554e-001	 8.718395592387674e-001	 4.301619844640540e+000
 6.410281468823886e-001	 8.784868610208555e-001	 4.131738845854633e+000
 6.319555819879916e-001	 8.850358142320283e-001	 3.973651484560905e+000
 6.228239277320508e-001	 8.914856168889399e-001	 3.807468490442820e+000
 6.136347957628945e-001	 8.978355013585040e-001	 3.590372491247623e+000
 6.043898102225255e-001	 9.040847346150371e-001	 3.386692575554578e+000
 5.950906068270576e-001	 9.102326184684784e-001	 3.196084371433345e+000
 6.893885757764802e-001	 8.491362989344119e-001	 5.257509520969685e+000
 6.805848243334380e-001	 8.562087125629527e-001	 5.040873589485167e+000
 6.717137598223214e-001	 8.631857780620700e-001	 4.835203241795884e+000
 6.627769266666029e-001	 8.700665538119733e-001	 4.640586761345548e+000
 6.537758863829394e-001	 8.768501314179713e-001	 4.457097378993784e+000
 6.447122166920245e-001	 8.835356360839272e-001	 4.284793364617517e+000
 6.355875106201908e-001	 8.901222269573309e-001	 4.123718141932339e+000
 6.264033755928131e-001	 8.966090974457383e-001	 3.973900426026394e+000
 6.171614325205665e-001	 9.029954755043775e-001	 3.764970256353145e+000
 6.078633148796026e-001	 9.092806238947746e-001	 3.556113796222205e+000
 5.985106677867028e-001	 9.154638404142812e-001	 3.359751492714925e+000
 6.933279390654878e-001	 8.539885063561774e-001	 5.412508687127390e+000
 6.844738804713014e-001	 8.611013337767044e-001	 5.195566318073651e+000
 6.755521241629692e-001	 8.681182682214000e-001	 4.989055752832039e+000
 6.665642233892400e-001	 8.750383626897897e-001	 4.793058999145476e+000
 6.575117485897236e-001	 8.818607035963542e-001	 4.607643455284697e+000
 6.483962865006604e-001	 8.885844111461226e-001	 4.432862007562544e+000
 6.392194392513902e-001	 8.952086396817131e-001	 4.268753150517727e+000
 6.299828234525757e-001	 9.017325780015811e-001	 4.115341129242911e+000
 6.206880692772386e-001	 9.081554496492713e-001	 3.934141119914020e+000
 6.113368195356798e-001	 9.144765131735170e-001	 3.720139875721210e+000
 6.019307287453479e-001	 9.206950623590837e-001	 3.518064011704768e+000
 6.972673023534953e-001	 8.588407137774413e-001	 5.562894778038623e+000
 6.883629366081646e-001	 8.659939549898594e-001	 5.345559059737794e+000
 6.793904885026166e-001	 8.730507583800488e-001	 5.138129920388631e+000
 6.703515201108770e-001	 8.800101715668497e-001	 4.940683095895715e+000
 6.612476107955078e-001	 8.868712757739163e-001	 4.753280149630162e+000
 6.520803563082960e-001	 8.936331862074425e-001	 4.575968575905888e+000
 6.428513678815896e-001	 9.002950524051748e-001	 4.408781925575761e+000
 6.335622713113382e-001	 9.068560585564689e-001	 4.251739953220481e+000
 6.242147060329106e-001	 9.133154237931844e-001	 4.097881002464661e+000
 6.148103241907568e-001	 9.196724024512643e-001	 3.878768894665433e+000
 6.053507897029929e-001	 9.259262843028865e-001	 3.671022061205627e+000
 7.012066656405031e-001	 8.636929211982041e-001	 5.708681123671916e+000
 6.922519927440282e-001	 8.708865762024185e-001	 5.490867261296215e+000
 6.832288528412640e-001	 8.779832485380164e-001	 5.282443202852186e+000
 6.741388168315140e-001	 8.849819804431538e-001	 5.083478415396992e+000
 6.649834730002919e-001	 8.918818479506576e-001	 4.894028624286325e+000
 6.557644261149319e-001	 8.986819612678865e-001	 4.714135922660336e+000
 6.464832965107888e-001	 9.053814651277160e-001	 4.543828902508315e+000
 6.371417191691008e-001	 9.119795391104013e-001	 4.383122806778501e+000
 6.277413427875827e-001	 9.184753979361178e-001	 4.232019701947118e+000
 6.182838288448342e-001	 9.248682917280169e-001	 4.031997875048485e+000
 6.087708506596382e-001	 9.311575062456892e-001	 3.818624694561573e+000
 7.051460289265109e-001	 8.685451286184657e-001	 5.849880325088466e+000
 6.961410488788915e-001	 8.757791974143812e-001	 5.631505596945014e+000
 6.870672171789114e-001	 8.829157386953025e-001	 5.422012244834745e+000
 6.779261135511510e-001	 8.899537893187015e-001	 5.221463469099969e+000
 6.687193352040762e-001	 8.968924201265776e-001	 5.029909153174300e+000
 6.594484959205677e-001	 9.037307363274549e-001	 4.847385979122358e+000
 6.501152251389882e-001	 9.104678778493365e-001	 4.673917564230539e+000
 6.407211670258635e-001	 9.171030196633785e-001	 4.509514618100882e+000
 6.312679795412546e-001	 9.236353720780708e-001	 4.354175119654951e+000
 6.217573334979113e-001	 9.300641810037739e-001	 4.179822809814622e+000
 6.121909116152833e-001	 9.363887281874921e-001	 3.960869915811675e+000
 7.090853922115185e-001	 8.733973360382255e-001	 5.986504274689425e+000
 7.000301050127548e-001	 8.806718186257475e-001	 5.767487989719714e+000
 6.909055815155590e-001	 8.878482288519077e-001	 5.556852899777775e+000
 6.817134102697880e-001	 8.949255981934932e-001	 5.354655939782052e+000
 6.724551974068604e-001	 9.019029923016770e-001	 5.160941146556596e+000
 6.631325657252033e-001	 9.087795113861473e-001	 4.975739780474476e+000
 6.537471537661874e-001	 9.155542905700363e-001	 4.799070467628944e+000
 6.443006148816257e-001	 9.222265002153998e-001	 4.630939361974747e+000
 6.347946162939268e-001	 9.287953462190436e-001	 4.471340326838374e+000
 6.252308381499885e-001	 9.352600702785361e-001	 4.320255135155424e+000
 6.156109725699284e-001	 9.416199501282946e-001	 4.097754708836794e+000
 5.814103629784772e-001	 8.893077306752675e-001	 2.487827648382290e+000
 5.722735714244086e-001	 8.952146164229528e-001	 2.352486054779784e+000
 5.630870349421174e-001	 9.010212212152780e-001	 2.219343294639907e+000
 5.538523801453157e-001	 9.067269660713994e-001	 2.088192134426012e+000
 5.445712413338730e-001	 9.123313066538565e-001	 1.958825680742569e+000
 5.352452595864036e-001	 9.178337333501018e-001	 1.831038095294148e+000
 5.258760818540936e-001	 9.232337713259999e-001	 1.704625298729308e+000
 5.164653600567581e-001	 9.285309805514910e-001	 1.579385661528476e+000
 5.070147501821034e-001	 9.337249557986366e-001	 1.455120680162276e+000
 4.975259113891605e-001	 9.388153266123082e-001	 1.331635636816293e+000
 4.880005051168285e-001	 9.438017572538180e-001	 1.208740241052775e+000
 5.848304239421225e-001	 8.945389526250702e-001	 2.672937211119642e+000
 5.756398865556385e-001	 9.004805847597409e-001	 2.532926086513901e+000
 5.663993116236896e-001	 9.063213460510203e-001	 2.395460463160049e+000
 5.571103353283033e-001	 9.120606541122929e-001	 2.260312939120971e+000
 5.477746015828782e-001	 9.176979614041150e-001	 2.127256248061632e+000
 5.383937611194321e-001	 9.232327553162176e-001	 1.996064006497464e+000
 5.289694705770991e-001	 9.286645582213238e-001	 1.866511449815868e+000
 5.195033915928699e-001	 9.339929275009621e-001	 1.738376155164437e+000
 5.099971898955551e-001	 9.392174555435006e-001	 1.611438749364706e+000
 5.004525344039444e-001	 9.443377697146625e-001	 1.485483600087243e+000
 4.908710963301074e-001	 9.493535323008279e-001	 1.360299488593378e+000
 5.882504849047675e-001	 8.997701745738731e-001	 2.852680205218022e+000
 5.790062016858684e-001	 9.057465530955298e-001	 2.707912337108220e+000
 5.697115883042616e-001	 9.116214708857622e-001	 2.566034200672887e+000
 5.603682905102908e-001	 9.173943421521864e-001	 2.426798140064411e+000
 5.509779618308835e-001	 9.230646161533735e-001	 2.289956432465769e+000
 5.415422626514603e-001	 9.286317772813337e-001	 2.155262067815839e+000
 5.320628592991046e-001	 9.340953451156482e-001	 2.022469517191853e+000
 5.225414231279817e-001	 9.394548744494337e-001	 1.891335487872417e+000
 5.129796296080066e-001	 9.447099552873642e-001	 1.761619663179484e+000
 5.033791574177284e-001	 9.498602128160172e-001	 1.633085425267272e+000
 4.937416875423862e-001	 9.549053073468373e-001	 1.505500559102840e+000
 5.916705458664124e-001	 9.050013965216758e-001	 3.027061404401393e+000
 5.823725168150984e-001	 9.110125214303183e-001	 2.877453827335972e+000
 5.730238649838337e-001	 9.169215957195045e-001	 2.731077848806127e+000
 5.636262456912786e-001	 9.227280301910803e-001	 2.587665470455723e+000
 5.541813220778886e-001	 9.284312709016321e-001	 2.446948426328123e+000
 5.446907641824886e-001	 9.340307992454493e-001	 2.308658995258898e+000
 5.351562480201099e-001	 9.395261320089718e-001	 2.172530801803690e+000
 5.255794546620934e-001	 9.449168213969046e-001	 2.038299603658695e+000
 5.159620693194582e-001	 9.502024550302283e-001	 1.905704063603107e+000
 5.063057804305123e-001	 9.553826559163713e-001	 1.774486504069707e+000
 4.966122787536653e-001	 9.604570823918474e-001	 1.644393642528452e+000
 5.950906068270576e-001	 9.102326184684784e-001	 3.196084371433345e+000
 5.857388319433282e-001	 9.162784897641069e-001	 3.041558295497869e+000
 5.763361416624058e-001	 9.222217205522466e-001	 2.890603393734704e+000
 5.668842008712662e-001	 9.280617182289741e-001	 2.742931233634270e+000
 5.573846823238936e-001	 9.337979256488903e-001	 2.598252916367756e+000
 5.478392657125171e-001	 9.394298212085653e-001	 2.456279922040920e+000
 5.382496367401154e-001	 9.449569189012960e-001	 2.316724943357735e+000
 5.286174861952051e-001	 9.503787683433757e-001	 2.179302705580131e+000
 5.189445090299096e-001	 9.556949547720919e-001	 2.043730770751140e+000
 5.092324034422964e-001	 9.609050990157256e-001	 1.909730324218770e+000
 4.994828699639441e-001	 9.660088574358570e-001	 1.777026941586372e+000
 5.985106677867028e-001	 9.154638404142812e-001	 3.359751492714925e+000
 5.891051470705582e-001	 9.215444580968956e-001	 3.200232234062857e+000
 5.796484183399779e-001	 9.275218453839883e-001	 3.044621504907707e+000
 5.701421560502538e-001	 9.333954062658674e-001	 2.892610343933182e+000
 5.605880425688988e-001	 9.391645803951488e-001	 2.743889126668607e+000
 5.509877672415453e-001	 9.448288431706811e-001	 2.598148443804632e+000
 5.413430254591207e-001	 9.503877057926200e-001	 2.455079967782674e+000
 5.316555177273167e-001	 9.558407152888468e-001	 2.314377305484102e+000
 5.219269487393613e-001	 9.611874545129560e-001	 2.175736834912712e+000
 5.121590264530802e-001	 9.664275421140801e-001	 2.038858523850438e+000
 5.023534611732231e-001	 9.715606324788668e-001	 1.903446728540255e+000
 6.019307287453479e-001	 9.206950623590837e-001	 3.518064011704768e+000
 5.924714621967882e-001	 9.268104264286842e-001	 3.353480925061555e+000
 5.829606950165501e-001	 9.328219702147308e-001	 3.193141572456083e+000
 5.734001112282414e-001	 9.387290943017612e-001	 3.036716366139041e+000
 5.637914028129040e-001	 9.445312351404072e-001	 2.883874860231495e+000
 5.541362687695737e-001	 9.502278651317971e-001	 2.734286662301092e+000
 5.444364141771262e-001	 9.558184926829443e-001	 2.587622333076564e+000
 5.346935492584285e-001	 9.613026622333184e-001	 2.443554272054484e+000
 5.249093884478128e-001	 9.666799542528195e-001	 2.301757586829534e+000
 5.150856494628642e-001	 9.719499852114345e-001	 2.161910944056730e+000
 5.052240523815021e-001	 9.771124075208765e-001	 2.023697400042808e+000
 6.053507897029929e-001	 9.259262843028865e-001	 3.671022061205627e+000
 5.958377773220180e-001	 9.320763947594726e-001	 3.501308474279775e+000
 5.862729716921220e-001	 9.381220950444726e-001	 3.336171743331007e+000
 5.766580664052290e-001	 9.440627823366551e-001	 3.175261553615603e+000
 5.669947630559090e-001	 9.498978898846657e-001	 3.018226539117698e+000
 5.572847702966022e-001	 9.556268870919128e-001	 2.864715227591234e+000
 5.475298028941316e-001	 9.612492795722680e-001	 2.714376973598230e+000
 5.377315807885402e-001	 9.667646091767895e-001	 2.566862877229969e+000
 5.278918281552644e-001	 9.721724539916834e-001	 2.421826686270020e+000
 5.180122724716482e-001	 9.774724283077889e-001	 2.278925679649723e+000
 5.080946435887809e-001	 9.826641825618862e-001	 2.137821530120247e+000
 6.087708506596382e-001	 9.311575062456892e-001	 3.818624694561573e+000
 5.992040924462481e-001	 9.373423630892613e-001	 3.643717844298375e+000
 5.895852483666942e-001	 9.434222198732147e-001	 3.473718956224582e+000
 5.799160215812166e-001	 9.493964703705483e-001	 3.308256885140751e+000
 5.701981232979142e-001	 9.552645446279243e-001	 3.146959243239229e+000
 5.604332718226305e-001	 9.610259090510285e-001	 2.989453378822277e+000
 5.506231916101370e-001	 9.666800664605922e-001	 2.835367342866332e+000
 5.407696123176520e-001	 9.722265561192606e-001	 2.684330841054394e+000
 5.308742678617159e-001	 9.776649537295472e-001	 2.535976168967946e+000
 5.209388954794321e-001	 9.829948714031436e-001	 2.389939128215163e+000
 5.109652347950598e-001	 9.882159576018960e-001	 2.245859921368452e+000
 6.121909116152833e-001	 9.363887281874921e-001	 3.960869915811675e+000
 6.025704075694779e-001	 9.426083314180499e-001	 3.780710886426968e+000
 5.928975250402665e-001	 9.487223447009568e-001	 3.605788975320680e+000
 5.831739767562042e-001	 9.547301584034421e-001	 3.435712100509533e+000
 5.734014835389195e-001	 9.606311993701828e-001	 3.270086747849647e+000
 5.635817733476586e-001	 9.664249310091441e-001	 3.108518983640224e+000
 5.537165803251423e-001	 9.721108533479161e-001	 2.950615454923212e+000
 5.438076438457636e-001	 9.776885030607319e-001	 2.795984375027925e+000
 5.338567075671675e-001	 9.831574534664112e-001	 2.644236491984647e+000
 5.238655184862160e-001	 9.885173144974978e-001	 2.494986037519705e+000
 5.138358260003388e-001	 9.937677326409058e-001	 2.347851654435254e+000
 6.156109725699284e-001	 9.416199501282946e-001	 4.097754708836794e+000
 6.059367226917077e-001	 9.478742997458385e-001	 3.912288371572123e+000
 5.962098017128383e-001	 9.540224695276989e-001	 3.732386422919670e+000
 5.864319319301918e-001	 9.600638464353356e-001	 3.557635734950993e+000
 5.766048437789245e-001	 9.659978541114410e-001	 3.387621559783548e+000
 5.667302748716870e-001	 9.718239529662601e-001	 3.221928576285704e+000
 5.568099690391477e-001	 9.775416402342402e-001	 3.060141924320788e+000
 5.468456753728754e-001	 9.831504500012031e-001	 2.901848224009394e+000
 5.368391472716190e-001	 9.886499532022749e-001	 2.746636577563525e+000
 5.267921414919999e-001	 9.940397575908523e-001	 2.594099551340352e+000
 5.167064172046177e-001	 9.993195076789155e-001	 2.443834135851755e+000
 4.880005051168285e-001	 9.438017572538180e-001	 1.208740241052775e+000
 4.784401941983761e-001	 9.486839466175517e-001	 1.108323312320651e+000
 4.688466419830179e-001	 9.534616281218163e-001	 1.011707088836476e+000
 4.592215114653888e-001	 9.581345695737015e-001	 9.186454973196684e-001
 4.495664644235478e-001	 9.627025730078751e-001	 8.288961286758295e-001
 4.398831605665823e-001	 9.671654745006202e-001	 7.422208823878642e-001
 4.301732566925663e-001	 9.715231439593196e-001	 6.583865874476430e-001
 4.204384058576607e-001	 9.757754848879134e-001	 5.771655985902749e-001
 4.106802565571181e-001	 9.799224341288914e-001	 4.983363667126041e-001
 4.009004519189254e-001	 9.839639615823896e-001	 4.216839824411152e-001
 3.911006289107875e-001	 9.879000699030034e-001	 3.470006919265068e-001
 4.908710963301074e-001	 9.493535323008279e-001	 1.360299488593378e+000
 4.812545482886249e-001	 9.542644404251961e-001	 1.256830276520458e+000
 4.716045634130582e-001	 9.590702259379704e-001	 1.157001010551030e+000
 4.619228144803652e-001	 9.637706552804003e-001	 1.060561199320839e+000
 4.522109730437701e-001	 9.683655293226514e-001	 9.672642162735162e-001
 4.424707085753560e-001	 9.728546831767504e-001	 8.768679544599513e-001
 4.327036876190687e-001	 9.772379859848284e-001	 7.891354573123510e-001
 4.229115729549295e-001	 9.815153406832025e-001	 7.038355241450415e-001
 4.130960227752230e-001	 9.856866837428475e-001	 6.207432892406923e-001
 4.032586898733955e-001	 9.897519848868421e-001	 5.396407734756618e-001
 3.934012208463747e-001	 9.937112467853965e-001	 4.603174075495316e-001
 4.937416875423862e-001	 9.549053073468373e-001	 1.505500559102840e+000
 4.840689023778835e-001	 9.598449342318451e-001	 1.399146398160784e+000
 4.743624848421398e-001	 9.646788237531453e-001	 1.296271350174394e+000
 4.646241174944336e-001	 9.694067409861451e-001	 1.196620300709964e+000
 4.548554816631561e-001	 9.740284856365097e-001	 1.099942203631413e+000
 4.450582565833848e-001	 9.785438918520077e-001	 1.005990746563045e+000
 4.352341185449375e-001	 9.829528280095203e-001	 9.145249917532119e-001
 4.253847400516961e-001	 9.872551964777403e-001	 8.253099910771159e-001
 4.155117889929768e-001	 9.914509333561284e-001	 7.381173740173828e-001
 4.056169278276854e-001	 9.955400081907047e-001	 6.527259075639080e-001
 3.957018127819724e-001	 9.995224236672947e-001	 5.689220270851344e-001
 4.966122787536653e-001	 9.604570823918474e-001	 1.644393642528452e+000
 4.868832564661527e-001	 9.654254280375001e-001	 1.535321811979961e+000
 4.771204062702621e-001	 9.702874215673403e-001	 1.429568175422503e+000
 4.673254205075942e-001	 9.750428266909360e-001	 1.326872789704904e+000
 4.574999902817054e-001	 9.796914419494494e-001	 1.226979986353052e+000
 4.476458045906686e-001	 9.842331005263925e-001	 1.129639047948103e+000
 4.377645494701730e-001	 9.886676700333956e-001	 1.034604859330368e+000
 4.278579071479609e-001	 9.929950522715274e-001	 9.416385323389637e-001
 4.179275552103798e-001	 9.972151829687338e-001	 8.505080029160054e-001
 4.079751657817954e-001	 1.001328031493977e+000	 7.609885994978457e-001
 3.980024047175801e-001	 1.005333600548698e+000	 6.728635817348004e-001
 4.994828699639441e-001	 9.660088574358570e-001	 1.777026941586372e+000
 4.896976105534321e-001	 9.710059218421597e-001	 1.665404693767041e+000
 4.798783276974256e-001	 9.758960193805562e-001	 1.556939623536041e+000
 4.700267235198469e-001	 9.806789123947730e-001	 1.451366752702614e+000
 4.601444988994182e-001	 9.853543982614711e-001	 1.348425587038602e+000
 4.502333525972074e-001	 9.899223091999052e-001	 1.247860803831741e+000
 4.402949803947749e-001	 9.943825120564540e-001	 1.149422913674284e+000
 4.303310742437236e-001	 9.987349080645634e-001	 1.052868895181526e+000
 4.203433214274322e-001	 1.002979432580664e+000	 9.579628014449738e-001
 4.103334037357254e-001	 1.007116054796660e+000	 8.644763371355861e-001
 4.003029966531984e-001	 1.011144777429607e+000	 7.721894052773961e-001
 5.023534611732231e-001	 9.715606324788668e-001	 1.903446728540255e+000
 4.925119646397219e-001	 9.765864156458247e-001	 1.789441316332159e+000
 4.826362491236300e-001	 9.815046171927923e-001	 1.678431956437962e+000
 4.727280265311918e-001	 9.863149980976562e-001	 1.570148428616610e+000
 4.627890075162948e-001	 9.910173545725748e-001	 1.464325208800161e+000
 4.528209006030012e-001	 9.956115178725452e-001	 1.360702168082574e+000
 4.428254113187435e-001	 1.000097354078696e+000	 1.259025245341541e+000
 4.328042413389843e-001	 1.004474763856849e+000	 1.159047092173920e+000
 4.227590876441337e-001	 1.008743682191919e+000	 1.060527688929273e+000
 4.126916416894754e-001	 1.012904078098752e+000	 9.632349307416189e-001
 4.026035885888267e-001	 1.016955954310020e+000	 8.669451825678091e-001
 5.052240523815021e-001	 9.771124075208765e-001	 2.023697400042808e+000
 4.953263187250217e-001	 9.821669094484944e-001	 1.907476103567879e+000
 4.853941705488755e-001	 9.871132150040491e-001	 1.794089614009904e+000
 4.754293295416290e-001	 9.919510837995852e-001	 1.683262261362299e+000
 4.654335161323345e-001	 9.966803108827598e-001	 1.574723286950882e+000
 4.554084486080500e-001	 1.001300726544313e+000	 1.468207554112325e+000
 4.453558422420786e-001	 1.005812196100121e+000	 1.363456231902036e+000
 4.352774084337430e-001	 1.010214619648383e+000	 1.260217450485124e+000
 4.251748538604842e-001	 1.014507931802498e+000	 1.158246926981871e+000
 4.150498796430453e-001	 1.018692101400255e+000	 1.057308560646710e+000
 4.049041805244654e-001	 1.022767131189939e+000	 9.571749963805870e-001
 5.080946435887809e-001	 9.826641825618862e-001	 2.137821530120247e+000
 4.981406728093320e-001	 9.877474032501694e-001	 2.019551682679950e+000
 4.881520919731620e-001	 9.927218128143261e-001	 1.903955265560695e+000
 4.781306325511581e-001	 9.975871695005605e-001	 1.790750950563407e+000
 4.680780247475380e-001	 1.002343267192027e+000	 1.679662538943113e+000
 4.579959966123540e-001	 1.006989935215207e+000	 1.570419684041171e+000
 4.478862731647804e-001	 1.011527038120730e+000	 1.462758586328094e+000
 4.377505755279996e-001	 1.015954475439166e+000	 1.356422659493217e+000
 4.275906200764841e-001	 1.020272181412402e+000	 1.251163166331226e+000
 4.174081175964353e-001	 1.024480124701167e+000	 1.146739823290124e+000
 4.072047724601144e-001	 1.028578308069363e+000	 1.042921372666772e+000
 5.109652347950598e-001	 9.882159576018960e-001	 2.245859921368452e+000
 5.009550268926525e-001	 9.933278970508500e-001	 2.125708934653736e+000
 4.909100133964895e-001	 9.983304106236239e-001	 2.008069859563242e+000
 4.808319355597794e-001	 1.003223255200582e+000	 1.892655500548893e+000
 4.707225333619048e-001	 1.008006223500375e+000	 1.779184012623067e+000
 4.605835446159128e-001	 1.012679143885230e+000	 1.667379636205387e+000
 4.504167040868485e-001	 1.017241880140521e+000	 1.556973403753353e+000
 4.402237426217543e-001	 1.021694331229198e+000	 1.447703816791533e+000
 4.300063862921331e-001	 1.026036431021630e+000	 1.339317492071572e+000
 4.197663555496452e-001	 1.030268148001490e+000	 1.231569775711836e+000
 4.095053643957736e-001	 1.034389484948292e+000	 1.124225324285153e+000
 5.138358260003388e-001	 9.937677326409058e-001	 2.347851654435254e+000
 5.037693809749833e-001	 9.989083908505352e-001	 2.225987043033147e+000
 4.936679348188580e-001	 1.003939008431942e+000	 2.106472671722058e+000
 4.835332385674929e-001	 1.008859340899649e+000	 1.989015267707727e+000
 4.733670419754354e-001	 1.013669179807806e+000	 1.873327132867686e+000
 4.631710926187269e-001	 1.018368352554380e+000	 1.759126891073943e+000
 4.529471350082834e-001	 1.022956722159496e+000	 1.646140206663573e+000
 4.426969097150069e-001	 1.027434187018478e+000	 1.534100472651259e+000
 4.324221525074313e-001	 1.031800680630183e+000	 1.422749467395525e+000
 4.221245935026752e-001	 1.036056171301222e+000	 1.311837978552107e+000
 4.118059563314431e-001	 1.040200661826726e+000	 1.201126393266755e+000
 5.167064172046177e-001	 9.993195076789155e-001	 2.443834135851755e+000
 5.065837350563242e-001	 1.004488884649226e+000	 2.320423541071675e+000
 4.964258562402675e-001	 1.009547606239281e+000	 2.199201351438216e+000
 4.862345415742985e-001	 1.014495426597763e+000	 2.079868006263888e+000
 4.760115505881292e-001	 1.019332136114318e+000	 1.962129746667141e+000
 4.657586406207956e-001	 1.024057561222658e+000	 1.845699375633080e+000
 4.554775659290847e-001	 1.028671564177655e+000	 1.730296988581007e+000
 4.451700768077576e-001	 1.033174042807009e+000	 1.615650673002643e+000
 4.348379187223786e-001	 1.037564930238061e+000	 1.501497175868588e+000
 4.244828314555251e-001	 1.041844194600365e+000	 1.387582537618810e+000
 4.141065482671230e-001	 1.046011838704666e+000	 1.273662691671977e+000
 3.911006289107875e-001	 9.879000699030034e-001	 3.470006919265068e-001
 3.812824175612483e-001	 9.917307941744925e-001	 2.984835647234494e-001
 3.714474401952996e-001	 9.954562015643447e-001	 2.515197817080980e-001
 3.615973106851656e-001	 9.990763909580269e-001	 2.059526615810830e-001
 3.517336337171806e-001	 1.002591492572689e+000	 1.616335234478110e-001
 3.418580040749850e-001	 1.006001667552343e+000	 1.184220427868539e-001
 3.319720059396401e-001	 1.009307107544807e+000	 7.618657773589758e-002
 3.220772122071473e-001	 1.012508034261140e+000	 3.480446547749678e-002
 3.121751838238193e-001	 1.015604699018308e+000	-5.837711409089752e-003
 3.022674691399232e-001	 1.018597382265846e+000	-4.584388866200848e-002
 2.923556032819735e-001	 1.021486393097262e+000	-8.530831406588126e-002
 3.934012208463747e-001	 9.937112467853965e-001	 4.603174075495316e-001
 3.835252553112720e-001	 9.975645047287045e-001	 4.076440750839050e-001
 3.736324251363296e-001	 1.001311826279414e+000	 3.565096890903713e-001
 3.637243536871362e-001	 1.004953310904672e+000	 3.067498611493409e-001
 3.538026550893570e-001	 1.008489089587609e+000	 2.582083868298006e-001
 3.438689335077114e-001	 1.011919324420144e+000	 2.107376130661548e-001
 3.339247824419711e-001	 1.015244208177435e+000	 1.641987751951272e-001
 3.239717840404660e-001	 1.018463963874720e+000	 1.184623034226184e-001
 3.140115084315447e-001	 1.021578844307302e+000	 7.340809857809394e-002
 3.040455130734152e-001	 1.024589131574418e+000	 2.892577711926453e-002
 2.940753421227468e-001	 1.027495136587771e+000	-1.508511456314812e-002
 3.957018127819724e-001	 9.995224236672947e-001	 5.689220270851344e-001
 3.857680930614905e-001	 1.003398215282511e+000	 5.121613151833383e-001
 3.758174100777078e-001	 1.007167450994148e+000	 4.569212424019380e-001
 3.658513966895787e-001	 1.010830230851030e+000	 4.030296001300908e-001
 3.558716764620982e-001	 1.014386686602271e+000	 3.503225529179843e-001
 3.458798629410648e-001	 1.017836981287696e+000	 2.986450173620934e-001
 3.358775589449619e-001	 1.021181308809800e+000	 2.478510099807855e-001
 3.258663558744471e-001	 1.024419893488006e+000	 1.978039638338931e-001
 3.158478330399054e-001	 1.027552989595951e+000	 1.483770137457427e-001
 3.058235570074865e-001	 1.030580880882573e+000	 9.945325008208213e-002
 2.957950809640140e-001	 1.033503880077773e+000	 5.092594112765151e-002
 3.980024047175801e-001	 1.005333600548698e+000	 6.728635817348004e-001
 3.880109308119038e-001	 1.009231925835912e+000	 6.120856579467421e-001
 3.780023950194349e-001	 1.013023075708545e+000	 5.528061725482254e-001
 3.679784396924929e-001	 1.016707150797100e+000	 4.948449823169600e-001
 3.579406978354039e-001	 1.020284283616674e+000	 4.380305119731831e-001
 3.478907923750454e-001	 1.023754638154996e+000	 3.822001446697353e-001
 3.378303354486123e-001	 1.027118409441903e+000	 3.272005807927179e-001
 3.277609277090907e-001	 1.030375823100999e+000	 2.728881648143372e-001
 3.176841576489017e-001	 1.033527134884255e+000	 2.191291800465730e-001
 3.076016009421367e-001	 1.036572630190313e+000	 1.658001112441168e-001
 2.975148198057747e-001	 1.039512623567269e+000	 1.127878750988641e-001
 4.003029966531984e-001	 1.011144777429607e+000	 7.721894052773961e-001
 3.902537685625117e-001	 1.015065636388908e+000	 7.074657730015520e-001
 3.801873799615105e-001	 1.018878700422607e+000	 6.442145005380745e-001
 3.701054826958791e-001	 1.022584070742883e+000	 5.822473942966582e-001
 3.600097192092741e-001	 1.026181880630818e+000	 5.213850290321608e-001
 3.499017218096533e-001	 1.029672295022046e+000	 4.614571500434727e-001
 3.397831119529224e-001	 1.033055510073744e+000	 4.023030429871469e-001
 3.296554995443967e-001	 1.036331752713698e+000	 3.437718710397356e-001
 3.195204822585335e-001	 1.039501280172214e+000	 2.857229792504265e-001
 3.093796448773664e-001	 1.042564379497636e+000	 2.280261660240960e-001
 2.992345586480293e-001	 1.045521367056259e+000	 1.705619217755667e-001
 4.026035885888267e-001	 1.016955954310020e+000	 8.669451825678091e-001
 3.924966063133147e-001	 1.020899346941500e+000	 7.983486753414770e-001
 3.823723649039348e-001	 1.024734325136332e+000	 7.311945863386583e-001
 3.722325256997369e-001	 1.028460990688379e+000	 6.652865545111385e-001
 3.620787405837090e-001	 1.032079477644703e+000	 6.004371931993634e-001
 3.519126512448882e-001	 1.035589951888846e+000	 5.364685041407684e-001
 3.417358884578922e-001	 1.038992610705323e+000	 4.732122583874758e-001
 3.315500713803650e-001	 1.042287682326103e+000	 4.105103438570696e-001
 3.213568068688007e-001	 1.045475425459828e+000	 3.482150793507104e-001
 3.111576888131751e-001	 1.048556128804544e+000	 2.861894949732800e-001
 3.009542974907776e-001	 1.051530110544742e+000	 2.243075789920551e-001
 4.049041805244654e-001	 1.022767131189939e+000	 9.571749963805870e-001
 3.947394440643126e-001	 1.026733057493686e+000	 8.847797723346746e-001
 3.845573498467075e-001	 1.030589949849721e+000	 8.137931760641390e-001
 3.743595687040667e-001	 1.034337910633587e+000	 7.440105606491068e-001
 3.641477619587085e-001	 1.037977074658330e+000	 6.752364652583652e-001
 3.539235806807503e-001	 1.041507608755395e+000	 6.072850410723679e-001
 3.436886649635217e-001	 1.044929711336640e+000	 5.399804433948697e-001
 3.334446432169958e-001	 1.048243611938215e+000	 4.731571896730036e-001
 3.231931314797035e-001	 1.051449570747097e+000	 4.066604832501034e-001
 3.129357327495632e-001	 1.054547878111036e+000	 3.403465027777179e-001
 3.026740363340196e-001	 1.057538854032720e+000	 2.740826573270149e-001
 4.072047724601144e-001	 1.028578308069363e+000	 1.042921372666772e+000
 3.969822818155052e-001	 1.032566768045466e+000	 9.668029091361998e-001
 3.867423347898290e-001	 1.036445574562775e+000	 8.920554475646327e-001
 3.764866117088681e-001	 1.040214830578509e+000	 8.184659354287868e-001
 3.662167833342725e-001	 1.043874671671698e+000	 7.458307236697653e-001
 3.559345101172395e-001	 1.047425265621694e+000	 6.739560046333983e-001
 3.456414414698108e-001	 1.050866811967694e+000	 6.026582154700767e-001
 3.353392150542890e-001	 1.054199541550033e+000	 5.317644067057716e-001
 3.250294560912418e-001	 1.057423716034020e+000	 4.611125757976777e-001
 3.147137766865302e-001	 1.060539627417111e+000	 3.905519655984220e-001
 3.043937751777553e-001	 1.063547597520190e+000	 3.199433277658416e-001
 4.095053643957736e-001	 1.034389484948292e+000	 1.124225324285153e+000
 3.992251195668926e-001	 1.038400478596842e+000	 1.044460412569835e+000
 3.889273197332990e-001	 1.042301199275493e+000	 9.660250544781970e-001
 3.786136547141413e-001	 1.046091750523143e+000	 8.886976708401020e-001
 3.682858047104012e-001	 1.049772268684807e+000	 8.122663090192420e-001
 3.579454395543559e-001	 1.053342922487742e+000	 7.365290929748428e-001
 3.475942179767596e-001	 1.056803912598486e+000	 6.612946380468211e-001
 3.372337868922444e-001	 1.060155471161556e+000	 5.863824301568866e-001
 3.268657807034155e-001	 1.063397861320599e+000	 5.116231692394806e-001
 3.164918206240766e-001	 1.066531376722771e+000	 4.368590768174044e-001
 3.061135140219848e-001	 1.069556341007155e+000	 3.619441677564270e-001
 4.118059563314431e-001	 1.040200661826726e+000	 1.201126393266755e+000
 4.014679573184747e-001	 1.044234189147812e+000	 1.117793133540996e+000
 3.911123046771178e-001	 1.048156823987874e+000	 1.035744168807304e+000
 3.807406977198865e-001	 1.051968670467490e+000	 9.547492709015168e-001
 3.703548260870943e-001	 1.055669865697656e+000	 8.745880669732992e-001
 3.599563689920994e-001	 1.059260579353540e+000	 7.950505017782412e-001
 3.495469944843682e-001	 1.062741013229016e+000	 7.159372639413680e-001
 3.391283587308624e-001	 1.066111400772787e+000	 6.370601758725489e-001
 3.287021053162248e-001	 1.069372006606833e+000	 5.582425471462390e-001
 3.182698645622022e-001	 1.072523126028015e+000	 4.793194912481948e-001
 3.078332528667079e-001	 1.075565084493613e+000	 4.001382057217442e-001
 4.141065482671230e-001	 1.046011838704666e+000	 1.273662691671977e+000
 4.037107950702518e-001	 1.050067899698377e+000	 1.186840488033338e+000
 3.932972896212849e-001	 1.054012448699919e+000	 1.101253522074718e+000
 3.828677407261033e-001	 1.057845590411549e+000	 1.016662792992585e+000
 3.724238474643520e-001	 1.061567462710248e+000	 9.328393898066292e-001
 3.619672984304700e-001	 1.065178236219087e+000	 8.495649659910098e-001
 3.514997709926364e-001	 1.068678113859285e+000	 7.666321773120840e-001
 3.410229305701427e-001	 1.072067330383723e+000	 6.838450825464698e-001
 3.305384299296695e-001	 1.075346151892721e+000	 6.010195068768370e-001
 3.200479085009068e-001	 1.078514875332842e+000	 5.179833678745023e-001
 3.095529917119247e-001	 1.081573827979565e+000	 4.345769640883412e-001
 2.923556032819735e-001	 1.021486393097262e+000	-8.530831406588126e-002
 2.824411075437256e-001	 1.024272068747575e+000	-1.125061848516676e-001
 2.725254887970363e-001	 1.026954774075927e+000	-1.378074914341482e-001
 2.626102389224189e-001	 1.029534901035252e+000	-1.613060550111516e-001
 2.526968342588440e-001	 1.032012868131015e+000	-1.830868246759199e-001
 2.427867350738821e-001	 1.034389119867983e+000	-2.032257604204713e-001
 2.328813850541052e-001	 1.036664126186398e+000	-2.217897435242992e-001
 2.229822108158968e-001	 1.038838381888356e+000	-2.388365138324477e-001
 2.130906214367951e-001	 1.040912406055143e+000	-2.544146333521771e-001
 2.032080080074605e-001	 1.042886741456322e+000	-2.685634755492186e-001
 1.933357432043266e-001	 1.044761953951317e+000	-2.813132396568150e-001
 2.940753421227468e-001	 1.027495136587771e+000	-1.508511456314812e-002
 2.841025258219889e-001	 1.030297198565975e+000	-4.701250071968879e-002
 2.741285799068577e-001	 1.032995684514263e+000	-7.682623840357337e-002
 2.641550050336346e-001	 1.035590988691176e+000	-1.046245413795604e-001
 2.541832862256367e-001	 1.038083532063977e+000	-1.304967758137213e-001
 2.442148923402438e-001	 1.040473761752168e+000	-1.545233343321105e-001
 2.342512755563017e-001	 1.042762150460347e+000	-1.767755378658628e-001
 2.242938708820548e-001	 1.044949195901212e+000	-1.973155647875483e-001
 2.143440956837326e-001	 1.047035420209470e+000	-2.161964067745735e-001
 2.044033492348819e-001	 1.049021369347448e+000	-2.334618507779517e-001
 1.944730122865030e-001	 1.050907612503156e+000	-2.491464864138631e-001
 2.957950809640140e-001	 1.033503880077773e+000	 5.092594112765151e-002
 2.857639441006457e-001	 1.036322328383784e+000	 1.437008783359569e-002
 2.757316710169728e-001	 1.039036594951954e+000	-1.986346643253346e-002
 2.656997711450438e-001	 1.041647076346433e+000	-5.187738487648453e-002
 2.556697381925228e-001	 1.044154195996280e+000	-8.176549935562366e-002
 2.456430496065987e-001	 1.046558403635732e+000	-1.096126755396245e-001
 2.356211660583911e-001	 1.048860174733743e+000	-1.354947062678008e-001
 2.256055309480056e-001	 1.051060009913613e+000	-1.594782326112078e-001
 2.155975699303629e-001	 1.053158434363470e+000	-1.816206920795535e-001
 2.055986904618958e-001	 1.055155997238402e+000	-2.019702933553572e-001
 1.956102813681722e-001	 1.057053271055009e+000	-2.205660168643307e-001
 2.975148198057747e-001	 1.039512623567269e+000	 1.127878750988641e-001
 2.874253623796965e-001	 1.042347458201002e+000	 7.170473576704811e-002
 2.773347621273816e-001	 1.045077505389002e+000	 3.314417934389288e-002
 2.672445372566465e-001	 1.047703164001023e+000	-3.000964771917100e-003
 2.571561901595022e-001	 1.050224859927924e+000	-3.682904384151600e-002
 2.470712068729466e-001	 1.052643045518674e+000	-6.842943809127652e-002
 2.369910565603735e-001	 1.054958199006586e+000	-9.788244563607590e-002
 2.269171910137492e-001	 1.057170823925559e+000	-1.252591955330162e-001
 2.168510441766859e-001	 1.059281448517142e+000	-1.506215884127130e-001
 2.067940316885026e-001	 1.061290625129187e+000	-1.740222640616200e-001
 1.967475504493340e-001	 1.063198929606877e+000	-1.955045952753189e-001
 2.992345586480293e-001	 1.045521367056259e+000	 1.705619217755667e-001
 2.890867806591407e-001	 1.048372588017630e+000	 1.250528278465428e-001
 2.789378532380838e-001	 1.051118415825406e+000	 8.225829898589258e-002
 2.687893033684426e-001	 1.053759251654946e+000	 4.206659816799706e-002
 2.586426421265749e-001	 1.056295523858908e+000	 4.374811932264543e-003
 2.484993641392879e-001	 1.058727687400997e+000	-3.091099710787795e-002
 2.383609470622490e-001	 1.061056223278877e+000	-6.387566680775084e-002
 2.282288510792858e-001	 1.063281637937050e+000	-9.459484060424465e-002
 2.181045184227017e-001	 1.065404462670486e+000	-1.231349006442788e-001
 2.079893729147019e-001	 1.067425253019799e+000	-1.495529283055834e-001
 1.978848195299885e-001	 1.069344588158759e+000	-1.738966914284075e-001
 3.009542974907776e-001	 1.051530110544742e+000	 2.243075789920551e-001
 2.907481989389788e-001	 1.054397717833667e+000	 1.744740292235908e-001
 2.805409443490798e-001	 1.057159326261165e+000	 1.275387878856467e-001
 2.703340694804324e-001	 1.059815339308203e+000	 8.338549143634286e-002
 2.601290940937411e-001	 1.062366187789234e+000	 4.190660834798057e-002
 2.499275214056223e-001	 1.064812329282697e+000	 3.003600390734077e-003
 2.397308375640175e-001	 1.067154247550614e+000	-3.341294558292646e-002
 2.295405111446152e-001	 1.069392451948087e+000	-6.742321487354838e-002
 2.193579926684102e-001	 1.071527476823503e+000	-9.909809063511905e-002
 2.091847141404939e-001	 1.073559880910241e+000	-1.284991074215333e-001
 1.990220886101357e-001	 1.075490246710656e+000	-1.556784318912101e-001
 3.026740363340196e-001	 1.057538854032720e+000	 2.740826573270149e-001
 2.924096172192105e-001	 1.060422847649114e+000	 2.200263342869799e-001
 2.821440354603693e-001	 1.063200236696280e+000	 1.690438851954834e-001
 2.718788355926156e-001	 1.065871426960792e+000	 1.210142588475210e-001
 2.616155460610005e-001	 1.068436851718901e+000	 7.582525271856257e-002
 2.513556786719500e-001	 1.070896971163778e+000	 3.337368298302834e-002
 2.411007280656790e-001	 1.073252271821799e+000	-6.434475424075084e-003
 2.308521712097375e-001	 1.075503265958668e+000	-4.368397822846770e-002
 2.206114669138115e-001	 1.077650490976193e+000	-7.845023016338835e-002
 2.103800553658786e-001	 1.079694508800513e+000	-1.107992316255201e-001
 2.001593576897755e-001	 1.081635905262568e+000	-1.407875529493769e-001
 3.043937751777553e-001	 1.063547597520190e+000	 3.199433277658416e-001
 2.940710354998360e-001	 1.066447977463969e+000	 2.617661138595877e-001
 2.837471265719526e-001	 1.069241147130752e+000	 2.068302206142741e-001
 2.734236017049923e-001	 1.071927514612715e+000	 1.550098469686939e-001
 2.631019980283533e-001	 1.074507515647908e+000	 1.061880654183118e-001
 2.527838359382706e-001	 1.076981613044237e+000	 6.025700073281708e-002
 2.424706185672335e-001	 1.079350296092431e+000	 1.711797824103814e-002
 2.321638312746527e-001	 1.081614079968794e+000	-2.331835783448761e-002
 2.218649411589055e-001	 1.083773505128554e+000	-6.113195544587953e-002
 2.115753965908560e-001	 1.085829136690613e+000	-9.639329456702429e-002
 2.012966267689080e-001	 1.087781563814494e+000	-1.291633551349148e-001
 3.061135140219848e-001	 1.069556341007155e+000	 3.619441677564270e-001
 2.957324537808551e-001	 1.072473107278234e+000	 2.997481608046531e-001
 2.853502176838294e-001	 1.075282057564579e+000	 2.409528595970757e-001
 2.749683678175624e-001	 1.077983602263972e+000	 1.854276499853970e-001
 2.645884499957995e-001	 1.080578179576257e+000	 1.330508244607719e-001
 2.542119932045847e-001	 1.083066254924076e+000	 8.370976952879967e-002
 2.438405090686810e-001	 1.085448320362511e+000	 3.730112217467302e-002
 2.334754913393606e-001	 1.087724893978466e+000	-6.269104111541695e-003
 2.231184154036923e-001	 1.089896519280589e+000	-4.708542319313395e-002
 2.127707378154261e-001	 1.091963764580542e+000	-8.522280941160103e-002
 2.024338958475332e-001	 1.093927222366435e+000	-1.207466592852758e-001
 3.078332528667079e-001	 1.075565084493613e+000	 4.001382057217442e-001
 2.973938720622679e-001	 1.078498237091908e+000	 3.340257341021654e-001
 2.869533087959998e-001	 1.081322967997762e+000	 2.714653470485162e-001
 2.765131339303261e-001	 1.084039689914561e+000	 2.123215530658535e-001
 2.660749019633389e-001	 1.086648843503947e+000	 1.564678085803453e-001
 2.556401504708917e-001	 1.089150896803293e+000	 1.037867139396405e-001
 2.452103995700216e-001	 1.091546344632037e+000	 5.417017800597871e-002
 2.347871514038615e-001	 1.093835707987683e+000	 7.519551816794309e-003
 2.243718896481718e-001	 1.096019533432296e+000	-3.625426813828581e-002
 2.139660790395888e-001	 1.098098392470301e+000	-7.723076639802910e-002
 2.035711649256510e-001	 1.100072880918391e+000	-1.154797640785490e-001
 3.095529917119247e-001	 1.081573827979565e+000	 4.345769640883412e-001
 2.990552903440744e-001	 1.084523366904992e+000	 3.646506014569608e-001
 2.885563999084638e-001	 1.087363878430300e+000	 2.984197495604613e-001
 2.780579000432833e-001	 1.090095777564483e+000	 2.357439742758258e-001
 2.675613539309718e-001	 1.092719507430977e+000	 1.764918388800625e-001
 2.570683077371921e-001	 1.095235538681890e+000	 1.205411086390573e-001
 2.465802900712552e-001	 1.097644368901011e+000	 6.777892348525975e-002
 2.360988114681552e-001	 1.099946521996445e+000	 1.810193925189680e-002
 2.256253638923441e-001	 1.102142547583675e+000	-2.858356198046037e-002
 2.151614202633442e-001	 1.104233020359888e+000	-7.236159180581372e-002
 2.047084340032615e-001	 1.106218539470361e+000	-1.133064049811840e-001
 1.933357432043266e-001	 1.044761953951317e+000	-2.813132396568150e-001
 1.834751808831861e-001	 1.046538631883905e+000	-2.961189445852603e-001
 1.736276556931020e-001	 1.048217385471454e+000	-3.094015863645892e-001
 1.637944827109525e-001	 1.049798846188935e+000	-3.211868467687683e-001
 1.539769570970508e-001	 1.051283666147685e+000	-3.314914517489297e-001
 1.441763537711304e-001	 1.052672517470751e+000	-3.403232761960430e-001
 1.343939271087860e-001	 1.053966091665163e+000	-3.476814692615638e-001
 1.246309106582417e-001	 1.055165098991823e+000	-3.535565992879596e-001
 1.148885168772901e-001	 1.056270267833706e+000	-3.579308173789753e-001
 1.051679368902289e-001	 1.057282344063018e+000	-3.607780386128355e-001
 9.547034026459057e-002	 1.058202090407995e+000	-3.620641398905489e-001
 1.944730122865030e-001	 1.050907612503156e+000	-2.491464864138631e-001
 1.845544466581709e-001	 1.052694741481390e+000	-2.670920734550271e-001
 1.746489948497501e-001	 1.054383370089207e+000	-2.832592399950091e-001
 1.647579796738662e-001	 1.055974133516133e+000	-2.976739443294013e-001
 1.548827039094243e-001	 1.057467687709452e+000	-3.103532884383213e-001
 1.450244499756868e-001	 1.058864708745877e+000	-3.213056186185417e-001
 1.351844796269299e-001	 1.060165892200122e+000	-3.305306468643455e-001
 1.253640336675448e-001	 1.061371952511095e+000	-3.380195920501909e-001
 1.155643316874306e-001	 1.062483622346374e+000	-3.437553399431851e-001
 1.057865718174997e-001	 1.063501651965648e+000	-3.477126210418784e-001
 9.603193050509512e-002	 1.064426808583786e+000	-3.498582052315221e-001
 1.956102813681722e-001	 1.057053271055009e+000	-2.205660168643307e-001
 1.856337124325587e-001	 1.058850851079074e+000	-2.415291068377052e-001
 1.756703340057323e-001	 1.060549354707311e+000	-2.604683020685436e-001
 1.657214766360660e-001	 1.062149420843805e+000	-2.774098473097238e-001
 1.557884507210559e-001	 1.063651709271786e+000	-2.923712220095452e-001
 1.458725461794937e-001	 1.065056900021631e+000	-3.053612369488479e-001
 1.359750321443365e-001	 1.066365692735741e+000	-3.163801518330180e-001
 1.260971566761429e-001	 1.067578806031029e+000	-3.254198128882799e-001
 1.162401464969177e-001	 1.068696976859676e+000	-3.324638094785287e-001
 1.064052067441883e-001	 1.069720959868854e+000	-3.374876487479041e-001
 9.659352074510795e-002	 1.070651526760068e+000	-3.404589472602592e-001
 1.967475504493340e-001	 1.063198929606877e+000	-1.955045952753189e-001
 1.867129782063497e-001	 1.065006960676958e+000	-2.193639152845726e-001
 1.766916731610489e-001	 1.066715339325768e+000	-2.409636719637038e-001
 1.666849735975518e-001	 1.068324708171951e+000	-2.603304070376170e-001
 1.566941975319457e-001	 1.069835730834687e+000	-2.774819794564884e-001
 1.467206423825510e-001	 1.071249091298013e+000	-2.924276581794589e-001
 1.367655846610059e-001	 1.072565493272020e+000	-3.051682361267539e-001
 1.268302796840359e-001	 1.073785659551625e+000	-3.156961643444269e-001
 1.169159613057516e-001	 1.074910331373612e+000	-3.239957053966424e-001
 1.070238416702949e-001	 1.075940267772638e+000	-3.300431049790162e-001
 9.715511098462906e-002	 1.076876244936841e+000	-3.338067807290452e-001
 1.978848195299885e-001	 1.069344588158759e+000	-1.738966914284075e-001
 1.877922439795439e-001	 1.071163070275040e+000	-2.005320349580988e-001
 1.777130123156997e-001	 1.072881323944578e+000	-2.246818772102479e-001
 1.676484705583236e-001	 1.074499995500573e+000	-2.463730679668563e-001
 1.575999443420937e-001	 1.076019752398154e+000	-2.656238483024752e-001
 1.475687385848588e-001	 1.077441282575023e+000	-2.824439396550819e-001
 1.375561371769380e-001	 1.078765293808959e+000	-2.968346542865724e-001
 1.275634026912238e-001	 1.079992513072882e+000	-3.087890261724276e-001
 1.175917761139321e-001	 1.081123685888183e+000	-3.182919613325910e-001
 1.076424765958192e-001	 1.082159575676999e+000	-3.253204065919678e-001
 9.771670122365847e-002	 1.083100963114107e+000	-3.298435357380556e-001
 1.990220886101357e-001	 1.075490246710656e+000	-1.556784318912101e-001
 1.888715097521410e-001	 1.077319179873321e+000	-1.849706200435711e-001
 1.787343514696849e-001	 1.079047308563739e+000	-2.115610269703757e-001
 1.686119675183815e-001	 1.080675282829669e+000	-2.354768221588300e-001
 1.585056911514998e-001	 1.082203773962188e+000	-2.567366320130630e-001
 1.484168347864170e-001	 1.083633473852662e+000	-2.753506253480078e-001
 1.383466896921329e-001	 1.084965094346558e+000	-2.913206205067614e-001
 1.282965256977066e-001	 1.086199366594801e+000	-3.046402131314549e-001
 1.182675909214593e-001	 1.087337040403388e+000	-3.152949235976660e-001
 1.082611115207615e-001	 1.088378883581938e+000	-3.232623630921248e-001
 9.827829146219616e-002	 1.089325681291864e+000	-3.285124172969465e-001
 2.001593576897755e-001	 1.081635905262568e+000	-1.407875529493769e-001
 1.899507755241414e-001	 1.083475289471801e+000	-1.726183967826883e-001
 1.797556906230043e-001	 1.085213293183253e+000	-2.015407671054426e-001
 1.695754644777254e-001	 1.086850570159240e+000	-2.275821653178302e-001
 1.594114379601640e-001	 1.088387795526788e+000	-2.507616069303508e-001
 1.492649309872257e-001	 1.089825665130928e+000	-2.710897036235207e-001
 1.391372422065906e-001	 1.091164894884816e+000	-2.885687671653641e-001
 1.290296487034843e-001	 1.092406220117382e+000	-3.031929342189001e-001
 1.189434057283332e-001	 1.093550394919226e+000	-3.149483110452400e-001
 1.088797464451217e-001	 1.094598191487453e+000	-3.238131370683043e-001
 9.883988170024215e-002	 1.095550399470112e+000	-3.297579662649615e-001
 2.012966267689080e-001	 1.087781563814494e+000	-1.291633551349148e-001
 1.910300412955448e-001	 1.089631399070481e+000	-1.634156190644293e-001
 1.807770297756580e-001	 1.091379277803119e+000	-1.945622367672679e-001
 1.705389614363553e-001	 1.093025857489286e+000	-2.226310543132950e-001
 1.603171847680863e-001	 1.094571817091955e+000	-2.476414806660787e-001
 1.501130271872848e-001	 1.096017856409823e+000	-2.696045664393543e-001
 1.399277947203111e-001	 1.097364695423735e+000	-2.885231047630353e-001
 1.297627717085569e-001	 1.098613073640624e+000	-3.043917532848076e-001
 1.196192205345537e-001	 1.099763749435698e+000	-3.171971762986889e-001
 1.094983813688997e-001	 1.100817499393547e+000	-3.269182059712709e-001
 9.940147193779646e-002	 1.101775117648853e+000	-3.335260216150692e-001
 2.024338958475332e-001	 1.093927222366435e+000	-1.207466592852758e-001
 1.921093070663513e-001	 1.095787508669359e+000	-1.573040255147752e-001
 1.817983689276460e-001	 1.097545262423337e+000	-1.905680264506884e-001
 1.715024583942712e-001	 1.099201144819806e+000	-2.205668661376334e-001
 1.612229315752669e-001	 1.100755838657688e+000	-2.473203518967351e-001
 1.509611233865944e-001	 1.102210047689347e+000	-2.708399699167076e-001
 1.407183472332944e-001	 1.103564495963313e+000	-2.911289832130581e-001
 1.304958947129244e-001	 1.104819927164528e+000	-3.081825509748674e-001
 1.202950353401210e-001	 1.105977103952806e+000	-3.219878682856222e-001
 1.101170162920956e-001	 1.107036807300217e+000	-3.325243251789219e-001
 9.996306217485904e-002	 1.107999835828085e+000	-3.397636839698857e-001
 2.035711649256510e-001	 1.100072880918391e+000	-1.154797640785490e-001
 1.931885728365610e-001	 1.101943618268436e+000	-1.542267980225939e-001
 1.828197080789683e-001	 1.103711247043908e+000	-1.895021374536636e-001
 1.724659553514732e-001	 1.105376432150802e+000	-2.213343582365078e-001
 1.621286783817055e-001	 1.106939860223989e+000	-2.497436715081700e-001
 1.518092195851545e-001	 1.108402238969498e+000	-2.747419962381834e-001
 1.415088997455404e-001	 1.109764296503551e+000	-2.963330544257323e-001
 1.312290177165869e-001	 1.111026780689094e+000	-3.145124879477250e-001
 1.209708501450349e-001	 1.112190458470547e+000	-3.292679960294023e-001
 1.107356512147093e-001	 1.113256115207465e+000	-3.405794923003765e-001
 1.005246524114299e-001	 1.114224554007809e+000	-3.484192803600921e-001
 2.047084340032615e-001	 1.106218539470361e+000	-1.133064049811840e-001
 1.942678386061738e-001	 1.108099727867713e+000	-1.541285216495606e-001
 1.838410472296248e-001	 1.109877231664831e+000	-1.913099426888916e-001
 1.734294523079612e-001	 1.111551719482271e+000	-2.248796301646022e-001
 1.630344251874023e-001	 1.113123881790856e+000	-2.548582050337564e-001
 1.526573157829650e-001	 1.114594430250278e+000	-2.812580168093482e-001
 1.422994522570491e-001	 1.115964097044449e+000	-3.040832361431427e-001
 1.319621407195443e-001	 1.117233634214321e+000	-3.233299693195104e-001
 1.216466649492954e-001	 1.118403812988921e+000	-3.389863936449288e-001
 1.113542861367409e-001	 1.119475423115290e+000	-3.510329126680967e-001
 1.010862426475091e-001	 1.120449272188024e+000	-3.594423301584900e-001
 9.547034026459057e-002	 1.058202090407995e+000	-3.620641398905489e-001
 8.579687480762657e-002	 1.059030285820142e+000	-3.707677336842694e-001
 7.614866638176999e-002	 1.059767724841966e+000	-3.784295238324537e-001
 6.652681873917778e-002	 1.060415216976200e+000	-3.849940955370226e-001
 5.693241337542406e-002	 1.060973586057479e+000	-3.903983219861215e-001
 4.736650940151671e-002	 1.061443669626452e+000	-3.945716428673713e-001
 3.783014343410719e-002	 1.061826318307081e+000	-3.974363536746504e-001
 2.832432950356462e-002	 1.062122395187651e+000	-3.989079047420897e-001
 1.885005897957436e-002	 1.062332775206001e+000	-3.988952089609198e-001
 9.408300513908539e-003	 1.062458344539465e+000	-3.973009571392469e-001
 0.000000000000000e+000	 1.062500000000000e+000	-3.940219399884373e-001
 9.603193050509512e-002	 1.064426808583786e+000	-3.498582052315221e-001
 8.630156230939119e-002	 1.065259875734244e+000	-3.594557622440366e-001
 7.659659971565533e-002	 1.066001652633195e+000	-3.678464155490670e-001
 6.691815296870342e-002	 1.066652953545155e+000	-3.749762157683172e-001
 5.726730992584740e-002	 1.067214607150841e+000	-3.807834876351947e-001
 4.764513592815908e-002	 1.067687455917615e+000	-3.851991076884200e-001
 3.805267369003408e-002	 1.068072355473110e+000	-3.881467929564862e-001
 2.849094320672520e-002	 1.068370173982602e+000	-3.895433995620288e-001
 1.896094167950331e-002	 1.068581791530622e+000	-3.892992301844429e-001
 9.463643458091255e-003	 1.068708099507314e+000	-3.873183493354406e-001
 0.000000000000000e+000	 1.068750000000000e+000	-3.834989054164738e-001
 9.659352074510795e-002	 1.070651526760068e+000	-3.404589472602592e-001
 8.680624981075888e-002	 1.071489465648744e+000	-3.509554577124772e-001
 7.704453304922812e-002	 1.072235580424738e+000	-3.600885092747927e-001
 6.730948719799057e-002	 1.072890690114347e+000	-3.678055501794008e-001
 5.760220647609612e-002	 1.073455628244378e+000	-3.740462827416942e-001
 4.792376245468061e-002	 1.073931242208900e+000	-3.787429404314581e-001
 3.827520394588392e-002	 1.074318392639217e+000	-3.818205761361621e-001
 2.865755690984258e-002	 1.074617952777596e+000	-3.831973605397940e-001
 1.907182437941313e-002	 1.074830807855263e+000	-3.827848895379222e-001
 9.518986402269204e-003	 1.074957854475168e+000	-3.804884996382908e-001
 0.000000000000000e+000	 1.075000000000000e+000	-3.762075903023441e-001
 9.715511098462906e-002	 1.076876244936841e+000	-3.338067807290452e-001
 8.731093731172961e-002	 1.077719055563640e+000	-3.452070904591763e-001
 7.749246638248832e-002	 1.078469508216593e+000	-3.550958787209311e-001
 6.770082142703918e-002	 1.079128426683778e+000	-3.634219242878158e-001
 5.793710302617020e-002	 1.079696649338089e+000	-3.701262338343183e-001
 4.820238898108128e-002	 1.080175028500304e+000	-3.751423185835082e-001
 3.849773420165667e-002	 1.080564429805401e+000	-3.783964823504804e-001
 2.882417061291678e-002	 1.080865731572633e+000	-3.798081198959074e-001
 1.918270707930382e-002	 1.081079824179922e+000	-3.792900245030223e-001
 9.574329346442388e-003	 1.081207609443027e+000	-3.767487037112081e-001
 0.000000000000000e+000	 1.081250000000000e+000	-3.720847021527416e-001
 9.771670122365847e-002	 1.083100963114107e+000	-3.298435357380556e-001
 8.781562481230336e-002	 1.083948645478933e+000	-3.421523418729596e-001
 7.794039971543587e-002	 1.084703436008760e+000	-3.528100061852035e-001
 6.809215565584928e-002	 1.085366163253448e+000	-3.617665716393357e-001
 5.827199957606964e-002	 1.085937670431974e+000	-3.689642767705850e-001
 4.848101550736110e-002	 1.086418814791830e+000	-3.743378321005810e-001
 3.872026445735234e-002	 1.086810466971661e+000	-3.778147081612280e-001
 2.899078431594776e-002	 1.087113510367714e+000	-3.793154340286882e-001
 1.929358977917538e-002	 1.087328840504601e+000	-3.787539052675495e-001
 9.629672290610805e-003	 1.087457364410891e+000	-3.760377002054089e-001
 0.000000000000000e+000	 1.087500000000000e+000	-3.710684034744118e-001
 9.827829146219616e-002	 1.089325681291864e+000	-3.285124172969465e-001
 8.832031231248018e-002	 1.090178235394623e+000	-3.417342640479651e-001
 7.838833304807087e-002	 1.090937363801241e+000	-3.531737423049612e-001
 6.848348988442089e-002	 1.091603899823356e+000	-3.627820935798009e-001
 5.860689612579446e-002	 1.092178691526034e+000	-3.705027164715000e-001
 4.875964203352007e-002	 1.092662601083477e+000	-3.762714430490224e-001
 3.894279471297095e-002	 1.093056504137999e+000	-3.800168270554141e-001
 2.915739801893555e-002	 1.093361289162838e+000	-3.816604428230429e-001
 1.940447247902780e-002	 1.093577856829299e+000	-3.811171937914796e-001
 9.685015234774457e-003	 1.093707119378759e+000	-3.782956295309379e-001
 0.000000000000000e+000	 1.093750000000000e+000	-3.730982702021571e-001
 9.883988170024215e-002	 1.095550399470112e+000	-3.297579662649615e-001
 8.882499981226003e-002	 1.096407825310710e+000	-3.438972408421577e-001
 7.883626638039330e-002	 1.097171291594033e+000	-3.561312671857078e-001
 6.887482411275396e-002	 1.097841636393502e+000	-3.664124203957220e-001
 5.894179267534465e-002	 1.098419712620270e+000	-3.746851880262838e-001
 4.903826855955819e-002	 1.098906387375244e+000	-3.808864466271741e-001
 3.916532496851249e-002	 1.099302541304414e+000	-3.849457503300310e-001
 2.932401172188014e-002	 1.099609067958004e+000	-3.867856303471405e-001
 1.951535517886110e-002	 1.099826873154016e+000	-3.863219042661340e-001
 9.740358178933343e-003	 1.099956874346632e+000	-3.834639940352747e-001
 0.000000000000000e+000	 1.100000000000000e+000	-3.781152515451902e-001
 9.940147193779646e-002	 1.101775117648853e+000	-3.335260216150692e-001
 8.932968731164293e-002	 1.102637415227194e+000	-3.485869502574414e-001
 7.928419971240314e-002	 1.103405219387139e+000	-3.616280528444839e-001
 6.926615834084854e-002	 1.104079372963887e+000	-3.726027737753861e-001
 5.927668922472019e-002	 1.104660733714679e+000	-3.814566191178890e-001
 4.931689508547545e-002	 1.105150173667133e+000	-3.881274335052303e-001
 3.938785522397694e-002	 1.105548578470906e+000	-3.925456892999757e-001
 2.949062542478152e-002	 1.105856846753214e+000	-3.946347868800682e-001
 1.962623787867526e-002	 1.106075889478752e+000	-3.943113649175226e-001
 9.795701123087466e-003	 1.106206629314510e+000	-3.914856195292495e-001
 0.000000000000000e+000	 1.106250000000000e+000	-3.860616311940665e-001
 9.996306217485904e-002	 1.107999835828085e+000	-3.397636839698857e-001
 8.983437481062888e-002	 1.108867005144075e+000	-3.557503280878538e-001
 7.973213304410035e-002	 1.109639147180556e+000	-3.696108269202005e-001
 6.965749256870460e-002	 1.110317109534511e+000	-3.812996305315023e-001
 5.961158577392112e-002	 1.110901754809263e+000	-3.907631937139017e-001
 4.959552161127187e-002	 1.111393959959142e+000	-3.979402534356474e-001
 3.961038547936433e-002	 1.111794615637474e+000	-4.027621187800642e-001
 2.965723912763971e-002	 1.112104625548468e+000	-4.051529722221695e-001
 1.973712057847029e-002	 1.112324905803507e+000	-4.050301810946385e-001
 9.851044067236822e-003	 1.112456384282393e+000	-4.023046181123877e-001
 0.000000000000000e+000	 1.112500000000000e+000	-3.968809898346734e-001
 1.005246524114299e-001	 1.114224554007809e+000	-3.484192803600921e-001
 9.033906230921789e-002	 1.115096595061353e+000	-3.653355327840357e-001
 8.018006637548501e-002	 1.115873074974287e+000	-3.800275376008013e-001
 7.004882679632214e-002	 1.116554846105373e+000	-3.924506875431303e-001
 5.994648232294742e-002	 1.117142775904022e+000	-4.025523169751724e-001
 4.987414813694744e-002	 1.117637746251272e+000	-4.102719800835082e-001
 3.983291573467465e-002	 1.118040652804121e+000	-4.155417417929481e-001
 2.982385283045469e-002	 1.118352404343764e+000	-4.182864802324294e-001
 1.984800327824619e-002	 1.118573922128282e+000	-4.184241995952331e-001
 9.906387011381411e-003	 1.118706139250280e+000	-4.158663522418243e-001
 0.000000000000000e+000	 1.118750000000000e+000	-4.105181689198965e-001
 1.010862426475091e-001	 1.120449272188024e+000	-3.594423301584900e-001
 9.084374980740989e-002	 1.121326184979027e+000	-3.772919114927837e-001
 8.062799970655708e-002	 1.122107002768330e+000	-3.928273197190956e-001
 7.044016102370117e-002	 1.122792582676474e+000	-4.060048278651512e-001
 6.028137887179909e-002	 1.123383796998955e+000	-4.167725813331474e-001
 5.015277466250215e-002	 1.123881532543523e+000	-4.250708770290302e-001
 4.005544598990789e-002	 1.124286689970843e+000	-4.308324554514822e-001
 2.999046653322648e-002	 1.124600183139104e+000	-4.339828045498386e-001
 1.995888597800297e-002	 1.124822938453075e+000	-4.344404741810524e-001
 9.961729955521234e-003	 1.124955894218173e+000	-4.321174000011125e-001
 0.000000000000000e+000	 1.125000000000000e+000	-4.269192356481302e-001
 1.125000000000000e+000	 0.000000000000000e+000	 2.229148054854803e+001
 1.124955894218173e+000	 9.961729955521271e-003	 2.231695029339250e+001
 1.124822938453075e+000	 1.995888597800303e-002	 2.233116515506401e+001
 1.124600183139104e+000	 2.999046653322640e-002	 2.233396473205995e+001
 1.124286689970844e+000	 4.005544598990785e-002	 2.232519008099881e+001
 1.123881532543523e+000	 5.015277466250215e-002	 2.230468374547085e+001
 1.123383796998955e+000	 6.028137887179912e-002	 2.227228978357907e+001
 1.122792582676474e+000	 7.044016102370125e-002	 2.222785379428381e+001
 1.122107002768330e+000	 8.062799970655701e-002	 2.217122294267740e+001
 1.121326184979027e+000	 9.084374980740984e-002	 2.210224598432738e+001
 1.120449272188024e+000	 1.010862426475091e-001	 2.202077328884032e+001
 1.131250000000000e+000	 0.000000000000000e+000	 2.204561939223092e+001
 1.131205649186067e+000	 1.001707289965871e-002	 2.207198289862645e+001
 1.131071954777878e+000	 2.006976867775024e-002	 2.208705137735353e+001
 1.130847961934465e+000	 3.015708023597660e-002	 2.209066525469191e+001
 1.130532727137605e+000	 4.027797624510255e-002	 2.208266645870527e+001
 1.130125318835834e+000	 5.043140118799645e-002	 2.206289844653242e+001
 1.129624818093976e+000	 6.061627542056347e-002	 2.203120623026726e+001
 1.129030319247694e+000	 7.083149525096104e-002	 2.198743640154394e+001
 1.128340930562529e+000	 8.107593303747275e-002	 2.193143715495478e+001
 1.127555774896901e+000	 9.134843730540339e-002	 2.186305831044389e+001
 1.126673990368485e+000	 1.016478328833424e-001	 2.178215133483053e+001
 1.137500000000000e+000	 0.000000000000000e+000	 2.180840539126931e+001
 1.137455404153962e+000	 1.007241584379616e-002	 2.183563143125913e+001
 1.137320971102681e+000	 2.018065137749744e-002	 2.185152395652839e+001
 1.137095740729826e+000	 3.032369393872678e-002	 2.185592427321981e+001
 1.136778764304367e+000	 4.050050650029725e-002	 2.184867523237227e+001
 1.136369105128145e+000	 5.071002771349074e-002	 2.182962125557128e+001
 1.135865839188997e+000	 6.095117196932781e-002	 2.179860835908577e+001
 1.135268055818913e+000	 7.122282947822083e-002	 2.175548417660927e+001
 1.134574858356729e+000	 8.152386636838854e-002	 2.170009798073652e+001
 1.133785364814774e+000	 9.185312480339695e-002	 2.163230070332040e+001
 1.132898708548947e+000	 1.022094231191757e-001	 2.155194495486779e+001
 1.143750000000000e+000	 0.000000000000000e+000	 2.157972677891846e+001
 1.143705159121856e+000	 1.012775878793359e-002	 2.160778352795895e+001
 1.143569987427484e+000	 2.029153407724465e-002	 2.162446991923797e+001
 1.143343519525187e+000	 3.049030764147696e-002	 2.162962819105190e+001
 1.143024801471128e+000	 4.072303675549197e-002	 2.162310216916279e+001
 1.142612891420456e+000	 5.098865423898503e-002	 2.160473729072690e+001
 1.142106860284017e+000	 6.128606851809217e-002	 2.157438062660558e+001
 1.141505792390134e+000	 7.161416370548060e-002	 2.153188090217840e+001
 1.140808786150928e+000	 8.197179969930428e-002	 2.147708851679273e+001
 1.140014954732648e+000	 9.235781230139052e-002	 2.140985556199771e+001
 1.139123426729408e+000	 1.027710133550090e-001	 2.133003583872469e+001
 1.150000000000000e+000	 0.000000000000000e+000	 2.135947421814547e+001
 1.149954914089751e+000	 1.018310173207104e-002	 2.138832925621966e+001
 1.149819003752287e+000	 2.040241677699185e-002	 2.140577872446739e+001
 1.149591298320549e+000	 3.065692134422714e-002	 2.141166584584313e+001
 1.149270838637890e+000	 4.094556701068667e-002	 2.140583547280161e+001
 1.148856677712768e+000	 5.126728076447933e-002	 2.138813410942315e+001
 1.148347881379038e+000	 6.162096506685651e-002	 2.135840993181560e+001
 1.147743528961354e+000	 7.200549793274037e-002	 2.131651280691518e+001
 1.147042713945127e+000	 8.241973303022006e-002	 2.126229430982322e+001
 1.146244544650521e+000	 9.286249979938403e-002	 2.119560773983043e+001
 1.145348144909870e+000	 1.033326035908423e-001	 2.111630813529372e+001
 1.156250000000000e+000	 0.000000000000000e+000	 2.114754073596136e+001
 1.156204669057646e+000	 1.023844467620848e-002	 2.117716104866248e+001
 1.156068020077091e+000	 2.051329947673905e-002	 2.119534219779875e+001
 1.155839077115910e+000	 3.082353504697733e-002	 2.120192844370465e+001
 1.155516875804652e+000	 4.116809726588137e-002	 2.119676571772216e+001
 1.155100464005079e+000	 5.154590728997362e-002	 2.117970164244164e+001
 1.154588902474059e+000	 6.195586161562088e-002	 2.115058555011139e+001
 1.153981265532573e+000	 7.239683216000017e-002	 2.110926849934178e+001
 1.153276641739327e+000	 8.286766636113585e-002	 2.105560329024335e+001
 1.152474134568394e+000	 9.336718729737760e-002	 2.098944447815407e+001
 1.151572863090331e+000	 1.038941938266757e-001	 2.091064838612461e+001
 1.162500000000000e+000	 0.000000000000000e+000	 2.094382165987158e+001
 1.162454424025540e+000	 1.029378762034592e-002	 2.097417363945728e+001
 1.162317036401893e+000	 2.062418217648626e-002	 2.099305446779284e+001
 1.162086855911271e+000	 3.099014874972751e-002	 2.100030949553557e+001
 1.161762912971413e+000	 4.139062752107608e-002	 2.099578578533789e+001
 1.161344250297391e+000	 5.182453381546792e-002	 2.097933213012185e+001
 1.160829923569080e+000	 6.229075816438520e-002	 2.095079906941315e+001
 1.160219002103793e+000	 7.278816638725995e-002	 2.091003890386386e+001
 1.159510569533526e+000	 8.331559969205160e-002	 2.085690570810546e+001
 1.158703724486268e+000	 9.387187479537117e-002	 2.079125534209202e+001
 1.157797581270792e+000	 1.044557840625090e-001	 2.071294546110552e+001
 1.168750000000000e+000	 0.000000000000000e+000	 2.074821455636539e+001
 1.168704178993435e+000	 1.034913056448336e-002	 2.077926400278397e+001
 1.168566052726697e+000	 2.073506487623346e-002	 2.079881190441230e+001
 1.168334634706632e+000	 3.115676245247771e-002	 2.080670475539775e+001
 1.168008950138175e+000	 4.161315777627079e-002	 2.080279080235824e+001
 1.167588036589702e+000	 5.210316034096221e-002	 2.078692006060813e+001
 1.167070944664101e+000	 6.262565471314956e-002	 2.075894432833367e+001
 1.166456738675013e+000	 7.317950061451974e-002	 2.071871719884858e+001
 1.165744497327725e+000	 8.376353302296737e-002	 2.066609407107660e+001
 1.164933314404141e+000	 9.437656229336472e-002	 2.060093215842233e+001
 1.164022299451254e+000	 1.050173742983423e-001	 2.052309049620806e+001
 1.175000000000000e+000	 0.000000000000000e+000	 2.056061917136844e+001
 1.174953933961330e+000	 1.040447350862080e-002	 2.059233129325767e+001
 1.174815069051499e+000	 2.084594757598066e-002	 2.061251305940970e+001
 1.174582413501994e+000	 3.132337615522789e-002	 2.062101216085714e+001
 1.174254987304936e+000	 4.183568803146548e-002	 2.061767808107334e+001
 1.173831822882013e+000	 5.238178686645650e-002	 2.060236211006791e+001
 1.173311965759121e+000	 6.296055126191391e-002	 2.057491735631932e+001
 1.172694475246233e+000	 7.357083484177951e-002	 2.053519875667888e+001
 1.171978425121925e+000	 8.421146635388310e-002	 2.048306308439558e+001
 1.171162904322014e+000	 9.488124979135827e-002	 2.041836895542713e+001
 1.170247017631715e+000	 1.055789645341756e-001	 2.034097683321913e+001
 1.181250000000000e+000	 0.000000000000000e+000	 2.038093737258577e+001
 1.181203688929224e+000	 1.045981645275824e-002	 2.041327678824532e+001
 1.181064085376303e+000	 2.095683027572786e-002	 2.043405860860843e+001
 1.180830192297355e+000	 3.148998985797807e-002	 2.044313177521910e+001
 1.180501024471698e+000	 4.205821828666018e-002	 2.044034706153447e+001
 1.180075609174324e+000	 5.266041339195079e-002	 2.042555708480712e+001
 1.179552986854142e+000	 6.329544781067825e-002	 2.039861631569157e+001
 1.178932211817453e+000	 7.396216906903928e-002	 2.035938108571069e+001
 1.178212352916124e+000	 8.465939968479889e-002	 2.030770959273617e+001
 1.177392494239888e+000	 9.538593728935182e-002	 2.024346190465185e+001
 1.176471735812176e+000	 1.061405547700089e-001	 2.016649996138596e+001
 1.187500000000000e+000	 0.000000000000000e+000	 2.020907309366546e+001
 1.187453443897119e+000	 1.051515939689569e-002	 2.024200383200368e+001
 1.187313101701106e+000	 2.106771297547507e-002	 2.026335129600585e+001
 1.187077971092716e+000	 3.165660356072825e-002	 2.027296573158800e+001
 1.186747061638459e+000	 4.228074854185489e-002	 2.027069925556020e+001
 1.186319395466635e+000	 5.293903991744508e-002	 2.025640586521423e+001
 1.185794007949163e+000	 6.363034435944259e-002	 2.022994144551870e+001
 1.185169948388672e+000	 7.435350329629908e-002	 2.019116377406304e+001
 1.184446280710324e+000	 8.510733301571465e-002	 2.013993252390612e+001
 1.183622084157761e+000	 9.589062478734535e-002	 2.007610926450361e+001
 1.182696453992638e+000	 1.067021450058423e-001	 1.999955746090403e+001
 1.120449272188024e+000	 1.010862426475091e-001	 2.202077328884032e+001
 1.119475423115290e+000	 1.113542861367410e-001	 2.199546450972818e+001
 1.118403812988922e+000	 1.216466649492955e-001	 2.195771353284365e+001
 1.117233634214321e+000	 1.319621407195442e-001	 2.190745603901939e+001
 1.115964097044449e+000	 1.422994522570490e-001	 2.184463082658350e+001
 1.114594430250278e+000	 1.526573157829650e-001	 2.176917978296542e+001
 1.113123881790855e+000	 1.630344251874023e-001	 2.168104785371240e+001
 1.111551719482271e+000	 1.734294523079613e-001	 2.158018300915030e+001
 1.109877231664831e+000	 1.838410472296248e-001	 2.146653620893830e+001
 1.108099727867712e+000	 1.942678386061737e-001	 2.134006136478204e+001
 1.106218539470361e+000	 2.047084340032615e-001	 2.120071530158299e+001
 1.126673990368485e+000	 1.016478328833424e-001	 2.178215133483053e+001
 1.125694731023406e+000	 1.119729210584791e-001	 2.175925142675916e+001
 1.124617167507623e+000	 1.223224797532198e-001	 2.172396600881032e+001
 1.123440487739901e+000	 1.326952637221273e-001	 2.167622794693443e+001
 1.122163897585715e+000	 1.430900047681505e-001	 2.161597310134909e+001
 1.120786621531432e+000	 1.535054119803400e-001	 2.154314029641148e+001
 1.119307903358093e+000	 1.639401719926405e-001	 2.145767128803043e+001
 1.117727006814098e+000	 1.743929492639726e-001	 2.135951072886148e+001
 1.116043216286087e+000	 1.848623863797919e-001	 2.124860613154428e+001
 1.114255837467288e+000	 1.953471043752891e-001	 2.112490783025662e+001
 1.112364198022586e+000	 2.058457030803720e-001	 2.098836894087341e+001
 1.132898708548947e+000	 1.022094231191757e-001	 2.155194495486779e+001
 1.131914038931527e+000	 1.125915559802125e-001	 2.153133424669678e+001
 1.130830522026344e+000	 1.229982945571248e-001	 2.149839560654075e+001
 1.129647341265525e+000	 1.334283867246671e-001	 2.145305915917347e+001
 1.128363698127059e+000	 1.438805572791746e-001	 2.139525790015279e+001
 1.126978812812709e+000	 1.543535081775938e-001	 2.132492766386571e+001
 1.125491924925506e+000	 1.648459187977035e-001	 2.124200708924026e+001
 1.123902294146164e+000	 1.753564462197448e-001	 2.114643758337810e+001
 1.122209200907656e+000	 1.858837255296454e-001	 2.103816328337653e+001
 1.120411947067260e+000	 1.964263701440066e-001	 2.091713101662466e+001
 1.118509856575302e+000	 2.069829721569898e-001	 2.078329025987173e+001
 1.139123426729408e+000	 1.027710133550090e-001	 2.133003583872469e+001
 1.138133346839653e+000	 1.132101909019411e-001	 2.131159569742573e+001
 1.137043876545084e+000	 1.236741093610107e-001	 2.128088610158438e+001
 1.135854194791192e+000	 1.341615097271634e-001	 2.123783450827683e+001
 1.134563498668481e+000	 1.446711097901213e-001	 2.118237112161249e+001
 1.133171004094105e+000	 1.552016043747262e-001	 2.111442885885677e+001
 1.131675946493094e+000	 1.657516656025913e-001	 2.103394331434783e+001
 1.130077581478469e+000	 1.763199431752776e-001	 2.094085272146887e+001
 1.128375185529539e+000	 1.869050646791856e-001	 2.083509791295712e+001
 1.126568056667631e+000	 1.975056359123262e-001	 2.071662227984270e+001
 1.124655515128511e+000	 2.081202412331149e-001	 2.058537172932658e+001
 1.145348144909870e+000	 1.033326035908423e-001	 2.111630813529372e+001
 1.144352654747783e+000	 1.138288258236649e-001	 2.109992093294980e+001
 1.143257231063844e+000	 1.243499241648773e-001	 2.107132366258889e+001
 1.142061048316901e+000	 1.348946327296163e-001	 2.103044118685532e+001
 1.140763299209979e+000	 1.454616623009905e-001	 2.097720099139451e+001
 1.139363195375624e+000	 1.560497005717373e-001	 2.091153314895954e+001
 1.137859968060858e+000	 1.666574124073038e-001	 2.083337028143573e+001
 1.136252868811014e+000	 1.772834401305713e-001	 2.074264752005646e+001
 1.134541170151735e+000	 1.879264038284123e-001	 2.063930246409994e+001
 1.132724166268399e+000	 1.985849016802480e-001	 2.052327513837183e+001
 1.130801173682214e+000	 2.092575103087474e-001	 2.039450794979257e+001
 1.151572863090331e+000	 1.038941938266757e-001	 2.091064838612461e+001
 1.150571962655919e+000	 1.144474607453839e-001	 2.089619746782111e+001
 1.149470585582622e+000	 1.250257389687247e-001	 2.086959678662186e+001
 1.148267901842655e+000	 1.356277557320258e-001	 2.083076868380424e+001
 1.146963099751555e+000	 1.462522148117824e-001	 2.077963799932053e+001
 1.145555386657263e+000	 1.568977967686271e-001	 2.071613203379353e+001
 1.144043989628796e+000	 1.675631592118412e-001	 2.064018050855301e+001
 1.142428156143797e+000	 1.782469370856257e-001	 2.055171552399708e+001
 1.140707154774245e+000	 1.889477429773255e-001	 2.045067151657857e+001
 1.138880275869565e+000	 1.996641674477718e-001	 2.033698521473159e+001
 1.136946832236408e+000	 2.103947793838872e-001	 2.021059559406806e+001
 1.157797581270792e+000	 1.044557840625090e-001	 2.071294546110552e+001
 1.156791270564059e+000	 1.150660956670980e-001	 2.070031511368444e+001
 1.155683940101420e+000	 1.257015537725529e-001	 2.067559623657886e+001
 1.154474755368452e+000	 1.363608787343920e-001	 2.063870872257540e+001
 1.153162900293209e+000	 1.470427673224969e-001	 2.058957483850292e+001
 1.151747577939025e+000	 1.577458929653957e-001	 2.052811918502189e+001
 1.150228011196910e+000	 1.684689060162032e-001	 2.045426865457628e+001
 1.148603443476820e+000	 1.792104340404408e-001	 2.036795238780282e+001
 1.146873139397068e+000	 1.899690821259253e-001	 2.026910172870806e+001
 1.145036385471129e+000	 2.007434332148977e-001	 2.015765017893931e+001
 1.143092490791096e+000	 2.115320484585344e-001	 2.003353335148970e+001
 1.164022299451254e+000	 1.050173742983423e-001	 2.052309049620806e+001
 1.163010578472205e+000	 1.156847305888075e-001	 2.051216591785768e+001
 1.161897294620237e+000	 1.263773685763618e-001	 2.048921498059969e+001
 1.160681608894292e+000	 1.370940017367147e-001	 2.045415520142964e+001
 1.159362700834940e+000	 1.478333198331340e-001	 2.040690634643345e+001
 1.157939769220907e+000	 1.585939891620428e-001	 2.034739038827530e+001
 1.156412032765199e+000	 1.693746528203900e-001	 2.027553146196834e+001
 1.154778730810083e+000	 1.801739309950167e-001	 2.019125581923356e+001
 1.153039124020204e+000	 1.909904212742117e-001	 2.009449178176887e+001
 1.151192495073091e+000	 2.018226989816258e-001	 1.998516969376408e+001
 1.149238149346276e+000	 2.126693175326889e-001	 1.986322187401429e+001
 1.170247017631715e+000	 1.055789645341756e-001	 2.034097683321913e+001
 1.169229886380355e+000	 1.163033655105121e-001	 2.033164410387252e+001
 1.168110649139073e+000	 1.270531833801516e-001	 2.031034813341849e+001
 1.166888462420177e+000	 1.378271247389940e-001	 2.027700413559613e+001
 1.165562501376748e+000	 1.486238723436937e-001	 2.023152944795182e+001
 1.164131960502911e+000	 1.594420853585687e-001	 2.017384348692952e+001
 1.162596054333664e+000	 1.702803996244016e-001	 2.010386770136363e+001
 1.160954018143585e+000	 1.811374279493534e-001	 2.002152552468943e+001
 1.159205108643654e+000	 1.920117604221847e-001	 1.992674232620453e+001
 1.157348604675451e+000	 2.029019647479560e-001	 1.981944536172811e+001
 1.155383807901949e+000	 2.138065866063507e-001	 1.969956372402121e+001
 1.176471735812176e+000	 1.061405547700089e-001	 2.016649996138596e+001
 1.175449194288509e+000	 1.169220004322119e-001	 2.015864601390252e+001
 1.174324003657929e+000	 1.277289981839221e-001	 2.013889289957526e+001
 1.173095315946103e+000	 1.385602477412300e-001	 2.010715360126800e+001
 1.171762301918633e+000	 1.494144248541760e-001	 2.006334310002481e+001
 1.170324151785035e+000	 1.602901815549732e-001	 2.000737832766751e+001
 1.168780075902303e+000	 1.711861464282379e-001	 1.993917811791289e+001
 1.167129305477325e+000	 1.821009249034508e-001	 1.985866315633667e+001
 1.165371093267417e+000	 1.930330995698442e-001	 1.976575592952757e+001
 1.163504714278209e+000	 2.039812305138884e-001	 1.966038067379045e+001
 1.161529466458114e+000	 2.149438556795199e-001	 1.954246332377253e+001
 1.182696453992638e+000	 1.067021450058423e-001	 1.999955746090403e+001
 1.181668502196668e+000	 1.175406353539070e-001	 1.999307005300934e+001
 1.180537358176804e+000	 1.284048129876733e-001	 1.997474851842117e+001
 1.179302169472074e+000	 1.392933707434225e-001	 1.994450368136629e+001
 1.177962102460596e+000	 1.502049773645809e-001	 1.990224823826928e+001
 1.176516343067282e+000	 1.611382777512565e-001	 1.984789670776092e+001
 1.174964097471118e+000	 1.720918932318991e-001	 1.978136537932226e+001
 1.173304592811306e+000	 1.830644218573089e-001	 1.970257226090334e+001
 1.171537077891494e+000	 1.940544387171902e-001	 1.961143702587015e+001
 1.169660823881365e+000	 2.050604962794228e-001	 1.950788095965125e+001
 1.167675125014772e+000	 2.160811247521964e-001	 1.939182690646836e+001
 1.106218539470361e+000	 2.047084340032615e-001	 2.120071530158299e+001
 1.104233020359888e+000	 2.151614202633443e-001	 2.111713553509636e+001
 1.102142547583675e+000	 2.256253638923442e-001	 2.102113982167702e+001
 1.099946521996445e+000	 2.360988114681552e-001	 2.091271356984462e+001
 1.097644368901011e+000	 2.465802900712551e-001	 2.079184485627907e+001
 1.095235538681890e+000	 2.570683077371921e-001	 2.065852435786645e+001
 1.092719507430977e+000	 2.675613539309719e-001	 2.051274528361166e+001
 1.090095777564483e+000	 2.780579000432834e-001	 2.035450330680224e+001
 1.087363878430301e+000	 2.885563999084638e-001	 2.018379649781492e+001
 1.084523366904992e+000	 2.990552903440744e-001	 2.000062525796407e+001
 1.081573827979565e+000	 3.095529917119247e-001	 1.980499225479526e+001
 1.112364198022586e+000	 2.058457030803720e-001	 2.098836894087341e+001
 1.110367648249682e+000	 2.163567614866021e-001	 2.090825376313858e+001
 1.108265561735218e+000	 2.268788381360262e-001	 2.081584945757210e+001
 1.106057336005332e+000	 2.374104715319707e-001	 2.071114280826991e+001
 1.103742393170077e+000	 2.479501805720276e-001	 2.059412313267002e+001
 1.101320180560551e+000	 2.584964650030533e-001	 2.046478220808330e+001
 1.098790171358049e+000	 2.690478058981926e-001	 2.032311419820708e+001
 1.096151865214429e+000	 2.796026661558606e-001	 2.016911558002165e+001
 1.093404788862850e+000	 2.901594910205850e-001	 2.000278507147658e+001
 1.090548496718078e+000	 3.007167086255804e-001	 1.982412356038234e+001
 1.087582571465517e+000	 3.112727305568885e-001	 1.963313403492487e+001
 1.118509856575302e+000	 2.069829721569898e-001	 2.078329025987173e+001
 1.116502276140058e+000	 2.175521027092721e-001	 2.070662495923770e+001
 1.114388575887414e+000	 2.281323123790347e-001	 2.061779811771056e+001
 1.112168150014925e+000	 2.387221315950370e-001	 2.051679791597757e+001
 1.109840417439881e+000	 2.493200710719848e-001	 2.040361493191422e+001
 1.107404822439961e+000	 2.599246222680432e-001	 2.027824206153484e+001
 1.104860835285863e+000	 2.705342578644960e-001	 2.014067444004347e+001
 1.102207952865088e+000	 2.811474322674844e-001	 1.999090936340067e+001
 1.099445699296064e+000	 2.917625821317270e-001	 1.982894621082922e+001
 1.096573626531760e+000	 3.023781269060916e-001	 1.965478636868871e+001
 1.093591314951976e+000	 3.129924694008522e-001	 1.946843315615477e+001
 1.124655515128511e+000	 2.081202412331149e-001	 2.058537172932658e+001
 1.122636904031018e+000	 2.187474439313542e-001	 2.051214119475278e+001
 1.120511590040265e+000	 2.293857866213697e-001	 2.042687749443601e+001
 1.118278964025224e+000	 2.400337916573541e-001	 2.032957022705230e+001
 1.115938441710422e+000	 2.506899615711267e-001	 2.022021125096265e+001
 1.113489464320121e+000	 2.613527795321616e-001	 2.009879459951814e+001
 1.110931499214418e+000	 2.720207098298818e-001	 1.996531639658392e+001
 1.108264040516461e+000	 2.826921983781547e-001	 1.981977477271309e+001
 1.105486609729943e+000	 2.933656732418897e-001	 1.966216978240990e+001
 1.102598756346038e+000	 3.040395451856081e-001	 1.949250332292847e+001
 1.099600058438940e+000	 3.147122082438159e-001	 1.931077905505748e+001
 1.130801173682214e+000	 2.092575103087474e-001	 2.039450794979257e+001
 1.128771531922561e+000	 2.199427851528485e-001	 2.032469667132325e+001
 1.126634604193771e+000	 2.306392608630315e-001	 2.024298141066667e+001
 1.124389778036228e+000	 2.413454517189219e-001	 2.014935320626540e+001
 1.122036465981701e+000	 2.520598520694534e-001	 2.004380521738136e+001
 1.119574106201031e+000	 2.627809367954088e-001	 1.992633263368904e+001
 1.117002163143715e+000	 2.735071617943504e-001	 1.979693258520745e+001
 1.114320128168546e+000	 2.842369644878716e-001	 1.965560405301762e+001
 1.111527520164486e+000	 2.949687643510732e-001	 1.950234778122127e+001
 1.108623886160912e+000	 3.057009634641296e-001	 1.933716619060249e+001
 1.105608801926411e+000	 3.164319470857797e-001	 1.916006329446014e+001
 1.136946832236408e+000	 2.103947793838872e-001	 2.021059559406806e+001
 1.134906159814687e+000	 2.211381263737548e-001	 2.014418766329382e+001
 1.132757618347929e+000	 2.318927351040197e-001	 2.006600576231197e+001
 1.130500592047938e+000	 2.426571117797404e-001	 1.997604239148856e+001
 1.128134490253717e+000	 2.534297425669648e-001	 1.987429203176745e+001
 1.125658748082690e+000	 2.642090940577846e-001	 1.976075104848482e+001
 1.123072827073753e+000	 2.749936137579013e-001	 1.963541759564361e+001
 1.120376215821346e+000	 2.857817305966350e-001	 1.949829152111011e+001
 1.117568430599695e+000	 2.965718554592774e-001	 1.934937427320524e+001
 1.114649015976381e+000	 3.073623817416564e-001	 1.918866880916843e+001
 1.111617545414388e+000	 3.181516859267434e-001	 1.901617950597803e+001
 1.143092490791096e+000	 2.115320484585344e-001	 2.003353335148970e+001
 1.141040787707396e+000	 2.223334675940734e-001	 1.997051246199650e+001
 1.138880632502743e+000	 2.331462093443346e-001	 1.989584846254713e+001
 1.136611406060353e+000	 2.439687718398097e-001	 1.980953533796544e+001
 1.134232514526470e+000	 2.547996330636609e-001	 1.971156891202229e+001
 1.131743389965099e+000	 2.656372513192890e-001	 1.960194674540433e+001
 1.129143491004533e+000	 2.764800657205349e-001	 1.948066803426417e+001
 1.126432303474858e+000	 2.873264967044450e-001	 1.934773350983139e+001
 1.123609341035569e+000	 2.981749465665024e-001	 1.920314533957284e+001
 1.120674145792447e+000	 3.090238000181883e-001	 1.904690703039684e+001
 1.117626288902871e+000	 3.198714247667071e-001	 1.887902333440212e+001
 1.149238149346276e+000	 2.126693175326889e-001	 1.986322187401429e+001
 1.147175415600688e+000	 2.235288088138040e-001	 1.980357132182044e+001
 1.145003646658210e+000	 2.343996835839760e-001	 1.973240938787554e+001
 1.142722220073474e+000	 2.452804318991297e-001	 1.964973156437110e+001
 1.140330538799961e+000	 2.561695235595418e-001	 1.955553503941295e+001
 1.137828031848257e+000	 2.670654085799221e-001	 1.944981858907580e+001
 1.135214154936054e+000	 2.779665176822510e-001	 1.933258247016220e+001
 1.132488391129085e+000	 2.888712628113017e-001	 1.920382831416245e+001
 1.129650251472107e+000	 2.997780376727481e-001	 1.906355902291972e+001
 1.126699275609109e+000	 3.106852182937255e-001	 1.891177866651239e+001
 1.123635032391861e+000	 3.215911636056708e-001	 1.874849238387077e+001
 1.155383807901949e+000	 2.138065866063507e-001	 1.969956372402121e+001
 1.153310043494563e+000	 2.247241500329469e-001	 1.964326640800304e+001
 1.151126660814331e+000	 2.356531578229439e-001	 1.957559032591251e+001
 1.148833034087301e+000	 2.465920919577005e-001	 1.949653250059326e+001
 1.146428563074190e+000	 2.575394140546074e-001	 1.940609150635514e+001
 1.143912673732164e+000	 2.684935658396838e-001	 1.930426735504601e+001
 1.141284818868317e+000	 2.794529696430497e-001	 1.919106138295203e+001
 1.138544478784024e+000	 2.904160289172048e-001	 1.906647613903983e+001
 1.135691161909310e+000	 3.013811287780147e-001	 1.893051527506194e+001
 1.132724405426366e+000	 3.123466365682679e-001	 1.878318343805419e+001
 1.129643775881357e+000	 3.233109024436345e-001	 1.862448616575939e+001
 1.161529466458114e+000	 2.149438556795199e-001	 1.954246332377253e+001
 1.159444671389021e+000	 2.259194912515019e-001	 1.948950174607836e+001
 1.157249674971106e+000	 2.369066320612385e-001	 1.942529492482691e+001
 1.154943848101833e+000	 2.479037520155220e-001	 1.934984143717097e+001
 1.152526587349156e+000	 2.589093045488576e-001	 1.926314126585346e+001
 1.149997315616821e+000	 2.699217230985742e-001	 1.916519567922683e+001
 1.147355482801321e+000	 2.809394216029309e-001	 1.905600711222632e+001
 1.144600566439677e+000	 2.919607950221544e-001	 1.893557904882763e+001
 1.141732072347179e+000	 3.029842198823019e-001	 1.880391590652729e+001
 1.138749535244219e+000	 3.140080548418155e-001	 1.866102292339142e+001
 1.135652519371360e+000	 3.250306412805983e-001	 1.850690604822450e+001
 1.167675125014772e+000	 2.160811247521964e-001	 1.939182690646836e+001
 1.165579299284062e+000	 2.271148324694689e-001	 1.934218317292188e+001
 1.163372689128536e+000	 2.381601062988596e-001	 1.928142864437899e+001
 1.161054662117071e+000	 2.492154120725943e-001	 1.920956347633009e+001
 1.158624611624860e+000	 2.602791950422927e-001	 1.912658908253875e+001
 1.156081957502228e+000	 2.713498803565931e-001	 1.903250800893829e+001
 1.153426146735067e+000	 2.824258735618947e-001	 1.892732380860934e+001
 1.150656654096043e+000	 2.935055611261507e-001	 1.881104091838539e+001
 1.147772982785712e+000	 3.045873109856098e-001	 1.868366453764196e+001
 1.144774665062669e+000	 3.156694731143683e-001	 1.854520050983276e+001
 1.141661262861868e+000	 3.267503801165619e-001	 1.839565520734105e+001
 1.081573827979565e+000	 3.095529917119247e-001	 1.980499225479526e+001
 1.078514875332843e+000	 3.200479085009069e-001	 1.967000086021717e+001
 1.075346151892721e+000	 3.305384299296696e-001	 1.952428409052035e+001
 1.072067330383723e+000	 3.410229305701427e-001	 1.936792077819676e+001
 1.068678113859284e+000	 3.514997709926364e-001	 1.920099110356539e+001
 1.065178236219087e+000	 3.619672984304700e-001	 1.902357645564786e+001
 1.061567462710248e+000	 3.724238474643520e-001	 1.883575929626942e+001
 1.057845590411549e+000	 3.828677407261033e-001	 1.863762302790919e+001
 1.054012448699919e+000	 3.932972896212848e-001	 1.842925186581673e+001
 1.050067899698377e+000	 4.037107950702518e-001	 1.821073071490637e+001
 1.046011838704666e+000	 4.141065482671229e-001	 1.798214505192967e+001
 1.087582571465517e+000	 3.112727305568885e-001	 1.963313403492487e+001
 1.084506624637670e+000	 3.218259524394037e-001	 1.950408599918114e+001
 1.081320297178610e+000	 3.323747545429417e-001	 1.936417054857528e+001
 1.078023259994660e+000	 3.429175024092761e-001	 1.921345898777392e+001
 1.074615214489552e+000	 3.534525475007734e-001	 1.905202393224645e+001
 1.071095893084634e+000	 3.639782278687154e-001	 1.887993917505328e+001
 1.067465059722839e+000	 3.744928688414804e-001	 1.869727955710487e+001
 1.063722510355609e+000	 3.849947837321766e-001	 1.850412084141352e+001
 1.059868073411965e+000	 3.954822745652842e-001	 1.830053959185338e+001
 1.055901610248943e+000	 4.059536328218263e-001	 1.808661305693710e+001
 1.051823015582605e+000	 4.164071402025553e-001	 1.786241905910674e+001
 1.093591314951976e+000	 3.129924694008522e-001	 1.946843315615477e+001
 1.090498373942914e+000	 3.236039963769052e-001	 1.934521324272964e+001
 1.087294442464843e+000	 3.342110791552334e-001	 1.921098756168114e+001
 1.083979189605890e+000	 3.448120742474534e-001	 1.906581996167910e+001
 1.080552315120082e+000	 3.554053240079886e-001	 1.890977556230416e+001
 1.077013549950432e+000	 3.659891573060833e-001	 1.874292062663394e+001
 1.073362656735690e+000	 3.765618902177854e-001	 1.856532243754823e+001
 1.069599430299955e+000	 3.871218267374907e-001	 1.837704917827384e+001
 1.065723698124346e+000	 3.976672595085986e-001	 1.817816981768308e+001
 1.061735320799913e+000	 4.081964705728008e-001	 1.796875400085161e+001
 1.057634192461039e+000	 4.187077321374825e-001	 1.774887194536981e+001
 1.099600058438940e+000	 3.147122082438159e-001	 1.931077905505748e+001
 1.096490123248574e+000	 3.253820403134117e-001	 1.919327363371731e+001
 1.093268587751422e+000	 3.360474037665445e-001	 1.906462775697006e+001
 1.089935119217414e+000	 3.467066460846746e-001	 1.892489788843944e+001
 1.086489415750874e+000	 3.573581005142821e-001	 1.877414171989607e+001
 1.082931206816480e+000	 3.680000867425734e-001	 1.861241804952775e+001
 1.079260253748798e+000	 3.786309115932671e-001	 1.843978666417947e+001
 1.075476350244589e+000	 3.892488697420459e-001	 1.825630822608380e+001
 1.071579322837063e+000	 3.998522444512287e-001	 1.806204416459298e+001
 1.067569031351289e+000	 4.104393083231752e-001	 1.785705657341757e+001
 1.063445369339969e+000	 4.210083240719047e-001	 1.764140811386212e+001
 1.105608801926411e+000	 3.164319470857797e-001	 1.916006329446014e+001
 1.102481872554650e+000	 3.271600842489230e-001	 1.904816030102371e+001
 1.099242733038346e+000	 3.378837283768750e-001	 1.892498580816601e+001
 1.095891048829232e+000	 3.486012179209396e-001	 1.879058896456038e+001
 1.092426516381929e+000	 3.593108770196536e-001	 1.864502010138709e+001
 1.088848863682779e+000	 3.700110161781860e-001	 1.848833061617418e+001
 1.085157850762166e+000	 3.806999329679253e-001	 1.832057286086211e+001
 1.081353270189511e+000	 3.913759127458420e-001	 1.814180003461190e+001
 1.077434947550117e+000	 4.020372293931740e-001	 1.795206608186777e+001
 1.073402741903069e+000	 4.126821460729497e-001	 1.775142559617604e+001
 1.069256546219392e+000	 4.233089160058217e-001	 1.753993373024930e+001
 1.111617545414388e+000	 3.181516859267434e-001	 1.901617950597803e+001
 1.108473621861141e+000	 3.289381281834391e-001	 1.890976840317404e+001
 1.105216878325614e+000	 3.397200529862249e-001	 1.879195838027136e+001
 1.101846978441343e+000	 3.504957897562485e-001	 1.866279134025598e+001
 1.098363617013245e+000	 3.612636535241033e-001	 1.852231032010068e+001
 1.094766520549328e+000	 3.720219456129209e-001	 1.837055938006315e+001
 1.091055447775793e+000	 3.827689543417602e-001	 1.820758349746530e+001
 1.087230190134719e+000	 3.935029557488791e-001	 1.803342846547277e+001
 1.083290572263506e+000	 4.042222143344348e-001	 1.784814079738465e+001
 1.079236452455255e+000	 4.149249838221242e-001	 1.765176763693380e+001
 1.075067723099311e+000	 4.256095079392335e-001	 1.744435667508388e+001
 1.117626288902871e+000	 3.198714247667071e-001	 1.887902333440212e+001
 1.114465371168049e+000	 3.307161721169601e-001	 1.877799507377914e+001
 1.111191023613229e+000	 3.415563775945945e-001	 1.866544407603791e+001
 1.107802908053748e+000	 3.523903615906012e-001	 1.854140506692988e+001
 1.104300717644825e+000	 3.632164300276312e-001	 1.840591385478775e+001
 1.100684177416128e+000	 3.740328750467783e-001	 1.825900722516889e+001
 1.096953044789678e+000	 3.848379757147717e-001	 1.810072284023991e+001
 1.093107110080215e+000	 3.956299987511568e-001	 1.793109914342123e+001
 1.089146196977232e+000	 4.064071992750110e-001	 1.775017526980166e+001
 1.085070163007846e+000	 4.171678215706987e-001	 1.755799096282102e+001
 1.080878899979725e+000	 4.279100998721401e-001	 1.735458649770597e+001
 1.123635032391861e+000	 3.215911636056708e-001	 1.874849238387077e+001
 1.120457120475372e+000	 3.324942160494859e-001	 1.865273936872539e+001
 1.117165168901187e+000	 3.433927022019832e-001	 1.854534338415549e+001
 1.113758837666447e+000	 3.542849334239976e-001	 1.842633204634130e+001
 1.110237818276666e+000	 3.651692065302371e-001	 1.829573399974883e+001
 1.106601834283178e+000	 3.760438044797580e-001	 1.815357881700670e+001
 1.102850641803822e+000	 3.869069970869598e-001	 1.799989690378704e+001
 1.098984030025998e+000	 3.977570417526758e-001	 1.783471940920981e+001
 1.095001821691293e+000	 4.085921842149026e-001	 1.765807814227995e+001
 1.090903873560842e+000	 4.194106593186732e-001	 1.747000549485465e+001
 1.086690076860633e+000	 4.302106918045416e-001	 1.727053437162337e+001
 1.129643775881357e+000	 3.233109024436345e-001	 1.862448616575939e+001
 1.126448869783112e+000	 3.342722599810167e-001	 1.853390221505060e+001
 1.123139314189491e+000	 3.452290268083916e-001	 1.843155862909407e+001
 1.119714767279440e+000	 3.561795052564381e-001	 1.831747598139355e+001
 1.116174918908769e+000	 3.671219830319211e-001	 1.819167581654823e+001
 1.112519491150479e+000	 3.780547339118600e-001	 1.805418055525140e+001
 1.108748238818225e+000	 3.889760184583245e-001	 1.790501340455934e+001
 1.104860949972069e+000	 3.998840847534356e-001	 1.774419827395038e+001
 1.100857446405690e+000	 4.107771691541094e-001	 1.757175969768341e+001
 1.096737584114244e+000	 4.216534970660476e-001	 1.738772276395197e+001
 1.092501253742037e+000	 4.325112837364382e-001	 1.719211305131566e+001
 1.135652519371360e+000	 3.250306412805983e-001	 1.850690604822450e+001
 1.132440619091268e+000	 3.360503039115522e-001	 1.842138636144249e+001
 1.129113459478140e+000	 3.470653514138193e-001	 1.832399392253788e+001
 1.125670696892727e+000	 3.580740770879224e-001	 1.821474232848455e+001
 1.122112019541134e+000	 3.690747595326834e-001	 1.809364608726107e+001
 1.118437148018030e+000	 3.800656633430845e-001	 1.796072052786025e+001
 1.114645835832887e+000	 3.910450398288658e-001	 1.781598171583849e+001
 1.110737869918427e+000	 4.020111277534364e-001	 1.765944637492486e+001
 1.106713071120424e+000	 4.129621540926318e-001	 1.749113181520013e+001
 1.102571294668051e+000	 4.238963348128222e-001	 1.731105586834095e+001
 1.098312430623935e+000	 4.348118756678294e-001	 1.711923683040941e+001
 1.141661262861868e+000	 3.267503801165619e-001	 1.839565520734105e+001
 1.138432368399839e+000	 3.378283478410926e-001	 1.831509633030064e+001
 1.135087604767134e+000	 3.489016760182664e-001	 1.822255511635382e+001
 1.131626626506307e+000	 3.599686489184504e-001	 1.811803825136250e+001
 1.128049120173761e+000	 3.710275360325238e-001	 1.800155326919656e+001
 1.124354804885831e+000	 3.820765927734313e-001	 1.787310846664433e+001
 1.120543432847807e+000	 3.931140611985838e-001	 1.773271282413435e+001
 1.116614789865071e+000	 4.041381707526780e-001	 1.758037593279114e+001
 1.112568695835494e+000	 4.151471390304695e-001	 1.741610792833394e+001
 1.108405005222262e+000	 4.261391725589966e-001	 1.723991943231493e+001
 1.104123607506328e+000	 4.371124675987153e-001	 1.705182150117442e+001
 1.046011838704666e+000	 4.141065482671229e-001	 1.798214505192967e+001
 1.041844194600365e+000	 4.244828314555251e-001	 1.778403120758815e+001
 1.037564930238061e+000	 4.348379187223787e-001	 1.757771457382195e+001
 1.033174042807009e+000	 4.451700768077574e-001	 1.736333586678457e+001
 1.028671564177654e+000	 4.554775659290847e-001	 1.714103486192082e+001
 1.024057561222658e+000	 4.657586406207956e-001	 1.691095023577802e+001
 1.019332136114318e+000	 4.760115505881292e-001	 1.667321941623852e+001
 1.014495426597762e+000	 4.862345415742986e-001	 1.642797844167680e+001
 1.009547606239281e+000	 4.964258562402674e-001	 1.617536182951938e+001
 1.004488884649226e+000	 5.065837350563242e-001	 1.591550245465770e+001
 9.993195076789155e-001	 5.167064172046177e-001	 1.564853143813566e+001
 1.051823015582605e+000	 4.164071402025553e-001	 1.786241905910674e+001
 1.047632217899507e+000	 4.268410694080801e-001	 1.766982327506593e+001
 1.043329179845939e+000	 4.372536849369884e-001	 1.746937835521049e+001
 1.038913898595539e+000	 4.476432439001326e-001	 1.726122934026432e+001
 1.034386406195813e+000	 4.580079968494777e-001	 1.704551995871332e+001
 1.029746769890935e+000	 4.683461886224285e-001	 1.682239245940466e+001
 1.024995092420830e+000	 4.786560592003640e-001	 1.659198745306165e+001
 1.020131512295876e+000	 4.889358445806271e-001	 1.635444376324126e+001
 1.015156204046620e+000	 4.991837776611872e-001	 1.610989828723664e+001
 1.010069378447916e+000	 5.093980891371679e-001	 1.585848586739687e+001
 1.004871282716925e+000	 5.195770084083966e-001	 1.560033917330600e+001
 1.057634192461039e+000	 4.187077321374825e-001	 1.774887194536981e+001
 1.053420241199240e+000	 4.291993073602251e-001	 1.756188116478343e+001
 1.049093429454491e+000	 4.396694511512734e-001	 1.736739327101868e+001
 1.044653754384820e+000	 4.501164109922587e-001	 1.716555756155172e+001
 1.040101248214788e+000	 4.605384277696876e-001	 1.695652164897576e+001
 1.035435978560085e+000	 4.709337366239336e-001	 1.674043128443550e+001
 1.030658048728261e+000	 4.813005678125173e-001	 1.651743019047441e+001
 1.025767597994943e+000	 4.916371475869096e-001	 1.628765990384750e+001
 1.020764801854938e+000	 5.019416990820864e-001	 1.605125962882465e+001
 1.015649872247602e+000	 5.122124432180063e-001	 1.580836610147859e+001
 1.010423057755935e+000	 5.224475996121756e-001	 1.555911346542136e+001
 1.063445369339969e+000	 4.210083240719047e-001	 1.764140811386212e+001
 1.059208264499562e+000	 4.315575453119599e-001	 1.746010796323008e+001
 1.054857679063720e+000	 4.420852173652339e-001	 1.727166115681938e+001
 1.050393610174852e+000	 4.525895780841360e-001	 1.707622118189343e+001
 1.045816090234579e+000	 4.630688586897140e-001	 1.687393946703040e+001
 1.041125187230108e+000	 4.735212846253113e-001	 1.666496519643783e+001
 1.036321005036609e+000	 4.839450764245883e-001	 1.644944513418264e+001
 1.031403683694964e+000	 4.943384505931462e-001	 1.622752345891236e+001
 1.026373399664236e+000	 5.046996205029652e-001	 1.599934160961587e+001
 1.021230366048282e+000	 5.150267972988395e-001	 1.576503814294053e+001
 1.015974832795945e+000	 5.253181908159545e-001	 1.552474860255108e+001
 1.069256546219392e+000	 4.233089160058217e-001	 1.753993373024930e+001
 1.064996287800474e+000	 4.339157832632850e-001	 1.736440854605326e+001
 1.060621928673624e+000	 4.445009835788699e-001	 1.718208566289317e+001
 1.056133465965635e+000	 4.550627451757641e-001	 1.699312269168977e+001
 1.051530932255188e+000	 4.655992896095571e-001	 1.679767480967691e+001
 1.046814395901003e+000	 4.761088326265615e-001	 1.659589456564178e+001
 1.041983961345876e+000	 4.865895850365778e-001	 1.638793169558556e+001
 1.037039769395940e+000	 4.970397535993366e-001	 1.617393294940534e+001
 1.031981997474513e+000	 5.074575419238235e-001	 1.595404192916814e+001
 1.026810859849957e+000	 5.178411513796678e-001	 1.572839893951805e+001
 1.021526607836955e+000	 5.281887820197334e-001	 1.549714085071982e+001
 1.075067723099311e+000	 4.256095079392335e-001	 1.744435667508388e+001
 1.070784311101977e+000	 4.362740212141998e-001	 1.727468952970299e+001
 1.066386178284203e+000	 4.469167497921812e-001	 1.709857220518244e+001
 1.061873321757169e+000	 4.575359122671433e-001	 1.691616637078747e+001
 1.057245774276613e+000	 4.681297205292170e-001	 1.672763088585517e+001
 1.052503604572770e+000	 4.786963806276842e-001	 1.653312159600357e+001
 1.047646917656061e+000	 4.892340936484858e-001	 1.633279114027031e+001
 1.042675855097869e+000	 4.997410566054810e-001	 1.612678876980624e+001
 1.037590595285770e+000	 5.102154633446613e-001	 1.591526017871857e+001
 1.032391353652627e+000	 5.206555054604909e-001	 1.569834734762548e+001
 1.027078382878964e+000	 5.310593732235124e-001	 1.547618840044866e+001
 1.080878899979725e+000	 4.279100998721401e-001	 1.735458649770597e+001
 1.076572334404070e+000	 4.386322591647049e-001	 1.719085922463599e+001
 1.072150427895458e+000	 4.493325160051679e-001	 1.702102791782701e+001
 1.067613177549454e+000	 4.600090793582735e-001	 1.684525824037635e+001
 1.062960616298855e+000	 4.706601514486936e-001	 1.666371266793181e+001
 1.058192813245410e+000	 4.812839286286794e-001	 1.647655027591168e+001
 1.053309873967165e+000	 4.918786022603119e-001	 1.628392653816811e+001
 1.048311940800752e+000	 5.024423596115791e-001	 1.608599313774248e+001
 1.043199193098006e+000	 5.129733847654785e-001	 1.588289779033148e+001
 1.037971847456292e+000	 5.234698595413088e-001	 1.567478408104756e+001
 1.032630157921974e+000	 5.339299644272912e-001	 1.546179131502203e+001
 1.086690076860633e+000	 4.302106918045416e-001	 1.727053437162337e+001
 1.082360357706752e+000	 4.409904971147997e-001	 1.711282759002140e+001
 1.077914677507387e+000	 4.517482822178299e-001	 1.694936160722336e+001
 1.073353033342490e+000	 4.624822464491547e-001	 1.678030601642967e+001
 1.068675458321913e+000	 4.731905823679871e-001	 1.660582684454981e+001
 1.063882021918922e+000	 4.838714766295471e-001	 1.642608633047486e+001
 1.058972830279187e+000	 4.945231108720562e-001	 1.624124271531003e+001
 1.053948026504589e+000	 5.051436626176313e-001	 1.605145004524154e+001
 1.048807790911221e+000	 5.157313061862753e-001	 1.585685798767864e+001
 1.043552341260951e+000	 5.262842136221215e-001	 1.565761166127708e+001
 1.038181932965984e+000	 5.368005556310701e-001	 1.545385148041330e+001
 1.092501253742037e+000	 4.325112837364382e-001	 1.719211305131566e+001
 1.088148381010025e+000	 4.433487350644848e-001	 1.704050618989217e+001
 1.083678927119993e+000	 4.541640484301676e-001	 1.688348370754954e+001
 1.079092889136277e+000	 4.649554135397869e-001	 1.672121906462973e+001
 1.074390300345788e+000	 4.757210132870970e-001	 1.655388177498294e+001
 1.069571230593307e+000	 4.864590246302871e-001	 1.638163717533261e+001
 1.064635786592126e+000	 4.971676194837186e-001	 1.620464620712182e+001
 1.059584112209380e+000	 5.078449656236376e-001	 1.602306521153949e+001
 1.054416388725416e+000	 5.184892276070515e-001	 1.583704573839026e+001
 1.049132835066606e+000	 5.290985677029292e-001	 1.564673436943748e+001
 1.043733708010994e+000	 5.396711468348491e-001	 1.545227255680910e+001
 1.098312430623935e+000	 4.348118756678294e-001	 1.711923683040941e+001
 1.093936404313887e+000	 4.457069730137597e-001	 1.697380815068812e+001
 1.089443176733274e+000	 4.565798146421805e-001	 1.682330623770207e+001
 1.084832744930815e+000	 4.674285806301701e-001	 1.666790835672484e+001
 1.080105142370480e+000	 4.782514442060237e-001	 1.650778744493890e+001
 1.075260439268565e+000	 4.890465726308998e-001	 1.634311187193236e+001
 1.070298742905985e+000	 4.998121280952994e-001	 1.617404521320239e+001
 1.065220197915125e+000	 5.105462686295978e-001	 1.600074603738767e+001
 1.060024986540591e+000	 5.212471490278072e-001	 1.582336770791811e+001
 1.054713328873255e+000	 5.319129217837317e-001	 1.564205819973188e+001
 1.049285483057004e+000	 5.425417380386280e-001	 1.545695993167280e+001
 1.104123607506328e+000	 4.371124675987153e-001	 1.705182150117442e+001
 1.099724427618340e+000	 4.480652109626246e-001	 1.691264812014022e+001
 1.095207426347230e+000	 4.589955808538688e-001	 1.676874275959316e+001
 1.090572600726104e+000	 4.699017477203041e-001	 1.662028642826464e+001
 1.085819984395989e+000	 4.807818751247672e-001	 1.646745542375869e+001
 1.080949647944695e+000	 4.916341206313848e-001	 1.631042108421857e+001
 1.075961699220761e+000	 5.024566367067984e-001	 1.614934955352915e+001
 1.070856283621823e+000	 5.132475716355116e-001	 1.598440156080241e+001
 1.065633584356746e+000	 5.240050704485425e-001	 1.581573221485641e+001
 1.060293822680900e+000	 5.347272758645291e-001	 1.564349081436204e+001
 1.054837258104013e+000	 5.454123292424070e-001	 1.546782067428930e+001
 9.993195076789155e-001	 5.167064172046177e-001	 1.564853143813566e+001
 9.940397575908523e-001	 5.267921414919999e-001	 1.547607407483676e+001
 9.886499532022749e-001	 5.368391472716192e-001	 1.528983252699137e+001
 9.831504500012031e-001	 5.468456753728753e-001	 1.508967235030415e+001
 9.775416402342402e-001	 5.568099690391477e-001	 1.487546103766180e+001
 9.718239529662599e-001	 5.667302748716870e-001	 1.464706826345897e+001
 9.659978541114411e-001	 5.766048437789245e-001	 1.440436613755743e+001
 9.600638464353356e-001	 5.864319319301918e-001	 1.414722946851616e+001
 9.540224695276989e-001	 5.962098017128384e-001	 1.387553603569405e+001
 9.478742997458384e-001	 6.059367226917078e-001	 1.358916686977664e+001
 9.416199501282946e-001	 6.156109725699284e-001	 1.328800654124059e+001
 1.004871282716925e+000	 5.195770084083966e-001	 1.560033917330600e+001
 9.995622006842067e-001	 5.297187644972863e-001	 1.543200634282938e+001
 9.941424529381387e-001	 5.398215869755806e-001	 1.524883481188054e+001
 9.886123969416742e-001	 5.498837068995093e-001	 1.505063563920792e+001
 9.829724271205642e-001	 5.599033577526926e-001	 1.483722230321053e+001
 9.772229749233760e-001	 5.698787763952773e-001	 1.460841100932652e+001
 9.713645088526997e-001	 5.798082040185190e-001	 1.436402100715443e+001
 9.653975344672294e-001	 5.896898871038010e-001	 1.410387491684362e+001
 9.593225943544411e-001	 5.995220783850694e-001	 1.382779906424459e+001
 9.531402680736272e-001	 6.093030378136390e-001	 1.353562382426596e+001
 9.468511720690975e-001	 6.190310335243222e-001	 1.322718397184071e+001
 1.010423057755935e+000	 5.224475996121756e-001	 1.555911346542136e+001
 1.005084643778561e+000	 5.326453875025777e-001	 1.539410407908317e+001
 9.996349526750024e-001	 5.428040266795616e-001	 1.521321328480694e+001
 9.940743438831456e-001	 5.529217384261876e-001	 1.501619803026059e+001
 9.884032140078883e-001	 5.629967464663165e-001	 1.480281815871624e+001
 9.826219968814918e-001	 5.730272779189910e-001	 1.457283677913238e+001
 9.767311635949578e-001	 5.830115642582913e-001	 1.432602064607661e+001
 9.707312225001229e-001	 5.929478422776527e-001	 1.406214054891922e+001
 9.646227191821831e-001	 6.028343550576178e-001	 1.378097170968537e+001
 9.584062364024157e-001	 6.126693529359726e-001	 1.348229418890312e+001
 9.520823940109001e-001	 6.224510944792135e-001	 1.316589329874116e+001
 1.015974832795945e+000	 5.253181908159545e-001	 1.552474860255108e+001
 1.010607086873915e+000	 5.355720105078738e-001	 1.536227518399237e+001
 1.005127452412866e+000	 5.457864663835625e-001	 1.518288929858820e+001
 9.995362908256166e-001	 5.559597699529103e-001	 1.498629416160979e+001
 9.938340008962124e-001	 5.660901351800194e-001	 1.477219635341963e+001
 9.880210188406073e-001	 5.761757794428282e-001	 1.454030625188499e+001
 9.820978183382165e-001	 5.862149244982419e-001	 1.429033847474556e+001
 9.760649105340169e-001	 5.962057974517478e-001	 1.402201233126386e+001
 9.699228440109251e-001	 6.061466317304838e-001	 1.373505228243765e+001
 9.636722047322044e-001	 6.160356680587085e-001	 1.342918840900652e+001
 9.573136159537028e-001	 6.258711554346018e-001	 1.314315914700355e+001
 1.021526607836955e+000	 5.281887820197334e-001	 1.549714085071982e+001
 1.016129529970270e+000	 5.384986335131750e-001	 1.533642924140326e+001
 1.010619952151731e+000	 5.487689060875830e-001	 1.515778559879594e+001
 1.004998237769088e+000	 5.589978014796773e-001	 1.496085977741831e+001
 9.992647877855364e-001	 5.691835238938013e-001	 1.474530545994789e+001
 9.934200408007234e-001	 5.793242809667893e-001	 1.451078065160914e+001
 9.874644730824748e-001	 5.894182847383708e-001	 1.425694818463764e+001
 9.813985985689102e-001	 5.994637526260853e-001	 1.398347623204506e+001
 9.752229688406673e-001	 6.094589084036676e-001	 1.369003882985820e+001
 9.689381730629930e-001	 6.194019831818468e-001	 1.337631640695916e+001
 9.625448378975056e-001	 6.292912163904878e-001	 1.323131699791438e+001
 1.027078382878964e+000	 5.310593732235124e-001	 1.547618840044866e+001
 1.021651973067624e+000	 5.414252565184811e-001	 1.531647747311492e+001
 1.016112451891594e+000	 5.517513457916231e-001	 1.513782628611419e+001
 1.010460184713559e+000	 5.620358330064887e-001	 1.493983169797201e+001
 1.004695574675860e+000	 5.722769126076621e-001	 1.472209485206063e+001
 9.988190627618393e-001	 5.824727824908738e-001	 1.448422173261624e+001
 9.928311278277332e-001	 5.926216449786779e-001	 1.422582373095804e+001
 9.867322866048038e-001	 6.027217078006658e-001	 1.394651822103187e+001
 9.805230936714092e-001	 6.127711850771689e-001	 1.364592914334923e+001
 9.742041413947813e-001	 6.227682983053875e-001	 1.332368759634153e+001
 9.677760598423083e-001	 6.327112773468708e-001	 1.331460372836918e+001
 1.032630157921974e+000	 5.339299644272912e-001	 1.546179131502203e+001
 1.027174416165979e+000	 5.443518795237921e-001	 1.530233269484865e+001
 1.021604951632458e+000	 5.547337854956830e-001	 1.512293677991154e+001
 1.015922131659030e+000	 5.650738645333445e-001	 1.492314779075180e+001
 1.010126361567185e+000	 5.753703013216019e-001	 1.470251468311425e+001
 1.004218084723955e+000	 5.856212840150821e-001	 1.446059176524943e+001
 9.981977825739917e-001	 5.958250052191632e-001	 1.419693932555150e+001
 9.920659746416978e-001	 6.059796629754894e-001	 1.391112426955228e+001
 9.858232185031514e-001	 6.160834617509877e-001	 1.360272076523895e+001
 9.794701097275699e-001	 6.261346134293309e-001	 1.331911865439671e+001
 9.730072817881109e-001	 6.361313383037514e-001	 1.339303365762878e+001
 1.038181932965984e+000	 5.368005556310701e-001	 1.545385148041330e+001
 1.032696859265333e+000	 5.472785025291079e-001	 1.529390927362954e+001
 1.027097451374322e+000	 5.577162251997625e-001	 1.511304378298206e+001
 1.021384078605502e+000	 5.681118960602447e-001	 1.491074694243362e+001
 1.015557148459509e+000	 5.784636900356210e-001	 1.468651586521690e+001
 1.009617106687071e+000	 5.887697855394137e-001	 1.443985352208537e+001
 1.003564437321250e+000	 5.990283654598266e-001	 1.417026943003990e+001
 9.973996626795911e-001	 6.092376181505556e-001	 1.387728035045118e+001
 9.911233433358935e-001	 6.193957384251241e-001	 1.356041099544126e+001
 9.847360780613587e-001	 6.295009285536763e-001	 1.340589501920831e+001
 9.782385037349136e-001	 6.395513992611293e-001	 1.346662038818499e+001
 1.043733708010994e+000	 5.396711468348491e-001	 1.545227255680910e+001
 1.038219302365687e+000	 5.502051255344287e-001	 1.529112308652834e+001
 1.032589951117185e+000	 5.606986649038618e-001	 1.510807524741172e+001
 1.026846025552973e+000	 5.711499275871892e-001	 1.490256903178238e+001
 1.020987935352833e+000	 5.815570787497189e-001	 1.467405004904941e+001
 1.015016128651187e+000	 5.919182870638692e-001	 1.442197026457767e+001
 1.008931092069509e+000	 6.022317257006686e-001	 1.414578874917974e+001
 1.002733350718485e+000	 6.124955733258648e-001	 1.384497243805029e+001
 9.964234681696356e-001	 6.227080150995783e-001	 1.351899689790282e+001
 9.900020463961473e-001	 6.328672436784245e-001	 1.348852356806172e+001
 9.834697256827164e-001	 6.429714602190044e-001	 1.353537682482291e+001
 1.049285483057004e+000	 5.425417380386280e-001	 1.545695993167280e+001
 1.043741745467042e+000	 5.531317485397546e-001	 1.529389148071328e+001
 1.038082450861050e+000	 5.636811046079809e-001	 1.510796034152845e+001
 1.032307972501444e+000	 5.741879591141781e-001	 1.489855490340600e+001
 1.026418722247157e+000	 5.846504674638957e-001	 1.466506960432578e+001
 1.020415150616302e+000	 5.950667885884479e-001	 1.440690573012305e+001
 1.014297746818767e+000	 6.054350859416885e-001	 1.412347222442964e+001
 1.008067038758379e+000	 6.157535285014167e-001	 1.381418650810899e+001
 1.001723593004378e+000	 6.260202917743499e-001	 1.351878717393483e+001
 9.952680147319358e-001	 6.362335588035749e-001	 1.356700640152050e+001
 9.887009476315192e-001	 6.463915211773771e-001	 1.359931519307947e+001
 1.054837258104013e+000	 5.454123292424070e-001	 1.546782067428930e+001
 1.049264188569396e+000	 5.560583715450852e-001	 1.530213323476319e+001
 1.043574950605913e+000	 5.666635443121194e-001	 1.511262941789548e+001
 1.037769919450915e+000	 5.772259906412114e-001	 1.489864634233877e+001
 1.031849509142480e+000	 5.877438561781515e-001	 1.465952760087135e+001
 1.025814172582418e+000	 5.982152901131506e-001	 1.439462411953680e+001
 1.019664401569026e+000	 6.086384461828867e-001	 1.410329502772156e+001
 1.013400726799272e+000	 6.190114836772115e-001	 1.378490853778649e+001
 1.007023717840120e+000	 6.293325684494390e-001	 1.360717321206251e+001
 1.000533983068724e+000	 6.395998739291278e-001	 1.364134517550531e+001
 9.939321695813217e-001	 6.498115821362470e-001	 1.365844705711781e+001
 9.416199501282946e-001	 6.156109725699284e-001	 1.328800654124059e+001
 9.352600702785360e-001	 6.252308381499884e-001	 1.270756229193709e+001
 9.287953462190436e-001	 6.347946162939269e-001	 1.255249927087317e+001
 9.222265002154001e-001	 6.443006148816257e-001	 1.238408126414397e+001
 9.155542905700362e-001	 6.537471537661873e-001	 1.220227922088276e+001
 9.087795113861474e-001	 6.631325657252033e-001	 1.200706923409604e+001
 9.019029923016771e-001	 6.724551974068604e-001	 1.179843255256527e+001
 8.949255981934933e-001	 6.817134102697883e-001	 1.157635559193292e+001
 8.878482288519077e-001	 6.909055815155590e-001	 1.134082994506268e+001
 8.806718186257476e-001	 7.000301050127549e-001	 1.109185239174755e+001
 8.733973360382255e-001	 7.090853922115186e-001	 1.082942490783580e+001
 9.468511720690975e-001	 6.190310335243222e-001	 1.322718397184071e+001
 9.404559595532983e-001	 6.287043428018621e-001	 1.279671499131311e+001
 9.339553203600166e-001	 6.383212530464377e-001	 1.262955096665348e+001
 9.273499807674216e-001	 6.478800627372647e-001	 1.245069499283251e+001
 9.206407032907363e-001	 6.573790823932959e-001	 1.226016882447326e+001
 9.138282864448398e-001	 6.668166355297760e-001	 1.205799795849423e+001
 9.069135644767764e-001	 6.761910596096044e-001	 1.184421158508786e+001
 8.998974070682846e-001	 6.855007069884023e-001	 1.161884253952081e+001
 8.927807190085131e-001	 6.947439458521963e-001	 1.138192725495834e+001
 8.855644398371140e-001	 7.039191611466157e-001	 1.113350571649571e+001
 8.782495434579856e-001	 7.130247554965262e-001	 1.087362141657205e+001
 9.520823940109001e-001	 6.224510944792135e-001	 1.316589329874116e+001
 9.456518488290553e-001	 6.321778474543276e-001	 1.288170620053997e+001
 9.391152945019694e-001	 6.418478897996260e-001	 1.270318386945738e+001
 9.324734613203983e-001	 6.514595105936566e-001	 1.251461784536011e+001
 9.257271160123571e-001	 6.610110110212227e-001	 1.231608030659958e+001
 9.188770615044084e-001	 6.705007053352224e-001	 1.210764577946717e+001
 9.119241366526967e-001	 6.799269218132672e-001	 1.188939102860832e+001
 9.048692159438324e-001	 6.892880037079711e-001	 1.166139494989109e+001
 8.977132091657991e-001	 6.985823101898135e-001	 1.142373846603994e+001
 8.904570610490766e-001	 7.078082172814715e-001	 1.117650442533014e+001
 8.831017508782469e-001	 7.169641187825340e-001	 1.091977750362260e+001
 9.573136159537028e-001	 6.258711554346018e-001	 1.314315914700355e+001
 9.508477381058079e-001	 6.356513521073859e-001	 1.296253943095310e+001
 9.442752686449026e-001	 6.453745265534923e-001	 1.277338868939634e+001
 9.375969418743309e-001	 6.550389584508017e-001	 1.257582801536306e+001
 9.308135287348980e-001	 6.646429396499677e-001	 1.236997963596881e+001
 9.239258365648523e-001	 6.741847751415425e-001	 1.215596673897454e+001
 9.169347088294378e-001	 6.836627840178492e-001	 1.193391330298798e+001
 9.098410248201366e-001	 6.930753004284944e-001	 1.170394393174600e+001
 9.026456993237667e-001	 7.024206745284103e-001	 1.146618369289929e+001
 8.953496822616354e-001	 7.116972734173219e-001	 1.122075796170185e+001
 8.879539582990095e-001	 7.209034820695417e-001	 1.096779226999319e+001
 9.625448378975056e-001	 6.292912163904878e-001	 1.323131699791438e+001
 9.560436273835552e-001	 6.391248567610366e-001	 1.303921769691540e+001
 9.494352427888162e-001	 6.489011633080362e-001	 1.284015591464703e+001
 9.427204224292185e-001	 6.586184063086995e-001	 1.263430374361392e+001
 9.358999414583593e-001	 6.682748682795313e-001	 1.242183309138544e+001
 9.289746116261721e-001	 6.778688449487365e-001	 1.220291544578232e+001
 9.219452810069999e-001	 6.873986462233505e-001	 1.197772164521216e+001
 9.148128336971965e-001	 6.968625971499719e-001	 1.174642165470499e+001
 9.075781894824152e-001	 7.062590388679869e-001	 1.150918434818239e+001
 9.002423034747907e-001	 7.155863295541679e-001	 1.126617729746991e+001
 8.928061657202737e-001	 7.248428453575495e-001	 1.101756656854465e+001
 9.677760598423083e-001	 6.327112773468708e-001	 1.331460372836918e+001
 9.612395166622975e-001	 6.425983614152796e-001	 1.311174352924903e+001
 9.545952169337097e-001	 6.524278000632577e-001	 1.290347581744918e+001
 9.478439029850617e-001	 6.621978541673504e-001	 1.269002331674817e+001
 9.409863541827417e-001	 6.719067969099132e-001	 1.247160725337031e+001
 9.340233866883679e-001	 6.815529147568041e-001	 1.224844706014329e+001
 9.269558531853828e-001	 6.911345084297705e-001	 1.202076008730587e+001
 9.197846425750128e-001	 7.006498938724042e-001	 1.178876132063125e+001
 9.125106796417454e-001	 7.100974032085433e-001	 1.155266310750701e+001
 9.051349246885422e-001	 7.194753856920082e-001	 1.131267489159227e+001
 8.976583731420392e-001	 7.287822086465570e-001	 1.106900295664562e+001
 9.730072817881109e-001	 6.361313383037514e-001	 1.339303365762878e+001
 9.664354059420349e-001	 6.460718660701151e-001	 1.318011898823415e+001
 9.597551910795834e-001	 6.559544368191568e-001	 1.296333845991042e+001
 9.529673835418598e-001	 6.657773020267543e-001	 1.274296506603078e+001
 9.460727669080443e-001	 6.755387255411135e-001	 1.251926899605033e+001
 9.390721617514390e-001	 6.852369845657456e-001	 1.229251727897257e+001
 9.319664253645867e-001	 6.948703706371099e-001	 1.206297343496225e+001
 9.247564514535847e-001	 7.044371905957908e-001	 1.183089713588310e+001
 9.174431698017569e-001	 7.139357675500796e-001	 1.159654387551119e+001
 9.100275459028900e-001	 7.233644418308437e-001	 1.136016465015110e+001
 9.025105805643059e-001	 7.327215719365647e-001	 1.112200565035241e+001
 9.782385037349136e-001	 6.395513992611293e-001	 1.346662038818499e+001
 9.716312952227671e-001	 6.495453707255431e-001	 1.324434567618961e+001
 9.649151652264374e-001	 6.594810735757335e-001	 1.301973369962506e+001
 9.580908640996135e-001	 6.693567498869112e-001	 1.279310736616328e+001
 9.511591796342680e-001	 6.791706541731321e-001	 1.256478547930755e+001
 9.441209368153863e-001	 6.889210543755608e-001	 1.233508232149783e+001
 9.369769975446117e-001	 6.986062328453686e-001	 1.210430724685537e+001
 9.297282603329133e-001	 7.082244873201320e-001	 1.187276428445605e+001
 9.223756599624491e-001	 7.177741318925953e-001	 1.164075175299227e+001
 9.149201671178341e-001	 7.272534979706741e-001	 1.140856188765858e+001
 9.073627879870737e-001	 7.366609352275724e-001	 1.117648048005920e+001
 9.834697256827164e-001	 6.429714602190044e-001	 1.353537682482291e+001
 9.768271845044948e-001	 6.530188753815636e-001	 1.330442474965346e+001
 9.700751393742714e-001	 6.630077103329880e-001	 1.307265119511281e+001
 9.632143446583230e-001	 6.729361977478212e-001	 1.284042863412839e+001
 9.562455923614116e-001	 6.828025828059692e-001	 1.260812414117985e+001
 9.491697118802089e-001	 6.926051241862496e-001	 1.237609891536860e+001
 9.419875697254575e-001	 7.023420950545465e-001	 1.214470781461504e+001
 9.347000692129976e-001	 7.120117840454276e-001	 1.191429890198142e+001
 9.273081501238227e-001	 7.216124962360909e-001	 1.168521300509388e+001
 9.198127883333748e-001	 7.311425541114994e-001	 1.145778328959964e+001
 9.122149954103432e-001	 7.406002985195800e-001	 1.123233484756320e+001
 9.887009476315192e-001	 6.463915211773771e-001	 1.359931519307947e+001
 9.820230737872172e-001	 6.564923800381763e-001	 1.336035693117548e+001
 9.752351135230857e-001	 6.665343470909202e-001	 1.312208041108585e+001
 9.683378252179871e-001	 6.765156456094839e-001	 1.288490732807156e+001
 9.613320050894758e-001	 6.864345114396243e-001	 1.264925269050163e+001
 9.542184869459076e-001	 6.962891939978122e-001	 1.241552428320551e+001
 9.469981419071242e-001	 7.060779572646432e-001	 1.218412214343572e+001
 9.396718780938381e-001	 7.157990807716778e-001	 1.195543805055147e+001
 9.322406402858777e-001	 7.254508605805664e-001	 1.172985503050351e+001
 9.247054095495116e-001	 7.350316102533199e-001	 1.150774687616181e+001
 9.170672028341140e-001	 7.445396618125878e-001	 1.128947768449344e+001
 9.939321695813217e-001	 6.498115821362470e-001	 1.365844705711781e+001
 9.872189630709348e-001	 6.599658846953815e-001	 1.341214252073842e+001
 9.803950876728801e-001	 6.700609838495298e-001	 1.316801062354854e+001
 9.734613057786070e-001	 6.800950934718996e-001	 1.292652194621751e+001
 9.664184178184607e-001	 6.900664400740980e-001	 1.268813909977836e+001
 9.592672620124820e-001	 6.999732638102487e-001	 1.245331612957491e+001
 9.520087140896119e-001	 7.098138194756594e-001	 1.222249793329899e+001
 9.446436869754348e-001	 7.195863774988823e-001	 1.199611969433813e+001
 9.371731304486138e-001	 7.292892249260216e-001	 1.177460633162160e+001
 9.295980307662448e-001	 7.389206663961353e-001	 1.155837196711233e+001
 9.219194102583861e-001	 7.484790251065955e-001	 1.134781941205197e+001
 8.733973360382255e-001	 7.090853922115186e-001	 1.082942490783580e+001
 8.660257833738934e-001	 7.180698730475822e-001	 1.053346716775187e+001
 8.585581962370394e-001	 7.269819968345425e-001	 1.024547262166136e+001
 8.509956430819292e-001	 7.358202331434069e-001	 9.965936267700549e+000
 8.433392247152693e-001	 7.445830726685337e-001	 9.695338990537113e+000
 8.355900737713932e-001	 7.532690280787702e-001	 9.434147024200458e+000
 8.277493541606786e-001	 7.618766348528402e-001	 9.182811439460894e+000
 8.198182604917543e-001	 7.704044520980049e-001	 8.941767656700391e+000
 8.117980174680912e-001	 7.788510633510380e-001	 8.711434985153938e+000
 8.036898792596121e-001	 7.872150773605848e-001	 8.492216189333581e+000
 7.954951288500000e-001	 7.954951288500001e-001	 8.284497083381387e+000
 8.782495434579856e-001	 7.130247554965262e-001	 1.087362141657205e+001
 8.708370377238307e-001	 7.220591501150905e-001	 1.058839804122636e+001
 8.633279639921974e-001	 7.310207857009904e-001	 1.031046102439745e+001
 8.557233966532085e-001	 7.399081233228497e-001	 1.004027333141117e+001
 8.480244426291633e-001	 7.487196452899958e-001	 9.778284371508935e+000
 8.402322408468077e-001	 7.574538560083253e-001	 9.524929495070104e+000
 8.323479616826882e-001	 7.661092828203318e-001	 9.280629514773935e+000
 8.243728063821482e-001	 7.746844768283180e-001	 9.045790251587764e+000
 8.163080064525669e-001	 7.831780136998172e-001	 8.820802106400144e+000
 8.081548230314776e-001	 7.915884944542995e-001	 8.606039658058752e+000
 7.999145462302499e-001	 7.999145462302499e-001	 8.401861288501882e+000
 8.831017508782469e-001	 7.169641187825340e-001	 1.091977750362260e+001
 8.756482920741792e-001	 7.260484271835939e-001	 1.064472136328434e+001
 8.680977317476963e-001	 7.350595745684181e-001	 1.037628619158919e+001
 8.604511502247788e-001	 7.439960135032474e-001	 1.011490320268430e+001
 8.527096605433181e-001	 7.528562179123783e-001	 9.860990604128039e+000
 8.448744079224727e-001	 7.616386839387550e-001	 9.614953128240124e+000
 8.369465692049583e-001	 7.703419307886440e-001	 9.377181586794126e+000
 8.289273522728323e-001	 7.789645015593865e-001	 9.148052449878774e+000
 8.208179954373823e-001	 7.875049640492758e-001	 8.927927449693794e+000
 8.126197668037529e-001	 7.959619115486092e-001	 8.717153209979699e+000
 8.043339636110000e-001	 8.043339636110000e-001	 8.516060901720620e+000
 8.879539582990095e-001	 7.209034820695417e-001	 1.096779226999319e+001
 8.804595464249390e-001	 7.300377042530923e-001	 1.070234530394184e+001
 8.728674995035365e-001	 7.390983634368259e-001	 1.044286522028943e+001
 8.651789037966401e-001	 7.480839036846005e-001	 1.018975175913725e+001
 8.573948784577332e-001	 7.569927905356805e-001	 9.943392195685387e+000
 8.495165749983878e-001	 7.658235118700600e-001	 9.704160905450824e+000
 8.415451767274883e-001	 7.745745787577759e-001	 9.472418952240744e+000
 8.334818981638067e-001	 7.832445262912099e-001	 9.248513699649049e+000
 8.253279844225382e-001	 7.918319143994148e-001	 9.032778446785665e+000
 8.170847105764377e-001	 8.003353286435135e-001	 8.825532088884087e+000
 8.087533809922498e-001	 8.087533809922497e-001	 8.627078803370219e+000
 8.928061657202737e-001	 7.248428453575495e-001	 1.101756656854465e+001
 8.852708007761095e-001	 7.340269813235854e-001	 1.076117958677037e+001
 8.776372672597181e-001	 7.431371523062138e-001	 1.051011656613333e+001
 8.699066573687920e-001	 7.521717938669085e-001	 1.026474604542264e+001
 8.620800963724092e-001	 7.611293631599025e-001	 1.002542463248333e+001
 8.541587420745539e-001	 7.700083398022404e-001	 9.792496603046688e+000
 8.461437842502789e-001	 7.788072267277281e-001	 9.566293521739395e+000
 8.380364440550711e-001	 7.875245510237882e-001	 9.347133885979954e+000
 8.298379734080340e-001	 7.961588647502337e-001	 9.135322793418595e+000
 8.215496543495332e-001	 8.047087457390131e-001	 8.931151633508886e+000
 8.131727983740000e-001	 8.131727983740000e-001	 8.734897803742653e+000
 8.976583731420392e-001	 7.287822086465570e-001	 1.106900295664562e+001
 8.900820551276919e-001	 7.380162583950737e-001	 1.082113544690827e+001
 8.824070350162405e-001	 7.471759411765815e-001	 1.057796000662019e+001
 8.746344109412352e-001	 7.562596840501715e-001	 1.033981424168809e+001
 8.667653142873460e-001	 7.652659357850452e-001	 1.010702435337649e+001
 8.588009091509703e-001	 7.741931677352957e-001	 9.879904770500929e+000
 8.507423917733300e-001	 7.830398746985002e-001	 9.658757803229049e+000
 8.425909899466259e-001	 7.918045757571218e-001	 9.443873319147638e+000
 8.343479623938698e-001	 8.004858151017327e-001	 9.235528442191919e+000
 8.260145981230385e-001	 8.090821628351077e-001	 9.033987274973475e+000
 8.175922157562500e-001	 8.175922157562500e-001	 8.839500644982858e+000
 9.025105805643059e-001	 7.327215719365647e-001	 1.112200565035241e+001
 8.948933094796857e-001	 7.420055354675574e-001	 1.088212559042738e+001
 8.871768027731043e-001	 7.512147300479295e-001	 1.064631660557941e+001
 8.793621645139694e-001	 7.603475742343897e-001	 1.041488563305097e+001
 8.714505322025435e-001	 7.694025084111077e-001	 1.018812872416525e+001
 8.634430762276374e-001	 7.783779956692259e-001	 9.966330709632175e+000
 8.553409992966411e-001	 7.872725226700923e-001	 9.749764885905565e+000
 8.471455358384706e-001	 7.960846004912100e-001	 9.538692723192979e+000
 8.388579513800456e-001	 8.048127654539117e-001	 9.333363595657477e+000
 8.304795418969538e-001	 8.134555799317974e-001	 9.134014534296782e+000
 8.220116331390002e-001	 8.220116331390002e-001	 8.940870002920162e+000
 9.073627879870737e-001	 7.366609352275724e-001	 1.117648048005920e+001
 8.997045638320905e-001	 7.459948125410355e-001	 1.094406415500323e+001
 8.919465705303090e-001	 7.552535189202575e-001	 1.071510867877635e+001
 8.840899180869942e-001	 7.644354644195627e-001	 1.048989058005496e+001
 8.761357501180016e-001	 7.735390810380904e-001	 1.026867601281119e+001
 8.680852433045548e-001	 7.825628236040313e-001	 1.005172045448845e+001
 8.599396068202123e-001	 7.915051706425047e-001	 9.839268424680133e+000
 8.517000817306057e-001	 8.003646252260538e-001	 9.631553224858315e+000
 8.433679403665617e-001	 8.091397158067707e-001	 9.428796699635626e+000
 8.349444856712791e-001	 8.178289970290819e-001	 9.231209019993143e+000
 8.264310505222500e-001	 8.264310505222500e-001	 9.038988488841662e+000
 9.122149954103432e-001	 7.406002985195800e-001	 1.123233484756320e+001
 9.045158181849066e-001	 7.499840896155089e-001	 1.100686667184067e+001
 8.967163382878550e-001	 7.592923077935655e-001	 1.078425976061653e+001
 8.888176716603102e-001	 7.685233546056910e-001	 1.056476049006726e+001
 8.808209680337206e-001	 7.776756536659931e-001	 1.034860536544319e+001
 8.727274103817229e-001	 7.867476515397118e-001	 1.013602075187288e+001
 8.645382143440443e-001	 7.957378186157370e-001	 9.927222625133501e+000
 8.562546276230307e-001	 8.046446499616522e-001	 9.722416342877461e+000
 8.478779293534179e-001	 8.134666661603101e-001	 9.521796436745767e+000
 8.394094294460145e-001	 8.222024141269616e-001	 9.325546425745545e+000
 8.308504679059999e-001	 8.308504679059999e-001	 9.133838651208723e+000
 9.170672028341140e-001	 7.445396618125878e-001	 1.128947768449344e+001
 9.093270725381338e-001	 7.539733666909774e-001	 1.107045002880774e+001
 9.014861060457420e-001	 7.633310966678536e-001	 1.085369457190615e+001
 8.935454252339170e-001	 7.726112447927742e-001	 1.063942778958540e+001
 8.855061859497002e-001	 7.818122262948158e-001	 1.042785678312580e+001
 8.773695774591411e-001	 7.909324794762673e-001	 1.021917904248804e+001
 8.691368218681366e-001	 7.999704665897894e-001	 1.001358222894801e+001
 8.608091735157462e-001	 8.089246746980059e-001	 9.811243977605423e+000
 8.523879183406142e-001	 8.177936165145293e-001	 9.612331720141690e+000
 8.438743732211599e-001	 8.265758312254364e-001	 9.417002528152334e+000
 8.352698852902500e-001	 8.352698852902502e-001	 9.225402977319250e+000
 9.219194102583861e-001	 7.484790251065955e-001	 1.134781941205197e+001
 9.141383268917726e-001	 7.579626437674406e-001	 1.113473243473423e+001
 9.062558738039700e-001	 7.673698855431216e-001	 1.092333898863143e+001
 8.982731788078147e-001	 7.766991349808127e-001	 1.071382589741803e+001
 8.901914038659405e-001	 7.859487989245586e-001	 1.050637109936098e+001
 8.820117445368102e-001	 7.951173074136981e-001	 1.030114344267503e+001
 8.737354293924891e-001	 8.042031145646619e-001	 1.009830249979995e+001
 8.653637194087517e-001	 8.132046994351148e-001	 9.897998400975903e+000
 8.568979073281503e-001	 8.221205668694281e-001	 9.700371687444832e+000
 8.483393169967154e-001	 8.309492483245061e-001	 9.505553184545441e+000
 8.396893026750001e-001	 8.396893026750000e-001	 9.313663894916838e+000
 7.954951288500000e-001	 7.954951288500001e-001	 8.284497083381387e+000
 7.872150773605848e-001	 8.036898792596122e-001	 8.055062682604635e+000
 7.788510633510382e-001	 8.117980174680909e-001	 7.825119131746688e+000
 7.704044520980049e-001	 8.198182604917542e-001	 7.594836883992326e+000
 7.618766348528402e-001	 8.277493541606785e-001	 7.364380829628960e+000
 7.532690280787701e-001	 8.355900737713932e-001	 7.133910192720212e+000
 7.445830726685337e-001	 8.433392247152695e-001	 6.903578441191087e+000
 7.358202331434069e-001	 8.509956430819292e-001	 6.673533210346735e+000
 7.269819968345423e-001	 8.585581962370394e-001	 6.443916239805446e+000
 7.180698730475822e-001	 8.660257833738934e-001	 6.214863323791226e+000
 7.090853922115185e-001	 8.733973360382255e-001	 5.986504274689425e+000
 7.999145462302499e-001	 7.999145462302499e-001	 8.401861288501882e+000
 7.915884944542994e-001	 8.081548230314773e-001	 8.172679803231135e+000
 7.831780136998171e-001	 8.163080064525666e-001	 7.943372512695575e+000
 7.746844768283180e-001	 8.243728063821482e-001	 7.714104449966344e+000
 7.661092828203318e-001	 8.323479616826881e-001	 7.485034670133621e+000
 7.574538560083252e-001	 8.402322408468076e-001	 7.256316154309363e+000
 7.487196452899959e-001	 8.480244426291634e-001	 7.028095727665876e+000
 7.399081233228496e-001	 8.557233966532084e-001	 6.800513991511872e+000
 7.310207857009903e-001	 8.633279639921975e-001	 6.573705269373433e+000
 7.220591501150906e-001	 8.708370377238307e-001	 6.347797567003965e+000
 7.130247554965262e-001	 8.782495434579856e-001	 6.122912546206511e+000
 8.043339636110000e-001	 8.043339636110000e-001	 8.516060901720620e+000
 7.959619115486092e-001	 8.126197668037528e-001	 8.287058869107616e+000
 7.875049640492757e-001	 8.208179954373822e-001	 8.058313455097279e+000
 7.789645015593865e-001	 8.289273522728324e-001	 7.829984298261027e+000
 7.703419307886440e-001	 8.369465692049583e-001	 7.602224643797924e+000
 7.616386839387549e-001	 8.448744079224727e-001	 7.375181254857364e+000
 7.528562179123782e-001	 8.527096605433180e-001	 7.148994338519081e+000
 7.439960135032475e-001	 8.604511502247788e-001	 6.923797486420254e+000
 7.350595745684180e-001	 8.680977317476964e-001	 6.699717629976967e+000
 7.260484271835939e-001	 8.756482920741793e-001	 6.476875010105180e+000
 7.169641187825341e-001	 8.831017508782471e-001	 6.255383161308137e+000
 8.087533809922498e-001	 8.087533809922497e-001	 8.627078803370219e+000
 8.003353286435134e-001	 8.170847105764377e-001	 8.398184192680192e+000
 7.918319143994148e-001	 8.253279844225381e-001	 8.169927763234304e+000
 7.832445262912096e-001	 8.334818981638066e-001	 7.942463783925168e+000
 7.745745787577759e-001	 8.415451767274883e-001	 7.715939714533189e+000
 7.658235118700603e-001	 8.495165749983881e-001	 7.490496124357916e+000
 7.569927905356805e-001	 8.573948784577332e-001	 7.266266626131009e+000
 7.480839036846005e-001	 8.651789037966401e-001	 7.043377825187051e+000
 7.390983634368258e-001	 8.728674995035369e-001	 6.821949283818430e+000
 7.300377042530923e-001	 8.804595464249390e-001	 6.602093500706175e+000
 7.209034820695415e-001	 8.879539582990095e-001	 6.383915905266234e+000
 8.131727983740000e-001	 8.131727983740000e-001	 8.734897803742653e+000
 8.047087457390131e-001	 8.215496543495331e-001	 8.506039986481680e+000
 7.961588647502339e-001	 8.298379734080338e-001	 8.278201110539300e+000
 7.875245510237880e-001	 8.380364440550712e-001	 8.051530099173808e+000
 7.788072267277281e-001	 8.461437842502790e-001	 7.826168650401259e+000
 7.700083398022405e-001	 8.541587420745541e-001	 7.602251162924101e+000
 7.611293631599027e-001	 8.620800963724092e-001	 7.379904677971398e+000
 7.521717938669087e-001	 8.699066573687925e-001	 7.159248837005199e+000
 7.431371523062136e-001	 8.776372672597180e-001	 6.940395855205977e+000
 7.340269813235854e-001	 8.852708007761095e-001	 6.723450510607431e+000
 7.248428453575495e-001	 8.928061657202737e-001	 6.508510148702617e+000
 8.175922157562500e-001	 8.175922157562500e-001	 8.839500644982858e+000
 8.090821628351076e-001	 8.260145981230386e-001	 8.610610365831574e+000
 8.004858151017328e-001	 8.343479623938698e-001	 8.383119043131552e+000
 7.918045757571214e-001	 8.425909899466256e-001	 8.157170277789481e+000
 7.830398746985001e-001	 8.507423917733299e-001	 7.932900028906929e+000
 7.741931677352957e-001	 8.588009091509704e-001	 7.710436547000260e+000
 7.652659357850452e-001	 8.667653142873460e-001	 7.489900323758138e+000
 7.562596840501715e-001	 8.746344109412352e-001	 7.271404058279665e+000
 7.471759411765816e-001	 8.824070350162407e-001	 7.055052639685831e+000
 7.380162583950738e-001	 8.900820551276919e-001	 6.840943145956431e+000
 7.287822086465571e-001	 8.976583731420392e-001	 6.629164858795897e+000
 8.220116331390002e-001	 8.220116331390002e-001	 8.940870002920162e+000
 8.134555799317974e-001	 8.304795418969537e-001	 8.711879351449815e+000
 8.048127654539119e-001	 8.388579513800457e-001	 8.484666983240125e+000
 7.960846004912102e-001	 8.471455358384707e-001	 8.259371199380748e+000
 7.872725226700923e-001	 8.553409992966411e-001	 8.036122242121715e+000
 7.783779956692259e-001	 8.634430762276373e-001	 7.815042235375421e+000
 7.694025084111077e-001	 8.714505322025435e-001	 7.596245142386904e+000
 7.603475742343895e-001	 8.793621645139691e-001	 7.379836740497118e+000
 7.512147300479295e-001	 8.871768027731044e-001	 7.165914612879457e+000
 7.420055354675572e-001	 8.948933094796857e-001	 6.954568157076643e+000
 7.327215719365648e-001	 9.025105805643060e-001	 6.745878610126140e+000
 8.264310505222500e-001	 8.264310505222500e-001	 9.038988488841662e+000
 8.178289970290819e-001	 8.349444856712791e-001	 8.809830871985533e+000
 8.091397158067710e-001	 8.433679403665618e-001	 8.582830232515381e+000
 8.003646252260536e-001	 8.517000817306057e-001	 8.358119593504361e+000
 7.915051706425048e-001	 8.599396068202125e-001	 8.135823501640465e+000
 7.825628236040313e-001	 8.680852433045548e-001	 7.916057975002480e+000
 7.735390810380904e-001	 8.761357501180017e-001	 7.698930468636924e+000
 7.644354644195627e-001	 8.840899180869940e-001	 7.484539857844694e+000
 7.552535189202575e-001	 8.919465705303090e-001	 7.272976439038515e+000
 7.459948125410356e-001	 8.997045638320905e-001	 7.064321947981523e+000
 7.366609352275723e-001	 9.073627879870737e-001	 6.858649595172689e+000
 8.308504679059999e-001	 8.308504679059999e-001	 9.133838651208723e+000
 8.222024141269616e-001	 8.394094294460145e-001	 8.904448766466460e+000
 8.134666661603099e-001	 8.478779293534179e-001	 8.677593975236471e+000
 8.046446499616522e-001	 8.562546276230307e-001	 8.453402043656704e+000
 7.957378186157370e-001	 8.645382143440443e-001	 8.231991843382833e+000
 7.867476515397119e-001	 8.727274103817229e-001	 8.013473306632443e+000
 7.776756536659931e-001	 8.808209680337205e-001	 7.797947399664104e+000
 7.685233546056911e-001	 8.888176716603099e-001	 7.585506114584511e+000
 7.592923077935656e-001	 8.967163382878550e-001	 7.376232479325398e+000
 7.499840896155089e-001	 9.045158181849066e-001	 7.170200585585104e+000
 7.406002985195800e-001	 9.122149954103430e-001	 6.967475634476267e+000
 8.352698852902500e-001	 8.352698852902502e-001	 9.225402977319250e+000
 8.265758312254363e-001	 8.438743732211599e-001	 8.995716786669199e+000
 8.177936165145290e-001	 8.523879183406140e-001	 8.768943281416160e+000
 8.089246746980059e-001	 8.608091735157462e-001	 8.545204991136989e+000
 7.999704665897894e-001	 8.691368218681363e-001	 8.324615132239497e+000
 7.909324794762674e-001	 8.773695774591411e-001	 8.107277570269174e+000
 7.818122262948158e-001	 8.855061859497002e-001	 7.893286801287026e+000
 7.726112447927744e-001	 8.935454252339169e-001	 7.682727952194917e+000
 7.633310966678534e-001	 9.014861060457420e-001	 7.475676799831722e+000
 7.539733666909774e-001	 9.093270725381338e-001	 7.272199808619748e+000
 7.445396618125878e-001	 9.170672028341140e-001	 7.072354186478631e+000
 8.396893026750001e-001	 8.396893026750000e-001	 9.313663894916838e+000
 8.309492483245060e-001	 8.483393169967154e-001	 9.083618599415887e+000
 8.221205668694283e-001	 8.568979073281501e-001	 8.856863109808277e+000
 8.132046994351146e-001	 8.653637194087517e-001	 8.633514738789994e+000
 8.042031145646621e-001	 8.737354293924891e-001	 8.413681066573396e+000
 7.951173074136980e-001	 8.820117445368101e-001	 8.197459910452331e+000
 7.859487989245586e-001	 8.901914038659405e-001	 7.984939314075038e+000
 7.766991349808127e-001	 8.982731788078144e-001	 7.776197556285531e+000
 7.673698855431214e-001	 9.062558738039700e-001	 7.571303179343132e+000
 7.579626437674406e-001	 9.141383268917723e-001	 7.370315036272674e+000
 7.484790251065955e-001	 9.219194102583862e-001	 7.173282357051408e+000
 7.090853922115185e-001	 8.733973360382255e-001	 5.986504274689425e+000
 7.000301050127548e-001	 8.806718186257475e-001	 5.767487989719714e+000
 6.909055815155590e-001	 8.878482288519077e-001	 5.556852899777775e+000
 6.817134102697880e-001	 8.949255981934932e-001	 5.354655939782052e+000
 6.724551974068604e-001	 9.019029923016770e-001	 5.160941146556596e+000
 6.631325657252033e-001	 9.087795113861473e-001	 4.975739780474476e+000
 6.537471537661874e-001	 9.155542905700363e-001	 4.799070467628944e+000
 6.443006148816257e-001	 9.222265002153998e-001	 4.630939361974747e+000
 6.347946162939268e-001	 9.287953462190436e-001	 4.471340326838374e+000
 6.252308381499885e-001	 9.352600702785361e-001	 4.320255135155424e+000
 6.156109725699284e-001	 9.416199501282946e-001	 4.097754708836794e+000
 7.130247554965262e-001	 8.782495434579856e-001	 6.122912546206511e+000
 7.039191611466157e-001	 8.855644398371140e-001	 5.906533934943204e+000
 6.947439458521963e-001	 8.927807190085129e-001	 5.697698700145672e+000
 6.855007069884023e-001	 8.998974070682848e-001	 5.496453993924930e+000
 6.761910596096042e-001	 9.069135644767763e-001	 5.302834836027026e+000
 6.668166355297760e-001	 9.138282864448399e-001	 5.116864243199601e+000
 6.573790823932958e-001	 9.206407032907362e-001	 4.938553378090331e+000
 6.478800627372648e-001	 9.273499807674215e-001	 4.767901717109033e+000
 6.383212530464376e-001	 9.339553203600168e-001	 4.604897236651066e+000
 6.287043428018619e-001	 9.404559595532985e-001	 4.449516617032660e+000
 6.190310335243221e-001	 9.468511720690973e-001	 4.251294607976520e+000
 7.169641187825341e-001	 8.831017508782471e-001	 6.255383161308137e+000
 7.078082172814715e-001	 8.904570610490767e-001	 6.041498489547008e+000
 6.985823101898134e-001	 8.977132091657989e-001	 5.834331355837131e+000
 6.892880037079711e-001	 9.048692159438325e-001	 5.633919152117519e+000
 6.799269218132671e-001	 9.119241366526966e-001	 5.440287895241571e+000
 6.705007053352224e-001	 9.188770615044083e-001	 5.253452364108848e+000
 6.610110110212228e-001	 9.257271160123574e-001	 5.073416255339538e+000
 6.514595105936569e-001	 9.324734613203984e-001	 4.900172356923987e+000
 6.418478897996260e-001	 9.391152945019695e-001	 4.733702739229491e+000
 6.321778474543277e-001	 9.456518488290554e-001	 4.573978962715646e+000
 6.224510944792135e-001	 9.520823940109001e-001	 4.399590046531285e+000
 7.209034820695415e-001	 8.879539582990095e-001	 6.383915905266234e+000
 7.116972734173219e-001	 8.953496822616354e-001	 6.172384446885827e+000
 7.024206745284103e-001	 9.026456993237664e-001	 5.966756510761516e+000
 6.930753004284942e-001	 9.098410248201365e-001	 5.767059750118318e+000
 6.836627840178490e-001	 9.169347088294376e-001	 5.573311192026324e+000
 6.741847751415425e-001	 9.239258365648523e-001	 5.385517382337289e+000
 6.646429396499676e-001	 9.308135287348979e-001	 5.203674548191847e+000
 6.550389584508018e-001	 9.375969418743307e-001	 5.027768777514904e+000
 6.453745265534923e-001	 9.442752686449029e-001	 4.857776214882044e+000
 6.356513521073858e-001	 9.508477381058078e-001	 4.693663273096012e+000
 6.258711554346018e-001	 9.573136159537028e-001	 4.535386859789814e+000
 7.248428453575495e-001	 8.928061657202737e-001	 6.508510148702617e+000
 7.155863295541678e-001	 9.002423034747908e-001	 6.299194123761883e+000
 7.062590388679869e-001	 9.075781894824152e-001	 6.094979274003072e+000
 6.968625971499719e-001	 9.148128336971965e-001	 5.895883534237647e+000
 6.873986462233505e-001	 9.219452810069998e-001	 5.701914953803660e+000
 6.778688449487366e-001	 9.289746116261721e-001	 5.513071849348055e+000
 6.682748682795313e-001	 9.358999414583595e-001	 5.329342974219495e+000
 6.586184063086998e-001	 9.427204224292186e-001	 5.150707703874411e+000
 6.489011633080360e-001	 9.494352427888163e-001	 4.977136236674087e+000
 6.391248567610365e-001	 9.560436273835549e-001	 4.808589809408731e+000
 6.292912163904876e-001	 9.625448378975056e-001	 4.645020926857379e+000
 7.287822086465571e-001	 8.976583731420392e-001	 6.629164858795897e+000
 7.194753856920082e-001	 9.051349246885422e-001	 6.421929373305894e+000
 7.100974032085433e-001	 9.125106796417453e-001	 6.219004234275418e+000
 7.006498938724040e-001	 9.197846425750126e-001	 6.020397677268562e+000
 6.911345084297705e-001	 9.269558531853828e-001	 5.826108784901199e+000
 6.815529147568041e-001	 9.340233866883679e-001	 5.636127647516807e+000
 6.719067969099132e-001	 9.409863541827416e-001	 5.450435539514369e+000
 6.621978541673504e-001	 9.478439029850614e-001	 5.269005110731644e+000
 6.524278000632576e-001	 9.545952169337099e-001	 5.091800592245355e+000
 6.425983614152797e-001	 9.612395166622975e-001	 4.918778015926096e+000
 6.327112773468708e-001	 9.677760598423083e-001	 4.749885447048511e+000
 7.327215719365648e-001	 9.025105805643060e-001	 6.745878610126140e+000
 7.233644418308437e-001	 9.100275459028900e-001	 6.540591597440209e+000
 7.139357675500795e-001	 9.174431698017567e-001	 6.338835473910876e+000
 7.044371905957908e-001	 9.247564514535849e-001	 6.140608793903301e+000
 6.948703706371100e-001	 9.319664253645867e-001	 5.945901683301877e+000
 6.852369845657457e-001	 9.390721617514392e-001	 5.754696008118365e+000
 6.755387255411136e-001	 9.460727669080445e-001	 5.566965557814537e+000
 6.657773020267543e-001	 9.529673835418598e-001	 5.382676242722157e+000
 6.559544368191569e-001	 9.597551910795835e-001	 5.201786304923677e+000
 6.460718660701152e-001	 9.664354059420348e-001	 5.024246541918859e+000
 6.361313383037514e-001	 9.730072817881109e-001	 4.850000542380909e+000
 7.366609352275723e-001	 9.073627879870737e-001	 6.858649595172689e+000
 7.272534979706741e-001	 9.149201671178341e-001	 6.655181758944251e+000
 7.177741318925953e-001	 9.223756599624491e-001	 6.454476582399142e+000
 7.082244873201319e-001	 9.297282603329131e-001	 6.256522955657240e+000
 6.986062328453687e-001	 9.369769975446116e-001	 6.061302056855356e+000
 6.889210543755607e-001	 9.441209368153863e-001	 5.868787528736087e+000
 6.791706541731322e-001	 9.511591796342680e-001	 5.678945669015667e+000
 6.693567498869113e-001	 9.580908640996134e-001	 5.491735633908526e+000
 6.594810735757334e-001	 9.649151652264376e-001	 5.307109654160399e+000
 6.495453707255431e-001	 9.716312952227671e-001	 5.125013262913243e+000
 6.395513992611293e-001	 9.782385037349136e-001	 4.945385534697221e+000
 7.406002985195800e-001	 9.122149954103430e-001	 6.967475634476267e+000
 7.311425541114996e-001	 9.198127883333749e-001	 6.765700393133103e+000
 7.216124962360911e-001	 9.273081501238226e-001	 6.565930669495150e+000
 7.120117840454275e-001	 9.347000692129976e-001	 6.368145705313333e+000
 7.023420950545463e-001	 9.419875697254575e-001	 6.172317738973988e+000
 6.926051241862496e-001	 9.491697118802090e-001	 5.978412190114786e+000
 6.828025828059692e-001	 9.562455923614116e-001	 5.786387857092632e+000
 6.729361977478212e-001	 9.632143446583226e-001	 5.596197126677873e+000
 6.630077103329880e-001	 9.700751393742716e-001	 5.407786195315167e+000
 6.530188753815636e-001	 9.768271845044948e-001	 5.221095301268677e+000
 6.429714602190044e-001	 9.834697256827164e-001	 5.036058966945493e+000
 7.445396618125878e-001	 9.170672028341140e-001	 7.072354186478631e+000
 7.350316102533200e-001	 9.247054095495116e-001	 6.872147619166228e+000
 7.254508605805664e-001	 9.322406402858775e-001	 6.673200377911030e+000
 7.157990807716775e-001	 9.396718780938382e-001	 6.475482070910995e+000
 7.060779572646432e-001	 9.469981419071242e-001	 6.278956003829324e+000
 6.962891939978124e-001	 9.542184869459077e-001	 6.083579372479598e+000
 6.864345114396243e-001	 9.613320050894759e-001	 5.889303467452180e+000
 6.765156456094841e-001	 9.683378252179873e-001	 5.696073890041838e+000
 6.665343470909200e-001	 9.752351135230858e-001	 5.503830778811608e+000
 6.564923800381765e-001	 9.820230737872172e-001	 5.312509046103564e+000
 6.463915211773771e-001	 9.887009476315192e-001	 5.122038623786078e+000
 7.484790251065955e-001	 9.219194102583862e-001	 7.173282357051408e+000
 7.389206663961351e-001	 9.295980307662447e-001	 6.974523150999503e+000
 7.292892249260216e-001	 9.371731304486137e-001	 6.776287895605648e+000
 7.195863774988822e-001	 9.446436869754348e-001	 6.578536579291589e+000
 7.098138194756593e-001	 9.520087140896119e-001	 6.381223581068620e+000
 6.999732638102486e-001	 9.592672620124818e-001	 6.184297871339166e+000
 6.900664400740980e-001	 9.664184178184608e-001	 5.987703223736894e+000
 6.800950934718997e-001	 9.734613057786069e-001	 5.791378437355081e+000
 6.700609838495297e-001	 9.803950876728802e-001	 5.595257568687685e+000
 6.599658846953815e-001	 9.872189630709348e-001	 5.399270172590524e+000
 6.498115821362469e-001	 9.939321695813217e-001	 5.203341551545609e+000
 6.156109725699284e-001	 9.416199501282946e-001	 4.097754708836794e+000
 6.059367226917077e-001	 9.478742997458385e-001	 3.912288371572123e+000
 5.962098017128383e-001	 9.540224695276989e-001	 3.732386422919670e+000
 5.864319319301918e-001	 9.600638464353356e-001	 3.557635734950993e+000
 5.766048437789245e-001	 9.659978541114410e-001	 3.387621559783548e+000
 5.667302748716870e-001	 9.718239529662601e-001	 3.221928576285704e+000
 5.568099690391477e-001	 9.775416402342402e-001	 3.060141924320788e+000
 5.468456753728754e-001	 9.831504500012031e-001	 2.901848224009394e+000
 5.368391472716190e-001	 9.886499532022749e-001	 2.746636577563525e+000
 5.267921414919999e-001	 9.940397575908523e-001	 2.594099551340352e+000
 5.167064172046177e-001	 9.993195076789155e-001	 2.443834135851755e+000
 6.190310335243221e-001	 9.468511720690973e-001	 4.251294607976520e+000
 6.093030378136390e-001	 9.531402680736271e-001	 4.060599107156416e+000
 5.995220783850696e-001	 9.593225943544411e-001	 3.875961332369209e+000
 5.896898871038008e-001	 9.653975344672294e-001	 3.696953731648331e+000
 5.798082040185189e-001	 9.713645088526995e-001	 3.523146736789944e+000
 5.698787763952772e-001	 9.772229749233760e-001	 3.354109839113219e+000
 5.599033577526926e-001	 9.829724271205640e-001	 3.189412652931763e+000
 5.498837068995094e-001	 9.886123969416742e-001	 3.028625964141670e+000
 5.398215869755806e-001	 9.941424529381389e-001	 2.871322761421983e+000
 5.297187644972863e-001	 9.995622006842067e-001	 2.717079247627068e+000
 5.195770084083967e-001	 1.004871282716925e+000	 2.565475829043714e+000
 6.224510944792135e-001	 9.520823940109001e-001	 4.399590046531285e+000
 6.126693529359726e-001	 9.584062364024157e-001	 4.203748219478121e+000
 6.028343550576178e-001	 9.646227191821829e-001	 4.014453731954834e+000
 5.929478422776526e-001	 9.707312225001229e-001	 3.831264439232733e+000
 5.830115642582914e-001	 9.767311635949579e-001	 3.653735787341052e+000
 5.730272779189911e-001	 9.826219968814918e-001	 3.481421918142190e+000
 5.629967464663165e-001	 9.884032140078886e-001	 3.313876762277318e+000
 5.529217384261878e-001	 9.940743438831456e-001	 3.150655117325467e+000
 5.428040266795616e-001	 9.996349526750026e-001	 2.991313708603154e+000
 5.326453875025778e-001	 1.005084643778561e+000	 2.835412230120248e+000
 5.224475996121755e-001	 1.010423057755935e+000	 2.682514363301826e+000
 6.258711554346018e-001	 9.573136159537028e-001	 4.535386859789814e+000
 6.160356680587085e-001	 9.636722047322043e-001	 4.341729224646602e+000
 6.061466317304838e-001	 9.699228440109251e-001	 4.147858706464001e+000
 5.962057974517477e-001	 9.760649105340168e-001	 3.960564602362236e+000
 5.862149244982421e-001	 9.820978183382166e-001	 3.779387205256832e+000
 5.761757794428282e-001	 9.880210188406071e-001	 3.603865143697586e+000
 5.660901351800194e-001	 9.938340008962124e-001	 3.433536504542185e+000
 5.559597699529105e-001	 9.995362908256167e-001	 3.267939940930703e+000
 5.457864663835623e-001	 1.005127452412867e+000	 3.106615762920865e+000
 5.355720105078738e-001	 1.010607086873915e+000	 2.949107008235116e+000
 5.253181908159545e-001	 1.015974832795945e+000	 2.794960490667448e+000
 6.292912163904876e-001	 9.625448378975056e-001	 4.645020926857379e+000
 6.194019831818468e-001	 9.689381730629930e-001	 4.474534763056249e+000
 6.094589084036676e-001	 9.752229688406672e-001	 4.276170455785217e+000
 5.994637526260853e-001	 9.813985985689105e-001	 4.084850069817144e+000
 5.894182847383708e-001	 9.874644730824749e-001	 3.900098575717376e+000
 5.793242809667893e-001	 9.934200408007233e-001	 3.721438922932739e+000
 5.691835238938013e-001	 9.992647877855364e-001	 3.548393192450490e+000
 5.589978014796774e-001	 1.004998237769088e+000	 3.380483734834082e+000
 5.487689060875829e-001	 1.010619952151730e+000	 3.217234290935620e+000
 5.384986335131750e-001	 1.016129529970270e+000	 3.058171092664029e+000
 5.281887820197334e-001	 1.021526607836955e+000	 2.902823941298377e+000
 6.327112773468708e-001	 9.677760598423083e-001	 4.749885447048511e+000
 6.227682983053876e-001	 9.742041413947813e-001	 4.602156623052804e+000
 6.127711850771688e-001	 9.805230936714091e-001	 4.399382318823613e+000
 6.027217078006657e-001	 9.867322866048039e-001	 4.204115818713953e+000
 5.926216449786779e-001	 9.928311278277332e-001	 4.015866599821893e+000
 5.824727824908739e-001	 9.988190627618393e-001	 3.834141764780361e+000
 5.722769126076621e-001	 1.004695574675860e+000	 3.658447224655252e+000
 5.620358330064889e-001	 1.010460184713559e+000	 3.488288867296790e+000
 5.517513457916231e-001	 1.016112451891594e+000	 3.323173708367747e+000
 5.414252565184811e-001	 1.021651973067624e+000	 3.162611022370445e+000
 5.310593732235124e-001	 1.027078382878964e+000	 3.006113451087755e+000
 6.361313383037514e-001	 9.730072817881109e-001	 4.850000542380909e+000
 6.261346134293306e-001	 9.794701097275700e-001	 4.715451255872896e+000
 6.160834617509878e-001	 9.858232185031515e-001	 4.517486796646746e+000
 6.059796629754892e-001	 9.920659746416976e-001	 4.318355977935735e+000
 5.958250052191632e-001	 9.981977825739917e-001	 4.126687118354067e+000
 5.856212840150820e-001	 1.004218084723955e+000	 3.941971304097353e+000
 5.753703013216021e-001	 1.010126361567185e+000	 3.763698110311176e+000
 5.650738645333446e-001	 1.015922131659030e+000	 3.591356800007396e+000
 5.547337854956829e-001	 1.021604951632458e+000	 3.424437505657599e+000
 5.443518795237921e-001	 1.027174416165979e+000	 3.262432390710188e+000
 5.339299644272912e-001	 1.032630157921974e+000	 3.104836788390656e+000
 6.395513992611293e-001	 9.782385037349136e-001	 4.945385534697221e+000
 6.295009285536763e-001	 9.847360780613587e-001	 4.805915532944008e+000
 6.193957384251241e-001	 9.911233433358933e-001	 4.630475574885653e+000
 6.092376181505556e-001	 9.973996626795914e-001	 4.427563850813821e+000
 5.990283654598269e-001	 1.003564437321250e+000	 4.232555134784787e+000
 5.887697855394138e-001	 1.009617106687071e+000	 4.044924325036946e+000
 5.784636900356209e-001	 1.015557148459509e+000	 3.864144492857168e+000
 5.681118960602448e-001	 1.021384078605502e+000	 3.689688112323383e+000
 5.577162251997625e-001	 1.027097451374322e+000	 3.521028272704978e+000
 5.472785025291078e-001	 1.032696859265333e+000	 3.357639870714882e+000
 5.368005556310701e-001	 1.038181932965984e+000	 3.199000779894908e+000
 6.429714602190044e-001	 9.834697256827164e-001	 5.036058966945493e+000
 6.328672436784245e-001	 9.900020463961473e-001	 4.891697033626755e+000
 6.227080150995783e-001	 9.964234681696353e-001	 4.738339545422352e+000
 6.124955733258645e-001	 1.002733350718485e+000	 4.531731937082565e+000
 6.022317257006686e-001	 1.008931092069509e+000	 4.333464837541701e+000
 5.919182870638691e-001	 1.015016128651187e+000	 4.142996783672079e+000
 5.815570787497189e-001	 1.020987935352833e+000	 3.959784173041686e+000
 5.711499275871893e-001	 1.026846025552973e+000	 3.783282524735506e+000
 5.606986649038618e-001	 1.032589951117186e+000	 3.612947722820734e+000
 5.502051255344287e-001	 1.038219302365687e+000	 3.448237239569061e+000
 5.396711468348492e-001	 1.043733708010994e+000	 3.288611335665173e+000
 6.463915211773771e-001	 9.887009476315192e-001	 5.122038623786078e+000
 6.362335588035750e-001	 9.952680147319358e-001	 4.972814084952542e+000
 6.260202917743499e-001	 1.001723593004378e+000	 4.833116586605124e+000
 6.157535285014166e-001	 1.008067038758379e+000	 4.630851954139283e+000
 6.054350859416885e-001	 1.014297746818767e+000	 4.429409621570553e+000
 5.950667885884479e-001	 1.020415150616302e+000	 4.236183829904756e+000
 5.846504674638957e-001	 1.026418722247157e+000	 4.050614131215062e+000
 5.741879591141782e-001	 1.032307972501444e+000	 3.872138921590604e+000
 5.636811046079807e-001	 1.038082450861050e+000	 3.700196715915428e+000
 5.531317485397546e-001	 1.043741745467042e+000	 3.534227402309537e+000
 5.425417380386280e-001	 1.049285483057003e+000	 3.373673473392162e+000
 6.498115821362469e-001	 9.939321695813217e-001	 5.203341551545609e+000
 6.395998739291279e-001	 1.000533983068725e+000	 5.049284269345931e+000
 6.293325684494393e-001	 1.007023717840120e+000	 4.905232273433525e+000
 6.190114836772115e-001	 1.013400726799272e+000	 4.724914857631648e+000
 6.086384461828867e-001	 1.019664401569026e+000	 4.520382109216672e+000
 5.982152901131503e-001	 1.025814172582418e+000	 4.324479828678514e+000
 5.877438561781515e-001	 1.031849509142481e+000	 4.136630548919541e+000
 5.772259906412115e-001	 1.037769919450915e+000	 3.956255373094683e+000
 5.666635443121194e-001	 1.043574950605913e+000	 3.782775280959090e+000
 5.560583715450851e-001	 1.049264188569396e+000	 3.615612414776613e+000
 5.454123292424069e-001	 1.054837258104013e+000	 3.454191341876174e+000
 5.167064172046177e-001	 9.993195076789155e-001	 2.443834135851755e+000
 5.065837350563242e-001	 1.004488884649226e+000	 2.320423541071675e+000
 4.964258562402675e-001	 1.009547606239281e+000	 2.199201351438216e+000
 4.862345415742985e-001	 1.014495426597763e+000	 2.079868006263888e+000
 4.760115505881292e-001	 1.019332136114318e+000	 1.962129746667141e+000
 4.657586406207956e-001	 1.024057561222658e+000	 1.845699375633080e+000
 4.554775659290847e-001	 1.028671564177655e+000	 1.730296988581007e+000
 4.451700768077576e-001	 1.033174042807009e+000	 1.615650673002643e+000
 4.348379187223786e-001	 1.037564930238061e+000	 1.501497175868588e+000
 4.244828314555251e-001	 1.041844194600365e+000	 1.387582537618810e+000
 4.141065482671230e-001	 1.046011838704666e+000	 1.273662691671977e+000
 5.195770084083967e-001	 1.004871282716925e+000	 2.565475829043714e+000
 5.093980891371680e-001	 1.010069378447916e+000	 2.442288248523167e+000
 4.991837776611872e-001	 1.015156204046620e+000	 2.320742552255464e+000
 4.889358445806271e-001	 1.020131512295876e+000	 2.200520570169281e+000
 4.786560592003640e-001	 1.024995092420830e+000	 2.081310661963052e+000
 4.683461886224285e-001	 1.029746769890935e+000	 1.962808496523017e+000
 4.580079968494778e-001	 1.034386406195813e+000	 1.844717800456701e+000
 4.476432439001328e-001	 1.038913898595539e+000	 1.726751074287620e+000
 4.372536849369883e-001	 1.043329179845939e+000	 1.608630274993732e+000
 4.268410694080802e-001	 1.047632217899507e+000	 1.490087463686680e+000
 4.164071402025553e-001	 1.051823015582605e+000	 1.370865417364656e+000
 5.224475996121755e-001	 1.010423057755935e+000	 2.682514363301826e+000
 5.122124432180063e-001	 1.015649872247601e+000	 2.559464386141535e+000
 5.019416990820866e-001	 1.020764801854938e+000	 2.437514380688012e+000
 4.916371475869096e-001	 1.025767597994943e+000	 2.316327446242311e+000
 4.813005678125173e-001	 1.030658048728261e+000	 2.195573939163247e+000
 4.709337366239337e-001	 1.035435978560085e+000	 2.074932271871057e+000
 4.605384277696876e-001	 1.040101248214788e+000	 1.954089679568276e+000
 4.501164109922589e-001	 1.044653754384820e+000	 1.832742953209334e+000
 4.396694511512734e-001	 1.049093429454491e+000	 1.710599137381177e+000
 4.291993073602251e-001	 1.053420241199240e+000	 1.587376191878224e+000
 4.187077321374825e-001	 1.057634192461039e+000	 1.462803615896714e+000
 5.253181908159545e-001	 1.015974832795945e+000	 2.794960490667448e+000
 5.150267972988396e-001	 1.021230366048282e+000	 2.671967053985193e+000
 5.046996205029654e-001	 1.026373399664236e+000	 2.549536196134214e+000
 4.943384505931461e-001	 1.031403683694964e+000	 2.427312162266962e+000
 4.839450764245884e-001	 1.036321005036609e+000	 2.304947181289293e+000
 4.735212846253114e-001	 1.041125187230108e+000	 2.182102284673702e+000
 4.630688586897140e-001	 1.045816090234579e+000	 2.058448091596028e+000
 4.525895780841360e-001	 1.050393610174852e+000	 1.933665558896477e+000
 4.420852173652338e-001	 1.054857679063720e+000	 1.807446694514980e+000
 4.315575453119599e-001	 1.059208264499562e+000	 1.679495233170413e+000
 4.210083240719047e-001	 1.063445369339969e+000	 1.549527273197167e+000
 5.281887820197334e-001	 1.021526607836955e+000	 2.902823941298377e+000
 5.178411513796678e-001	 1.026810859849957e+000	 2.779810261251400e+000
 5.074575419238236e-001	 1.031981997474513e+000	 2.656826200006392e+000
 4.970397535993366e-001	 1.037039769395940e+000	 2.533497022793267e+000
 4.865895850365778e-001	 1.041983961345876e+000	 2.409456704774284e+000
 4.761088326265616e-001	 1.046814395901003e+000	 2.284348769900601e+000
 4.655992896095571e-001	 1.051530932255188e+000	 2.157827094686666e+000
 4.550627451757643e-001	 1.056133465965635e+000	 2.029556675385892e+000
 4.445009835788698e-001	 1.060621928673624e+000	 1.899214357194250e+000
 4.339157832632848e-001	 1.064996287800474e+000	 1.766489524241404e+000
 4.233089160058217e-001	 1.069256546219393e+000	 1.631084749269777e+000
 5.310593732235124e-001	 1.027078382878964e+000	 3.006113451087755e+000
 5.206555054604910e-001	 1.032391353652627e+000	 2.883006955758959e+000
 5.102154633446613e-001	 1.037590595285769e+000	 2.759401467029039e+000
 4.997410566054809e-001	 1.042675855097869e+000	 2.634903142197315e+000
 4.892340936484858e-001	 1.047646917656062e+000	 2.509127574236925e+000
 4.786963806276842e-001	 1.052503604572770e+000	 2.381700650927810e+000
 4.681297205292170e-001	 1.057245774276613e+000	 2.252259377495181e+000
 4.575359122671435e-001	 1.061873321757169e+000	 2.120452661221493e+000
 4.469167497921811e-001	 1.066386178284203e+000	 1.985942056633804e+000
 4.362740212141998e-001	 1.070784311101977e+000	 1.848402470016632e+000
 4.256095079392335e-001	 1.075067723099311e+000	 1.707522822136840e+000
 5.339299644272912e-001	 1.032630157921974e+000	 3.104836788390656e+000
 5.234698595413088e-001	 1.037971847456292e+000	 2.981569052480417e+000
 5.129733847654786e-001	 1.043199193098006e+000	 2.857277975525755e+000
 5.024423596115791e-001	 1.048311940800752e+000	 2.731550476674730e+000
 4.918786022603118e-001	 1.053309873967165e+000	 2.603983636131166e+000
 4.812839286286794e-001	 1.058192813245410e+000	 2.474185574795365e+000
 4.706601514486936e-001	 1.062960616298855e+000	 2.341776295999102e+000
 4.600090793582737e-001	 1.067613177549454e+000	 2.206388487772796e+000
 4.493325160051678e-001	 1.072150427895458e+000	 2.067668284237505e+000
 4.386322591647048e-001	 1.076572334404070e+000	 1.925275984847345e+000
 4.279100998721401e-001	 1.080878899979725e+000	 1.778886730365194e+000
 5.368005556310701e-001	 1.038181932965984e+000	 3.199000779894908e+000
 5.262842136221215e-001	 1.043552341260951e+000	 3.075507461158203e+000
 5.157313061862754e-001	 1.048807790911221e+000	 2.950470636734348e+000
 5.051436626176313e-001	 1.053948026504589e+000	 2.823457855208719e+000
 4.945231108720561e-001	 1.058972830279187e+000	 2.694047551317619e+000
 4.838714766295471e-001	 1.063882021918922e+000	 2.561829946334878e+000
 4.731905823679871e-001	 1.068675458321913e+000	 2.426407909131213e+000
 4.624822464491548e-001	 1.073353033342490e+000	 2.287397776325388e+000
 4.517482822178300e-001	 1.077914677507388e+000	 2.144430130095429e+000
 4.409904971147997e-001	 1.082360357706752e+000	 1.997150532363895e+000
 4.302106918045416e-001	 1.086690076860633e+000	 1.845220214228636e+000
 5.396711468348492e-001	 1.043733708010994e+000	 3.288611335665173e+000
 5.290985677029294e-001	 1.049132835066606e+000	 3.164832113038267e+000
 5.184892276070516e-001	 1.054416388725417e+000	 3.038993323187202e+000
 5.078449656236375e-001	 1.059584112209380e+000	 2.910643009548912e+000
 4.971676194837186e-001	 1.064635786592126e+000	 2.779340826595896e+000
 4.864590246302872e-001	 1.069571230593307e+000	 2.644658961205320e+000
 4.757210132870970e-001	 1.074390300345788e+000	 2.506183013276017e+000
 4.649554135397870e-001	 1.079092889136277e+000	 2.363512833988149e+000
 4.541640484301676e-001	 1.083678927119993e+000	 2.216263320253756e+000
 4.433487350644847e-001	 1.088148381010025e+000	 2.064065164059459e+000
 4.325112837364382e-001	 1.092501253742037e+000	 1.906565555555910e+000
 5.425417380386280e-001	 1.049285483057003e+000	 3.373673473392162e+000
 5.319129217837317e-001	 1.054713328873255e+000	 3.249551986757725e+000
 5.212471490278074e-001	 1.060024986540591e+000	 3.122858896190692e+000
 5.105462686295976e-001	 1.065220197915125e+000	 2.993122603239295e+000
 4.998121280952994e-001	 1.070298742905985e+000	 2.859883845234941e+000
 4.890465726308998e-001	 1.075260439268565e+000	 2.722696637883193e+000
 4.782514442060238e-001	 1.080105142370480e+000	 2.581129175670165e+000
 4.674285806301701e-001	 1.084832744930815e+000	 2.434764688458681e+000
 4.565798146421803e-001	 1.089443176733274e+000	 2.283202252800119e+000
 4.457069730137597e-001	 1.093936404313887e+000	 2.126057556647862e+000
 4.348118756678294e-001	 1.098312430623935e+000	 1.962963616313547e+000
 5.454123292424069e-001	 1.054837258104013e+000	 3.454191341876174e+000
 5.347272758645291e-001	 1.060293822680900e+000	 3.329675133413473e+000
 5.240050704485426e-001	 1.065633584356745e+000	 3.202079232435049e+000
 5.132475716355117e-001	 1.070856283621824e+000	 3.070912259726992e+000
 5.024566367067984e-001	 1.075961699220761e+000	 2.935695896539661e+000
 4.916341206313848e-001	 1.080949647944695e+000	 2.795965848640509e+000
 4.807818751247673e-001	 1.085819984395989e+000	 2.651272766748256e+000
 4.699017477203044e-001	 1.090572600726104e+000	 2.501183121692427e+000
 4.589955808538687e-001	 1.095207426347230e+000	 2.345280032809688e+000
 4.480652109626246e-001	 1.099724427618340e+000	 2.183164048242518e+000
 4.371124675987154e-001	 1.104123607506328e+000	 2.014453875971294e+000
 4.141065482671230e-001	 1.046011838704666e+000	 1.273662691671977e+000
 4.037107950702518e-001	 1.050067899698377e+000	 1.186840488033338e+000
 3.932972896212849e-001	 1.054012448699919e+000	 1.101253522074718e+000
 3.828677407261033e-001	 1.057845590411549e+000	 1.016662792992585e+000
 3.724238474643520e-001	 1.061567462710248e+000	 9.328393898066292e-001
 3.619672984304700e-001	 1.065178236219087e+000	 8.495649659910098e-001
 3.514997709926364e-001	 1.068678113859285e+000	 7.666321773120840e-001
 3.410229305701427e-001	 1.072067330383723e+000	 6.838450825464698e-001
 3.305384299296695e-001	 1.075346151892721e+000	 6.010195068768370e-001
 3.200479085009068e-001	 1.078514875332842e+000	 5.179833678745023e-001
 3.095529917119247e-001	 1.081573827979565e+000	 4.345769640883412e-001
 4.164071402025553e-001	 1.051823015582605e+000	 1.370865417364656e+000
 4.059536328218263e-001	 1.055901610248943e+000	 1.278723400196705e+000
 3.954822745652843e-001	 1.059868073411965e+000	 1.188448865030764e+000
 3.849947837321765e-001	 1.063722510355609e+000	 1.099803358253611e+000
 3.744928688414803e-001	 1.067465059722839e+000	 1.012557993761849e+000
 3.639782278687154e-001	 1.071095893084634e+000	 9.264939422729872e-001
 3.534525475007734e-001	 1.074615214489552e+000	 8.414028839933230e-001
 3.429175024092762e-001	 1.078023259994660e+000	 7.570874242869455e-001
 3.323747545429417e-001	 1.081320297178610e+000	 6.733614721094026e-001
 3.218259524394036e-001	 1.084506624637670e+000	 5.900505810862450e-001
 3.112727305568885e-001	 1.087582571465517e+000	 5.069922532288125e-001
 4.187077321374825e-001	 1.057634192461039e+000	 1.462803615896714e+000
 4.081964705728008e-001	 1.061735320799913e+000	 1.365686599133710e+000
 3.976672595085987e-001	 1.065723698124346e+000	 1.271057325286021e+000
 3.871218267374906e-001	 1.069599430299955e+000	 1.178677700285091e+000
 3.765618902177854e-001	 1.073362656735689e+000	 1.088318686651258e+000
 3.659891573060833e-001	 1.077013549950432e+000	 9.997608075732700e-001
 3.554053240079887e-001	 1.080552315120082e+000	 9.127946144761174e-001
 3.448120742474535e-001	 1.083979189605890e+000	 8.272211176904618e-001
 3.342110791552332e-001	 1.087294442464843e+000	 7.428521799599605e-001
 3.236039963769051e-001	 1.090498373942914e+000	 6.595108726317633e-001
 3.129924694008522e-001	 1.093591314951976e+000	 5.770317944981775e-001
 4.210083240719047e-001	 1.063445369339969e+000	 1.549527273197167e+000
 4.104393083231752e-001	 1.067569031351289e+000	 1.447777052184787e+000
 3.998522444512289e-001	 1.071579322837063e+000	 1.349122996011914e+000
 3.892488697420459e-001	 1.075476350244589e+000	 1.253327182234359e+000
 3.786309115932670e-001	 1.079260253748798e+000	 1.160160245398962e+000
 3.680000867425734e-001	 1.082931206816480e+000	 1.069401895975952e+000
 3.573581005142821e-001	 1.086489415750874e+000	 9.808414028994411e-001
 3.467066460846746e-001	 1.089935119217414e+000	 8.942780392931373e-001
 3.360474037665444e-001	 1.093268587751422e+000	 8.095214910824700e-001
 3.253820403134116e-001	 1.096490123248574e+000	 7.263922283191651e-001
 3.147122082438159e-001	 1.099600058438940e+000	 6.447218391480653e-001
 4.233089160058217e-001	 1.069256546219393e+000	 1.631084749269777e+000
 4.126821460729496e-001	 1.073402741903069e+000	 1.525040189997643e+000
 4.020372293931742e-001	 1.077434947550117e+000	 1.422688519450350e+000
 3.913759127458419e-001	 1.081353270189511e+000	 1.323791798600569e+000
 3.806999329679252e-001	 1.085157850762166e+000	 1.228120157061391e+000
 3.700110161781861e-001	 1.088848863682779e+000	 1.135452326967661e+000
 3.593108770196537e-001	 1.092426516381929e+000	 1.045576140557770e+000
 3.486012179209396e-001	 1.095891048829232e+000	 9.582889910107301e-001
 3.378837283768749e-001	 1.099242733038345e+000	 8.733982562040120e-001
 3.271600842489228e-001	 1.102481872554650e+000	 7.907216851882369e-001
 3.164319470857796e-001	 1.105608801926411e+000	 7.100877472842500e-001
 4.256095079392335e-001	 1.075067723099311e+000	 1.707522822136840e+000
 4.149249838221242e-001	 1.079236452455255e+000	 1.597519948058826e+000
 4.042222143344350e-001	 1.083290572263506e+000	 1.491795126129090e+000
 3.935029557488789e-001	 1.087230190134719e+000	 1.390110212223285e+000
 3.827689543417601e-001	 1.091055447775793e+000	 1.292234653689382e+000
 3.720219456129209e-001	 1.094766520549328e+000	 1.197946038266605e+000
 3.612636535241033e-001	 1.098363617013246e+000	 1.107030606788610e+000
 3.504957897562484e-001	 1.101846978441343e+000	 1.019283729184134e+000
 3.397200529862249e-001	 1.105216878325614e+000	 9.345103434207229e-001
 3.289381281834391e-001	 1.108473621861141e+000	 8.525253571528512e-001
 3.181516859267434e-001	 1.111617545414388e+000	 7.731540119528955e-001
 4.279100998721401e-001	 1.080878899979725e+000	 1.778886730365194e+000
 4.171678215706987e-001	 1.085070163007846e+000	 1.665258806886893e+000
 4.064071992750111e-001	 1.089146196977231e+000	 1.556482672810964e+000
 3.956299987511568e-001	 1.093107110080215e+000	 1.452319790081969e+000
 3.848379757147716e-001	 1.096953044789678e+000	 1.352538746062707e+000
 3.740328750467784e-001	 1.100684177416128e+000	 1.256915817588682e+000
 3.632164300276312e-001	 1.104300717644825e+000	 1.165235498863172e+000
 3.523903615906012e-001	 1.107802908053748e+000	 1.077290992683482e+000
 3.415563775945943e-001	 1.111191023613228e+000	 9.928846646116919e-001
 3.307161721169601e-001	 1.114465371168049e+000	 9.118284598164075e-001
 3.198714247667071e-001	 1.117626288902871e+000	 8.339442824476259e-001
 4.302106918045416e-001	 1.086690076860633e+000	 1.845220214228636e+000
 4.194106593186733e-001	 1.090903873560843e+000	 1.728297830935238e+000
 4.085921842149026e-001	 1.095001821691293e+000	 1.616789679225239e+000
 3.977570417526757e-001	 1.098984030025999e+000	 1.510456637942258e+000
 3.869069970869598e-001	 1.102850641803822e+000	 1.409066256346717e+000
 3.760438044797580e-001	 1.106601834283178e+000	 1.312393333397546e+000
 3.651692065302371e-001	 1.110237818276666e+000	 1.220220460919530e+000
 3.542849334239978e-001	 1.113758837666447e+000	 1.132338530116282e+000
 3.433927022019831e-001	 1.117165168901187e+000	 1.048547201006831e+000
 3.324942160494859e-001	 1.120457120475372e+000	 9.686553344904778e-001
 3.215911636056708e-001	 1.123635032391861e+000	 8.924813868708990e-001
 4.325112837364382e-001	 1.092501253742037e+000	 1.906565555555910e+000
 4.216534970660478e-001	 1.096737584114244e+000	 1.786676706252336e+000
 4.107771691541096e-001	 1.100857446405691e+000	 1.672753363626518e+000
 3.998840847534355e-001	 1.104860949972069e+000	 1.564555633901425e+000
 3.889760184583245e-001	 1.108748238818225e+000	 1.461849849703441e+000
 3.780547339118600e-001	 1.112519491150479e+000	 1.364409164670625e+000
 3.671219830319211e-001	 1.116174918908768e+000	 1.272014111970703e+000
 3.561795052564381e-001	 1.119714767279440e+000	 1.184453126161638e+000
 3.452290268083915e-001	 1.123139314189491e+000	 1.101523027938135e+000
 3.342722599810166e-001	 1.126448869783112e+000	 1.023029471447616e+000
 3.233109024436345e-001	 1.129643775881357e+000	 9.487873539725911e-001
 4.348118756678294e-001	 1.098312430623935e+000	 1.962963616313547e+000
 4.238963348128222e-001	 1.102571294668051e+000	 1.840433776948908e+000
 4.129621540926319e-001	 1.106713071120424e+000	 1.724409677226591e+000
 4.020111277534363e-001	 1.110737869918426e+000	 1.614650460864213e+000
 3.910450398288658e-001	 1.114645835832887e+000	 1.510921064899951e+000
 3.800656633430844e-001	 1.118437148018030e+000	 1.412992829722926e+000
 3.690747595326834e-001	 1.122112019541134e+000	 1.320644073025986e+000
 3.580740770879224e-001	 1.125670696892727e+000	 1.233660627072937e+000
 3.470653514138192e-001	 1.129113459478140e+000	 1.151836338805218e+000
 3.360503039115521e-001	 1.132440619091268e+000	 1.074973532435557e+000
 3.250306412805982e-001	 1.135652519371360e+000	 1.002883434298312e+000
 4.371124675987154e-001	 1.104123607506328e+000	 2.014453875971294e+000
 4.261391725589966e-001	 1.108405005222262e+000	 1.889606080511816e+000
 4.151471390304695e-001	 1.112568695835493e+000	 1.771793337536560e+000
 4.041381707526780e-001	 1.116614789865071e+000	 1.660773637996613e+000
 3.931140611985838e-001	 1.120543432847807e+000	 1.556310343950399e+000
 3.820765927734312e-001	 1.124354804885831e+000	 1.458172814118589e+000
 3.710275360325239e-001	 1.128049120173762e+000	 1.366136993351437e+000
 3.599686489184505e-001	 1.131626626506307e+000	 1.279985965371295e+000
 3.489016760182663e-001	 1.135087604767135e+000	 1.199510468284083e+000
 3.378283478410925e-001	 1.138432368399839e+000	 1.124509372479711e+000
 3.267503801165620e-001	 1.141661262861868e+000	 1.054790120668121e+000
 3.095529917119247e-001	 1.081573827979565e+000	 4.345769640883412e-001
 2.990552903440744e-001	 1.084523366904992e+000	 3.646506014569608e-001
 2.885563999084638e-001	 1.087363878430300e+000	 2.984197495604613e-001
 2.780579000432833e-001	 1.090095777564483e+000	 2.357439742758258e-001
 2.675613539309718e-001	 1.092719507430977e+000	 1.764918388800625e-001
 2.570683077371921e-001	 1.095235538681890e+000	 1.205411086390573e-001
 2.465802900712552e-001	 1.097644368901011e+000	 6.777892348525975e-002
 2.360988114681552e-001	 1.099946521996445e+000	 1.810193925189680e-002
 2.256253638923441e-001	 1.102142547583675e+000	-2.858356198046037e-002
 2.151614202633442e-001	 1.104233020359888e+000	-7.236159180581372e-002
 2.047084340032615e-001	 1.106218539470361e+000	-1.133064049811840e-001
 3.112727305568885e-001	 1.087582571465517e+000	 5.069922532288125e-001
 3.007167086255805e-001	 1.090548496718078e+000	 4.379214112491845e-001
 2.901594910205851e-001	 1.093404788862850e+000	 3.721958516201304e-001
 2.796026661558605e-001	 1.096151865214429e+000	 3.096738310080126e-001
 2.690478058981926e-001	 1.098790171358049e+000	 2.502230362269556e-001
 2.584964650030533e-001	 1.101320180560551e+000	 1.937207865683245e-001
 2.479501805720276e-001	 1.103742393170077e+000	 1.400542034645884e-001
 2.374104715319708e-001	 1.106057336005332e+000	 8.912034797781865e-002
 2.268788381360260e-001	 1.108265561735218e+000	 4.082632668980005e-002
 2.163567614866021e-001	 1.110367648249682e+000	-4.910633357161665e-003
 2.058457030803719e-001	 1.112364198022585e+000	-4.816313995060677e-002
 3.129924694008522e-001	 1.093591314951976e+000	 5.770317944981775e-001
 3.023781269060917e-001	 1.096573626531760e+000	 5.089253409970702e-001
 2.917625821317270e-001	 1.099445699296064e+000	 4.438114814581535e-001
 2.811474322674843e-001	 1.102207952865088e+000	 3.815470497283195e-001
 2.705342578644959e-001	 1.104860835285863e+000	 3.219987481504006e-001
 2.599246222680431e-001	 1.107404822439961e+000	 2.650433476793905e-001
 2.493200710719848e-001	 1.109840417439881e+000	 2.105678545680494e-001
 2.387221315950371e-001	 1.112168150014925e+000	 1.584696441359077e-001
 2.281323123790346e-001	 1.114388575887414e+000	 1.086565622201557e-001
 2.175521027092720e-001	 1.116502276140058e+000	 6.104699498067002e-002
 2.069829721569898e-001	 1.118509856575302e+000	 1.556990780540485e-002
 3.147122082438159e-001	 1.099600058438940e+000	 6.447218391480653e-001
 3.040395451856081e-001	 1.102598756346038e+000	 5.776888345648490e-001
 2.933656732418898e-001	 1.105486609729943e+000	 5.132932357984059e-001
 2.826921983781546e-001	 1.108264040516460e+000	 4.513903400282983e-001
 2.720207098298819e-001	 1.110931499214418e+000	 3.918457569196582e-001
 2.613527795321616e-001	 1.113489464320121e+000	 3.345356065716181e-001
 2.506899615711267e-001	 1.115938441710422e+000	 2.793466832615261e-001
 2.400337916573542e-001	 1.118278964025223e+000	 2.261765855212168e-001
 2.293857866213696e-001	 1.120511590040265e+000	 1.749338131607222e-001
 2.187474439313542e-001	 1.122636904031019e+000	 1.255378319434458e-001
 2.081202412331149e-001	 1.124655515128511e+000	 7.791910668281463e-002
 3.164319470857796e-001	 1.105608801926411e+000	 7.100877472842500e-001
 3.057009634641296e-001	 1.108623886160911e+000	 6.442374598972018e-001
 2.949687643510733e-001	 1.111527520164486e+000	 5.806668510191364e-001
 2.842369644878716e-001	 1.114320128168547e+000	 5.192295670656237e-001
 2.735071617943503e-001	 1.117002163143715e+000	 4.597900166091409e-001
 2.627809367954088e-001	 1.119574106201031e+000	 4.022235662069734e-001
 2.520598520694534e-001	 1.122036465981700e+000	 3.464167012416674e-001
 2.413454517189220e-001	 1.124389778036228e+000	 2.922671523253135e-001
 2.306392608630313e-001	 1.126634604193770e+000	 2.396839879139934e-001
 2.199427851528484e-001	 1.128771531922561e+000	 1.885876738565088e-001
 2.092575103087475e-001	 1.130801173682214e+000	 1.389101006745492e-001
 3.181516859267434e-001	 1.111617545414388e+000	 7.731540119528955e-001
 3.073623817416564e-001	 1.114649015976381e+000	 7.085959326939165e-001
 2.965718554592775e-001	 1.117568430599695e+000	 6.459572264058492e-001
 2.857817305966350e-001	 1.120376215821346e+000	 5.850897743853670e-001
 2.749936137579013e-001	 1.123072827073753e+000	 5.258566754804002e-001
 2.642090940577846e-001	 1.125658748082690e+000	 4.681324398463097e-001
 2.534297425669648e-001	 1.128134490253717e+000	 4.118031469146786e-001
 2.426571117797405e-001	 1.130500592047937e+000	 3.567665681523948e-001
 2.318927351040196e-001	 1.132757618347929e+000	 3.029322552803562e-001
 2.211381263737548e-001	 1.134906159814687e+000	 2.502215946991965e-001
 2.103947793838872e-001	 1.136946832236408e+000	 1.985678289472663e-001
 3.198714247667071e-001	 1.117626288902871e+000	 8.339442824476259e-001
 3.090238000181884e-001	 1.120674145792447e+000	 7.707881393192100e-001
 2.981749465665025e-001	 1.123609341035568e+000	 7.091884466536377e-001
 2.873264967044449e-001	 1.126432303474859e+000	 6.489952060069627e-001
 2.764800657205349e-001	 1.129143491004533e+000	 5.900700976461932e-001
 2.656372513192891e-001	 1.131743389965098e+000	 5.322866722780764e-001
 2.547996330636609e-001	 1.134232514526470e+000	 4.755305061842606e-001
 2.439687718398098e-001	 1.136611406060353e+000	 4.196993203574695e-001
 2.331462093443344e-001	 1.138880632502742e+000	 3.647030643389627e-001
 2.223334675940733e-001	 1.141040787707396e+000	 3.104639655235008e-001
 2.115320484585344e-001	 1.143092490791096e+000	 2.569165447895609e-001
 3.215911636056708e-001	 1.123635032391861e+000	 8.924813868708990e-001
 3.106852182937255e-001	 1.126699275609108e+000	 8.308371589762974e-001
 2.997780376727482e-001	 1.129650251472107e+000	 7.703838036475620e-001
 2.888712628113015e-001	 1.132488391129085e+000	 7.109693278024085e-001
 2.779665176822510e-001	 1.135214154936054e+000	 6.524538840349580e-001
 2.670654085799221e-001	 1.137828031848257e+000	 5.947099603656463e-001
 2.561695235595418e-001	 1.140330538799962e+000	 5.376225325723799e-001
 2.452804318991298e-001	 1.142722220073474e+000	 4.810891797333435e-001
 2.343996835839758e-001	 1.145003646658210e+000	 4.250201636919850e-001
 2.235288088138041e-001	 1.147175415600688e+000	 3.693384732486525e-001
 2.126693175326889e-001	 1.149238149346276e+000	 3.139798339501410e-001
 3.233109024436345e-001	 1.129643775881357e+000	 9.487873539725911e-001
 3.123466365682679e-001	 1.132724405426366e+000	 8.887652851751557e-001
 3.013811287780147e-001	 1.135691161909310e+000	 8.295658175482836e-001
 2.904160289172047e-001	 1.138544478784024e+000	 7.710348481904298e-001
 2.794529696430496e-001	 1.141284818868317e+000	 7.130308926901171e-001
 2.684935658396838e-001	 1.143912673732164e+000	 6.554252729381687e-001
 2.575394140546073e-001	 1.146428563074190e+000	 5.981022666968002e-001
 2.465920919577006e-001	 1.148833034087301e+000	 5.409592195658683e-001
 2.356531578229438e-001	 1.151126660814331e+000	 4.839066200948524e-001
 2.247241500329468e-001	 1.153310043494563e+000	 4.268681388559341e-001
 2.138065866063507e-001	 1.155383807901949e+000	 3.697806323925235e-001
 3.250306412805982e-001	 1.135652519371360e+000	 1.002883434298312e+000
 3.140080548418155e-001	 1.138749535244219e+000	 9.445940465169206e-001
 3.029842198823020e-001	 1.141732072347178e+000	 8.867562572077922e-001
 2.919607950221543e-001	 1.144600566439677e+000	 8.292137381771383e-001
 2.809394216029308e-001	 1.147355482801321e+000	 7.718232584211173e-001
 2.699217230985742e-001	 1.149997315616821e+000	 7.144548700518996e-001
 2.589093045488577e-001	 1.152526587349157e+000	 6.569920551310006e-001
 2.479037520155221e-001	 1.154943848101833e+000	 5.993318340895625e-001
 2.369066320612384e-001	 1.157249674971106e+000	 5.413848364931880e-001
 2.259194912515018e-001	 1.159444671389021e+000	 4.830753350061389e-001
 2.149438556795199e-001	 1.161529466458114e+000	 4.243412434836816e-001
 3.267503801165620e-001	 1.141661262861868e+000	 1.054790120668121e+000
 3.156694731143683e-001	 1.144774665062668e+000	 9.983442268240483e-001
 3.045873109856099e-001	 1.147772982785712e+000	 9.419761599405970e-001
 2.935055611261506e-001	 1.150656654096043e+000	 8.855272507584930e-001
 2.824258735618946e-001	 1.153426146735067e+000	 8.288524118382623e-001
 2.713498803565931e-001	 1.156081957502228e+000	 7.718203216415254e-001
 2.602791950422928e-001	 1.158624611624860e+000	 7.143135686695699e-001
 2.492154120725943e-001	 1.161054662117071e+000	 6.562287563542986e-001
 2.381601062988595e-001	 1.163372689128536e+000	 5.974765694932122e-001
 2.271148324694689e-001	 1.165579299284062e+000	 5.379818031011094e-001
 2.160811247521964e-001	 1.167675125014772e+000	 4.776833546425152e-001
 2.047084340032615e-001	 1.106218539470361e+000	-1.133064049811840e-001
 1.942678386061738e-001	 1.108099727867713e+000	-1.541285216495606e-001
 1.838410472296248e-001	 1.109877231664831e+000	-1.913099426888916e-001
 1.734294523079612e-001	 1.111551719482271e+000	-2.248796301646022e-001
 1.630344251874023e-001	 1.113123881790856e+000	-2.548582050337564e-001
 1.526573157829650e-001	 1.114594430250278e+000	-2.812580168093482e-001
 1.422994522570491e-001	 1.115964097044449e+000	-3.040832361431427e-001
 1.319621407195443e-001	 1.117233634214321e+000	-3.233299693195104e-001
 1.216466649492954e-001	 1.118403812988921e+000	-3.389863936449288e-001
 1.113542861367409e-001	 1.119475423115290e+000	-3.510329126680967e-001
 1.010862426475091e-001	 1.120449272188024e+000	-3.594423301584900e-001
 2.058457030803719e-001	 1.112364198022585e+000	-4.816313995060677e-002
 1.953471043752891e-001	 1.114255837467287e+000	-9.102810696084501e-002
 1.848623863797919e-001	 1.116043216286087e+000	-1.303006366852071e-001
 1.743929492639726e-001	 1.117727006814098e+000	-1.660164639394250e-001
 1.639401719926405e-001	 1.119307903358093e+000	-1.982026889859923e-001
 1.535054119803400e-001	 1.120786621531432e+000	-2.268778448434755e-001
 1.430900047681506e-001	 1.122163897585715e+000	-2.520519881544538e-001
 1.326952637221274e-001	 1.123440487739901e+000	-2.737268125987998e-001
 1.223224797532197e-001	 1.124617167507623e+000	-2.918957838108947e-001
 1.119729210584791e-001	 1.125694731023406e+000	-3.065442947184620e-001
 1.016478328833424e-001	 1.126673990368485e+000	-3.176498402113453e-001
 2.069829721569898e-001	 1.118509856575302e+000	 1.556990780540485e-002
 1.964263701440067e-001	 1.120411947067260e+000	-2.939963848659574e-002
 1.858837255296455e-001	 1.122209200907656e+000	-7.083122336987492e-002
 1.753564462197447e-001	 1.123902294146164e+000	-1.087673263077235e-001
 1.648459187977035e-001	 1.125491924925506e+000	-1.432414927466280e-001
 1.543535081775938e-001	 1.126978812812708e+000	-1.742783991908031e-001
 1.438805572791746e-001	 1.128363698127059e+000	-2.018939424904011e-001
 1.334283867246671e-001	 1.129647341265524e+000	-2.260953523140734e-001
 1.229982945571248e-001	 1.130830522026344e+000	-2.468813257361414e-001
 1.125915559802124e-001	 1.131914038931528e+000	-2.642421828471757e-001
 1.022094231191757e-001	 1.132898708548947e+000	-2.781600422649017e-001
 2.081202412331149e-001	 1.124655515128511e+000	 7.791910668281463e-002
 1.975056359123262e-001	 1.126568056667631e+000	 3.078536210025603e-002
 1.869050646791856e-001	 1.128375185529539e+000	-1.287110764571421e-002
 1.763199431752776e-001	 1.130077581478469e+000	-5.309949979727983e-002
 1.657516656025913e-001	 1.131675946493094e+000	-8.993977206452106e-002
 1.552016043747262e-001	 1.133171004094105e+000	-1.234227055914628e-001
 1.446711097901213e-001	 1.134563498668481e+000	-1.535699927959033e-001
 1.341615097271634e-001	 1.135854194791191e+000	-1.803943490375904e-001
 1.236741093610106e-001	 1.137043876545084e+000	-2.038996470237994e-001
 1.132101909019410e-001	 1.138133346839654e+000	-2.240810728380044e-001
 1.027710133550090e-001	 1.139123426729408e+000	-2.409253024520507e-001
 2.092575103087475e-001	 1.130801173682214e+000	 1.389101006745492e-001
 1.985849016802480e-001	 1.132724166268399e+000	 8.955461653972827e-002
 1.879264038284123e-001	 1.134541170151735e+000	 4.360951603930877e-002
 1.772834401305712e-001	 1.136252868811014e+000	 1.018909808549511e-003
 1.666574124073038e-001	 1.137859968060858e+000	-3.826354039012231e-002
 1.560497005717373e-001	 1.139363195375624e+000	-7.427468264570700e-002
 1.454616623009906e-001	 1.140763299209979e+000	-1.070419614252932e-001
 1.348946327296164e-001	 1.142061048316902e+000	-1.365835285731890e-001
 1.243499241648773e-001	 1.143257231063844e+000	-1.629083776798855e-001
 1.138288258236648e-001	 1.144352654747783e+000	-1.860165006797203e-001
 1.033326035908423e-001	 1.145348144909870e+000	-2.058990655196476e-001
 2.103947793838872e-001	 1.136946832236408e+000	 1.985678289472663e-001
 1.996641674477718e-001	 1.138880275869565e+000	 1.469351104332430e-001
 1.889477429773256e-001	 1.140707154774245e+000	 9.863968503257392e-002
 1.782469370856256e-001	 1.142428156143798e+000	 5.361899572011970e-002
 1.675631592118411e-001	 1.144043989628796e+000	 1.182035430577950e-002
 1.568977967686271e-001	 1.145555386657263e+000	-2.679911768309027e-002
 1.462522148117825e-001	 1.146963099751555e+000	-6.227257434405304e-002
 1.356277557320259e-001	 1.148267901842655e+000	-9.462355586950527e-002
 1.250257389687247e-001	 1.149470585582622e+000	-1.238661230226530e-001
 1.144474607453838e-001	 1.150571962655919e+000	-1.500050144529751e-001
 1.038941938266757e-001	 1.151572863090331e+000	-1.730358256767141e-001
 2.115320484585344e-001	 1.143092490791096e+000	 2.569165447895609e-001
 2.007434332148979e-001	 1.145036385471130e+000	 2.029531130318126e-001
 1.899690821259254e-001	 1.146873139397067e+000	 1.522476891254737e-001
 1.792104340404408e-001	 1.148603443476821e+000	 1.047310716732497e-001
 1.684689060162031e-001	 1.150228011196910e+000	 6.034425196488462e-002
 1.577458929653956e-001	 1.151747577939025e+000	 1.903835659243285e-002
 1.470427673224970e-001	 1.153162900293209e+000	-1.922543683597402e-002
 1.363608787343920e-001	 1.154474755368452e+000	-5.447600977408072e-002
 1.257015537725529e-001	 1.155683940101420e+000	-8.673243746408511e-002
 1.150660956670980e-001	 1.156791270564060e+000	-1.160041471221368e-001
 1.044557840625090e-001	 1.157797581270792e+000	-1.422910983831557e-001
 2.126693175326889e-001	 1.149238149346276e+000	 3.139798339501410e-001
 2.018226989816259e-001	 1.151192495073091e+000	 2.576341963912596e-001
 1.909904212742118e-001	 1.153039124020204e+000	 2.044610905432463e-001
 1.801739309950166e-001	 1.154778730810083e+000	 1.543846927729932e-001
 1.693746528203900e-001	 1.156412032765199e+000	 1.073397021554894e-001
 1.585939891620428e-001	 1.157939769220907e+000	 6.327128470355474e-002
 1.478333198331340e-001	 1.159362700834939e+000	 2.213499000658296e-002
 1.370940017367147e-001	 1.160681608894292e+000	-1.610335859633501e-002
 1.263773685763618e-001	 1.161897294620237e+000	-5.146779913252628e-002
 1.156847305888074e-001	 1.163010578472205e+000	-8.397239020223724e-002
 1.050173742983423e-001	 1.164022299451254e+000	-1.136213930442136e-001
 2.138065866063507e-001	 1.155383807901949e+000	 3.697806323925235e-001
 2.029019647479561e-001	 1.157348604675451e+000	 3.110032539122041e-001
 1.920117604221847e-001	 1.159205108643654e+000	 2.553067432944733e-001
 1.811374279493533e-001	 1.160954018143585e+000	 2.026086756678071e-001
 1.702803996244016e-001	 1.162596054333664e+000	 1.528374850928740e-001
 1.594420853585687e-001	 1.164131960502910e+000	 1.059324102847971e-001
 1.486238723436938e-001	 1.165562501376747e+000	 6.184341204327163e-002
 1.378271247389941e-001	 1.166888462420176e+000	 2.053106354634360e-002
 1.270531833801515e-001	 1.168110649139073e+000	-1.803358530640153e-002
 1.163033655105121e-001	 1.169229886380354e+000	-5.386916826591409e-002
 1.055789645341756e-001	 1.170247017631715e+000	-8.698418657470043e-002
 2.149438556795199e-001	 1.161529466458114e+000	 4.243412434836816e-001
 2.039812305138884e-001	 1.163504714278209e+000	 3.630845182965359e-001
 1.930330995698443e-001	 1.165371093267417e+000	 3.048108119077168e-001
 1.821009249034507e-001	 1.167129305477325e+000	 2.494311180862318e-001
 1.711861464282379e-001	 1.168780075902304e+000	 1.968676319923552e-001
 1.602901815549732e-001	 1.170324151785036e+000	 1.470536972665940e-001
 1.494144248541761e-001	 1.171762301918633e+000	 9.993372412572053e-002
 1.385602477412301e-001	 1.173095315946103e+000	 5.546307963463221e-002
 1.277289981839220e-001	 1.174324003657929e+000	 1.360795137269811e-002
 1.169220004322119e-001	 1.175449194288509e+000	-2.565481425851202e-002
 1.061405547700090e-001	 1.176471735812177e+000	-6.233789780410552e-002
 2.160811247521964e-001	 1.167675125014772e+000	 4.776833546425152e-001
 2.050604962794229e-001	 1.169660823881365e+000	 4.139015789320738e-001
 1.940544387171903e-001	 1.171537077891494e+000	 3.529987895738642e-001
 1.830644218573088e-001	 1.173304592811305e+000	 2.948794177563092e-001
 1.720918932318991e-001	 1.174964097471118e+000	 2.394594447801466e-001
 1.611382777512565e-001	 1.176516343067282e+000	 1.866663503973823e-001
 1.502049773645809e-001	 1.177962102460596e+000	 1.364390314381396e-001
 1.392933707434226e-001	 1.179302169472074e+000	 8.872769192974062e-002
 1.284048129876733e-001	 1.180537358176804e+000	 4.349370593680474e-002
 1.175406353539069e-001	 1.181668502196668e+000	 7.094544062307054e-004
 1.067021450058422e-001	 1.182696453992638e+000	-3.964186268964600e-002
 1.010862426475091e-001	 1.120449272188024e+000	-3.594423301584900e-001
 9.084374980740989e-002	 1.121326184979027e+000	-3.772919114927837e-001
 8.062799970655708e-002	 1.122107002768330e+000	-3.928273197190956e-001
 7.044016102370117e-002	 1.122792582676474e+000	-4.060048278651512e-001
 6.028137887179909e-002	 1.123383796998955e+000	-4.167725813331474e-001
 5.015277466250215e-002	 1.123881532543523e+000	-4.250708770290302e-001
 4.005544598990789e-002	 1.124286689970843e+000	-4.308324554514822e-001
 2.999046653322648e-002	 1.124600183139104e+000	-4.339828045498386e-001
 1.995888597800297e-002	 1.124822938453075e+000	-4.344404741810524e-001
 9.961729955521234e-003	 1.124955894218173e+000	-4.321174000011125e-001
 0.000000000000000e+000	 1.125000000000000e+000	-4.269192356481302e-001
 1.016478328833424e-001	 1.126673990368485e+000	-3.176498402113453e-001
 9.134843730540344e-002	 1.127555774896901e+000	-3.385043866179809e-001
 8.107593303747282e-002	 1.128340930562529e+000	-3.566829289907918e-001
 7.083149525096096e-002	 1.129030319247693e+000	-3.721452089985762e-001
 6.061627542056343e-002	 1.129624818093976e+000	-3.848429429672492e-001
 5.043140118799645e-002	 1.130125318835834e+000	-3.947200954388340e-001
 4.027797624510258e-002	 1.130532727137605e+000	-4.017131659021290e-001
 3.015708023597667e-002	 1.130847961934465e+000	-4.057514874998474e-001
 2.006976867775017e-002	 1.131071954777878e+000	-4.067575365351122e-001
 1.001707289965868e-002	 1.131205649186067e+000	-4.046472516120303e-001
 0.000000000000000e+000	 1.131250000000000e+000	-3.993303612570432e-001
 1.022094231191757e-001	 1.132898708548947e+000	-2.781600422649017e-001
 9.185312480339698e-002	 1.133785364814774e+000	-3.020217169058427e-001
 8.152386636838860e-002	 1.134574858356729e+000	-3.228567169914580e-001
 7.122282947822076e-002	 1.135268055818914e+000	-3.406281601552975e-001
 6.095117196932778e-002	 1.135865839188997e+000	-3.552912336344292e-001
 5.071002771349075e-002	 1.136369105128145e+000	-3.667934625012390e-001
 4.050050650029730e-002	 1.136778764304367e+000	-3.750749912789227e-001
 3.032369393872685e-002	 1.137095740729826e+000	-3.800688777483186e-001
 2.018065137749737e-002	 1.137320971102681e+000	-3.817013977553705e-001
 1.007241584379612e-002	 1.137455404153962e+000	-3.798923598553741e-001
 0.000000000000000e+000	 1.137500000000000e+000	-3.745554286307330e-001
 1.027710133550090e-001	 1.139123426729408e+000	-2.409253024520507e-001
 9.235781230139054e-002	 1.140014954732647e+000	-2.677961056273525e-001
 8.197179969930439e-002	 1.140808786150928e+000	-2.913006384219955e-001
 7.161416370548053e-002	 1.141505792390134e+000	-3.114053028547213e-001
 6.128606851809212e-002	 1.142106860284017e+000	-3.280686581714465e-001
 5.098865423898504e-002	 1.142612891420457e+000	-3.412416839911455e-001
 4.072303675549200e-002	 1.143024801471128e+000	-3.508680570532811e-001
 3.049030764147704e-002	 1.143343519525187e+000	-3.568844403679286e-001
 2.029153407724458e-002	 1.143569987427484e+000	-3.592207835784925e-001
 1.012775878793356e-002	 1.143705159121856e+000	-3.578006333615694e-001
 0.000000000000000e+000	 1.143750000000000e+000	-3.525414526965603e-001
 1.033326035908423e-001	 1.145348144909870e+000	-2.058990655196476e-001
 9.286249979938409e-002	 1.146244544650521e+000	-2.357808309754707e-001
 8.241973303022014e-002	 1.147042713945127e+000	-2.619677217332389e-001
 7.200549793274030e-002	 1.147743528961353e+000	-2.844293336864273e-001
 6.162096506685648e-002	 1.148347881379038e+000	-3.031275002726881e-001
 5.126728076447933e-002	 1.148856677712768e+000	-3.180165507723896e-001
 4.094556701068670e-002	 1.149270838637890e+000	-3.290435824282620e-001
 3.065692134422722e-002	 1.149591298320548e+000	-3.361487451902995e-001
 2.040241677699178e-002	 1.149819003752287e+000	-3.392655378822486e-001
 1.018310173207100e-002	 1.149954914089751e+000	-3.383211146087440e-001
 0.000000000000000e+000	 1.150000000000000e+000	-3.332366002315348e-001
 1.038941938266757e-001	 1.151572863090331e+000	-1.730358256767141e-001
 9.336718729737764e-002	 1.152474134568394e+000	-2.059302170147473e-001
 8.286766636113591e-002	 1.153276641739327e+000	-2.348120401055021e-001
 7.239683216000009e-002	 1.153981265532573e+000	-2.596539952547186e-001
 6.195586161562083e-002	 1.154588902474059e+000	-2.804210933344095e-001
 5.154590728997362e-002	 1.155100464005079e+000	-2.970709094693597e-001
 4.116809726588141e-002	 1.155516875804651e+000	-3.095538507762966e-001
 3.082353504697740e-002	 1.155839077115910e+000	-3.178134369462357e-001
 2.051329947673898e-002	 1.156068020077091e+000	-3.217865924646601e-001
 1.023844467620844e-002	 1.156204669057646e+000	-3.214039492778160e-001
 0.000000000000000e+000	 1.156250000000000e+000	-3.165901587311136e-001
 1.044557840625090e-001	 1.157797581270792e+000	-1.422910983831557e-001
 9.387187479537118e-002	 1.158703724486268e+000	-1.781996055650561e-001
 8.331559969205168e-002	 1.159510569533526e+000	-2.097886833640204e-001
 7.278816638725986e-002	 1.160219002103793e+000	-2.370340480599303e-001
 6.229075816438517e-002	 1.160829923569080e+000	-2.599037922346569e-001
 5.182453381546793e-002	 1.161344250297391e+000	-2.783586340877033e-001
 4.139062752107611e-002	 1.161762912971413e+000	-2.923521810343561e-001
 3.099014874972759e-002	 1.162086855911271e+000	-3.018312063712132e-001
 2.062418217648618e-002	 1.162317036401894e+000	-3.067359377980158e-001
 1.029378762034588e-002	 1.162454424025540e+000	-3.070003565973101e-001
 0.000000000000000e+000	 1.162500000000000e+000	-3.025525062818246e-001
 1.050173742983423e-001	 1.164022299451254e+000	-1.136213930442136e-001
 9.437656229336475e-002	 1.164933314404141e+000	-1.525453289893962e-001
 8.376353302296744e-002	 1.165744497327726e+000	-1.868537307973703e-001
 7.317950061451965e-002	 1.166456738675013e+000	-2.165252432816121e-001
 6.262565471314951e-002	 1.167070944664101e+000	-2.415309460225747e-001
 5.210316034096221e-002	 1.167588036589702e+000	-2.618345985440027e-001
 4.161315777627082e-002	 1.168008950138175e+000	-2.773929000139517e-001
 3.115676245247777e-002	 1.168334634706632e+000	-2.881557622362700e-001
 2.073506487623339e-002	 1.168566052726697e+000	-2.940665947239188e-001
 1.034913056448332e-002	 1.168704178993435e+000	-2.950626006379048e-001
 0.000000000000000e+000	 1.168750000000000e+000	-2.910750824020000e-001
 1.055789645341756e-001	 1.170247017631715e+000	-8.698418657470043e-002
 9.488124979135829e-002	 1.171162904322014e+000	-1.289246838506579e-001
 8.421146635388319e-002	 1.171978425121925e+000	-1.659642248399006e-001
 7.357083484177943e-002	 1.172694475246233e+000	-1.980842964309542e-001
 6.296055126191387e-002	 1.173311965759121e+000	-2.252588714763111e-001
 5.238178686645650e-002	 1.173831822882013e+000	-2.474546500720182e-001
 4.183568803146551e-002	 1.174254987304936e+000	-2.646313155959942e-001
 3.132337615522796e-002	 1.174582413501994e+000	-2.767418042743600e-001
 2.084594757598059e-002	 1.174815069051500e+000	-2.837325870483361e-001
 1.040447350862076e-002	 1.174953933961330e+000	-2.855439625257676e-001
 0.000000000000000e+000	 1.175000000000000e+000	-2.821103598112641e-001
 1.061405547700090e-001	 1.176471735812177e+000	-6.233789780410552e-002
 9.538593728935184e-002	 1.177392494239888e+000	-1.072959054014893e-001
 8.465939968479895e-002	 1.178212352916124e+000	-1.470781455940150e-001
 7.396216906903923e-002	 1.178932211817453e+000	-1.816688618390450e-001
 6.329544781067821e-002	 1.179552986854142e+000	-2.110448275032049e-001
 5.266041339195079e-002	 1.180075609174324e+000	-2.351755834735981e-001
 4.205821828666023e-002	 1.180501024471698e+000	-2.540236907770828e-001
 3.148998985797815e-002	 1.180830192297355e+000	-2.675449969626768e-001
 2.095683027572779e-002	 1.181064085376303e+000	-2.756889150088543e-001
 1.045981645275821e-002	 1.181203688929224e+000	-2.783987135340270e-001
 0.000000000000000e+000	 1.181250000000000e+000	-2.756118170978844e-001
 1.067021450058422e-001	 1.182696453992638e+000	-3.964186268964600e-002
 9.589062478734539e-002	 1.183622084157761e+000	-8.761814288449668e-002
 8.510733301571473e-002	 1.184446280710323e+000	-1.301543861521989e-001
 7.435350329629899e-002	 1.185169948388673e+000	-1.672375079516046e-001
 6.363034435944256e-002	 1.185794007949163e+000	-1.988469903459302e-001
 5.293903991744508e-002	 1.186319395466636e+000	-2.249551161830523e-001
 4.228074854185492e-002	 1.186747061638459e+000	-2.455272185351664e-001
 3.165660356072834e-002	 1.187077971092716e+000	-2.605219441364369e-001
 2.106771297547500e-002	 1.187313101701106e+000	-2.698915295785029e-001
 1.051515939689565e-002	 1.187453443897119e+000	-2.735820890283249e-001
 0.000000000000000e+000	 1.187500000000000e+000	-2.715339122483082e-001
 1.187500000000000e+000	 0.000000000000000e+000	 2.020907309366546e+001
 1.187453443897119e+000	 1.051515939689569e-002	 2.024200383200368e+001
 1.187313101701106e+000	 2.106771297547507e-002	 2.026335129600585e+001
 1.187077971092716e+000	 3.165660356072825e-002	 2.027296573158800e+001
 1.186747061638459e+000	 4.228074854185489e-002	 2.027069925556020e+001
 1.186319395466635e+000	 5.293903991744508e-002	 2.025640586521423e+001
 1.185794007949163e+000	 6.363034435944259e-002	 2.022994144551870e+001
 1.185169948388672e+000	 7.435350329629908e-002	 2.019116377406304e+001
 1.184446280710324e+000	 8.510733301571465e-002	 2.013993252390612e+001
 1.183622084157761e+000	 9.589062478734535e-002	 2.007610926450361e+001
 1.182696453992638e+000	 1.067021450058423e-001	 1.999955746090403e+001
 1.193750000000000e+000	 0.000000000000000e+000	 2.002223541047703e+001
 1.193703198865011e+000	 1.057050234103313e-002	 2.005591942829182e+001
 1.193562118025900e+000	 2.117859567522228e-002	 2.007812756295229e+001
 1.193325749888056e+000	 3.182321726347844e-002	 2.008871260004576e+001
 1.192993098805182e+000	 4.250327879704959e-002	 2.008752913489768e+001
 1.192563181758886e+000	 5.321766644293938e-002	 2.007443357616593e+001
 1.192035029044096e+000	 6.396524090820695e-002	 2.004928414694942e+001
 1.191407684959773e+000	 7.474483752355886e-002	 2.001194088356090e+001
 1.190680208504366e+000	 8.555526634663041e-002	 1.996226563212994e+001
 1.189851674075436e+000	 9.639531228533890e-002	 1.990012204322081e+001
 1.188921172172853e+000	 1.072637352416756e-001	 1.982537556466645e+001
 1.200000000000000e+000	 0.000000000000000e+000	 1.984088846805876e+001
 1.199952953832898e+000	 1.062584528517057e-002	 1.987528582610704e+001
 1.199811134350674e+000	 2.128947837496948e-002	 1.989831453711379e+001
 1.199573528683352e+000	 3.198983096622863e-002	 1.990982996390334e+001
 1.199239135971828e+000	 4.272580905224430e-002	 1.990968921805279e+001
 1.198806968051016e+000	 5.349629296843367e-002	 1.989775115743653e+001
 1.198276050138855e+000	 6.430013745697130e-002	 1.987387638118959e+001
 1.197645421530635e+000	 7.513617175081862e-002	 1.983792722224876e+001
 1.196914136298097e+000	 8.600319967754617e-002	 1.978976773764855e+001
 1.196081263992713e+000	 9.689999978333246e-002	 1.972926369676602e+001
 1.195145890352577e+000	 1.078253254775089e-001	 1.965628256772783e+001
 1.206250000000000e+000	 0.000000000000000e+000	 1.966497535412805e+001
 1.206202708800781e+000	 1.068118822930801e-002	 1.970004556987095e+001
 1.206060150675429e+000	 2.140036107471668e-002	 1.972385423605303e+001
 1.205821307478606e+000	 3.215644466897881e-002	 1.973625933080519e+001
 1.205485173138397e+000	 4.294833930743901e-002	 1.973712052019317e+001
 1.205050754343025e+000	 5.377491949392797e-002	 1.972629914965479e+001
 1.204517071233439e+000	 6.463503400573563e-002	 1.970365823275860e+001
 1.203883158101259e+000	 7.552750597807842e-002	 1.966906243745288e+001
 1.203148064091514e+000	 8.645113300846193e-002	 1.962237806999136e+001
 1.202310853909595e+000	 9.740468728132599e-002	 1.956347305674163e+001
 1.201370608531810e+000	 1.083869157133422e-001	 1.949221692409986e+001
 1.212500000000000e+000	 0.000000000000000e+000	 1.949444032985140e+001
 1.212452463768659e+000	 1.073653117344545e-002	 1.953014237741176e+001
 1.212309167000165e+000	 2.151124377446388e-002	 1.955468985045707e+001
 1.212069086273815e+000	 3.232305837172899e-002	 1.956794338099597e+001
 1.211731210304889e+000	 4.317086956263370e-002	 1.956976522831810e+001
 1.211294540634914e+000	 5.405354601942226e-002	 1.956001926426576e+001
 1.210758092327849e+000	 6.496993055449998e-002	 1.953857095572809e+001
 1.210120894671644e+000	 7.591884020533821e-002	 1.950528734453620e+001
 1.209381991884620e+000	 8.689906633937770e-002	 1.946003702495589e+001
 1.208540443826079e+000	 9.790937477931953e-002	 1.940269011899480e+001
 1.207595326710550e+000	 1.089485059491755e-001	 1.933311824975857e+001
 1.218750000000000e+000	 0.000000000000000e+000	 1.932922879975604e+001
 1.218702218736532e+000	 1.079187411758290e-002	 1.936552110987672e+001
 1.218558183324882e+000	 2.162212647421109e-002	 1.939076571405711e+001
 1.218316865068982e+000	 3.248967207447918e-002	 1.940482593725387e+001
 1.217977247471304e+000	 4.339339981782840e-002	 1.940756667121155e+001
 1.217538326926681e+000	 5.433217254491654e-002	 1.939885435350989e+001
 1.216999113422084e+000	 6.530482710326435e-002	 1.937855694373310e+001
 1.216358631241791e+000	 7.631017443259801e-002	 1.934654389694869e+001
 1.215615919677413e+000	 8.734699967029348e-002	 1.930268613470370e+001
 1.214770033742166e+000	 9.841406227731310e-002	 1.924685601376501e+001
 1.213820044888798e+000	 1.095100961850088e-001	 1.917892729285066e+001
 1.225000000000000e+000	 0.000000000000000e+000	 1.916928728256250e+001
 1.224951973704401e+000	 1.084721706172034e-002	 1.920612774256600e+001
 1.224807199649580e+000	 2.173300917395829e-002	 1.923202727446936e+001
 1.224564643864106e+000	 3.265628577722936e-002	 1.924685193574435e+001
 1.224223284637642e+000	 4.361593007302311e-002	 1.925046929031500e+001
 1.223782113218328e+000	 5.461079907041085e-002	 1.924274838132120e+001
 1.223240134516144e+000	 6.563972365202868e-002	 1.922355970090174e+001
 1.222596367811699e+000	 7.670150865985777e-002	 1.919277515719454e+001
 1.221849847469893e+000	 8.779493300120925e-002	 1.915026803877132e+001
 1.220999623657856e+000	 9.891874977530665e-002	 1.909591297674549e+001
 1.220044763066555e+000	 1.100716864208421e-001	 1.902958590481122e+001
 1.231250000000000e+000	 0.000000000000000e+000	 1.901456338290560e+001
 1.231201728672264e+000	 1.090256000585778e-002	 1.905190933665460e+001
 1.231056215974259e+000	 2.184389187370550e-002	 1.907842106492378e+001
 1.230812422659186e+000	 3.282289947997955e-002	 1.909396739776160e+001
 1.230469321803902e+000	 4.383846032821782e-002	 1.909841861148740e+001
 1.230025899509854e+000	 5.488942559590513e-002	 1.909164639511147e+001
 1.229481155610030e+000	 6.597462020079305e-002	 1.907352381367014e+001
 1.228834104381368e+000	 7.709284288711756e-002	 1.904392526868360e+001
 1.228083775262061e+000	 8.824286633212503e-002	 1.900272645596437e+001
 1.227229213573149e+000	 9.942343727330022e-002	 1.894980432102601e+001
 1.226269481243821e+000	 1.106332766566755e-001	 1.888503701236182e+001
 1.237500000000000e+000	 0.000000000000000e+000	 1.886500576391240e+001
 1.237451483640123e+000	 1.095790294999522e-002	 1.890281401177127e+001
 1.237305232298918e+000	 2.195477457345270e-002	 1.892989467684964e+001
 1.237060201454224e+000	 3.298951318272974e-002	 1.894611940232626e+001
 1.236715358970086e+000	 4.406099058341251e-002	 1.895136121762090e+001
 1.236269685801259e+000	 5.516805212139943e-002	 1.894549449840998e+001
 1.235722176703740e+000	 6.630951674955739e-002	 1.892839492345132e+001
 1.235071840950800e+000	 7.748417711437733e-002	 1.889993942843568e+001
 1.234317703053915e+000	 8.869079966304076e-002	 1.886000615710326e+001
 1.233458803488045e+000	 9.992812477129377e-002	 1.880847440988590e+001
 1.232494199420594e+000	 1.111948668925088e-001	 1.874522459035669e+001
 1.243750000000000e+000	 0.000000000000000e+000	 1.872056412060690e+001
 1.243701238607977e+000	 1.101324589413266e-002	 1.875879091940425e+001
 1.243554248623559e+000	 2.206565727319990e-002	 1.878639673328745e+001
 1.243307980249218e+000	 3.315612688547991e-002	 1.880325605960939e+001
 1.242961396136192e+000	 4.428352083860722e-002	 1.880924472208224e+001
 1.242513472092543e+000	 5.544667864689373e-002	 1.880423982432760e+001
 1.241963197797277e+000	 6.664441329832173e-002	 1.878811970012820e+001
 1.241309577519992e+000	 7.787551134163712e-002	 1.876076386060803e+001
 1.240551630845458e+000	 8.913873299395654e-002	 1.872205293859079e+001
 1.239688393402544e+000	 1.004328122692873e-001	 1.867186863040735e+001
 1.238718917596876e+000	 1.117564571283421e-001	 1.861009363544767e+001
 1.250000000000000e+000	 0.000000000000000e+000	 1.858118915411261e+001
 1.249950993575827e+000	 1.106858883827010e-002	 1.861979021710468e+001
 1.249803264948180e+000	 2.217653997294710e-002	 1.864787686309894e+001
 1.249555759044168e+000	 3.332274058823011e-002	 1.866532648515379e+001
 1.249207433302222e+000	 4.450605109380192e-002	 1.867201774295084e+001
 1.248757258383706e+000	 5.572530517238800e-002	 1.866783050981751e+001
 1.248204218890639e+000	 6.697930984708608e-002	 1.865264581634202e+001
 1.247547314088946e+000	 7.826684556889690e-002	 1.862634579081697e+001
 1.246785558636687e+000	 8.958666632487231e-002	 1.858881359677228e+001
 1.245917983316646e+000	 1.009374997672809e-001	 1.853993336788044e+001
 1.244943635772666e+000	 1.123180473641754e-001	 1.847959014053931e+001
 1.182696453992638e+000	 1.067021450058423e-001	 1.999955746090403e+001
 1.181668502196668e+000	 1.175406353539070e-001	 1.999307005300934e+001
 1.180537358176804e+000	 1.284048129876733e-001	 1.997474851842117e+001
 1.179302169472074e+000	 1.392933707434225e-001	 1.994450368136629e+001
 1.177962102460596e+000	 1.502049773645809e-001	 1.990224823826928e+001
 1.176516343067282e+000	 1.611382777512565e-001	 1.984789670776092e+001
 1.174964097471118e+000	 1.720918932318991e-001	 1.978136537932226e+001
 1.173304592811306e+000	 1.830644218573089e-001	 1.970257226090334e+001
 1.171537077891494e+000	 1.940544387171902e-001	 1.961143702587015e+001
 1.169660823881365e+000	 2.050604962794228e-001	 1.950788095965125e+001
 1.167675125014772e+000	 2.160811247521964e-001	 1.939182690646836e+001
 1.188921172172853e+000	 1.072637352416756e-001	 1.982537556466645e+001
 1.187887810104536e+000	 1.181592702756020e-001	 1.982163008992427e+001
 1.186750712695351e+000	 1.290806277914246e-001	 1.980589922691329e+001
 1.185509022997692e+000	 1.400264937456151e-001	 1.977809961755036e+001
 1.184161903002190e+000	 1.509955298749858e-001	 1.973814997477288e+001
 1.182708534349154e+000	 1.619863739475397e-001	 1.968597102878584e+001
 1.181148119039562e+000	 1.729976400355602e-001	 1.962148547164202e+001
 1.179479880144928e+000	 1.840279188111671e-001	 1.954461790049423e+001
 1.177703062515238e+000	 1.950757778645363e-001	 1.945529475987845e+001
 1.175816933484222e+000	 2.061397620449572e-001	 1.935344428340093e+001
 1.173820783571177e+000	 2.172183938248729e-001	 1.923899643521979e+001
 1.195145890352577e+000	 1.078253254775089e-001	 1.965628256772783e+001
 1.194107118011818e+000	 1.187779051973018e-001	 1.965537391529416e+001
 1.192964067213227e+000	 1.297564425951951e-001	 1.964233225154354e+001
 1.191715876522561e+000	 1.407596167478510e-001	 1.961708005116696e+001
 1.190361703542971e+000	 1.517860823854681e-001	 1.957954205598851e+001
 1.188900725630154e+000	 1.628344701439443e-001	 1.952964521735824e+001
 1.187332140607089e+000	 1.739033868393966e-001	 1.946731863657526e+001
 1.185655167477598e+000	 1.849914157652645e-001	 1.939249350368350e+001
 1.183869047138002e+000	 1.960971170121958e-001	 1.930510303500079e+001
 1.181973043086085e+000	 2.072190278108896e-001	 1.920508240976013e+001
 1.179966442126581e+000	 2.183556628980420e-001	 1.909236870625654e+001
 1.201370608531810e+000	 1.083869157133422e-001	 1.949221692409986e+001
 1.200326425918512e+000	 1.193965401190065e-001	 1.949423753285580e+001
 1.199177421730430e+000	 1.304322573989849e-001	 1.948398111389706e+001
 1.197922730046682e+000	 1.414927397501304e-001	 1.946137599054581e+001
 1.196561504082936e+000	 1.525766348960278e-001	 1.942635294668506e+001
 1.195092916910284e+000	 1.636825663404701e-001	 1.937884516520279e+001
 1.193516162173699e+000	 1.748091336434081e-001	 1.931878816416571e+001
 1.191830454809315e+000	 1.859549127196012e-001	 1.924611973106673e+001
 1.190035031759788e+000	 1.971184561601688e-001	 1.916077985551111e+001
 1.188129152686952e+000	 2.082982935772198e-001	 1.906271066072327e+001
 1.186112100680985e+000	 2.194929319717039e-001	 1.895185633427374e+001
 1.207595326710550e+000	 1.089485059491755e-001	 1.933311824975857e+001
 1.206545733824620e+000	 1.200151750407158e-001	 1.933815814893608e+001
 1.205390776246960e+000	 1.311080722027938e-001	 1.933078057960993e+001
 1.204129583570055e+000	 1.422258627524531e-001	 1.931091973035571e+001
 1.202761304622086e+000	 1.533671874066649e-001	 1.927851244107623e+001
 1.201285108189543e+000	 1.645306625371173e-001	 1.923349813740329e+001
 1.199700183739391e+000	 1.757148804475950e-001	 1.917581876252861e+001
 1.198005742140078e+000	 1.869184096741770e-001	 1.910541870681154e+001
 1.196201016380595e+000	 1.981397953084553e-001	 1.902224473553184e+001
 1.194285262286825e+000	 2.093775593439479e-001	 1.892624591517425e+001
 1.192257759234390e+000	 2.206302010458583e-001	 1.881737353864900e+001
 1.213820044888798e+000	 1.095100961850088e-001	 1.917892729285066e+001
 1.212765041730141e+000	 1.206338099624301e-001	 1.918707414161647e+001
 1.211604130762818e+000	 1.317838870066220e-001	 1.918266662647071e+001
 1.210336437092679e+000	 1.429589857548192e-001	 1.916564481862113e+001
 1.208961105160422e+000	 1.541577399173794e-001	 1.913595162873184e+001
 1.207477299467931e+000	 1.653787587338858e-001	 1.909353273718789e+001
 1.205884205304167e+000	 1.766206272519571e-001	 1.903833652148987e+001
 1.204181029469889e+000	 1.878819066289922e-001	 1.897031398112971e+001
 1.202367001000422e+000	 1.991611344570550e-001	 1.888941866031979e+001
 1.200441371885703e+000	 2.104568251110738e-001	 1.879560656896635e+001
 1.198403417786794e+000	 2.217674701205055e-001	 1.868883610229680e+001
 1.220044763066555e+000	 1.100716864208421e-001	 1.902958590481122e+001
 1.218984349635074e+000	 1.212524448841491e-001	 1.904092503084122e+001
 1.217817485278004e+000	 1.324597018104694e-001	 1.903957641349789e+001
 1.216543290614554e+000	 1.436921087572287e-001	 1.902548602474899e+001
 1.215160905697944e+000	 1.549482924281713e-001	 1.899860286153330e+001
 1.213669490745448e+000	 1.662268549307757e-001	 1.895887887179310e+001
 1.212068226868025e+000	 1.775263740564943e-001	 1.890626887733840e+001
 1.210356316798745e+000	 1.888454035840465e-001	 1.884073049389876e+001
 1.208532985619270e+000	 2.001824736059683e-001	 1.876222404873732e+001
 1.206597481483587e+000	 2.115360908785977e-001	 1.867071249622387e+001
 1.204549076338198e+000	 2.229047391956453e-001	 1.856616133178215e+001
 1.226269481243821e+000	 1.106332766566755e-001	 1.888503701236182e+001
 1.225203657539421e+000	 1.218710798058728e-001	 1.889965144943605e+001
 1.224030839792516e+000	 1.331355166143360e-001	 1.890144825095956e+001
 1.222750144135681e+000	 1.444252317596817e-001	 1.889037930852912e+001
 1.221360706234651e+000	 1.557388449390405e-001	 1.886639972163518e+001
 1.219861682022095e+000	 1.670749511277868e-001	 1.882946771936684e+001
 1.218252248430967e+000	 1.784321208612069e-001	 1.877954457865198e+001
 1.216531604126649e+000	 1.898089005393402e-001	 1.871659453939125e+001
 1.214698970237139e+000	 2.012038127551950e-001	 1.864058471686628e+001
 1.212753591080475e+000	 2.126153566465194e-001	 1.855148501182272e+001
 1.210694734888603e+000	 2.240420082712779e-001	 1.844926801864961e+001
 1.232494199420594e+000	 1.111948668925088e-001	 1.874522459035669e+001
 1.231422965443181e+000	 1.224897147276014e-001	 1.876319511500525e+001
 1.230244194306357e+000	 1.338113314182219e-001	 1.876822157130152e+001
 1.228956997656060e+000	 1.451583547621780e-001	 1.876026179007404e+001
 1.227560506770542e+000	 1.565293974499872e-001	 1.873927699039765e+001
 1.226053873297870e+000	 1.679230473249192e-001	 1.870523169687509e+001
 1.224436269992991e+000	 1.793378676660946e-001	 1.865809365315854e+001
 1.222706891453600e+000	 1.907723974948731e-001	 1.859783373207266e+001
 1.220864954854029e+000	 2.022251519047352e-001	 1.852442584272477e+001
 1.218909700676369e+000	 2.136946224148391e-001	 1.843784683500775e+001
 1.216840393438007e+000	 2.251792773474030e-001	 1.833807640192337e+001
 1.238718917596876e+000	 1.117564571283421e-001	 1.861009363544767e+001
 1.237642273346354e+000	 1.231083496493348e-001	 1.863149880267572e+001
 1.236457548819524e+000	 1.344871462221269e-001	 1.863983690095176e+001
 1.235163851175690e+000	 1.458914777647177e-001	 1.863507172066517e+001
 1.233760307305620e+000	 1.573199499610113e-001	 1.861717061825565e+001
 1.232246064572775e+000	 1.687711435221729e-001	 1.858610442897543e+001
 1.230620291554098e+000	 1.802436144711576e-001	 1.854184737559681e+001
 1.228882178779597e+000	 1.917358944506452e-001	 1.848437697343101e+001
 1.227030939469940e+000	 2.032464910545887e-001	 1.841367393204767e+001
 1.225065810271268e+000	 2.147738881835565e-001	 1.832972205410709e+001
 1.222986051986412e+000	 2.263165464240208e-001	 1.823250813173885e+001
 1.244943635772666e+000	 1.123180473641754e-001	 1.847959014053931e+001
 1.243861581248940e+000	 1.237269845710730e-001	 1.850450631865903e+001
 1.242670903332019e+000	 1.351629610260512e-001	 1.851623583297089e+001
 1.241370704694571e+000	 1.466246007673008e-001	 1.851474845447364e+001
 1.239960107839882e+000	 1.581105024721127e-001	 1.850001769549230e+001
 1.238438255846809e+000	 1.696192397195480e-001	 1.847202071782498e+001
 1.236804313114289e+000	 1.811493612763959e-001	 1.843073823654105e+001
 1.235057466104641e+000	 1.926993914066566e-001	 1.837615441980111e+001
 1.233196924084871e+000	 2.042678302047557e-001	 1.830825678509360e+001
 1.231221919865173e+000	 2.158531539526719e-001	 1.822703609230504e+001
 1.229131710533816e+000	 2.274538155011313e-001	 1.813248623406464e+001
 1.167675125014772e+000	 2.160811247521964e-001	 1.939182690646836e+001
 1.165579299284062e+000	 2.271148324694689e-001	 1.934218317292188e+001
 1.163372689128536e+000	 2.381601062988596e-001	 1.928142864437899e+001
 1.161054662117071e+000	 2.492154120725943e-001	 1.920956347633009e+001
 1.158624611624860e+000	 2.602791950422927e-001	 1.912658908253875e+001
 1.156081957502228e+000	 2.713498803565931e-001	 1.903250800893829e+001
 1.153426146735067e+000	 2.824258735618947e-001	 1.892732380860934e+001
 1.150656654096043e+000	 2.935055611261507e-001	 1.881104091838539e+001
 1.147772982785712e+000	 3.045873109856098e-001	 1.868366453764196e+001
 1.144774665062669e+000	 3.156694731143683e-001	 1.854520050983276e+001
 1.141661262861868e+000	 3.267503801165619e-001	 1.839565520734105e+001
 1.173820783571177e+000	 2.172183938248729e-001	 1.923899643521979e+001
 1.171713927178897e+000	 2.283101736874360e-001	 1.919222060115793e+001
 1.169495703285802e+000	 2.394135805364808e-001	 1.913416459765608e+001
 1.167165476132183e+000	 2.505270721296666e-001	 1.906483448308451e+001
 1.164722635900472e+000	 2.616490855357278e-001	 1.898423776827747e+001
 1.162166599387571e+000	 2.727780376146121e-001	 1.889238328623917e+001
 1.159496810668771e+000	 2.839123255208584e-001	 1.878928106267339e+001
 1.156712741752386e+000	 2.950503272301470e-001	 1.867494218788765e+001
 1.153813893224234e+000	 3.061904020889177e-001	 1.854937869063479e+001
 1.150799794881115e+000	 3.173308913869211e-001	 1.841260341446170e+001
 1.147670006352376e+000	 3.284701189525257e-001	 1.826462989714105e+001
 1.179966442126581e+000	 2.183556628980420e-001	 1.909236870625654e+001
 1.177848555072736e+000	 2.295055149059909e-001	 1.904856941625541e+001
 1.175618717442088e+000	 2.406670547747754e-001	 1.899332509424879e+001
 1.173276290146340e+000	 2.518387321874880e-001	 1.892664770212302e+001
 1.170820660175161e+000	 2.630189760299782e-001	 1.884855084456780e+001
 1.168251241272035e+000	 2.742061948735025e-001	 1.875904963450294e+001
 1.165567474601652e+000	 2.853987774807396e-001	 1.865816055907352e+001
 1.162768829407969e+000	 2.965950933350967e-001	 1.854590134677138e+001
 1.159854803662071e+000	 3.077934931932049e-001	 1.842229083625114e+001
 1.156824924698961e+000	 3.189923096604687e-001	 1.828734884741798e+001
 1.153678749842379e+000	 3.301898577894895e-001	 1.814109605537030e+001
 1.186112100680985e+000	 2.194929319717039e-001	 1.895185633427374e+001
 1.183983182965581e+000	 2.307008561251338e-001	 1.891113985850410e+001
 1.181741731597392e+000	 2.419205290137433e-001	 1.885881796366665e+001
 1.179387104159540e+000	 2.531503922460588e-001	 1.879490851654249e+001
 1.176918684448927e+000	 2.643888665250437e-001	 1.871943121322844e+001
 1.174335883155621e+000	 2.756343521332642e-001	 1.863240744019514e+001
 1.171638138533708e+000	 2.868852294415383e-001	 1.853386013566174e+001
 1.168824917062792e+000	 2.981398594409997e-001	 1.842381365185223e+001
 1.165895714099223e+000	 3.093965842984714e-001	 1.830229361870771e+001
 1.162850054516205e+000	 3.206537279350111e-001	 1.816932680963920e+001
 1.159687493331875e+000	 3.319095966274531e-001	 1.802494100991200e+001
 1.192257759234390e+000	 2.206302010458583e-001	 1.881737353864900e+001
 1.190117810857430e+000	 2.318961973448645e-001	 1.877984381404810e+001
 1.187864745751717e+000	 2.431740032533848e-001	 1.873055272344476e+001
 1.185497918171783e+000	 2.544620523053788e-001	 1.866952404062655e+001
 1.183016708721772e+000	 2.657587570209246e-001	 1.859678355140624e+001
 1.180420525038329e+000	 2.770625093938973e-001	 1.851235891022092e+001
 1.177708802464941e+000	 2.883716814032545e-001	 1.841627949679991e+001
 1.174881004716855e+000	 2.996846255478564e-001	 1.830857627347292e+001
 1.171936624535689e+000	 3.109996754047172e-001	 1.818928164370005e+001
 1.168875184332848e+000	 3.223151462105482e-001	 1.805842931241498e+001
 1.165696236820865e+000	 3.336293354664169e-001	 1.791605414878124e+001
 1.198403417786794e+000	 2.217674701205055e-001	 1.868883610229680e+001
 1.196252438748285e+000	 2.330915385651829e-001	 1.865459477268463e+001
 1.193987759905060e+000	 2.444274774936996e-001	 1.860844053586081e+001
 1.191608732183070e+000	 2.557737123654482e-001	 1.855040307545577e+001
 1.189114732993695e+000	 2.671286475176208e-001	 1.848051426605478e+001
 1.186505166920159e+000	 2.784906666554017e-001	 1.839880802524704e+001
 1.183779466395349e+000	 2.898581333658880e-001	 1.830532016550056e+001
 1.180937092370158e+000	 3.012293916556664e-001	 1.820008824643869e+001
 1.177977534971469e+000	 3.126027665119421e-001	 1.808315142810844e+001
 1.174900314148891e+000	 3.239765644870803e-001	 1.795455032583944e+001
 1.171704980309348e+000	 3.353490743063806e-001	 1.781432686730139e+001
 1.204549076338198e+000	 2.229047391956453e-001	 1.856616133178215e+001
 1.202387066638144e+000	 2.342868797860894e-001	 1.853530778695439e+001
 1.200110774057423e+000	 2.456809517346879e-001	 1.849239416597753e+001
 1.197719546193401e+000	 2.570853724262667e-001	 1.843745606587759e+001
 1.195212757264695e+000	 2.684985380151321e-001	 1.837053144980682e+001
 1.192589808801110e+000	 2.799188239177775e-001	 1.829166049445298e+001
 1.189850130324933e+000	 2.913445853294390e-001	 1.820088543703290e+001
 1.186993180022701e+000	 3.027741577644298e-001	 1.809825042245441e+001
 1.184018445406563e+000	 3.142058576201465e-001	 1.798380135124316e+001
 1.180925443964332e+000	 3.256379827646070e-001	 1.785758572884163e+001
 1.177713723797325e+000	 3.370688131473442e-001	 1.771965251689717e+001
 1.210694734888603e+000	 2.240420082712779e-001	 1.844926801864961e+001
 1.208521694527007e+000	 2.354822210075836e-001	 1.842189943247800e+001
 1.206233788208805e+000	 2.469344259763495e-001	 1.838232794096288e+001
 1.203830360202775e+000	 2.583970324878345e-001	 1.833059505878591e+001
 1.201310781534773e+000	 2.698684285134588e-001	 1.826674483819056e+001
 1.198674450681184e+000	 2.813469811810245e-001	 1.819082371165986e+001
 1.195920794253693e+000	 2.928310372939075e-001	 1.810288033394139e+001
 1.193049267674484e+000	 3.043189238741467e-001	 1.800296542401030e+001
 1.190059355840972e+000	 3.158089487293298e-001	 1.789113160757450e+001
 1.186950573779172e+000	 3.272994010431286e-001	 1.776743326073795e+001
 1.183722467284796e+000	 3.387885519893080e-001	 1.763192635544748e+001
 1.216840393438007e+000	 2.251792773474030e-001	 1.833807640192337e+001
 1.214656322414876e+000	 2.366775622296657e-001	 1.831428776949442e+001
 1.212356802359207e+000	 2.481879002186846e-001	 1.827815771064283e+001
 1.209941174211193e+000	 2.597086925501516e-001	 1.822973366266573e+001
 1.207408805803928e+000	 2.712383190126007e-001	 1.816906576814236e+001
 1.204759092560379e+000	 2.827751384451431e-001	 1.809620671278914e+001
 1.201991458181629e+000	 2.943174892592934e-001	 1.801121156242793e+001
 1.199105355325508e+000	 3.058636899848170e-001	 1.791413759966533e+001
 1.196100266274696e+000	 3.174120398394926e-001	 1.780504416089572e+001
 1.192975703593411e+000	 3.289608193226450e-001	 1.768399247425268e+001
 1.189731210771761e+000	 3.405082908322717e-001	 1.755104549914240e+001
 1.222986051986412e+000	 2.263165464240208e-001	 1.823250813173885e+001
 1.220790950301750e+000	 2.378729034523358e-001	 1.821239230555909e+001
 1.218479816508628e+000	 2.494413744616932e-001	 1.817980080924382e+001
 1.216051988218655e+000	 2.610203526132178e-001	 1.813478700835697e+001
 1.213506830072162e+000	 2.726082095125579e-001	 1.807740713777023e+001
 1.210843734438696e+000	 2.842032957101330e-001	 1.800772013460379e+001
 1.208062122108741e+000	 2.958039412255967e-001	 1.792578747004878e+001
 1.205161442975771e+000	 3.074084560964407e-001	 1.783167298067829e+001
 1.202141176707734e+000	 3.190151309506346e-001	 1.772544269986741e+001
 1.199000833407049e+000	 3.306222376031562e-001	 1.760716468995505e+001
 1.195739954258219e+000	 3.422280296762355e-001	 1.747690887579217e+001
 1.229131710533816e+000	 2.274538155011313e-001	 1.813248623406464e+001
 1.226925578187628e+000	 2.390682446755935e-001	 1.811613395936081e+001
 1.224602830657068e+000	 2.506948487053751e-001	 1.808717601828258e+001
 1.222162802225159e+000	 2.623320126770334e-001	 1.804567171099564e+001
 1.219604854339473e+000	 2.739781000133303e-001	 1.799168336732483e+001
 1.216928376316135e+000	 2.856314529759942e-001	 1.792527617468729e+001
 1.214132786035029e+000	 2.972903931928175e-001	 1.784651800468073e+001
 1.211217530625275e+000	 3.089532222090179e-001	 1.775547923894080e+001
 1.208182087140086e+000	 3.206182220627558e-001	 1.765223259489586e+001
 1.205025963220085e+000	 3.322836558846621e-001	 1.753685295206291e+001
 1.201748697744171e+000	 3.439477685211992e-001	 1.740941717953658e+001
 1.141661262861868e+000	 3.267503801165619e-001	 1.839565520734105e+001
 1.138432368399839e+000	 3.378283478410926e-001	 1.831509633030064e+001
 1.135087604767134e+000	 3.489016760182664e-001	 1.822255511635382e+001
 1.131626626506307e+000	 3.599686489184504e-001	 1.811803825136250e+001
 1.128049120173761e+000	 3.710275360325238e-001	 1.800155326919656e+001
 1.124354804885831e+000	 3.820765927734313e-001	 1.787310846664433e+001
 1.120543432847807e+000	 3.931140611985838e-001	 1.773271282413435e+001
 1.116614789865071e+000	 4.041381707526780e-001	 1.758037593279114e+001
 1.112568695835494e+000	 4.151471390304695e-001	 1.741610792833394e+001
 1.108405005222262e+000	 4.261391725589966e-001	 1.723991943231493e+001
 1.104123607506328e+000	 4.371124675987153e-001	 1.705182150117442e+001
 1.147670006352376e+000	 3.284701189525257e-001	 1.826462989714105e+001
 1.144424117708413e+000	 3.396063917706330e-001	 1.818583814314779e+001
 1.141061750056138e+000	 3.507380006227136e-001	 1.809544790826068e+001
 1.137582556119909e+000	 3.618632207489785e-001	 1.799344724504456e+001
 1.133986220806428e+000	 3.729803125323642e-001	 1.787982438204761e+001
 1.130272461753694e+000	 3.840875222037781e-001	 1.775456764654228e+001
 1.126441029862816e+000	 3.951830825683017e-001	 1.761766539417930e+001
 1.122491709811837e+000	 4.062652137519197e-001	 1.746910594608806e+001
 1.118424320550721e+000	 4.173321239683070e-001	 1.730887753394225e+001
 1.114238715776674e+000	 4.283820103051712e-001	 1.713696825349422e+001
 1.109934784388969e+000	 4.394130595296016e-001	 1.695336602706075e+001
 1.153678749842379e+000	 3.301898577894895e-001	 1.814109605537030e+001
 1.150415867016576e+000	 3.413844357011684e-001	 1.806368909937575e+001
 1.147035895344816e+000	 3.525743252281414e-001	 1.797506537308265e+001
 1.143538485733261e+000	 3.637577925804627e-001	 1.787519444381990e+001
 1.139923321438910e+000	 3.749330890331263e-001	 1.776404538426542e+001
 1.136190118621429e+000	 3.860984516350026e-001	 1.764158670289427e+001
 1.132338626877743e+000	 3.972521039388433e-001	 1.750778628243918e+001
 1.128368629758556e+000	 4.083922567519204e-001	 1.736261132690813e+001
 1.124279945265927e+000	 4.195171089068294e-001	 1.720602831768801e+001
 1.120072426331081e+000	 4.306248480519457e-001	 1.703800297924457e+001
 1.115745961271609e+000	 4.417136514609928e-001	 1.685850025490766e+001
 1.159687493331875e+000	 3.319095966274531e-001	 1.802494100991200e+001
 1.156407616324327e+000	 3.431624796326991e-001	 1.794854215092857e+001
 1.153010040633169e+000	 3.544106498345496e-001	 1.786130615965324e+001
 1.149494415346364e+000	 3.656523644129032e-001	 1.776318426426073e+001
 1.145860422071209e+000	 3.768858655348105e-001	 1.765412652895802e+001
 1.142107775489035e+000	 3.881093810671046e-001	 1.753408179201682e+001
 1.138236223892587e+000	 3.993211253102079e-001	 1.740299761291544e+001
 1.134245549705228e+000	 4.105192997526803e-001	 1.726082022914726e+001
 1.130135569981113e+000	 4.217020938460363e-001	 1.710749452323411e+001
 1.125906136885482e+000	 4.328676857993202e-001	 1.694296400046287e+001
 1.121557138154250e+000	 4.440142433928893e-001	 1.676717077783902e+001
 1.165696236820865e+000	 3.336293354664169e-001	 1.791605414878124e+001
 1.162399365631668e+000	 3.449405235652250e-001	 1.784029218888579e+001
 1.158984185921196e+000	 3.562469744419385e-001	 1.775407073374476e+001
 1.155450344959216e+000	 3.675469362462998e-001	 1.765732281652617e+001
 1.151797522703323e+000	 3.788386420374164e-001	 1.754997963835920e+001
 1.148025432356514e+000	 3.901203105000843e-001	 1.743197051382865e+001
 1.144133820907350e+000	 4.013901466823960e-001	 1.730322282667414e+001
 1.140122469651855e+000	 4.126463427541992e-001	 1.716366199626341e+001
 1.135991194696279e+000	 4.238870787859279e-001	 1.701321145538863e+001
 1.131739847439878e+000	 4.351105235472946e-001	 1.685179263991086e+001
 1.127368315036890e+000	 4.463148353252908e-001	 1.667932499075324e+001
 1.171704980309348e+000	 3.353490743063806e-001	 1.781432686730139e+001
 1.168391114938597e+000	 3.467185674987460e-001	 1.773883599374074e+001
 1.164958331208897e+000	 3.580832990503079e-001	 1.765326133148012e+001
 1.161406274571819e+000	 3.694415080806524e-001	 1.755751786093709e+001
 1.157734623335254e+000	 3.807914185409442e-001	 1.745151806359465e+001
 1.153943089223864e+000	 3.921312399339416e-001	 1.733517187483551e+001
 1.150031417922030e+000	 4.034591680554076e-001	 1.720838664807510e+001
 1.145999389598435e+000	 4.147733857564772e-001	 1.707106713077510e+001
 1.141846819411423e+000	 4.260720637265040e-001	 1.692311545289573e+001
 1.137573557994270e+000	 4.373533612958692e-001	 1.676443112832155e+001
 1.133179491919531e+000	 4.486154272581974e-001	 1.659491106976507e+001
 1.177713723797325e+000	 3.370688131473442e-001	 1.771965251689717e+001
 1.174382864245115e+000	 3.484966114332621e-001	 1.764407218720143e+001
 1.170932476496273e+000	 3.599196236596579e-001	 1.755878191417071e+001
 1.167362204184171e+000	 3.713360799159613e-001	 1.746367876588002e+001
 1.163671723967001e+000	 3.827441950453939e-001	 1.735865664567951e+001
 1.159860746091086e+000	 3.941421693686766e-001	 1.724360625224753e+001
 1.155929014936628e+000	 4.055281894292424e-001	 1.711841505203476e+001
 1.151876309544968e+000	 4.169004287595141e-001	 1.698296726469329e+001
 1.147702444126547e+000	 4.282570486677648e-001	 1.683714386205995e+001
 1.143407268548655e+000	 4.395961990450436e-001	 1.668082258123628e+001
 1.138990668802171e+000	 4.509160191916093e-001	 1.651387795227648e+001
 1.183722467284796e+000	 3.387885519893080e-001	 1.763192635544748e+001
 1.180374613551223e+000	 3.502746553687734e-001	 1.755590118545906e+001
 1.176906621783323e+000	 3.617559482699884e-001	 1.747053812453001e+001
 1.173318133796274e+000	 3.732306517522263e-001	 1.737571646699333e+001
 1.169608824598563e+000	 3.846969715507655e-001	 1.727131167770387e+001
 1.165778402958181e+000	 3.961530988042891e-001	 1.715719535919001e+001
 1.161826611951144e+000	 4.075972108039007e-001	 1.703323523228624e+001
 1.157753229491456e+000	 4.190274717633102e-001	 1.689929513085438e+001
 1.153558068841651e+000	 4.304420336097101e-001	 1.675523501117338e+001
 1.149240979103036e+000	 4.418390367948181e-001	 1.660091097654804e+001
 1.144801845684812e+000	 4.532166111255263e-001	 1.643617531765463e+001
 1.189731210771761e+000	 3.405082908322717e-001	 1.755104549914240e+001
 1.186366362856919e+000	 3.520526993052799e-001	 1.747422515387286e+001
 1.182880767070047e+000	 3.635922728812995e-001	 1.738843724421406e+001
 1.179274063408127e+000	 3.751252235894474e-001	 1.729354342759016e+001
 1.175545925229941e+000	 3.866497480570588e-001	 1.718940086816436e+001
 1.171696059825147e+000	 3.981640282407792e-001	 1.707586221096812e+001
 1.167724208965577e+000	 4.096662321793822e-001	 1.695277557060101e+001
 1.163630149437897e+000	 4.211545147678653e-001	 1.681998453512132e+001
 1.159413693556733e+000	 4.326270185523402e-001	 1.667732818571809e+001
 1.155074689657412e+000	 4.440818745451926e-001	 1.652464113272447e+001
 1.150613022567453e+000	 4.555172030599484e-001	 1.636175356849553e+001
 1.195739954258219e+000	 3.422280296762355e-001	 1.747690887579217e+001
 1.192358112162204e+000	 3.538307432427815e-001	 1.739894796302110e+001
 1.188854912356446e+000	 3.654285974935911e-001	 1.731238815264158e+001
 1.185229993019730e+000	 3.770197954276248e-001	 1.721707360027464e+001
 1.181483025861135e+000	 3.886025245642741e-001	 1.711284330540103e+001
 1.177613716691984e+000	 4.001749576781470e-001	 1.699953109234875e+001
 1.173621805979929e+000	 4.117352535556872e-001	 1.687696560693889e+001
 1.169507069384292e+000	 4.232815577731796e-001	 1.674497032942325e+001
 1.165269318271796e+000	 4.348120034956549e-001	 1.660336360431629e+001
 1.160908400211782e+000	 4.463247122961671e-001	 1.645195868768836e+001
 1.156424199450093e+000	 4.578177949948756e-001	 1.629056381245233e+001
 1.201748697744171e+000	 3.439477685211992e-001	 1.740941717953658e+001
 1.198349861467078e+000	 3.556087871812781e-001	 1.732997514607068e+001
 1.194829057642519e+000	 3.672649221068633e-001	 1.724230128705038e+001
 1.191185922631083e+000	 3.789143672667582e-001	 1.714622238970962e+001
 1.187420126492145e+000	 3.905553010724112e-001	 1.704155942310139e+001
 1.183531373558695e+000	 4.021858871163925e-001	 1.692812752582404e+001
 1.179519402994198e+000	 4.138042749328155e-001	 1.680573601049297e+001
 1.175383989330640e+000	 4.254086007792526e-001	 1.667418838560390e+001
 1.171124942986837e+000	 4.369969884396540e-001	 1.653328239540153e+001
 1.166742110766147e+000	 4.485675500477415e-001	 1.638281007833093e+001
 1.162235376332733e+000	 4.601183869303079e-001	 1.622255784460888e+001
 1.104123607506328e+000	 4.371124675987153e-001	 1.705182150117442e+001
 1.099724427618340e+000	 4.480652109626246e-001	 1.691264812014022e+001
 1.095207426347230e+000	 4.589955808538688e-001	 1.676874275959316e+001
 1.090572600726104e+000	 4.699017477203041e-001	 1.662028642826464e+001
 1.085819984395989e+000	 4.807818751247672e-001	 1.646745542375869e+001
 1.080949647944695e+000	 4.916341206313848e-001	 1.631042108421857e+001
 1.075961699220761e+000	 5.024566367067984e-001	 1.614934955352915e+001
 1.070856283621823e+000	 5.132475716355116e-001	 1.598440156080241e+001
 1.065633584356746e+000	 5.240050704485425e-001	 1.581573221485641e+001
 1.060293822680900e+000	 5.347272758645291e-001	 1.564349081436204e+001
 1.054837258104013e+000	 5.454123292424070e-001	 1.546782067428930e+001
 1.109934784388969e+000	 4.394130595296016e-001	 1.695336602706075e+001
 1.105512450923085e+000	 4.504234489114921e-001	 1.682137131094725e+001
 1.100971675961515e+000	 4.614113470655670e-001	 1.668437709333169e+001
 1.096312456521747e+000	 4.723749148104604e-001	 1.654255966081986e+001
 1.091534826421867e+000	 4.833123060435500e-001	 1.639609066187851e+001
 1.086638856621199e+000	 4.942216686319315e-001	 1.624513686382215e+001
 1.081624655535908e+000	 5.051011453183862e-001	 1.608985992346371e+001
 1.076492369328878e+000	 5.159488746415466e-001	 1.593041617217201e+001
 1.071242182173231e+000	 5.267629918694360e-001	 1.576695641604117e+001
 1.065874316488841e+000	 5.375416299455271e-001	 1.559962575183993e+001
 1.060389033151275e+000	 5.482829204464338e-001	 1.542856339936730e+001
 1.115745961271609e+000	 4.417136514609928e-001	 1.685850025490766e+001
 1.111300474227825e+000	 4.527816868607744e-001	 1.673367078005209e+001
 1.106735925575779e+000	 4.638271132776092e-001	 1.660357911112979e+001
 1.102052312317345e+000	 4.748480819009098e-001	 1.646839682491666e+001
 1.097249668447666e+000	 4.858427369625947e-001	 1.632829092852895e+001
 1.092328065297581e+000	 4.968092166327285e-001	 1.618342362167192e+001
 1.087287611850877e+000	 5.077456539302333e-001	 1.603395207268807e+001
 1.082128455035691e+000	 5.186501776478694e-001	 1.588002820914132e+001
 1.076850779989400e+000	 5.295209132906663e-001	 1.572179852363941e+001
 1.071454810296381e+000	 5.403559840269314e-001	 1.555940389555552e+001
 1.065940808198040e+000	 5.511535116509569e-001	 1.539297942926937e+001
 1.121557138154250e+000	 4.440142433928893e-001	 1.676717077783902e+001
 1.117088497532560e+000	 4.551399248104715e-001	 1.664949341330668e+001
 1.112500175190024e+000	 4.662428794899957e-001	 1.652629595674888e+001
 1.107792168112899e+000	 4.773212489916522e-001	 1.639774528697561e+001
 1.102964510473387e+000	 4.883731678819011e-001	 1.626400377711649e+001
 1.098017273973839e+000	 4.993967646337759e-001	 1.612522906207451e+001
 1.092950568165669e+000	 5.103901625423390e-001	 1.598157381991994e+001
 1.087764540742262e+000	 5.213514806544803e-001	 1.583318556795835e+001
 1.082459377805253e+000	 5.322788347122337e-001	 1.568020647416806e+001
 1.077035304103519e+000	 5.431703381087421e-001	 1.552277318466392e+001
 1.071492583244310e+000	 5.540241028559760e-001	 1.536101666780133e+001
 1.127368315036890e+000	 4.463148353252908e-001	 1.667932499075324e+001
 1.122876520837291e+000	 4.574981627605836e-001	 1.656878689041684e+001
 1.118264424804250e+000	 4.686586457027263e-001	 1.645247556092718e+001
 1.113532023908410e+000	 4.797944160826879e-001	 1.633055319456959e+001
 1.108679352499029e+000	 4.909035988014693e-001	 1.620317753743715e+001
 1.103706482649975e+000	 5.019843126350742e-001	 1.607050166203225e+001
 1.098613524480284e+000	 5.130346711547041e-001	 1.593267375395683e+001
 1.093400626448592e+000	 5.240527836613792e-001	 1.578983691341933e+001
 1.088067975620789e+000	 5.350367561341380e-001	 1.564212897225101e+001
 1.082615797910257e+000	 5.459846921909589e-001	 1.548968232708256e+001
 1.077044358290083e+000	 5.568946940614913e-001	 1.533262378928840e+001
 1.133179491919531e+000	 4.486154272581974e-001	 1.659491106976507e+001
 1.128664544142016e+000	 4.598564007111105e-001	 1.649149966458732e+001
 1.124028674418456e+000	 4.710744119158010e-001	 1.638206662120100e+001
 1.119271879703875e+000	 4.822675831740164e-001	 1.626676945639442e+001
 1.114394194524592e+000	 4.934340297212995e-001	 1.614576129576867e+001
 1.109395691325988e+000	 5.045718606366226e-001	 1.601919065143098e+001
 1.104276480794721e+000	 5.156791797673286e-001	 1.588720121393054e+001
 1.099036712154679e+000	 5.267540866685658e-001	 1.574993165916203e+001
 1.093676573436009e+000	 5.377946775563794e-001	 1.560751547092410e+001
 1.088196291716593e+000	 5.487990462735820e-001	 1.546008077977956e+001
 1.082596133335361e+000	 5.597652852675025e-001	 1.530775021881807e+001
 1.138990668802171e+000	 4.509160191916093e-001	 1.651387795227648e+001
 1.134452567446737e+000	 4.622146386620524e-001	 1.641758094278951e+001
 1.129792924032642e+000	 4.734901781292200e-001	 1.631501858234337e+001
 1.125011735499297e+000	 4.847407502656382e-001	 1.620634372285224e+001
 1.120109036550077e+000	 4.959644606413915e-001	 1.609170487557284e+001
 1.115084900001878e+000	 5.071594086384217e-001	 1.597124599383345e+001
 1.109939437108981e+000	 5.183236883802121e-001	 1.584510627016602e+001
 1.104672797860524e+000	 5.294553896760406e-001	 1.571341994856310e+001
 1.099285171250912e+000	 5.405525989789576e-001	 1.557631615254311e+001
 1.093776785522529e+000	 5.516134003566117e-001	 1.543391872966502e+001
 1.088147908380142e+000	 5.626358764740098e-001	 1.528634611308844e+001
 1.144801845684812e+000	 4.532166111255263e-001	 1.643617531765463e+001
 1.140240590751453e+000	 4.645728766134090e-001	 1.634698066663048e+001
 1.135557173646809e+000	 4.759059443429830e-001	 1.625128161739878e+001
 1.130751591294675e+000	 4.872139173575530e-001	 1.614922636722658e+001
 1.125823878575484e+000	 4.984948915617453e-001	 1.604095881878497e+001
 1.120774108677645e+000	 5.097469566404712e-001	 1.592661836785825e+001
 1.115602393423063e+000	 5.209681969933548e-001	 1.580633970562300e+001
 1.110308883566128e+000	 5.321566926838032e-001	 1.568025263621642e+001
 1.104893769065499e+000	 5.433105204018729e-001	 1.554848191027294e+001
 1.099357279328063e+000	 5.544277544400476e-001	 1.541114707506487e+001
 1.093699683424428e+000	 5.655064676810132e-001	 1.526836234183901e+001
 1.150613022567453e+000	 4.555172030599484e-001	 1.636175356849553e+001
 1.146028614056163e+000	 4.669311145651807e-001	 1.627964949380141e+001
 1.141321423260956e+000	 4.783217105570903e-001	 1.619080660929247e+001
 1.136491447090009e+000	 4.896870844497610e-001	 1.609536846742783e+001
 1.131538720600812e+000	 5.010253224823609e-001	 1.599347436767090e+001
 1.126463317353289e+000	 5.123345046427712e-001	 1.588525914912281e+001
 1.121265349736968e+000	 5.236127056067564e-001	 1.577085299790027e+001
 1.115944969271489e+000	 5.348579956918539e-001	 1.565038126997334e+001
 1.110502366879770e+000	 5.460684418251252e-001	 1.552396433013793e+001
 1.104937773133196e+000	 5.572421085238898e-001	 1.539171740775544e+001
 1.099251458468217e+000	 5.683770588885128e-001	 1.525375046984464e+001
 1.156424199450093e+000	 4.578177949948756e-001	 1.629056381245233e+001
 1.151816637360870e+000	 4.692893525173670e-001	 1.621553878008557e+001
 1.147085672875084e+000	 4.807374767715416e-001	 1.613354513299402e+001
 1.142231302885299e+000	 4.921602515422621e-001	 1.604472178828901e+001
 1.137253562626061e+000	 5.035557534032383e-001	 1.594920344723055e+001
 1.132152526028810e+000	 5.149220526453217e-001	 1.584712039273088e+001
 1.126928306050696e+000	 5.262572142204174e-001	 1.573859830178255e+001
 1.121581054976610e+000	 5.375592987001925e-001	 1.562375807352389e+001
 1.116110964693724e+000	 5.488263632487144e-001	 1.550271567361343e+001
 1.110518266937927e+000	 5.600564626081381e-001	 1.537558199554055e+001
 1.104803233511510e+000	 5.712476500965084e-001	 1.524246273945276e+001
 1.162235376332733e+000	 4.601183869303079e-001	 1.622255784460888e+001
 1.157604660665571e+000	 4.716475904699682e-001	 1.615460056190605e+001
 1.152849922489192e+000	 4.831532429863371e-001	 1.607944943821660e+001
 1.147971158680544e+000	 4.946334186350563e-001	 1.599723876439262e+001
 1.142968404651232e+000	 5.060861843243777e-001	 1.590809864812957e+001
 1.137841734704207e+000	 5.175096006481225e-001	 1.581215481628530e+001
 1.132591262364247e+000	 5.289017228343377e-001	 1.570952843231057e+001
 1.127217140681487e+000	 5.402606017088188e-001	 1.560033592950100e+001
 1.121719562507361e+000	 5.515842846726405e-001	 1.548468886073948e+001
 1.116098760742258e+000	 5.628708166927929e-001	 1.536269376535041e+001
 1.110355008554307e+000	 5.741182413049999e-001	 1.523445205364333e+001
 1.054837258104013e+000	 5.454123292424070e-001	 1.546782067428930e+001
 1.049264188569396e+000	 5.560583715450852e-001	 1.530213323476319e+001
 1.043574950605913e+000	 5.666635443121194e-001	 1.511262941789548e+001
 1.037769919450915e+000	 5.772259906412114e-001	 1.489864634233877e+001
 1.031849509142480e+000	 5.877438561781515e-001	 1.465952760087135e+001
 1.025814172582418e+000	 5.982152901131506e-001	 1.439462411953680e+001
 1.019664401569026e+000	 6.086384461828867e-001	 1.410329502772156e+001
 1.013400726799272e+000	 6.190114836772115e-001	 1.378490853778649e+001
 1.007023717840120e+000	 6.293325684494390e-001	 1.360717321206251e+001
 1.000533983068724e+000	 6.395998739291278e-001	 1.364134517550531e+001
 9.939321695813217e-001	 6.498115821362470e-001	 1.365844705711781e+001
 1.060389033151275e+000	 5.482829204464338e-001	 1.542856339936730e+001
 1.054786631671955e+000	 5.589849945507088e-001	 1.525529960564641e+001
 1.049067450350939e+000	 5.696459840165865e-001	 1.505845341436854e+001
 1.043231866400510e+000	 5.802640221685984e-001	 1.483735808623494e+001
 1.037280296037896e+000	 5.908372448927767e-001	 1.459135301768989e+001
 1.031213194548598e+000	 6.013637916382277e-001	 1.431978460359215e+001
 1.025031056319325e+000	 6.118418064244550e-001	 1.402200711146568e+001
 1.018734414840189e+000	 6.222694388533619e-001	 1.369738356594773e+001
 1.012323842675872e+000	 6.326448451248595e-001	 1.363727397543674e+001
 1.005799951405516e+000	 6.429661890549770e-001	 1.366315251762203e+001
 9.991633915311246e-001	 6.532316430953683e-001	 1.367234491496070e+001
 1.065940808198040e+000	 5.511535116509569e-001	 1.539297942926937e+001
 1.060309074773923e+000	 5.619116175569140e-001	 1.521216835965630e+001
 1.054559950095288e+000	 5.726284237216907e-001	 1.500800771712782e+001
 1.048693813349354e+000	 5.833020536966488e-001	 1.477982684878906e+001
 1.042711082932494e+000	 5.939306336080613e-001	 1.452696089791787e+001
 1.036612216513904e+000	 6.045122931639311e-001	 1.424875167022780e+001
 1.030397711068705e+000	 6.150451666665857e-001	 1.394454851235806e+001
 1.024068102880151e+000	 6.255273940299809e-001	 1.363316792069837e+001
 1.017623967510645e+000	 6.359571218006238e-001	 1.366687852246961e+001
 1.011065919741312e+000	 6.463325041810162e-001	 1.368441049724978e+001
 1.004394613479927e+000	 6.566517040544949e-001	 1.368563975168710e+001
 1.071492583244310e+000	 5.540241028559760e-001	 1.536101666780133e+001
 1.065831517875299e+000	 5.648382405637006e-001	 1.517268741697823e+001
 1.060052449838960e+000	 5.756108634274320e-001	 1.496124031577143e+001
 1.054155760297445e+000	 5.863400852253623e-001	 1.472600074205490e+001
 1.048141869826274e+000	 5.970240223240055e-001	 1.446629952907599e+001
 1.042011238478337e+000	 6.076607946902600e-001	 1.418147383537017e+001
 1.035764365817167e+000	 6.182485269092786e-001	 1.387086802755386e+001
 1.029401790919159e+000	 6.287853492070685e-001	 1.367100057067221e+001
 1.022924092344437e+000	 6.392693984767331e-001	 1.369593132070888e+001
 1.016331888076113e+000	 6.496988193072453e-001	 1.370506366011462e+001
 1.009625835427730e+000	 6.600717650136267e-001	 1.369827623968586e+001
 1.077044358290083e+000	 5.568946940614913e-001	 1.533262378928840e+001
 1.071353960976085e+000	 5.677648635710684e-001	 1.513680546932327e+001
 1.065544949581957e+000	 5.785933031338105e-001	 1.491809997164825e+001
 1.059617707244784e+000	 5.893781167547391e-001	 1.467582864927793e+001
 1.053572656719237e+000	 6.001174110406091e-001	 1.440931796853032e+001
 1.047410260441897e+000	 6.108092962172153e-001	 1.411790038265393e+001
 1.041131020564710e+000	 6.214518871525337e-001	 1.380091521898726e+001
 1.034735478957213e+000	 6.320433043846243e-001	 1.370827924081833e+001
 1.028224217177251e+000	 6.425816751531868e-001	 1.372437759423913e+001
 1.021597856409920e+000	 6.530651344336644e-001	 1.372505730316492e+001
 1.014857057374533e+000	 6.634918259727639e-001	 1.371019979645793e+001
 1.082596133335361e+000	 5.597652852675025e-001	 1.530775021881807e+001
 1.076876404076279e+000	 5.706914865790176e-001	 1.510447196014517e+001
 1.071037449324276e+000	 5.815757428408259e-001	 1.487853619806947e+001
 1.065079654191372e+000	 5.924161482847792e-001	 1.462926020512110e+001
 1.059003443611382e+000	 6.032107997578724e-001	 1.435596602375233e+001
 1.052809282404584e+000	 6.139577977447961e-001	 1.405798134373717e+001
 1.046497675311334e+000	 6.246552473963513e-001	 1.373464039376189e+001
 1.040069166994313e+000	 6.353012595626489e-001	 1.374494987140614e+001
 1.033524342009085e+000	 6.458939518299847e-001	 1.375216330428387e+001
 1.026863824742731e+000	 6.564314495602739e-001	 1.374433745530962e+001
 1.020088279320335e+000	 6.669118869319063e-001	 1.372135656551022e+001
 1.088147908380142e+000	 5.626358764740098e-001	 1.528634611308844e+001
 1.082398847175881e+000	 5.736181095875481e-001	 1.507563706546333e+001
 1.076529949065919e+000	 5.845581825484786e-001	 1.484249924112605e+001
 1.070541601137207e+000	 5.954541798154821e-001	 1.458624577649624e+001
 1.064434230502709e+000	 6.063041884757952e-001	 1.430619423318369e+001
 1.058208304366398e+000	 6.171062992730029e-001	 1.400166747921947e+001
 1.051864330057040e+000	 6.278586076407308e-001	 1.376813950703585e+001
 1.045402855030459e+000	 6.385592147411418e-001	 1.378095912532953e+001
 1.038824466839939e+000	 6.492062285071272e-001	 1.377923513040087e+001
 1.032129793074548e+000	 6.597977646870734e-001	 1.376285085874537e+001
 1.025319501265138e+000	 6.703319478910541e-001	 1.373169339783524e+001
 1.093699683424428e+000	 5.655064676810132e-001	 1.526836234183901e+001
 1.087921290274893e+000	 5.765447325966601e-001	 1.505025167526982e+001
 1.082022448806886e+000	 5.875406222567683e-001	 1.480994006108990e+001
 1.076003548082291e+000	 5.984922113468486e-001	 1.454673644397896e+001
 1.069865017393219e+000	 6.093975771943774e-001	 1.425995384768370e+001
 1.063607326327338e+000	 6.202548008018356e-001	 1.394891026014034e+001
 1.057230984801827e+000	 6.310619678856727e-001	 1.381280014070540e+001
 1.050736543065650e+000	 6.418171699201032e-001	 1.381625436976653e+001
 1.044124591669814e+000	 6.525185051846140e-001	 1.380554045225011e+001
 1.037395761405370e+000	 6.631640798140630e-001	 1.378054495085324e+001
 1.030550723208941e+000	 6.737520088502071e-001	 1.374115783395483e+001
 1.099251458468217e+000	 5.683770588885128e-001	 1.525375046984464e+001
 1.093443733373314e+000	 5.794713556063534e-001	 1.502826737549975e+001
 1.087514948547176e+000	 5.905230619656950e-001	 1.478081031437943e+001
 1.081465495026622e+000	 6.015302428788782e-001	 1.451068398378693e+001
 1.075295804282912e+000	 6.124909659136193e-001	 1.421719681253908e+001
 1.069006348287406e+000	 6.234033023312944e-001	 1.389966185003943e+001
 1.062597639545695e+000	 6.342653281311771e-001	 1.385674700205677e+001
 1.056070231099887e+000	 6.450751250995328e-001	 1.385078365839390e+001
 1.049424716498708e+000	 6.558307818624454e-001	 1.383102733191472e+001
 1.042661729735196e+000	 6.665303949412426e-001	 1.379736784664310e+001
 1.035781945151743e+000	 6.771720698093655e-001	 1.374969808650728e+001
 1.104803233511510e+000	 5.712476500965084e-001	 1.524246273945276e+001
 1.098966176471143e+000	 5.823979786166280e-001	 1.500963643054508e+001
 1.093007448286790e+000	 5.935055016752594e-001	 1.475506233606790e+001
 1.086927441970201e+000	 6.045682744115710e-001	 1.447804085030106e+001
 1.080726591171788e+000	 6.155843546335206e-001	 1.417787575001573e+001
 1.074405370246600e+000	 6.265518038613785e-001	 1.390205348723504e+001
 1.067964294288645e+000	 6.374686883772436e-001	 1.389992885319339e+001
 1.061403919133170e+000	 6.483330802794312e-001	 1.388449571413894e+001
 1.054724841326624e+000	 6.591430585406211e-001	 1.385564449675444e+001
 1.047927698064028e+000	 6.698967100686123e-001	 1.381326832172809e+001
 1.041013167093546e+000	 6.805921307685292e-001	 1.375726302336072e+001
 1.110355008554307e+000	 5.741182413049999e-001	 1.523445205364333e+001
 1.104488619568381e+000	 5.853246016274839e-001	 1.499431176629352e+001
 1.098499948025726e+000	 5.964879413854604e-001	 1.473264912291768e+001
 1.092389388913029e+000	 6.076063059449270e-001	 1.444876015911216e+001
 1.086157378059845e+000	 6.186777433540813e-001	 1.414194394243450e+001
 1.079804392204921e+000	 6.297003053920891e-001	 1.395431282222138e+001
 1.073330949030676e+000	 6.406720486238723e-001	 1.394229511193005e+001
 1.066737607165498e+000	 6.515910354597978e-001	 1.391733991244773e+001
 1.060024966153559e+000	 6.624553352191411e-001	 1.387934132277372e+001
 1.053193666391865e+000	 6.732630251961720e-001	 1.382819579580928e+001
 1.046244389034349e+000	 6.840121917276982e-001	 1.376380215123163e+001
 9.939321695813217e-001	 6.498115821362470e-001	 1.365844705711781e+001
 9.872189630709348e-001	 6.599658846953815e-001	 1.341214252073842e+001
 9.803950876728801e-001	 6.700609838495298e-001	 1.316801062354854e+001
 9.734613057786070e-001	 6.800950934718996e-001	 1.292652194621751e+001
 9.664184178184607e-001	 6.900664400740980e-001	 1.268813909977836e+001
 9.592672620124820e-001	 6.999732638102487e-001	 1.245331612957491e+001
 9.520087140896119e-001	 7.098138194756594e-001	 1.222249793329899e+001
 9.446436869754348e-001	 7.195863774988823e-001	 1.199611969433813e+001
 9.371731304486138e-001	 7.292892249260216e-001	 1.177460633162160e+001
 9.295980307662448e-001	 7.389206663961353e-001	 1.155837196711233e+001
 9.219194102583861e-001	 7.484790251065955e-001	 1.134781941205197e+001
 9.991633915311246e-001	 6.532316430953683e-001	 1.367234491496070e+001
 9.924148523546525e-001	 6.634393893527908e-001	 1.342699404135810e+001
 9.855550618226748e-001	 6.735876206083008e-001	 1.318434513531728e+001
 9.785847863392264e-001	 6.836745413344388e-001	 1.294487553453015e+001
 9.715048305474456e-001	 6.936983687086625e-001	 1.270905408732331e+001
 9.643160370790561e-001	 7.036573336227482e-001	 1.247734054564283e+001
 9.570192862720999e-001	 7.135496816867157e-001	 1.225018497284442e+001
 9.496154958570314e-001	 7.233736742261097e-001	 1.202802716753507e+001
 9.421056206113501e-001	 7.331275892714870e-001	 1.181129610467904e+001
 9.344906519829779e-001	 7.428097225389531e-001	 1.160040939513393e+001
 9.267716176826583e-001	 7.524183884006033e-001	 1.139577276474720e+001
 1.004394613479927e+000	 6.566517040544949e-001	 1.368563975168710e+001
 9.976107416373752e-001	 6.669128940100149e-001	 1.344124767367012e+001
 9.907150359714885e-001	 6.771142573667162e-001	 1.320008515493876e+001
 9.837082668988908e-001	 6.872539891964722e-001	 1.296263629120865e+001
 9.765912432755102e-001	 6.973302973425903e-001	 1.272937616933089e+001
 9.693648121447549e-001	 7.073414034345004e-001	 1.250077024929997e+001
 9.620298584537665e-001	 7.172855438969340e-001	 1.227727376178556e+001
 9.545873047378718e-001	 7.271609709524279e-001	 1.205933112245826e+001
 9.470381107734047e-001	 7.369659536159927e-001	 1.184737536434304e+001
 9.393832731991147e-001	 7.466987786807809e-001	 1.164182758939225e+001
 9.316238251064289e-001	 7.563577516936109e-001	 1.144309644042479e+001
 1.009625835427730e+000	 6.600717650136267e-001	 1.369827623968586e+001
 1.002806630919103e+000	 6.703863986670543e-001	 1.345484734405546e+001
 9.958750101193229e-001	 6.806408941247765e-001	 1.321517393158619e+001
 9.888317474576001e-001	 6.908334370579995e-001	 1.297974685758569e+001
 9.816776560026537e-001	 7.009622259758813e-001	 1.274904744917908e+001
 9.744135872095776e-001	 7.110254732455048e-001	 1.252354687632839e+001
 9.670404306346123e-001	 7.210214061063137e-001	 1.230370553909247e+001
 9.595591136179563e-001	 7.309482676778375e-001	 1.208997247242475e+001
 9.519706009347786e-001	 7.408043179595388e-001	 1.188278476976431e+001
 9.442758944146549e-001	 7.505878348216187e-001	 1.168256702663537e+001
 9.364760325296984e-001	 7.602971149856186e-001	 1.148973080542058e+001
 1.014857057374533e+000	 6.634918259727639e-001	 1.371019979645793e+001
 1.008002520199835e+000	 6.738599033239088e-001	 1.346773773609571e+001
 1.001034984266177e+000	 6.841675308824817e-001	 1.322955548251416e+001
 9.939552280153537e-001	 6.944128849190210e-001	 1.299615065273780e+001
 9.867640687288772e-001	 7.045941546085357e-001	 1.276801081642789e+001
 9.794623622735247e-001	 7.147095430557617e-001	 1.254561285589760e+001
 9.720510028146375e-001	 7.247572683148554e-001	 1.232942234308814e+001
 9.645309224972848e-001	 7.347355644023379e-001	 1.211989293482544e+001
 9.569030910954709e-001	 7.446426823021255e-001	 1.191746578763850e+001
 9.491685156295991e-001	 7.544768909614671e-001	 1.172256899337358e+001
 9.413282399524665e-001	 7.642364782766262e-001	 1.153561703679260e+001
 1.020088279320335e+000	 6.669118869319063e-001	 1.372135656551022e+001
 1.013198409479573e+000	 6.773334079805782e-001	 1.347986427115777e+001
 1.006194958412051e+000	 6.876941676398313e-001	 1.324317457336393e+001
 9.990787085721523e-001	 6.979923327795365e-001	 1.301179185354413e+001
 9.918504814541799e-001	 7.082260832405533e-001	 1.278620992666072e+001
 9.845111373365962e-001	 7.183936128652717e-001	 1.256691139022058e+001
 9.770615749938411e-001	 7.284931305225585e-001	 1.235436699095202e+001
 9.695027313758570e-001	 7.385228611259296e-001	 1.214903501050850e+001
 9.618355812554822e-001	 7.484810466437527e-001	 1.195136067150061e+001
 9.540611368439469e-001	 7.583659471003255e-001	 1.176177556511618e+001
 9.461804473747332e-001	 7.681758415666339e-001	 1.158069710153317e+001
 1.025319501265138e+000	 6.703319478910541e-001	 1.373169339783524e+001
 1.018394298758315e+000	 6.808069126370629e-001	 1.349117308957284e+001
 1.011354932556944e+000	 6.912208043968258e-001	 1.325597669907231e+001
 1.004202189127995e+000	 7.015717806395461e-001	 1.302661537535391e+001
 9.969368941785622e-001	 7.118580118719342e-001	 1.280358918194315e+001
 9.895599123987917e-001	 7.220776826740335e-001	 1.258738643483383e+001
 9.820721471722242e-001	 7.322289927294237e-001	 1.237848305885204e+001
 9.744745402536728e-001	 7.423101578486118e-001	 1.217734196379212e+001
 9.667680714148124e-001	 7.523194109844207e-001	 1.198441244165182e+001
 9.589537580576986e-001	 7.622550032381936e-001	 1.180012958624452e+001
 9.510326547964985e-001	 7.721152048556417e-001	 1.162491373641784e+001
 1.030550723208941e+000	 6.737520088502071e-001	 1.374115783395483e+001
 1.023590188036062e+000	 6.842804172933629e-001	 1.350161103238864e+001
 1.016514906700858e+000	 6.947474411534647e-001	 1.326790806536106e+001
 1.009325669682883e+000	 7.051512284990495e-001	 1.304056685324411e+001
 1.002023306902024e+000	 7.154899405026786e-001	 1.282009371187663e+001
 9.946086874601114e-001	 7.257617524820480e-001	 1.260698267947719e+001
 9.870827193497864e-001	 7.359648549354505e-001	 1.240171486267983e+001
 9.794463491307330e-001	 7.460974545703853e-001	 1.220475780308803e+001
 9.717005615734610e-001	 7.561577753241286e-001	 1.201656486569881e+001
 9.638463792708538e-001	 7.661440593750722e-001	 1.183757465049694e+001
 9.558848622177625e-001	 7.760545681436493e-001	 1.166821042846756e+001
 1.035781945151743e+000	 6.771720698093655e-001	 1.374969808650728e+001
 1.028786077312815e+000	 6.877539219494778e-001	 1.351112562367432e+001
 1.021674880843791e+000	 6.982740779097484e-001	 1.327891557078842e+001
 1.014449150236816e+000	 7.087306763580474e-001	 1.305359262384425e+001
 1.007109719624565e+000	 7.191218691327862e-001	 1.283566935522616e+001
 9.996574625205555e-001	 7.294458222893149e-001	 1.262564552955348e+001
 9.920932915265275e-001	 7.397007171406391e-001	 1.242400743937182e+001
 9.844181580070371e-001	 7.498847512912501e-001	 1.223122726211061e+001
 9.766330517314286e-001	 7.599961396628774e-001	 1.204776243968225e+001
 9.687390004834129e-001	 7.700331155109608e-001	 1.187405508204601e+001
 9.607370696385252e-001	 7.799939314306570e-001	 1.171053139600290e+001
 1.041013167093546e+000	 6.805921307685292e-001	 1.375726302336072e+001
 1.033981966588571e+000	 6.912274266054079e-001	 1.351966505335932e+001
 1.026834854985744e+000	 7.018007146656770e-001	 1.328894678934065e+001
 1.019572630789792e+000	 7.123101242165389e-001	 1.306563970770951e+001
 1.012196132346185e+000	 7.227537977622568e-001	 1.285026264210232e+001
 1.004706237580124e+000	 7.331298920958344e-001	 1.264332108814689e+001
 9.971038637024475e-001	 7.434365793449891e-001	 1.244530652879200e+001
 9.893899668825847e-001	 7.536720480112057e-001	 1.225669578165354e+001
 9.815655418887149e-001	 7.638345040006667e-001	 1.207795036977475e+001
 9.736316216953754e-001	 7.739221716458599e-001	 1.190951591714556e+001
 9.655892770587868e-001	 7.839332947166647e-001	 1.175182157026995e+001
 1.046244389034349e+000	 6.840121917276982e-001	 1.376380215123163e+001
 1.039177855863334e+000	 6.947009312611533e-001	 1.352717816058694e+001
 1.031994829126717e+000	 7.053273514212500e-001	 1.329794995354656e+001
 1.024696111341814e+000	 7.158895720745248e-001	 1.307665579222254e+001
 1.017282545066885e+000	 7.263857263910910e-001	 1.286382077667775e+001
 1.009755012638816e+000	 7.368139619016065e-001	 1.265995613858100e+001
 1.002114435877547e+000	 7.471724415485012e-001	 1.246555855615883e+001
 9.943617757573765e-001	 7.574593447302525e-001	 1.228110949191290e+001
 9.864980320453199e-001	 7.676728683374962e-001	 1.210707455452683e+001
 9.785242429067419e-001	 7.778112277797687e-001	 1.194390288632875e+001
 9.704414844785468e-001	 7.878726580016725e-001	 1.179202657761708e+001
 9.219194102583861e-001	 7.484790251065955e-001	 1.134781941205197e+001
 9.141383268917726e-001	 7.579626437674406e-001	 1.113473243473423e+001
 9.062558738039700e-001	 7.673698855431216e-001	 1.092333898863143e+001
 8.982731788078147e-001	 7.766991349808127e-001	 1.071382589741803e+001
 8.901914038659405e-001	 7.859487989245586e-001	 1.050637109936098e+001
 8.820117445368102e-001	 7.951173074136981e-001	 1.030114344267503e+001
 8.737354293924891e-001	 8.042031145646619e-001	 1.009830249979995e+001
 8.653637194087517e-001	 8.132046994351148e-001	 9.897998400975903e+000
 8.568979073281503e-001	 8.221205668694281e-001	 9.700371687444832e+000
 8.483393169967154e-001	 8.309492483245061e-001	 9.505553184545441e+000
 8.396893026750001e-001	 8.396893026750000e-001	 9.313663894916838e+000
 9.267716176826583e-001	 7.524183884006033e-001	 1.139577276474720e+001
 9.189495812454113e-001	 7.619519208439042e-001	 1.118587197335032e+001
 9.110256415621983e-001	 7.714086744183898e-001	 1.097767135413306e+001
 9.030009323817123e-001	 7.807870251688507e-001	 1.077134875979536e+001
 8.948766217821808e-001	 7.900853715543011e-001	 1.056707310362838e+001
 8.866539116144792e-001	 7.993021353511288e-001	 1.036500416410934e+001
 8.783340369168414e-001	 8.084357625395344e-001	 1.016529240859717e+001
 8.699182653017571e-001	 8.174847241722233e-001	 9.968078836490580e+000
 8.614078963156867e-001	 8.264475172243274e-001	 9.773494842160281e+000
 8.528042607722708e-001	 8.353226654235756e-001	 9.581662097906472e+000
 8.441087200597499e-001	 8.441087200597499e-001	 9.392692457141376e+000
 9.316238251064289e-001	 7.563577516936109e-001	 1.144309644042479e+001
 9.237608355986386e-001	 7.659411979193725e-001	 1.123621718109063e+001
 9.157954093200853e-001	 7.754474632926773e-001	 1.103104878130295e+001
 9.077286859553191e-001	 7.848749153559340e-001	 1.082776020409506e+001
 8.995618396981605e-001	 7.942219441831244e-001	 1.062651141563403e+001
 8.912960786918976e-001	 8.034869632876843e-001	 1.042745319897691e+001
 8.829326444409338e-001	 8.126684105135871e-001	 1.023072698711206e+001
 8.744728111944723e-001	 8.217647489085771e-001	 1.003646471563157e+001
 8.659178853028829e-001	 8.307744675785466e-001	 9.844788695332593e+000
 8.572692045474160e-001	 8.396960825220505e-001	 9.655811504981362e+000
 8.485281374439999e-001	 8.485281374439999e-001	 9.469635904422651e+000
 9.364760325296984e-001	 7.602971149856186e-001	 1.148973080542058e+001
 9.285720899514547e-001	 7.699304749938458e-001	 1.128571075636133e+001
 9.205651770776310e-001	 7.794862521659856e-001	 1.108341628331366e+001
 9.124564395286352e-001	 7.889628055420623e-001	 1.088300753980594e+001
 9.042470576138791e-001	 7.983585168110267e-001	 1.068463562159170e+001
 8.959382457690656e-001	 8.076717912233649e-001	 1.048844238949006e+001
 8.875312519647653e-001	 8.169010584868193e-001	 1.029456031169957e+001
 8.790273570868976e-001	 8.260447736441757e-001	 1.010311232591985e+001
 8.704278742897389e-001	 8.351014179320856e-001	 9.914211721559108e+000
 8.617341483221512e-001	 8.440694996199297e-001	 9.727962042250455e+000
 8.529475548277499e-001	 8.529475548277499e-001	 9.544457008839300e+000
 9.413282399524665e-001	 7.642364782766262e-001	 1.153561703679260e+001
 9.333833443038593e-001	 7.739197520673240e-001	 1.133429615911831e+001
 9.253349448348360e-001	 7.835250410383137e-001	 1.113471958629998e+001
 9.171841931016599e-001	 7.930506957272355e-001	 1.093703874140156e+001
 9.089322755293374e-001	 8.024950894380094e-001	 1.074139592535682e+001
 9.005804128459829e-001	 8.118566191581702e-001	 1.054792414881631e+001
 8.921298594883370e-001	 8.211337064592316e-001	 1.035674698366448e+001
 8.835819029790326e-001	 8.303247983790195e-001	 1.016797843452248e+001
 8.749378632762550e-001	 8.394283682849447e-001	 9.981722830504817e+000
 8.661990920964767e-001	 8.484429167172145e-001	 9.798074737430950e+000
 8.573669722109999e-001	 8.573669722110000e-001	 9.617118890642979e+000
 9.461804473747332e-001	 7.681758415666339e-001	 1.158069710153317e+001
 9.381945986558529e-001	 7.779090291398075e-001	 1.138191759134011e+001
 9.301047125916995e-001	 7.875638299096615e-001	 1.118490511107839e+001
 9.219119466743939e-001	 7.971385859114536e-001	 1.098980243129051e+001
 9.136174934445349e-001	 8.066316620640721e-001	 1.079674313258964e+001
 9.052225799226501e-001	 8.160414470921006e-001	 1.060585144643884e+001
 8.967284670116481e-001	 8.253663544308240e-001	 1.041724211579956e+001
 8.881364488708776e-001	 8.346048231131079e-001	 1.023102027595345e+001
 8.794478522624309e-001	 8.437553186371238e-001	 1.004728135574631e+001
 8.706640358703921e-001	 8.528163338139042e-001	 9.866110999444013e+000
 8.617863895937499e-001	 8.617863895937499e-001	 9.687585009331247e+000
 9.510326547964985e-001	 7.721152048556417e-001	 1.162491373641784e+001
 9.430058530074353e-001	 7.818983062112959e-001	 1.142851997809845e+001
 9.348744803482220e-001	 7.916026187800294e-001	 1.123391995542514e+001
 9.266397002468370e-001	 8.012264760947168e-001	 1.104124786328648e+001
 9.183027113594717e-001	 8.107682346892144e-001	 1.085062863540301e+001
 9.098647469990664e-001	 8.202262750251559e-001	 1.066217779396414e+001
 9.013270745346993e-001	 8.295990024015959e-001	 1.047600131933872e+001
 8.926909947624321e-001	 8.388848478464412e-001	 1.029219554015173e+001
 8.839578412482667e-001	 8.480822689886228e-001	 1.011084704395842e+001
 8.751289796438972e-001	 8.571897509099987e-001	 9.932032608691003e+000
 8.662058069760000e-001	 8.662058069760000e-001	 9.755819154992823e+000
 9.558848622177625e-001	 7.760545681436493e-001	 1.166821042846756e+001
 9.478171073586064e-001	 7.858875832817893e-001	 1.147404894920621e+001
 9.396442481044034e-001	 7.956414076494172e-001	 1.128171187689463e+001
 9.313674538189892e-001	 8.053143662770247e-001	 1.109132490658296e+001
 9.229879292741476e-001	 8.149048073134368e-001	 1.090300439747779e+001
 9.145069140752324e-001	 8.244111029573359e-001	 1.071685723136306e+001
 9.059256820574895e-001	 8.338316503715481e-001	 1.053298069130534e+001
 8.972455406536967e-001	 8.431648725790196e-001	 1.035146236092212e+001
 8.884678302337628e-001	 8.524092193394417e-001	 1.017238004442871e+001
 8.795939234169927e-001	 8.615631680054984e-001	 9.995801707624668e+000
 8.706252243577499e-001	 8.706252243577499e-001	 9.821785439917466e+000
 9.607370696385252e-001	 7.799939314306570e-001	 1.171053139600290e+001
 9.526283617093660e-001	 7.898768603512876e-001	 1.151845082142042e+001
 9.444140158602435e-001	 7.996801965178252e-001	 1.132822927615869e+001
 9.360952073908504e-001	 8.094022564583776e-001	 1.113998403021369e+001
 9.276731471885632e-001	 8.190413799367391e-001	 1.095382293962909e+001
 9.191490811511478e-001	 8.285959308886411e-001	 1.076984431362796e+001
 9.105242895800199e-001	 8.380642983406800e-001	 1.058813680224548e+001
 9.018000865446708e-001	 8.474448973108432e-001	 1.040877930472684e+001
 8.929778192189184e-001	 8.567361696895808e-001	 1.023184089889103e+001
 8.840588671896780e-001	 8.659365851004029e-001	 1.005738079160645e+001
 8.750446417390000e-001	 8.750446417390000e-001	 9.885448290459168e+000
 9.655892770587868e-001	 7.839332947166647e-001	 1.175182157026995e+001
 9.574396160597144e-001	 7.938661374197907e-001	 1.156167258118257e+001
 9.491837836157427e-001	 8.037189853852529e-001	 1.137342118084713e+001
 9.408229609624208e-001	 8.134901466387754e-001	 1.118717628798082e+001
 9.323583651027179e-001	 8.231779525591213e-001	 1.100303732580843e+001
 9.237912482268126e-001	 8.327807588190711e-001	 1.082109409783282e+001
 9.151228971022897e-001	 8.422969463089919e-001	 1.064142668432983e+001
 9.063546324353550e-001	 8.517249220419112e-001	 1.046410535981427e+001
 8.974878082037343e-001	 8.610631200390398e-001	 1.028919053166481e+001
 8.885238109619533e-001	 8.703100021947126e-001	 1.011673270003960e+001
 8.794640591197501e-001	 8.794640591197501e-001	 9.946772439145526e+000
 9.704414844785468e-001	 7.878726580016725e-001	 1.179202657761708e+001
 9.622508704096515e-001	 7.978554144872990e-001	 1.160366186787654e+001
 9.539535513709005e-001	 8.077577742517006e-001	 1.141723722987465e+001
 9.455507145337001e-001	 8.175780368182182e-001	 1.123285330383624e+001
 9.370435830166115e-001	 8.273145251805834e-001	 1.105060114952453e+001
 9.284334153022270e-001	 8.369655867486260e-001	 1.087056213058077e+001
 9.197215046242995e-001	 8.465295942764837e-001	 1.069280781981371e+001
 9.109091783257489e-001	 8.560049467722246e-001	 1.051739992567466e+001
 9.019977971882097e-001	 8.653900703878185e-001	 1.034439024009034e+001
 8.929887547338186e-001	 8.746834192884273e-001	 1.017382060776814e+001
 8.838834765000000e-001	 8.838834765000000e-001	 1.000572291702309e+001
 8.396893026750001e-001	 8.396893026750000e-001	 9.313663894916838e+000
 8.309492483245060e-001	 8.483393169967154e-001	 9.083618599415887e+000
 8.221205668694283e-001	 8.568979073281501e-001	 8.856863109808277e+000
 8.132046994351146e-001	 8.653637194087517e-001	 8.633514738789994e+000
 8.042031145646621e-001	 8.737354293924891e-001	 8.413681066573396e+000
 7.951173074136980e-001	 8.820117445368101e-001	 8.197459910452331e+000
 7.859487989245586e-001	 8.901914038659405e-001	 7.984939314075038e+000
 7.766991349808127e-001	 8.982731788078144e-001	 7.776197556285531e+000
 7.673698855431214e-001	 9.062558738039700e-001	 7.571303179343132e+000
 7.579626437674406e-001	 9.141383268917723e-001	 7.370315036272674e+000
 7.484790251065955e-001	 9.219194102583862e-001	 7.173282357051408e+000
 8.441087200597499e-001	 8.441087200597499e-001	 9.392692457141376e+000
 8.353226654235756e-001	 8.528042607722706e-001	 9.165765809568889e+000
 8.264475172243275e-001	 8.614078963156865e-001	 8.942067120285509e+000
 8.174847241722233e-001	 8.699182653017570e-001	 8.721698404460325e+000
 8.084357625395343e-001	 8.783340369168415e-001	 8.504751976953525e+000
 7.993021353511288e-001	 8.866539116144790e-001	 8.291310438834207e+000
 7.900853715543014e-001	 8.948766217821810e-001	 8.081446683612787e+000
 7.807870251688509e-001	 9.030009323817122e-001	 7.875223923018716e+000
 7.714086744183897e-001	 9.110256415621983e-001	 7.672695732102458e+000
 7.619519208439042e-001	 9.189495812454113e-001	 7.473906113384807e+000
 7.524183884006033e-001	 9.267716176826583e-001	 7.278889579726955e+000
 8.485281374439999e-001	 8.485281374439999e-001	 9.469635904422651e+000
 8.396960825220504e-001	 8.572692045474160e-001	 9.245605901312606e+000
 8.307744675785466e-001	 8.659178853028826e-001	 9.024746454283354e+000
 8.217647489085770e-001	 8.744728111944724e-001	 8.807144373782814e+000
 8.126684105135871e-001	 8.829326444409338e-001	 8.592876798243177e+000
 8.034869632876844e-001	 8.912960786918976e-001	 8.382011197484978e+000
 7.942219441831243e-001	 8.995618396981603e-001	 8.174605395851170e+000
 7.848749153559342e-001	 9.077286859553190e-001	 7.970707614869171e+000
 7.754474632926774e-001	 9.157954093200853e-001	 7.770356535187828e+000
 7.659411979193725e-001	 9.237608355986386e-001	 7.573581377485124e+000
 7.563577516936110e-001	 9.316238251064291e-001	 7.380402001989411e+000
 8.529475548277499e-001	 8.529475548277499e-001	 9.544457008839300e+000
 8.440694996199297e-001	 8.617341483221512e-001	 9.323105325567251e+000
 8.351014179320857e-001	 8.704278742897387e-001	 9.104871217019671e+000
 8.260447736441758e-001	 8.790273570868977e-001	 8.889826379915416e+000
 8.169010584868193e-001	 8.875312519647653e-001	 8.678032863379386e+000
 8.076717912233650e-001	 8.959382457690656e-001	 8.469543089173722e+000
 7.983585168110270e-001	 9.042470576138795e-001	 8.264399891673788e+000
 7.889628055420627e-001	 9.124564395286349e-001	 8.062636577363781e+000
 7.794862521659854e-001	 9.205651770776312e-001	 7.864277003564734e+000
 7.699304749938458e-001	 9.285720899514547e-001	 7.669335676062536e+000
 7.602971149856186e-001	 9.364760325296984e-001	 7.477817865245662e+000
 8.573669722109999e-001	 8.573669722110000e-001	 9.617118890642979e+000
 8.484429167172146e-001	 8.661990920964766e-001	 9.398230806768531e+000
 8.394283682849449e-001	 8.749378632762551e-001	 9.182411713300223e+000
 8.303247983790193e-001	 8.835819029790326e-001	 8.969718282439301e+000
 8.211337064592316e-001	 8.921298594883368e-001	 8.760197559359392e+000
 8.118566191581703e-001	 9.005804128459831e-001	 8.553886999199921e+000
 8.024950894380094e-001	 9.089322755293374e-001	 8.350814523831861e+000
 7.930506957272356e-001	 9.171841931016601e-001	 8.150998598136004e+000
 7.835250410383134e-001	 9.253349448348358e-001	 7.954448325479431e+000
 7.739197520673240e-001	 9.333833443038593e-001	 7.761163562025583e+000
 7.642364782766263e-001	 9.413282399524663e-001	 7.571135049458133e+000
 8.617863895937499e-001	 8.617863895937499e-001	 9.687585009331247e+000
 8.528163338139042e-001	 8.706640358703921e-001	 9.470949335854565e+000
 8.437553186371238e-001	 8.794478522624309e-001	 9.257338442399870e+000
 8.346048231131079e-001	 8.881364488708773e-001	 9.046794064118171e+000
 8.253663544308239e-001	 8.967284670116480e-001	 8.839348325853392e+000
 8.160414470921006e-001	 9.052225799226501e-001	 8.635023795840267e+000
 8.066316620640720e-001	 9.136174934445350e-001	 8.433833559204251e+000
 7.971385859114537e-001	 9.219119466743939e-001	 8.235781310975607e+000
 7.875638299096615e-001	 9.301047125916997e-001	 8.040861468272105e+000
 7.779090291398075e-001	 9.381945986558529e-001	 7.849059301255539e+000
 7.681758415666339e-001	 9.461804473747332e-001	 7.660351082413405e+000
 8.662058069760000e-001	 8.662058069760000e-001	 9.755819154992823e+000
 8.571897509099987e-001	 8.751289796438972e-001	 9.541228163467359e+000
 8.480822689886228e-001	 8.839578412482668e-001	 9.329622093102667e+000
 8.388848478464415e-001	 8.926909947624323e-001	 9.121027827755054e+000
 8.295990024015960e-001	 9.013270745346991e-001	 8.915462653861734e+000
 8.202262750251559e-001	 9.098647469990664e-001	 8.712934330783572e+000
 8.107682346892144e-001	 9.183027113594716e-001	 8.513441180988201e+000
 8.012264760947168e-001	 9.266397002468371e-001	 8.316972199752280e+000
 7.916026187800294e-001	 9.348744803482221e-001	 8.123507184011450e+000
 7.818983062112959e-001	 9.430058530074353e-001	 7.933016879928651e+000
 7.721152048556417e-001	 9.510326547964986e-001	 7.745463148705354e+000
 8.706252243577499e-001	 8.706252243577499e-001	 9.821785439917466e+000
 8.615631680054984e-001	 8.795939234169927e-001	 9.609034793361502e+000
 8.524092193394418e-001	 8.884678302337625e-001	 9.399233538891062e+000
 8.431648725790196e-001	 8.972455406536967e-001	 9.192393793145694e+000
 8.338316503715482e-001	 9.059256820574896e-001	 8.988518084411336e+000
 8.244111029573359e-001	 9.145069140752324e-001	 8.787599439551730e+000
 8.149048073134370e-001	 9.229879292741477e-001	 8.589621490823063e+000
 8.053143662770246e-001	 9.313674538189890e-001	 8.394558602221355e+000
 7.956414076494172e-001	 9.396442481044035e-001	 8.202376014959510e+000
 7.858875832817894e-001	 9.478171073586064e-001	 8.013030011615456e+000
 7.760545681436493e-001	 9.558848622177625e-001	 7.826468098446113e+000
 8.750446417390000e-001	 8.750446417390000e-001	 9.885448290459168e+000
 8.659365851004031e-001	 8.840588671896780e-001	 9.674336976011979e+000
 8.567361696895807e-001	 8.929778192189183e-001	 9.466143833282393e+000
 8.474448973108429e-001	 9.018000865446711e-001	 9.260866294124750e+000
 8.380642983406801e-001	 9.105242895800199e-001	 9.058492207293147e+000
 8.285959308886413e-001	 9.191490811511476e-001	 8.858999941907554e+000
 8.190413799367391e-001	 9.276731471885632e-001	 8.662358510849852e+000
 8.094022564583776e-001	 9.360952073908504e-001	 8.468527713713376e+000
 7.996801965178250e-001	 9.444140158602437e-001	 8.277458298869254e+000
 7.898768603512876e-001	 9.526283617093660e-001	 8.089092144164763e+000
 7.799939314306569e-001	 9.607370696385252e-001	 7.903362455712723e+000
 8.794640591197501e-001	 8.794640591197501e-001	 9.946772439145526e+000
 8.703100021947124e-001	 8.885238109619531e-001	 9.737102702415646e+000
 8.610631200390395e-001	 8.974878082037339e-001	 9.530324205305286e+000
 8.517249220419112e-001	 9.063546324353550e-001	 9.326419775699582e+000
 8.422969463089920e-001	 9.151228971022898e-001	 9.125362659836492e+000
 8.327807588190711e-001	 9.237912482268127e-001	 8.927116642251198e+000
 8.231779525591213e-001	 9.323583651027176e-001	 8.731636185708926e+000
 8.134901466387756e-001	 9.408229609624206e-001	 8.538866590712400e+000
 8.037189853852528e-001	 9.491837836157427e-001	 8.348744174123265e+000
 7.938661374197907e-001	 9.574396160597143e-001	 8.161196466379513e+000
 7.839332947166647e-001	 9.655892770587868e-001	 7.976142426738686e+000
 8.838834765000000e-001	 8.838834765000000e-001	 1.000572291702309e+001
 8.746834192884273e-001	 8.929887547338186e-001	 9.797300198078034e+000
 8.653900703878183e-001	 9.019977971882095e-001	 9.591746055111592e+000
 8.560049467722245e-001	 9.109091783257491e-001	 9.389028791272008e+000
 8.465295942764839e-001	 9.197215046242995e-001	 9.189107125720334e+000
 8.369655867486259e-001	 9.284334153022270e-001	 8.991930330004125e+000
 8.273145251805834e-001	 9.370435830166116e-001	 8.797438384477164e+000
 8.175780368182183e-001	 9.455507145336998e-001	 8.605562154327272e+000
 8.077577742517004e-001	 9.539535513709007e-001	 8.416223584717452e+000
 7.978554144872990e-001	 9.622508704096513e-001	 8.229335914493708e+000
 7.878726580016725e-001	 9.704414844785468e-001	 8.044803907860025e+000
 7.484790251065955e-001	 9.219194102583862e-001	 7.173282357051408e+000
 7.389206663961351e-001	 9.295980307662447e-001	 6.974523150999503e+000
 7.292892249260216e-001	 9.371731304486137e-001	 6.776287895605648e+000
 7.195863774988822e-001	 9.446436869754348e-001	 6.578536579291589e+000
 7.098138194756593e-001	 9.520087140896119e-001	 6.381223581068620e+000
 6.999732638102486e-001	 9.592672620124818e-001	 6.184297871339166e+000
 6.900664400740980e-001	 9.664184178184608e-001	 5.987703223736894e+000
 6.800950934718997e-001	 9.734613057786069e-001	 5.791378437355081e+000
 6.700609838495297e-001	 9.803950876728802e-001	 5.595257568687685e+000
 6.599658846953815e-001	 9.872189630709348e-001	 5.399270172590524e+000
 6.498115821362469e-001	 9.939321695813217e-001	 5.203341551545609e+000
 7.524183884006033e-001	 9.267716176826583e-001	 7.278889579726955e+000
 7.428097225389531e-001	 9.344906519829780e-001	 7.080873602932754e+000
 7.331275892714870e-001	 9.421056206113497e-001	 6.883202983212643e+000
 7.233736742261094e-001	 9.496154958570314e-001	 6.685835605095252e+000
 7.135496816867157e-001	 9.570192862720999e-001	 6.488723869567668e+000
 7.036573336227482e-001	 9.643160370790562e-001	 6.291814898084721e+000
 6.936983687086624e-001	 9.715048305474456e-001	 6.095050747498192e+000
 6.836745413344391e-001	 9.785847863392266e-001	 5.898368635246466e+000
 6.735876206083006e-001	 9.855550618226747e-001	 5.701701174127965e+000
 6.634393893527909e-001	 9.924148523546527e-001	 5.504976615953117e+000
 6.532316430953682e-001	 9.991633915311244e-001	 5.308119103350980e+000
 7.563577516936110e-001	 9.316238251064291e-001	 7.380402001989411e+000
 7.466987786807811e-001	 9.393832731991147e-001	 7.183157192107525e+000
 7.369659536159926e-001	 9.470381107734046e-001	 6.986083925405212e+000
 7.271609709524278e-001	 9.545873047378720e-001	 6.789137938573068e+000
 7.172855438969339e-001	 9.620298584537665e-001	 6.592269606986884e+000
 7.073414034345003e-001	 9.693648121447547e-001	 6.395424152002365e+000
 6.973302973425903e-001	 9.765912432755101e-001	 6.198541859053912e+000
 6.872539891964724e-001	 9.837082668988909e-001	 6.001558305897893e+000
 6.771142573667162e-001	 9.907150359714887e-001	 5.804404600307895e+000
 6.669128940100149e-001	 9.976107416373753e-001	 5.607007626513827e+000
 6.566517040544949e-001	 1.004394613479927e+000	 5.409290299652925e+000
 7.602971149856186e-001	 9.364760325296984e-001	 7.477817865245662e+000
 7.505878348216187e-001	 9.442758944146549e-001	 7.281372376964765e+000
 7.408043179595388e-001	 9.519706009347784e-001	 7.084929362161331e+000
 7.309482676778372e-001	 9.595591136179564e-001	 6.888442365620798e+000
 7.210214061063136e-001	 9.670404306346122e-001	 6.691859689416196e+000
 7.110254732455047e-001	 9.744135872095776e-001	 6.495124603565923e+000
 7.009622259758813e-001	 9.816776560026537e-001	 6.298175567388425e+000
 6.908334370579995e-001	 9.888317474575999e-001	 6.100946460883783e+000
 6.806408941247765e-001	 9.958750101193227e-001	 5.903366825445580e+000
 6.703863986670542e-001	 1.002806630919102e+000	 5.705362113181680e+000
 6.600717650136267e-001	 1.009625835427730e+000	 5.506853944110851e+000
 7.642364782766263e-001	 9.413282399524663e-001	 7.571135049458133e+000
 7.544768909614671e-001	 9.491685156295994e-001	 7.375517253337110e+000
 7.446426823021256e-001	 9.569030910954709e-001	 7.179737570613342e+000
 7.347355644023375e-001	 9.645309224972848e-001	 6.983747309974144e+000
 7.247572683148552e-001	 9.720510028146374e-001	 6.787492652392177e+000
 7.147095430557617e-001	 9.794623622735247e-001	 6.590914865223323e+000
 7.045941546085357e-001	 9.867640687288771e-001	 6.393950526901662e+000
 6.944128849190211e-001	 9.939552280153536e-001	 6.196531761547666e+000
 6.841675308824815e-001	 1.001034984266177e+000	 5.998586482788040e+000
 6.738599033239087e-001	 1.008002520199835e+000	 5.800038646056854e+000
 6.634918259727638e-001	 1.014857057374533e+000	 5.600808508634993e+000
 7.681758415666339e-001	 9.461804473747332e-001	 7.660351082413405e+000
 7.583659471003255e-001	 9.540611368439469e-001	 7.465589563747377e+000
 7.484810466437528e-001	 9.618355812554822e-001	 7.270506474351224e+000
 7.385228611259291e-001	 9.695027313758569e-001	 7.075050842495142e+000
 7.284931305225585e-001	 9.770615749938411e-001	 6.879166680143764e+000
 7.183936128652717e-001	 9.845111373365962e-001	 6.682793200575865e+000
 7.082260832405533e-001	 9.918504814541798e-001	 6.485865046500073e+000
 6.979923327795365e-001	 9.990787085721523e-001	 6.288312527981085e+000
 6.876941676398312e-001	 1.006194958412051e+000	 6.090061869456893e+000
 6.773334079805783e-001	 1.013198409479572e+000	 5.891035465118422e+000
 6.669118869319063e-001	 1.020088279320335e+000	 5.691152141892599e+000
 7.721152048556417e-001	 9.510326547964986e-001	 7.745463148705354e+000
 7.622550032381936e-001	 9.589537580576987e-001	 7.551586706421520e+000
 7.523194109844206e-001	 9.667680714148121e-001	 7.357233652442444e+000
 7.423101578486119e-001	 9.744745402536731e-001	 7.162350690173324e+000
 7.322289927294237e-001	 9.820721471722242e-001	 6.966879614554356e+000
 7.220776826740336e-001	 9.895599123987918e-001	 6.770757533277486e+000
 7.118580118719344e-001	 9.969368941785624e-001	 6.573917098411725e+000
 7.015717806395461e-001	 1.004202189127995e+000	 6.376286747730226e+000
 6.912208043968254e-001	 1.011354932556944e+000	 6.177790955022778e+000
 6.808069126370628e-001	 1.018394298758315e+000	 5.978350488646131e+000
 6.703319478910541e-001	 1.025319501265138e+000	 5.777882677554048e+000
 7.760545681436493e-001	 9.558848622177625e-001	 7.826468098446113e+000
 7.661440593750722e-001	 9.638463792708538e-001	 7.633505744026814e+000
 7.561577753241289e-001	 9.717005615734609e-001	 7.439916348175157e+000
 7.460974545703851e-001	 9.794463491307331e-001	 7.245644244854712e+000
 7.359648549354505e-001	 9.870827193497864e-001	 7.050628963849863e+000
 7.257617524820480e-001	 9.946086874601117e-001	 6.854805455663368e+000
 7.154899405026786e-001	 1.002023306902024e+000	 6.658104326729424e+000
 7.051512284990497e-001	 1.009325669682883e+000	 6.460452084235587e+000
 6.947474411534647e-001	 1.016514906700857e+000	 6.261771389818358e+000
 6.842804172933629e-001	 1.023590188036062e+000	 6.061981321385083e+000
 6.737520088502071e-001	 1.030550723208941e+000	 5.860997642287901e+000
 7.799939314306569e-001	 9.607370696385252e-001	 7.903362455712723e+000
 7.700331155109608e-001	 9.687390004834130e-001	 7.711343412145786e+000
 7.599961396628775e-001	 9.766330517314286e-001	 7.518551477537948e+000
 7.498847512912500e-001	 9.844181580070368e-001	 7.324928571703326e+000
 7.397007171406390e-001	 9.920932915265275e-001	 7.130411911025529e+000
 7.294458222893150e-001	 9.996574625205557e-001	 6.934934237115621e+000
 7.191218691327862e-001	 1.007109719624565e+000	 6.738424055698683e+000
 7.087306763580473e-001	 1.014449150236815e+000	 6.540805885016374e+000
 6.982740779097485e-001	 1.021674880843791e+000	 6.342000513000849e+000
 6.877539219494779e-001	 1.028786077312814e+000	 6.141925262463124e+000
 6.771720698093655e-001	 1.035781945151743e+000	 5.940494263512942e+000
 7.839332947166647e-001	 9.655892770587868e-001	 7.976142426738686e+000
 7.739221716458598e-001	 9.736316216953755e-001	 7.785096127494441e+000
 7.638345040006667e-001	 9.815655418887147e-001	 7.593135637444114e+000
 7.536720480112056e-001	 9.893899668825849e-001	 7.400200417410630e+000
 7.434365793449892e-001	 9.971038637024475e-001	 7.206225322016772e+000
 7.331298920958346e-001	 1.004706237580124e+000	 7.011140832178724e+000
 7.227537977622569e-001	 1.012196132346185e+000	 6.814873297753361e+000
 7.123101242165392e-001	 1.019572630789792e+000	 6.617345189608783e+000
 7.018007146656768e-001	 1.026834854985744e+000	 6.418475360370030e+000
 6.912274266054079e-001	 1.033981966588571e+000	 6.218179313070241e+000
 6.805921307685292e-001	 1.041013167093546e+000	 6.016369476917468e+000
 7.878726580016725e-001	 9.704414844785468e-001	 8.044803907860025e+000
 7.778112277797686e-001	 9.785242429067418e-001	 7.854759995893742e+000
 7.676728683374963e-001	 9.864980320453198e-001	 7.663665113707024e+000
 7.574593447302522e-001	 9.943617757573764e-001	 7.471456218157248e+000
 7.471724415485012e-001	 1.002114435877547e+000	 7.278065753625905e+000
 7.368139619016064e-001	 1.009755012638816e+000	 7.083421888429838e+000
 7.263857263910910e-001	 1.017282545066885e+000	 6.887448761310765e+000
 7.158895720745249e-001	 1.024696111341814e+000	 6.690066737264830e+000
 7.053273514212500e-001	 1.031994829126717e+000	 6.491192671951790e+000
 6.947009312611533e-001	 1.039177855863334e+000	 6.290740183906106e+000
 6.840121917276981e-001	 1.046244389034349e+000	 6.088619933752422e+000
 6.498115821362469e-001	 9.939321695813217e-001	 5.203341551545609e+000
 6.395998739291279e-001	 1.000533983068725e+000	 5.049284269345931e+000
 6.293325684494393e-001	 1.007023717840120e+000	 4.905232273433525e+000
 6.190114836772115e-001	 1.013400726799272e+000	 4.724914857631648e+000
 6.086384461828867e-001	 1.019664401569026e+000	 4.520382109216672e+000
 5.982152901131503e-001	 1.025814172582418e+000	 4.324479828678514e+000
 5.877438561781515e-001	 1.031849509142481e+000	 4.136630548919541e+000
 5.772259906412115e-001	 1.037769919450915e+000	 3.956255373094683e+000
 5.666635443121194e-001	 1.043574950605913e+000	 3.782775280959090e+000
 5.560583715450851e-001	 1.049264188569396e+000	 3.615612414776613e+000
 5.454123292424069e-001	 1.054837258104013e+000	 3.454191341876174e+000
 6.532316430953682e-001	 9.991633915311244e-001	 5.308119103350980e+000
 6.429661890549769e-001	 1.005799951405515e+000	 5.153459190901656e+000
 6.326448451248594e-001	 1.012323842675872e+000	 5.008381449045467e+000
 6.222694388533618e-001	 1.018734414840189e+000	 4.851934090822137e+000
 6.118418064244549e-001	 1.025031056319325e+000	 4.645855644046842e+000
 6.013637916382276e-001	 1.031213194548598e+000	 4.447875394201136e+000
 5.908372448927766e-001	 1.037280296037896e+000	 4.257385889265623e+000
 5.802640221685985e-001	 1.043231866400510e+000	 4.073778975018376e+000
 5.696459840165865e-001	 1.049067450350939e+000	 3.896447136757525e+000
 5.589849945507088e-001	 1.054786631671955e+000	 3.724784819124353e+000
 5.482829204464339e-001	 1.060389033151275e+000	 3.558189721057913e+000
 6.566517040544949e-001	 1.004394613479927e+000	 5.409290299652925e+000
 6.463325041810162e-001	 1.011065919741312e+000	 5.253745681979998e+000
 6.359571218006239e-001	 1.017623967510644e+000	 5.107367012788051e+000
 6.255273940299809e-001	 1.024068102880151e+000	 4.970022650967086e+000
 6.150451666665858e-001	 1.030397711068705e+000	 4.766185431901839e+000
 6.045122931639310e-001	 1.036612216513904e+000	 4.565938654691616e+000
 5.939306336080614e-001	 1.042711082932494e+000	 4.372626941975954e+000
 5.833020536966490e-001	 1.048693813349354e+000	 4.185612790548007e+000
 5.726284237216907e-001	 1.054559950095288e+000	 4.004260096613370e+000
 5.619116175569140e-001	 1.060309074773923e+000	 3.827935509769154e+000
 5.511535116509569e-001	 1.065940808198040e+000	 3.656009760601745e+000
 6.600717650136267e-001	 1.009625835427730e+000	 5.506853944110851e+000
 6.496988193072452e-001	 1.016331888076113e+000	 5.350147929631348e+000
 6.392693984767331e-001	 1.022924092344437e+000	 5.202198457172830e+000
 6.287853492070684e-001	 1.029401790919159e+000	 5.062852997572179e+000
 6.182485269092787e-001	 1.035764365817167e+000	 4.881364297059704e+000
 6.076607946902599e-001	 1.042011238478337e+000	 4.678668389365747e+000
 5.970240223240055e-001	 1.048141869826274e+000	 4.482358352810871e+000
 5.863400852253625e-001	 1.054155760297445e+000	 4.291767240420185e+000
 5.756108634274318e-001	 1.060052449838961e+000	 4.106230261573604e+000
 5.648382405637006e-001	 1.065831517875299e+000	 3.925086170389661e+000
 5.540241028559761e-001	 1.071492583244310e+000	 3.747678626210975e+000
 6.634918259727638e-001	 1.014857057374533e+000	 5.600808508634993e+000
 6.530651344336644e-001	 1.021597856409920e+000	 5.442669683198766e+000
 6.425816751531869e-001	 1.028224217177251e+000	 5.292884732796377e+000
 6.320433043846244e-001	 1.034735478957213e+000	 5.151280316407923e+000
 6.214518871525337e-001	 1.041131020564710e+000	 4.991384318894022e+000
 6.108092962172150e-001	 1.047410260441897e+000	 4.786062533835639e+000
 6.001174110406092e-001	 1.053572656719237e+000	 4.586583827144398e+000
 5.893781167547391e-001	 1.059617707244784e+000	 4.392251710153464e+000
 5.785933031338101e-001	 1.065544949581956e+000	 4.202372604625583e+000
 5.677648635710684e-001	 1.071353960976085e+000	 4.016257265788151e+000
 5.568946940614913e-001	 1.077044358290084e+000	 3.833222175954458e+000
 6.669118869319063e-001	 1.020088279320335e+000	 5.691152141892599e+000
 6.564314495602739e-001	 1.026863824742731e+000	 5.531314265540233e+000
 6.458939518299848e-001	 1.033524342009084e+000	 5.379434262234733e+000
 6.353012595626488e-001	 1.040069166994313e+000	 5.235318053010749e+000
 6.246552473963511e-001	 1.046497675311334e+000	 5.096236850973990e+000
 6.139577977447959e-001	 1.052809282404584e+000	 4.888118201740558e+000
 6.032107997578724e-001	 1.059003443611382e+000	 4.685306154074281e+000
 5.924161482847791e-001	 1.065079654191371e+000	 4.487074576592411e+000
 5.815757428408260e-001	 1.071037449324276e+000	 4.292700999622833e+000
 5.706914865790176e-001	 1.076876404076279e+000	 4.101468073145027e+000
 5.597652852675025e-001	 1.082596133335361e+000	 3.912664993794925e+000
 6.703319478910541e-001	 1.025319501265138e+000	 5.777882677554048e+000
 6.597977646870734e-001	 1.032129793074548e+000	 5.616084583909079e+000
 6.492062285071273e-001	 1.038824466839939e+000	 5.461854953514860e+000
 6.385592147411416e-001	 1.045402855030458e+000	 5.314979041125465e+000
 6.278586076407308e-001	 1.051864330057040e+000	 5.175232514618033e+000
 6.171062992730030e-001	 1.058208304366398e+000	 4.984831705715130e+000
 6.063041884757952e-001	 1.064434230502710e+000	 4.778527229798078e+000
 5.954541798154823e-001	 1.070541601137207e+000	 4.576243233638921e+000
 5.845581825484785e-001	 1.076529949065919e+000	 4.377228249324133e+000
 5.736181095875482e-001	 1.082398847175881e+000	 4.180736712315029e+000
 5.626358764740098e-001	 1.088147908380142e+000	 3.986030422091901e+000
 6.737520088502071e-001	 1.030550723208941e+000	 5.860997642287901e+000
 6.631640798140631e-001	 1.037395761405370e+000	 5.696983140502121e+000
 6.525185051846139e-001	 1.044124591669813e+000	 5.540154213172678e+000
 6.418171699201030e-001	 1.050736543065650e+000	 5.390275518233740e+000
 6.310619678856729e-001	 1.057230984801827e+000	 5.247102586065656e+000
 6.202548008018356e-001	 1.063607326327338e+000	 5.076198577720271e+000
 6.093975771943773e-001	 1.069865017393220e+000	 4.866248080274736e+000
 5.984922113468487e-001	 1.076003548082290e+000	 4.659764117200582e+000
 5.875406222567683e-001	 1.082022448806886e+000	 4.455966112577467e+000
 5.765447325966602e-001	 1.087921290274893e+000	 4.254080175200395e+000
 5.655064676810132e-001	 1.093699683424428e+000	 4.053340593114903e+000
 6.771720698093655e-001	 1.035781945151743e+000	 5.940494263512942e+000
 6.665303949412426e-001	 1.042661729735196e+000	 5.774012042688327e+000
 6.558307818624455e-001	 1.049424716498708e+000	 5.614338958917812e+000
 6.450751250995325e-001	 1.056070231099887e+000	 5.461219140610847e+000
 6.342653281311770e-001	 1.062597639545695e+000	 5.314388042960818e+000
 6.234033023312940e-001	 1.069006348287406e+000	 5.162213588755803e+000
 6.124909659136192e-001	 1.075295804282912e+000	 4.948468883201024e+000
 6.015302428788782e-001	 1.081465495026622e+000	 4.737642729381767e+000
 5.905230619656950e-001	 1.087514948547176e+000	 4.528925330683427e+000
 5.794713556063534e-001	 1.093443733373314e+000	 4.321514354235494e+000
 5.683770588885128e-001	 1.099251458468217e+000	 4.114616459600605e+000
 6.805921307685292e-001	 1.041013167093546e+000	 6.016369476917468e+000
 6.698967100686123e-001	 1.047927698064028e+000	 5.847173012928923e+000
 6.591430585406211e-001	 1.054724841326624e+000	 5.684415631915498e+000
 6.483330802794309e-001	 1.061403919133170e+000	 5.527820997928759e+000
 6.374686883772435e-001	 1.067964294288645e+000	 5.377104551210524e+000
 6.265518038613785e-001	 1.074405370246600e+000	 5.231974050719241e+000
 6.155843546335205e-001	 1.080726591171788e+000	 5.025188989323626e+000
 6.045682744115710e-001	 1.086927441970201e+000	 4.809883661946527e+000
 5.935055016752592e-001	 1.093007448286789e+000	 4.596115652959340e+000
 5.823979786166280e-001	 1.098966176471143e+000	 4.383054070010571e+000
 5.712476500965084e-001	 1.104803233511510e+000	 4.169877824389856e+000
 6.840121917276981e-001	 1.046244389034349e+000	 6.088619933752422e+000
 6.732630251961720e-001	 1.053193666391865e+000	 5.916467398400543e+000
 6.624553352191411e-001	 1.060024966153559e+000	 5.750390208700464e+000
 6.515910354597976e-001	 1.066737607165498e+000	 5.590091627421350e+000
 6.406720486238721e-001	 1.073330949030676e+000	 5.435267138050731e+000
 6.297003053920891e-001	 1.079804392204921e+000	 5.285605007632187e+000
 6.186777433540812e-001	 1.086157378059845e+000	 5.096406943113760e+000
 6.076063059449272e-001	 1.092389388913029e+000	 4.876490619076908e+000
 5.964879413854602e-001	 1.098499948025727e+000	 4.657545861540869e+000
 5.853246016274839e-001	 1.104488619568381e+000	 4.438713098068808e+000
 5.741182413050000e-001	 1.110355008554307e+000	 4.219143369174599e+000
 5.454123292424069e-001	 1.054837258104013e+000	 3.454191341876174e+000
 5.347272758645291e-001	 1.060293822680900e+000	 3.329675133413473e+000
 5.240050704485426e-001	 1.065633584356745e+000	 3.202079232435049e+000
 5.132475716355117e-001	 1.070856283621824e+000	 3.070912259726992e+000
 5.024566367067984e-001	 1.075961699220761e+000	 2.935695896539661e+000
 4.916341206313848e-001	 1.080949647944695e+000	 2.795965848640509e+000
 4.807818751247673e-001	 1.085819984395989e+000	 2.651272766748256e+000
 4.699017477203044e-001	 1.090572600726104e+000	 2.501183121692427e+000
 4.589955808538687e-001	 1.095207426347230e+000	 2.345280032809688e+000
 4.480652109626246e-001	 1.099724427618340e+000	 2.183164048242518e+000
 4.371124675987154e-001	 1.104123607506328e+000	 2.014453875971294e+000
 5.482829204464339e-001	 1.060389033151275e+000	 3.558189721057913e+000
 5.375416299455271e-001	 1.065874316488841e+000	 3.429385294667752e+000
 5.267629918694360e-001	 1.071242182173231e+000	 3.298204164918808e+000
 5.159488746415466e-001	 1.076492369328878e+000	 3.164165838197057e+000
 5.051011453183862e-001	 1.081624655535908e+000	 3.026802137208873e+000
 4.942216686319315e-001	 1.086638856621199e+000	 2.885658172945742e+000
 4.833123060435501e-001	 1.091534826421867e+000	 2.740293273682465e+000
 4.723749148104606e-001	 1.096312456521747e+000	 2.590281869314622e+000
 4.614113470655669e-001	 1.100971675961515e+000	 2.435214329513382e+000
 4.504234489114922e-001	 1.105512450923085e+000	 2.274697754324280e+000
 4.394130595296016e-001	 1.109934784388969e+000	 2.108356716008764e+000
 5.511535116509569e-001	 1.065940808198040e+000	 3.656009760601745e+000
 5.403559840269314e-001	 1.071454810296381e+000	 3.523506047397910e+000
 5.295209132906664e-001	 1.076850779989400e+000	 3.389318650445937e+000
 5.186501776478695e-001	 1.082128455035691e+000	 3.252977600764686e+000
 5.077456539302332e-001	 1.087287611850877e+000	 3.114024511996279e+000
 4.968092166327285e-001	 1.092328065297581e+000	 2.972013560605801e+000
 4.858427369625947e-001	 1.097249668447666e+000	 2.826512423743986e+000
 4.748480819009099e-001	 1.102052312317345e+000	 2.677103173047664e+000
 4.638271132776092e-001	 1.106735925575779e+000	 2.523383122814565e+000
 4.527816868607744e-001	 1.111300474227825e+000	 2.364965631146712e+000
 4.417136514609928e-001	 1.115745961271609e+000	 2.201480852823587e+000
 5.540241028559761e-001	 1.071492583244310e+000	 3.747678626210975e+000
 5.431703381087421e-001	 1.077035304103519e+000	 3.612058441573210e+000
 5.322788347122338e-001	 1.082459377805253e+000	 3.475437765058065e+000
 5.213514806544802e-001	 1.087764540742262e+000	 3.337356792653601e+000
 5.103901625423390e-001	 1.092950568165669e+000	 3.197366579630829e+000
 4.993967646337760e-001	 1.098017273973839e+000	 3.055030029296286e+000
 4.883731678819011e-001	 1.102964510473387e+000	 2.909922840026245e+000
 4.773212489916523e-001	 1.107792168112899e+000	 2.761634408810426e+000
 4.662428794899955e-001	 1.112500175190024e+000	 2.609768689712960e+000
 4.551399248104715e-001	 1.117088497532560e+000	 2.453945005804314e+000
 4.440142433928893e-001	 1.121557138154250e+000	 2.293798813289667e+000
 5.568946940614913e-001	 1.077044358290084e+000	 3.833222175954458e+000
 5.459846921909589e-001	 1.082615797910257e+000	 3.695062369853158e+000
 5.350367561341383e-001	 1.088067975620789e+000	 3.556575574817174e+000
 5.240527836613791e-001	 1.093400626448592e+000	 3.417311793392415e+000
 5.130346711547041e-001	 1.098613524480284e+000	 3.276831174330491e+000
 5.019843126350742e-001	 1.103706482649975e+000	 3.134705010220719e+000
 4.909035988014693e-001	 1.108679352499029e+000	 2.990516693994542e+000
 4.797944160826879e-001	 1.113532023908409e+000	 2.843862632501328e+000
 4.686586457027261e-001	 1.118264424804250e+000	 2.694353115517526e+000
 4.574981627605835e-001	 1.122876520837290e+000	 2.541613138713041e+000
 4.463148353252908e-001	 1.127368315036890e+000	 2.385283179259334e+000
 5.597652852675025e-001	 1.082596133335361e+000	 3.912664993794925e+000
 5.487990462735822e-001	 1.088196291716594e+000	 3.772536597262240e+000
 5.377946775563794e-001	 1.093676573436009e+000	 3.632745161704165e+000
 5.267540866685657e-001	 1.099036712154679e+000	 3.492850139011724e+000
 5.156791797673286e-001	 1.104276480794721e+000	 3.352420424380863e+000
 5.045718606366226e-001	 1.109395691325988e+000	 3.211035363147532e+000
 4.934340297212995e-001	 1.114394194524592e+000	 3.068285717066754e+000
 4.822675831740166e-001	 1.119271879703876e+000	 2.923774588204456e+000
 4.710744119158010e-001	 1.124028674418456e+000	 2.777118298761415e+000
 4.598564007111105e-001	 1.128664544142016e+000	 2.627947225319195e+000
 4.486154272581974e-001	 1.133179491919531e+000	 2.475906586154678e+000
 5.626358764740098e-001	 1.088147908380142e+000	 3.986030422091901e+000
 5.516134003566114e-001	 1.093776785522528e+000	 3.844498789956662e+000
 5.405525989789578e-001	 1.099285171250912e+000	 3.703958648722892e+000
 5.294553896760404e-001	 1.104672797860524e+000	 3.563978543561942e+000
 5.183236883802120e-001	 1.109939437108981e+000	 3.424135770142370e+000
 5.071594086384217e-001	 1.115084900001878e+000	 3.284017390987806e+000
 4.959644606413915e-001	 1.120109036550077e+000	 3.143221211838776e+000
 4.847407502656382e-001	 1.125011735499297e+000	 3.001356716143929e+000
 4.734901781292198e-001	 1.129792924032642e+000	 2.858045955967181e+000
 4.622146386620523e-001	 1.134452567446737e+000	 2.712924397757729e+000
 4.509160191916093e-001	 1.138990668802171e+000	 2.565641721599751e+000
 5.655064676810132e-001	 1.093699683424428e+000	 4.053340593114903e+000
 5.544277544400476e-001	 1.099357279328063e+000	 3.910965543114221e+000
 5.433105204018731e-001	 1.104893769065499e+000	 3.770227224238291e+000
 5.321566926838032e-001	 1.110308883566128e+000	 3.630702919976039e+000
 5.209681969933547e-001	 1.115602393423063e+000	 3.491977981510841e+000
 5.097469566404712e-001	 1.120774108677645e+000	 3.353646853929134e+000
 4.984948915617453e-001	 1.125823878575484e+000	 3.215314062968558e+000
 4.872139173575531e-001	 1.130751591294675e+000	 3.076595160396267e+000
 4.759059443429830e-001	 1.135557173646809e+000	 2.937117626265557e+000
 4.645728766134090e-001	 1.140240590751453e+000	 2.796521726458576e+000
 4.532166111255263e-001	 1.144801845684812e+000	 2.654461324096623e+000
 5.683770588885128e-001	 1.099251458468217e+000	 4.114616459600605e+000
 5.572421085238898e-001	 1.104937773133196e+000	 3.971952407978030e+000
 5.460684418251253e-001	 1.110502366879770e+000	 3.831561165580048e+000
 5.348579956918537e-001	 1.115944969271490e+000	 3.693028400299437e+000
 5.236127056067564e-001	 1.121265349736968e+000	 3.555947174848510e+000
 5.123345046427712e-001	 1.126463317353289e+000	 3.419918983139991e+000
 5.010253224823609e-001	 1.131538720600812e+000	 3.284554747729745e+000
 4.896870844497611e-001	 1.136491447090009e+000	 3.149475776368556e+000
 4.783217105570901e-001	 1.141321423260956e+000	 3.014314675875850e+000
 4.669311145651806e-001	 1.146028614056164e+000	 2.878716221704539e+000
 4.555172030599484e-001	 1.150613022567453e+000	 2.742338181739841e+000
 5.712476500965084e-001	 1.104803233511510e+000	 4.169877824389856e+000
 5.600564626081381e-001	 1.110518266937927e+000	 4.027473918088005e+000
 5.488263632487144e-001	 1.116110964693724e+000	 3.887969861932249e+000
 5.375592987001923e-001	 1.121581054976609e+000	 3.750959355311220e+000
 5.262572142204174e-001	 1.126928306050696e+000	 3.616042829404353e+000
 5.149220526453217e-001	 1.132152526028810e+000	 3.482828494062206e+000
 5.035557534032383e-001	 1.137253562626061e+000	 3.350933346247904e+000
 4.921602515422621e-001	 1.142231302885299e+000	 3.219984138051911e+000
 4.807374767715415e-001	 1.147085672875084e+000	 3.089618302450340e+000
 4.692893525173670e-001	 1.151816637360869e+000	 2.959484835143419e+000
 4.578177949948757e-001	 1.156424199450093e+000	 2.829245130971138e+000
 5.741182413050000e-001	 1.110355008554307e+000	 4.219143369174599e+000
 5.628708166927929e-001	 1.116098760742258e+000	 4.077543614722564e+000
 5.515842846726407e-001	 1.121719562507361e+000	 3.939461836536304e+000
 5.402606017088187e-001	 1.127217140681487e+000	 3.804499413553345e+000
 5.289017228343377e-001	 1.132591262364247e+000	 3.672263803241749e+000
 5.175096006481226e-001	 1.137841734704207e+000	 3.542369599303940e+000
 5.060861843243777e-001	 1.142968404651232e+000	 3.414439551428989e+000
 4.946334186350563e-001	 1.147971158680544e+000	 3.288105545055410e+000
 4.831532429863370e-001	 1.152849922489192e+000	 3.163009539287814e+000
 4.716475904699683e-001	 1.157604660665571e+000	 3.038804461253436e+000
 4.601183869303079e-001	 1.162235376332733e+000	 2.915155055369940e+000
 4.371124675987154e-001	 1.104123607506328e+000	 2.014453875971294e+000
 4.261391725589966e-001	 1.108405005222262e+000	 1.889606080511816e+000
 4.151471390304695e-001	 1.112568695835493e+000	 1.771793337536560e+000
 4.041381707526780e-001	 1.116614789865071e+000	 1.660773637996613e+000
 3.931140611985838e-001	 1.120543432847807e+000	 1.556310343950399e+000
 3.820765927734312e-001	 1.124354804885831e+000	 1.458172814118589e+000
 3.710275360325239e-001	 1.128049120173762e+000	 1.366136993351437e+000
 3.599686489184505e-001	 1.131626626506307e+000	 1.279985965371295e+000
 3.489016760182663e-001	 1.135087604767135e+000	 1.199510468284083e+000
 3.378283478410925e-001	 1.138432368399839e+000	 1.124509372479711e+000
 3.267503801165620e-001	 1.141661262861868e+000	 1.054790120668121e+000
 4.394130595296016e-001	 1.109934784388969e+000	 2.108356716008764e+000
 4.283820103051713e-001	 1.114238715776674e+000	 1.988210237187947e+000
 4.173321239683072e-001	 1.118424320550721e+000	 1.872925964680442e+000
 4.062652137519197e-001	 1.122491709811837e+000	 1.762231328591252e+000
 3.951830825683017e-001	 1.126441029862816e+000	 1.655861606208065e+000
 3.840875222037781e-001	 1.130272461753694e+000	 1.553560548133998e+000
 3.729803125323642e-001	 1.133986220806428e+000	 1.455080964910087e+000
 3.618632207489786e-001	 1.137582556119909e+000	 1.360185273555066e+000
 3.507380006227135e-001	 1.141061750056138e+000	 1.268646003577265e+000
 3.396063917706329e-001	 1.144424117708413e+000	 1.180246262158248e+000
 3.284701189525257e-001	 1.147670006352376e+000	 1.094780158329677e+000
 4.417136514609928e-001	 1.115745961271609e+000	 2.201480852823587e+000
 4.306248480519458e-001	 1.120072426331081e+000	 2.085513177903942e+000
 4.195171089068295e-001	 1.124279945265927e+000	 1.972254414683135e+000
 4.083922567519204e-001	 1.128368629758556e+000	 1.861401410796277e+000
 3.972521039388432e-001	 1.132338626877743e+000	 1.752661327768282e+000
 3.860984516350025e-001	 1.136190118621429e+000	 1.645752267954822e+000
 3.749330890331263e-001	 1.139923321438910e+000	 1.540403858557829e+000
 3.637577925804628e-001	 1.143538485733261e+000	 1.436357792192145e+000
 3.525743252281413e-001	 1.147035895344816e+000	 1.333368323641304e+000
 3.413844357011684e-001	 1.150415867016576e+000	 1.231202722563103e+000
 3.301898577894895e-001	 1.153678749842379e+000	 1.129641682050036e+000
 4.440142433928893e-001	 1.121557138154250e+000	 2.293798813289667e+000
 4.328676857993202e-001	 1.125906136885482e+000	 2.181498274209376e+000
 4.217020938460364e-001	 1.130135569981113e+000	 2.069772547392345e+000
 4.105192997526802e-001	 1.134245549705228e+000	 1.958287873327467e+000
 3.993211253102078e-001	 1.138236223892587e+000	 1.846723263994425e+000
 3.881093810671046e-001	 1.142107775489035e+000	 1.734771130843399e+000
 3.768858655348105e-001	 1.145860422071209e+000	 1.622137866430627e+000
 3.656523644129032e-001	 1.149494415346363e+000	 1.508544379255631e+000
 3.544106498345495e-001	 1.153010040633169e+000	 1.393726581492253e+000
 3.431624796326990e-001	 1.156407616324327e+000	 1.277435829456840e+000
 3.319095966274531e-001	 1.159687493331875e+000	 1.159439316790618e+000
 4.463148353252908e-001	 1.127368315036890e+000	 2.385283179259334e+000
 4.351105235472946e-001	 1.131739847439878e+000	 2.276148751425548e+000
 4.238870787859280e-001	 1.135991194696278e+000	 2.165473882255111e+000
 4.126463427541992e-001	 1.140122469651855e+000	 2.052894177406990e+000
 4.013901466823960e-001	 1.144133820907349e+000	 1.938060462779330e+000
 3.901203105000843e-001	 1.148025432356514e+000	 1.820639413758606e+000
 3.788386420374164e-001	 1.151797522703324e+000	 1.700314134708088e+000
 3.675469362462999e-001	 1.155450344959216e+000	 1.576784688307253e+000
 3.562469744419384e-001	 1.158984185921196e+000	 1.449768574497069e+000
 3.449405235652249e-001	 1.162399365631668e+000	 1.319001158945615e+000
 3.336293354664169e-001	 1.165696236820865e+000	 1.184236051092094e+000
 4.486154272581974e-001	 1.133179491919531e+000	 2.475906586154678e+000
 4.373533612958691e-001	 1.137573557994270e+000	 2.369447692393869e+000
 4.260720637265041e-001	 1.141846819411423e+000	 2.259351607046601e+000
 4.147733857564770e-001	 1.145999389598435e+000	 2.145223270288917e+000
 4.034591680554074e-001	 1.150031417922030e+000	 2.026685282684904e+000
 3.921312399339416e-001	 1.153943089223864e+000	 1.903378535930920e+000
 3.807914185409442e-001	 1.157734623335254e+000	 1.774962790433523e+000
 3.694415080806525e-001	 1.161406274571818e+000	 1.641117199380008e+000
 3.580832990503078e-001	 1.164958331208897e+000	 1.501540779133407e+000
 3.467185674987460e-001	 1.168391114938597e+000	 1.355952825933168e+000
 3.353490743063806e-001	 1.171704980309348e+000	 1.204093279034182e+000
 4.509160191916093e-001	 1.138990668802171e+000	 2.565641721599751e+000
 4.395961990450437e-001	 1.143407268548656e+000	 2.461378041111388e+000
 4.282570486677648e-001	 1.147702444126547e+000	 2.351398586330862e+000
 4.169004287595140e-001	 1.151876309544969e+000	 2.235277598371185e+000
 4.055281894292424e-001	 1.155929014936628e+000	 2.112609410525498e+000
 3.941421693686766e-001	 1.159860746091087e+000	 1.983009080741282e+000
 3.827441950453939e-001	 1.163671723967001e+000	 1.846112967511697e+000
 3.713360799159614e-001	 1.167362204184171e+000	 1.701579248913533e+000
 3.599196236596577e-001	 1.170932476496273e+000	 1.549088384686102e+000
 3.484966114332621e-001	 1.174382864245115e+000	 1.388343521395676e+000
 3.370688131473443e-001	 1.177713723797325e+000	 1.219070840910326e+000
 4.532166111255263e-001	 1.144801845684812e+000	 2.654461324096623e+000
 4.418390367948182e-001	 1.149240979103036e+000	 2.551922606254483e+000
 4.304420336097103e-001	 1.153558068841651e+000	 2.441607369664848e+000
 4.190274717633101e-001	 1.157753229491456e+000	 2.323059119906248e+000
 4.075972108039005e-001	 1.161826611951143e+000	 2.195843878419688e+000
 3.961530988042891e-001	 1.165778402958181e+000	 2.059550816936608e+000
 3.846969715507654e-001	 1.169608824598563e+000	 1.913792831915665e+000
 3.732306517522264e-001	 1.173318133796274e+000	 1.758207058781678e+000
 3.617559482699883e-001	 1.176906621783323e+000	 1.592455325915759e+000
 3.502746553687733e-001	 1.180374613551223e+000	 1.416224548521725e+000
 3.387885519893080e-001	 1.183722467284796e+000	 1.229227062664769e+000
 4.555172030599484e-001	 1.150613022567453e+000	 2.742338181739841e+000
 4.440818745451927e-001	 1.155074689657412e+000	 2.641064064595732e+000
 4.326270185523402e-001	 1.159413693556733e+000	 2.529970199551632e+000
 4.211545147678651e-001	 1.163630149437897e+000	 2.408569317330107e+000
 4.096662321793823e-001	 1.167724208965577e+000	 2.276399080322440e+000
 3.981640282407793e-001	 1.171696059825147e+000	 2.133022719200309e+000
 3.866497480570588e-001	 1.175545925229941e+000	 1.978029606129293e+000
 3.751252235894476e-001	 1.179274063408127e+000	 1.811035764435874e+000
 3.635922728812994e-001	 1.182880767070047e+000	 1.631684314740569e+000
 3.520526993052798e-001	 1.186366362856919e+000	 1.439645857758867e+000
 3.405082908322717e-001	 1.189731210771761e+000	 1.234618794132383e+000
 4.578177949948757e-001	 1.156424199450093e+000	 2.829245130971138e+000
 4.463247122961671e-001	 1.160908400211782e+000	 2.728784964318392e+000
 4.348120034956550e-001	 1.165269318271796e+000	 2.616479019157354e+000
 4.232815577731793e-001	 1.169507069384292e+000	 2.491809209215667e+000
 4.117352535556872e-001	 1.173621805979928e+000	 2.354284788058075e+000
 4.001749576781470e-001	 1.177613716691985e+000	 2.203442988104828e+000
 3.886025245642740e-001	 1.181483025861135e+000	 2.038849592854555e+000
 3.770197954276248e-001	 1.185229993019729e+000	 1.860099442203808e+000
 3.654285974935911e-001	 1.188854912356446e+000	 1.666816870959727e+000
 3.538307432427814e-001	 1.192358112162204e+000	 1.458656080800118e+000
 3.422280296762355e-001	 1.195739954258219e+000	 1.235301446127848e+000
 4.601183869303079e-001	 1.162235376332733e+000	 2.915155055369940e+000
 4.485675500477416e-001	 1.166742110766147e+000	 2.815067728231656e+000
 4.369969884396541e-001	 1.171124942986837e+000	 2.701125479792431e+000
 4.254086007792526e-001	 1.175383989330640e+000	 2.572779361870200e+000
 4.138042749328156e-001	 1.179519402994198e+000	 2.429510166874224e+000
 4.021858871163925e-001	 1.183531373558695e+000	 2.270829069464099e+000
 3.905553010724113e-001	 1.187420126492146e+000	 2.096278198002660e+000
 3.789143672667583e-001	 1.191185922631083e+000	 1.905431135766136e+000
 3.672649221068632e-001	 1.194829057642520e+000	 1.697893352056777e+000
 3.556087871812780e-001	 1.198349861467077e+000	 1.473302563554023e+000
 3.439477685211992e-001	 1.201748697744171e+000	 1.231329026421117e+000
 3.267503801165620e-001	 1.141661262861868e+000	 1.054790120668121e+000
 3.156694731143683e-001	 1.144774665062668e+000	 9.983442268240483e-001
 3.045873109856099e-001	 1.147772982785712e+000	 9.419761599405970e-001
 2.935055611261506e-001	 1.150656654096043e+000	 8.855272507584930e-001
 2.824258735618946e-001	 1.153426146735067e+000	 8.288524118382623e-001
 2.713498803565931e-001	 1.156081957502228e+000	 7.718203216415254e-001
 2.602791950422928e-001	 1.158624611624860e+000	 7.143135686695699e-001
 2.492154120725943e-001	 1.161054662117071e+000	 6.562287563542986e-001
 2.381601062988595e-001	 1.163372689128536e+000	 5.974765694932122e-001
 2.271148324694689e-001	 1.165579299284062e+000	 5.379818031011094e-001
 2.160811247521964e-001	 1.167675125014772e+000	 4.776833546425152e-001
 3.284701189525257e-001	 1.147670006352376e+000	 1.094780158329677e+000
 3.173308913869212e-001	 1.150799794881115e+000	 1.022001615466817e+000
 3.061904020889179e-001	 1.153813893224235e+000	 9.510595284926982e-001
 2.950503272301469e-001	 1.156712741752386e+000	 8.817905051109948e-001
 2.839123255208583e-001	 1.159496810668771e+000	 8.140433636697563e-001
 2.727780376146122e-001	 1.162166599387571e+000	 7.476793527560492e-001
 2.616490855357279e-001	 1.164722635900472e+000	 6.825723314905298e-001
 2.505270721296666e-001	 1.167165476132183e+000	 6.186089111462937e-001
 2.394135805364807e-001	 1.169495703285802e+000	 5.556885588131058e-001
 2.283101736874360e-001	 1.171713927178897e+000	 4.937236639167387e-001
 2.172183938248729e-001	 1.173820783571177e+000	 4.326395684858654e-001
 3.301898577894895e-001	 1.153678749842379e+000	 1.129641682050036e+000
 3.189923096604687e-001	 1.156824924698961e+000	 1.040883605454227e+000
 3.077934931932050e-001	 1.159854803662072e+000	 9.556949088416871e-001
 2.965950933350965e-001	 1.162768829407969e+000	 8.739074427456215e-001
 2.853987774807396e-001	 1.165567474601652e+000	 7.953639156110182e-001
 2.742061948735026e-001	 1.168251241272035e+000	 7.199181486837264e-001
 2.630189760299782e-001	 1.170820660175161e+000	 6.474352922169417e-001
 2.518387321874882e-001	 1.173276290146340e+000	 5.777920035592575e-001
 2.406670547747752e-001	 1.175618717442088e+000	 5.108765877715036e-001
 2.295055149059909e-001	 1.177848555072736e+000	 4.465891015131277e-001
 2.183556628980420e-001	 1.179966442126581e+000	 3.848414210315157e-001
 3.319095966274531e-001	 1.159687493331875e+000	 1.159439316790618e+000
 3.206537279350112e-001	 1.162850054516205e+000	 1.055051392869743e+000
 3.093965842984716e-001	 1.165895714099223e+000	 9.559403868892039e-001
 2.981398594409997e-001	 1.168824917062792e+000	 8.619333564755896e-001
 2.868852294415383e-001	 1.171638138533708e+000	 7.728668827281469e-001
 2.756343521332642e-001	 1.174335883155621e+000	 6.885873601800497e-001
 2.643888665250437e-001	 1.176918684448927e+000	 6.089512486839227e-001
 2.531503922460589e-001	 1.179387104159539e+000	 5.338252877129281e-001
 2.419205290137432e-001	 1.181741731597392e+000	 4.630866736512115e-001
 2.307008561251338e-001	 1.183983182965581e+000	 3.966232007597982e-001
 2.194929319717039e-001	 1.186112100680985e+000	 3.343333665771467e-001
 3.336293354664169e-001	 1.165696236820865e+000	 1.184236051092094e+000
 3.223151462105482e-001	 1.168875184332848e+000	 1.064564626488016e+000
 3.109996754047172e-001	 1.171936624535689e+000	 9.518525832774851e-001
 2.996846255478562e-001	 1.174881004716855e+000	 8.459221488635806e-001
 2.883716814032544e-001	 1.177708802464941e+000	 7.466037578239761e-001
 2.770625093938973e-001	 1.180420525038329e+000	 6.537363767330015e-001
 2.657587570209247e-001	 1.183016708721772e+000	 5.671677914953019e-001
 2.544620523053789e-001	 1.185497918171783e+000	 4.867548576013454e-001
 2.431740032533847e-001	 1.187864745751717e+000	 4.123637138278703e-001
 2.318961973448644e-001	 1.190117810857430e+000	 3.438699599906135e-001
 2.206302010458584e-001	 1.192257759234390e+000	 2.811587994526671e-001
 3.353490743063806e-001	 1.171704980309348e+000	 1.204093279034182e+000
 3.239765644870802e-001	 1.174900314148891e+000	 1.069481447449209e+000
 3.126027665119423e-001	 1.177977534971469e+000	 9.434866909603635e-001
 3.012293916556663e-001	 1.180937092370158e+000	 8.259263678668488e-001
 2.898581333658880e-001	 1.183779466395349e+000	 7.166247453407046e-001
 2.784906666554017e-001	 1.186505166920159e+000	 6.154133589037469e-001
 2.671286475176208e-001	 1.189114732993695e+000	 5.221313349756501e-001
 2.557737123654483e-001	 1.191608732183070e+000	 4.366256768402466e-001
 2.444274774936994e-001	 1.193987759905060e+000	 3.587515144857360e-001
 2.330915385651829e-001	 1.196252438748285e+000	 2.883723188628118e-001
 2.217674701205055e-001	 1.198403417786794e+000	 2.253600811976378e-001
 3.370688131473443e-001	 1.177713723797325e+000	 1.219070840910326e+000
 3.256379827646070e-001	 1.180925443964332e+000	 1.069858527718838e+000
 3.142058576201465e-001	 1.184018445406563e+000	 9.308965116238904e-001
 3.027741577644297e-001	 1.186993180022701e+000	 8.019972413947455e-001
 2.913445853294390e-001	 1.189850130324933e+000	 6.829787942288133e-001
 2.799188239177776e-001	 1.192589808801110e+000	 5.736652696762239e-001
 2.684985380151321e-001	 1.195212757264695e+000	 4.738871471790217e-001
 2.570853724262668e-001	 1.197719546193401e+000	 3.834816075026467e-001
 2.456809517346877e-001	 1.200110774057423e+000	 3.022928184540549e-001
 2.342868797860893e-001	 1.202387066638143e+000	 2.301721853638722e-001
 2.229047391956453e-001	 1.204549076338198e+000	 1.669785669091843e-001
 3.387885519893080e-001	 1.183722467284796e+000	 1.229227062664769e+000
 3.272994010431286e-001	 1.186950573779172e+000	 1.065751107376629e+000
 3.158089487293299e-001	 1.190059355840972e+000	 9.141344909974413e-001
 3.043189238741466e-001	 1.193049267674485e+000	 7.741847108130119e-001
 2.928310372939074e-001	 1.195920794253693e+000	 6.457136298107973e-001
 2.813469811810246e-001	 1.198674450681184e+000	 5.285379048531137e-001
 2.698684285134588e-001	 1.201310781534773e+000	 4.224793789816931e-001
 2.583970324878345e-001	 1.203830360202775e+000	 3.273654380772902e-001
 2.469344259763494e-001	 1.206233788208805e+000	 2.430293321955733e-001
 2.354822210075836e-001	 1.208521694527008e+000	 1.693104619965548e-001
 2.240420082712779e-001	 1.210694734888603e+000	 1.060546307846061e-001
 3.405082908322717e-001	 1.189731210771761e+000	 1.234618794132383e+000
 3.289608193226450e-001	 1.192975703593411e+000	 1.057213030775868e+000
 3.174120398394927e-001	 1.196100266274696e+000	 8.932517530956555e-001
 3.058636899848169e-001	 1.199105355325508e+000	 7.425374634305409e-001
 2.943174892592933e-001	 1.201991458181629e+000	 6.048757846815046e-001
 2.827751384451431e-001	 1.204759092560379e+000	 4.800759225291163e-001
 2.712383190126007e-001	 1.207408805803928e+000	 3.679510922933105e-001
 2.597086925501516e-001	 1.209941174211193e+000	 2.683189105792179e-001
 2.481879002186845e-001	 1.212356802359207e+000	 1.810017519779789e-001
 2.366775622296657e-001	 1.214656322414876e+000	 1.058270711701318e-001
 2.251792773474030e-001	 1.216840393438008e+000	 4.262769089346681e-002
 3.422280296762355e-001	 1.195739954258219e+000	 1.235301446127848e+000
 3.306222376031562e-001	 1.199000833407049e+000	 1.044296781610345e+000
 3.190151309506347e-001	 1.202141176707733e+000	 8.682981334262774e-001
 3.074084560964407e-001	 1.205161442975771e+000	 7.071029640110802e-001
 2.958039412255967e-001	 1.208062122108741e+000	 5.605106286751492e-001
 2.842032957101329e-001	 1.210843734438696e+000	 4.283228716776306e-001
 2.726082095125579e-001	 1.213506830072162e+000	 3.103442874183026e-001
 2.610203526132179e-001	 1.216051988218655e+000	 2.063827468434186e-001
 2.494413744616930e-001	 1.218479816508628e+000	 1.162497892548922e-001
 2.378729034523357e-001	 1.220790950301750e+000	 3.976097982428898e-002
 2.263165464240208e-001	 1.222986051986412e+000	-2.326376680062653e-002
 3.439477685211992e-001	 1.201748697744171e+000	 1.231329026421117e+000
 3.322836558846621e-001	 1.205025963220085e+000	 1.027053516932376e+000
 3.206182220627559e-001	 1.208182087140085e+000	 8.393222112035548e-001
 3.089532222090179e-001	 1.211217530625274e+000	 6.679274853332599e-001
 2.972903931928174e-001	 1.214132786035029e+000	 5.126623979361050e-001
 2.856314529759942e-001	 1.216928376316135e+000	 3.733212198780776e-001
 2.739781000133303e-001	 1.219604854339473e+000	 2.496999295961556e-001
 2.623320126770334e-001	 1.222162802225159e+000	 1.415966740280154e-001
 2.506948487053750e-001	 1.224602830657068e+000	 4.881219528726552e-002
 2.390682446755935e-001	 1.226925578187628e+000	-2.884977668158309e-002
 2.274538155011313e-001	 1.229131710533816e+000	-9.158216513699302e-002
 2.160811247521964e-001	 1.167675125014772e+000	 4.776833546425152e-001
 2.050604962794229e-001	 1.169660823881365e+000	 4.139015789320738e-001
 1.940544387171903e-001	 1.171537077891494e+000	 3.529987895738642e-001
 1.830644218573088e-001	 1.173304592811305e+000	 2.948794177563092e-001
 1.720918932318991e-001	 1.174964097471118e+000	 2.394594447801466e-001
 1.611382777512565e-001	 1.176516343067282e+000	 1.866663503973823e-001
 1.502049773645809e-001	 1.177962102460596e+000	 1.364390314381396e-001
 1.392933707434226e-001	 1.179302169472074e+000	 8.872769192974062e-002
 1.284048129876733e-001	 1.180537358176804e+000	 4.349370593680474e-002
 1.175406353539069e-001	 1.181668502196668e+000	 7.094544062307054e-004
 1.067021450058422e-001	 1.182696453992638e+000	-3.964186268964600e-002
 2.172183938248729e-001	 1.173820783571177e+000	 4.326395684858654e-001
 2.061397620449573e-001	 1.175816933484222e+000	 3.686296275593918e-001
 1.950757778645364e-001	 1.177703062515238e+000	 3.082882537224407e-001
 1.840279188111670e-001	 1.179479880144928e+000	 2.515225045756532e-001
 1.729976400355602e-001	 1.181148119039562e+000	 1.982503765951609e-001
 1.619863739475397e-001	 1.182708534349154e+000	 1.484007658962130e-001
 1.509955298749858e-001	 1.184161903002191e+000	 1.019133994670568e-001
 1.400264937456151e-001	 1.185509022997692e+000	 5.873873804567631e-002
 1.290806277914246e-001	 1.186750712695352e+000	 1.883785185743064e-002
 1.181592702756020e-001	 1.187887810104537e+000	-1.781772952685258e-002
 1.072637352416756e-001	 1.188921172172853e+000	-5.124619192872369e-002
 2.183556628980420e-001	 1.179966442126581e+000	 3.848414210315157e-001
 2.072190278108896e-001	 1.181973043086084e+000	 3.209200127770348e-001
 1.960971170121959e-001	 1.183869047138002e+000	 2.614399300664115e-001
 1.849914157652644e-001	 1.185655167477598e+000	 2.063108261994066e-001
 1.739033868393965e-001	 1.187332140607089e+000	 1.554526951824260e-001
 1.628344701439443e-001	 1.188900725630154e+000	 1.087958447159326e-001
 1.517860823854681e-001	 1.190361703542971e+000	 6.628083981263477e-002
 1.407596167478511e-001	 1.191715876522561e+000	 2.785841819899829e-002
 1.297564425951950e-001	 1.192964067213227e+000	-6.510621292736716e-003
 1.187779051973018e-001	 1.194107118011818e+000	-3.685555610668608e-002
 1.078253254775089e-001	 1.195145890352577e+000	-6.319590184696450e-002
 2.194929319717039e-001	 1.186112100680985e+000	 3.343333665771467e-001
 2.082982935772198e-001	 1.188129152686953e+000	 2.708134376783840e-001
 1.971184561601689e-001	 1.190035031759788e+000	 2.124909358532264e-001
 1.859549127196011e-001	 1.191830454809315e+000	 1.592780790702130e-001
 1.748091336434081e-001	 1.193516162173699e+000	 1.110968408328808e-001
 1.636825663404701e-001	 1.195092916910284e+000	 6.787893518753090e-002
 1.525766348960279e-001	 1.196561504082936e+000	 2.956577250411190e-002
 1.414927397501304e-001	 1.197922730046682e+000	-3.891612824163108e-003
 1.304322573989848e-001	 1.199177421730430e+000	-3.253266157984068e-002
 1.193965401190064e-001	 1.200326425918513e+000	-5.638741459339839e-002
 1.083869157133422e-001	 1.201370608531809e+000	-7.547666203860758e-002
 2.206302010458584e-001	 1.192257759234390e+000	 2.811587994526671e-001
 2.093775593439479e-001	 1.194285262286825e+000	 2.183496357120183e-001
 1.981397953084552e-001	 1.196201016380595e+000	 1.614775050061307e-001
 1.869184096741769e-001	 1.198005742140078e+000	 1.104571586252883e-001
 1.757148804475949e-001	 1.199700183739391e+000	 6.521253115165965e-002
 1.645306625371173e-001	 1.201285108189543e+000	 2.567673727910053e-002
 1.533671874066649e-001	 1.202761304622086e+000	-8.207960455885465e-003
 1.422258627524532e-001	 1.204129583570055e+000	-3.649021190769199e-002
 1.311080722027937e-001	 1.205390776246960e+000	-5.920966635006066e-002
 1.200151750407158e-001	 1.206545733824620e+000	-7.639708509203519e-002
 1.089485059491755e-001	 1.207595326710550e+000	-8.807447844407432e-002
 2.217674701205055e-001	 1.198403417786794e+000	 2.253600811976378e-001
 2.104568251110739e-001	 1.200441371885703e+000	 1.635673955451365e-001
 1.991611344570551e-001	 1.202367001000422e+000	 1.084350107742634e-001
 1.878819066289921e-001	 1.204181029469889e+000	 5.988017983595832e-002
 1.766206272519570e-001	 1.205884205304167e+000	 1.782877958621939e-002
 1.653787587338858e-001	 1.207477299467931e+000	-1.778468078121424e-002
 1.541577399173794e-001	 1.208961105160422e+000	-4.701708027290252e-002
 1.429589857548193e-001	 1.210336437092679e+000	-6.991673448666860e-002
 1.317838870066219e-001	 1.211604130762818e+000	-8.652347071066399e-002
 1.206338099624300e-001	 1.212765041730141e+000	-9.686872853049715e-002
 1.095100961850088e-001	 1.213820044888798e+000	-1.009756847255064e-001
 2.229047391956453e-001	 1.204549076338198e+000	 1.669785669091843e-001
 2.115360908785977e-001	 1.206597481483587e+000	 1.065045851644614e-001
 2.001824736059683e-001	 1.208532985619270e+000	 5.339798768846119e-002
 1.888454035840465e-001	 1.210356316798745e+000	 7.578497115902204e-003
 1.775263740564943e-001	 1.212068226868025e+000	-3.102608660781992e-002
 1.662268549307757e-001	 1.213669490745448e+000	-6.247986638673488e-002
 1.549482924281713e-001	 1.215160905697943e+000	-8.683885698969059e-002
 1.436921087572288e-001	 1.216543290614554e+000	-1.041510218284631e-001
 1.324597018104693e-001	 1.217817485278004e+000	-1.144563363619672e-001
 1.212524448841490e-001	 1.218984349635074e+000	-1.177868769436344e-001
 1.100716864208422e-001	 1.220044763066555e+000	-1.141669339063078e-001
 2.240420082712779e-001	 1.210694734888603e+000	 1.060546307846061e-001
 2.126153566465195e-001	 1.212753591080475e+000	 4.719817524437545e-002
 2.012038127551951e-001	 1.214698970237139e+000	-3.599847151590876e-003
 1.898089005393401e-001	 1.216531604126649e+000	-4.641727637381261e-002
 1.784321208612069e-001	 1.218252248430967e+000	-8.132440895314144e-002
 1.670749511277868e-001	 1.219861682022094e+000	-1.083839669295985e-001
 1.557388449390406e-001	 1.221360706234650e+000	-1.276510955588757e-001
 1.444252317596817e-001	 1.222750144135681e+000	-1.391733887023486e-001
 1.331355166143360e-001	 1.224030839792517e+000	-1.429909407695680e-001
 1.218710798058728e-001	 1.225203657539421e+000	-1.391364240553738e-001
 1.106332766566755e-001	 1.226269481243821e+000	-1.276351902666627e-001
 2.251792773474030e-001	 1.216840393438008e+000	 4.262769089346681e-002
 2.136946224148391e-001	 1.218909700676369e+000	-1.431573819446474e-002
 2.022251519047352e-001	 1.220864954854029e+000	-6.252557343453868e-002
 1.907723974948730e-001	 1.222706891453600e+000	-1.020772500068575e-001
 1.793378676660946e-001	 1.224436269992991e+000	-1.330391808602652e-001
 1.679230473249191e-001	 1.226053873297870e+000	-1.554727146471627e-001
 1.565293974499873e-001	 1.227560506770542e+000	-1.694321223345481e-001
 1.451583547621781e-001	 1.228956997656060e+000	-1.749646114224692e-001
 1.338113314182218e-001	 1.230244194306357e+000	-1.721103666666549e-001
 1.224897147276014e-001	 1.231422965443181e+000	-1.609026161445537e-001
 1.111948668925088e-001	 1.232494199420594e+000	-1.413677214816410e-001
 2.263165464240208e-001	 1.222986051986412e+000	-2.326376680062653e-002
 2.147738881835565e-001	 1.225065810271268e+000	-7.800191180797003e-002
 2.032464910545888e-001	 1.227030939469940e+000	-1.233470476175762e-001
 1.917358944506451e-001	 1.228882178779597e+000	-1.593722375373070e-001
 1.802436144711576e-001	 1.230620291554098e+000	-1.861440312497213e-001
 1.687711435221729e-001	 1.232246064572775e+000	-2.037224119306479e-001
 1.573199499610113e-001	 1.233760307305619e+000	-2.121607719707811e-001
 1.458914777647178e-001	 1.235163851175690e+000	-2.115059162509752e-001
 1.344871462221269e-001	 1.236457548819524e+000	-2.017980918701579e-001
 1.231083496493347e-001	 1.237642273346354e+000	-1.830710431874068e-001
 1.117564571283421e-001	 1.238718917596876e+000	-1.553520909999350e-001
 2.274538155011313e-001	 1.229131710533816e+000	-9.158216513699302e-002
 2.158531539526720e-001	 1.231221919865173e+000	-1.438259336124783e-001
 2.042678302047558e-001	 1.233196924084871e+000	-1.860328835086555e-001
 1.926993914066565e-001	 1.235057466104641e+000	-2.182737394912579e-001
 1.811493612763958e-001	 1.236804313114289e+000	-2.406132086645624e-001
 1.696192397195480e-001	 1.238438255846809e+000	-2.531099170672360e-001
 1.581105024721128e-001	 1.239960107839883e+000	-2.558163747151961e-001
 1.466246007673009e-001	 1.241370704694572e+000	-2.487789681494899e-001
 1.351629610260512e-001	 1.242670903332019e+000	-2.320379794040837e-001
 1.237269845710729e-001	 1.243861581248940e+000	-2.056276302639319e-001
 1.123180473641754e-001	 1.244943635772666e+000	-1.695761506489174e-001
 1.067021450058422e-001	 1.182696453992638e+000	-3.964186268964600e-002
 9.589062478734539e-002	 1.183622084157761e+000	-8.761814288449668e-002
 8.510733301571473e-002	 1.184446280710323e+000	-1.301543861521989e-001
 7.435350329629899e-002	 1.185169948388673e+000	-1.672375079516046e-001
 6.363034435944256e-002	 1.185794007949163e+000	-1.988469903459302e-001
 5.293903991744508e-002	 1.186319395466636e+000	-2.249551161830523e-001
 4.228074854185492e-002	 1.186747061638459e+000	-2.455272185351664e-001
 3.165660356072834e-002	 1.187077971092716e+000	-2.605219441364369e-001
 2.106771297547500e-002	 1.187313101701106e+000	-2.698915295785029e-001
 1.051515939689565e-002	 1.187453443897119e+000	-2.735820890283249e-001
 0.000000000000000e+000	 1.187500000000000e+000	-2.715339122483082e-001
 1.072637352416756e-001	 1.188921172172853e+000	-5.124619192872369e-002
 9.639531228533896e-002	 1.189851674075436e+000	-9.175915364718364e-002
 8.555526634663048e-002	 1.190680208504366e+000	-1.275881674463724e-001
 7.474483752355879e-002	 1.191407684959773e+000	-1.587174119900584e-001
 6.396524090820691e-002	 1.192035029044096e+000	-1.851229375618957e-001
 5.321766644293938e-002	 1.192563181758886e+000	-2.067729193763674e-001
 4.250327879704962e-002	 1.192993098805182e+000	-2.236279266387098e-001
 3.182321726347852e-002	 1.193325749888056e+000	-2.356412060476794e-001
 2.117859567522220e-002	 1.193562118025900e+000	-2.427589784468490e-001
 1.057050234103309e-002	 1.193703198865011e+000	-2.449207473448732e-001
 0.000000000000000e+000	 1.193750000000000e+000	-2.420596180327140e-001
 1.078253254775089e-001	 1.195145890352577e+000	-6.319590184696450e-002
 9.689999978333250e-002	 1.196081263992714e+000	-9.633013881474171e-002
 8.600319967754624e-002	 1.196914136298097e+000	-1.255362290997956e-001
 7.513617175081856e-002	 1.197645421530635e+000	-1.507956109030642e-001
 6.430013745697126e-002	 1.198276050138855e+000	-1.720808964104105e-001
 5.349629296843367e-002	 1.198806968051016e+000	-1.893561443155152e-001
 4.272580905224434e-002	 1.199239135971828e+000	-2.025771485813748e-001
 3.198983096622870e-002	 1.199573528683352e+000	-2.116917420928651e-001
 2.128947837496940e-002	 1.199811134350674e+000	-2.166401138510950e-001
 1.062584528517053e-002	 1.199952953832899e+000	-2.173551383859396e-001
 0.000000000000000e+000	 1.200000000000000e+000	-2.137627160641857e-001
 1.083869157133422e-001	 1.201370608531809e+000	-7.547666203860758e-002
 9.740468728132605e-002	 1.202310853909595e+000	-1.013152633076535e-001
 8.645113300846202e-002	 1.203148064091515e+000	-1.239813342901871e-001
 7.552750597807835e-002	 1.203883158101259e+000	-1.434535687014836e-001
 6.463503400573559e-002	 1.204517071233439e+000	-1.597011338921655e-001
 5.377491949392797e-002	 1.205050754343026e+000	-1.726839626630769e-001
 4.294833930743904e-002	 1.205485173138397e+000	-1.823530618139886e-001
 3.215644466897889e-002	 1.205821307478605e+000	-1.886508360302058e-001
 2.140036107471661e-002	 1.206060150675429e+000	-1.915114257107737e-001
 1.068118822930797e-002	 1.206202708800781e+000	-1.908610573645392e-001
 0.000000000000000e+000	 1.206250000000000e+000	-1.866184052044105e-001
 1.089485059491755e-001	 1.207595326710550e+000	-8.807447844407432e-002
 9.790937477931960e-002	 1.208540443826079e+000	-1.066990525573080e-001
 8.689906633937779e-002	 1.209381991884620e+000	-1.229066293707249e-001
 7.591884020533814e-002	 1.210120894671644e+000	-1.366731537415053e-001
 6.496993055449996e-002	 1.210758092327849e+000	-1.479643410354408e-001
 5.405354601942226e-002	 1.211294540634914e+000	-1.567359883128458e-001
 4.317086956263374e-002	 1.211731210304889e+000	-1.629343027496386e-001
 3.232305837172907e-002	 1.212069086273815e+000	-1.664962458485946e-001
 2.151124377446381e-002	 1.212309167000165e+000	-1.673498919923489e-001
 1.073653117344541e-002	 1.212452463768659e+000	-1.654147999152553e-001
 0.000000000000000e+000	 1.212500000000000e+000	-1.606023956787949e-001
 1.095100961850088e-001	 1.213820044888798e+000	-1.009756847255064e-001
 9.841406227731314e-002	 1.214770033742166e+000	-1.124663832627615e-001
 8.734699967029355e-002	 1.215615919677413e+000	-1.222956340444147e-001
 7.631017443259791e-002	 1.216358631241791e+000	-1.304366283570349e-001
 6.530482710326431e-002	 1.216999113422083e+000	-1.368516220241454e-001
 5.433217254491655e-002	 1.217538326926682e+000	-1.414922660484068e-001
 4.339339981782844e-002	 1.217977247471304e+000	-1.442999549936501e-001
 3.248967207447926e-002	 1.218316865068982e+000	-1.452061916076694e-001
 2.162212647421101e-002	 1.218558183324882e+000	-1.441329661955678e-001
 1.079187411758285e-002	 1.218702218736532e+000	-1.409931492611333e-001
 0.000000000000000e+000	 1.218750000000000e+000	-1.356908959642167e-001
 1.100716864208422e-001	 1.220044763066555e+000	-1.141669339063078e-001
 9.891874977530668e-002	 1.220999623657856e+000	-1.186024744289924e-001
 8.779493300120933e-002	 1.221849847469893e+000	-1.221322318410426e-001
 7.670150865985768e-002	 1.222596367811699e+000	-1.247266388088536e-001
 6.563972365202865e-002	 1.223240134516144e+000	-1.263444836574084e-001
 5.461079907041085e-002	 1.223782113218328e+000	-1.269332605535896e-001
 4.361593007302315e-002	 1.224223284637642e+000	-1.264295379373845e-001
 3.265628577722945e-002	 1.224564643864106e+000	-1.247593436505041e-001
 2.173300917395821e-002	 1.224807199649580e+000	-1.218385652211525e-001
 1.084721706172029e-002	 1.224951973704401e+000	-1.175733637772010e-001
 0.000000000000000e+000	 1.225000000000000e+000	-1.118606000791939e-001
 1.106332766566755e-001	 1.226269481243821e+000	-1.276351902666627e-001
 9.942343727330025e-002	 1.227229213573149e+000	-1.250928786798072e-001
 8.824286633212508e-002	 1.228083775262060e+000	-1.224006608827200e-001
 7.709284288711747e-002	 1.228834104381368e+000	-1.195262055407358e-001
 6.597462020079301e-002	 1.229481155610030e+000	-1.164248251315517e-001
 5.488942559590513e-002	 1.230025899509854e+000	-1.130398457532535e-001
 4.383846032821785e-002	 1.230469321803902e+000	-1.093029956968472e-001
 3.282289947997963e-002	 1.230812422659186e+000	-1.051348111742730e-001
 2.184389187370542e-002	 1.231056215974259e+000	-1.004450576109191e-001
 1.090256000585774e-002	 1.231201728672265e+000	-9.513316492933346e-002
 0.000000000000000e+000	 1.231250000000000e+000	-8.908867525986157e-002
 1.111948668925088e-001	 1.232494199420594e+000	-1.413677214816410e-001
 9.992812477129380e-002	 1.233458803488045e+000	-1.319234738334113e-001
 8.869079966304085e-002	 1.234317703053915e+000	-1.230855049284718e-001
 7.748417711437726e-002	 1.235071840950800e+000	-1.148187137300394e-001
 6.630951674955735e-002	 1.235722176703741e+000	-1.070749281301144e-001
 5.516805212139943e-002	 1.236269685801259e+000	-9.979329447906310e-002
 4.406099058341255e-002	 1.236715358970086e+000	-9.290068638722775e-002
 3.298951318272982e-002	 1.237060201454224e+000	-8.631213114897163e-002
 2.195477457345262e-002	 1.237305232298918e+000	-7.993125214226225e-002
 1.095790294999518e-002	 1.237451483640123e+000	-7.365072558123410e-002
 0.000000000000000e+000	 1.237500000000000e+000	-6.735275001053523e-002
 1.117564571283421e-001	 1.238718917596876e+000	-1.553520909999350e-001
 1.004328122692874e-001	 1.239688393402544e+000	-1.390804547294353e-001
 8.913873299395661e-002	 1.240551630845458e+000	-1.241716846921328e-001
 7.787551134163705e-002	 1.241309577519992e+000	-1.105879041235707e-001
 6.664441329832169e-002	 1.241963197797277e+000	-9.827744721534905e-002
 5.544667864689373e-002	 1.242513472092543e+000	-8.717526844799257e-002
 4.428352083860726e-002	 1.242961396136193e+000	-7.720337172125547e-002
 3.315612688548000e-002	 1.243307980249218e+000	-6.827125756866909e-002
 2.206565727319983e-002	 1.243554248623559e+000	-6.027638676575540e-002
 1.101324589413262e-002	 1.243701238607977e+000	-5.310465865128866e-002
 0.000000000000000e+000	 1.243750000000000e+000	-4.663090251372334e-002
 1.123180473641754e-001	 1.244943635772666e+000	-1.695761506489174e-001
 1.009374997672809e-001	 1.245917983316647e+000	-1.465503253068587e-001
 8.958666632487237e-002	 1.246785558636687e+000	-1.256444494158366e-001
 7.826684556889682e-002	 1.247547314088946e+000	-1.068178641489088e-001
 6.697930984708604e-002	 1.248204218890639e+000	-9.001540050415947e-002
 5.572530517238802e-002	 1.248757258383706e+000	-7.516780853869567e-002
 4.450605109380196e-002	 1.249207433302221e+000	-6.219220691915414e-002
 3.332274058823018e-002	 1.249555759044169e+000	-5.099255102760718e-002
 2.217653997294703e-002	 1.249803264948180e+000	-4.146011787757598e-002
 1.106858883827006e-002	 1.249950993575827e+000	-3.347400611295105e-002
 0.000000000000000e+000	 1.250000000000000e+000	-2.690164938820227e-002
 1.250000000000000e+000	 0.000000000000000e+000	 1.858118915411261e+001
 1.249950993575827e+000	 1.106858883827010e-002	 1.861979021710468e+001
 1.249803264948180e+000	 2.217653997294710e-002	 1.864787686309894e+001
 1.249555759044168e+000	 3.332274058823011e-002	 1.866532648515379e+001
 1.249207433302222e+000	 4.450605109380192e-002	 1.867201774295084e+001
 1.248757258383706e+000	 5.572530517238800e-002	 1.866783050981751e+001
 1.248204218890639e+000	 6.697930984708608e-002	 1.865264581634202e+001
 1.247547314088946e+000	 7.826684556889690e-002	 1.862634579081697e+001
 1.246785558636687e+000	 8.958666632487231e-002	 1.858881359677228e+001
 1.245917983316646e+000	 1.009374997672809e-001	 1.853993336788044e+001
 1.244943635772666e+000	 1.123180473641754e-001	 1.847959014053931e+001
 1.256250000000000e+000	 0.000000000000000e+000	 1.843097563032049e+001
 1.256200748543676e+000	 1.112393178240754e-002	 1.846901110885098e+001
 1.256052281272801e+000	 2.228742267269432e-002	 1.849476374178805e+001
 1.255803537839120e+000	 3.348935429098028e-002	 1.850796837141062e+001
 1.255453470468251e+000	 4.472858134899663e-002	 1.850836607920854e+001
 1.255001044674869e+000	 5.600393169788230e-002	 1.849570450968938e+001
 1.254445239984001e+000	 6.731420639585042e-002	 1.846973818989962e+001
 1.253785050657900e+000	 7.865817979615669e-002	 1.843022884397588e+001
 1.253019486427917e+000	 9.003459965578806e-002	 1.837694570203595e+001
 1.252147573230749e+000	 1.014421872652744e-001	 1.830966580271543e+001
 1.251168353948456e+000	 1.128796376000087e-001	 1.822817428865191e+001
 1.262500000000000e+000	 0.000000000000000e+000	 1.828576575021503e+001
 1.262450503511530e+000	 1.117927472654498e-002	 1.832419672262306e+001
 1.262301297597442e+000	 2.239830537244151e-002	 1.835058946355501e+001
 1.262051316634114e+000	 3.365596799373048e-002	 1.836468140010927e+001
 1.261699507634357e+000	 4.495111160419132e-002	 1.836621615565896e+001
 1.261244830966153e+000	 5.628255822337660e-002	 1.835494387020759e+001
 1.260686261077537e+000	 6.764910294461476e-002	 1.833062151633474e+001
 1.260022787227093e+000	 7.904951402341646e-002	 1.829301321004767e+001
 1.259253414219460e+000	 9.048253298670383e-002	 1.824189051584866e+001
 1.258377163145248e+000	 1.019468747632680e-001	 1.817703274532400e+001
 1.257393072124738e+000	 1.134412278358421e-001	 1.809822724855738e+001
 1.268750000000000e+000	 0.000000000000000e+000	 1.814547277800612e+001
 1.268700258479389e+000	 1.123461767068243e-002	 1.818430157983586e+001
 1.268550313922101e+000	 2.250918807218871e-002	 1.821133392405796e+001
 1.268299095429150e+000	 3.382258169648066e-002	 1.822630980726762e+001
 1.267945544800541e+000	 4.517364185938604e-002	 1.822897538151256e+001
 1.267488617257558e+000	 5.656118474887090e-002	 1.821908327124866e+001
 1.266927282171248e+000	 6.798399949337911e-002	 1.819639288576003e+001
 1.266260523796524e+000	 7.944084825067627e-002	 1.816067072635827e+001
 1.265487342011314e+000	 9.093046631761960e-002	 1.811169068767137e+001
 1.264606753060144e+000	 1.024515622612615e-001	 1.804923435232773e+001
 1.263617790301512e+000	 1.140028180716754e-001	 1.797309127833921e+001
 1.275000000000000e+000	 0.000000000000000e+000	 1.801001167860542e+001
 1.274950013447253e+000	 1.128996061481986e-002	 1.804924029431624e+001
 1.274799330246780e+000	 2.262007077193592e-002	 1.807691140812994e+001
 1.274546874224231e+000	 3.398919539923083e-002	 1.809276757125707e+001
 1.274191581966802e+000	 4.539617211458073e-002	 1.809655745165139e+001
 1.273732403549084e+000	 5.683981127436517e-002	 1.808803614761696e+001
 1.273168303265133e+000	 6.831889604214347e-002	 1.806696549675143e+001
 1.272498260366193e+000	 7.983218247793601e-002	 1.803311437954020e+001
 1.271721269803482e+000	 9.137839964853535e-002	 1.798625901691147e+001
 1.270836342975437e+000	 1.029562497592551e-001	 1.792618326105774e+001
 1.269842508478777e+000	 1.145644083075087e-001	 1.785267887882861e+001
 1.281250000000000e+000	 0.000000000000000e+000	 1.787929907614583e+001
 1.281199768415121e+000	 1.134530355895731e-002	 1.791892914010609e+001
 1.281048346571478e+000	 2.273095347168313e-002	 1.794723786121019e+001
 1.280794653019354e+000	 3.415580910198102e-002	 1.796397033083662e+001
 1.280437619133140e+000	 4.561870236977544e-002	 1.796887772051064e+001
 1.279976189840731e+000	 5.711843779985947e-002	 1.796171759221322e+001
 1.279409324359194e+000	 6.865379259090780e-002	 1.794225420389604e+001
 1.278735996936101e+000	 8.022351670519580e-002	 1.791025880951773e+001
 1.277955197595962e+000	 9.182633297945111e-002	 1.786550995290892e+001
 1.277065932891127e+000	 1.034609372572486e-001	 1.780779375477378e+001
 1.276067226656534e+000	 1.151259985433420e-001	 1.773690419213156e+001
 1.287500000000000e+000	 0.000000000000000e+000	 1.775325321370909e+001
 1.287449523382994e+000	 1.140064650309475e-002	 1.779328601116603e+001
 1.287297362896195e+000	 2.284183617143032e-002	 1.782223084903803e+001
 1.287042431814521e+000	 3.432242280473120e-002	 1.783983534485227e+001
 1.286683656299554e+000	 4.584123262497014e-002	 1.784585316179834e+001
 1.286219976132498e+000	 5.739706432535376e-002	 1.784004431578928e+001
 1.285650345453428e+000	 6.898868913967216e-002	 1.782217547759756e+001
 1.284973733506248e+000	 8.061485093245559e-002	 1.779202026937833e+001
 1.284189125388755e+000	 9.227426631036687e-002	 1.774935955488959e+001
 1.283295522807214e+000	 1.039656247552422e-001	 1.769398172271473e+001
 1.282291944834783e+000	 1.156875887791753e-001	 1.762568296179229e+001
 1.293750000000000e+000	 0.000000000000000e+000	 1.763179391422082e+001
 1.293699278350872e+000	 1.145598944723219e-002	 1.767223038224685e+001
 1.293546379220931e+000	 2.295271887117753e-002	 1.770180951851546e+001
 1.293290210609731e+000	 3.448903650748139e-002	 1.772028145310455e+001
 1.292929693466046e+000	 4.606376288016485e-002	 1.772740232938219e+001
 1.292463762424386e+000	 5.767569085084804e-002	 1.772293460786982e+001
 1.291891366547838e+000	 6.932358568843650e-002	 1.770664736504683e+001
 1.291211470076633e+000	 8.100618515971537e-002	 1.767831658640741e+001
 1.290423053181860e+000	 9.272219964128263e-002	 1.763772545307892e+001
 1.289525112723698e+000	 1.044703122532357e-001	 1.758466462130678e+001
 1.288516663013523e+000	 1.162491790150086e-001	 1.751893249411110e+001
 1.300000000000000e+000	 0.000000000000000e+000	 1.751484254247341e+001
 1.299949033318755e+000	 1.151133239136963e-002	 1.755568327088967e+001
 1.299795395545686e+000	 2.306360157092473e-002	 1.758589455969815e+001
 1.299537989404985e+000	 3.465565021023157e-002	 1.760522903834476e+001
 1.299175730632615e+000	 4.628629313535955e-002	 1.761344531930520e+001
 1.298707548716395e+000	 5.795431737634235e-002	 1.761030829880076e+001
 1.298132387642422e+000	 6.965848223720085e-002	 1.759558945231844e+001
 1.297449206647256e+000	 8.139751938697513e-002	 1.756906712424715e+001
 1.296656980975278e+000	 9.317013297219841e-002	 1.753052681093763e+001
 1.295754702640579e+000	 1.049749997512292e-001	 1.747976143649052e+001
 1.294741381192755e+000	 1.168107692508420e-001	 1.741657162057809e+001
 1.306250000000000e+000	 0.000000000000000e+000	 1.740232196823932e+001
 1.306198788286642e+000	 1.156667533550707e-002	 1.744356720051723e+001
 1.306044411870460e+000	 2.317448427067194e-002	 1.747440816887812e+001
 1.305785768200281e+000	 3.482226391298176e-002	 1.749459998936210e+001
 1.305421767799261e+000	 4.650882339055425e-002	 1.750390373289152e+001
 1.304951335008525e+000	 5.823294390183664e-002	 1.750208672288781e+001
 1.304373408737181e+000	 6.999337878596521e-002	 1.748892282755522e+001
 1.303686943218118e+000	 8.178885361423491e-002	 1.746419274614136e+001
 1.302890908769008e+000	 9.361806630311417e-002	 1.742768428848140e+001
 1.301984292557857e+000	 1.054796872492228e-001	 1.737919264712987e+001
 1.300966099372479e+000	 1.173723594866753e-001	 1.731852066138547e+001
 1.312500000000000e+000	 0.000000000000000e+000	 1.729415653043822e+001
 1.312448543254535e+000	 1.162201827964452e-002	 1.733580616457946e+001
 1.312293428195254e+000	 2.328536697041914e-002	 1.736727401272076e+001
 1.312033546995621e+000	 3.498887761573195e-002	 1.738831766512594e+001
 1.311667804965984e+000	 4.673135364574896e-002	 1.739870064090628e+001
 1.311195121300776e+000	 5.851157042733093e-002	 1.739819268258766e+001
 1.310614429832114e+000	 7.032827533472956e-002	 1.738657004520476e+001
 1.309924679789219e+000	 8.218018784149472e-002	 1.736361577923082e+001
 1.309124836563052e+000	 9.406599963402995e-002	 1.732912000664862e+001
 1.308213882475532e+000	 1.059843747472164e-001	 1.728288018946620e+001
 1.307190817552695e+000	 1.179339497225086e-001	 1.722470138998209e+001
 1.244943635772666e+000	 1.123180473641754e-001	 1.847959014053931e+001
 1.243861581248940e+000	 1.237269845710730e-001	 1.850450631865903e+001
 1.242670903332019e+000	 1.351629610260512e-001	 1.851623583297089e+001
 1.241370704694571e+000	 1.466246007673008e-001	 1.851474845447364e+001
 1.239960107839882e+000	 1.581105024721127e-001	 1.850001769549230e+001
 1.238438255846809e+000	 1.696192397195480e-001	 1.847202071782498e+001
 1.236804313114289e+000	 1.811493612763959e-001	 1.843073823654105e+001
 1.235057466104641e+000	 1.926993914066566e-001	 1.837615441980111e+001
 1.233196924084871e+000	 2.042678302047557e-001	 1.830825678509360e+001
 1.231221919865173e+000	 2.158531539526719e-001	 1.822703609230504e+001
 1.229131710533816e+000	 2.274538155011313e-001	 1.813248623406464e+001
 1.251168353948456e+000	 1.128796376000087e-001	 1.822817428865191e+001
 1.250080889151526e+000	 1.243456194928135e-001	 1.823119140511089e+001
 1.248884257844514e+000	 1.358387758299851e-001	 1.824465370587296e+001
 1.247577558213454e+000	 1.473577237699056e-001	 1.824742828686918e+001
 1.246159908374145e+000	 1.589010549832529e-001	 1.823759636180117e+001
 1.244630447120842e+000	 1.704673359169837e-001	 1.821511848055215e+001
 1.242988334674478e+000	 1.820551080817217e-001	 1.817995785769388e+001
 1.241232753429685e+000	 1.936628883627875e-001	 1.813208026800547e+001
 1.239362908699803e+000	 2.052891693550794e-001	 1.807145393942507e+001
 1.237378029459077e+000	 2.169324197219862e-001	 1.799804944388861e+001
 1.235277369081221e+000	 2.285910845784881e-001	 1.791183958653211e+001
 1.257393072124738e+000	 1.134412278358421e-001	 1.809822724855738e+001
 1.256300197054699e+000	 1.249642544145540e-001	 1.810587062107336e+001
 1.255097612357682e+000	 1.365145906339190e-001	 1.809829960869753e+001
 1.253784411733083e+000	 1.480908467725104e-001	 1.807537313453432e+001
 1.252359708909222e+000	 1.596916074943930e-001	 1.803696113606289e+001
 1.250822638395747e+000	 1.713154321144194e-001	 1.798294480166362e+001
 1.249172356235585e+000	 1.829608548870476e-001	 1.793348350034849e+001
 1.247408040755682e+000	 1.946263853189186e-001	 1.789180881491818e+001
 1.245528893315713e+000	 2.063105085054031e-001	 1.783794574006757e+001
 1.243534139053976e+000	 2.180116854913005e-001	 1.777184483938980e+001
 1.241423027629625e+000	 2.297283536558449e-001	 1.769345801415297e+001
 1.263617790301512e+000	 1.140028180716754e-001	 1.797309127833921e+001
 1.262519504958459e+000	 1.255828893362946e-001	 1.798492459746601e+001
 1.261310966871522e+000	 1.371904054378529e-001	 1.798211682144951e+001
 1.259991265253462e+000	 1.488239697751152e-001	 1.796451072077298e+001
 1.258559509445114e+000	 1.604821600055332e-001	 1.793195939193150e+001
 1.257014829671522e+000	 1.721635283118551e-001	 1.788432649408176e+001
 1.255356377797609e+000	 1.838666016923733e-001	 1.782148647251450e+001
 1.253583328082633e+000	 1.955898822750496e-001	 1.774332476826134e+001
 1.251694877932603e+000	 2.073318476557269e-001	 1.764973801316125e+001
 1.249690248649870e+000	 2.190909512606149e-001	 1.754838862691339e+001
 1.247568686179030e+000	 2.308656227332017e-001	 1.747731474504627e+001
 1.269842508478777e+000	 1.145644083075087e-001	 1.785267887882861e+001
 1.268738812862805e+000	 1.262015242580351e-001	 1.786827175134013e+001
 1.267524321386035e+000	 1.378662202417868e-001	 1.786978957892777e+001
 1.266198118774589e+000	 1.495570927777201e-001	 1.785705910743207e+001
 1.264759309981821e+000	 1.612727125166734e-001	 1.782991672708175e+001
 1.263207020948169e+000	 1.730116245092908e-001	 1.778820870927207e+001
 1.261540399360551e+000	 1.847723484976993e-001	 1.773179143088944e+001
 1.259758615410536e+000	 1.965533792311806e-001	 1.766053158551031e+001
 1.257860862550472e+000	 2.083531868060506e-001	 1.757430638081834e+001
 1.255846358246758e+000	 2.201702170299291e-001	 1.747300372160476e+001
 1.253714344729433e+000	 2.320028918105586e-001	 1.735652237773863e+001
 1.276067226656534e+000	 1.151259985433420e-001	 1.773690419213156e+001
 1.274958120767739e+000	 1.268201591797757e-001	 1.775583201811899e+001
 1.273737675901220e+000	 1.385420350457207e-001	 1.776124369963342e+001
 1.272404972296465e+000	 1.502902157803249e-001	 1.775295008451110e+001
 1.270959110519343e+000	 1.620632650278135e-001	 1.773077099002451e+001
 1.269399212225686e+000	 1.738597207067265e-001	 1.769453543979632e+001
 1.267724420924409e+000	 1.856780953030251e-001	 1.764408188897365e+001
 1.265933902739393e+000	 1.975168761873116e-001	 1.757925843700897e+001
 1.264026847169320e+000	 2.093745259563744e-001	 1.749992302740837e+001
 1.262002467844642e+000	 2.212494827992435e-001	 1.740594363382828e+001
 1.259860003280838e+000	 2.331401608879154e-001	 1.729719843192303e+001
 1.282291944834783e+000	 1.156875887791753e-001	 1.762568296179229e+001
 1.281177428673260e+000	 1.274387941015162e-001	 1.764752681474405e+001
 1.279951030417078e+000	 1.392178498496547e-001	 1.765640636178050e+001
 1.278611825819088e+000	 1.510233387829297e-001	 1.765211667806089e+001
 1.277158911057678e+000	 1.628538175389537e-001	 1.763446113983638e+001
 1.275591403504075e+000	 1.747078169041622e-001	 1.760325166150507e+001
 1.273908442489185e+000	 1.865838421083509e-001	 1.755830892163392e+001
 1.272109190069204e+000	 1.984803731434426e-001	 1.749946257731095e+001
 1.270192831789148e+000	 2.103958651066980e-001	 1.742655146620564e+001
 1.268158577443520e+000	 2.223287485685578e-001	 1.733942379573417e+001
 1.266005661833243e+000	 2.342774299652722e-001	 1.723793731874703e+001
 1.288516663013523e+000	 1.162491790150086e-001	 1.751893249411110e+001
 1.287396736579367e+000	 1.280574290232568e-001	 1.754327900388963e+001
 1.286164384933609e+000	 1.398936646535886e-001	 1.755520607045214e+001
 1.284818679342461e+000	 1.517564617855344e-001	 1.755449312032715e+001
 1.283358711596829e+000	 1.636443700500939e-001	 1.754092721933444e+001
 1.281783594783333e+000	 1.755559131015980e-001	 1.751430330978697e+001
 1.280092464054878e+000	 1.874895889136768e-001	 1.747442443735835e+001
 1.278284477399967e+000	 1.994438700995736e-001	 1.742110196699546e+001
 1.276358816409954e+000	 2.114172042570217e-001	 1.735415578727197e+001
 1.274314687043393e+000	 2.234080143378721e-001	 1.727341450259395e+001
 1.272151320386647e+000	 2.354146990426290e-001	 1.717871561269161e+001
 1.294741381192755e+000	 1.168107692508420e-001	 1.741657162057809e+001
 1.293616044486062e+000	 1.286760639449973e-001	 1.744301285920961e+001
 1.292377739450812e+000	 1.405694794575225e-001	 1.745757262570499e+001
 1.291025532866582e+000	 1.524895847881393e-001	 1.746001482075553e+001
 1.289558512136794e+000	 1.644349225612340e-001	 1.745011032902467e+001
 1.287975786063462e+000	 1.764040092990336e-001	 1.742763725650287e+001
 1.286276485621487e+000	 1.883953357190026e-001	 1.739238115821739e+001
 1.284459764731684e+000	 2.004073670557046e-001	 1.734413525569558e+001
 1.282524801031740e+000	 2.124385434073455e-001	 1.728270064359135e+001
 1.280470796644260e+000	 2.244872801071864e-001	 1.720788648490445e+001
 1.278296978941051e+000	 2.365519681199858e-001	 1.711951019423831e+001
 1.300966099372479e+000	 1.173723594866753e-001	 1.731852066138547e+001
 1.299835352393343e+000	 1.292946988667379e-001	 1.734665403158194e+001
 1.298591093968687e+000	 1.412452942614564e-001	 1.736343709158888e+001
 1.297232386391452e+000	 1.532227077907441e-001	 1.736861833782880e+001
 1.295758312677574e+000	 1.652254750723742e-001	 1.736195260179856e+001
 1.294167977344463e+000	 1.772521054964694e-001	 1.734320128758203e+001
 1.292460507189014e+000	 1.893010825243285e-001	 1.731213260040017e+001
 1.290635052064353e+000	 2.013708640118356e-001	 1.726852176561354e+001
 1.288690785654504e+000	 2.134598825576692e-001	 1.721215123760326e+001
 1.286626906246123e+000	 2.255665458765007e-001	 1.714281089797529e+001
 1.284442637496456e+000	 2.376892371973427e-001	 1.706029824254900e+001
 1.307190817552695e+000	 1.179339497225086e-001	 1.722470138998209e+001
 1.306054660301212e+000	 1.299133337884784e-001	 1.725412951631783e+001
 1.304804448487235e+000	 1.419211090653904e-001	 1.727273176605180e+001
 1.303439239917070e+000	 1.539558307933489e-001	 1.728024135170893e+001
 1.301958113219169e+000	 1.660160275835144e-001	 1.727639717835230e+001
 1.300360168626335e+000	 1.781002016939051e-001	 1.726094408125873e+001
 1.298644528757458e+000	 1.902068293296544e-001	 1.723363305530683e+001
 1.296810339397977e+000	 2.023343609679666e-001	 1.719422147550740e+001
 1.294856770278248e+000	 2.144812217079930e-001	 1.714247330812003e+001
 1.292783015848980e+000	 2.266458116458151e-001	 1.707815931181471e+001
 1.290588296052860e+000	 2.388265062746995e-001	 1.700105722835423e+001
 1.229131710533816e+000	 2.274538155011313e-001	 1.813248623406464e+001
 1.226925578187628e+000	 2.390682446755935e-001	 1.811613395936081e+001
 1.224602830657068e+000	 2.506948487053751e-001	 1.808717601828258e+001
 1.222162802225159e+000	 2.623320126770334e-001	 1.804567171099564e+001
 1.219604854339473e+000	 2.739781000133303e-001	 1.799168336732483e+001
 1.216928376316135e+000	 2.856314529759942e-001	 1.792527617468729e+001
 1.214132786035029e+000	 2.972903931928175e-001	 1.784651800468073e+001
 1.211217530625275e+000	 3.089532222090179e-001	 1.775547923894080e+001
 1.208182087140086e+000	 3.206182220627558e-001	 1.765223259489586e+001
 1.205025963220085e+000	 3.322836558846621e-001	 1.753685295206291e+001
 1.201748697744171e+000	 3.439477685211992e-001	 1.740941717953658e+001
 1.235277369081221e+000	 2.285910845784881e-001	 1.791183958653211e+001
 1.233060206073506e+000	 2.402635858991453e-001	 1.790541698331560e+001
 1.230725844805508e+000	 2.519483229493938e-001	 1.788659041440423e+001
 1.228273616231665e+000	 2.636436727412235e-001	 1.785539777928636e+001
 1.225702878606784e+000	 2.753479905145103e-001	 1.781187940278493e+001
 1.223013018193573e+000	 2.870596102422911e-001	 1.775607787061102e+001
 1.220203449961316e+000	 2.987768451604969e-001	 1.768803786454825e+001
 1.217273618274778e+000	 3.104979883220720e-001	 1.760780599789774e+001
 1.214222997572437e+000	 3.222213131753666e-001	 1.751543065182562e+001
 1.211051093033122e+000	 3.339450741666655e-001	 1.741096181326759e+001
 1.207757441230123e+000	 3.456675073666628e-001	 1.729445091505452e+001
 1.241423027629625e+000	 2.297283536558449e-001	 1.769345801415297e+001
 1.239194833960380e+000	 2.414589271226970e-001	 1.769652435142758e+001
 1.236848858954929e+000	 2.532017971934123e-001	 1.768738746207516e+001
 1.234384430239127e+000	 2.649553328054137e-001	 1.766606403112492e+001
 1.231800902875017e+000	 2.767178810156905e-001	 1.763257256627276e+001
 1.229097660071891e+000	 2.884877675085879e-001	 1.758693324089849e+001
 1.226274113888428e+000	 3.002632971281765e-001	 1.752916773768664e+001
 1.223329705925041e+000	 3.120427544351259e-001	 1.745929909349498e+001
 1.220263908005475e+000	 3.238244042879775e-001	 1.737735154612737e+001
 1.217076222846760e+000	 3.356064924486689e-001	 1.728335038367749e+001
 1.213766184716581e+000	 3.473872462121266e-001	 1.717732179711705e+001
 1.247568686179030e+000	 2.308656227332017e-001	 1.747731474504627e+001
 1.245329461848248e+000	 2.426542683462488e-001	 1.748943507883017e+001
 1.242971873105331e+000	 2.544552714374310e-001	 1.748955201213028e+001
 1.240495244247544e+000	 2.662669928696039e-001	 1.747766119975798e+001
 1.237898927144173e+000	 2.780877715168705e-001	 1.745375951811999e+001
 1.235182301951086e+000	 2.899159247748849e-001	 1.741784491554359e+001
 1.232344777816364e+000	 3.017497490958560e-001	 1.736991626417369e+001
 1.229385793576065e+000	 3.135875205481798e-001	 1.730997321410230e+001
 1.226304818439199e+000	 3.254274954005884e-001	 1.723801605040024e+001
 1.223101352660998e+000	 3.372679107306722e-001	 1.715404555373053e+001
 1.219774928203546e+000	 3.491069850575903e-001	 1.705806286522693e+001
 1.253714344729433e+000	 2.320028918105586e-001	 1.735652237773863e+001
 1.251464089737112e+000	 2.438496095698006e-001	 1.732113115740375e+001
 1.249094887256713e+000	 2.557087456814496e-001	 1.729306901046175e+001
 1.246606058256918e+000	 2.675786529337940e-001	 1.729017999122430e+001
 1.243996951414251e+000	 2.794576620180506e-001	 1.727543676855834e+001
 1.241266943831159e+000	 2.913440820411818e-001	 1.724881525096746e+001
 1.238415441745124e+000	 3.032362010635355e-001	 1.721029168650884e+001
 1.235441881227848e+000	 3.151322866612337e-001	 1.715984252602127e+001
 1.232345728873607e+000	 3.270305865131992e-001	 1.709744429025027e+001
 1.229126482475839e+000	 3.389293290126756e-001	 1.702307344156198e+001
 1.225783671691016e+000	 3.508267239030540e-001	 1.693670626094168e+001
 1.259860003280838e+000	 2.331401608879154e-001	 1.729719843192303e+001
 1.257598717626971e+000	 2.450449507933524e-001	 1.727133745980834e+001
 1.255217901409075e+000	 2.569622199254683e-001	 1.722986867854854e+001
 1.252716872267250e+000	 2.688903129979843e-001	 1.717277025539155e+001
 1.250094975685251e+000	 2.808275525192308e-001	 1.710003286919954e+001
 1.247351585712111e+000	 2.927722393074787e-001	 1.707984633669123e+001
 1.244486105674708e+000	 3.047226530312150e-001	 1.705030185931036e+001
 1.241497968880391e+000	 3.166770527742876e-001	 1.700892068621868e+001
 1.238386639308702e+000	 3.286336776258100e-001	 1.695565576007056e+001
 1.235151612291280e+000	 3.405907472946791e-001	 1.689045941184119e+001
 1.231792415178993e+000	 3.525464627485177e-001	 1.681328324977435e+001
 1.266005661833243e+000	 2.342774299652722e-001	 1.723793731874703e+001
 1.263733345517825e+000	 2.462402920169040e-001	 1.722119928164666e+001
 1.261340915562419e+000	 2.582156941694870e-001	 1.718895510179658e+001
 1.258827686278536e+000	 2.702019730621744e-001	 1.714116292321781e+001
 1.256192999957173e+000	 2.821974430204107e-001	 1.707779304740717e+001
 1.253436227593940e+000	 2.942003965737755e-001	 1.699882799427009e+001
 1.250556769605116e+000	 3.062091049988945e-001	 1.690426254318852e+001
 1.247554056533694e+000	 3.182218188873415e-001	 1.685722085468883e+001
 1.244427549744482e+000	 3.302367687384210e-001	 1.681266933836209e+001
 1.241176742107322e+000	 3.422521655766824e-001	 1.675622809405967e+001
 1.237801158667477e+000	 3.542662015939815e-001	 1.668782424245697e+001
 1.272151320386647e+000	 2.354146990426290e-001	 1.717871561269161e+001
 1.269867973409675e+000	 2.474356332404559e-001	 1.717069845025908e+001
 1.267463929716743e+000	 2.594691684135055e-001	 1.714727418035891e+001
 1.264938500290780e+000	 2.715136331263645e-001	 1.710838110436621e+001
 1.262291024230018e+000	 2.835673335215908e-001	 1.705396933145828e+001
 1.259520869476648e+000	 2.956285538400725e-001	 1.698400085004728e+001
 1.256627433536349e+000	 3.076955569665740e-001	 1.689844957988853e+001
 1.253610144187757e+000	 3.197665850003955e-001	 1.679730140447709e+001
 1.250468460180948e+000	 3.318398598510319e-001	 1.668055418338946e+001
 1.247201871923965e+000	 3.439135838586858e-001	 1.662040340028874e+001
 1.243809902156467e+000	 3.559859404394452e-001	 1.656035881558739e+001
 1.278296978941051e+000	 2.365519681199858e-001	 1.711951019423831e+001
 1.276002601302519e+000	 2.486309744640076e-001	 1.711981698940160e+001
 1.273586943872048e+000	 2.607226426575242e-001	 1.710481310963199e+001
 1.271049314303979e+000	 2.728252931905547e-001	 1.707441719248206e+001
 1.268389048503785e+000	 2.849372240227709e-001	 1.702855933806239e+001
 1.265605511360235e+000	 2.970567111063693e-001	 1.696718119086971e+001
 1.262698097468405e+000	 3.091820089342536e-001	 1.689023600282460e+001
 1.259666231842580e+000	 3.213113511134493e-001	 1.679768867712687e+001
 1.256509370618099e+000	 3.334429509636426e-001	 1.668951579258267e+001
 1.253227001741210e+000	 3.455750021406892e-001	 1.656570560810120e+001
 1.249818645645963e+000	 3.577056792849089e-001	 1.643091573168051e+001
 1.284442637496456e+000	 2.376892371973427e-001	 1.706029824254900e+001
 1.282137229196359e+000	 2.498263156875593e-001	 1.706853711454669e+001
 1.279709958028333e+000	 2.619761169015428e-001	 1.706155916912972e+001
 1.277160128318136e+000	 2.741369532547450e-001	 1.703926355713421e+001
 1.274487072778474e+000	 2.863071145239510e-001	 1.700156055110317e+001
 1.271690153244699e+000	 2.984848683726663e-001	 1.694837163740864e+001
 1.268768761401286e+000	 3.106684609019330e-001	 1.687962959010739e+001
 1.265722319498163e+000	 3.228561172265033e-001	 1.679527852613698e+001
 1.262550281055936e+000	 3.350460420762535e-001	 1.669527394150148e+001
 1.259252131559055e+000	 3.472364204226925e-001	 1.657958272814171e+001
 1.255827389135965e+000	 3.594254181303727e-001	 1.644818317123116e+001
 1.290588296052860e+000	 2.388265062746995e-001	 1.700105722835423e+001
 1.288271857091194e+000	 2.510216569111112e-001	 1.701684122831864e+001
 1.285832972185600e+000	 2.632295911455616e-001	 1.701749972048122e+001
 1.283270942333249e+000	 2.754486133189352e-001	 1.700291254438818e+001
 1.280585097054086e+000	 2.876770050251312e-001	 1.697297032480096e+001
 1.277774795130042e+000	 2.999130256389632e-001	 1.692757457401033e+001
 1.274839425334991e+000	 3.121549128696127e-001	 1.686663777640050e+001
 1.271778407154506e+000	 3.244008833395572e-001	 1.679008345486784e+001
 1.268591191494459e+000	 3.366491331888644e-001	 1.669784621873988e+001
 1.265277261377502e+000	 3.488978387046960e-001	 1.658987179288525e+001
 1.261836132626474e+000	 3.611451569758364e-001	 1.646611702775067e+001
 1.201748697744171e+000	 3.439477685211992e-001	 1.740941717953658e+001
 1.198349861467078e+000	 3.556087871812781e-001	 1.732997514607068e+001
 1.194829057642519e+000	 3.672649221068633e-001	 1.724230128705038e+001
 1.191185922631083e+000	 3.789143672667582e-001	 1.714622238970962e+001
 1.187420126492145e+000	 3.905553010724112e-001	 1.704155942310139e+001
 1.183531373558695e+000	 4.021858871163925e-001	 1.692812752582404e+001
 1.179519402994198e+000	 4.138042749328155e-001	 1.680573601049297e+001
 1.175383989330640e+000	 4.254086007792526e-001	 1.667418838560390e+001
 1.171124942986837e+000	 4.369969884396540e-001	 1.653328239540153e+001
 1.166742110766147e+000	 4.485675500477415e-001	 1.638281007833093e+001
 1.162235376332733e+000	 4.601183869303079e-001	 1.622255784460888e+001
 1.207757441230123e+000	 3.456675073666628e-001	 1.729445091505452e+001
 1.204341610771949e+000	 3.573868311202749e-001	 1.722148411280686e+001
 1.200803202928583e+000	 3.691012467206356e-001	 1.713934871539533e+001
 1.197141852242414e+000	 3.808089391063916e-001	 1.704792129821072e+001
 1.193357227123117e+000	 3.925080775810483e-001	 1.694707402105748e+001
 1.189449030425343e+000	 4.041968165551381e-001	 1.683667458460471e+001
 1.185417000008379e+000	 4.158732963104440e-001	 1.671658620140185e+001
 1.181260909276868e+000	 4.275356437858259e-001	 1.658666758212051e+001
 1.176980567701721e+000	 4.391819733841533e-001	 1.644677293765512e+001
 1.172575821320313e+000	 4.508103877998160e-001	 1.629675199768466e+001
 1.168046553215127e+000	 4.624189788662403e-001	 1.613645004626111e+001
 1.213766184716581e+000	 3.473872462121266e-001	 1.717732179711705e+001
 1.210333360077227e+000	 3.591648750592765e-001	 1.711182668294072e+001
 1.206777348214952e+000	 3.709375713344272e-001	 1.703623976638596e+001
 1.203097781853951e+000	 3.827035109460689e-001	 1.695048706436812e+001
 1.199294327754194e+000	 3.944608540897635e-001	 1.685449156733650e+001
 1.195366687291998e+000	 4.062077459940057e-001	 1.674817316454703e+001
 1.191314597022465e+000	 4.179423176882489e-001	 1.663144858173687e+001
 1.187137829222901e+000	 4.296626867926401e-001	 1.650423133187871e+001
 1.182836192416310e+000	 4.413669583289679e-001	 1.636643167966686e+001
 1.178409531874083e+000	 4.530532255522905e-001	 1.621795662036070e+001
 1.173857730097025e+000	 4.647195708026676e-001	 1.605870987358166e+001
 1.219774928203546e+000	 3.491069850575903e-001	 1.705806286522693e+001
 1.216325109382911e+000	 3.609429189982829e-001	 1.700102081876788e+001
 1.212751493501629e+000	 3.727738959482382e-001	 1.693297716510037e+001
 1.209053711465694e+000	 3.845980827857900e-001	 1.685390702149777e+001
 1.205231428385376e+000	 3.964136305985569e-001	 1.676378385456093e+001
 1.201284344158658e+000	 4.082186754329958e-001	 1.666257937440596e+001
 1.197212194036457e+000	 4.200113390662306e-001	 1.655026343911093e+001
 1.193014749168740e+000	 4.317897297996952e-001	 1.642680397011295e+001
 1.188691817130604e+000	 4.435519432740979e-001	 1.629216687922896e+001
 1.184243242427458e+000	 4.552960633051649e-001	 1.614631600795003e+001
 1.179668906978428e+000	 4.670201627395897e-001	 1.598921307963357e+001
 1.225783671691016e+000	 3.508267239030540e-001	 1.693670626094168e+001
 1.222316858689001e+000	 3.627209629372942e-001	 1.688908387548019e+001
 1.218725638788611e+000	 3.746102205620688e-001	 1.682956332377903e+001
 1.215009641077643e+000	 3.864926546255550e-001	 1.675816848766515e+001
 1.211168529016666e+000	 3.983664071074285e-001	 1.667492296090369e+001
 1.207202001025324e+000	 4.102296048721085e-001	 1.657984991239261e+001
 1.203109791050355e+000	 4.220803604443888e-001	 1.647297195749020e+001
 1.198891669114385e+000	 4.339167728069913e-001	 1.635431103818320e+001
 1.194547441844604e+000	 4.457369282195433e-001	 1.622388831278823e+001
 1.190076952980439e+000	 4.575389010584394e-001	 1.608172405586193e+001
 1.185480083859337e+000	 4.693207546770066e-001	 1.592783756897223e+001
 1.231792415178993e+000	 3.525464627485177e-001	 1.681328324977435e+001
 1.228308607995497e+000	 3.644990068763103e-001	 1.677603261597314e+001
 1.224699784075899e+000	 3.764465451759187e-001	 1.672600034945494e+001
 1.220965570689798e+000	 3.883872264653638e-001	 1.666325876605697e+001
 1.217105629648060e+000	 4.003191836163780e-001	 1.658788124312372e+001
 1.213119657891995e+000	 4.122405343113433e-001	 1.649994205179719e+001
 1.209007388064158e+000	 4.241493818227236e-001	 1.639951619533169e+001
 1.204768589059834e+000	 4.360438158145283e-001	 1.628667925415739e+001
 1.200403066558309e+000	 4.479219131653041e-001	 1.616150723840578e+001
 1.195910663533025e+000	 4.597817388121139e-001	 1.602407644859678e+001
 1.191291260739750e+000	 4.716213466149184e-001	 1.587446334516947e+001
 1.237801158667477e+000	 3.542662015939815e-001	 1.668782424245697e+001
 1.234300357302400e+000	 3.662770508153314e-001	 1.666188322522202e+001
 1.230673929363493e+000	 3.782828697897881e-001	 1.662229005136160e+001
 1.226921500302160e+000	 3.902817983052166e-001	 1.656916514534240e+001
 1.223042730279561e+000	 4.022719601254058e-001	 1.650263132980409e+001
 1.219037314758673e+000	 4.142514637507007e-001	 1.642281362703093e+001
 1.214904985077866e+000	 4.262184032012352e-001	 1.632983906435769e+001
 1.210645509005089e+000	 4.381708588223062e-001	 1.622383648425040e+001
 1.206258691271719e+000	 4.501068981113802e-001	 1.610493635979543e+001
 1.201744374085217e+000	 4.620245765661885e-001	 1.597327061632158e+001
 1.197102437619669e+000	 4.739219385533251e-001	 1.582897245986710e+001
 1.243809902156467e+000	 3.559859404394452e-001	 1.656035881558739e+001
 1.240292106609709e+000	 3.680550947543572e-001	 1.654665132424139e+001
 1.236648074651393e+000	 3.801191944036769e-001	 1.651843394812625e+001
 1.232877429914727e+000	 3.921763701451131e-001	 1.647587490002378e+001
 1.228979830911168e+000	 4.042247366345119e-001	 1.641914611478616e+001
 1.224954971625355e+000	 4.162623931901804e-001	 1.634842302007221e+001
 1.220802582091481e+000	 4.282874245799232e-001	 1.626388430894561e+001
 1.216522428950150e+000	 4.402979018303251e-001	 1.616571171509123e+001
 1.212114315984834e+000	 4.522918830577718e-001	 1.605408979140451e+001
 1.207578084637012e+000	 4.642674143206629e-001	 1.592920569270387e+001
 1.202913614499093e+000	 4.762225304922267e-001	 1.579124896330623e+001
 1.249818645645963e+000	 3.577056792849089e-001	 1.643091573168051e+001
 1.246283855917425e+000	 3.698331386933879e-001	 1.643035198364166e+001
 1.242622219939600e+000	 3.819555190175852e-001	 1.641443327475549e+001
 1.238833359527501e+000	 3.940709419850534e-001	 1.638337529077709e+001
 1.234916931542880e+000	 4.061775131436959e-001	 1.633739875079322e+001
 1.230872628492044e+000	 4.182733226297824e-001	 1.627672914730416e+001
 1.226700179105001e+000	 4.303564459587879e-001	 1.620159648611224e+001
 1.222399348895015e+000	 4.424249448385849e-001	 1.611223502678973e+001
 1.217969940697654e+000	 4.544768680044786e-001	 1.600888302450228e+001
 1.213411795188414e+000	 4.665102520755373e-001	 1.589178247396242e+001
 1.208724791378022e+000	 4.785231224316230e-001	 1.576117885628419e+001
 1.255827389135965e+000	 3.594254181303727e-001	 1.644818317123116e+001
 1.252275605225546e+000	 3.716111826324234e-001	 1.637113954492891e+001
 1.248596365228113e+000	 3.837918436315130e-001	 1.631028898942062e+001
 1.244789289140480e+000	 3.959655138250378e-001	 1.629165356478284e+001
 1.240854032174698e+000	 4.081302896529582e-001	 1.625736264323719e+001
 1.236790285358739e+000	 4.202842520695068e-001	 1.620769144672962e+001
 1.232597776118426e+000	 4.324254673378293e-001	 1.614292094607247e+001
 1.228276268839686e+000	 4.445519878470857e-001	 1.606333756677700e+001
 1.223825565410180e+000	 4.566618529515009e-001	 1.596923289424124e+001
 1.219245505739420e+000	 4.687530898308118e-001	 1.586090337909329e+001
 1.214535968256456e+000	 4.808237143715143e-001	 1.573865004349061e+001
 1.261836132626474e+000	 3.611451569758364e-001	 1.646611702775067e+001
 1.258267354534074e+000	 3.733892265714638e-001	 1.640439967535487e+001
 1.254570510516933e+000	 3.856281682454602e-001	 1.632207605803122e+001
 1.250745218753666e+000	 3.978600856650659e-001	 1.621962546524141e+001
 1.246791132806623e+000	 4.100830661622986e-001	 1.617901144420215e+001
 1.242707942225439e+000	 4.222951815093538e-001	 1.614126986555177e+001
 1.238495373131757e+000	 4.344944887170473e-001	 1.608780381335381e+001
 1.234153188784163e+000	 4.466790308558273e-001	 1.601895152439292e+001
 1.229681190122411e+000	 4.588468378988386e-001	 1.593505754766029e+001
 1.225079216290032e+000	 4.709959275864864e-001	 1.583647241123212e+001
 1.220347145134396e+000	 4.831243063119005e-001	 1.572355228817645e+001
 1.162235376332733e+000	 4.601183869303079e-001	 1.622255784460888e+001
 1.157604660665571e+000	 4.716475904699682e-001	 1.615460056190605e+001
 1.152849922489192e+000	 4.831532429863371e-001	 1.607944943821660e+001
 1.147971158680544e+000	 4.946334186350563e-001	 1.599723876439262e+001
 1.142968404651232e+000	 5.060861843243777e-001	 1.590809864812957e+001
 1.137841734704207e+000	 5.175096006481225e-001	 1.581215481628530e+001
 1.132591262364247e+000	 5.289017228343377e-001	 1.570952843231057e+001
 1.127217140681487e+000	 5.402606017088188e-001	 1.560033592950100e+001
 1.121719562507361e+000	 5.515842846726405e-001	 1.548468886073948e+001
 1.116098760742258e+000	 5.628708166927929e-001	 1.536269376535041e+001
 1.110355008554307e+000	 5.741182413049999e-001	 1.523445205364333e+001
 1.168046553215127e+000	 4.624189788662403e-001	 1.613645004626111e+001
 1.163392683969977e+000	 4.740058284230673e-001	 1.607337422662235e+001
 1.158614172102962e+000	 4.855690092016229e-001	 1.600311214271356e+001
 1.153711014475414e+000	 4.971065857283284e-001	 1.592574737267611e+001
 1.148683246675994e+000	 5.086166152459777e-001	 1.584135866681216e+001
 1.143530943379169e+000	 5.200971486513620e-001	 1.575001979494081e+001
 1.138254218677337e+000	 5.315462314486690e-001	 1.565179941046015e+001
 1.132853226385888e+000	 5.429619047178244e-001	 1.554676093177519e+001
 1.127328160320509e+000	 5.543422060969083e-001	 1.543496244170746e+001
 1.121679254546091e+000	 5.656851707777473e-001	 1.531645660545142e+001
 1.115906783596604e+000	 5.769888325137434e-001	 1.519129060759155e+001
 1.173857730097025e+000	 4.647195708026676e-001	 1.605870987358166e+001
 1.169180707273798e+000	 4.763640663767462e-001	 1.599971737788058e+001
 1.164378421716077e+000	 4.879847754175449e-001	 1.593354775272057e+001
 1.159450870269577e+000	 4.995797528222631e-001	 1.586023421264297e+001
 1.154398088700019e+000	 5.111470461682374e-001	 1.577980449997788e+001
 1.149220152053381e+000	 5.226846966552280e-001	 1.569228077693980e+001
 1.143917174989688e+000	 5.341907400635639e-001	 1.559767953602080e+001
 1.138489312089577e+000	 5.456632077273000e-001	 1.549601152929287e+001
 1.132936758132994e+000	 5.571001275215228e-001	 1.538728171718246e+001
 1.127259748349330e+000	 5.684995248628939e-001	 1.527148923722539e+001
 1.121458558638397e+000	 5.798594237224950e-001	 1.514862739325452e+001
 1.179668906978428e+000	 4.670201627395897e-001	 1.598921307963357e+001
 1.174968730577034e+000	 4.787223043310057e-001	 1.593351762581577e+001
 1.170142671328535e+000	 4.904005416341032e-001	 1.587065575379628e+001
 1.165190726063034e+000	 5.020529199168610e-001	 1.580061065824298e+001
 1.160112930723305e+000	 5.136774770911567e-001	 1.572335941748528e+001
 1.154909360726844e+000	 5.252722446597207e-001	 1.563887293005518e+001
 1.149580131301297e+000	 5.368352486790221e-001	 1.554711587111541e+001
 1.144125397792554e+000	 5.483645107372459e-001	 1.544804666933900e+001
 1.138545355944815e+000	 5.598580489464839e-001	 1.534161750475047e+001
 1.132840242151976e+000	 5.713138789482330e-001	 1.522777432798067e+001
 1.127010333679687e+000	 5.827300149312542e-001	 1.510645690132647e+001
 1.185480083859337e+000	 4.693207546770066e-001	 1.592783756897223e+001
 1.180756753879684e+000	 4.810805422858453e-001	 1.587466449777116e+001
 1.175906920940339e+000	 4.928163078512978e-001	 1.581433731437326e+001
 1.170930581855783e+000	 5.045260870121214e-001	 1.574678953202124e+001
 1.165827772745852e+000	 5.162079080147354e-001	 1.567194790367205e+001
 1.160598569399557e+000	 5.278597926648397e-001	 1.558973240269306e+001
 1.155243087612166e+000	 5.394797572950438e-001	 1.550005622503307e+001
 1.149761483494819e+000	 5.510658137476620e-001	 1.540282581338584e+001
 1.144153953755974e+000	 5.626159703717917e-001	 1.529794090380410e+001
 1.138420735954028e+000	 5.741282330337649e-001	 1.518529459515971e+001
 1.132562108720471e+000	 5.856006061400213e-001	 1.506477344178193e+001
 1.191291260739750e+000	 4.716213466149184e-001	 1.587446334516947e+001
 1.186544777181750e+000	 4.834387802412651e-001	 1.582304939153710e+001
 1.181671170551486e+000	 4.952320740691287e-001	 1.576449524471230e+001
 1.176670437647825e+000	 5.069992541080446e-001	 1.569868506978635e+001
 1.171542614767662e+000	 5.187383389389739e-001	 1.562549562773341e+001
 1.166287778071521e+000	 5.304473406705853e-001	 1.554479629997487e+001
 1.160906043922294e+000	 5.421242659116291e-001	 1.545644913600554e+001
 1.155397569196371e+000	 5.537671167585481e-001	 1.536030892455191e+001
 1.149762551566470e+000	 5.653738917974458e-001	 1.525622328866889e+001
 1.144001229755486e+000	 5.769425871194892e-001	 1.514403280511601e+001
 1.138113883760753e+000	 5.884711973487964e-001	 1.502357114828375e+001
 1.197102437619669e+000	 4.739219385533251e-001	 1.582897245986710e+001
 1.192332800483230e+000	 4.857970181972651e-001	 1.577856552995178e+001
 1.187435420161977e+000	 4.976478402875958e-001	 1.572103395705217e+001
 1.182410293439161e+000	 5.094724212046307e-001	 1.565621288630813e+001
 1.177257456788734e+000	 5.212687698638719e-001	 1.558392941496350e+001
 1.171976986742734e+000	 5.330348886769574e-001	 1.550400266051606e+001
 1.166569000231680e+000	 5.447687745287777e-001	 1.541624385351448e+001
 1.161033654897212e+000	 5.564684197699046e-001	 1.532045645542601e+001
 1.155371149376302e+000	 5.681318132234468e-001	 1.521643630193065e+001
 1.149581723556351e+000	 5.797569412054058e-001	 1.510397177192710e+001
 1.143665658800530e+000	 5.913417885575791e-001	 1.498284398246246e+001
 1.202913614499093e+000	 4.762225304922267e-001	 1.579124896330623e+001
 1.198120823784126e+000	 4.881552561538454e-001	 1.574110791681797e+001
 1.193199669771812e+000	 5.000636065066993e-001	 1.568385942691461e+001
 1.188150149229790e+000	 5.119455883018794e-001	 1.561928994200925e+001
 1.182972298809067e+000	 5.237992007894297e-001	 1.554717721883035e+001
 1.177666195413199e+000	 5.356224366839563e-001	 1.546729043387806e+001
 1.172231956540326e+000	 5.474132831464897e-001	 1.537939032111144e+001
 1.166669740597341e+000	 5.591697227817311e-001	 1.528322933624435e+001
 1.160979747185472e+000	 5.708897346497940e-001	 1.517855184795531e+001
 1.155162217356622e+000	 5.825712952915150e-001	 1.506509435624174e+001
 1.149217433839804e+000	 5.942123797663699e-001	 1.494258573807165e+001
 1.208724791378022e+000	 4.785231224316230e-001	 1.576117885628419e+001
 1.203908847084436e+000	 4.905134941110060e-001	 1.571057329409141e+001
 1.198963919380991e+000	 5.024793727264388e-001	 1.565287915552531e+001
 1.193890005019711e+000	 5.144187553997911e-001	 1.558783451061781e+001
 1.188687140828662e+000	 5.263296317156468e-001	 1.551516809385626e+001
 1.183355404082914e+000	 5.382099846915815e-001	 1.543459945867044e+001
 1.177894912848232e+000	 5.500577917647652e-001	 1.534583915973349e+001
 1.172305826296757e+000	 5.618710257940279e-001	 1.524858896340852e+001
 1.166588344993979e+000	 5.736476560764880e-001	 1.514254208659636e+001
 1.160742711156299e+000	 5.853856493778168e-001	 1.502738346416030e+001
 1.154769208878574e+000	 5.970829709751684e-001	 1.490279004502346e+001
 1.214535968256456e+000	 4.808237143715143e-001	 1.573865004349061e+001
 1.209696870384161e+000	 4.928717320687467e-001	 1.568686010029807e+001
 1.204728168989515e+000	 5.048951389468148e-001	 1.562800213331389e+001
 1.199629860808926e+000	 5.168919224983657e-001	 1.556176614774862e+001
 1.194401982847519e+000	 5.288600626425236e-001	 1.548783216927673e+001
 1.189044612751880e+000	 5.407975326998332e-001	 1.540587044128181e+001
 1.183557869155396e+000	 5.527023003836042e-001	 1.531554165149790e+001
 1.177941911995462e+000	 5.645723288067948e-001	 1.521649718833346e+001
 1.172196942801822e+000	 5.764055775035284e-001	 1.510837942708264e+001
 1.166323204955383e+000	 5.882000034643110e-001	 1.499082204614775e+001
 1.160320983916839e+000	 5.999535621839748e-001	 1.486345037330822e+001
 1.220347145134396e+000	 4.831243063119005e-001	 1.572355228817645e+001
 1.215484893683302e+000	 4.952299700270678e-001	 1.566986843013993e+001
 1.210492418597383e+000	 5.073109051678272e-001	 1.560913880445656e+001
 1.205369716597434e+000	 5.193650895976029e-001	 1.554100566038204e+001
 1.200116824865638e+000	 5.313904935700602e-001	 1.546510062345222e+001
 1.194733821420096e+000	 5.433850807087116e-001	 1.538104493521839e+001
 1.189220825461820e+000	 5.553468090030068e-001	 1.528844972395969e+001
 1.183577997693454e+000	 5.672736318200320e-001	 1.518691630661344e+001
 1.177805540609003e+000	 5.791634989309156e-001	 1.507603652208097e+001
 1.171903698753873e+000	 5.910143575509977e-001	 1.495539309597694e+001
 1.165872758954601e+000	 6.028241533927892e-001	 1.482456003680216e+001
 1.110355008554307e+000	 5.741182413049999e-001	 1.523445205364333e+001
 1.104488619568381e+000	 5.853246016274839e-001	 1.499431176629352e+001
 1.098499948025726e+000	 5.964879413854604e-001	 1.473264912291768e+001
 1.092389388913029e+000	 6.076063059449270e-001	 1.444876015911216e+001
 1.086157378059845e+000	 6.186777433540813e-001	 1.414194394243450e+001
 1.079804392204921e+000	 6.297003053920891e-001	 1.395431282222138e+001
 1.073330949030676e+000	 6.406720486238723e-001	 1.394229511193005e+001
 1.066737607165498e+000	 6.515910354597978e-001	 1.391733991244773e+001
 1.060024966153559e+000	 6.624553352191411e-001	 1.387934132277372e+001
 1.053193666391865e+000	 6.732630251961720e-001	 1.382819579580928e+001
 1.046244389034349e+000	 6.840121917276982e-001	 1.376380215123163e+001
 1.115906783596604e+000	 5.769888325137434e-001	 1.519129060759155e+001
 1.110011062665121e+000	 5.882512246385444e-001	 1.494284572795665e+001
 1.103992447764173e+000	 5.994703810958233e-001	 1.467357894658363e+001
 1.097851335855379e+000	 6.106443374784073e-001	 1.438281795760638e+001
 1.091588164947442e+000	 6.217711320747337e-001	 1.406989294936523e+001
 1.085203414162804e+000	 6.328488069228632e-001	 1.396739505333759e+001
 1.078697603772296e+000	 6.438754088705416e-001	 1.394714961164868e+001
 1.072071295197449e+000	 6.548489906401874e-001	 1.391499132483818e+001
 1.065325090980154e+000	 6.657676118976715e-001	 1.387085274645982e+001
 1.058459634719404e+000	 6.766293403237343e-001	 1.381466805825889e+001
 1.051475610974900e+000	 6.874322526868670e-001	 1.374637303653182e+001
 1.121458558638397e+000	 5.798594237224950e-001	 1.514862739325452e+001
 1.115533505761458e+000	 5.911778476494323e-001	 1.489245279449514e+001
 1.109484947502316e+000	 6.024528208058725e-001	 1.461615179251086e+001
 1.103313282797525e+000	 6.136823690114719e-001	 1.431908341240809e+001
 1.097018951834936e+000	 6.248645207949084e-001	 1.400060863517141e+001
 1.090602436120684e+000	 6.359973084531378e-001	 1.397961033375898e+001
 1.084064258514013e+000	 6.470787691167299e-001	 1.395160636146601e+001
 1.077404983229596e+000	 6.581069458201543e-001	 1.391270837424444e+001
 1.070625215807045e+000	 6.690798885758778e-001	 1.386288715237133e+001
 1.063725603047339e+000	 6.799956554511116e-001	 1.380211438030186e+001
 1.056706832915949e+000	 6.908523136460308e-001	 1.373036256670746e+001
 1.127010333679687e+000	 5.827300149312542e-001	 1.510645690132647e+001
 1.121055948857391e+000	 5.941044706601475e-001	 1.484311941908583e+001
 1.114977447240156e+000	 6.054352605156081e-001	 1.456034618593489e+001
 1.108775229739467e+000	 6.167204005441216e-001	 1.425752723438312e+001
 1.102449738722326e+000	 6.279579095146065e-001	 1.401632186316442e+001
 1.096001458078561e+000	 6.391458099829137e-001	 1.399091010805137e+001
 1.089430913255827e+000	 6.502821293624375e-001	 1.395560900844555e+001
 1.082738671261940e+000	 6.613649009996986e-001	 1.391042703439253e+001
 1.075925340634234e+000	 6.723921652537599e-001	 1.385537296920672e+001
 1.068991571375672e+000	 6.833619705783041e-001	 1.379045577800189e+001
 1.061938054857495e+000	 6.942723746051893e-001	 1.371568448159663e+001
 1.132562108720471e+000	 5.856006061400213e-001	 1.506477344178193e+001
 1.126578391952920e+000	 5.970310936706903e-001	 1.479483203306242e+001
 1.120469946977691e+000	 6.084177002250299e-001	 1.450614078727319e+001
 1.114237176681206e+000	 6.197584320763562e-001	 1.419812042467158e+001
 1.107880525609613e+000	 6.310512982338274e-001	 1.403447065795129e+001
 1.101400480036434e+000	 6.422943115121906e-001	 1.400124641511824e+001
 1.094797567997738e+000	 6.534854896076641e-001	 1.395910194279981e+001
 1.088072359294481e+000	 6.646228561788201e-001	 1.390808416871734e+001
 1.081225465461720e+000	 6.757044419313181e-001	 1.384823965960373e+001
 1.074257539704402e+000	 6.867282857053112e-001	 1.377961444318617e+001
 1.067169276799538e+000	 6.976924355643424e-001	 1.370225383614421e+001
 1.138113883760753e+000	 5.884711973487964e-001	 1.502357114828375e+001
 1.132100835048045e+000	 5.999577166810605e-001	 1.474757704644821e+001
 1.125962446714923e+000	 6.114001399341383e-001	 1.445351438882815e+001
 1.119699123622741e+000	 6.227964636081754e-001	 1.414083426760790e+001
 1.113311312496796e+000	 6.341446869525713e-001	 1.405115712204522e+001
 1.106799501994304e+000	 6.454428130409684e-001	 1.401057187370474e+001
 1.100164222739745e+000	 6.566888498524096e-001	 1.396203027976497e+001
 1.093406047327220e+000	 6.678808113575190e-001	 1.390561750866218e+001
 1.086525590289504e+000	 6.790167186085524e-001	 1.384141769492077e+001
 1.079523508033530e+000	 6.900946008321337e-001	 1.376951371476810e+001
 1.072400498742079e+000	 7.011124965234901e-001	 1.368998696832593e+001
 1.143665658800530e+000	 5.913417885575791e-001	 1.498284398246246e+001
 1.137623278142766e+000	 6.028843396912581e-001	 1.470134084847329e+001
 1.131454946451851e+000	 6.143825796429331e-001	 1.440244591158596e+001
 1.125161070564072e+000	 6.258344951395797e-001	 1.410672195850737e+001
 1.118742099383875e+000	 6.372380756708382e-001	 1.406634191541003e+001
 1.112198523952171e+000	 6.485913145692474e-001	 1.401883966832393e+001
 1.105530877481850e+000	 6.598922100966743e-001	 1.396433984200297e+001
 1.098739735360155e+000	 6.711387665357954e-001	 1.390296563261081e+001
 1.091825715117584e+000	 6.823289952854621e-001	 1.383483853075405e+001
 1.084789476363054e+000	 6.934609159587709e-001	 1.376007805090563e+001
 1.077631720685118e+000	 7.045325574826326e-001	 1.367880146800704e+001
 1.149217433839804e+000	 5.942123797663699e-001	 1.494258573807165e+001
 1.143145721237083e+000	 6.058109627012831e-001	 1.465610980807688e+001
 1.136947446188475e+000	 6.173650193514142e-001	 1.435291440210829e+001
 1.130623017505200e+000	 6.288725266705686e-001	 1.412776179803189e+001
 1.124172886270851e+000	 6.403314643886279e-001	 1.407998610985617e+001
 1.117597545910034e+000	 6.517398160970270e-001	 1.402600353559070e+001
 1.110897532224051e+000	 6.630955703404580e-001	 1.396597714251414e+001
 1.104073423393288e+000	 6.743967217136490e-001	 1.390006794542976e+001
 1.097125839945962e+000	 6.856412719620483e-001	 1.382843458316310e+001
 1.090055444692976e+000	 6.968272310852234e-001	 1.375123300196627e+001
 1.082862942628653e+000	 7.079526184417697e-001	 1.366861614670313e+001
 1.154769208878574e+000	 5.970829709751684e-001	 1.490279004502346e+001
 1.148668164330997e+000	 6.087375857111358e-001	 1.461187027439516e+001
 1.142439945924795e+000	 6.203474590595816e-001	 1.430489902951361e+001
 1.136084964446124e+000	 6.319105582011424e-001	 1.414678834907294e+001
 1.129603673157724e+000	 6.434248531059407e-001	 1.409205117914091e+001
 1.122996567867894e+000	 6.548883176243078e-001	 1.403201775095038e+001
 1.116264186966349e+000	 6.662989305837608e-001	 1.396688936804242e+001
 1.109407111426618e+000	 6.776546768910798e-001	 1.389686465860120e+001
 1.102425964774637e+000	 6.889535486383104e-001	 1.382213920558328e+001
 1.095321413023296e+000	 7.001935462114910e-001	 1.374290518427179e+001
 1.088094164572685e+000	 7.113726794009014e-001	 1.365935100821401e+001
 1.160320983916839e+000	 5.999535621839748e-001	 1.486345037330822e+001
 1.154190607424505e+000	 6.116642087208156e-001	 1.456860857723470e+001
 1.147932445660811e+000	 6.233298987674355e-001	 1.425837908254528e+001
 1.141546911386844e+000	 6.349485897313009e-001	 1.416377064630059e+001
 1.135034460044494e+000	 6.465182418227764e-001	 1.410249898935200e+001
 1.128395589825751e+000	 6.580368191510898e-001	 1.403683711578775e+001
 1.121630841708745e+000	 6.695022908265826e-001	 1.396702436295711e+001
 1.114740799460144e+000	 6.809126320680882e-001	 1.389329677092567e+001
 1.107726089603609e+000	 6.922658253142481e-001	 1.381588666640016e+001
 1.100587381354013e+000	 7.035598613375735e-001	 1.373502225459742e+001
 1.093325386517216e+000	 7.147927403600282e-001	 1.365092722009961e+001
 1.165872758954601e+000	 6.028241533927892e-001	 1.482456003680216e+001
 1.159713050517611e+000	 6.145908317303234e-001	 1.452631102753310e+001
 1.153424945396524e+000	 6.263123384749760e-001	 1.424229488031026e+001
 1.147008858327361e+000	 6.379866212610443e-001	 1.417867797513767e+001
 1.140465246931159e+000	 6.496116305391353e-001	 1.411129178956653e+001
 1.133794611783604e+000	 6.611853206773725e-001	 1.404041694490483e+001
 1.126997496451237e+000	 6.727056510689237e-001	 1.396633061359517e+001
 1.120074487493868e+000	 6.841705872446738e-001	 1.388930604977649e+001
 1.113026214432879e+000	 6.955781019898621e-001	 1.380961212716516e+001
 1.105853349685127e+000	 7.069261764634712e-001	 1.372751288539872e+001
 1.098556608462243e+000	 7.182128013191493e-001	 1.364326708597180e+001
 1.046244389034349e+000	 6.840121917276982e-001	 1.376380215123163e+001
 1.039177855863334e+000	 6.947009312611533e-001	 1.352717816058694e+001
 1.031994829126717e+000	 7.053273514212500e-001	 1.329794995354656e+001
 1.024696111341814e+000	 7.158895720745248e-001	 1.307665579222254e+001
 1.017282545066885e+000	 7.263857263910910e-001	 1.286382077667775e+001
 1.009755012638816e+000	 7.368139619016065e-001	 1.265995613858100e+001
 1.002114435877547e+000	 7.471724415485012e-001	 1.246555855615883e+001
 9.943617757573765e-001	 7.574593447302525e-001	 1.228110949191290e+001
 9.864980320453199e-001	 7.676728683374962e-001	 1.210707455452683e+001
 9.785242429067419e-001	 7.778112277797687e-001	 1.194390288632875e+001
 9.704414844785468e-001	 7.878726580016725e-001	 1.179202657761708e+001
 1.051475610974900e+000	 6.874322526868670e-001	 1.374637303653182e+001
 1.044373745137892e+000	 6.981744359168985e-001	 1.351506521816220e+001
 1.037154803267528e+000	 7.088539881768233e-001	 1.329128525500715e+001
 1.029819591893712e+000	 7.194690199325105e-001	 1.307555753338107e+001
 1.022368957787494e+000	 7.300176550199252e-001	 1.286839305789567e+001
 1.014803787697446e+000	 7.404980317073784e-001	 1.267028875737131e+001
 1.007125008052606e+000	 7.509083037520130e-001	 1.248172681249174e+001
 9.993335846321451e-001	 7.612466414492987e-001	 1.230317400665444e+001
 9.914305222019149e-001	 7.715112326743261e-001	 1.213508110142571e+001
 9.834168641181056e-001	 7.817002839136773e-001	 1.197788223794634e+001
 9.752936918983067e-001	 7.918120212866802e-001	 1.183199436558032e+001
 1.056706832915949e+000	 6.908523136460308e-001	 1.373036256670746e+001
 1.049569634413038e+000	 7.016479405728286e-001	 1.350406993724149e+001
 1.042314777408998e+000	 7.123806249327516e-001	 1.328544016243883e+001
 1.034943072446318e+000	 7.230484677910021e-001	 1.307498391146352e+001
 1.027455370508843e+000	 7.336495836493959e-001	 1.287319824993344e+001
 1.019852562756825e+000	 7.441821015138979e-001	 1.268056595792351e+001
 1.012135580228405e+000	 7.546441659563632e-001	 1.249755487016095e+001
 1.004305393507625e+000	 7.650339381692547e-001	 1.232461723985175e+001
 9.963630123591707e-001	 7.753495970121150e-001	 1.216218912752797e+001
 9.883094853300605e-001	 7.855893400485763e-001	 1.201068981624818e+001
 9.801458993185680e-001	 7.957513845726876e-001	 1.187052125441965e+001
 1.061938054857495e+000	 6.942723746051893e-001	 1.371568448159663e+001
 1.054765523688771e+000	 7.051214452289437e-001	 1.349410984082202e+001
 1.047474751551125e+000	 7.159072616890353e-001	 1.328033598048190e+001
 1.040066552999633e+000	 7.266279156499997e-001	 1.307486000947447e+001
 1.032541783230929e+000	 7.372815122795035e-001	 1.287816520910706e+001
 1.024901337816953e+000	 7.478661713211650e-001	 1.269072036302850e+001
 1.017146152404944e+000	 7.583800281615517e-001	 1.251297910980568e+001
 1.009277202383815e+000	 7.688212348901192e-001	 1.234537931956872e+001
 1.001295502517088e+000	 7.791879613508638e-001	 1.218834249609829e+001
 9.932021065426068e-001	 7.894783961844648e-001	 1.204227320567101e+001
 9.849981067393309e-001	 7.996907478596956e-001	 1.190755853391045e+001
 1.067169276799538e+000	 6.976924355643424e-001	 1.370225383614421e+001
 1.059961412965092e+000	 7.085949498852436e-001	 1.348510368969643e+001
 1.052634725693910e+000	 7.194338984456744e-001	 1.327589517449116e+001
 1.045190033553656e+000	 7.302073635095033e-001	 1.307511199431853e+001
 1.037628195953755e+000	 7.409134409102477e-001	 1.288322379912188e+001
 1.029950112877831e+000	 7.515502411291796e-001	 1.270068552669780e+001
 1.022156724582223e+000	 7.621158903675783e-001	 1.252793676749523e+001
 1.014249011260715e+000	 7.726085316118927e-001	 1.236540115392484e+001
 1.006227992675665e+000	 7.830263256905718e-001	 1.221348577553498e+001
 9.980947277557444e-001	 7.933674523213434e-001	 1.207258062135298e+001
 9.898503141605949e-001	 8.036301111477031e-001	 1.194305805062350e+001
 1.072400498742079e+000	 7.011124965234901e-001	 1.368998696832593e+001
 1.065157302242000e+000	 7.120684545417284e-001	 1.347697145226348e+001
 1.057794699837353e+000	 7.229605352026687e-001	 1.327204134222625e+001
 1.050313514108388e+000	 7.337868113695130e-001	 1.307566709036405e+001
 1.042714608677320e+000	 7.445453695416290e-001	 1.288830486650259e+001
 1.034998887939459e+000	 7.552343109379415e-001	 1.271039591145054e+001
 1.027167296760242e+000	 7.658517525744437e-001	 1.254236591386467e+001
 1.019220820138327e+000	 7.763958283345752e-001	 1.238462441206946e+001
 1.011160482834904e+000	 7.868646900312395e-001	 1.223756422217143e+001
 1.002987348969473e+000	 7.972565084592120e-001	 1.210156089375087e+001
 9.947025215823601e-001	 8.075694744367107e-001	 1.197697219434471e+001
 1.077631720685118e+000	 7.045325574826326e-001	 1.367880146800704e+001
 1.070353191519496e+000	 7.155419591983978e-001	 1.346963427521693e+001
 1.062954673981454e+000	 7.264871719600186e-001	 1.326869918636551e+001
 1.055436994663827e+000	 7.373662592300284e-001	 1.307645355377615e+001
 1.047801021401624e+000	 7.481772981736463e-001	 1.289334021673801e+001
 1.040047663001836e+000	 7.589183807474512e-001	 1.271978686626256e+001
 1.032177868939001e+000	 7.695876147821467e-001	 1.255620543385863e+001
 1.024192629016649e+000	 7.801831250581667e-001	 1.240299150570980e+001
 1.016092972994804e+000	 7.907030543728667e-001	 1.226052376357879e+001
 1.007879970183793e+000	 8.011455645980700e-001	 1.212916345370495e+001
 9.995547290046269e-001	 8.115088377267186e-001	 1.200925388489059e+001
 1.082862942628653e+000	 7.079526184417697e-001	 1.366861614670313e+001
 1.075549080797580e+000	 7.190154638552522e-001	 1.346301445508440e+001
 1.068114648126213e+000	 7.300138087177235e-001	 1.326579448781794e+001
 1.060560475219975e+000	 7.409457070910498e-001	 1.307740064759442e+001
 1.052887434126666e+000	 7.518092268063007e-001	 1.289826259111800e+001
 1.045096438064962e+000	 7.626024505577081e-001	 1.272879460515452e+001
 1.037188441118501e+000	 7.733234769906886e-001	 1.256939500706203e+001
 1.029164437895681e+000	 7.839704217826670e-001	 1.242044557117515e+001
 1.021025463155365e+000	 7.945414187154534e-001	 1.228231098235275e+001
 1.012772591398704e+000	 8.050346207379182e-001	 1.215533831793694e+001
 1.004406936427395e+000	 8.154482010177262e-001	 1.203985655930512e+001
 1.088094164572685e+000	 7.113726794009014e-001	 1.365935100821401e+001
 1.080744970076250e+000	 7.224889685122916e-001	 1.345703541058714e+001
 1.073274622271629e+000	 7.335404454757837e-001	 1.326325407980324e+001
 1.065683955776832e+000	 7.445251549525772e-001	 1.307843861752883e+001
 1.057973846852448e+000	 7.554411554395916e-001	 1.290300564423822e+001
 1.050145213128838e+000	 7.662865203687126e-001	 1.273735618639735e+001
 1.042199013298740e+000	 7.770593392000681e-001	 1.258187508859777e+001
 1.034136246775424e+000	 7.877577185080765e-001	 1.243693045199780e+001
 1.025957953316587e+000	 7.983797830589998e-001	 1.230287310036719e+001
 1.017665212614207e+000	 8.089236768787562e-001	 1.218003607496659e+001
 1.009259143850664e+000	 8.193875643097339e-001	 1.206873415942664e+001
 1.093325386517216e+000	 7.147927403600282e-001	 1.365092722009961e+001
 1.085940859355508e+000	 7.259624731695156e-001	 1.345162165579319e+001
 1.078434596417704e+000	 7.370670822341995e-001	 1.326100582267798e+001
 1.070807436334397e+000	 7.481046028146104e-001	 1.307949866845135e+001
 1.063060259578968e+000	 7.590730840735196e-001	 1.290750392215028e+001
 1.055193988193463e+000	 7.699705901804648e-001	 1.274540949231480e+001
 1.047209585479719e+000	 7.807952014102864e-001	 1.259358689057359e+001
 1.039108055655878e+000	 7.915450152343949e-001	 1.245239068199445e+001
 1.030890443478470e+000	 8.022181474035056e-001	 1.232215796348096e+001
 1.022557833830301e+000	 8.128127330205842e-001	 1.220320787143203e+001
 1.014111351274435e+000	 8.233269276027416e-001	 1.209584111981164e+001
 1.098556608462243e+000	 7.182128013191493e-001	 1.364326708597180e+001
 1.091136748635354e+000	 7.294359778269249e-001	 1.344669877403786e+001
 1.083594570564436e+000	 7.405937189929704e-001	 1.325897857947880e+001
 1.075930916892669e+000	 7.516840506771499e-001	 1.308051294155844e+001
 1.068146672306228e+000	 7.627050127080841e-001	 1.291169284113740e+001
 1.060242763258839e+000	 7.736546599929642e-001	 1.275289320966338e+001
 1.052220157661439e+000	 7.845310636213430e-001	 1.260447236405849e+001
 1.044079864537042e+000	 7.953323119616225e-001	 1.246677146883083e+001
 1.035822933641014e+000	 8.060565117489711e-001	 1.234011402668075e+001
 1.027450455046986e+000	 8.167017891634023e-001	 1.222480539880132e+001
 1.018963558698707e+000	 8.272662908967493e-001	 1.212113235600284e+001
 9.704414844785468e-001	 7.878726580016725e-001	 1.179202657761708e+001
 9.622508704096515e-001	 7.978554144872990e-001	 1.160366186787654e+001
 9.539535513709005e-001	 8.077577742517006e-001	 1.141723722987465e+001
 9.455507145337001e-001	 8.175780368182182e-001	 1.123285330383624e+001
 9.370435830166115e-001	 8.273145251805834e-001	 1.105060114952453e+001
 9.284334153022270e-001	 8.369655867486260e-001	 1.087056213058077e+001
 9.197215046242995e-001	 8.465295942764837e-001	 1.069280781981371e+001
 9.109091783257489e-001	 8.560049467722246e-001	 1.051739992567466e+001
 9.019977971882097e-001	 8.653900703878185e-001	 1.034439024009034e+001
 8.929887547338186e-001	 8.746834192884273e-001	 1.017382060776814e+001
 8.838834765000000e-001	 8.838834765000000e-001	 1.000572291702309e+001
 9.752936918983067e-001	 7.918120212866802e-001	 1.183199436558032e+001
 9.670621247595888e-001	 8.018446915548075e-001	 1.164532151374710e+001
 9.587233191260585e-001	 8.117965631181484e-001	 1.146067392554796e+001
 9.502784681049794e-001	 8.216659269976609e-001	 1.127814377750988e+001
 9.417288009305055e-001	 8.314510978020455e-001	 1.109781353577215e+001
 9.330755823776414e-001	 8.411504146781809e-001	 1.091975584911618e+001
 9.243201121463089e-001	 8.507622422439756e-001	 1.074403346323664e+001
 9.154637242161429e-001	 8.602849715025378e-001	 1.057069915647084e+001
 9.065077861726852e-001	 8.697170207365974e-001	 1.039979569714866e+001
 8.974536985056837e-001	 8.790568363821417e-001	 1.023135582265775e+001
 8.883028938802501e-001	 8.883028938802501e-001	 1.006540224026081e+001
 9.801458993185680e-001	 7.957513845726876e-001	 1.187052125441965e+001
 9.718733791099369e-001	 8.058339686233107e-001	 1.168539275222728e+001
 9.634930868815579e-001	 8.158353519855762e-001	 1.150237816220891e+001
 9.550062216765497e-001	 8.257538171780589e-001	 1.132156126964859e+001
 9.464140188446599e-001	 8.355876704244276e-001	 1.114301601637669e+001
 9.377177494533063e-001	 8.453352426086108e-001	 1.096680640242159e+001
 9.289187196685788e-001	 8.549948902122875e-001	 1.079298640919449e+001
 9.200182701068270e-001	 8.645649962336059e-001	 1.062159994441585e+001
 9.110177751575008e-001	 8.740439710860564e-001	 1.045268080892552e+001
 9.019186422779588e-001	 8.834302534764513e-001	 1.028625268546068e+001
 8.927223112609998e-001	 8.927223112609998e-001	 1.012232914941728e+001
 9.849981067393309e-001	 7.996907478596956e-001	 1.190755853391045e+001
 9.766846334606969e-001	 8.098232456928093e-001	 1.172382882649375e+001
 9.682628546373980e-001	 8.198741408539839e-001	 1.154230513088598e+001
 9.597339752484106e-001	 8.298417073594117e-001	 1.136306291263029e+001
 9.510992367590755e-001	 8.397242430477302e-001	 1.118616765760812e+001
 9.423599165292219e-001	 8.495200705399160e-001	 1.101167478224218e+001
 9.335173271911093e-001	 8.592275381814197e-001	 1.083962956553359e+001
 9.245728159978014e-001	 8.688450209654293e-001	 1.067006710312307e+001
 9.155277641426568e-001	 8.783709214361953e-001	 1.050301228351003e+001
 9.063835860506442e-001	 8.878036705713558e-001	 1.033847978649250e+001
 8.971417286422501e-001	 8.971417286422500e-001	 1.017647410383152e+001
 9.898503141605949e-001	 8.036301111477031e-001	 1.194305805062350e+001
 9.814958878118678e-001	 8.138125227633024e-001	 1.176058349718128e+001
 9.730326223935791e-001	 8.239129297233716e-001	 1.158041050105526e+001
 9.644617288205630e-001	 8.339295975417196e-001	 1.140260627861550e+001
 9.557844546737513e-001	 8.438608156719525e-001	 1.122722792721732e+001
 9.470020836053879e-001	 8.537048984720963e-001	 1.105432234388784e+001
 9.381159347138997e-001	 8.634601861513714e-001	 1.088392616614964e+001
 9.291273618890658e-001	 8.731250456980075e-001	 1.071606573516140e+001
 9.200377531281523e-001	 8.826978717870141e-001	 1.055075708129055e+001
 9.108485298237393e-001	 8.921770876668556e-001	 1.038800593216908e+001
 9.015611460240000e-001	 9.015611460240000e-001	 1.022780774321772e+001
 9.947025215823601e-001	 8.075694744367107e-001	 1.197697219434471e+001
 9.863071421634501e-001	 8.178017998347906e-001	 1.179561102976218e+001
 9.778023901501018e-001	 8.279517185937396e-001	 1.161665040897068e+001
 9.691894823930060e-001	 8.380174877249829e-001	 1.144014936882028e+001
 9.604696725886880e-001	 8.479973882970949e-001	 1.126615668464516e+001
 9.516442506818044e-001	 8.578897264051517e-001	 1.109471079736544e+001
 9.427145422369506e-001	 8.676928341221438e-001	 1.092583976303610e+001
 9.336819077806207e-001	 8.774050704313412e-001	 1.075956122500758e+001
 9.245477421139883e-001	 8.870248221385131e-001	 1.059588240880185e+001
 9.153134735972447e-001	 8.965505047629498e-001	 1.043480013973607e+001
 9.059805634062499e-001	 9.059805634062499e-001	 1.027630088326603e+001
 9.995547290046269e-001	 8.115088377267186e-001	 1.200925388489059e+001
 9.911183965154435e-001	 8.217910769072740e-001	 1.182886618229283e+001
 9.825721579069653e-001	 8.319905074650875e-001	 1.165098144633464e+001
 9.739172359657401e-001	 8.421053779092010e-001	 1.147565060310252e+001
 9.651548905038855e-001	 8.521339609231574e-001	 1.130291417151445e+001
 9.562864177584712e-001	 8.620745543390818e-001	 1.113280219877004e+001
 9.473131497602618e-001	 8.719254820937361e-001	 1.096533421856230e+001
 9.382364536724653e-001	 8.816850951654297e-001	 1.080051923220317e+001
 9.290577311001644e-001	 8.913517724906922e-001	 1.063835571275001e+001
 9.197784173711598e-001	 9.009239218596397e-001	 1.047883163215189e+001
 9.103999807890000e-001	 9.103999807890000e-001	 1.032192451137143e+001
 1.004406936427395e+000	 8.154482010177262e-001	 1.203985655930512e+001
 9.959296508678482e-001	 8.257803539807523e-001	 1.186030419351513e+001
 9.873419256641701e-001	 8.360292963374154e-001	 1.168336064929661e+001
 9.786449895387649e-001	 8.461932680943739e-001	 1.150906880985006e+001
 9.698401084193438e-001	 8.562705335501398e-001	 1.133746100239936e+001
 9.609285848353886e-001	 8.662593822738873e-001	 1.116855894192507e+001
 9.519117572838332e-001	 8.761581300661484e-001	 1.100237369797759e+001
 9.427909995646002e-001	 8.859651199002733e-001	 1.083890568471137e+001
 9.335677200866805e-001	 8.956787228435511e-001	 1.067814467421150e+001
 9.242433611454851e-001	 9.052973389569241e-001	 1.052006983311799e+001
 9.148193981722501e-001	 9.148193981722501e-001	 1.036464978248594e+001
 1.009259143850664e+000	 8.193875643097339e-001	 1.206873415942664e+001
 1.000740905220664e+000	 8.297696310552258e-001	 1.188988077130223e+001
 9.921116934217160e-001	 8.400680852107236e-001	 1.171374548776971e+001
 9.833727431120807e-001	 8.502811582805021e-001	 1.154036321615953e+001
 9.745253263350624e-001	 8.604071061780424e-001	 1.136975815585945e+001
 9.655707519125566e-001	 8.704442102095675e-001	 1.120194375026390e+001
 9.565103648076648e-001	 8.803907780393804e-001	 1.103692266212987e+001
 9.473455454570253e-001	 8.902451446358719e-001	 1.087468677246374e+001
 9.380777090735365e-001	 9.000056731970902e-001	 1.071521720299919e+001
 9.287083049202205e-001	 9.096707560548039e-001	 1.055848436225425e+001
 9.192388155560000e-001	 9.192388155560000e-001	 1.040444801509093e+001
 1.014111351274435e+000	 8.233269276027416e-001	 1.209584111981164e+001
 1.005552159573892e+000	 8.337589081306940e-001	 1.191755208143473e+001
 9.968814611796031e-001	 8.441068740850116e-001	 1.174209385505313e+001
 9.881004966856877e-001	 8.543690484675856e-001	 1.156949343829877e+001
 9.792105442510424e-001	 8.645436788068655e-001	 1.139976696573233e+001
 9.702129189899751e-001	 8.746290381461234e-001	 1.123291966894453e+001
 9.611089723317571e-001	 8.846234260134329e-001	 1.106894586039384e+001
 9.519000913497406e-001	 8.945251693722254e-001	 1.090782894109372e+001
 9.425876980607326e-001	 9.043326235513094e-001	 1.074954143219042e+001
 9.331732486953660e-001	 9.140441731532785e-001	 1.059404503041129e+001
 9.236582329402501e-001	 9.236582329402501e-001	 1.044129068728524e+001
 1.018963558698707e+000	 8.272662908967493e-001	 1.212113235600284e+001
 1.010363413927530e+000	 8.377481852071574e-001	 1.194327473669861e+001
 1.001651228937831e+000	 8.481456629602797e-001	 1.176836405775168e+001
 9.928282502595855e-001	 8.584569386556239e-001	 1.159641947244016e+001
 9.838957621672827e-001	 8.686802514366082e-001	 1.142744911267466e+001
 9.748550860676440e-001	 8.788138660835541e-001	 1.126145005718909e+001
 9.657075798561098e-001	 8.888560739883057e-001	 1.109840832380187e+001
 9.564546372427463e-001	 8.988051941093342e-001	 1.093829888584775e+001
 9.470976870482691e-001	 9.086595739062089e-001	 1.078108571281071e+001
 9.376381924709217e-001	 9.184175902523485e-001	 1.062672183511779e+001
 9.280776503250000e-001	 9.280776503250000e-001	 1.047514943298430e+001
 8.838834765000000e-001	 8.838834765000000e-001	 1.000572291702309e+001
 8.746834192884273e-001	 8.929887547338186e-001	 9.797300198078034e+000
 8.653900703878183e-001	 9.019977971882095e-001	 9.591746055111592e+000
 8.560049467722245e-001	 9.109091783257491e-001	 9.389028791272008e+000
 8.465295942764839e-001	 9.197215046242995e-001	 9.189107125720334e+000
 8.369655867486259e-001	 9.284334153022270e-001	 8.991930330004125e+000
 8.273145251805834e-001	 9.370435830166116e-001	 8.797438384477164e+000
 8.175780368182183e-001	 9.455507145336998e-001	 8.605562154327272e+000
 8.077577742517004e-001	 9.539535513709007e-001	 8.416223584717452e+000
 7.978554144872990e-001	 9.622508704096513e-001	 8.229335914493708e+000
 7.878726580016725e-001	 9.704414844785468e-001	 8.044803907860025e+000
 8.883028938802501e-001	 8.883028938802501e-001	 1.006540224026081e+001
 8.790568363821418e-001	 8.974536985056835e-001	 9.858595079906310e+000
 8.697170207365974e-001	 9.065077861726852e-001	 9.654760390868413e+000
 8.602849715025375e-001	 9.154637242161429e-001	 9.453863576204778e+000
 8.507622422439757e-001	 9.243201121463088e-001	 9.255860312443954e+000
 8.411504146781811e-001	 9.330755823776415e-001	 9.060696690160578e+000
 8.314510978020456e-001	 9.417288009305055e-001	 8.868309374877084e+000
 8.216659269976611e-001	 9.502784681049794e-001	 8.678625787842494e+000
 8.117965631181483e-001	 9.587233191260587e-001	 8.491564306185365e+000
 8.018446915548075e-001	 9.670621247595886e-001	 8.307034481878427e+000
 7.918120212866802e-001	 9.752936918983067e-001	 8.124937278908497e+000
 8.927223112609998e-001	 8.927223112609998e-001	 1.012232914941728e+001
 8.834302534764514e-001	 9.019186422779589e-001	 9.917129891499711e+000
 8.740439710860563e-001	 9.110177751575008e-001	 9.715009978094878e+000
 8.645649962336057e-001	 9.200182701068269e-001	 9.515931902058609e+000
 8.549948902122874e-001	 9.289187196685788e-001	 9.319848284305209e+000
 8.453352426086108e-001	 9.377177494533063e-001	 9.126702018612050e+000
 8.355876704244277e-001	 9.464140188446599e-001	 8.936426437033111e+000
 8.257538171780587e-001	 9.550062216765493e-001	 8.748945495465991e+000
 8.158353519855759e-001	 9.634930868815578e-001	 8.564173978853599e+000
 8.058339686233108e-001	 9.718733791099369e-001	 8.382017725451542e+000
 7.957513845726878e-001	 9.801458993185681e-001	 8.202373869541495e+000
 8.971417286422501e-001	 8.971417286422500e-001	 1.017647410383152e+001
 8.878036705713557e-001	 9.063835860506440e-001	 9.972875433539736e+000
 8.783709214361952e-001	 9.155277641426565e-001	 9.772465959301709e+000
 8.688450209654293e-001	 9.245728159978014e-001	 9.575205253435721e+000
 8.592275381814197e-001	 9.335173271911093e-001	 9.381042868033061e+000
 8.495200705399159e-001	 9.423599165292219e-001	 9.189918484016856e+000
 8.397242430477301e-001	 9.510992367590755e-001	 9.001762081099772e+000
 8.298417073594118e-001	 9.597339752484108e-001	 8.816494128172813e+000
 8.198741408539839e-001	 9.682628546373979e-001	 8.634025793597894e+000
 8.098232456928093e-001	 9.766846334606969e-001	 8.454259174823090e+000
 7.996907478596956e-001	 9.849981067393309e-001	 8.277087546684667e+000
 9.015611460240000e-001	 9.015611460240000e-001	 1.022780774321772e+001
 8.921770876668556e-001	 9.108485298237393e-001	 1.002580268152680e+001
 8.826978717870141e-001	 9.200377531281524e-001	 9.827099646463747e+000
 8.731250456980079e-001	 9.291273618890660e-001	 9.631655279253881e+000
 8.634601861513715e-001	 9.381159347138997e-001	 9.439416049730930e+000
 8.537048984720962e-001	 9.470020836053879e-001	 9.250318409676684e+000
 8.438608156719525e-001	 9.557844546737513e-001	 9.064288967354571e+000
 8.339295975417199e-001	 9.644617288205629e-001	 8.881244682755837e+000
 8.239129297233717e-001	 9.730326223935794e-001	 8.701093083023780e+000
 8.138125227633024e-001	 9.814958878118678e-001	 8.523732497460413e+000
 8.036301111477031e-001	 9.898503141605949e-001	 8.349052311468961e+000
 9.059805634062499e-001	 9.059805634062499e-001	 1.027630088326603e+001
 8.965505047629498e-001	 9.153134735972445e-001	 1.007588278151585e+001
 8.870248221385132e-001	 9.245477421139884e-001	 9.878882516887217e+000
 8.774050704313411e-001	 9.336819077806203e-001	 9.685253788739015e+000
 8.676928341221436e-001	 9.427145422369506e-001	 9.494939970989570e+000
 8.578897264051516e-001	 9.516442506818043e-001	 9.307874269764845e+000
 8.479973882970950e-001	 9.604696725886881e-001	 9.123979902537844e+000
 8.380174877249830e-001	 9.691894823930060e-001	 8.943170298270452e+000
 8.279517185937395e-001	 9.778023901501018e-001	 8.765349318008626e+000
 8.178017998347905e-001	 9.863071421634498e-001	 8.590411495325983e+000
 8.075694744367109e-001	 9.947025215823603e-001	 8.418242295956103e+000
 9.103999807890000e-001	 9.103999807890000e-001	 1.032192451137143e+001
 9.009239218596397e-001	 9.197784173711598e-001	 1.012308704597688e+001
 8.913517724906922e-001	 9.290577311001643e-001	 9.927786209196549e+000
 8.816850951654294e-001	 9.382364536724652e-001	 9.735972747533754e+000
 8.719254820937362e-001	 9.473131497602619e-001	 9.547586925113009e+000
 8.620745543390816e-001	 9.562864177584712e-001	 9.362558685663432e+000
 8.521339609231573e-001	 9.651548905038855e-001	 9.180807836296999e+000
 8.421053779092010e-001	 9.739172359657400e-001	 9.002244252581001e+000
 8.319905074650874e-001	 9.825721579069655e-001	 8.826768104346170e+000
 8.217910769072739e-001	 9.911183965154434e-001	 8.654270101612630e+000
 8.115088377267186e-001	 9.995547290046269e-001	 8.484631759961513e+000
 9.148193981722501e-001	 9.148193981722501e-001	 1.036464978248594e+001
 9.052973389569240e-001	 9.242433611454850e-001	 1.016738694977524e+001
 8.956787228435513e-001	 9.335677200866803e-001	 9.973782519438109e+000
 8.859651199002731e-001	 9.427909995646003e-001	 9.783784273919759e+000
 8.761581300661484e-001	 9.519117572838334e-001	 9.597329353454002e+000
 8.662593822738871e-001	 9.609285848353885e-001	 9.414344422408751e+000
 8.562705335501398e-001	 9.698401084193438e-001	 9.234745857735076e+000
 8.461932680943739e-001	 9.786449895387647e-001	 9.058439959007890e+000
 8.360292963374154e-001	 9.873419256641702e-001	 8.885323179487527e+000
 8.257803539807522e-001	 9.959296508678481e-001	 8.715282377573930e+000
 8.154482010177262e-001	 1.004406936427395e+000	 8.548195087968034e+000
 9.192388155560000e-001	 9.192388155560000e-001	 1.040444801509093e+001
 9.096707560548040e-001	 9.287083049202205e-001	 1.020875412626795e+001
 9.000056731970905e-001	 9.380777090735363e-001	 1.001684339729549e+001
 8.902451446358716e-001	 9.473455454570257e-001	 9.828660635148191e+000
 8.803907780393804e-001	 9.565103648076648e-001	 9.644139841855127e+000
 8.704442102095675e-001	 9.655707519125566e-001	 9.463204385237226e+000
 8.604071061780424e-001	 9.745253263350625e-001	 9.285767192058385e+000
 8.502811582805022e-001	 9.833727431120806e-001	 9.111730963071665e+000
 8.400680852107235e-001	 9.921116934217161e-001	 8.940988409376265e+000
 8.297696310552257e-001	 1.000740905220664e+000	 8.773422509445878e+000
 8.193875643097339e-001	 1.009259143850664e+000	 8.608906786129204e+000
 9.236582329402501e-001	 9.236582329402501e-001	 1.044129068728524e+001
 9.140441731532784e-001	 9.331732486953659e-001	 1.024716036351178e+001
 9.043326235513094e-001	 9.425876980607324e-001	 1.005694094241464e+001
 8.945251693722253e-001	 9.519000913497407e-001	 9.870574243875876e+000
 8.846234260134328e-001	 9.611089723317571e-001	 9.687991117192251e+000
 8.746290381461233e-001	 9.702129189899750e-001	 9.509111616231667e+000
 8.645436788068655e-001	 9.792105442510424e-001	 9.333845197320223e+000
 8.543690484675854e-001	 9.881004966856876e-001	 9.162090939330094e+000
 8.441068740850114e-001	 9.968814611796031e-001	 8.993737785374615e+000
 8.337589081306940e-001	 1.005552159573892e+000	 8.828664805456439e+000
 8.233269276027416e-001	 1.014111351274435e+000	 8.666741479358731e+000
 9.280776503250000e-001	 9.280776503250000e-001	 1.047514943298430e+001
 9.184175902523485e-001	 9.376381924709217e-001	 1.028257760058026e+001
 9.086595739062087e-001	 9.470976870482689e-001	 1.009404740083284e+001
 8.988051941093341e-001	 9.564546372427464e-001	 9.909497654703310e+000
 8.888560739883058e-001	 9.657075798561099e-001	 9.728856044016160e+000
 8.788138660835539e-001	 9.748550860676439e-001	 9.552039291062888e+000
 8.686802514366082e-001	 9.838957621672826e-001	 9.378953361258091e+000
 8.584569386556240e-001	 9.928282502595852e-001	 9.209493688306161e+000
 8.481456629602796e-001	 1.001651228937831e+000	 9.043545421277102e+000
 8.377481852071576e-001	 1.010363413927530e+000	 8.880983692921296e+000
 8.272662908967493e-001	 1.018963558698707e+000	 8.721673908502195e+000
 7.878726580016725e-001	 9.704414844785468e-001	 8.044803907860025e+000
 7.778112277797686e-001	 9.785242429067418e-001	 7.854759995893742e+000
 7.676728683374963e-001	 9.864980320453198e-001	 7.663665113707024e+000
 7.574593447302522e-001	 9.943617757573764e-001	 7.471456218157248e+000
 7.471724415485012e-001	 1.002114435877547e+000	 7.278065753625905e+000
 7.368139619016064e-001	 1.009755012638816e+000	 7.083421888429838e+000
 7.263857263910910e-001	 1.017282545066885e+000	 6.887448761310765e+000
 7.158895720745249e-001	 1.024696111341814e+000	 6.690066737264830e+000
 7.053273514212500e-001	 1.031994829126717e+000	 6.491192671951790e+000
 6.947009312611533e-001	 1.039177855863334e+000	 6.290740183906106e+000
 6.840121917276981e-001	 1.046244389034349e+000	 6.088619933752422e+000
 7.918120212866802e-001	 9.752936918983067e-001	 8.124937278908497e+000
 7.817002839136772e-001	 9.834168641181055e-001	 7.937768059629075e+000
 7.715112326743262e-001	 9.914305222019149e-001	 7.749260611862584e+000
 7.612466414492987e-001	 9.993335846321451e-001	 7.559327022164614e+000
 7.509083037520128e-001	 1.007125008052606e+000	 7.367875218805803e+000
 7.404980317073784e-001	 1.014803787697446e+000	 7.174809234365753e+000
 7.300176550199252e-001	 1.022368957787495e+000	 6.980029477836704e+000
 7.194690199325106e-001	 1.029819591893712e+000	 6.783433015456786e+000
 7.088539881768232e-001	 1.037154803267528e+000	 6.584913859472096e+000
 6.981744359168985e-001	 1.044373745137892e+000	 6.384363264009711e+000
 6.874322526868671e-001	 1.051475610974900e+000	 6.181670027222859e+000
 7.957513845726878e-001	 9.801458993185681e-001	 8.202373869541495e+000
 7.855893400485763e-001	 9.883094853300605e-001	 8.017761801798750e+000
 7.753495970121150e-001	 9.963630123591707e-001	 7.831530653035163e+000
 7.650339381692545e-001	 1.004305393507625e+000	 7.643567756329309e+000
 7.546441659563634e-001	 1.012135580228405e+000	 7.453756635362878e+000
 7.441821015138979e-001	 1.019852562756825e+000	 7.261977293138893e+000
 7.336495836493959e-001	 1.027455370508843e+000	 7.068106509652771e+000
 7.230484677910021e-001	 1.034943072446318e+000	 6.872018147689824e+000
 7.123806249327515e-001	 1.042314777408998e+000	 6.673583465908122e+000
 7.016479405728285e-001	 1.049569634413038e+000	 6.472671438347230e+000
 6.908523136460308e-001	 1.056706832915949e+000	 6.269149079486541e+000
 7.996907478596956e-001	 9.849981067393309e-001	 8.277087546684667e+000
 7.894783961844648e-001	 9.932021065426068e-001	 8.094720432916670e+000
 7.791879613508637e-001	 1.001295502517087e+000	 7.910459735397001e+000
 7.688212348901192e-001	 1.009277202383815e+000	 7.724168148021913e+000
 7.583800281615518e-001	 1.017146152404944e+000	 7.535704898912156e+000
 7.478661713211650e-001	 1.024901337816953e+000	 7.344926065206642e+000
 7.372815122795036e-001	 1.032541783230929e+000	 7.151684896253490e+000
 7.266279156500001e-001	 1.040066552999633e+000	 6.955832144334704e+000
 7.159072616890352e-001	 1.047474751551125e+000	 6.757216402038331e+000
 7.051214452289437e-001	 1.054765523688771e+000	 6.555684445381620e+000
 6.942723746051893e-001	 1.061938054857495e+000	 6.351081581766003e+000
 8.036301111477031e-001	 9.898503141605949e-001	 8.349052311468961e+000
 7.933674523213435e-001	 9.980947277557444e-001	 8.168623196073771e+000
 7.830263256905720e-001	 1.006227992675665e+000	 7.986032289352192e+000
 7.726085316118925e-001	 1.014249011260716e+000	 7.801117757823580e+000
 7.621158903675784e-001	 1.022156724582223e+000	 7.613714640630399e+000
 7.515502411291796e-001	 1.029950112877831e+000	 7.423655190354197e+000
 7.409134409102477e-001	 1.037628195953756e+000	 7.230769221685097e+000
 7.302073635095036e-001	 1.045190033553656e+000	 7.034884467035814e+000
 7.194338984456743e-001	 1.052634725693910e+000	 6.835826938177609e+000
 7.085949498852435e-001	 1.059961412965092e+000	 6.633421292953559e+000
 6.976924355643422e-001	 1.067169276799538e+000	 6.427491206119442e+000
 8.075694744367109e-001	 9.947025215823603e-001	 8.418242295956103e+000
 7.972565084592119e-001	 1.002987348969473e+000	 8.239449366144124e+000
 7.868646900312396e-001	 1.011160482834904e+000	 8.058232679188370e+000
 7.763958283345751e-001	 1.019220820138327e+000	 7.874405983594790e+000
 7.658517525744436e-001	 1.027167296760242e+000	 7.687780233706274e+000
 7.552343109379417e-001	 1.034998887939459e+000	 7.498163956492097e+000
 7.445453695416290e-001	 1.042714608677320e+000	 7.305363625653197e+000
 7.337868113695130e-001	 1.050313514108388e+000	 7.109184042095338e+000
 7.229605352026688e-001	 1.057794699837353e+000	 6.909428719797948e+000
 7.120684545417282e-001	 1.065157302242000e+000	 6.705900276101284e+000
 7.011124965234901e-001	 1.072400498742079e+000	 6.498400825419285e+000
 8.115088377267186e-001	 9.995547290046269e-001	 8.484631759961513e+000
 8.011455645980701e-001	 1.007879970183793e+000	 8.307178249013129e+000
 7.907030543728669e-001	 1.016092972994804e+000	 8.127045204681858e+000
 7.801831250581665e-001	 1.024192629016649e+000	 7.944022064424498e+000
 7.695876147821467e-001	 1.032177868939001e+000	 7.757895799602414e+000
 7.589183807474511e-001	 1.040047663001836e+000	 7.568451308195941e+000
 7.481772981736463e-001	 1.047801021401624e+000	 7.375471814309313e+000
 7.373662592300284e-001	 1.055436994663827e+000	 7.178739273467098e+000
 7.264871719600186e-001	 1.062954673981454e+000	 6.978034782694746e+000
 7.155419591983977e-001	 1.070353191519496e+000	 6.773138994360700e+000
 7.045325574826326e-001	 1.077631720685118e+000	 6.563832532751657e+000
 8.154482010177262e-001	 1.004406936427395e+000	 8.548195087968034e+000
 8.050346207379182e-001	 1.012772591398704e+000	 8.371789180828690e+000
 7.945414187154538e-001	 1.021025463155365e+000	 8.192454102655811e+000
 7.839704217826671e-001	 1.029164437895682e+000	 8.009955084465526e+000
 7.733234769906885e-001	 1.037188441118500e+000	 7.824055214134828e+000
 7.626024505577081e-001	 1.045096438064962e+000	 7.634515855000283e+000
 7.518092268063007e-001	 1.052887434126666e+000	 7.441097070721485e+000
 7.409457070910499e-001	 1.060560475219975e+000	 7.243558055373259e+000
 7.300138087177234e-001	 1.068114648126213e+000	 7.041657567713624e+000
 7.190154638552523e-001	 1.075549080797579e+000	 6.835154368566565e+000
 7.079526184417697e-001	 1.082862942628653e+000	 6.623807660250154e+000
 8.193875643097339e-001	 1.009259143850664e+000	 8.608906786129204e+000
 8.089236768787562e-001	 1.017665212614207e+000	 8.433261527273730e+000
 7.983797830589998e-001	 1.025957953316587e+000	 8.254443548494033e+000
 7.877577185080764e-001	 1.034136246775424e+000	 8.072193976658159e+000
 7.770593392000683e-001	 1.042199013298740e+000	 7.886252113378935e+000
 7.662865203687126e-001	 1.050145213128838e+000	 7.696355879452141e+000
 7.554411554395917e-001	 1.057973846852448e+000	 7.502242265045552e+000
 7.445251549525773e-001	 1.065683955776832e+000	 7.303647784557342e+000
 7.335404454757837e-001	 1.073274622271629e+000	 7.100308935051469e+000
 7.224889685122916e-001	 1.080744970076250e+000	 6.891962657165919e+000
 7.113726794009014e-001	 1.088094164572685e+000	 6.678346797389009e+000
 8.233269276027416e-001	 1.014111351274435e+000	 8.666741479358731e+000
 8.128127330205842e-001	 1.022557833830301e+000	 8.491574682859557e+000
 8.022181474035056e-001	 1.030890443478470e+000	 8.312997657610215e+000
 7.915450152343947e-001	 1.039108055655878e+000	 8.130727526348604e+000
 7.807952014102864e-001	 1.047209585479719e+000	 7.944479899404018e+000
 7.699705901804645e-001	 1.055193988193463e+000	 7.753969344933842e+000
 7.590730840735196e-001	 1.063060259578968e+000	 7.558909864403264e+000
 7.481046028146107e-001	 1.070807436334396e+000	 7.359015372186515e+000
 7.370670822341991e-001	 1.078434596417703e+000	 7.154000178147890e+000
 7.259624731695158e-001	 1.085940859355508e+000	 6.943579472066118e+000
 7.147927403600282e-001	 1.093325386517216e+000	 6.727469808749943e+000
 8.272662908967493e-001	 1.018963558698707e+000	 8.721673908502195e+000
 8.167017891634020e-001	 1.027450455046986e+000	 8.546708070239300e+000
 8.060565117489712e-001	 1.035822933641014e+000	 8.368100486875743e+000
 7.953323119616222e-001	 1.044079864537042e+000	 8.185544374802758e+000
 7.845310636213428e-001	 1.052220157661439e+000	 7.998731745845836e+000
 7.736546599929643e-001	 1.060242763258839e+000	 7.807353903261467e+000
 7.627050127080841e-001	 1.068146672306228e+000	 7.611101942478034e+000
 7.516840506771499e-001	 1.075930916892669e+000	 7.409667255411818e+000
 7.405937189929703e-001	 1.083594570564436e+000	 7.202742037179798e+000
 7.294359778269249e-001	 1.091136748635354e+000	 6.990019794026783e+000
 7.182128013191493e-001	 1.098556608462243e+000	 6.771195851280807e+000
 6.840121917276981e-001	 1.046244389034349e+000	 6.088619933752422e+000
 6.732630251961720e-001	 1.053193666391865e+000	 5.916467398400543e+000
 6.624553352191411e-001	 1.060024966153559e+000	 5.750390208700464e+000
 6.515910354597976e-001	 1.066737607165498e+000	 5.590091627421350e+000
 6.406720486238721e-001	 1.073330949030676e+000	 5.435267138050731e+000
 6.297003053920891e-001	 1.079804392204921e+000	 5.285605007632187e+000
 6.186777433540812e-001	 1.086157378059845e+000	 5.096406943113760e+000
 6.076063059449272e-001	 1.092389388913029e+000	 4.876490619076908e+000
 5.964879413854602e-001	 1.098499948025727e+000	 4.657545861540869e+000
 5.853246016274839e-001	 1.104488619568381e+000	 4.438713098068808e+000
 5.741182413050000e-001	 1.110355008554307e+000	 4.219143369174599e+000
 6.874322526868671e-001	 1.051475610974900e+000	 6.181670027222859e+000
 6.766293403237343e-001	 1.058459634719404e+000	 6.006519612522682e+000
 6.657676118976718e-001	 1.065325090980154e+000	 5.837493171784474e+000
 6.548489906401873e-001	 1.072071295197449e+000	 5.674314791335477e+000
 6.438754088705417e-001	 1.078697603772296e+000	 5.516700495657088e+000
 6.328488069228631e-001	 1.085203414162804e+000	 5.364358793586995e+000
 6.217711320747336e-001	 1.091588164947442e+000	 5.194624931111228e+000
 6.106443374784072e-001	 1.097851335855378e+000	 4.973205430162012e+000
 5.994703810958232e-001	 1.103992447764173e+000	 4.752838892599236e+000
 5.882512246385444e-001	 1.110011062665122e+000	 4.532673245730622e+000
 5.769888325137434e-001	 1.115906783596604e+000	 4.311866914156710e+000
 6.908523136460308e-001	 1.056706832915949e+000	 6.269149079486541e+000
 6.799956554511115e-001	 1.063725603047339e+000	 6.091445286401033e+000
 6.690798885758776e-001	 1.070625215807045e+000	 5.919915215531399e+000
 6.581069458201542e-001	 1.077404983229596e+000	 5.754303535862654e+000
 6.470787691167298e-001	 1.084064258514013e+000	 5.594346572208513e+000
 6.359973084531378e-001	 1.090602436120684e+000	 5.439772835017281e+000
 6.248645207949084e-001	 1.097018951834936e+000	 5.289378017939013e+000
 6.136823690114721e-001	 1.103313282797524e+000	 5.066975998310396e+000
 6.024528208058723e-001	 1.109484947502317e+000	 4.845707077394810e+000
 5.911778476494322e-001	 1.115533505761458e+000	 4.624726289542982e+000
 5.798594237224950e-001	 1.121458558638397e+000	 4.403199055225752e+000
 6.942723746051893e-001	 1.061938054857495e+000	 6.351081581766003e+000
 6.833619705783040e-001	 1.068991571375672e+000	 6.171263340039247e+000
 6.723921652537599e-001	 1.075925340634234e+000	 5.997669701339320e+000
 6.613649009996987e-001	 1.082738671261941e+000	 5.830065678857197e+000
 6.502821293624377e-001	 1.089430913255827e+000	 5.668207659497839e+000
 6.391458099829139e-001	 1.096001458078561e+000	 5.511843917531230e+000
 6.279579095146065e-001	 1.102449738722326e+000	 5.360715137228723e+000
 6.167204005441218e-001	 1.108775229739467e+000	 5.157763816519343e+000
 6.054352605156079e-001	 1.114977447240156e+000	 4.936107366470879e+000
 5.941044706601473e-001	 1.121055948857391e+000	 4.714824662254668e+000
 5.827300149312542e-001	 1.127010333679686e+000	 4.493087733210764e+000
 6.976924355643422e-001	 1.067169276799538e+000	 6.427491206119442e+000
 6.867282857053113e-001	 1.074257539704402e+000	 6.245991988307324e+000
 6.757044419313182e-001	 1.081225465461720e+000	 6.070769399395998e+000
 6.646228561788201e-001	 1.088072359294481e+000	 5.901608560720963e+000
 6.534854896076641e-001	 1.094797567997738e+000	 5.738285685408098e+000
 6.422943115121907e-001	 1.101400480036434e+000	 5.580568576100804e+000
 6.310512982338274e-001	 1.107880525609613e+000	 5.428217132256865e+000
 6.197584320763564e-001	 1.114237176681206e+000	 5.245530352681872e+000
 6.084177002250298e-001	 1.120469946977691e+000	 5.023996797423284e+000
 5.970310936706903e-001	 1.126578391952920e+000	 4.802920995348950e+000
 5.856006061400213e-001	 1.132562108720471e+000	 4.581481198834760e+000
 7.011124965234901e-001	 1.072400498742079e+000	 6.498400825419285e+000
 6.900946008321336e-001	 1.079523508033530e+000	 6.315648758141528e+000
 6.790167186085523e-001	 1.086525590289504e+000	 6.139226503097360e+000
 6.678808113575191e-001	 1.093406047327220e+000	 5.968939056048791e+000
 6.566888498524096e-001	 1.100164222739745e+000	 5.804582222787285e+000
 6.454428130409684e-001	 1.106799501994304e+000	 5.645943101173255e+000
 6.341446869525713e-001	 1.113311312496796e+000	 5.492800573324367e+000
 6.227964636081755e-001	 1.119699123622741e+000	 5.330237050198903e+000
 6.114001399341383e-001	 1.125962446714923e+000	 5.109332492776103e+000
 5.999577166810604e-001	 1.132100835048045e+000	 4.888968114196843e+000
 5.884711973487965e-001	 1.138113883760753e+000	 4.668328005156163e+000
 7.045325574826326e-001	 1.077631720685118e+000	 6.563832532751657e+000
 6.934609159587710e-001	 1.084789476363055e+000	 6.380250505240737e+000
 6.823289952854623e-001	 1.091825715117584e+000	 6.203052643047866e+000
 6.711387665357952e-001	 1.098739735360156e+000	 6.032063584933496e+000
 6.598922100966743e-001	 1.105530877481850e+000	 5.867098498066499e+000
 6.485913145692472e-001	 1.112198523952171e+000	 5.707963544607846e+000
 6.372380756708382e-001	 1.118742099383876e+000	 5.554456359020552e+000
 6.258344951395797e-001	 1.125161070564072e+000	 5.406366534865095e+000
 6.143825796429329e-001	 1.131454946451851e+000	 5.192071657921009e+000
 6.028843396912581e-001	 1.137623278142766e+000	 4.972919033350499e+000
 5.913417885575791e-001	 1.143665658800530e+000	 4.753577000229742e+000
 7.079526184417697e-001	 1.082862942628653e+000	 6.623807660250154e+000
 6.968272310852236e-001	 1.090055444692977e+000	 6.439813430280182e+000
 6.856412719620484e-001	 1.097125839945962e+000	 6.262258900654381e+000
 6.743967217136488e-001	 1.104073423393288e+000	 6.090988123945241e+000
 6.630955703404580e-001	 1.110897532224051e+000	 5.925835399627189e+000
 6.517398160970271e-001	 1.117597545910034e+000	 5.766625725437105e+000
 6.403314643886279e-001	 1.124172886270852e+000	 5.613175260034610e+000
 6.288725266705686e-001	 1.130623017505200e+000	 5.465291795737787e+000
 6.173650193514142e-001	 1.136947446188475e+000	 5.272171579115193e+000
 6.058109627012832e-001	 1.143145721237083e+000	 5.054726951973987e+000
 5.942123797663699e-001	 1.149217433839804e+000	 4.837177319982482e+000
 7.113726794009014e-001	 1.088094164572685e+000	 6.678346797389009e+000
 7.001935462114910e-001	 1.095321413023296e+000	 6.494353094657138e+000
 6.889535486383103e-001	 1.102425964774637e+000	 6.316855821328200e+000
 6.776546768910797e-001	 1.109407111426618e+000	 6.145718216792218e+000
 6.662989305837608e-001	 1.116264186966349e+000	 5.980793485927427e+000
 6.548883176243080e-001	 1.122996567867894e+000	 5.821925235465042e+000
 6.434248531059408e-001	 1.129603673157724e+000	 5.668947922230614e+000
 6.319105582011424e-001	 1.136084964446124e+000	 5.521687312041332e+000
 6.203474590595816e-001	 1.142439945924795e+000	 5.349589621538018e+000
 6.087375857111358e-001	 1.148668164330996e+000	 5.134345249405209e+000
 5.970829709751684e-001	 1.154769208878573e+000	 4.919078381292374e+000
 7.147927403600282e-001	 1.093325386517216e+000	 6.727469808749943e+000
 7.035598613375735e-001	 1.100587381354013e+000	 6.543884435784983e+000
 6.922658253142482e-001	 1.107726089603609e+000	 6.366853427307873e+000
 6.809126320680879e-001	 1.114740799460144e+000	 6.196258984677116e+000
 6.695022908265826e-001	 1.121630841708745e+000	 6.031972993394102e+000
 6.580368191510897e-001	 1.128395589825751e+000	 5.873857444702582e+000
 6.465182418227765e-001	 1.135034460044494e+000	 5.721764869632083e+000
 6.349485897313009e-001	 1.141546911386844e+000	 5.575538784287222e+000
 6.233298987674355e-001	 1.147932445660811e+000	 5.424283227402363e+000
 6.116642087208157e-001	 1.154190607424506e+000	 5.211727480846049e+000
 5.999535621839748e-001	 1.160320983916839e+000	 4.999229875268061e+000
 7.182128013191493e-001	 1.098556608462243e+000	 6.771195851280807e+000
 7.069261764634713e-001	 1.105853349685127e+000	 6.588421781949522e+000
 6.955781019898623e-001	 1.113026214432879e+000	 6.412261230115724e+000
 6.841705872446737e-001	 1.120074487493868e+000	 6.242615136356051e+000
 6.727056510689237e-001	 1.126997496451237e+000	 6.079373844091924e+000
 6.611853206773726e-001	 1.133794611783604e+000	 5.922417506648340e+000
 6.496116305391352e-001	 1.140465246931159e+000	 5.771616507325446e+000
 6.379866212610444e-001	 1.147008858327361e+000	 5.626831891299807e+000
 6.263123384749757e-001	 1.153424945396524e+000	 5.487915808143487e+000
 6.145908317303234e-001	 1.159713050517611e+000	 5.286827373174547e+000
 6.028241533927892e-001	 1.165872758954601e+000	 5.077581760718378e+000
 5.741182413050000e-001	 1.110355008554307e+000	 4.219143369174599e+000
 5.628708166927929e-001	 1.116098760742258e+000	 4.077543614722564e+000
 5.515842846726407e-001	 1.121719562507361e+000	 3.939461836536304e+000
 5.402606017088187e-001	 1.127217140681487e+000	 3.804499413553345e+000
 5.289017228343377e-001	 1.132591262364247e+000	 3.672263803241749e+000
 5.175096006481226e-001	 1.137841734704207e+000	 3.542369599303940e+000
 5.060861843243777e-001	 1.142968404651232e+000	 3.414439551428989e+000
 4.946334186350563e-001	 1.147971158680544e+000	 3.288105545055410e+000
 4.831532429863370e-001	 1.152849922489192e+000	 3.163009539287814e+000
 4.716475904699683e-001	 1.157604660665571e+000	 3.038804461253436e+000
 4.601183869303079e-001	 1.162235376332733e+000	 2.915155055369940e+000
 5.769888325137434e-001	 1.115906783596604e+000	 4.311866914156710e+000
 5.656851707777473e-001	 1.121679254546091e+000	 4.174732952565195e+000
 5.543422060969084e-001	 1.127328160320509e+000	 4.038811628991328e+000
 5.429619047178242e-001	 1.132853226385888e+000	 3.903634888910359e+000
 5.315462314486690e-001	 1.138254218677337e+000	 3.768743696573015e+000
 5.200971486513621e-001	 1.143530943379169e+000	 3.633689139609619e+000
 5.086166152459777e-001	 1.148683246675994e+000	 3.498033490997117e+000
 4.971065857283284e-001	 1.153711014475414e+000	 3.361351226343723e+000
 4.855690092016228e-001	 1.158614172102963e+000	 3.223229994626021e+000
 4.740058284230673e-001	 1.163392683969977e+000	 3.083271540670663e+000
 4.624189788662403e-001	 1.168046553215127e+000	 2.941092577870598e+000
 5.798594237224950e-001	 1.121458558638397e+000	 4.403199055225752e+000
 5.684995248628939e-001	 1.127259748349330e+000	 4.269555954378003e+000
 5.571001275215231e-001	 1.132936758132993e+000	 4.134843303096248e+000
 5.456632077272999e-001	 1.138489312089577e+000	 3.998523787171422e+000
 5.341907400635638e-001	 1.143917174989688e+000	 3.860072036887909e+000
 5.226846966552280e-001	 1.149220152053381e+000	 3.718975778660556e+000
 5.111470461682375e-001	 1.154398088700018e+000	 3.574736939362234e+000
 4.995797528222633e-001	 1.159450870269577e+000	 3.426872701288934e+000
 4.879847754175448e-001	 1.164378421716077e+000	 3.274916505882988e+000
 4.763640663767464e-001	 1.169180707273798e+000	 3.118419004523458e+000
 4.647195708026676e-001	 1.173857730097025e+000	 2.956948954875887e+000
 5.827300149312542e-001	 1.127010333679686e+000	 4.493087733210764e+000
 5.713138789482330e-001	 1.132840242151976e+000	 4.361978089340342e+000
 5.598580489464841e-001	 1.138545355944815e+000	 4.227539501077629e+000
 5.483645107372459e-001	 1.144125397792554e+000	 4.089165561393446e+000
 5.368352486790221e-001	 1.149580131301297e+000	 3.946264719229138e+000
 5.252722446597207e-001	 1.154909360726844e+000	 3.798261478300038e+000
 5.136774770911566e-001	 1.160112930723305e+000	 3.644597543935804e+000
 5.020529199168610e-001	 1.165190726063034e+000	 3.484732915882093e+000
 4.904005416341031e-001	 1.170142671328536e+000	 3.318146925185886e+000
 4.787223043310057e-001	 1.174968730577034e+000	 3.144339213471500e+000
 4.670201627395896e-001	 1.179668906978428e+000	 2.962830653117520e+000
 5.856006061400213e-001	 1.132562108720471e+000	 4.581481198834760e+000
 5.741282330337649e-001	 1.138420735954028e+000	 4.451964815872255e+000
 5.626159703717917e-001	 1.144153953755974e+000	 4.316882540648609e+000
 5.510658137476620e-001	 1.149761483494819e+000	 4.175559033377598e+000
 5.394797572950439e-001	 1.155243087612166e+000	 4.027336707756055e+000
 5.278597926648397e-001	 1.160598569399557e+000	 3.871576977076637e+000
 5.162079080147355e-001	 1.165827772745852e+000	 3.707661443731148e+000
 5.045260870121214e-001	 1.170930581855783e+000	 3.534993030015325e+000
 4.928163078512976e-001	 1.175906920940338e+000	 3.352997048345316e+000
 4.810805422858452e-001	 1.180756753879685e+000	 3.161122209204129e+000
 4.693207546770066e-001	 1.185480083859337e+000	 2.958841565339720e+000
 5.884711973487965e-001	 1.138113883760753e+000	 4.668328005156163e+000
 5.769425871194890e-001	 1.144001229755487e+000	 4.539481581896468e+000
 5.653738917974458e-001	 1.149762551566470e+000	 4.402854422925230e+000
 5.537671167585481e-001	 1.155397569196371e+000	 4.257702409065408e+000
 5.421242659116291e-001	 1.160906043922294e+000	 4.103302058448337e+000
 5.304473406705853e-001	 1.166287778071521e+000	 3.938951820078265e+000
 5.187383389389739e-001	 1.171542614767662e+000	 3.763973306155097e+000
 5.069992541080447e-001	 1.176670437647825e+000	 3.577712461045752e+000
 4.952320740691285e-001	 1.181671170551486e+000	 3.379540665009896e+000
 4.834387802412651e-001	 1.186544777181750e+000	 3.168855771001385e+000
 4.716213466149184e-001	 1.191291260739750e+000	 2.945083073079514e+000
 5.913417885575791e-001	 1.143665658800530e+000	 4.753577000229742e+000
 5.797569412054059e-001	 1.149581723556351e+000	 4.624493825093738e+000
 5.681318132234468e-001	 1.155371149376302e+000	 4.485436840109868e+000
 5.564684197699045e-001	 1.161033654897212e+000	 4.335593293486949e+000
 5.447687745287777e-001	 1.166569000231681e+000	 4.174173941149549e+000
 5.330348886769574e-001	 1.171976986742734e+000	 4.000414387901410e+000
 5.212687698638719e-001	 1.177257456788733e+000	 3.813576362725215e+000
 5.094724212046308e-001	 1.182410293439161e+000	 3.612948926089061e+000
 4.976478402875956e-001	 1.187435420161976e+000	 3.397849607359767e+000
 4.857970181972650e-001	 1.192332800483231e+000	 3.167625470645969e+000
 4.739219385533251e-001	 1.197102437619669e+000	 2.921654107618994e+000
 5.942123797663699e-001	 1.149217433839804e+000	 4.837177319982482e+000
 5.825712952915151e-001	 1.155162217356622e+000	 4.706966973150170e+000
 5.708897346497940e-001	 1.160979747185472e+000	 4.564611182952396e+000
 5.591697227817309e-001	 1.166669740597341e+000	 4.409228705274978e+000
 5.474132831464897e-001	 1.172231956540327e+000	 4.239964660971435e+000
 5.356224366839563e-001	 1.177666195413199e+000	 4.055991924778855e+000
 5.237992007894297e-001	 1.182972298809067e+000	 3.856512443754212e+000
 5.119455883018796e-001	 1.188150149229790e+000	 3.640758483089114e+000
 5.000636065066990e-001	 1.193199669771812e+000	 3.407993797388226e+000
 4.881552561538454e-001	 1.198120823784126e+000	 3.157514725744598e+000
 4.762225304922267e-001	 1.202913614499093e+000	 2.888651209168135e+000
 5.970829709751684e-001	 1.154769208878573e+000	 4.919078381292374e+000
 5.853856493778168e-001	 1.160742711156299e+000	 4.786866443997607e+000
 5.736476560764882e-001	 1.166588344993979e+000	 4.640358547998781e+000
 5.618710257940277e-001	 1.172305826296757e+000	 4.478605090762284e+000
 5.500577917647652e-001	 1.177894912848232e+000	 4.300685679080782e+000
 5.382099846915815e-001	 1.183355404082914e+000	 4.105710565894880e+000
 5.263296317156468e-001	 1.188687140828662e+000	 3.892822012032430e+000
 5.144187553997913e-001	 1.193890005019712e+000	 3.661195570700930e+000
 5.024793727264388e-001	 1.198963919380992e+000	 3.410041292819060e+000
 4.905134941110060e-001	 1.203908847084436e+000	 3.138604851512052e+000
 4.785231224316230e-001	 1.208724791378022e+000	 2.846168584345370e+000
 5.999535621839748e-001	 1.160320983916839e+000	 4.999229875268061e+000
 5.882000034643110e-001	 1.166323204955383e+000	 4.864157646045785e+000
 5.764055775035285e-001	 1.172196942801822e+000	 4.712659744627168e+000
 5.645723288067946e-001	 1.177941911995462e+000	 4.543718337672047e+000
 5.527023003836042e-001	 1.183557869155396e+000	 4.356347632889241e+000
 5.407975326998333e-001	 1.189044612751880e+000	 4.149595363919421e+000
 5.288600626425236e-001	 1.194401982847519e+000	 3.922544195542993e+000
 5.168919224983656e-001	 1.199629860808926e+000	 3.674313047030617e+000
 5.048951389468147e-001	 1.204728168989515e+000	 3.404058331707671e+000
 4.928717320687467e-001	 1.209696870384161e+000	 3.110975111065633e+000
 4.808237143715143e-001	 1.214535968256456e+000	 2.794298162002598e+000
 6.028241533927892e-001	 1.165872758954601e+000	 5.077581760718378e+000
 5.910143575509979e-001	 1.171903698753873e+000	 4.938805978411417e+000
 5.791634989309158e-001	 1.177805540609003e+000	 4.781495301886175e+000
 5.672736318200319e-001	 1.183577997693455e+000	 4.604563788418018e+000
 5.553468090030068e-001	 1.189220825461820e+000	 4.406960355666775e+000
 5.433850807087116e-001	 1.194733821420096e+000	 4.187670314780094e+000
 5.313904935700603e-001	 1.200116824865639e+000	 3.945716819244196e+000
 5.193650895976031e-001	 1.205369716597434e+000	 3.680162227266504e+000
 5.073109051678271e-001	 1.210492418597383e+000	 3.390109375765045e+000
 4.952299700270679e-001	 1.215484893683302e+000	 3.074702764287132e+000
 4.831243063119005e-001	 1.220347145134396e+000	 2.733129647459557e+000
 4.601183869303079e-001	 1.162235376332733e+000	 2.915155055369940e+000
 4.485675500477416e-001	 1.166742110766147e+000	 2.815067728231656e+000
 4.369969884396541e-001	 1.171124942986837e+000	 2.701125479792431e+000
 4.254086007792526e-001	 1.175383989330640e+000	 2.572779361870200e+000
 4.138042749328156e-001	 1.179519402994198e+000	 2.429510166874224e+000
 4.021858871163925e-001	 1.183531373558695e+000	 2.270829069464099e+000
 3.905553010724113e-001	 1.187420126492146e+000	 2.096278198002660e+000
 3.789143672667583e-001	 1.191185922631083e+000	 1.905431135766136e+000
 3.672649221068632e-001	 1.194829057642520e+000	 1.697893352056777e+000
 3.556087871812780e-001	 1.198349861467077e+000	 1.473302563554023e+000
 3.439477685211992e-001	 1.201748697744171e+000	 1.231329026421117e+000
 4.624189788662403e-001	 1.168046553215127e+000	 2.941092577870598e+000
 4.508103877998159e-001	 1.172575821320312e+000	 2.820411031408970e+000
 4.391819733841534e-001	 1.176980567701721e+000	 2.693689076366836e+000
 4.275356437858258e-001	 1.181260909276868e+000	 2.560428313089012e+000
 4.158732963104440e-001	 1.185417000008378e+000	 2.420152333025512e+000
 4.041968165551380e-001	 1.189449030425343e+000	 2.272407437109117e+000
 3.925080775810483e-001	 1.193357227123117e+000	 2.116763292081517e+000
 3.808089391063917e-001	 1.197141852242414e+000	 1.952813524431682e+000
 3.691012467206354e-001	 1.200803202928583e+000	 1.780176251796419e+000
 3.573868311202749e-001	 1.204341610771949e+000	 1.598494551846570e+000
 3.456675073666629e-001	 1.207757441230123e+000	 1.407436868863893e+000
 4.647195708026676e-001	 1.173857730097025e+000	 2.956948954875887e+000
 4.530532255522906e-001	 1.178409531874083e+000	 2.817750344176577e+000
 4.413669583289681e-001	 1.182836192416310e+000	 2.680238980374186e+000
 4.296626867926400e-001	 1.187137829222902e+000	 2.543966548528944e+000
 4.179423176882489e-001	 1.191314597022465e+000	 2.408499035275104e+000
 4.062077459940057e-001	 1.195366687291998e+000	 2.273417523597621e+000
 3.944608540897635e-001	 1.199294327754194e+000	 2.138318933638575e+000
 3.827035109460690e-001	 1.203097781853951e+000	 2.002816708911310e+000
 3.709375713344271e-001	 1.206777348214953e+000	 1.866541447469403e+000
 3.591648750592765e-001	 1.210333360077227e+000	 1.729141477748474e+000
 3.473872462121266e-001	 1.213766184716581e+000	 1.590283378971932e+000
 4.670201627395896e-001	 1.179668906978428e+000	 2.962830653117520e+000
 4.552960633051650e-001	 1.184243242427459e+000	 2.807164238999944e+000
 4.435519432740981e-001	 1.188691817130605e+000	 2.660827100754539e+000
 4.317897297996951e-001	 1.193014749168740e+000	 2.523420547778403e+000
 4.200113390662305e-001	 1.197212194036457e+000	 2.394552560697739e+000
 4.082186754329958e-001	 1.201284344158658e+000	 2.273838662226644e+000
 3.964136305985568e-001	 1.205231428385376e+000	 2.160902742075559e+000
 3.845980827857901e-001	 1.209053711465694e+000	 2.055377834994567e+000
 3.727738959482382e-001	 1.212751493501629e+000	 1.956906851200646e+000
 3.609429189982829e-001	 1.216325109382911e+000	 1.865143258609173e+000
 3.491069850575903e-001	 1.219774928203546e+000	 1.779751716438042e+000
 4.693207546770066e-001	 1.185480083859337e+000	 2.958841565339720e+000
 4.575389010584394e-001	 1.190076952980439e+000	 2.788729282599334e+000
 4.457369282195434e-001	 1.194547441844604e+000	 2.635503884516342e+000
 4.339167728069912e-001	 1.198891669114385e+000	 2.498815847792992e+000
 4.220803604443888e-001	 1.203109791050355e+000	 2.378314748444982e+000
 4.102296048721085e-001	 1.207202001025324e+000	 2.273650208437443e+000
 3.983664071074285e-001	 1.211168529016666e+000	 2.184472804321729e+000
 3.864926546255552e-001	 1.215009641077643e+000	 2.110434936670626e+000
 3.746102205620686e-001	 1.218725638788611e+000	 2.051191659269720e+000
 3.627209629372942e-001	 1.222316858689001e+000	 2.006401467173067e+000
 3.508267239030540e-001	 1.225783671691016e+000	 1.975727042892637e+000
 4.716213466149184e-001	 1.191291260739750e+000	 2.945083073079514e+000
 4.597817388121140e-001	 1.195910663533025e+000	 2.762520084870662e+000
 4.479219131653042e-001	 1.200403066558309e+000	 2.604318352393946e+000
 4.360438158145282e-001	 1.204768589059834e+000	 2.470177065885667e+000
 4.241493818227237e-001	 1.209007388064158e+000	 2.359787000670466e+000
 4.122405343113434e-001	 1.213119657891995e+000	 2.272831539274942e+000
 4.003191836163781e-001	 1.217105629648061e+000	 2.208987663429119e+000
 3.883872264653641e-001	 1.220965570689799e+000	 2.167926914466885e+000
 3.764465451759186e-001	 1.224699784075899e+000	 2.149316320789864e+000
 3.644990068763103e-001	 1.228308607995498e+000	 2.152819291202506e+000
 3.525464627485178e-001	 1.231792415178994e+000	 2.178096473077555e+000
 4.739219385533251e-001	 1.197102437619669e+000	 2.921654107618994e+000
 4.620245765661883e-001	 1.201744374085216e+000	 2.728609346381304e+000
 4.501068981113804e-001	 1.206258691271719e+000	 2.567318133465765e+000
 4.381708588223061e-001	 1.210645509005089e+000	 2.437527922048916e+000
 4.262184032012351e-001	 1.214904985077867e+000	 2.338970293136510e+000
 4.142514637507007e-001	 1.219037314758673e+000	 2.271362052863785e+000
 4.022719601254060e-001	 1.223042730279561e+000	 2.234406307503197e+000
 3.902817983052166e-001	 1.226921500302160e+000	 2.227793514414525e+000
 3.782828697897880e-001	 1.230673929363493e+000	 2.251202507299753e+000
 3.662770508153313e-001	 1.234300357302400e+000	 2.304301494279982e+000
 3.542662015939815e-001	 1.237801158667477e+000	 2.386749027440158e+000
 4.762225304922267e-001	 1.202913614499093e+000	 2.888651209168135e+000
 4.642674143206629e-001	 1.207578084637012e+000	 2.687067904489439e+000
 4.522918830577719e-001	 1.212114315984834e+000	 2.524549498769308e+000
 4.402979018303250e-001	 1.216522428950149e+000	 2.400891260628685e+000
 4.282874245799232e-001	 1.220802582091481e+000	 2.315865185514091e+000
 4.162623931901803e-001	 1.224954971625355e+000	 2.269221167898470e+000
 4.042247366345119e-001	 1.228979830911168e+000	 2.260688158952136e+000
 3.921763701451132e-001	 1.232877429914727e+000	 2.289975307626863e+000
 3.801191944036769e-001	 1.236648074651394e+000	 2.356773083236370e+000
 3.680550947543572e-001	 1.240292106609709e+000	 2.460754377743802e+000
 3.559859404394452e-001	 1.243809902156467e+000	 2.601575586101084e+000
 4.785231224316230e-001	 1.208724791378022e+000	 2.846168584345370e+000
 4.665102520755374e-001	 1.213411795188414e+000	 2.637964778131815e+000
 4.544768680044787e-001	 1.217969940697655e+000	 2.476057393945790e+000
 4.424249448385848e-001	 1.222399348895015e+000	 2.360289071373720e+000
 4.303564459587879e-001	 1.226700179105001e+000	 2.290471831383445e+000
 4.182733226297825e-001	 1.230872628492044e+000	 2.266388323150103e+000
 4.061775131436960e-001	 1.234916931542880e+000	 2.287793064046547e+000
 3.940709419850536e-001	 1.238833359527501e+000	 2.354413670465145e+000
 3.819555190175852e-001	 1.242622219939600e+000	 2.465952077259048e+000
 3.698331386933877e-001	 1.246283855917424e+000	 2.622085743722478e+000
 3.577056792849089e-001	 1.249818645645962e+000	 2.822468844151359e+000
 4.808237143715143e-001	 1.214535968256456e+000	 2.794298162002598e+000
 4.687530898308119e-001	 1.219245505739421e+000	 2.581367211327238e+000
 4.566618529515010e-001	 1.223825565410180e+000	 2.421885470948814e+000
 4.445519878470855e-001	 1.228276268839686e+000	 2.315742509880852e+000
 4.324254673378293e-001	 1.232597776118426e+000	 2.262789987951429e+000
 4.202842520695069e-001	 1.236790285358739e+000	 2.262842976985044e+000
 4.081302896529582e-001	 1.240854032174698e+000	 2.315681282780055e+000
 3.959655138250378e-001	 1.244789289140480e+000	 2.421050765274632e+000
 3.837918436315129e-001	 1.248596365228113e+000	 2.578664654398098e+000
 3.716111826324233e-001	 1.252275605225546e+000	 2.434086592647930e+000
 3.594254181303726e-001	 1.255827389135965e+000	 2.143752428146552e+000
 4.831243063119005e-001	 1.220347145134396e+000	 2.733129647459557e+000
 4.709959275864864e-001	 1.225079216290032e+000	 2.517340715436841e+000
 4.588468378988388e-001	 1.229681190122411e+000	 2.362076118846286e+000
 4.466790308558273e-001	 1.234153188784162e+000	 2.267271917455020e+000
 4.344944887170473e-001	 1.238495373131757e+000	 2.232819025487271e+000
 4.222951815093537e-001	 1.242707942225439e+000	 2.258564606898597e+000
 4.100830661622987e-001	 1.246791132806623e+000	 2.344313479017799e+000
 3.978600856650660e-001	 1.250745218753666e+000	 2.373669672632028e+000
 3.856281682454601e-001	 1.254570510516933e+000	 1.982704465950711e+000
 3.733892265714637e-001	 1.258267354534074e+000	 1.671996599152052e+000
 3.611451569758364e-001	 1.261836132626474e+000	 1.441878241757022e+000
 3.439477685211992e-001	 1.201748697744171e+000	 1.231329026421117e+000
 3.322836558846621e-001	 1.205025963220085e+000	 1.027053516932376e+000
 3.206182220627559e-001	 1.208182087140085e+000	 8.393222112035548e-001
 3.089532222090179e-001	 1.211217530625274e+000	 6.679274853332599e-001
 2.972903931928174e-001	 1.214132786035029e+000	 5.126623979361050e-001
 2.856314529759942e-001	 1.216928376316135e+000	 3.733212198780776e-001
 2.739781000133303e-001	 1.219604854339473e+000	 2.496999295961556e-001
 2.623320126770334e-001	 1.222162802225159e+000	 1.415966740280154e-001
 2.506948487053750e-001	 1.224602830657068e+000	 4.881219528726552e-002
 2.390682446755935e-001	 1.226925578187628e+000	-2.884977668158309e-002
 2.274538155011313e-001	 1.229131710533816e+000	-9.158216513699302e-002
 3.456675073666629e-001	 1.207757441230123e+000	 1.407436868863893e+000
 3.339450741666656e-001	 1.211051093033122e+000	 1.262040018931876e+000
 3.222213131753666e-001	 1.214222997572437e+000	 1.130788617978866e+000
 3.104979883220718e-001	 1.217273618274778e+000	 1.013451374653810e+000
 2.987768451604969e-001	 1.220203449961316e+000	 9.098002311271727e-001
 2.870596102422912e-001	 1.223013018193574e+000	 8.196108718292585e-001
 2.753479905145104e-001	 1.225702878606784e+000	 7.426631947974514e-001
 2.636436727412236e-001	 1.228273616231665e+000	 6.787417457598766e-001
 2.519483229493936e-001	 1.230725844805508e+000	 6.276361151961838e-001
 2.402635858991452e-001	 1.233060206073506e+000	 5.891412987220055e-001
 2.285910845784881e-001	 1.235277369081221e+000	 5.630580212461476e-001
 3.473872462121266e-001	 1.213766184716581e+000	 1.590283378971932e+000
 3.356064924486689e-001	 1.217076222846760e+000	 1.503366127579771e+000
 3.238244042879776e-001	 1.220263908005475e+000	 1.428213289637788e+000
 3.120427544351257e-001	 1.223329705925041e+000	 1.364569836875497e+000
 3.002632971281765e-001	 1.226274113888428e+000	 1.312186519001515e+000
 2.884877675085879e-001	 1.229097660071891e+000	 1.270820351658334e+000
 2.767178810156905e-001	 1.231800902875017e+000	 1.240235064003859e+000
 2.649553328054138e-001	 1.234384430239126e+000	 1.220201506154741e+000
 2.532017971934122e-001	 1.236848858954929e+000	 1.210498016840583e+000
 2.414589271226970e-001	 1.239194833960380e+000	 1.210910751724841e+000
 2.297283536558449e-001	 1.241423027629625e+000	 1.221233972951224e+000
 3.491069850575903e-001	 1.219774928203546e+000	 1.779751716438042e+000
 3.372679107306724e-001	 1.223101352660998e+000	 1.750923034471152e+000
 3.254274954005885e-001	 1.226304818439198e+000	 1.731495106252568e+000
 3.135875205481796e-001	 1.229385793576065e+000	 1.721189095987723e+000
 3.017497490958560e-001	 1.232344777816364e+000	 1.719734484007568e+000
 2.899159247748850e-001	 1.235182301951086e+000	 1.726869534142029e+000
 2.780877715168706e-001	 1.237898927144173e+000	 1.742341717743109e+000
 2.662669928696040e-001	 1.240495244247544e+000	 1.765908094692964e+000
 2.544552714374309e-001	 1.242971873105330e+000	 1.797335651856006e+000
 2.426542683462487e-001	 1.245329461848248e+000	 1.836401599531981e+000
 2.308656227332017e-001	 1.247568686179030e+000	 1.882893626596627e+000
 3.508267239030540e-001	 1.225783671691016e+000	 1.975727042892637e+000
 3.389293290126757e-001	 1.229126482475839e+000	 2.004603793162879e+000
 3.270305865131993e-001	 1.232345728873607e+000	 2.040534676145453e+000
 3.151322866612336e-001	 1.235441881227848e+000	 2.083216976796801e+000
 3.032362010635354e-001	 1.238415441745124e+000	 2.132358828257623e+000
 2.913440820411818e-001	 1.241266943831159e+000	 2.187679658850243e+000
 2.794576620180507e-001	 1.243996951414251e+000	 2.248910592748119e+000
 2.675786529337942e-001	 1.246606058256919e+000	 2.315794804749347e+000
 2.557087456814495e-001	 1.249094887256712e+000	 2.388087829722951e+000
 2.438496095698005e-001	 1.251464089737112e+000	 2.246500788275909e+000
 2.320028918105586e-001	 1.253714344729433e+000	 1.995720170614568e+000
 3.525464627485178e-001	 1.231792415178994e+000	 2.178096473077555e+000
 3.405907472946791e-001	 1.235151612291280e+000	 2.264303273757964e+000
 3.286336776258102e-001	 1.238386639308702e+000	 2.355234293736941e+000
 3.166770527742875e-001	 1.241497968880391e+000	 2.450562865880873e+000
 3.047226530312150e-001	 1.244486105674708e+000	 2.549975697437614e+000
 2.927722393074787e-001	 1.247351585712111e+000	 2.653173296860302e+000
 2.808275525192308e-001	 1.250094975685251e+000	 2.745420167191967e+000
 2.688903129979843e-001	 1.252716872267249e+000	 2.458420005667951e+000
 2.569622199254681e-001	 1.255217901409075e+000	 2.196790418668793e+000
 2.450449507933523e-001	 1.257598717626971e+000	 1.960408173521569e+000
 2.331401608879154e-001	 1.259860003280838e+000	 1.749111847910624e+000
 3.542662015939815e-001	 1.237801158667477e+000	 2.386749027440158e+000
 3.422521655766824e-001	 1.241176742107322e+000	 2.529918118816164e+000
 3.302367687384211e-001	 1.244427549744482e+000	 2.675497898619488e+000
 3.182218188873414e-001	 1.247554056533694e+000	 2.823137673682031e+000
 3.062091049988944e-001	 1.250556769605117e+000	 2.887032210167230e+000
 2.942003965737755e-001	 1.253436227593941e+000	 2.597798577072086e+000
 2.821974430204108e-001	 1.256192999957173e+000	 2.332176410917644e+000
 2.702019730621745e-001	 1.258827686278536e+000	 2.090114211342351e+000
 2.582156941694868e-001	 1.261340915562419e+000	 1.871522364232842e+000
 2.462402920169040e-001	 1.263733345517825e+000	 1.676273759235569e+000
 2.342774299652722e-001	 1.266005661833242e+000	 1.504204462372803e+000
 3.559859404394452e-001	 1.243809902156467e+000	 2.601575586101084e+000
 3.439135838586858e-001	 1.247201871923965e+000	 2.801346700539255e+000
 3.318398598510319e-001	 1.250468460180948e+000	 2.928818935547943e+000
 3.197665850003953e-001	 1.253610144187757e+000	 2.644419429561697e+000
 3.076955569665739e-001	 1.256627433536349e+000	 2.381770300413456e+000
 2.956285538400724e-001	 1.259520869476648e+000	 2.140888361340125e+000
 2.835673335215909e-001	 1.262291024230018e+000	 1.921752703193574e+000
 2.715136331263647e-001	 1.264938500290780e+000	 1.724305170249626e+000
 2.594691684135055e-001	 1.267463929716743e+000	 1.548450895117666e+000
 2.474356332404558e-001	 1.269867973409675e+000	 1.394058890417001e+000
 2.354146990426290e-001	 1.272151320386647e+000	 1.260962694804182e+000
 3.577056792849089e-001	 1.249818645645962e+000	 2.822468844151359e+000
 3.455750021406893e-001	 1.253227001741210e+000	 2.578202713018113e+000
 3.334429509636428e-001	 1.256509370618099e+000	 2.325567760864661e+000
 3.213113511134493e-001	 1.259666231842580e+000	 2.092814276795058e+000
 3.091820089342534e-001	 1.262698097468405e+000	 1.879986288838060e+000
 2.970567111063694e-001	 1.265605511360235e+000	 1.687091145360472e+000
 2.849372240227709e-001	 1.268389048503785e+000	 1.514099906494305e+000
 2.728252931905549e-001	 1.271049314303979e+000	 1.360947795988580e+000
 2.607226426575242e-001	 1.273586943872048e+000	 1.227534711308856e+000
 2.486309744640076e-001	 1.276002601302519e+000	 1.113725789706784e+000
 2.365519681199858e-001	 1.278296978941051e+000	 1.019352027896294e+000
 3.594254181303726e-001	 1.255827389135965e+000	 2.143752428146552e+000
 3.472364204226926e-001	 1.259252131559055e+000	 1.926128663799158e+000
 3.350460420762536e-001	 1.262550281055936e+000	 1.726526010671755e+000
 3.228561172265032e-001	 1.265722319498163e+000	 1.545013207758557e+000
 3.106684609019330e-001	 1.268768761401286e+000	 1.381623447464111e+000
 2.984848683726662e-001	 1.271690153244699e+000	 1.236354682600255e+000
 2.863071145239510e-001	 1.274487072778474e+000	 1.109169994932026e+000
 2.741369532547450e-001	 1.277160128318136e+000	 9.999980232573009e-001
 2.619761169015428e-001	 1.279709958028333e+000	 9.087334488987626e-001
 2.498263156875593e-001	 1.282137229196359e+000	 8.352375363908104e-001
 2.376892371973427e-001	 1.284442637496456e+000	 7.793387270440945e-001
 3.611451569758364e-001	 1.261836132626474e+000	 1.441878241757022e+000
 3.488978387046960e-001	 1.265277261377502e+000	 1.278621586531446e+000
 3.366491331888646e-001	 1.268591191494459e+000	 1.131628702342989e+000
 3.244008833395572e-001	 1.271778407154506e+000	 1.000956134482576e+000
 3.121549128696126e-001	 1.274839425334990e+000	 8.866263265186910e-001
 2.999130256389632e-001	 1.277774795130041e+000	 7.886279055015937e-001
 2.876770050251312e-001	 1.280585097054086e+000	 7.069160277904317e-001
 2.754486133189352e-001	 1.283270942333248e+000	 6.414127835413651e-001
 2.632295911455614e-001	 1.285832972185600e+000	 5.920076577971564e-001
 2.510216569111111e-001	 1.288271857091194e+000	 5.585580460052498e-001
 2.388265062746995e-001	 1.290588296052861e+000	 5.408898217112093e-001
 2.274538155011313e-001	 1.229131710533816e+000	-9.158216513699302e-002
 2.158531539526720e-001	 1.231221919865173e+000	-1.438259336124783e-001
 2.042678302047558e-001	 1.233196924084871e+000	-1.860328835086555e-001
 1.926993914066565e-001	 1.235057466104641e+000	-2.182737394912579e-001
 1.811493612763958e-001	 1.236804313114289e+000	-2.406132086645624e-001
 1.696192397195480e-001	 1.238438255846809e+000	-2.531099170672360e-001
 1.581105024721128e-001	 1.239960107839883e+000	-2.558163747151961e-001
 1.466246007673009e-001	 1.241370704694572e+000	-2.487789681494899e-001
 1.351629610260512e-001	 1.242670903332019e+000	-2.320379794040837e-001
 1.237269845710729e-001	 1.243861581248940e+000	-2.056276302639319e-001
 1.123180473641754e-001	 1.244943635772666e+000	-1.695761506489174e-001
 2.285910845784881e-001	 1.235277369081221e+000	 5.630580212461476e-001
 2.169324197219863e-001	 1.237378029459077e+000	 5.454948213680990e-001
 2.052891693550795e-001	 1.239362908699803e+000	 5.344192920776683e-001
 1.936628883627874e-001	 1.241232753429685e+000	 5.297522362807942e-001
 1.820551080817217e-001	 1.242988334674478e+000	 5.314237608842747e-001
 1.704673359169836e-001	 1.244630447120842e+000	 5.393732808922407e-001
 1.589010549832529e-001	 1.246159908374145e+000	 5.535494921780253e-001
 1.473577237699057e-001	 1.247577558213453e+000	 5.739103141410961e-001
 1.358387758299850e-001	 1.248884257844515e+000	 6.004228035054136e-001
 1.243456194928134e-001	 1.250080889151526e+000	 6.219845527338219e-001
 1.128796376000088e-001	 1.251168353948456e+000	 5.136269521291488e-001
 2.297283536558449e-001	 1.241423027629625e+000	 1.221233972951224e+000
 2.180116854913005e-001	 1.243534139053976e+000	 1.237766254482848e+000
 2.063105085054032e-001	 1.245528893315713e+000	 1.257264955764999e+000
 1.946263853189185e-001	 1.247408040755683e+000	 1.279642324542612e+000
 1.829608548870475e-001	 1.249172356235585e+000	 1.304823187514894e+000
 1.713154321144194e-001	 1.250822638395747e+000	 1.215313747005405e+000
 1.596916074943931e-001	 1.252359708909223e+000	 1.029631864827114e+000
 1.480908467725105e-001	 1.253784411733083e+000	 8.666478085069244e-001
 1.365145906339190e-001	 1.255097612357682e+000	 7.260117900922604e-001
 1.249642544145540e-001	 1.256300197054699e+000	 6.073436882261520e-001
 1.134412278358421e-001	 1.257393072124738e+000	 5.102340894422843e-001
 2.308656227332017e-001	 1.247568686179030e+000	 1.882893626596627e+000
 2.190909512606149e-001	 1.249690248649870e+000	 1.932946186848644e+000
 2.073318476557270e-001	 1.251694877932603e+000	 1.734208306510678e+000
 1.955898822750495e-001	 1.253583328082633e+000	 1.510552534449759e+000
 1.838666016923733e-001	 1.255356377797609e+000	 1.307458037199225e+000
 1.721635283118551e-001	 1.257014829671522e+000	 1.124669293622006e+000
 1.604821600055333e-001	 1.258559509445114e+000	 9.618997718847296e-001
 1.488239697751153e-001	 1.259991265253462e+000	 8.188328279023158e-001
 1.371904054378529e-001	 1.261310966871523e+000	 6.951226372624257e-001
 1.255828893362946e-001	 1.262519504958459e+000	 5.903951579269275e-001
 1.140028180716754e-001	 1.263617790301512e+000	 5.042491210146566e-001
 2.320028918105586e-001	 1.253714344729433e+000	 1.995720170614568e+000
 2.201702170299292e-001	 1.255846358246759e+000	 1.767585101346857e+000
 2.083531868060507e-001	 1.257860862550472e+000	 1.557478930855033e+000
 1.965533792311805e-001	 1.259758615410536e+000	 1.365203348009884e+000
 1.847723484976992e-001	 1.261540399360551e+000	 1.190529673765129e+000
 1.730116245092908e-001	 1.263207020948169e+000	 1.033199640662515e+000
 1.612727125166734e-001	 1.264759309981821e+000	 8.929262097758138e-001
 1.495570927777201e-001	 1.266198118774589e+000	 7.693944225070147e-001
 1.378662202417868e-001	 1.267524321386035e+000	 6.622622846415258e-001
 1.262015242580351e-001	 1.268738812862805e+000	 5.711616800660303e-001
 1.145644083075087e-001	 1.269842508478777e+000	 4.956993115347585e-001
 2.331401608879154e-001	 1.259860003280838e+000	 1.749111847910624e+000
 2.212494827992435e-001	 1.262002467844642e+000	 1.557677493962492e+000
 2.093745259563744e-001	 1.264026847169320e+000	 1.381359290619178e+000
 1.975168761873115e-001	 1.265933902739393e+000	 1.219951542266099e+000
 1.856780953030251e-001	 1.267724420924409e+000	 1.073220491738645e+000
 1.738597207067265e-001	 1.269399212225686e+000	 9.409050563278730e-001
 1.620632650278136e-001	 1.270959110519342e+000	 8.227175998222056e-001
 1.502902157803249e-001	 1.272404972296464e+000	 7.183447381075208e-001
 1.385420350457207e-001	 1.273737675901220e+000	 6.274481758248744e-001
 1.268201591797756e-001	 1.274958120767739e+000	 5.496655715792277e-001
 1.151259985433420e-001	 1.276067226656534e+000	 4.846114291932002e-001
 2.342774299652722e-001	 1.266005661833242e+000	 1.504204462372803e+000
 2.223287485685578e-001	 1.268158577443520e+000	 1.348898184975191e+000
 2.103958651066981e-001	 1.270192831789148e+000	 1.205829111235294e+000
 1.984803731434425e-001	 1.272109190069203e+000	 1.074784136865385e+000
 1.865838421083509e-001	 1.273908442489185e+000	 9.555243804978435e-001
 1.747078169041622e-001	 1.275591403504074e+000	 8.477858765997290e-001
 1.628538175389537e-001	 1.277158911057679e+000	 7.512803030461916e-001
 1.510233387829297e-001	 1.278611825819089e+000	 6.656957409695699e-001
 1.392178498496546e-001	 1.279951030417078e+000	 5.906974644800613e-001
 1.274387941015162e-001	 1.281177428673260e+000	 5.259287578480992e-001
 1.156875887791753e-001	 1.282291944834783e+000	 4.710117577313585e-001
 2.354146990426290e-001	 1.272151320386647e+000	 1.260962694804182e+000
 2.234080143378722e-001	 1.274314687043393e+000	 1.141219833031044e+000
 2.114172042570219e-001	 1.276358816409954e+000	 1.030868611377481e+000
 1.994438700995735e-001	 1.278284477399967e+000	 9.296884936167699e-001
 1.874895889136768e-001	 1.280092464054878e+000	 8.374354292231326e-001
 1.755559131015980e-001	 1.281783594783333e+000	 7.538425036039443e-001
 1.636443700500939e-001	 1.283358711596829e+000	 6.786206216288095e-001
 1.517564617855346e-001	 1.284818679342461e+000	 6.114592221712425e-001
 1.398936646535885e-001	 1.286164384933609e+000	 5.520270213511451e-001
 1.280574290232568e-001	 1.287396736579367e+000	 4.999727821595876e-001
 1.162491790150086e-001	 1.288516663013523e+000	 4.549261081441394e-001
 2.365519681199858e-001	 1.278296978941051e+000	 1.019352027896294e+000
 2.244872801071864e-001	 1.280470796644260e+000	 9.346157341420365e-001
 2.124385434073455e-001	 1.282524801031739e+000	 8.564584911065547e-001
 2.004073670557046e-001	 1.284459764731684e+000	 7.846523082654610e-001
 1.883953357190026e-001	 1.286276485621487e+000	 7.189479220947056e-001
 1.764040092990336e-001	 1.287975786063463e+000	 6.590754040188893e-001
 1.644349225612340e-001	 1.289558512136794e+000	 6.047448003227505e-001
 1.524895847881394e-001	 1.291025532866582e+000	 5.556468018175608e-001
 1.405694794575224e-001	 1.292377739450812e+000	 5.114534410600381e-001
 1.286760639449973e-001	 1.293616044486062e+000	 4.718188148878172e-001
 1.168107692508420e-001	 1.294741381192755e+000	 4.363798300445104e-001
 2.376892371973427e-001	 1.284442637496456e+000	 7.793387270440945e-001
 2.255665458765008e-001	 1.286626906246123e+000	 7.290598064380264e-001
 2.134598825576693e-001	 1.288690785654505e+000	 6.825799203523248e-001
 2.013708640118356e-001	 1.290635052064354e+000	 6.396636025048671e-001
 1.893010825243285e-001	 1.292460507189014e+000	 6.000563336268804e-001
 1.772521054964694e-001	 1.294167977344463e+000	 5.634851075338232e-001
 1.652254750723743e-001	 1.295758312677574e+000	 5.296590278278537e-001
 1.532227077907442e-001	 1.297232386391451e+000	 4.982699331282929e-001
 1.412452942614564e-001	 1.298591093968687e+000	 4.689930487108449e-001
 1.292946988667378e-001	 1.299835352393343e+000	 4.414876624183409e-001
 1.173723594866753e-001	 1.300966099372479e+000	 4.153978227001021e-001
 2.388265062746995e-001	 1.290588296052861e+000	 5.408898217112093e-001
 2.266458116458152e-001	 1.292783015848981e+000	 5.245265753535153e-001
 2.144812217079931e-001	 1.294856770278248e+000	 5.092145277278928e-001
 2.023343609679665e-001	 1.296810339397977e+000	 4.947107162146656e-001
 1.902068293296544e-001	 1.298644528757458e+000	 4.807553241374487e-001
 1.781002016939051e-001	 1.300360168626335e+000	 4.670722053461222e-001
 1.660160275835144e-001	 1.301958113219169e+000	 4.533694381244912e-001
 1.539558307933490e-001	 1.303439239917070e+000	 4.393399064120056e-001
 1.419211090653903e-001	 1.304804448487235e+000	 4.246619063080332e-001
 1.299133337884784e-001	 1.306054660301212e+000	 4.089997758135398e-001
 1.179339497225086e-001	 1.307190817552695e+000	 3.920045457568795e-001
 1.123180473641754e-001	 1.244943635772666e+000	-1.695761506489174e-001
 1.009374997672809e-001	 1.245917983316647e+000	-1.465503253068587e-001
 8.958666632487237e-002	 1.246785558636687e+000	-1.256444494158366e-001
 7.826684556889682e-002	 1.247547314088946e+000	-1.068178641489088e-001
 6.697930984708604e-002	 1.248204218890639e+000	-9.001540050415947e-002
 5.572530517238802e-002	 1.248757258383706e+000	-7.516780853869567e-002
 4.450605109380196e-002	 1.249207433302221e+000	-6.219220691915414e-002
 3.332274058823018e-002	 1.249555759044169e+000	-5.099255102760718e-002
 2.217653997294703e-002	 1.249803264948180e+000	-4.146011787757598e-002
 1.106858883827006e-002	 1.249950993575827e+000	-3.347400611295105e-002
 0.000000000000000e+000	 1.250000000000000e+000	-2.690164938820227e-002
 1.128796376000088e-001	 1.251168353948456e+000	 5.136269521291488e-001
 1.014421872652744e-001	 1.252147573230749e+000	 4.063198781291241e-001
 9.003459965578813e-002	 1.253019486427917e+000	 3.130265087444843e-001
 7.865817979615662e-002	 1.253785050657900e+000	 2.332853968980238e-001
 6.731420639585040e-002	 1.254445239984000e+000	 1.666157779629471e-001
 5.600393169788230e-002	 1.255001044674869e+000	 1.125185550202704e-001
 4.472858134899666e-002	 1.255453470468251e+000	 7.047729444224149e-002
 3.348935429098036e-002	 1.255803537839120e+000	 3.995922952898287e-002
 2.228742267269423e-002	 1.256052281272801e+000	 2.041626999003666e-002
 1.112393178240750e-002	 1.256200748543676e+000	 1.128601511181188e-002
 0.000000000000000e+000	 1.256250000000000e+000	 1.199276850690356e-002
 1.134412278358421e-001	 1.257393072124738e+000	 5.102340894422843e-001
 1.019468747632680e-001	 1.258377163145248e+000	 4.110418874145547e-001
 9.048253298670390e-002	 1.259253414219460e+000	 3.249442581211570e-001
 7.904951402341640e-002	 1.260022787227093e+000	 2.514861845079099e-001
 6.764910294461472e-002	 1.260686261077537e+000	 1.901936514199863e-001
 5.628255822337660e-002	 1.261244830966153e+000	 1.405746191385531e-001
 4.495111160419136e-002	 1.261699507634357e+000	 1.021200073975132e-001
 3.365596799373056e-002	 1.262051316634114e+000	 7.430468762605322e-002
 2.239830537244143e-002	 1.262301297597442e+000	 5.658848120369989e-002
 1.117927472654494e-002	 1.262450503511530e+000	 4.841716157324109e-002
 0.000000000000000e+000	 1.262500000000000e+000	 4.922345811197563e-002
 1.140028180716754e-001	 1.263617790301512e+000	 5.042491210146566e-001
 1.024515622612615e-001	 1.264606753060144e+000	 4.132118252107954e-001
 9.093046631761965e-002	 1.265487342011314e+000	 3.343625355622809e-001
 7.944084825067617e-002	 1.266260523796523e+000	 2.672525435552118e-001
 6.798399949337908e-002	 1.266927282171247e+000	 2.114144543243883e-001
 5.656118474887090e-002	 1.267488617257558e+000	 1.663631487332614e-001
 4.517364185938607e-002	 1.267945544800541e+000	 1.315967561050456e-001
 3.382258169648073e-002	 1.268299095429150e+000	 1.065976353455665e-001
 2.250918807218864e-002	 1.268550313922101e+000	 9.083336225480740e-002
 1.123461767068239e-002	 1.268700258479389e+000	 8.375772086826824e-002
 0.000000000000000e+000	 1.268750000000000e+000	 8.481169673523897e-002
 1.145644083075087e-001	 1.269842508478777e+000	 4.956993115347585e-001
 1.029562497592551e-001	 1.270836342975437e+000	 4.128568038997309e-001
 9.137839964853545e-002	 1.271721269803482e+000	 3.413081889302744e-001
 7.983218247793594e-002	 1.272498260366193e+000	 2.806109465319729e-001
 6.831889604214343e-002	 1.273168303265133e+000	 2.303041743275122e-001
 5.683981127436517e-002	 1.273732403549084e+000	 1.899095385540422e-001
 4.539617211458077e-002	 1.274191581966802e+000	 1.589322357805692e-001
 3.398919539923093e-002	 1.274546874224231e+000	 1.368619631906133e-001
 2.262007077193584e-002	 1.274799330246780e+000	 1.231738952271917e-001
 1.128996061481982e-002	 1.274950013447252e+000	 1.173296644457644e-001
 0.000000000000000e+000	 1.275000000000000e+000	 1.187783444828270e-001
 1.151259985433420e-001	 1.276067226656534e+000	 4.846114291932002e-001
 1.034609372572486e-001	 1.277065932891127e+000	 4.100034363797477e-001
 9.182633297945121e-002	 1.277955197595962e+000	 3.458075663527218e-001
 8.022351670519572e-002	 1.278735996936101e+000	 2.915873686426481e-001
 6.865379259090779e-002	 1.279409324359193e+000	 2.468883069138810e-001
 5.711843779985947e-002	 1.279976189840731e+000	 2.112386989465686e-001
 4.561870236977549e-002	 1.280437619133139e+000	 1.841506676138995e-001
 3.415580910198111e-002	 1.280794653019355e+000	 1.651211005974340e-001
 2.273095347168304e-002	 1.281048346571478e+000	 1.536326166460065e-001
 1.134530355895727e-002	 1.281199768415121e+000	 1.491545362202965e-001
 0.000000000000000e+000	 1.281250000000000e+000	 1.511438544344947e-001
 1.156875887791753e-001	 1.282291944834783e+000	 4.710117577313585e-001
 1.039656247552422e-001	 1.283295522807214e+000	 4.046778481933451e-001
 9.227426631036695e-002	 1.284189125388755e+000	 3.478865283517097e-001
 8.061485093245552e-002	 1.284973733506248e+000	 3.002072998736035e-001
 6.898868913967213e-002	 1.285650345453428e+000	 2.611918673455692e-001
 5.739706432535376e-002	 1.286219976132498e+000	 2.303750676109357e-001
 4.584123262497018e-002	 1.286683656299554e+000	 2.072758102737972e-001
 3.432242280473129e-002	 1.287042431814522e+000	 1.913980271252696e-001
 2.284183617143024e-002	 1.287297362896195e+000	 1.822316282918845e-001
 1.140064650309471e-002	 1.287449523382994e+000	 1.792534629504615e-001
 0.000000000000000e+000	 1.287500000000000e+000	 1.819282825229024e-001
 1.162491790150086e-001	 1.288516663013523e+000	 4.549261081441394e-001
 1.044703122532357e-001	 1.289525112723698e+000	 3.969056892947994e-001
 9.272219964128273e-002	 1.290423053181860e+000	 3.475704596210452e-001
 8.100618515971529e-002	 1.291211470076633e+000	 3.064957567135362e-001
 6.932358568843647e-002	 1.291891366547838e+000	 2.732394022639707e-001
 5.767569085084805e-002	 1.292463762424386e+000	 2.473426210178447e-001
 4.606376288016487e-002	 1.292929693466046e+000	 2.283309710797271e-001
 3.448903650748147e-002	 1.293290210609732e+000	 2.157152833236779e-001
 2.295271887117745e-002	 1.293546379220931e+000	 2.089926077018916e-001
 1.145598944723215e-002	 1.293699278350872e+000	 2.076471643128263e-001
 0.000000000000000e+000	 1.293750000000000e+000	 2.111512971260482e-001
 1.168107692508420e-001	 1.294741381192755e+000	 4.363798300445104e-001
 1.049749997512293e-001	 1.295754702640579e+000	 3.867121454852512e-001
 9.317013297219848e-002	 1.296656980975278e+000	 3.448842804645209e-001
 8.139751938697505e-002	 1.297449206647257e+000	 3.104772935367146e-001
 6.965848223720081e-002	 1.298132387642422e+000	 2.830550009524508e-001
 5.795431737634235e-002	 1.298707548716396e+000	 2.621648854948807e-001
 4.628629313535958e-002	 1.299175730632615e+000	 2.473390168539485e-001
 3.465565021023166e-002	 1.299537989404985e+000	 2.380949812858856e-001
 2.306360157092465e-002	 1.299795395545687e+000	 2.339368183680973e-001
 1.151133239136959e-002	 1.299949033318755e+000	 2.343559626891264e-001
 0.000000000000000e+000	 1.300000000000000e+000	 2.388321883844665e-001
 1.173723594866753e-001	 1.300966099372479e+000	 4.153978227001021e-001
 1.054796872492228e-001	 1.301984292557857e+000	 3.741219495162629e-001
 9.361806630311423e-002	 1.302890908769008e+000	 3.398524579063930e-001
 8.178885361423485e-002	 1.303686943218119e+000	 3.121760136564324e-001
 6.999337878596518e-002	 1.304373408737181e+000	 2.906623062793231e-001
 5.823294390183664e-002	 1.304951335008525e+000	 2.748649479983458e-001
 4.650882339055428e-002	 1.305421767799261e+000	 2.643223844551931e-001
 3.482226391298184e-002	 1.305785768200281e+000	 2.585588148974747e-001
 2.317448427067185e-002	 1.306044411870460e+000	 2.570851196428066e-001
 1.156667533550703e-002	 1.306198788286642e+000	 2.593997926710441e-001
 0.000000000000000e+000	 1.306250000000000e+000	 2.649898772489613e-001
 1.179339497225086e-001	 1.307190817552695e+000	 3.920045457568795e-001
 1.059843747472164e-001	 1.308213882475532e+000	 3.591593918753975e-001
 9.406599963403002e-002	 1.309124836563052e+000	 3.324990164833866e-001
 8.218018784149464e-002	 1.309924679789219e+000	 3.116155800669407e-001
 7.032827533472953e-002	 1.310614429832114e+000	 2.960845253268600e-001
 5.851157042733094e-002	 1.311195121300776e+000	 2.854654665709042e-001
 4.673135364574900e-002	 1.311667804965984e+000	 2.793030910210267e-001
 3.498887761573204e-002	 1.312033546995621e+000	 2.771280697959298e-001
 2.328536697041906e-002	 1.312293428195254e+000	 2.784579763602949e-001
 1.162201827964448e-002	 1.312448543254535e+000	 2.827982102922133e-001
 0.000000000000000e+000	 1.312500000000000e+000	 2.896429242713171e-001
 1.312500000000000e+000	 0.000000000000000e+000	 1.729415653043822e+001
 1.312448543254535e+000	 1.162201827964452e-002	 1.733580616457946e+001
 1.312293428195254e+000	 2.328536697041914e-002	 1.736727401272076e+001
 1.312033546995621e+000	 3.498887761573195e-002	 1.738831766512594e+001
 1.311667804965984e+000	 4.673135364574896e-002	 1.739870064090628e+001
 1.311195121300776e+000	 5.851157042733093e-002	 1.739819268258766e+001
 1.310614429832114e+000	 7.032827533472956e-002	 1.738657004520476e+001
 1.309924679789219e+000	 8.218018784149472e-002	 1.736361577923082e+001
 1.309124836563052e+000	 9.406599963402995e-002	 1.732912000664862e+001
 1.308213882475532e+000	 1.059843747472164e-001	 1.728288018946620e+001
 1.307190817552695e+000	 1.179339497225086e-001	 1.722470138998209e+001
 1.318750000000000e+000	 0.000000000000000e+000	 1.717854088492763e+001
 1.318698298222429e+000	 1.167736122378196e-002	 1.722010857774387e+001
 1.318542444520057e+000	 2.339624967016635e-002	 1.725156364276058e+001
 1.318281325790982e+000	 3.515549131848213e-002	 1.727266376046207e+001
 1.317913842132745e+000	 4.695388390094366e-002	 1.728317258392465e+001
 1.317438907593088e+000	 5.879019695282523e-002	 1.728286003411106e+001
 1.316855450927135e+000	 7.066317188349390e-002	 1.727150258956818e+001
 1.316162416360439e+000	 8.257152206875450e-002	 1.724888356983101e+001
 1.315358764357251e+000	 9.451393296494570e-002	 1.721479341183115e+001
 1.314443472393405e+000	 1.064890622452099e-001	 1.716902993860824e+001
 1.313415535733156e+000	 1.184955399583419e-001	 1.711139861962216e+001
 1.325000000000000e+000	 0.000000000000000e+000	 1.706622856748844e+001
 1.324948053190324e+000	 1.173270416791940e-002	 1.710769614072779e+001
 1.324791460844860e+000	 2.350713236991355e-002	 1.713911878634478e+001
 1.324529104586343e+000	 3.532210502123232e-002	 1.716025428268036e+001
 1.324159879299507e+000	 4.717641415613836e-002	 1.717086642618467e+001
 1.323682693885399e+000	 5.906882347831951e-002	 1.717072532746504e+001
 1.323096472022156e+000	 7.099806843225825e-002	 1.715960770161228e+001
 1.322400152931659e+000	 8.296285629601430e-002	 1.713729715210046e+001
 1.321592692151450e+000	 9.496186629586148e-002	 1.710358444755313e+001
 1.320673062311279e+000	 1.069937497432035e-001	 1.705826779066740e+001
 1.319640253913617e+000	 1.190571301941752e-001	 1.700115307858768e+001
 1.331250000000000e+000	 0.000000000000000e+000	 1.695716086254064e+001
 1.331197808158218e+000	 1.178804711205684e-002	 1.699851003989834e+001
 1.331040477169663e+000	 2.361801506966075e-002	 1.702988053198931e+001
 1.330776883381704e+000	 3.548871872398250e-002	 1.705103022276272e+001
 1.330405916466269e+000	 4.739894441133306e-002	 1.706172306157248e+001
 1.329926480177710e+000	 5.934745000381381e-002	 1.706172936000568e+001
 1.329337493117177e+000	 7.133296498102260e-002	 1.705082608286142e+001
 1.328637889502879e+000	 8.335419052327406e-002	 1.702879713256920e+001
 1.327826619945649e+000	 9.540979962677723e-002	 1.699543362633214e+001
 1.326902652229152e+000	 1.074984372411970e-001	 1.695053416528106e+001
 1.325864972094079e+000	 1.196187204300085e-001	 1.689390509492438e+001
 1.337500000000000e+000	 0.000000000000000e+000	 1.685128015199160e+001
 1.337447563126113e+000	 1.184339005619428e-002	 1.689249255533280e+001
 1.337289493494467e+000	 2.372889776940795e-002	 1.692379105797440e+001
 1.337024662177066e+000	 3.565533242673268e-002	 1.694493365734081e+001
 1.336651953633030e+000	 4.762147466652777e-002	 1.695568446534065e+001
 1.336170266470021e+000	 5.962607652930811e-002	 1.695581400600269e+001
 1.335578514212197e+000	 7.166786152978694e-002	 1.694509950713188e+001
 1.334875626074099e+000	 8.374552475053385e-002	 1.692332518526811e+001
 1.334060547739849e+000	 9.585773295769300e-002	 1.689028252322663e+001
 1.333132242147026e+000	 1.080031247391906e-001	 1.684577053949874e+001
 1.332089690274541e+000	 1.201803106658419e-001	 1.678959604879260e+001
 1.343750000000000e+000	 0.000000000000000e+000	 1.674852988971325e+001
 1.343697318094008e+000	 1.189873300033172e-002	 1.678958703538314e+001
 1.343538509819269e+000	 2.383978046915516e-002	 1.682079360700109e+001
 1.343272440972427e+000	 3.582194612948286e-002	 1.684190772344820e+001
 1.342897990799792e+000	 4.784400492172247e-002	 1.685269366895976e+001
 1.342414052762333e+000	 5.990470305480240e-002	 1.685292219159501e+001
 1.341819535307218e+000	 7.200275807855128e-002	 1.684237079559487e+001
 1.341113362645319e+000	 8.413685897779362e-002	 1.682082402690361e+001
 1.340294475534049e+000	 9.630566628860877e-002	 1.678807375112573e+001
 1.339361832064899e+000	 1.085078122371841e-001	 1.674391942319080e+001
 1.338314408455002e+000	 1.207419009016752e-001	 1.668816834799926e+001
 1.350000000000000e+000	 0.000000000000000e+000	 1.664885457672810e+001
 1.349947073061902e+000	 1.195407594446916e-002	 1.668973787194774e+001
 1.349787526144072e+000	 2.395066316890236e-002	 1.672083246155180e+001
 1.349520219767788e+000	 3.598855983223305e-002	 1.674189659397423e+001
 1.349144027966554e+000	 4.806653517691718e-002	 1.675269473566927e+001
 1.348657839054644e+000	 6.018332958029669e-002	 1.675299787044183e+001
 1.348060556402239e+000	 7.233765462731565e-002	 1.674258379253211e+001
 1.347351099216538e+000	 8.452819320505339e-002	 1.672123739272133e+001
 1.346528403328247e+000	 9.675359961952451e-002	 1.668875093672543e+001
 1.345591421982772e+000	 1.090124997351777e-001	 1.664492433514086e+001
 1.344539126635463e+000	 1.213034911375085e-001	 1.658956540420999e+001
 1.356250000000000e+000	 0.000000000000000e+000	 1.655219973708119e+001
 1.356196828029797e+000	 1.200941888860660e-002	 1.659289047642644e+001
 1.356036542468875e+000	 2.406154586864957e-002	 1.662385291993245e+001
 1.355767998563149e+000	 3.615517353498323e-002	 1.664484545379623e+001
 1.355390065133315e+000	 4.828906543211187e-002	 1.665563273670362e+001
 1.354901625346955e+000	 6.046195610579097e-002	 1.665598600004725e+001
 1.354301577497260e+000	 7.267255117607999e-002	 1.664568334176200e+001
 1.353588835787759e+000	 8.491952743231319e-002	 1.662451001303770e+001
 1.352762331122447e+000	 9.720153295044029e-002	 1.659225869716887e+001
 1.351821011900645e+000	 1.095171872331712e-001	 1.654872977979880e+001
 1.350763844815924e+000	 1.218650813733418e-001	 1.649373160981850e+001
 1.362500000000000e+000	 0.000000000000000e+000	 1.645851189437640e+001
 1.362446582997692e+000	 1.206476183274405e-002	 1.649899125633735e+001
 1.362285558793679e+000	 2.417242856839677e-002	 1.652980127297345e+001
 1.362015777358510e+000	 3.632178723773341e-002	 1.655070047656885e+001
 1.361636102300077e+000	 4.851159568730658e-002	 1.656145372817350e+001
 1.361145411639267e+000	 6.074058263128528e-002	 1.656183251873608e+001
 1.360542598592280e+000	 7.300744772484431e-002	 1.655161526371428e+001
 1.359826572358978e+000	 8.531086165957297e-002	 1.653058759041707e+001
 1.358996258916646e+000	 9.764946628135605e-002	 1.649854261732980e+001
 1.358050601818519e+000	 1.100218747311648e-001	 1.645528122467373e+001
 1.356988562996385e+000	 1.224266716091751e-001	 1.640061231545305e+001
 1.368750000000000e+000	 0.000000000000000e+000	 1.636773854895548e+001
 1.368696337965586e+000	 1.212010477688149e-002	 1.640798759257465e+001
 1.368534575118481e+000	 2.428331126814397e-002	 1.643862478136965e+001
 1.368263556153872e+000	 3.648840094048361e-002	 1.645940880214916e+001
 1.367882139466838e+000	 4.873412594250129e-002	 1.647010472857985e+001
 1.367389197931578e+000	 6.101920915677957e-002	 1.647048432326077e+001
 1.366783619687301e+000	 7.334234427360868e-002	 1.646032633313313e+001
 1.366064308930198e+000	 8.570219588683274e-002	 1.643941677747437e+001
 1.365230186710846e+000	 9.809739961227182e-002	 1.640754922771817e+001
 1.364280191736392e+000	 1.105265622291583e-001	 1.636452507834644e+001
 1.363213281176847e+000	 1.229882618450085e-001	 1.631015380809873e+001
 1.375000000000000e+000	 0.000000000000000e+000	 1.627982815569935e+001
 1.374946092933481e+000	 1.217544772101893e-002	 1.631982781728632e+001
 1.374783591443285e+000	 2.439419396789118e-002	 1.635027165363766e+001
 1.374511334949233e+000	 3.665501464323380e-002	 1.637091851463747e+001
 1.374128176633600e+000	 4.895665619769599e-002	 1.638153369694141e+001
 1.373632984223889e+000	 6.129783568227386e-002	 1.638188924701892e+001
 1.373024640782322e+000	 7.367724082237305e-002	 1.637176425738820e+001
 1.372302045501418e+000	 8.609353011409254e-002	 1.635094515528303e+001
 1.371464114505045e+000	 9.854533294318760e-002	 1.631922598298838e+001
 1.370509781654265e+000	 1.110312497271519e-001	 1.627640866908120e+001
 1.369437999357309e+000	 1.235498520808418e-001	 1.622230328981677e+001
 1.307190817552695e+000	 1.179339497225086e-001	 1.722470138998209e+001
 1.306054660301212e+000	 1.299133337884784e-001	 1.725412951631783e+001
 1.304804448487235e+000	 1.419211090653904e-001	 1.727273176605180e+001
 1.303439239917070e+000	 1.539558307933489e-001	 1.728024135170893e+001
 1.301958113219169e+000	 1.660160275835144e-001	 1.727639717835230e+001
 1.300360168626335e+000	 1.781002016939051e-001	 1.726094408125873e+001
 1.298644528757458e+000	 1.902068293296544e-001	 1.723363305530683e+001
 1.296810339397977e+000	 2.023343609679666e-001	 1.719422147550740e+001
 1.294856770278248e+000	 2.144812217079930e-001	 1.714247330812003e+001
 1.292783015848980e+000	 2.266458116458151e-001	 1.707815931181471e+001
 1.290588296052860e+000	 2.388265062746995e-001	 1.700105722835423e+001
 1.313415535733156e+000	 1.184955399583419e-001	 1.711139861962216e+001
 1.312273968209371e+000	 1.305319687102190e-001	 1.713976032290357e+001
 1.311017803006110e+000	 1.425969238693242e-001	 1.715729223987878e+001
 1.309646093443040e+000	 1.546889537959538e-001	 1.716374081722415e+001
 1.308157913761131e+000	 1.668065800946545e-001	 1.715885854018987e+001
 1.306552359908582e+000	 1.789482978913408e-001	 1.714240416360766e+001
 1.304828550326273e+000	 1.911125761349802e-001	 1.711414293393355e+001
 1.302985626731956e+000	 2.032978579240976e-001	 1.707384680174757e+001
 1.301022754902325e+000	 2.155025608583167e-001	 1.702129462414767e+001
 1.298939125452136e+000	 2.277250774151294e-001	 1.695627235649167e+001
 1.296733954609519e+000	 2.399637753520563e-001	 1.687857323296043e+001
 1.319640253913617e+000	 1.190571301941752e-001	 1.700115307858768e+001
 1.318493276117526e+000	 1.311506036319596e-001	 1.702866633659440e+001
 1.317231157524965e+000	 1.432727386732582e-001	 1.704534612594152e+001
 1.315852946968968e+000	 1.554220767985586e-001	 1.705095206840973e+001
 1.314357714303017e+000	 1.675971326057947e-001	 1.704525017020738e+001
 1.312744551190707e+000	 1.797963940887766e-001	 1.702801304634014e+001
 1.311012571894913e+000	 1.920183229403061e-001	 1.699902013533713e+001
 1.309160914065698e+000	 2.042613548802287e-001	 1.695805790374886e+001
 1.307188739526088e+000	 2.165239000086404e-001	 1.690492003984648e+001
 1.305095235054894e+000	 2.288043431844438e-001	 1.683940763597266e+001
 1.302879613165684e+000	 2.411010444294131e-001	 1.676132935901156e+001
 1.325864972094079e+000	 1.196187204300085e-001	 1.689390509492438e+001
 1.324712584025675e+000	 1.317692385537001e-001	 1.692078427170456e+001
 1.323444512043802e+000	 1.439485534771920e-001	 1.693682650494009e+001
 1.322059800494851e+000	 1.561551998011634e-001	 1.694180453384353e+001
 1.320557514844825e+000	 1.683876851169348e-001	 1.693549782776236e+001
 1.318936742472710e+000	 1.806444902862122e-001	 1.691769280393953e+001
 1.317196593463377e+000	 1.929240697456319e-001	 1.688818303495152e+001
 1.315336201399199e+000	 2.052248518363597e-001	 1.684676944523242e+001
 1.313354724149538e+000	 2.175452391589641e-001	 1.679326049610638e+001
 1.311251344657254e+000	 2.298836089537581e-001	 1.672747235877384e+001
 1.309025271721357e+000	 2.422383135067699e-001	 1.664922907471560e+001
 1.332089690274541e+000	 1.201803106658419e-001	 1.678959604879260e+001
 1.330931891933820e+000	 1.323878734754406e-001	 1.681605195505870e+001
 1.329657866562619e+000	 1.446243682811260e-001	 1.683166763071488e+001
 1.328266654020692e+000	 1.568883228037682e-001	 1.683622887608587e+001
 1.326757315386556e+000	 1.691782376280751e-001	 1.682952856722697e+001
 1.325128933754593e+000	 1.814925864836480e-001	 1.681136686710332e+001
 1.323380615031666e+000	 1.938298165509578e-001	 1.678155142576840e+001
 1.321511488732461e+000	 2.061883487924906e-001	 1.673989756894114e+001
 1.319520708772674e+000	 2.185665783092878e-001	 1.668622847439896e+001
 1.317407454259216e+000	 2.309628747230723e-001	 1.662037533562553e+001
 1.315170930276537e+000	 2.433755825841267e-001	 1.654217751217411e+001
 1.338314408455002e+000	 1.207419009016752e-001	 1.668816834799926e+001
 1.337151199841961e+000	 1.330065083971812e-001	 1.671440830011937e+001
 1.335871221081416e+000	 1.453001830850599e-001	 1.672980490296400e+001
 1.334473507546488e+000	 1.576214458063730e-001	 1.673415696298229e+001
 1.332957115928210e+000	 1.699687901392152e-001	 1.672727070787145e+001
 1.331321125036354e+000	 1.823406826810837e-001	 1.670895999120340e+001
 1.329564636599780e+000	 1.947355633562836e-001	 1.667904648537061e+001
 1.327686776065484e+000	 2.071518457486217e-001	 1.663735986224359e+001
 1.325686693395498e+000	 2.195879174596117e-001	 1.658373796095042e+001
 1.323563563860780e+000	 2.320421404923866e-001	 1.651802694221145e+001
 1.321316588831224e+000	 2.445128516614836e-001	 1.644008142868725e+001
 1.344539126635463e+000	 1.213034911375085e-001	 1.658956540420999e+001
 1.343370507750096e+000	 1.336251433189218e-001	 1.661579328183331e+001
 1.342084575600195e+000	 1.459759978889938e-001	 1.663117484071913e+001
 1.340680361072242e+000	 1.583545688089778e-001	 1.663552183976340e+001
 1.339156916469786e+000	 1.707593426503553e-001	 1.662865380458408e+001
 1.337513316317994e+000	 1.831887788785194e-001	 1.661039822562200e+001
 1.335748658167719e+000	 1.956413101616095e-001	 1.658059074388140e+001
 1.333862063398268e+000	 2.081153427047527e-001	 1.653907532369369e+001
 1.331852678018007e+000	 2.206092566099353e-001	 1.648570441190901e+001
 1.329719673461947e+000	 2.331214062617010e-001	 1.642033908294307e+001
 1.327462247385419e+000	 2.456501207388404e-001	 1.634284916913319e+001
 1.350763844815924e+000	 1.218650813733418e-001	 1.649373160981850e+001
 1.349589815658226e+000	 1.342437782406623e-001	 1.652014791217333e+001
 1.348297930118955e+000	 1.466518126929277e-001	 1.653571505655410e+001
 1.346887214597952e+000	 1.590876918115826e-001	 1.654025770191617e+001
 1.345356717011284e+000	 1.715498951614955e-001	 1.653360861940063e+001
 1.343705507599511e+000	 1.840368750759551e-001	 1.651560888393607e+001
 1.341932679735483e+000	 1.965470569669354e-001	 1.648610805280009e+001
 1.340037350730813e+000	 2.090788396608837e-001	 1.644496433051488e+001
 1.338018662640203e+000	 2.216305957602590e-001	 1.639204471947605e+001
 1.335875783062715e+000	 2.342006720310153e-001	 1.632722515573525e+001
 1.333607905939121e+000	 2.467873898161972e-001	 1.625039062938832e+001
 1.356988562996385e+000	 1.224266716091751e-001	 1.640061231545305e+001
 1.355809123566352e+000	 1.348624131624029e-001	 1.642741421635349e+001
 1.354511284637695e+000	 1.473276274968616e-001	 1.644336423150378e+001
 1.353094068123619e+000	 1.598208148141874e-001	 1.644829986880191e+001
 1.351556517552706e+000	 1.723404476726357e-001	 1.644206709381763e+001
 1.349897698880909e+000	 1.848849712733908e-001	 1.642452051492199e+001
 1.348116701303070e+000	 1.974528037722612e-001	 1.639552355469508e+001
 1.346212638063118e+000	 2.100423366170147e-001	 1.635494860697932e+001
 1.344184647262086e+000	 2.226519349105828e-001	 1.630267717896867e+001
 1.342031892663085e+000	 2.352799378003296e-001	 1.623860001775179e+001
 1.339753564492330e+000	 2.479246588935540e-001	 1.616261722075348e+001
 1.363213281176847e+000	 1.229882618450085e-001	 1.631015380809873e+001
 1.362028431474473e+000	 1.354810480841434e-001	 1.633753520969547e+001
 1.360724639156415e+000	 1.480034423007955e-001	 1.635406209067005e+001
 1.359300921649242e+000	 1.605539378167922e-001	 1.635958475799707e+001
 1.357756318094050e+000	 1.731310001837758e-001	 1.635396232186399e+001
 1.356089890162184e+000	 1.857330674708265e-001	 1.633706287435443e+001
 1.354300722870483e+000	 1.983585505775870e-001	 1.630876365372759e+001
 1.352387925395184e+000	 2.110058335731457e-001	 1.626895119365323e+001
 1.350350631883655e+000	 2.236732740609065e-001	 1.621752145678560e+001
 1.348188002263058e+000	 2.363592035696439e-001	 1.615437995208905e+001
 1.345899223045047e+000	 2.490619279709109e-001	 1.607944183535557e+001
 1.369437999357309e+000	 1.235498520808418e-001	 1.622230328981677e+001
 1.368247739382590e+000	 1.360996830058840e-001	 1.625045487512634e+001
 1.366937993675117e+000	 1.486792571047294e-001	 1.626774937949297e+001
 1.365507775174822e+000	 1.612870608193971e-001	 1.627404986033372e+001
 1.363956118635316e+000	 1.739215526949160e-001	 1.626922852390692e+001
 1.362282081443339e+000	 1.865811636682623e-001	 1.625316689757471e+001
 1.360484744437721e+000	 1.992642973829129e-001	 1.622575598697885e+001
 1.358563212727011e+000	 2.119693305292767e-001	 1.618689641748123e+001
 1.356516616504911e+000	 2.246946132112302e-001	 1.613649855924583e+001
 1.354344111862633e+000	 2.374384693389583e-001	 1.607448263536862e+001
 1.352044881597271e+000	 2.501991970482677e-001	 1.600077881249222e+001
 1.290588296052860e+000	 2.388265062746995e-001	 1.700105722835423e+001
 1.288271857091194e+000	 2.510216569111112e-001	 1.701684122831864e+001
 1.285832972185600e+000	 2.632295911455616e-001	 1.701749972048122e+001
 1.283270942333249e+000	 2.754486133189352e-001	 1.700291254438818e+001
 1.280585097054086e+000	 2.876770050251312e-001	 1.697297032480096e+001
 1.277774795130042e+000	 2.999130256389632e-001	 1.692757457401033e+001
 1.274839425334991e+000	 3.121549128696127e-001	 1.686663777640050e+001
 1.271778407154506e+000	 3.244008833395572e-001	 1.679008345486784e+001
 1.268591191494459e+000	 3.366491331888644e-001	 1.669784621873988e+001
 1.265277261377502e+000	 3.488978387046960e-001	 1.658987179288525e+001
 1.261836132626474e+000	 3.611451569758364e-001	 1.646611702775067e+001
 1.296733954609519e+000	 2.399637753520563e-001	 1.687857323296043e+001
 1.294406484986235e+000	 2.522169981346605e-001	 1.689571587370212e+001
 1.291955986343029e+000	 2.644830653895706e-001	 1.689808337122136e+001
 1.289381756348487e+000	 2.767602733831036e-001	 1.688554916392168e+001
 1.286683121329789e+000	 2.890468955262723e-001	 1.685799716805149e+001
 1.283859437015448e+000	 3.013411829051992e-001	 1.681532187876863e+001
 1.280910089268736e+000	 3.136413648372041e-001	 1.675742845370326e+001
 1.277834494810873e+000	 3.259456494524913e-001	 1.668423277863306e+001
 1.274632101932992e+000	 3.382522243013181e-001	 1.659566151492498e+001
 1.271302391195951e+000	 3.505592569864999e-001	 1.649165212844319e+001
 1.267844876116982e+000	 3.628648958210532e-001	 1.637215289966818e+001
 1.302879613165684e+000	 2.411010444294131e-001	 1.676132935901156e+001
 1.300541112880693e+000	 2.534123393582051e-001	 1.677962191620527e+001
 1.298079000499804e+000	 2.657365396335601e-001	 1.678348611210750e+001
 1.295492570363019e+000	 2.780719334472283e-001	 1.677278907653357e+001
 1.292781145604755e+000	 2.904167860273358e-001	 1.674740811368724e+001
 1.289944078900106e+000	 3.027693401713133e-001	 1.670723080193453e+001
 1.286980753201741e+000	 3.151278168046198e-001	 1.665215507631838e+001
 1.283890582466525e+000	 3.274904155651850e-001	 1.658208929343644e+001
 1.280673012370860e+000	 3.398553154134574e-001	 1.649695227834542e+001
 1.277327521013805e+000	 3.522206752679050e-001	 1.639667335320074e+001
 1.273853619606984e+000	 3.645846346657764e-001	 1.628119234738495e+001
 1.309025271721357e+000	 2.422383135067699e-001	 1.664922907471560e+001
 1.306675740774568e+000	 2.546076805817448e-001	 1.666846508169432e+001
 1.304202014655926e+000	 2.669900138775305e-001	 1.667361596731363e+001
 1.301603384376846e+000	 2.793835935113094e-001	 1.666454264490798e+001
 1.298879169878984e+000	 2.917866765283215e-001	 1.664111590263110e+001
 1.296028720784013e+000	 3.041974974373056e-001	 1.660321650189826e+001
 1.293051417134003e+000	 3.166142687718596e-001	 1.655073525880476e+001
 1.289946670121465e+000	 3.290351816776388e-001	 1.648357310815268e+001
 1.286713922808064e+000	 3.414584065252823e-001	 1.640164114975779e+001
 1.283352650831062e+000	 3.538820935489111e-001	 1.630486067675429e+001
 1.279862363096480e+000	 3.663043735100058e-001	 1.619316318565932e+001
 1.315170930276537e+000	 2.433755825841267e-001	 1.654217751217411e+001
 1.312810368667860e+000	 2.558030218052796e-001	 1.656215270940136e+001
 1.310325028811393e+000	 2.682434881214816e-001	 1.656838252300205e+001
 1.307714198389966e+000	 2.806952535753470e-001	 1.656072174150393e+001
 1.304977194152475e+000	 2.931565670292294e-001	 1.653903473254689e+001
 1.302113362667171e+000	 3.056256547031763e-001	 1.650319553995144e+001
 1.299122081065525e+000	 3.181007207389234e-001	 1.645308796399398e+001
 1.296002757775690e+000	 3.305799477898525e-001	 1.638860562452831e+001
 1.292754833244602e+000	 3.430614976367929e-001	 1.630965200663504e+001
 1.289377780647723e+000	 3.555435118295183e-001	 1.621614048852430e+001
 1.285871106585470e+000	 3.680241123537415e-001	 1.610799435146414e+001
 1.321316588831224e+000	 2.445128516614836e-001	 1.644008142868725e+001
 1.318944996560569e+000	 2.569983630288098e-001	 1.646059371440441e+001
 1.316448042966206e+000	 2.694969623654132e-001	 1.646769689099806e+001
 1.313825012402383e+000	 2.820069136393409e-001	 1.646123971344468e+001
 1.311075218425229e+000	 2.945264575300596e-001	 1.644108022396167e+001
 1.308198004549580e+000	 3.070538119689249e-001	 1.640708584766146e+001
 1.305192744996304e+000	 3.195871727058114e-001	 1.635913347163515e+001
 1.302058845429203e+000	 3.321247139018262e-001	 1.629710950711495e+001
 1.298795743680476e+000	 3.446645887479892e-001	 1.622090993440531e+001
 1.295402910463789e+000	 3.572049301097267e-001	 1.613044033031761e+001
 1.291879850073953e+000	 3.697438511969835e-001	 1.602561587788849e+001
 1.327462247385419e+000	 2.456501207388404e-001	 1.634284916913319e+001
 1.325079624452694e+000	 2.581937042523350e-001	 1.636369855114934e+001
 1.322571057120365e+000	 2.707504366093256e-001	 1.637147167347392e+001
 1.319935826414092e+000	 2.833185737032912e-001	 1.636601134838159e+001
 1.317173242697245e+000	 2.958963480308120e-001	 1.634716938732897e+001
 1.314282646431239e+000	 3.084819692345517e-001	 1.631480669515213e+001
 1.311263408926343e+000	 3.210736246725234e-001	 1.626879334791083e+001
 1.308114933082002e+000	 3.336694800135597e-001	 1.620900865403761e+001
 1.304836654115685e+000	 3.462676798588709e-001	 1.613534119849035e+001
 1.301428040279259e+000	 3.588663483895360e-001	 1.604768886965183e+001
 1.297888593561930e+000	 3.714635900397317e-001	 1.594595886876486e+001
 1.333607905939121e+000	 2.467873898161972e-001	 1.625039062938832e+001
 1.331214252344237e+000	 2.593890454758555e-001	 1.627137917798065e+001
 1.328694071273870e+000	 2.720039108532185e-001	 1.627962092860876e+001
 1.326046640425096e+000	 2.846302337671979e-001	 1.627495284130249e+001
 1.323271266968524e+000	 2.972662385314867e-001	 1.625722059100302e+001
 1.320367288312149e+000	 3.099101265000568e-001	 1.622627866026139e+001
 1.317334072855639e+000	 3.225600766390596e-001	 1.618199041579551e+001
 1.314171020734088e+000	 3.352142461250533e-001	 1.612422816857142e+001
 1.310877564550228e+000	 3.478707709694385e-001	 1.605287321711656e+001
 1.307453170094133e+000	 3.605277666689466e-001	 1.596781587381721e+001
 1.303897337049401e+000	 3.731833288819864e-001	 1.586895547399748e+001
 1.339753564492330e+000	 2.479246588935540e-001	 1.616261722075348e+001
 1.337348880235197e+000	 2.605843866993711e-001	 1.618354902264845e+001
 1.334817085426721e+000	 2.732573850970922e-001	 1.619206013719411e+001
 1.332157454435394e+000	 2.859418938310609e-001	 1.618798176225324e+001
 1.329369291239065e+000	 2.986361290320836e-001	 1.617115353009410e+001
 1.326451930192309e+000	 3.113382837654399e-001	 1.614142359854785e+001
 1.323404736784195e+000	 3.240465286054199e-001	 1.609864872623036e+001
 1.320227108385460e+000	 3.367590122363067e-001	 1.604269433150060e+001
 1.316918474984107e+000	 3.494738620796915e-001	 1.597343453487451e+001
 1.313478299908411e+000	 3.621891849479583e-001	 1.589075218465258e+001
 1.309906080536366e+000	 3.749030677237471e-001	 1.579453886556988e+001
 1.345899223045047e+000	 2.490619279709109e-001	 1.607944183535557e+001
 1.343483508125573e+000	 2.617797279228818e-001	 1.610012294876022e+001
 1.340940099578917e+000	 2.745108593409465e-001	 1.610870617015409e+001
 1.338268268444987e+000	 2.872535538948804e-001	 1.610501702494372e+001
 1.335467315508869e+000	 3.000060195326028e-001	 1.608888919617720e+001
 1.332536572071719e+000	 3.127664410307014e-001	 1.606016461411905e+001
 1.329475400712008e+000	 3.255329805716042e-001	 1.601869353008711e+001
 1.326283196036120e+000	 3.383037783473202e-001	 1.596433457423469e+001
 1.322959385417321e+000	 3.510769531896302e-001	 1.589695479700286e+001
 1.319503429722092e+000	 3.638506032265709e-001	 1.581642969401225e+001
 1.315914824022824e+000	 3.766228065650143e-001	 1.572264321420986e+001
 1.352044881597271e+000	 2.501991970482677e-001	 1.600077881249222e+001
 1.349618136015367e+000	 2.629750691463879e-001	 1.602101722314778e+001
 1.347063113730461e+000	 2.757643335847816e-001	 1.602947725695146e+001
 1.344379082453875e+000	 2.885652139586563e-001	 1.602597885620985e+001
 1.341565339777935e+000	 3.013759100330443e-001	 1.601034984782726e+001
 1.338621213950380e+000	 3.141945982958410e-001	 1.598242603125540e+001
 1.335546064639080e+000	 3.270194325376127e-001	 1.594205125089728e+001
 1.332339283686066e+000	 3.398485444580937e-001	 1.588907745265775e+001
 1.329000295849871e+000	 3.526800442992546e-001	 1.582336472437364e+001
 1.325528559535179e+000	 3.655120215047849e-001	 1.574478131990200e+001
 1.321923567508776e+000	 3.783425454057877e-001	 1.565320366669052e+001
 1.261836132626474e+000	 3.611451569758364e-001	 1.646611702775067e+001
 1.258267354534074e+000	 3.733892265714638e-001	 1.640439967535487e+001
 1.254570510516933e+000	 3.856281682454602e-001	 1.632207605803122e+001
 1.250745218753666e+000	 3.978600856650659e-001	 1.621962546524141e+001
 1.246791132806623e+000	 4.100830661622986e-001	 1.617901144420215e+001
 1.242707942225439e+000	 4.222951815093538e-001	 1.614126986555177e+001
 1.238495373131757e+000	 4.344944887170473e-001	 1.608780381335381e+001
 1.234153188784163e+000	 4.466790308558273e-001	 1.601895152439292e+001
 1.229681190122411e+000	 4.588468378988386e-001	 1.593505754766029e+001
 1.225079216290032e+000	 4.709959275864864e-001	 1.583647241123212e+001
 1.220347145134396e+000	 4.831243063119005e-001	 1.572355228817645e+001
 1.267844876116982e+000	 3.628648958210532e-001	 1.637215289966818e+001
 1.264259103842601e+000	 3.751672705102122e-001	 1.632357668925197e+001
 1.260544655805752e+000	 3.874644928590800e-001	 1.625533266705215e+001
 1.256701148366852e+000	 3.997546575047409e-001	 1.616782665802892e+001
 1.252728233438547e+000	 4.120358426712701e-001	 1.606148479844055e+001
 1.248625599092139e+000	 4.243061109488259e-001	 1.597135560218590e+001
 1.244392970145088e+000	 4.365635100958947e-001	 1.593498511163374e+001
 1.240030108728639e+000	 4.488060738642126e-001	 1.588385191659457e+001
 1.235536814834642e+000	 4.610318228458442e-001	 1.581821406313124e+001
 1.230912926840644e+000	 4.732387653418635e-001	 1.573833376932976e+001
 1.226158322012335e+000	 4.854248982520339e-001	 1.564447715345083e+001
 1.273853619606984e+000	 3.645846346657764e-001	 1.628119234738495e+001
 1.270250853150723e+000	 3.769453144483717e-001	 1.624437324001181e+001
 1.266518801094265e+000	 3.893008174720253e-001	 1.618881317394985e+001
 1.262657077979832e+000	 4.016492293436657e-001	 1.611484507621415e+001
 1.258665334070365e+000	 4.139886191794255e-001	 1.602282040913597e+001
 1.254543255958833e+000	 4.263170403874259e-001	 1.591310883486694e+001
 1.250290567158513e+000	 4.386325314738243e-001	 1.578609784623244e+001
 1.245907028673310e+000	 4.509331168716443e-001	 1.574400963003714e+001
 1.241392439547168e+000	 4.632168077918706e-001	 1.569519549174769e+001
 1.236746637391651e+000	 4.754816030962458e-001	 1.563258173548853e+001
 1.231969498890770e+000	 4.877254901911676e-001	 1.555634501582982e+001
 1.279862363096480e+000	 3.663043735100058e-001	 1.619316318565932e+001
 1.276242602458439e+000	 3.787233583859422e-001	 1.616673589747772e+001
 1.272492946382471e+000	 3.911371420842962e-001	 1.612248306697165e+001
 1.268613007592605e+000	 4.035438011818406e-001	 1.606066528288849e+001
 1.264602434702077e+000	 4.159413956867651e-001	 1.598155990655043e+001
 1.260460912825522e+000	 4.283279698251543e-001	 1.588546077933797e+001
 1.256188164172033e+000	 4.407015528508360e-001	 1.577267789940083e+001
 1.251783948618175e+000	 4.530601598781223e-001	 1.564353706784184e+001
 1.247248064259989e+000	 4.654017927369174e-001	 1.556608556382617e+001
 1.242580347943052e+000	 4.777244408496331e-001	 1.551932025450052e+001
 1.237780675769699e+000	 4.900260821293011e-001	 1.545928015194762e+001
 1.285871106585470e+000	 3.680241123537415e-001	 1.610799435146414e+001
 1.282234351765748e+000	 3.805014023229239e-001	 1.609061199419826e+001
 1.278467091670372e+000	 3.929734666958928e-001	 1.605630823448394e+001
 1.274568937205172e+000	 4.054383730192653e-001	 1.600527187573533e+001
 1.270539535333684e+000	 4.178941721932887e-001	 1.593770674427307e+001
 1.266378569692205e+000	 4.303388992620106e-001	 1.585383143945426e+001
 1.262085761185648e+000	 4.427705742269299e-001	 1.575387905588760e+001
 1.257660868563236e+000	 4.551872028836466e-001	 1.563809687796666e+001
 1.253103688973104e+000	 4.675867776809851e-001	 1.550674604703163e+001
 1.248414058494848e+000	 4.799672786020257e-001	 1.539865105885007e+001
 1.243591852649123e+000	 4.923266740664346e-001	 1.535340424409354e+001
 1.291879850073953e+000	 3.697438511969835e-001	 1.602561587788849e+001
 1.288226101072650e+000	 3.822794462593167e-001	 1.601594960768983e+001
 1.284441236957966e+000	 3.948097913068150e-001	 1.599025495566716e+001
 1.280524866817533e+000	 4.073329448559399e-001	 1.594864948622568e+001
 1.276476635965185e+000	 4.198469486989962e-001	 1.589126404991760e+001
 1.272296226558883e+000	 4.323498286979950e-001	 1.581824257588914e+001
 1.267983358199356e+000	 4.448395956021060e-001	 1.572974183924950e+001
 1.263537788508491e+000	 4.573142458882172e-001	 1.562593120358300e+001
 1.258959313686514e+000	 4.697717626240733e-001	 1.550699233889791e+001
 1.254247769047039e+000	 4.822101163534234e-001	 1.537311891537781e+001
 1.249403029529041e+000	 4.946272660025681e-001	 1.523883644054546e+001
 1.297888593561930e+000	 3.714635900397317e-001	 1.594595886876486e+001
 1.294217850379147e+000	 3.840574901951206e-001	 1.594269754319223e+001
 1.290415382245255e+000	 3.966461159170628e-001	 1.592428989146916e+001
 1.286480796429689e+000	 4.092275166918644e-001	 1.589078277883595e+001
 1.282413736596580e+000	 4.217997252038879e-001	 1.584223463266803e+001
 1.278213883425554e+000	 4.343607581331077e-001	 1.577871527691389e+001
 1.273880955213159e+000	 4.469086169763641e-001	 1.570030574427084e+001
 1.269414708453940e+000	 4.594412888918341e-001	 1.560709806630912e+001
 1.264814938400219e+000	 4.719567475661822e-001	 1.549919504182042e+001
 1.260081479599625e+000	 4.844529541038264e-001	 1.537670998373423e+001
 1.255214206409455e+000	 4.969278579377017e-001	 1.523976644501218e+001
 1.303897337049401e+000	 3.731833288819864e-001	 1.586895547399748e+001
 1.300209599685237e+000	 3.858355341303357e-001	 1.587080531690070e+001
 1.296389527532237e+000	 3.984824405266363e-001	 1.585838007580876e+001
 1.292436726041638e+000	 4.111220885270387e-001	 1.583165645028755e+001
 1.288350837227868e+000	 4.237525017079636e-001	 1.579062099061582e+001
 1.284131540292220e+000	 4.363716875673482e-001	 1.573526997389088e+001
 1.279778552227057e+000	 4.489776383497044e-001	 1.566560926066789e+001
 1.275291628399585e+000	 4.615683318944975e-001	 1.558165413233193e+001
 1.270670563114219e+000	 4.741417325073116e-001	 1.548342910946300e+001
 1.265915190152606e+000	 4.866957918532345e-001	 1.537096775151440e+001
 1.261025383290364e+000	 4.992284498718352e-001	 1.524431243818631e+001
 1.309906080536366e+000	 3.749030677237471e-001	 1.579453886556988e+001
 1.306201348990921e+000	 3.876135780649618e-001	 1.580022313965951e+001
 1.302363672818912e+000	 4.003187651355353e-001	 1.579249290702125e+001
 1.298392655653381e+000	 4.130166603614630e-001	 1.577125522880718e+001
 1.294287937859051e+000	 4.257052782112232e-001	 1.573642531789491e+001
 1.290049197158880e+000	 4.383826170007169e-001	 1.568792645634040e+001
 1.285676149241049e+000	 4.510466597221270e-001	 1.562568989614090e+001
 1.281168548345423e+000	 4.636953748962070e-001	 1.554965474349481e+001
 1.276526187828513e+000	 4.763267174474617e-001	 1.545976782680334e+001
 1.271748900705982e+000	 4.889386296016478e-001	 1.535598354871140e+001
 1.266836560171767e+000	 5.015290418049688e-001	 1.523826372254274e+001
 1.315914824022824e+000	 3.766228065650143e-001	 1.572264321420986e+001
 1.312193098296199e+000	 3.893916219989991e-001	 1.573090190110268e+001
 1.308337818105282e+000	 4.021550897437600e-001	 1.572659613953854e+001
 1.304348585264918e+000	 4.149112321951373e-001	 1.570956387340784e+001
 1.300225038490128e+000	 4.276580547136670e-001	 1.567964951162147e+001
 1.295966854025535e+000	 4.403935464332138e-001	 1.563670388659445e+001
 1.291573746255135e+000	 4.531156810936318e-001	 1.558058419879447e+001
 1.287045468291457e+000	 4.658224178969629e-001	 1.551115394753378e+001
 1.282381812543102e+000	 4.785117023866325e-001	 1.542828284823045e+001
 1.277582611259752e+000	 4.911814673490662e-001	 1.533184673641709e+001
 1.272647737053665e+000	 5.038296337371023e-001	 1.522172745882258e+001
 1.321923567508776e+000	 3.783425454057877e-001	 1.565320366669052e+001
 1.318184847601070e+000	 3.911696659324475e-001	 1.566279315422654e+001
 1.314311963391346e+000	 4.039914143513104e-001	 1.566065787579593e+001
 1.310304514876250e+000	 4.168058040280615e-001	 1.564656717318873e+001
 1.306162139121100e+000	 4.296108312152950e-001	 1.562029517864433e+001
 1.301884510892183e+000	 4.424044758648388e-001	 1.558162081405100e+001
 1.297471343269316e+000	 4.551847024642187e-001	 1.553032777894677e+001
 1.292922388237685e+000	 4.679494608967651e-001	 1.546620452748908e+001
 1.288237437257986e+000	 4.806966873248238e-001	 1.538904423460382e+001
 1.283416321813917e+000	 4.934243050954899e-001	 1.529864475156968e+001
 1.278458913936058e+000	 5.061302256682358e-001	 1.519480855133659e+001
 1.220347145134396e+000	 4.831243063119005e-001	 1.572355228817645e+001
 1.215484893683302e+000	 4.952299700270678e-001	 1.566986843013993e+001
 1.210492418597383e+000	 5.073109051678272e-001	 1.560913880445656e+001
 1.205369716597434e+000	 5.193650895976029e-001	 1.554100566038204e+001
 1.200116824865638e+000	 5.313904935700602e-001	 1.546510062345222e+001
 1.194733821420096e+000	 5.433850807087116e-001	 1.538104493521839e+001
 1.189220825461820e+000	 5.553468090030068e-001	 1.528844972395969e+001
 1.183577997693454e+000	 5.672736318200320e-001	 1.518691630661344e+001
 1.177805540609003e+000	 5.791634989309156e-001	 1.507603652208097e+001
 1.171903698753873e+000	 5.910143575509977e-001	 1.495539309597694e+001
 1.165872758954601e+000	 6.028241533927892e-001	 1.482456003680216e+001
 1.226158322012335e+000	 4.854248982520339e-001	 1.564447715345083e+001
 1.221272916982444e+000	 4.975882079851816e-001	 1.559869192053771e+001
 1.216256668205261e+000	 5.097266713886675e-001	 1.554431550638681e+001
 1.211109572385965e+000	 5.218382566966936e-001	 1.548106018260990e+001
 1.205831666883797e+000	 5.339209244974659e-001	 1.540862956365402e+001
 1.200423030088374e+000	 5.459726287174647e-001	 1.532671879641482e+001
 1.194883781768332e+000	 5.579913176222797e-001	 1.523501477781236e+001
 1.189214083391567e+000	 5.699749348331251e-001	 1.513319640061230e+001
 1.183414138416342e+000	 5.819214203581342e-001	 1.502093482769827e+001
 1.177484192552564e+000	 5.938287116374814e-001	 1.489789379491931e+001
 1.171424533992611e+000	 6.056947446013554e-001	 1.476372994255319e+001
 1.231969498890770e+000	 4.877254901911676e-001	 1.555634501582982e+001
 1.227060940282177e+000	 4.999464459422999e-001	 1.551977466658872e+001
 1.222020917813814e+000	 5.121424376085272e-001	 1.547308571001696e+001
 1.216849428175245e+000	 5.243114237948283e-001	 1.541605991972894e+001
 1.211546508902772e+000	 5.364513554239500e-001	 1.534847236135604e+001
 1.206112238757523e+000	 5.485601767253410e-001	 1.527009153230539e+001
 1.200546738075762e+000	 5.606358262407299e-001	 1.518067952649178e+001
 1.194850169090635e+000	 5.726762378454601e-001	 1.507999222436852e+001
 1.189022736224660e+000	 5.846793417846693e-001	 1.496777950851059e+001
 1.183064686352249e+000	 5.966430657233662e-001	 1.484378550492996e+001
 1.176976309031620e+000	 6.085653358094177e-001	 1.470774885022377e+001
 1.237780675769699e+000	 4.900260821293011e-001	 1.545928015194762e+001
 1.232848963582499e+000	 5.023046838984232e-001	 1.543322244791492e+001
 1.227785167423042e+000	 5.145582038274064e-001	 1.539553648701055e+001
 1.222589283965277e+000	 5.267845908920074e-001	 1.534607303161695e+001
 1.217261350922564e+000	 5.389817863495127e-001	 1.528467806812453e+001
 1.211801447427546e+000	 5.511477247323400e-001	 1.521119289709905e+001
 1.206209694384111e+000	 5.632803348583576e-001	 1.512545424545826e+001
 1.200486254790656e+000	 5.753775408570370e-001	 1.502729440102593e+001
 1.194631334033957e+000	 5.874372632105207e-001	 1.491654136976554e+001
 1.188645180152929e+000	 5.994574198086521e-001	 1.479301905592734e+001
 1.182528084071630e+000	 6.114359270169761e-001	 1.465654746527168e+001
 1.243591852649123e+000	 4.923266740664346e-001	 1.535340424409354e+001
 1.238636986883412e+000	 5.046629218535516e-001	 1.533913879382319e+001
 1.233549417032946e+000	 5.169739700453053e-001	 1.531175300698391e+001
 1.228329139756061e+000	 5.292577579882303e-001	 1.527116612847750e+001
 1.222976192943172e+000	 5.415122172741537e-001	 1.521729454219340e+001
 1.217490656098441e+000	 5.537352727384620e-001	 1.515005181184317e+001
 1.211872650693378e+000	 5.659248434751627e-001	 1.506934874086618e+001
 1.206122340491632e+000	 5.780788438678557e-001	 1.497509345181618e+001
 1.200239931844235e+000	 5.901951846356888e-001	 1.486719148557929e+001
 1.194225673954604e+000	 6.022717738933393e-001	 1.474554592071272e+001
 1.188079859112640e+000	 6.143065182240304e-001	 1.461005751312717e+001
 1.249403029529041e+000	 4.946272660025681e-001	 1.523883644054546e+001
 1.244425010184914e+000	 5.070211598076847e-001	 1.523762503563816e+001
 1.239313666643525e+000	 5.193897362622238e-001	 1.522181858173967e+001
 1.234068995547595e+000	 5.317309250834974e-001	 1.519140430687892e+001
 1.228691034964597e+000	 5.440426481978735e-001	 1.514636847621619e+001
 1.223179864770208e+000	 5.563228207437070e-001	 1.508669638379940e+001
 1.217535607003563e+000	 5.685693520911452e-001	 1.501237236047835e+001
 1.211758426193561e+000	 5.807801468779162e-001	 1.492337979842856e+001
 1.205848529655491e+000	 5.929531060601730e-001	 1.481970119268351e+001
 1.199806167757274e+000	 6.050861279774277e-001	 1.470131820001892e+001
 1.193631634154650e+000	 6.171771094305811e-001	 1.456821171547295e+001
 1.255214206409455e+000	 4.969278579377017e-001	 1.523976644501218e+001
 1.250213033487006e+000	 5.093793977608226e-001	 1.513381753224131e+001
 1.245077916254780e+000	 5.218055024781617e-001	 1.512581470827173e+001
 1.239808851339880e+000	 5.342040921778085e-001	 1.510685118479208e+001
 1.234405876986839e+000	 5.465730791206718e-001	 1.507194542424716e+001
 1.228869073442848e+000	 5.589103687480748e-001	 1.502115392528119e+001
 1.223198563314667e+000	 5.712138607063051e-001	 1.495453400427644e+001
 1.217394511896444e+000	 5.834814498872188e-001	 1.487214376531428e+001
 1.211457127467728e+000	 5.957110274839740e-001	 1.477404208434669e+001
 1.205386661560939e+000	 6.079004820609172e-001	 1.466028860797509e+001
 1.199183409197659e+000	 6.200477006366276e-001	 1.453094376718252e+001
 1.261025383290364e+000	 4.992284498718352e-001	 1.524431243818631e+001
 1.256001056789689e+000	 5.117376357129655e-001	 1.515341962979185e+001
 1.250842165866710e+000	 5.242212686931194e-001	 1.504342459029678e+001
 1.245548707132915e+000	 5.366772592711637e-001	 1.501756893565962e+001
 1.240120719009897e+000	 5.491035100425487e-001	 1.499406982797622e+001
 1.234558282116361e+000	 5.614979167515658e-001	 1.495345097197078e+001
 1.228861519626688e+000	 5.738583693206421e-001	 1.489584213477901e+001
 1.223030597600281e+000	 5.861827528957632e-001	 1.482137558192724e+001
 1.217065725280943e+000	 5.984689489070912e-001	 1.473018600446293e+001
 1.210967155365598e+000	 6.107148361438078e-001	 1.462241045797314e+001
 1.204735184241669e+000	 6.229182918421702e-001	 1.449818831389668e+001
 1.266836560171767e+000	 5.015290418049688e-001	 1.523826372254274e+001
 1.261789080092961e+000	 5.140958736641133e-001	 1.516361031529365e+001
 1.256606415479315e+000	 5.266370349070965e-001	 1.506837724913688e+001
 1.251288562926703e+000	 5.391504263635633e-001	 1.495310698857896e+001
 1.245835561033773e+000	 5.516339409635042e-001	 1.491278504224194e+001
 1.240247490790746e+000	 5.640854647541796e-001	 1.488361330073157e+001
 1.234524475939628e+000	 5.765028779341568e-001	 1.483630478707464e+001
 1.228666683305071e+000	 5.888840559035494e-001	 1.477106538490233e+001
 1.222674323095138e+000	 6.012268703295253e-001	 1.468810504180367e+001
 1.216547649171253e+000	 6.135291902260998e-001	 1.458763764892310e+001
 1.210286959286679e+000	 6.257888830472089e-001	 1.448230763858972e+001
 1.272647737053665e+000	 5.038296337371023e-001	 1.522172745882258e+001
 1.267577103396824e+000	 5.164541116142659e-001	 1.516447981928768e+001
 1.262370665092596e+000	 5.290528011200930e-001	 1.508519032542985e+001
 1.257028418721241e+000	 5.416235934550069e-001	 1.498447390862341e+001
 1.251550403058464e+000	 5.541643718835381e-001	 1.486296605893470e+001
 1.245936699466003e+000	 5.666730127559165e-001	 1.481166594693302e+001
 1.240187432253486e+000	 5.791473865468488e-001	 1.477592957858102e+001
 1.234302769010816e+000	 5.915853589105777e-001	 1.472120322017515e+001
 1.228282920910313e+000	 6.039847917512753e-001	 1.464777152442685e+001
 1.222128142977902e+000	 6.163435443077926e-001	 1.455592465188523e+001
 1.215838734332688e+000	 6.286594742517438e-001	 1.450116141456403e+001
 1.278458913936058e+000	 5.061302256682358e-001	 1.519480855133659e+001
 1.273365126701276e+000	 5.188123495634235e-001	 1.515611641510442e+001
 1.268134914706553e+000	 5.314685673321096e-001	 1.509393526539124e+001
 1.262768274516529e+000	 5.440967605454945e-001	 1.500895210800241e+001
 1.257265245083973e+000	 5.566948028026507e-001	 1.490187659050273e+001
 1.251625908142133e+000	 5.692605607567765e-001	 1.477344021001900e+001
 1.245850388568263e+000	 5.817918951587184e-001	 1.471472371853708e+001
 1.239938854717515e+000	 5.942866619168478e-001	 1.467177904504296e+001
 1.233891518726467e+000	 6.067427131723422e-001	 1.460915801423885e+001
 1.227708636785547e+000	 6.191578983888870e-001	 1.452722649706653e+001
 1.221390509379698e+000	 6.315300654557748e-001	 1.452050457562546e+001
 1.165872758954601e+000	 6.028241533927892e-001	 1.482456003680216e+001
 1.159713050517611e+000	 6.145908317303234e-001	 1.452631102753310e+001
 1.153424945396524e+000	 6.263123384749760e-001	 1.424229488031026e+001
 1.147008858327361e+000	 6.379866212610443e-001	 1.417867797513767e+001
 1.140465246931159e+000	 6.496116305391353e-001	 1.411129178956653e+001
 1.133794611783604e+000	 6.611853206773725e-001	 1.404041694490483e+001
 1.126997496451237e+000	 6.727056510689237e-001	 1.396633061359517e+001
 1.120074487493868e+000	 6.841705872446738e-001	 1.388930604977649e+001
 1.113026214432879e+000	 6.955781019898621e-001	 1.380961212716516e+001
 1.105853349685127e+000	 7.069261764634712e-001	 1.372751288539872e+001
 1.098556608462243e+000	 7.182128013191493e-001	 1.364326708597180e+001
 1.171424533992611e+000	 6.056947446013554e-001	 1.476372994255319e+001
 1.165235493611013e+000	 6.175174547395376e-001	 1.446210871953134e+001
 1.158917445132575e+000	 6.292947781821878e-001	 1.423883490393059e+001
 1.152470805268254e+000	 6.410246527904341e-001	 1.416916821623357e+001
 1.145896033818234e+000	 6.527050192551248e-001	 1.409704023838011e+001
 1.139193633741894e+000	 6.643338222032807e-001	 1.402274044582092e+001
 1.132364151194188e+000	 6.759090113108943e-001	 1.394655368726237e+001
 1.125408175528069e+000	 6.874285424209039e-001	 1.386875969522492e+001
 1.118326339262638e+000	 6.988903786651450e-001	 1.378963260537542e+001
 1.111119318016739e+000	 7.102924915890725e-001	 1.370944048582564e+001
 1.103787830407771e+000	 7.216328622780193e-001	 1.362844487757632e+001
 1.176976309031620e+000	 6.085653358094177e-001	 1.470774885022377e+001
 1.170757936705409e+000	 6.204440777483384e-001	 1.440279880708306e+001
 1.164409944869606e+000	 6.322772178890564e-001	 1.423632212927748e+001
 1.157932752210102e+000	 6.440626843195312e-001	 1.416054913396635e+001
 1.151326820706229e+000	 6.557984079708527e-001	 1.408361450379868e+001
 1.144592655701061e+000	 6.674823237289381e-001	 1.400581657932420e+001
 1.137730805937961e+000	 6.791123715526054e-001	 1.392744790098427e+001
 1.130741863563027e+000	 6.906864975968451e-001	 1.384879469966682e+001
 1.123626464093079e+000	 7.022026553400900e-001	 1.377013639748353e+001
 1.116385286348948e+000	 7.136588067142663e-001	 1.369174512001571e+001
 1.109019052353801e+000	 7.250529232363918e-001	 1.361388522125136e+001
 1.182528084071630e+000	 6.114359270169761e-001	 1.465654746527168e+001
 1.176280379800800e+000	 6.233707007567252e-001	 1.434831183334263e+001
 1.169902444607618e+000	 6.352596575955820e-001	 1.423468410997531e+001
 1.163394699152906e+000	 6.471007158483360e-001	 1.415274810645241e+001
 1.156757607595146e+000	 6.588917966863193e-001	 1.407094194148526e+001
 1.149991677661103e+000	 6.706308252543453e-001	 1.398957283240475e+001
 1.143097460682557e+000	 6.823157317940569e-001	 1.390894102748782e+001
 1.136075551598742e+000	 6.939444527724977e-001	 1.382933927650619e+001
 1.128926588924204e+000	 7.055149320146970e-001	 1.375105231294433e+001
 1.121651254681754e+000	 7.170251218390527e-001	 1.367435634917950e+001
 1.114250274300334e+000	 7.284729841942672e-001	 1.359951858589863e+001
 1.188079859112640e+000	 6.143065182240304e-001	 1.461005751312717e+001
 1.181802822897186e+000	 6.262973237646983e-001	 1.432309491585485e+001
 1.175394944346610e+000	 6.382420973017641e-001	 1.423384942545087e+001
 1.168856646096666e+000	 6.501387473768482e-001	 1.414569353650096e+001
 1.162188394484983e+000	 6.619851854015243e-001	 1.405895092798816e+001
 1.155390699622023e+000	 6.737793267795016e-001	 1.397393770642272e+001
 1.148464115427974e+000	 6.855190920352492e-001	 1.389096184463863e+001
 1.141409239635215e+000	 6.972024079478616e-001	 1.381032263233395e+001
 1.134226713756010e+000	 7.088272086889655e-001	 1.373231013972013e+001
 1.126917223015159e+000	 7.203914369634316e-001	 1.365720469562670e+001
 1.119481496247369e+000	 7.318930451516450e-001	 1.358527638138050e+001
 1.193631634154650e+000	 6.171771094305811e-001	 1.456821171547295e+001
 1.187325265994568e+000	 6.292239467722579e-001	 1.433053560461690e+001
 1.180887444086582e+000	 6.412245370076033e-001	 1.423374765707705e+001
 1.174318593041381e+000	 6.531767789050682e-001	 1.413931482778396e+001
 1.167619181375742e+000	 6.650785741164678e-001	 1.404757083699942e+001
 1.160789721583818e+000	 6.769278283044076e-001	 1.395884069351801e+001
 1.153830770174212e+000	 6.887224522761819e-001	 1.387344011206628e+001
 1.146742927672444e+000	 7.004603631229369e-001	 1.379167494382938e+001
 1.139526838588499e+000	 7.121394853628966e-001	 1.371384062152429e+001
 1.132183191349160e+000	 7.237577520874027e-001	 1.364022162041487e+001
 1.124712718194908e+000	 7.353131061085256e-001	 1.357109093663718e+001
 1.199183409197659e+000	 6.200477006366276e-001	 1.453094376718252e+001
 1.192847709092944e+000	 6.321505697794034e-001	 1.433868925500668e+001
 1.186379943827534e+000	 6.442069767130992e-001	 1.423430936498019e+001
 1.179780539987052e+000	 6.562148104329960e-001	 1.413354236166804e+001
 1.173049968267421e+000	 6.681719628311499e-001	 1.403673201627277e+001
 1.166188743546491e+000	 6.800763298290634e-001	 1.394421225367591e+001
 1.159197424921272e+000	 6.919258125168547e-001	 1.385630654843789e+001
 1.152076615710431e+000	 7.037183182977235e-001	 1.377332733530529e+001
 1.144826963421670e+000	 7.154517620364894e-001	 1.369557543569776e+001
 1.137449159683760e+000	 7.271240672109663e-001	 1.362333950161922e+001
 1.129943940142948e+000	 7.387331670649088e-001	 1.355689547841175e+001
 1.204735184241669e+000	 6.229182918421702e-001	 1.449818831389668e+001
 1.198370152192316e+000	 6.350771927861355e-001	 1.434748770499942e+001
 1.191872443569467e+000	 6.471894164182518e-001	 1.423546606548762e+001
 1.185242486933679e+000	 6.592528419606312e-001	 1.412830747468695e+001
 1.178480755160022e+000	 6.712653515455702e-001	 1.402636576517991e+001
 1.171587765510039e+000	 6.832248313534683e-001	 1.392998379242634e+001
 1.164564079669155e+000	 6.951291727572683e-001	 1.383949280936069e+001
 1.157410303749174e+000	 7.069762734722216e-001	 1.375521185687277e+001
 1.150127088255524e+000	 7.187640387097445e-001	 1.367744717169652e+001
 1.142715128018957e+000	 7.304903823341225e-001	 1.360649161320314e+001
 1.135175162091492e+000	 7.421532280207945e-001	 1.354262411056333e+001
 1.210286959286679e+000	 6.257888830472089e-001	 1.448230763858972e+001
 1.203892595292683e+000	 6.380038157924538e-001	 1.435686372540362e+001
 1.197364943312380e+000	 6.501718561230614e-001	 1.423715020919690e+001
 1.190704433881261e+000	 6.622908734879738e-001	 1.412354243663414e+001
 1.183911542053544e+000	 6.743587402597295e-001	 1.401640431288431e+001
 1.176986787474464e+000	 6.863733328776229e-001	 1.391608763915701e+001
 1.169930734417858e+000	 6.983325329974223e-001	 1.382293146589251e+001
 1.162743991788675e+000	 7.102342286464308e-001	 1.373726146320722e+001
 1.155427213090060e+000	 7.220763153826617e-001	 1.365938931017191e+001
 1.147981096354751e+000	 7.338566974568713e-001	 1.358961210447048e+001
 1.140406384040538e+000	 7.455732889761829e-001	 1.352821179395012e+001
 1.215838734332688e+000	 6.286594742517438e-001	 1.450116141456403e+001
 1.209415038394044e+000	 6.409304387983582e-001	 1.436675099856328e+001
 1.202857443056273e+000	 6.531542958275278e-001	 1.423929515964511e+001
 1.196166380829798e+000	 6.653289050150241e-001	 1.411918042925529e+001
 1.189342328947986e+000	 6.774521289736269e-001	 1.400678079711305e+001
 1.182385809439765e+000	 6.895218344015270e-001	 1.390245702602088e+001
 1.175297389167384e+000	 7.015358932373168e-001	 1.380655598364110e+001
 1.168077679828933e+000	 7.134921838203514e-001	 1.371940999289633e+001
 1.160727337925278e+000	 7.253885920552406e-001	 1.364133620262352e+001
 1.153247064691144e+000	 7.372230125792125e-001	 1.357263598008018e+001
 1.145637605990086e+000	 7.489933499310741e-001	 1.351359432686272e+001
 1.221390509379698e+000	 6.315300654557748e-001	 1.452050457562546e+001
 1.214937481496401e+000	 6.438570618038492e-001	 1.437708409764124e+001
 1.208349942801147e+000	 6.561367355316510e-001	 1.424183517256038e+001
 1.201628327779292e+000	 6.683669365417821e-001	 1.411515552552230e+001
 1.194773115843350e+000	 6.805455176872632e-001	 1.399742924350779e+001
 1.187784831405943e+000	 6.926703359251807e-001	 1.388902606741863e+001
 1.180664043917732e+000	 7.047392534769517e-001	 1.379030070243351e+001
 1.173411367869948e+000	 7.167501389939834e-001	 1.370159214835135e+001
 1.166027462761179e+000	 7.287008687274819e-001	 1.362322305160702e+001
 1.158513033028134e+000	 7.405893277011462e-001	 1.355549908060692e+001
 1.150868827940138e+000	 7.524134108854679e-001	 1.349870832599190e+001
 1.098556608462243e+000	 7.182128013191493e-001	 1.364326708597180e+001
 1.091136748635354e+000	 7.294359778269249e-001	 1.344669877403786e+001
 1.083594570564436e+000	 7.405937189929704e-001	 1.325897857947880e+001
 1.075930916892669e+000	 7.516840506771499e-001	 1.308051294155844e+001
 1.068146672306228e+000	 7.627050127080841e-001	 1.291169284113740e+001
 1.060242763258839e+000	 7.736546599929642e-001	 1.275289320966338e+001
 1.052220157661439e+000	 7.845310636213430e-001	 1.260447236405849e+001
 1.044079864537042e+000	 7.953323119616225e-001	 1.246677146883083e+001
 1.035822933641014e+000	 8.060565117489711e-001	 1.234011402668075e+001
 1.027450455046986e+000	 8.167017891634023e-001	 1.222480539880132e+001
 1.018963558698707e+000	 8.272662908967493e-001	 1.212113235600284e+001
 1.103787830407771e+000	 7.216328622780193e-001	 1.362844487757632e+001
 1.096332637915698e+000	 7.329094824841301e-001	 1.343749832705950e+001
 1.088754544711658e+000	 7.441203557515801e-001	 1.325509577936962e+001
 1.081054397451420e+000	 7.552634985395654e-001	 1.308162974982544e+001
 1.073233085033947e+000	 7.663369413425578e-001	 1.291747749049557e+001
 1.065291538324651e+000	 7.773387298054004e-001	 1.276300041358512e+001
 1.057230729843569e+000	 7.882669258323591e-001	 1.261854354063365e+001
 1.049051673418584e+000	 7.991196086888267e-001	 1.248443497882967e+001
 1.040755423803898e+000	 8.098948760944261e-001	 1.236098542568968e+001
 1.032343076263969e+000	 8.205908453062173e-001	 1.224848770327882e+001
 1.023815766123230e+000	 8.312056541907570e-001	 1.214721632308258e+001
 1.109019052353801e+000	 7.250529232363918e-001	 1.361388522125136e+001
 1.101528527196449e+000	 7.363829871407431e-001	 1.342829329218048e+001
 1.093914518859202e+000	 7.476469925095123e-001	 1.325094852448624e+001
 1.086177878010418e+000	 7.588429464012284e-001	 1.308222966325038e+001
 1.078319497761848e+000	 7.699688699762129e-001	 1.292250038042849e+001
 1.070340313390590e+000	 7.810227996169633e-001	 1.277210871246000e+001
 1.062241302025780e+000	 7.920027880424557e-001	 1.263138652360882e+001
 1.054023482300172e+000	 8.029069054150770e-001	 1.250064899632090e+001
 1.045687913966803e+000	 8.137332404389015e-001	 1.238019414982163e+001
 1.037235697480957e+000	 8.244799014480376e-001	 1.227030238811268e+001
 1.028667973547753e+000	 8.351450174837646e-001	 1.217123607844989e+001
 1.114250274300334e+000	 7.284729841942672e-001	 1.359951858589863e+001
 1.106724416477607e+000	 7.398564917967632e-001	 1.341901723719396e+001
 1.099074493007069e+000	 7.511736292667666e-001	 1.324647342077963e+001
 1.091301358569662e+000	 7.624223942621381e-001	 1.308225226362423e+001
 1.083405910489931e+000	 7.736007986090500e-001	 1.292670400469315e+001
 1.075389088456656e+000	 7.847068694276523e-001	 1.278016344660939e+001
 1.067251874208072e+000	 7.957386502516336e-001	 1.264294943297221e+001
 1.058995291181806e+000	 8.066942021403726e-001	 1.251536435259772e+001
 1.050620404129728e+000	 8.175716047823972e-001	 1.239769367188426e+001
 1.042128318697950e+000	 8.283689575888629e-001	 1.229020549643847e+001
 1.033520180972275e+000	 8.390843807757725e-001	 1.219315016302453e+001
 1.119481496247369e+000	 7.318930451516450e-001	 1.358527638138050e+001
 1.111920305759173e+000	 7.433299964521913e-001	 1.340960460994523e+001
 1.104234467155259e+000	 7.547002660233433e-001	 1.324160789467067e+001
 1.096424839129154e+000	 7.660018421222948e-001	 1.308163789498368e+001
 1.088492323218195e+000	 7.772327272410683e-001	 1.293003156245660e+001
 1.080437863522847e+000	 7.883909392374674e-001	 1.278711060634954e+001
 1.072262446390444e+000	 7.994745124598921e-001	 1.265318098474161e+001
 1.063967100063484e+000	 8.104814988647137e-001	 1.252853242249786e+001
 1.055552894292673e+000	 8.214099691249133e-001	 1.241343795725125e+001
 1.047020939914949e+000	 8.322580137286935e-001	 1.230815351451499e+001
 1.038372388396798e+000	 8.430237440667801e-001	 1.221291751296790e+001
 1.124712718194908e+000	 7.353131061085256e-001	 1.357109093663718e+001
 1.117116195041146e+000	 7.468035011070270e-001	 1.339999071786615e+001
 1.109394441303770e+000	 7.582269027792422e-001	 1.323629017397014e+001
 1.101548319688893e+000	 7.695812899816991e-001	 1.308032764588414e+001
 1.093578735946642e+000	 7.808646558722687e-001	 1.293242694189129e+001
 1.085486638589165e+000	 7.920750090464088e-001	 1.279289681687543e+001
 1.077273018572898e+000	 8.032103746672317e-001	 1.266203047710356e+001
 1.068938908945209e+000	 8.142687955881005e-001	 1.254010511176221e+001
 1.060485384455638e+000	 8.252483334664491e-001	 1.242738145240676e+001
 1.051913561131952e+000	 8.361470698675289e-001	 1.232410336141889e+001
 1.043224595821321e+000	 8.469631073567877e-001	 1.223049745049140e+001
 1.129943940142948e+000	 7.387331670649088e-001	 1.355689547841175e+001
 1.122312084323527e+000	 7.502770057612700e-001	 1.339011170807695e+001
 1.114554415452604e+000	 7.617535395344639e-001	 1.323045926932704e+001
 1.106671800248879e+000	 7.731607378403498e-001	 1.307826333216569e+001
 1.098665148675269e+000	 7.844965845026505e-001	 1.293383470422553e+001
 1.090535413655609e+000	 7.957590788544765e-001	 1.279746932356440e+001
 1.082283590755432e+000	 8.069462368736519e-001	 1.266944777693709e+001
 1.073910717826978e+000	 8.180560923105327e-001	 1.255003484474580e+001
 1.065417874618624e+000	 8.290866978070055e-001	 1.243947907380973e+001
 1.056806182348961e+000	 8.400361260053694e-001	 1.233801237902567e+001
 1.048076803245844e+000	 8.509024706457955e-001	 1.224584967492061e+001
 1.135175162091492e+000	 7.421532280207945e-001	 1.354262411056333e+001
 1.127507973606316e+000	 7.537505104149206e-001	 1.337990454803865e+001
 1.119714389601760e+000	 7.652801762890077e-001	 1.322405495619191e+001
 1.111795280809112e+000	 7.767401856982479e-001	 1.307538748019532e+001
 1.103751561404079e+000	 7.881285131322141e-001	 1.293420006823543e+001
 1.095584188722180e+000	 7.994431486616703e-001	 1.280077597768656e+001
 1.087294162938047e+000	 8.106820990791530e-001	 1.267538330671029e+001
 1.078882526708794e+000	 8.218433890320103e-001	 1.255827455246829e+001
 1.070350364781630e+000	 8.329250621465821e-001	 1.244968619706392e+001
 1.061698803565974e+000	 8.439251821422150e-001	 1.234983832226774e+001
 1.052929010670367e+000	 8.548418339338033e-001	 1.225893425400540e+001
 1.140406384040538e+000	 7.455732889761829e-001	 1.352821179395012e+001
 1.132703862889512e+000	 7.572240150679788e-001	 1.336930700673800e+001
 1.124874363751239e+000	 7.688068130428739e-001	 1.321701775727447e+001
 1.116918761369592e+000	 7.803196335553927e-001	 1.307164331057015e+001
 1.108837974133069e+000	 7.917604417609592e-001	 1.293346889516393e+001
 1.100632963788876e+000	 8.031272184679906e-001	 1.280276522250776e+001
 1.092304735120743e+000	 8.144179612837349e-001	 1.267978803173738e+001
 1.083854335590655e+000	 8.256306857525335e-001	 1.256477766099273e+001
 1.075282854944656e+000	 8.367634264851790e-001	 1.245795864638756e+001
 1.066591424782993e+000	 8.478142382780657e-001	 1.235953934966093e+001
 1.057781218094889e+000	 8.587811972208108e-001	 1.226971161547011e+001
 1.145637605990086e+000	 7.489933499310741e-001	 1.351359432686272e+001
 1.137899752173115e+000	 7.606975197204445e-001	 1.335825763638758e+001
 1.130034337901040e+000	 7.723334497960624e-001	 1.320928892548395e+001
 1.122042241930318e+000	 7.838990814117848e-001	 1.306697472226812e+001
 1.113924386862243e+000	 7.953923703888862e-001	 1.293158767405172e+001
 1.105681738855699e+000	 8.068112882734371e-001	 1.280338607977404e+001
 1.097315307303520e+000	 8.181538234873979e-001	 1.268261344778501e+001
 1.088826144472561e+000	 8.294179824721022e-001	 1.256949808012361e+001
 1.080215345107703e+000	 8.406017908227961e-001	 1.246425268437092e+001
 1.071484046000016e+000	 8.517032944129214e-001	 1.236707401409009e+001
 1.062633425519412e+000	 8.627205605068186e-001	 1.227814253879501e+001
 1.150868827940138e+000	 7.524134108854679e-001	 1.349870832599190e+001
 1.143095641457127e+000	 7.641710243723180e-001	 1.334669575462544e+001
 1.135194312051163e+000	 7.758600865485734e-001	 1.320081042733267e+001
 1.127165722491293e+000	 7.874785292674239e-001	 1.306132627722946e+001
 1.119010799591597e+000	 7.990242990159947e-001	 1.292850350747002e+001
 1.110730513922648e+000	 8.104953580780098e-001	 1.280258813656401e+001
 1.102325879486378e+000	 8.218896856901418e-001	 1.268381156901644e+001
 1.093797953354514e+000	 8.332052791907166e-001	 1.257239019241282e+001
 1.085147835270769e+000	 8.444401551594336e-001	 1.246852500201321e+001
 1.076376667217045e+000	 8.555923505467825e-001	 1.237240125384594e+001
 1.067485632943935e+000	 8.666599237918263e-001	 1.228418814722175e+001
 1.018963558698707e+000	 8.272662908967493e-001	 1.212113235600284e+001
 1.010363413927530e+000	 8.377481852071574e-001	 1.194327473669861e+001
 1.001651228937831e+000	 8.481456629602797e-001	 1.176836405775168e+001
 9.928282502595855e-001	 8.584569386556239e-001	 1.159641947244016e+001
 9.838957621672827e-001	 8.686802514366082e-001	 1.142744911267466e+001
 9.748550860676440e-001	 8.788138660835541e-001	 1.126145005718909e+001
 9.657075798561098e-001	 8.888560739883057e-001	 1.109840832380187e+001
 9.564546372427463e-001	 8.988051941093342e-001	 1.093829888584775e+001
 9.470976870482691e-001	 9.086595739062089e-001	 1.078108571281071e+001
 9.376381924709217e-001	 9.184175902523485e-001	 1.062672183511779e+001
 9.280776503250000e-001	 9.280776503250000e-001	 1.047514943298430e+001
 1.023815766123230e+000	 8.312056541907570e-001	 1.214721632308258e+001
 1.015174668281372e+000	 8.417374622836211e-001	 1.196869536427799e+001
 1.006420996696220e+000	 8.521844518355478e-001	 1.179372312121848e+001
 9.975560038336061e-001	 8.625448288436622e-001	 1.162232567504746e+001
 9.885809800836134e-001	 8.728168240663510e-001	 1.145451748539050e+001
 9.794972531453756e-001	 8.829986940209846e-001	 1.129030135010430e+001
 9.703061873805025e-001	 8.930887219631780e-001	 1.112966839000001e+001
 9.610091831357743e-001	 9.030852188464431e-001	 1.097259805865372e+001
 9.516076760358152e-001	 9.129865242611077e-001	 1.081905817734968e+001
 9.421031362464793e-001	 9.227910073514180e-001	 1.066900499512696e+001
 9.324970677097499e-001	 9.324970677097499e-001	 1.052238327382990e+001
 1.028667973547753e+000	 8.351450174837646e-001	 1.217123607844989e+001
 1.019985922635209e+000	 8.457267393590894e-001	 1.199213164425370e+001
 1.011190764454589e+000	 8.562232407098357e-001	 1.181717667220458e+001
 1.002283757407582e+000	 8.666327190307456e-001	 1.164640413029200e+001
 9.932661979998640e-001	 8.769533966951738e-001	 1.147983476437514e+001
 9.841394202229825e-001	 8.871835219575401e-001	 1.131747704952728e+001
 9.749047949047152e-001	 8.973213699372306e-001	 1.115932716725594e+001
 9.655637290285577e-001	 9.073652435827968e-001	 1.100536900873237e+001
 9.561176650230416e-001	 9.173134746153269e-001	 1.085557420408556e+001
 9.465680800216324e-001	 9.271644244498926e-001	 1.070990217774510e+001
 9.369164850939998e-001	 9.369164850939999e-001	 1.056830022974018e+001
 1.033520180972275e+000	 8.390843807757725e-001	 1.219315016302453e+001
 1.024797176989041e+000	 8.497160164335629e-001	 1.201354076689507e+001
 1.015960532212938e+000	 8.602620295831437e-001	 1.183868061030235e+001
 1.007011510981513e+000	 8.707206092168736e-001	 1.166860950775725e+001
 9.979514159160350e-001	 8.810899693230765e-001	 1.150335445052471e+001
 9.887815873004645e-001	 8.913683498932207e-001	 1.134292954959607e+001
 9.795034024287480e-001	 9.015540179104630e-001	 1.118733600544496e+001
 9.701182749210962e-001	 9.116452683183954e-001	 1.103656210471192e+001
 9.606276540099482e-001	 9.216404249688660e-001	 1.089058324389115e+001
 9.510330237963801e-001	 9.315378415477724e-001	 1.074936198001061e+001
 9.413359024777500e-001	 9.413359024777500e-001	 1.061284810822489e+001
 1.038372388396798e+000	 8.430237440667801e-001	 1.221291751296790e+001
 1.029608431342868e+000	 8.537052935070409e-001	 1.203288034197206e+001
 1.020730299971266e+000	 8.643008184554716e-001	 1.185819127794996e+001
 1.011739264555399e+000	 8.748084994020469e-001	 1.168889694229208e+001
 1.002636633832126e+000	 8.852265419500588e-001	 1.152503053148119e+001
 9.934237543778215e-001	 8.955531778280261e-001	 1.136661175172730e+001
 9.841020099526008e-001	 9.057866658828752e-001	 1.121364678129276e+001
 9.746728208133889e-001	 9.159252930532389e-001	 1.106612826067328e+001
 9.651376429965345e-001	 9.259673753217252e-001	 1.092403531071395e+001
 9.554979675707231e-001	 9.359112586450566e-001	 1.078733357867037e+001
 9.457553198610000e-001	 9.457553198610000e-001	 1.065597531213896e+001
 1.043224595821321e+000	 8.469631073567877e-001	 1.223049745049140e+001
 1.034419685696690e+000	 8.576945705795245e-001	 1.205010838899951e+001
 1.025500067729575e+000	 8.683396073268197e-001	 1.187566545013290e+001
 1.016467018129240e+000	 8.788963895862648e-001	 1.170722202319043e+001
 1.007321851748137e+000	 8.893631145761217e-001	 1.154481747031407e+001
 9.980659214550537e-001	 8.997380057619566e-001	 1.138847705281857e+001
 9.887006174762738e-001	 9.100193138544673e-001	 1.123821188612376e+001
 9.792273667054374e-001	 9.202053177873274e-001	 1.109401892346480e+001
 9.696476319828009e-001	 9.302943256739042e-001	 1.095588096848108e+001
 9.599629113446609e-001	 9.402846757417464e-001	 1.082376671669786e+001
 9.501747372437498e-001	 9.501747372437497e-001	 1.069763082583705e+001
 1.048076803245844e+000	 8.509024706457955e-001	 1.224584967492061e+001
 1.039230940050506e+000	 8.616838476510129e-001	 1.206518332775228e+001
 1.030269835487864e+000	 8.723783961971873e-001	 1.189106032437107e+001
 1.021194771703036e+000	 8.829842797695280e-001	 1.172354078367160e+001
 1.012007069664068e+000	 8.934996872012641e-001	 1.156267019451361e+001
 1.002708088532161e+000	 9.039228336950118e-001	 1.140847933378002e+001
 9.932992249997671e-001	 9.142519618252397e-001	 1.126098421394800e+001
 9.837819125972409e-001	 9.244853425206608e-001	 1.112018606036948e+001
 9.741576209687474e-001	 9.346212760254030e-001	 1.098607131836872e+001
 9.644278551181941e-001	 9.446580928378409e-001	 1.085861169018641e+001
 9.545941546260000e-001	 9.545941546260000e-001	 1.073776420171340e+001
 1.052929010670367e+000	 8.548418339338033e-001	 1.225893425400540e+001
 1.044042194404318e+000	 8.656731247215062e-001	 1.207806396904234e+001
 1.035039603246133e+000	 8.764171850665753e-001	 1.190433351098324e+001
 1.025922525276787e+000	 8.870721699518360e-001	 1.173780969065202e+001
 1.016692287579919e+000	 8.976362598254865e-001	 1.157854408529168e+001
 1.007350255609143e+000	 9.081076616271920e-001	 1.142657294838071e+001
 9.978978325230800e-001	 9.184846097951918e-001	 1.128191714987947e+001
 9.883364584887994e-001	 9.287653672532392e-001	 1.114458214711417e+001
 9.786676099543740e-001	 9.389482263762221e-001	 1.101455798642317e+001
 9.688927988913219e-001	 9.490315099333406e-001	 1.089181933560379e+001
 9.590135720077501e-001	 9.590135720077501e-001	 1.077632554711279e+001
 1.057781218094889e+000	 8.587811972208108e-001	 1.226971161547011e+001
 1.048853448758125e+000	 8.696624017910043e-001	 1.208870950575084e+001
 1.039809371004382e+000	 8.804559739349830e-001	 1.191544302361884e+001
 1.030650278850493e+000	 8.911600601331887e-001	 1.174998563479746e+001
 1.021377505495690e+000	 9.017728324487886e-001	 1.159239496717345e+001
 1.011992422686000e+000	 9.122924895584968e-001	 1.144271271240435e+001
 1.002496440046213e+000	 9.227172577643236e-001	 1.130096455887198e+001
 9.928910043801130e-001	 9.330453919850624e-001	 1.116716015620713e+001
 9.831775989396803e-001	 9.432751767263610e-001	 1.104129311152182e+001
 9.733577426640448e-001	 9.534049270282452e-001	 1.092334101739941e+001
 9.634329893889999e-001	 9.634329893889999e-001	 1.081326551160269e+001
 1.062633425519412e+000	 8.627205605068186e-001	 1.227814253879501e+001
 1.053664703111927e+000	 8.736516788595076e-001	 1.209707950410414e+001
 1.044579138762611e+000	 8.844947628024108e-001	 1.192434727004999e+001
 1.035378032424154e+000	 8.952479503135867e-001	 1.176002592084879e+001
 1.026062723411382e+000	 9.059094050711709e-001	 1.160417909787743e+001
 1.016634589762733e+000	 9.164773174889270e-001	 1.145685389310022e+001
 1.007095047569167e+000	 9.269499057326355e-001	 1.131808077476359e+001
 9.974455502711814e-001	 9.373254167161308e-001	 1.118787354559654e+001
 9.876875879246668e-001	 9.476021270758198e-001	 1.106622933366572e+001
 9.778226864363627e-001	 9.577783441225548e-001	 1.095312861594892e+001
 9.678524067697499e-001	 9.678524067697499e-001	 1.084853527459369e+001
 1.067485632943935e+000	 8.666599237918263e-001	 1.228418814722175e+001
 1.058475957465724e+000	 8.776409559270160e-001	 1.210313389518950e+001
 1.049348906520820e+000	 8.885335516688586e-001	 1.193100504321355e+001
 1.040105785997771e+000	 8.993358404930295e-001	 1.176788825821127e+001
 1.030747941326993e+000	 9.100459776926331e-001	 1.161385315846950e+001
 1.021276756839340e+000	 9.206621454184820e-001	 1.146895219892297e+001
 1.011693655091940e+000	 9.311825537001275e-001	 1.133322058962074e+001
 1.002000096162005e+000	 9.416054414464441e-001	 1.120667624763748e+001
 9.921975769093336e-001	 9.519290774245990e-001	 1.108931978258934e+001
 9.822876302082761e-001	 9.621517612162696e-001	 1.098113451582933e+001
 9.722718241500000e-001	 9.722718241500000e-001	 1.088208653329750e+001
 9.280776503250000e-001	 9.280776503250000e-001	 1.047514943298430e+001
 9.184175902523485e-001	 9.376381924709217e-001	 1.028257760058026e+001
 9.086595739062087e-001	 9.470976870482689e-001	 1.009404740083284e+001
 8.988051941093341e-001	 9.564546372427464e-001	 9.909497654703310e+000
 8.888560739883058e-001	 9.657075798561099e-001	 9.728856044016160e+000
 8.788138660835539e-001	 9.748550860676439e-001	 9.552039291062888e+000
 8.686802514366082e-001	 9.838957621672826e-001	 9.378953361258091e+000
 8.584569386556240e-001	 9.928282502595852e-001	 9.209493688306161e+000
 8.481456629602796e-001	 1.001651228937831e+000	 9.043545421277102e+000
 8.377481852071576e-001	 1.010363413927530e+000	 8.880983692921296e+000
 8.272662908967493e-001	 1.018963558698707e+000	 8.721673908502195e+000
 9.324970677097499e-001	 9.324970677097499e-001	 1.052238327382990e+001
 9.227910073514178e-001	 9.421031362464792e-001	 1.033484202053934e+001
 9.129865242611076e-001	 9.516076760358152e-001	 1.015074765322745e+001
 9.030852188464429e-001	 9.610091831357744e-001	 9.970002316688120e+000
 8.930887219631781e-001	 9.703061873805025e-001	 9.792497612125848e+000
 8.829986940209847e-001	 9.794972531453758e-001	 9.618114815622874e+000
 8.728168240663510e-001	 9.885809800836134e-001	 9.446725118871465e+000
 8.625448288436625e-001	 9.975560038336062e-001	 9.278189891564024e+000
 8.521844518355477e-001	 1.006420996696220e+000	 9.112360964773655e+000
 8.417374622836209e-001	 1.015174668281372e+000	 8.949080934596653e+000
 8.312056541907570e-001	 1.023815766123230e+000	 8.788183485274981e+000
 9.369164850939998e-001	 9.369164850939999e-001	 1.056830022974018e+001
 9.271644244498926e-001	 9.465680800216324e-001	 1.038528921005268e+001
 9.173134746153270e-001	 9.561176650230415e-001	 1.020514046327903e+001
 9.073652435827966e-001	 9.655637290285574e-001	 1.002771967984941e+001
 8.973213699372306e-001	 9.749047949047150e-001	 9.852882594366182e+000
 8.871835219575401e-001	 9.841394202229825e-001	 9.680475242764850e+000
 8.769533966951738e-001	 9.932661979998640e-001	 9.510334240960813e+000
 8.666327190307455e-001	 1.002283757407582e+000	 9.342287084313016e+000
 8.562232407098356e-001	 1.011190764454589e+000	 9.176152467171205e+000
 8.457267393590894e-001	 1.019985922635209e+000	 9.011740621719392e+000
 8.351450174837647e-001	 1.028667973547753e+000	 8.848853675273563e+000
 9.413359024777500e-001	 9.413359024777500e-001	 1.061284810822489e+001
 9.315378415477722e-001	 9.510330237963800e-001	 1.043387425211532e+001
 9.216404249688661e-001	 9.606276540099479e-001	 1.025718809117937e+001
 9.116452683183954e-001	 9.701182749210960e-001	 1.008261907978877e+001
 9.015540179104631e-001	 9.795034024287480e-001	 9.909987296528628e+000
 8.913683498932207e-001	 9.887815873004645e-001	 9.739103739881310e+000
 8.810899693230765e-001	 9.979514159160350e-001	 9.569770644630671e+000
 8.707206092168738e-001	 1.007011510981513e+000	 9.401781818251850e+000
 8.602620295831437e-001	 1.015960532212938e+000	 9.234922996490035e+000
 8.497160164335629e-001	 1.024797176989041e+000	 9.068972217281894e+000
 8.390843807757725e-001	 1.033520180972276e+000	 8.903700212114160e+000
 9.457553198610000e-001	 9.457553198610000e-001	 1.065597531213896e+001
 9.359112586450566e-001	 9.554979675707230e-001	 1.048055269016064e+001
 9.259673753217251e-001	 9.651376429965343e-001	 1.030685312468989e+001
 9.159252930532392e-001	 9.746728208133892e-001	 1.013467004891299e+001
 9.057866658828752e-001	 9.841020099526008e-001	 9.963788092610429e+000
 8.955531778280261e-001	 9.934237543778215e-001	 9.793983416197118e+000
 8.852265419500588e-001	 1.002636633832126e+000	 9.625024064730306e+000
 8.748084994020470e-001	 1.011739264555398e+000	 9.456670341079217e+000
 8.643008184554717e-001	 1.020730299971267e+000	 9.288675197405766e+000
 8.537052935070409e-001	 1.029608431342868e+000	 9.120784644039805e+000
 8.430237440667801e-001	 1.038372388396798e+000	 8.952738174792017e+000
 9.501747372437498e-001	 9.501747372437497e-001	 1.069763082583705e+001
 9.402846757417464e-001	 9.599629113446609e-001	 1.052528051735195e+001
 9.302943256739042e-001	 9.696476319828008e-001	 1.035409847152443e+001
 9.202053177873272e-001	 9.792273667054375e-001	 1.018384231185805e+001
 9.100193138544674e-001	 9.887006174762739e-001	 1.001426142322933e+001
 8.997380057619565e-001	 9.980659214550535e-001	 9.845097324123948e+000
 8.893631145761218e-001	 1.007321851748137e+000	 9.676084058092796e+000
 8.788963895862650e-001	 1.016467018129240e+000	 9.506948603564437e+000
 8.683396073268195e-001	 1.025500067729575e+000	 9.337411301093820e+000
 8.576945705795244e-001	 1.034419685696689e+000	 9.167186297076009e+000
 8.469631073567878e-001	 1.043224595821321e+000	 8.995982002904437e+000
 9.545941546260000e-001	 9.545941546260000e-001	 1.073776420171340e+001
 9.446580928378409e-001	 9.644278551181940e-001	 1.056801416617232e+001
 9.346212760254034e-001	 9.741576209687470e-001	 1.039888735194313e+001
 9.244853425206607e-001	 9.837819125972409e-001	 1.023010578103843e+001
 9.142519618252398e-001	 9.932992249997671e-001	 1.006138379408094e+001
 9.039228336950117e-001	 1.002708088532161e+000	 9.892428460573330e+000
 8.934996872012639e-001	 1.012007069664068e+000	 9.722940007655788e+000
 8.829842797695282e-001	 1.021194771703036e+000	 9.552612266420331e+000
 8.723783961971874e-001	 1.030269835487864e+000	 9.381133134802196e+000
 8.616838476510128e-001	 1.039230940050506e+000	 9.208185056015266e+000
 8.509024706457955e-001	 1.048076803245844e+000	 9.033445511451738e+000
 9.590135720077501e-001	 9.590135720077501e-001	 1.077632554711279e+001
 9.490315099333405e-001	 9.688927988913217e-001	 1.060871049830180e+001
 9.389482263762222e-001	 9.786676099543737e-001	 1.044118329155033e+001
 9.287653672532391e-001	 9.883364584887993e-001	 1.027343055232125e+001
 9.184846097951918e-001	 9.978978325230800e-001	 1.010513177443920e+001
 9.081076616271918e-001	 1.007350255609143e+000	 9.935959768237300e+000
 8.976362598254865e-001	 1.016692287579919e+000	 9.765581126468254e+000
 8.870721699518358e-001	 1.025922525276786e+000	 9.593656706986604e+000
 8.764171850665751e-001	 1.035039603246133e+000	 9.419842131157827e+000
 8.656731247215060e-001	 1.044042194404318e+000	 9.243788296901014e+000
 8.548418339338033e-001	 1.052929010670367e+000	 9.065141905229215e+000
 9.634329893889999e-001	 9.634329893889999e-001	 1.081326551160269e+001
 9.534049270282452e-001	 9.733577426640448e-001	 1.064732679477372e+001
 9.432751767263611e-001	 9.831775989396802e-001	 1.048095011429165e+001
 9.330453919850625e-001	 9.928910043801129e-001	 1.031378690081834e+001
 9.227172577643236e-001	 1.002496440046213e+000	 1.014548199569877e+001
 9.122924895584968e-001	 1.011992422686000e+000	 9.975674136830795e+000
 9.017728324487886e-001	 1.021377505495690e+000	 9.803996461586852e+000
 8.911600601331888e-001	 1.030650278850493e+000	 9.630077025729822e+000
 8.804559739349830e-001	 1.039809371004382e+000	 9.453539337217855e+000
 8.696624017910043e-001	 1.048853448758125e+000	 9.274002903745412e+000
 8.587811972208107e-001	 1.057781218094889e+000	 9.091083792822310e+000
 9.678524067697499e-001	 9.678524067697499e-001	 1.084853527459369e+001
 9.577783441225548e-001	 9.778226864363627e-001	 1.068382074640021e+001
 9.476021270758199e-001	 9.876875879246667e-001	 1.051815193564253e+001
 9.373254167161306e-001	 9.974455502711814e-001	 1.035114527679360e+001
 9.269499057326355e-001	 1.007095047569167e+000	 1.018241114995562e+001
 9.164773174889269e-001	 1.016634589762733e+000	 1.001155440430174e+001
 9.059094050711709e-001	 1.026062723411382e+000	 9.838174897865995e+000
 8.952479503135866e-001	 1.035378032424154e+000	 9.661868052563538e+000
 8.844947628024108e-001	 1.044579138762611e+000	 9.482225423272432e+000
 8.736516788595077e-001	 1.053664703111927e+000	 9.298835279762637e+000
 8.627205605068187e-001	 1.062633425519412e+000	 9.111283200219033e+000
 9.722718241500000e-001	 9.722718241500000e-001	 1.088208653329750e+001
 9.621517612162694e-001	 9.822876302082761e-001	 1.071815044445919e+001
 9.519290774245989e-001	 9.921975769093333e-001	 1.055275315598244e+001
 9.416054414464440e-001	 1.002000096162005e+000	 1.038547630168262e+001
 9.311825537001276e-001	 1.011693655091940e+000	 1.021589598862871e+001
 9.206621454184818e-001	 1.021276756839340e+000	 1.004358335800731e+001
 9.100459776926331e-001	 1.030747941326993e+000	 9.868105161643923e+000
 8.993358404930296e-001	 1.040105785997770e+000	 9.689024352998597e+000
 8.885335516688586e-001	 1.049348906520820e+000	 9.505900691407787e+000
 8.776409559270160e-001	 1.058475957465724e+000	 9.318291358296664e+000
 8.666599237918263e-001	 1.067485632943935e+000	 9.125751584050414e+000
 8.272662908967493e-001	 1.018963558698707e+000	 8.721673908502195e+000
 8.167017891634020e-001	 1.027450455046986e+000	 8.546708070239300e+000
 8.060565117489712e-001	 1.035822933641014e+000	 8.368100486875743e+000
 7.953323119616222e-001	 1.044079864537042e+000	 8.185544374802758e+000
 7.845310636213428e-001	 1.052220157661439e+000	 7.998731745845836e+000
 7.736546599929643e-001	 1.060242763258839e+000	 7.807353903261467e+000
 7.627050127080841e-001	 1.068146672306228e+000	 7.611101942478034e+000
 7.516840506771499e-001	 1.075930916892669e+000	 7.409667255411818e+000
 7.405937189929703e-001	 1.083594570564436e+000	 7.202742037179798e+000
 7.294359778269249e-001	 1.091136748635354e+000	 6.990019794026783e+000
 7.182128013191493e-001	 1.098556608462243e+000	 6.771195851280807e+000
 8.312056541907570e-001	 1.023815766123230e+000	 8.788183485274981e+000
 8.205908453062171e-001	 1.032343076263969e+000	 8.609654939548406e+000
 8.098948760944263e-001	 1.040755423803898e+000	 8.428449470757139e+000
 7.991196086888268e-001	 1.049051673418584e+000	 8.244292597969135e+000
 7.882669258323590e-001	 1.057230729843569e+000	 8.056907508940689e+000
 7.773387298054005e-001	 1.065291538324651e+000	 7.866015530048161e+000
 7.663369413425578e-001	 1.073233085033947e+000	 7.671336602712651e+000
 7.552634985395657e-001	 1.081054397451420e+000	 7.472589765173618e+000
 7.441203557515800e-001	 1.088754544711658e+000	 7.269493638454482e+000
 7.329094824841301e-001	 1.096332637915698e+000	 7.061766915359407e+000
 7.216328622780193e-001	 1.103787830407771e+000	 6.849128851324516e+000
 8.351450174837647e-001	 1.028667973547753e+000	 8.848853675273563e+000
 8.244799014480376e-001	 1.037235697480957e+000	 8.667360582443967e+000
 8.137332404389017e-001	 1.045687913966803e+000	 8.484149124211942e+000
 8.029069054150769e-001	 1.054023482300172e+000	 8.298976828702664e+000
 7.920027880424559e-001	 1.062241302025780e+000	 8.111597770229517e+000
 7.810227996169633e-001	 1.070340313390590e+000	 7.921763013425970e+000
 7.699688699762129e-001	 1.078319497761848e+000	 7.729221065612578e+000
 7.588429464012284e-001	 1.086177878010417e+000	 7.533718336280565e+000
 7.476469925095119e-001	 1.093914518859202e+000	 7.334999602558846e+000
 7.363829871407429e-001	 1.101528527196448e+000	 7.132808479517587e+000
 7.250529232363918e-001	 1.109019052353801e+000	 6.926887894148616e+000
 8.390843807757725e-001	 1.033520180972276e+000	 8.903700212114160e+000
 8.283689575888629e-001	 1.042128318697950e+000	 8.719832958213161e+000
 8.175716047823971e-001	 1.050620404129728e+000	 8.535199759109343e+000
 8.066942021403725e-001	 1.058995291181806e+000	 8.349589861696014e+000
 7.957386502516336e-001	 1.067251874208071e+000	 8.162787940701927e+000
 7.847068694276523e-001	 1.075389088456656e+000	 7.974574517287455e+000
 7.736007986090500e-001	 1.083405910489931e+000	 7.784726387609403e+000
 7.624223942621384e-001	 1.091301358569663e+000	 7.593017060267636e+000
 7.511736292667663e-001	 1.099074493007069e+000	 7.399217201515708e+000
 7.398564917967633e-001	 1.106724416477607e+000	 7.203095087110680e+000
 7.284729841942672e-001	 1.114250274300334e+000	 7.004417059652138e+000
 8.430237440667801e-001	 1.038372388396798e+000	 8.952738174792017e+000
 8.322580137286935e-001	 1.047020939914949e+000	 8.767079519837637e+000
 8.214099691249130e-001	 1.055552894292673e+000	 8.581601327133553e+000
 8.104814988647138e-001	 1.063967100063485e+000	 8.396124275313875e+000
 7.994745124598921e-001	 1.072262446390444e+000	 8.210463356549367e+000
 7.883909392374674e-001	 1.080437863522847e+000	 8.024428269866496e+000
 7.772327272410685e-001	 1.088492323218196e+000	 7.837823826166665e+000
 7.660018421222953e-001	 1.096424839129154e+000	 7.650450363881324e+000
 7.547002660233432e-001	 1.104234467155259e+000	 7.462104174172847e+000
 7.433299964521912e-001	 1.111920305759172e+000	 7.272577934563198e+000
 7.318930451516449e-001	 1.119481496247369e+000	 7.081661149863440e+000
 8.469631073567878e-001	 1.043224595821321e+000	 8.995982002904437e+000
 8.361470698675287e-001	 1.051913561131952e+000	 8.809107225769262e+000
 8.252483334664493e-001	 1.060485384455638e+000	 8.623353428159877e+000
 8.142687955881002e-001	 1.068938908945209e+000	 8.438572436623511e+000
 8.032103746672316e-001	 1.077273018572897e+000	 8.254609280904413e+000
 7.920750090464088e-001	 1.085486638589165e+000	 8.071302562243542e+000
 7.808646558722688e-001	 1.093578735946642e+000	 7.888484835103703e+000
 7.695812899816991e-001	 1.101548319688893e+000	 7.705983001283772e+000
 7.582269027792423e-001	 1.109394441303770e+000	 7.523618715345281e+000
 7.468035011070269e-001	 1.117116195041146e+000	 7.341208800258349e+000
 7.353131061085256e-001	 1.124712718194908e+000	 7.158565672146287e+000
 8.509024706457955e-001	 1.048076803245844e+000	 9.033445511451738e+000
 8.400361260053695e-001	 1.056806182348961e+000	 8.845922551376402e+000
 8.290866978070056e-001	 1.065417874618624e+000	 8.660455318398595e+000
 8.180560923105326e-001	 1.073910717826979e+000	 8.476926506286201e+000
 8.069462368736520e-001	 1.082283590755432e+000	 8.295210905532390e+000
 7.957590788544764e-001	 1.090535413655609e+000	 8.115175746889168e+000
 7.844965845026506e-001	 1.098665148675269e+000	 7.936681060051984e+000
 7.731607378403499e-001	 1.106671800248879e+000	 7.759580046474068e+000
 7.617535395344639e-001	 1.114554415452604e+000	 7.583719465261521e+000
 7.502770057612700e-001	 1.122312084323527e+000	 7.408940031066533e+000
 7.387331670649088e-001	 1.129943940142948e+000	 7.235076822873531e+000
 8.548418339338033e-001	 1.052929010670367e+000	 9.065141905229215e+000
 8.439251821422151e-001	 1.061698803565974e+000	 8.877531500075579e+000
 8.329250621465821e-001	 1.070350364781630e+000	 8.692905918313040e+000
 8.218433890320100e-001	 1.078882526708794e+000	 8.511178443313021e+000
 8.106820990791531e-001	 1.087294162938047e+000	 8.332253352474991e+000
 7.994431486616702e-001	 1.095584188722180e+000	 8.156026236250728e+000
 7.881285131322141e-001	 1.103751561404079e+000	 7.982384334033786e+000
 7.767401856982479e-001	 1.111795280809111e+000	 7.811206885918676e+000
 7.652801762890076e-001	 1.119714389601760e+000	 7.642365499300575e+000
 7.537505104149205e-001	 1.127507973606315e+000	 7.475724529246988e+000
 7.421532280207945e-001	 1.135175162091492e+000	 7.311141471550453e+000
 8.587811972208107e-001	 1.057781218094889e+000	 9.091083792822310e+000
 8.478142382780657e-001	 1.066591424782993e+000	 8.903939614156046e+000
 8.367634264851790e-001	 1.075282854944656e+000	 8.720703820321235e+000
 8.256306857525333e-001	 1.083854335590655e+000	 8.541320009689503e+000
 8.144179612837349e-001	 1.092304735120743e+000	 8.365721675650160e+000
 8.031272184679905e-001	 1.100632963788876e+000	 8.193832501376178e+000
 7.917604417609591e-001	 1.108837974133069e+000	 8.025566673165038e+000
 7.803196335553928e-001	 1.116918761369592e+000	 7.860829211384395e+000
 7.688068130428738e-001	 1.124874363751239e+000	 7.699516318010599e+000
 7.572240150679788e-001	 1.132703862889512e+000	 7.541515739709343e+000
 7.455732889761829e-001	 1.140406384040538e+000	 7.386707145376181e+000
 8.627205605068187e-001	 1.062633425519412e+000	 9.111283200219033e+000
 8.517032944129214e-001	 1.071484046000016e+000	 8.925151985307521e+000
 8.406017908227963e-001	 1.080215345107702e+000	 8.743847296284660e+000
 8.294179824721020e-001	 1.088826144472561e+000	 8.567342774874234e+000
 8.181538234873980e-001	 1.097315307303520e+000	 8.395600862406999e+000
 8.068112882734368e-001	 1.105681738855699e+000	 8.228573070576397e+000
 7.953923703888861e-001	 1.113924386862243e+000	 8.066200272475268e+000
 7.838990814117847e-001	 1.122042241930318e+000	 7.908413012968502e+000
 7.723334497960623e-001	 1.130034337901040e+000	 7.755131837402658e+000
 7.606975197204445e-001	 1.137899752173115e+000	 7.606267637624407e+000
 7.489933499310741e-001	 1.145637605990086e+000	 7.461722014228445e+000
 8.666599237918263e-001	 1.067485632943935e+000	 9.125751584050414e+000
 8.555923505467824e-001	 1.076376667217045e+000	 8.941173264860931e+000
 8.444401551594337e-001	 1.085147835270769e+000	 8.762334304793733e+000
 8.332052791907164e-001	 1.093797953354513e+000	 8.589238120174867e+000
 8.218896856901418e-001	 1.102325879486378e+000	 8.421875835039362e+000
 8.104953580780097e-001	 1.110730513922648e+000	 8.260226528123502e+000
 7.990242990159947e-001	 1.119010799591597e+000	 8.104257501841046e+000
 7.874785292674239e-001	 1.127165722491292e+000	 7.953924572318039e+000
 7.758600865485733e-001	 1.135194312051163e+000	 7.809172379508349e+000
 7.641710243723182e-001	 1.143095641457127e+000	 7.669934716372102e+000
 7.524134108854681e-001	 1.150868827940138e+000	 7.536134876056179e+000
 7.182128013191493e-001	 1.098556608462243e+000	 6.771195851280807e+000
 7.069261764634713e-001	 1.105853349685127e+000	 6.588421781949522e+000
 6.955781019898623e-001	 1.113026214432879e+000	 6.412261230115724e+000
 6.841705872446737e-001	 1.120074487493868e+000	 6.242615136356051e+000
 6.727056510689237e-001	 1.126997496451237e+000	 6.079373844091924e+000
 6.611853206773726e-001	 1.133794611783604e+000	 5.922417506648340e+000
 6.496116305391352e-001	 1.140465246931159e+000	 5.771616507325446e+000
 6.379866212610444e-001	 1.147008858327361e+000	 5.626831891299807e+000
 6.263123384749757e-001	 1.153424945396524e+000	 5.487915808143487e+000
 6.145908317303234e-001	 1.159713050517611e+000	 5.286827373174547e+000
 6.028241533927892e-001	 1.165872758954601e+000	 5.077581760718378e+000
 7.216328622780193e-001	 1.103787830407771e+000	 6.849128851324516e+000
 7.102924915890725e-001	 1.111119318016739e+000	 6.674877296281709e+000
 6.988903786651449e-001	 1.118326339262638e+000	 6.504401637122562e+000
 6.874285424209038e-001	 1.125408175528069e+000	 6.337524124176375e+000
 6.759090113108944e-001	 1.132364151194188e+000	 6.174059674669032e+000
 6.643338222032806e-001	 1.139193633741894e+000	 6.013816335947668e+000
 6.527050192551248e-001	 1.145896033818234e+000	 5.856595756892782e+000
 6.410246527904341e-001	 1.152470805268254e+000	 5.702193666283906e+000
 6.292947781821875e-001	 1.158917445132575e+000	 5.550400356894937e+000
 6.175174547395376e-001	 1.165235493611013e+000	 5.352962448043303e+000
 6.056947446013554e-001	 1.171424533992611e+000	 5.125485303625759e+000
 7.250529232363918e-001	 1.109019052353801e+000	 6.926887894148616e+000
 7.136588067142663e-001	 1.116385286348948e+000	 6.759924725487289e+000
 7.022026553400899e-001	 1.123626464093079e+000	 6.593930850762039e+000
 6.906864975968450e-001	 1.130741863563027e+000	 6.428650263914420e+000
 6.791123715526055e-001	 1.137730805937961e+000	 6.263822867070110e+000
 6.674823237289381e-001	 1.144592655701061e+000	 6.099184989759590e+000
 6.557984079708528e-001	 1.151326820706229e+000	 5.934469911523849e+000
 6.440626843195313e-001	 1.157932752210102e+000	 5.769408386636814e+000
 6.322772178890564e-001	 1.164409944869606e+000	 5.603729169683545e+000
 6.204440777483384e-001	 1.170757936705409e+000	 5.408384228230486e+000
 6.085653358094177e-001	 1.176976309031620e+000	 5.161812832029068e+000
 7.284729841942672e-001	 1.114250274300334e+000	 7.004417059652138e+000
 7.170251218390527e-001	 1.121651254681754e+000	 6.843526528363941e+000
 7.055149320146970e-001	 1.128926588924204e+000	 6.680829300945195e+000
 6.939444527724977e-001	 1.136075551598743e+000	 6.515991541586682e+000
 6.823157317940571e-001	 1.143097460682557e+000	 6.348678541484804e+000
 6.706308252543454e-001	 1.149991677661103e+000	 6.178555293891843e+000
 6.588917966863191e-001	 1.156757607595146e+000	 6.005287067776377e+000
 6.471007158483361e-001	 1.163394699152906e+000	 5.828539978790947e+000
 6.352596575955819e-001	 1.169902444607618e+000	 5.647981556251928e+000
 6.233707007567252e-001	 1.176280379800800e+000	 5.453164381113857e+000
 6.114359270169761e-001	 1.182528084071630e+000	 5.186651367709191e+000
 7.318930451516449e-001	 1.119481496247369e+000	 7.081661149863440e+000
 7.203914369634313e-001	 1.126917223015159e+000	 6.925645546875222e+000
 7.088272086889658e-001	 1.134226713756010e+000	 6.765077469540659e+000
 6.972024079478616e-001	 1.141409239635215e+000	 6.599545671840814e+000
 6.855190920352494e-001	 1.148464115427974e+000	 6.428641231414691e+000
 6.737793267795016e-001	 1.155390699622023e+000	 6.251958180270743e+000
 6.619851854015243e-001	 1.162188394484983e+000	 6.069094129370445e+000
 6.501387473768486e-001	 1.168856646096666e+000	 5.879650885731467e+000
 6.382420973017641e-001	 1.175394944346610e+000	 5.683235060730251e+000
 6.262973237646984e-001	 1.181802822897186e+000	 5.479458668317829e+000
 6.143065182240305e-001	 1.188079859112640e+000	 5.200085628215617e+000
 7.353131061085256e-001	 1.124712718194908e+000	 7.158565672146287e+000
 7.237577520874026e-001	 1.132183191349160e+000	 7.006244997241460e+000
 7.121394853628966e-001	 1.139526838588499e+000	 6.846655889165888e+000
 7.004603631229368e-001	 1.146742927672444e+000	 6.679310104266577e+000
 6.887224522761818e-001	 1.153830770174212e+000	 6.503724897316369e+000
 6.769278283044076e-001	 1.160789721583818e+000	 6.319423707728496e+000
 6.650785741164678e-001	 1.167619181375742e+000	 6.125936834929582e+000
 6.531767789050683e-001	 1.174318593041381e+000	 5.922802101494541e+000
 6.412245370076032e-001	 1.180887444086582e+000	 5.709565502697201e+000
 6.292239467722578e-001	 1.187325265994568e+000	 5.485781841166390e+000
 6.171771094305811e-001	 1.193631634154650e+000	 5.202198080453791e+000
 7.387331670649088e-001	 1.129943940142948e+000	 7.235076822873531e+000
 7.271240672109663e-001	 1.137449159683760e+000	 7.085288461275293e+000
 7.154517620364895e-001	 1.144826963421670e+000	 6.925545142012358e+000
 7.037183182977235e-001	 1.152076615710430e+000	 6.755282029530494e+000
 6.919258125168548e-001	 1.159197424921272e+000	 6.573942939867099e+000
 6.800763298290633e-001	 1.166188743546490e+000	 6.380981082214034e+000
 6.681719628311500e-001	 1.173049968267422e+000	 6.175859784949503e+000
 6.562148104329959e-001	 1.179780539987052e+000	 5.958053204707330e+000
 6.442069767130990e-001	 1.186379943827534e+000	 5.727047017099616e+000
 6.321505697794035e-001	 1.192847709092944e+000	 5.482339087766222e+000
 6.200477006366276e-001	 1.199183409197659e+000	 5.193068992782806e+000
 7.421532280207945e-001	 1.135175162091492e+000	 7.311141471550453e+000
 7.304903823341226e-001	 1.142715128018957e+000	 7.162739877958330e+000
 7.187640387097447e-001	 1.150127088255524e+000	 7.001725858703934e+000
 7.069762734722213e-001	 1.157410303749174e+000	 6.827458385343245e+000
 6.951291727572683e-001	 1.164564079669155e+000	 6.639308212863428e+000
 6.832248313534683e-001	 1.171587765510039e+000	 6.436658676443906e+000
 6.712653515455703e-001	 1.178480755160022e+000	 6.218906468022895e+000
 6.592528419606311e-001	 1.185242486933678e+000	 5.985462391201789e+000
 6.471894164182518e-001	 1.191872443569467e+000	 5.735752093069070e+000
 6.350771927861354e-001	 1.198370152192316e+000	 5.469216771600427e+000
 6.229182918421704e-001	 1.204735184241669e+000	 5.172776485673857e+000
 7.455732889761829e-001	 1.140406384040538e+000	 7.386707145376181e+000
 7.338566974568713e-001	 1.147981096354751e+000	 7.238563535248725e+000
 7.220763153826616e-001	 1.155427213090060e+000	 7.075178717185624e+000
 7.102342286464306e-001	 1.162743991788675e+000	 6.895835862259680e+000
 6.983325329974223e-001	 1.169930734417858e+000	 6.699833035762900e+000
 6.863733328776230e-001	 1.176986787474464e+000	 6.486484049014122e+000
 6.743587402597295e-001	 1.183911542053544e+000	 6.255119286342873e+000
 6.622908734879740e-001	 1.190704433881261e+000	 6.005086505730268e+000
 6.501718561230614e-001	 1.197364943312380e+000	 5.735751611670588e+000
 6.380038157924537e-001	 1.203892595292683e+000	 5.446499398875986e+000
 6.257888830472089e-001	 1.210286959286679e+000	 5.136734265542182e+000
 7.489933499310741e-001	 1.145637605990086e+000	 7.461722014228445e+000
 7.372230125792124e-001	 1.153247064691144e+000	 7.312724062114572e+000
 7.253885920552406e-001	 1.160727337925278e+000	 7.145884441643170e+000
 7.134921838203513e-001	 1.168077679828933e+000	 6.960410909323527e+000
 7.015358932373166e-001	 1.175297389167384e+000	 6.755529205884272e+000
 6.895218344015270e-001	 1.182385809439765e+000	 6.530483962986842e+000
 6.774521289736272e-001	 1.189342328947986e+000	 6.284539580503828e+000
 6.653289050150241e-001	 1.196166380829798e+000	 6.016981072811502e+000
 6.531542958275278e-001	 1.202857443056274e+000	 5.727114882615385e+000
 6.409304387983582e-001	 1.209415038394044e+000	 5.414269660928220e+000
 6.286594742517437e-001	 1.215838734332688e+000	 5.077797011889553e+000
 7.524134108854681e-001	 1.150868827940138e+000	 7.536134876056179e+000
 7.405893277011463e-001	 1.158513033028134e+000	 7.385186420782736e+000
 7.287008687274819e-001	 1.166027462761179e+000	 7.213823801452412e+000
 7.167501389939834e-001	 1.173411367869948e+000	 7.021179739554823e+000
 7.047392534769517e-001	 1.180664043917732e+000	 6.806408010275085e+000
 6.926703359251807e-001	 1.187784831405943e+000	 6.568684403970551e+000
 6.805455176872634e-001	 1.194773115843350e+000	 6.307207653632076e+000
 6.683669365417824e-001	 1.201628327779292e+000	 6.021200326735551e+000
 6.561367355316509e-001	 1.208349942801147e+000	 5.709909679974190e+000
 6.438570618038492e-001	 1.214937481496401e+000	 5.372608475467069e+000
 6.315300654557748e-001	 1.221390509379698e+000	 5.008595757123612e+000
 6.028241533927892e-001	 1.165872758954601e+000	 5.077581760718378e+000
 5.910143575509979e-001	 1.171903698753873e+000	 4.938805978411417e+000
 5.791634989309158e-001	 1.177805540609003e+000	 4.781495301886175e+000
 5.672736318200319e-001	 1.183577997693455e+000	 4.604563788418018e+000
 5.553468090030068e-001	 1.189220825461820e+000	 4.406960355666775e+000
 5.433850807087116e-001	 1.194733821420096e+000	 4.187670314780094e+000
 5.313904935700603e-001	 1.200116824865639e+000	 3.945716819244196e+000
 5.193650895976031e-001	 1.205369716597434e+000	 3.680162227266504e+000
 5.073109051678271e-001	 1.210492418597383e+000	 3.390109375765045e+000
 4.952299700270679e-001	 1.215484893683302e+000	 3.074702764287132e+000
 4.831243063119005e-001	 1.220347145134396e+000	 2.733129647459557e+000
 6.056947446013554e-001	 1.171424533992611e+000	 5.125485303625759e+000
 5.938287116374815e-001	 1.177484192552563e+000	 4.968133963789740e+000
 5.819214203581343e-001	 1.183414138416341e+000	 4.804059122472683e+000
 5.699749348331250e-001	 1.189214083391567e+000	 4.632304487900329e+000
 5.579913176222797e-001	 1.194883781768332e+000	 4.451936245497316e+000
 5.459726287174649e-001	 1.200423030088373e+000	 4.262044619883197e+000
 5.339209244974658e-001	 1.205831666883797e+000	 4.061745367974819e+000
 5.218382566966937e-001	 1.211109572385964e+000	 3.850181200684300e+000
 5.097266713886673e-001	 1.216256668205261e+000	 3.626523130945599e+000
 4.975882079851816e-001	 1.221272916982444e+000	 3.389971746035358e+000
 4.854248982520341e-001	 1.226158322012335e+000	 3.139758402411734e+000
 6.085653358094177e-001	 1.176976309031620e+000	 5.161812832029068e+000
 5.966430657233662e-001	 1.183064686352249e+000	 4.989323681914864e+000
 5.846793417846693e-001	 1.189022736224660e+000	 4.821803431245185e+000
 5.726762378454600e-001	 1.194850169090635e+000	 4.658424337561899e+000
 5.606358262407301e-001	 1.200546738075762e+000	 4.498368836889123e+000
 5.485601767253409e-001	 1.206112238757523e+000	 4.340831134798548e+000
 5.364513554239500e-001	 1.211546508902772e+000	 4.185018743845501e+000
 5.243114237948285e-001	 1.216849428175245e+000	 4.030153964556957e+000
 5.121424376085270e-001	 1.222020917813814e+000	 3.875475307368634e+000
 4.999464459423000e-001	 1.227060940282177e+000	 3.720238853124694e+000
 4.877254901911676e-001	 1.231969498890770e+000	 3.563719549981795e+000
 6.114359270169761e-001	 1.182528084071630e+000	 5.186651367709191e+000
 5.994574198086521e-001	 1.188645180152929e+000	 5.002416930242427e+000
 5.874372632105207e-001	 1.194631334033957e+000	 4.834726464061678e+000
 5.753775408570370e-001	 1.200486254790657e+000	 4.682879685528016e+000
 5.632803348583576e-001	 1.206209694384111e+000	 4.546174274114785e+000
 5.511477247323400e-001	 1.211801447427546e+000	 4.423907492727341e+000
 5.389817863495126e-001	 1.217261350922563e+000	 4.315377769555762e+000
 5.267845908920074e-001	 1.222589283965277e+000	 4.219886238333118e+000
 5.145582038274064e-001	 1.227785167423042e+000	 4.136738234065828e+000
 5.023046838984233e-001	 1.232848963582499e+000	 4.065244741494812e+000
 4.900260821293010e-001	 1.237780675769698e+000	 4.004723793748905e+000
 6.143065182240305e-001	 1.188079859112640e+000	 5.200085628215617e+000
 6.022717738933393e-001	 1.194225673954604e+000	 5.007454069274457e+000
 5.901951846356888e-001	 1.200239931844234e+000	 4.842825855962191e+000
 5.780788438678557e-001	 1.206122340491632e+000	 4.705627083865897e+000
 5.659248434751627e-001	 1.211872650693378e+000	 4.595269678563644e+000
 5.537352727384619e-001	 1.217490656098441e+000	 4.511153045386483e+000
 5.415122172741537e-001	 1.222976192943172e+000	 4.452665695775551e+000
 5.292577579882304e-001	 1.228329139756061e+000	 4.419186846797334e+000
 5.169739700453052e-001	 1.233549417032946e+000	 4.410087990554848e+000
 5.046629218535516e-001	 1.238636986883412e+000	 4.424734430398301e+000
 4.923266740664347e-001	 1.243591852649123e+000	 4.462486781027133e+000
 6.171771094305811e-001	 1.193631634154650e+000	 5.202198080453791e+000
 6.050861279774277e-001	 1.199806167757274e+000	 5.004474055977800e+000
 5.929531060601732e-001	 1.205848529655491e+000	 4.846098655141556e+000
 5.807801468779162e-001	 1.211758426193561e+000	 4.726623283841816e+000
 5.685693520911451e-001	 1.217535607003563e+000	 4.645573126016511e+000
 5.563228207437070e-001	 1.223179864770209e+000	 4.602448823041676e+000
 5.440426481978735e-001	 1.228691034964597e+000	 4.596728144681531e+000
 5.317309250834975e-001	 1.234068995547594e+000	 4.627867647854260e+000
 5.193897362622237e-001	 1.239313666643525e+000	 4.695304319617735e+000
 5.070211598076847e-001	 1.244425010184914e+000	 4.798457200928654e+000
 4.946272660025681e-001	 1.249403029529041e+000	 4.936728987894032e+000
 6.200477006366276e-001	 1.199183409197659e+000	 5.193068992782806e+000
 6.079004820609172e-001	 1.205386661560939e+000	 4.993514476272570e+000
 5.957110274839741e-001	 1.211457127467727e+000	 4.844541336533232e+000
 5.834814498872187e-001	 1.217394511896444e+000	 4.745825231309403e+000
 5.712138607063049e-001	 1.223198563314667e+000	 4.697003624554759e+000
 5.589103687480748e-001	 1.228869073442848e+000	 4.697677495653141e+000
 5.465730791206718e-001	 1.234405876986839e+000	 4.747413055060568e+000
 5.342040921778087e-001	 1.239808851339880e+000	 4.845743462316277e+000
 5.218055024781616e-001	 1.245077916254779e+000	 4.992170542503543e+000
 5.093793977608226e-001	 1.250213033487006e+000	 5.153499891796853e+000
 4.969278579377017e-001	 1.255214206409455e+000	 4.624504851859285e+000
 6.229182918421704e-001	 1.204735184241669e+000	 5.172776485673857e+000
 6.107148361438078e-001	 1.210967155365599e+000	 4.974611576623746e+000
 5.984689489070912e-001	 1.217065725280943e+000	 4.838149815016874e+000
 5.861827528957631e-001	 1.223030597600281e+000	 4.763190062226510e+000
 5.738583693206422e-001	 1.228861519626688e+000	 4.749481093077499e+000
 5.614979167515658e-001	 1.234558282116361e+000	 4.796723335095025e+000
 5.491035100425487e-001	 1.240120719009897e+000	 4.904570628932749e+000
 5.366772592711639e-001	 1.245548707132915e+000	 5.072632005634590e+000
 5.242212686931191e-001	 1.250842165866710e+000	 5.171993637621410e+000
 5.117376357129655e-001	 1.256001056789689e+000	 4.667971437849171e+000
 4.992284498718352e-001	 1.261025383290363e+000	 4.237148675346825e+000
 6.257888830472089e-001	 1.210286959286679e+000	 5.136734265542182e+000
 6.135291902260998e-001	 1.216547649171253e+000	 4.947800294762327e+000
 6.012268703295254e-001	 1.222674323095138e+000	 4.826919458267074e+000
 5.888840559035494e-001	 1.228666683305072e+000	 4.778675098295206e+000
 5.765028779341568e-001	 1.234524475939628e+000	 4.802926340412313e+000
 5.640854647541796e-001	 1.240247490790746e+000	 4.899472178412948e+000
 5.516339409635042e-001	 1.245835561033772e+000	 5.068053279641067e+000
 5.391504263635634e-001	 1.251288562926702e+000	 5.112922752464897e+000
 5.266370349070964e-001	 1.256606415479316e+000	 4.612884639331267e+000
 5.140958736641133e-001	 1.261789080092961e+000	 4.197052980159364e+000
 5.015290418049687e-001	 1.266836560171767e+000	 3.866382834888702e+000
 6.286594742517437e-001	 1.215838734332688e+000	 5.077797011889553e+000
 6.163435443077927e-001	 1.222128142977902e+000	 4.913114289564659e+000
 6.039847917512754e-001	 1.228282920910313e+000	 4.810845099242456e+000
 5.915853589105775e-001	 1.234302769010816e+000	 4.792237842720665e+000
 5.791473865468488e-001	 1.240187432253486e+000	 4.857261044996721e+000
 5.666730127559165e-001	 1.245936699466003e+000	 5.005811392090855e+000
 5.541643718835381e-001	 1.251550403058464e+000	 5.004132095937669e+000
 5.416235934550068e-001	 1.257028418721240e+000	 4.487709167014304e+000
 5.290528011200929e-001	 1.262370665092596e+000	 4.066139024417358e+000
 5.164541116142659e-001	 1.267577103396824e+000	 3.740559552370407e+000
 5.038296337371023e-001	 1.272647737053665e+000	 3.511993590189013e+000
 6.315300654557748e-001	 1.221390509379698e+000	 5.008595757123612e+000
 6.191578983888870e-001	 1.227708636785547e+000	 4.870585970118778e+000
 6.067427131723423e-001	 1.233891518726467e+000	 4.789921048341708e+000
 5.942866619168479e-001	 1.239938854717516e+000	 4.803835976086342e+000
 5.817918951587183e-001	 1.245850388568263e+000	 4.912407735114169e+000
 5.692605607567765e-001	 1.251625908142133e+000	 4.872493048883535e+000
 5.566948028026508e-001	 1.257265245083973e+000	 4.319978062158630e+000
 5.440967605454946e-001	 1.262768274516530e+000	 3.872567342858596e+000
 5.314685673321093e-001	 1.268134914706553e+000	 3.531605424535537e+000
 5.188123495634236e-001	 1.273365126701276e+000	 3.298309983115580e+000
 5.061302256682360e-001	 1.278458913936058e+000	 3.173771500762904e+000
 4.831243063119005e-001	 1.220347145134396e+000	 2.733129647459557e+000
 4.709959275864864e-001	 1.225079216290032e+000	 2.517340715436841e+000
 4.588468378988388e-001	 1.229681190122411e+000	 2.362076118846286e+000
 4.466790308558273e-001	 1.234153188784162e+000	 2.267271917455020e+000
 4.344944887170473e-001	 1.238495373131757e+000	 2.232819025487271e+000
 4.222951815093537e-001	 1.242707942225439e+000	 2.258564606898597e+000
 4.100830661622987e-001	 1.246791132806623e+000	 2.344313479017799e+000
 3.978600856650660e-001	 1.250745218753666e+000	 2.373669672632028e+000
 3.856281682454601e-001	 1.254570510516933e+000	 1.982704465950711e+000
 3.733892265714637e-001	 1.258267354534074e+000	 1.671996599152052e+000
 3.611451569758364e-001	 1.261836132626474e+000	 1.441878241757022e+000
 4.854248982520341e-001	 1.226158322012335e+000	 3.139758402411734e+000
 4.732387653418635e-001	 1.230912926840644e+000	 3.035507902703808e+000
 4.610318228458444e-001	 1.235536814834643e+000	 2.982136399379276e+000
 4.488060738642126e-001	 1.240030108728639e+000	 2.979463924562659e+000
 4.365635100958947e-001	 1.244392970145088e+000	 3.027275683198992e+000
 4.243061109488258e-001	 1.248625599092139e+000	 3.125323410876895e+000
 4.120358426712701e-001	 1.252728233438547e+000	 2.848019758415358e+000
 3.997546575047410e-001	 1.256701148366852e+000	 2.426192492528046e+000
 3.874644928590799e-001	 1.260544655805752e+000	 2.074448318677275e+000
 3.751672705102121e-001	 1.264259103842602e+000	 1.793176259920919e+000
 3.628648958210532e-001	 1.267844876116982e+000	 1.582678957128827e+000
 4.877254901911676e-001	 1.231969498890770e+000	 3.563719549981795e+000
 4.754816030962457e-001	 1.236746637391650e+000	 3.568594670192611e+000
 4.632168077918707e-001	 1.241392439547168e+000	 3.614795401085698e+000
 4.509331168716443e-001	 1.245907028673310e+000	 3.702026063502057e+000
 4.386325314738243e-001	 1.250290567158513e+000	 3.784744312452819e+000
 4.263170403874259e-001	 1.254543255958833e+000	 3.290386803516855e+000
 4.139886191794256e-001	 1.258665334070365e+000	 2.855528434088057e+000
 4.016492293436659e-001	 1.262657077979831e+000	 2.480676524690964e+000
 3.893008174720252e-001	 1.266518801094265e+000	 2.166259971131780e+000
 3.769453144483715e-001	 1.270250853150723e+000	 1.912629613011927e+000
 3.645846346657765e-001	 1.273853619606984e+000	 1.720058718413132e+000
 4.900260821293010e-001	 1.237780675769698e+000	 4.004723793748905e+000
 4.777244408496332e-001	 1.242580347943052e+000	 4.116348579750567e+000
 4.654017927369177e-001	 1.247248064259989e+000	 4.259836195741275e+000
 4.530601598781222e-001	 1.251783948618176e+000	 4.157608557678093e+000
 4.407015528508360e-001	 1.256188164172033e+000	 3.677680684608673e+000
 4.283279698251541e-001	 1.260460912825523e+000	 3.247283389643653e+000
 4.159413956867652e-001	 1.264602434702077e+000	 2.866937839913629e+000
 4.035438011818407e-001	 1.268613007592605e+000	 2.537095577368458e+000
 3.911371420842961e-001	 1.272492946382472e+000	 2.258138676873517e+000
 3.787233583859422e-001	 1.276242602458439e+000	 2.030380013886682e+000
 3.663043735100058e-001	 1.279862363096480e+000	 1.854063639405188e+000
 4.923266740664347e-001	 1.243591852649123e+000	 4.462486781027133e+000
 4.799672786020257e-001	 1.248414058494848e+000	 4.678521468319608e+000
 4.675867776809853e-001	 1.253103688973104e+000	 4.435982844157016e+000
 4.551872028836465e-001	 1.257660868563236e+000	 3.987444939652070e+000
 4.427705742269298e-001	 1.262085761185648e+000	 3.578633079054684e+000
 4.303388992620106e-001	 1.266378569692205e+000	 3.210064617402328e+000
 4.178941721932888e-001	 1.270539535333684e+000	 2.882196304411631e+000
 4.054383730192653e-001	 1.274568937205172e+000	 2.595424249324309e+000
 3.929734666958927e-001	 1.278467091670372e+000	 2.350083987910218e+000
 3.805014023229238e-001	 1.282234351765748e+000	 2.146450649868047e+000
 3.680241123537414e-001	 1.285871106585470e+000	 1.984739224669283e+000
 4.946272660025681e-001	 1.249403029529041e+000	 4.936728987894032e+000
 4.822101163534236e-001	 1.254247769047039e+000	 4.598496871519295e+000
 4.697717626240734e-001	 1.258959313686514e+000	 4.197887659424290e+000
 4.573142458882172e-001	 1.263537788508491e+000	 3.827388691559061e+000
 4.448395956021059e-001	 1.267983358199356e+000	 3.487495703448824e+000
 4.323498286979950e-001	 1.272296226558882e+000	 3.178653037690253e+000
 4.198469486989963e-001	 1.276476635965185e+000	 2.901253433712386e+000
 4.073329448559400e-001	 1.280524866817534e+000	 2.655637911454654e+000
 3.948097913068149e-001	 1.284441236957967e+000	 2.442095747757290e+000
 3.822794462593167e-001	 1.288226101072650e+000	 2.260864544050134e+000
 3.697438511969834e-001	 1.291879850073954e+000	 2.112130383708214e+000
 4.969278579377017e-001	 1.255214206409455e+000	 4.624504851859285e+000
 4.844529541038263e-001	 1.260081479599625e+000	 4.287912345609231e+000
 4.719567475661823e-001	 1.264814938400219e+000	 3.972027751743013e+000
 4.594412888918340e-001	 1.269414708453940e+000	 3.677307267601786e+000
 4.469086169763642e-001	 1.273880955213159e+000	 3.404165073689352e+000
 4.343607581331077e-001	 1.278213883425555e+000	 3.152972967455501e+000
 4.217997252038880e-001	 1.282413736596580e+000	 2.924060081984687e+000
 4.092275166918644e-001	 1.286480796429689e+000	 2.717712688912853e+000
 3.966461159170627e-001	 1.290415382245255e+000	 2.534174084690752e+000
 3.840574901951205e-001	 1.294217850379147e+000	 2.373644559100286e+000
 3.714635900397317e-001	 1.297888593561930e+000	 2.236281444737588e+000
 4.992284498718352e-001	 1.261025383290363e+000	 4.237148675346825e+000
 4.866957918532345e-001	 1.265915190152606e+000	 3.991724943912227e+000
 4.741417325073118e-001	 1.270670563114219e+000	 3.758243641937688e+000
 4.615683318944972e-001	 1.275291628399584e+000	 3.537070930276686e+000
 4.489776383497044e-001	 1.279778552227057e+000	 3.328539960729323e+000
 4.363716875673482e-001	 1.284131540292220e+000	 3.132950449006243e+000
 4.237525017079636e-001	 1.288350837227869e+000	 2.950568322677509e+000
 4.111220885270389e-001	 1.292436726041638e+000	 2.781625443732886e+000
 3.984824405266362e-001	 1.296389527532237e+000	 2.626319405185114e+000
 3.858355341303356e-001	 1.300209599685237e+000	 2.484813400954529e+000
 3.731833288819863e-001	 1.303897337049401e+000	 2.357236168078768e+000
 5.015290418049687e-001	 1.266836560171767e+000	 3.866382834888702e+000
 4.889386296016479e-001	 1.271748900705981e+000	 3.709748110661695e+000
 4.763267174474619e-001	 1.276526187828513e+000	 3.556379158182026e+000
 4.636953748962069e-001	 1.281168548345423e+000	 3.406552685964369e+000
 4.510466597221271e-001	 1.285676149241049e+000	 3.260521338855591e+000
 4.383826170007169e-001	 1.290049197158880e+000	 3.118513210436569e+000
 4.257052782112233e-001	 1.294287937859052e+000	 2.980731420555489e+000
 4.130166603614632e-001	 1.298392655653381e+000	 2.847353757925830e+000
 4.003187651355352e-001	 1.302363672818913e+000	 2.718532387533289e+000
 3.876135780649617e-001	 1.306201348990921e+000	 2.594393622414082e+000
 3.749030677237471e-001	 1.309906080536366e+000	 2.475037759184986e+000
 5.038296337371023e-001	 1.272647737053665e+000	 3.511993590189013e+000
 4.911814673490663e-001	 1.277582611259752e+000	 3.441799094824268e+000
 4.785117023866325e-001	 1.282381812543102e+000	 3.366281360489952e+000
 4.658224178969627e-001	 1.287045468291457e+000	 3.285628222283612e+000
 4.531156810936318e-001	 1.291573746255135e+000	 3.200012335384710e+000
 4.403935464332138e-001	 1.295966854025534e+000	 3.109590627140229e+000
 4.276580547136670e-001	 1.300225038490128e+000	 3.014503804500441e+000
 4.149112321951373e-001	 1.304348585264918e+000	 2.914875917043881e+000
 4.021550897437599e-001	 1.308337818105282e+000	 2.810813975640409e+000
 3.893916219989990e-001	 1.312193098296199e+000	 2.702407626640386e+000
 3.766228065650143e-001	 1.315914824022824e+000	 2.589728881309474e+000
 5.061302256682360e-001	 1.278458913936058e+000	 3.173771500762904e+000
 4.934243050954900e-001	 1.283416321813917e+000	 3.187698863630432e+000
 4.806966873248240e-001	 1.288237437257986e+000	 3.187800467263683e+000
 4.679494608967650e-001	 1.292922388237685e+000	 3.174175847154044e+000
 4.551847024642187e-001	 1.297471343269316e+000	 3.146918181730187e+000
 4.424044758648387e-001	 1.301884510892183e+000	 3.106113684369756e+000
 4.296108312152951e-001	 1.306162139121100e+000	 3.051841041053311e+000
 4.168058040280616e-001	 1.310304514876250e+000	 2.984170894190085e+000
 4.039914143513103e-001	 1.314311963391346e+000	 2.903165372986087e+000
 3.911696659324473e-001	 1.318184847601070e+000	 2.808877670555525e+000
 3.783425454057877e-001	 1.321923567508776e+000	 2.701351667827079e+000
 3.611451569758364e-001	 1.261836132626474e+000	 1.441878241757022e+000
 3.488978387046960e-001	 1.265277261377502e+000	 1.278621586531446e+000
 3.366491331888646e-001	 1.268591191494459e+000	 1.131628702342989e+000
 3.244008833395572e-001	 1.271778407154506e+000	 1.000956134482576e+000
 3.121549128696126e-001	 1.274839425334990e+000	 8.866263265186910e-001
 2.999130256389632e-001	 1.277774795130041e+000	 7.886279055015937e-001
 2.876770050251312e-001	 1.280585097054086e+000	 7.069160277904317e-001
 2.754486133189352e-001	 1.283270942333248e+000	 6.414127835413651e-001
 2.632295911455614e-001	 1.285832972185600e+000	 5.920076577971564e-001
 2.510216569111111e-001	 1.288271857091194e+000	 5.585580460052498e-001
 2.388265062746995e-001	 1.290588296052861e+000	 5.408898217112093e-001
 3.628648958210532e-001	 1.267844876116982e+000	 1.582678957128827e+000
 3.505592569864999e-001	 1.271302391195951e+000	 1.424546104823315e+000
 3.382522243013182e-001	 1.274632101932993e+000	 1.281123786518196e+000
 3.259456494524911e-001	 1.277834494810872e+000	 1.152479935569067e+000
 3.136413648372040e-001	 1.280910089268737e+000	 1.038649248257974e+000
 3.013411829051992e-001	 1.283859437015448e+000	 9.396334381162740e-001
 2.890468955262723e-001	 1.286683121329789e+000	 8.554015508096842e-001
 2.767602733831037e-001	 1.289381756348486e+000	 7.858903376753473e-001
 2.644830653895705e-001	 1.291955986343029e+000	 7.310046858891959e-001
 2.522169981346604e-001	 1.294406484986235e+000	 6.906181031462189e-001
 2.399637753520563e-001	 1.296733954609519e+000	 6.645732546323429e-001
 3.645846346657765e-001	 1.273853619606984e+000	 1.720058718413132e+000
 3.522206752679050e-001	 1.277327521013804e+000	 1.566915827111998e+000
 3.398553154134575e-001	 1.280673012370860e+000	 1.426948200833227e+000
 3.274904155651849e-001	 1.283890582466525e+000	 1.300235165188875e+000
 3.151278168046198e-001	 1.286980753201741e+000	 1.186823659821336e+000
 3.027693401713134e-001	 1.289944078900106e+000	 1.086728462013033e+000
 2.904167860273358e-001	 1.292781145604755e+000	 9.999324708124399e-001
 2.780719334472284e-001	 1.295492570363019e+000	 9.263870498133142e-001
 2.657365396335600e-001	 1.298079000499804e+000	 8.660124266181628e-001
 2.534123393582050e-001	 1.300541112880693e+000	 8.186981469020437e-001
 2.411010444294131e-001	 1.302879613165684e+000	 7.843035809053163e-001
 3.663043735100058e-001	 1.279862363096480e+000	 1.854063639405188e+000
 3.538820935489112e-001	 1.283352650831062e+000	 1.705777701576712e+000
 3.414584065252825e-001	 1.286713922808064e+000	 1.569149535810853e+000
 3.290351816776387e-001	 1.289946670121465e+000	 1.444269865810332e+000
 3.166142687718595e-001	 1.293051417134004e+000	 1.331197866949182e+000
 3.041974974373056e-001	 1.296028720784013e+000	 1.229961359329925e+000
 2.917866765283215e-001	 1.298879169878984e+000	 1.140557061328734e+000
 2.793835935113096e-001	 1.301603384376846e+000	 1.062950901816084e+000
 2.669900138775304e-001	 1.304202014655926e+000	 9.970783891226044e-001
 2.546076805817447e-001	 1.306675740774568e+000	 9.428450347094300e-001
 2.422383135067700e-001	 1.309025271721357e+000	 9.001268294194378e-001
 3.680241123537414e-001	 1.285871106585470e+000	 1.984739224669283e+000
 3.555435118295183e-001	 1.289377780647723e+000	 1.841178036264986e+000
 3.430614976367929e-001	 1.292754833244602e+000	 1.707774714936439e+000
 3.305799477898525e-001	 1.296002757775691e+000	 1.584631389938517e+000
 3.181007207389234e-001	 1.299122081065525e+000	 1.471819466448543e+000
 3.056256547031763e-001	 1.302113362667171e+000	 1.369379788231738e+000
 2.931565670292294e-001	 1.304977194152475e+000	 1.277322860786572e+000
 2.806952535753471e-001	 1.307714198389967e+000	 1.195629133193110e+000
 2.682434881214814e-001	 1.310325028811393e+000	 1.124249336790165e+000
 2.558030218052796e-001	 1.312810368667860e+000	 1.063104878675802e+000
 2.433755825841268e-001	 1.315170930276537e+000	 1.012088287944995e+000
 3.697438511969834e-001	 1.291879850073954e+000	 2.112130383708214e+000
 3.572049301097268e-001	 1.295402910463789e+000	 1.973162513978548e+000
 3.446645887479893e-001	 1.298795743680476e+000	 1.842870010170847e+000
 3.321247139018261e-001	 1.302058845429203e+000	 1.721366416159204e+000
 3.195871727058114e-001	 1.305192744996305e+000	 1.608735362676884e+000
 3.070538119689249e-001	 1.308198004549580e+000	 1.505030699748708e+000
 2.945264575300596e-001	 1.311075218425229e+000	 1.410276689607117e+000
 2.820069136393410e-001	 1.313825012402382e+000	 1.324468258365655e+000
 2.694969623654130e-001	 1.316448042966206e+000	 1.247571304603186e+000
 2.569983630288097e-001	 1.318944996560569e+000	 1.179523062913746e+000
 2.445128516614836e-001	 1.321316588831224e+000	 1.120232520367177e+000
 3.714635900397317e-001	 1.297888593561930e+000	 2.236281444737588e+000
 3.588663483895360e-001	 1.301428040279259e+000	 2.101776206746337e+000
 3.462676798588710e-001	 1.304836654115684e+000	 1.974481057031113e+000
 3.336694800135597e-001	 1.308114933082003e+000	 1.854520964739837e+000
 3.210736246725234e-001	 1.311263408926343e+000	 1.741991783572990e+000
 3.084819692345517e-001	 1.314282646431239e+000	 1.636960354142379e+000
 2.958963480308121e-001	 1.317173242697245e+000	 1.539464666826405e+000
 2.833185737032913e-001	 1.319935826414092e+000	 1.449514083452886e+000
 2.707504366093254e-001	 1.322571057120365e+000	 1.367089615996946e+000
 2.581937042523350e-001	 1.325079624452694e+000	 1.292144260393203e+000
 2.456501207388404e-001	 1.327462247385419e+000	 1.224603383443230e+000
 3.731833288819863e-001	 1.303897337049401e+000	 2.357236168078768e+000
 3.605277666689466e-001	 1.307453170094133e+000	 2.227063589898717e+000
 3.478707709694385e-001	 1.310877564550228e+000	 2.102652869255985e+000
 3.352142461250531e-001	 1.314171020734088e+000	 1.984140412796599e+000
 3.225600766390596e-001	 1.317334072855639e+000	 1.871634296242681e+000
 3.099101265000568e-001	 1.320367288312148e+000	 1.765214336824999e+000
 2.972662385314868e-001	 1.323271266968524e+000	 1.664932226254122e+000
 2.846302337671980e-001	 1.326046640425096e+000	 1.570811722590612e+000
 2.720039108532184e-001	 1.328694071273870e+000	 1.482848899257835e+000
 2.593890454758553e-001	 1.331214252344237e+000	 1.401012449325844e+000
 2.467873898161972e-001	 1.333607905939121e+000	 1.325244043095935e+000
 3.749030677237471e-001	 1.309906080536366e+000	 2.475037759184986e+000
 3.621891849479583e-001	 1.313478299908411e+000	 2.349068555752829e+000
 3.494738620796916e-001	 1.316918474984107e+000	 2.227429853066687e+000
 3.367590122363067e-001	 1.320227108385461e+000	 2.110269509048384e+000
 3.240465286054198e-001	 1.323404736784194e+000	 1.997707822114224e+000
 3.113382837654400e-001	 1.326451930192309e+000	 1.889837573836570e+000
 2.986361290320836e-001	 1.329369291239065e+000	 1.786724132192241e+000
 2.859418938310611e-001	 1.332157454435395e+000	 1.688405613804322e+000
 2.732573850970921e-001	 1.334817085426721e+000	 1.594893103464608e+000
 2.605843866993710e-001	 1.337348880235197e+000	 1.506170929100946e+000
 2.479246588935540e-001	 1.339753564492330e+000	 1.422196990258477e+000
 3.766228065650143e-001	 1.315914824022824e+000	 2.589728881309474e+000
 3.638506032265710e-001	 1.319503429722092e+000	 2.467834426922706e+000
 3.510769531896303e-001	 1.322959385417321e+000	 2.348855821036862e+000
 3.383037783473201e-001	 1.326283196036120e+000	 2.232952388160711e+000
 3.255329805716041e-001	 1.329475400712008e+000	 2.120256651680747e+000
 3.127664410307015e-001	 1.332536572071719e+000	 2.010874346898013e+000
 3.000060195326029e-001	 1.335467315508869e+000	 1.904884494717949e+000
 2.872535538948805e-001	 1.338268268444987e+000	 1.802339534443379e+000
 2.745108593409464e-001	 1.340940099578918e+000	 1.703265513996821e+000
 2.617797279228818e-001	 1.343483508125574e+000	 1.607662335783465e+000
 2.490619279709109e-001	 1.345899223045047e+000	 1.515504056283832e+000
 3.783425454057877e-001	 1.321923567508776e+000	 2.701351667827079e+000
 3.655120215047849e-001	 1.325528559535179e+000	 2.583403969267877e+000
 3.526800442992548e-001	 1.329000295849870e+000	 2.466974005584684e+000
 3.398485444580935e-001	 1.332339283686066e+000	 2.352232584703272e+000
 3.270194325376127e-001	 1.335546064639080e+000	 2.239324458839573e+000
 3.141945982958410e-001	 1.338621213950380e+000	 2.128368308056282e+000
 3.013759100330444e-001	 1.341565339777935e+000	 2.019456784555312e+000
 2.885652139586564e-001	 1.344379082453875e+000	 1.912656616197309e+000
 2.757643335847815e-001	 1.347063113730461e+000	 1.808008767619550e+000
 2.629750691463878e-001	 1.349618136015367e+000	 1.705528657188910e+000
 2.501991970482677e-001	 1.352044881597271e+000	 1.605206427937666e+000
 2.388265062746995e-001	 1.290588296052861e+000	 5.408898217112093e-001
 2.266458116458152e-001	 1.292783015848981e+000	 5.245265753535153e-001
 2.144812217079931e-001	 1.294856770278248e+000	 5.092145277278928e-001
 2.023343609679665e-001	 1.296810339397977e+000	 4.947107162146656e-001
 1.902068293296544e-001	 1.298644528757458e+000	 4.807553241374487e-001
 1.781002016939051e-001	 1.300360168626335e+000	 4.670722053461222e-001
 1.660160275835144e-001	 1.301958113219169e+000	 4.533694381244912e-001
 1.539558307933490e-001	 1.303439239917070e+000	 4.393399064120056e-001
 1.419211090653903e-001	 1.304804448487235e+000	 4.246619063080332e-001
 1.299133337884784e-001	 1.306054660301212e+000	 4.089997758135398e-001
 1.179339497225086e-001	 1.307190817552695e+000	 3.920045457568795e-001
 2.399637753520563e-001	 1.296733954609519e+000	 6.645732546323429e-001
 2.277250774151294e-001	 1.298939125452136e+000	 6.374310438388398e-001
 2.155025608583168e-001	 1.301022754902325e+000	 6.121222564305213e-001
 2.032978579240975e-001	 1.302985626731956e+000	 5.884139500259724e-001
 1.911125761349802e-001	 1.304828550326273e+000	 5.660551837811708e-001
 1.789482978913408e-001	 1.306552359908581e+000	 5.447775569107642e-001
 1.668065800946545e-001	 1.308157913761131e+000	 5.242957778730779e-001
 1.546889537959538e-001	 1.309646093443040e+000	 5.043082621434342e-001
 1.425969238693241e-001	 1.311017803006110e+000	 4.844977564827828e-001
 1.305319687102189e-001	 1.312273968209371e+000	 4.645319875884717e-001
 1.184955399583419e-001	 1.313415535733156e+000	 4.440643330112454e-001
 2.411010444294131e-001	 1.302879613165684e+000	 7.843035809053163e-001
 2.288043431844438e-001	 1.305095235054894e+000	 7.466552069568769e-001
 2.165239000086405e-001	 1.307188739526088e+000	 7.116186635808449e-001
 2.042613548802286e-001	 1.309160914065698e+000	 6.789710117641539e-001
 1.920183229403060e-001	 1.311012571894912e+000	 6.484701689592791e-001
 1.797963940887766e-001	 1.312744551190707e+000	 6.198554615608899e-001
 1.675971326057947e-001	 1.314357714303017e+000	 5.928482093891054e-001
 1.554220767985586e-001	 1.315852946968967e+000	 5.671523400417489e-001
 1.432727386732581e-001	 1.317231157524966e+000	 5.424550309532403e-001
 1.311506036319595e-001	 1.318493276117526e+000	 5.184273769889958e-001
 1.190571301941752e-001	 1.319640253913617e+000	 4.947250813862247e-001
 2.422383135067700e-001	 1.309025271721357e+000	 9.001268294194378e-001
 2.298836089537582e-001	 1.311251344657254e+000	 8.522408740572400e-001
 2.175452391589642e-001	 1.313354724149538e+000	 8.077414657575878e-001
 2.052248518363595e-001	 1.315336201399199e+000	 7.664156528290719e-001
 1.929240697456319e-001	 1.317196593463377e+000	 7.280301942081029e-001
 1.806444902862123e-001	 1.318936742472710e+000	 6.923321259102161e-001
 1.683876851169349e-001	 1.320557514844825e+000	 6.590493608352674e-001
 1.561551998011635e-001	 1.322059800494851e+000	 6.278913197228614e-001
 1.439485534771920e-001	 1.323444512043802e+000	 5.985495910353397e-001
 1.317692385537000e-001	 1.324712584025675e+000	 5.706986175248915e-001
 1.196187204300086e-001	 1.325864972094079e+000	 5.439964072374610e-001
 2.433755825841268e-001	 1.315170930276537e+000	 1.012088287944995e+000
 2.309628747230725e-001	 1.317407454259216e+000	 9.542291814486166e-001
 2.185665783092879e-001	 1.319520708772674e+000	 9.005277727016560e-001
 2.061883487924906e-001	 1.321511488732461e+000	 8.507810820990417e-001
 1.938298165509577e-001	 1.323380615031666e+000	 8.047646939633644e-001
 1.814925864836479e-001	 1.325128933754592e+000	 7.622333369895589e-001
 1.691782376280751e-001	 1.326757315386556e+000	 7.229214993976760e-001
 1.568883228037682e-001	 1.328266654020692e+000	 6.865440765185885e-001
 1.446243682811259e-001	 1.329657866562619e+000	 6.527970485311999e-001
 1.323878734754406e-001	 1.330931891933820e+000	 6.213581860403217e-001
 1.201803106658419e-001	 1.332089690274540e+000	 5.918877811776240e-001
 2.445128516614836e-001	 1.321316588831224e+000	 1.120232520367177e+000
 2.320421404923867e-001	 1.323563563860780e+000	 1.052660608050760e+000
 2.195879174596117e-001	 1.325686693395498e+000	 9.900141014278395e-001
 2.071518457486216e-001	 1.327686776065485e+000	 9.320999785478066e-001
 1.947355633562836e-001	 1.329564636599780e+000	 8.787026337251215e-001
 1.823406826810837e-001	 1.331321125036354e+000	 8.295844720048068e-001
 1.699687901392152e-001	 1.332957115928210e+000	 7.844865396820965e-001
 1.576214458063731e-001	 1.334473507546488e+000	 7.431291885520736e-001
 1.453001830850598e-001	 1.335871221081417e+000	 7.052127715329970e-001
 1.330065083971811e-001	 1.337151199841961e+000	 6.704183672877921e-001
 1.207419009016752e-001	 1.338314408455001e+000	 6.384085314661987e-001
 2.456501207388404e-001	 1.327462247385419e+000	 1.224603383443230e+000
 2.331214062617010e-001	 1.329719673461946e+000	 1.147574990612305e+000
 2.206092566099354e-001	 1.331852678018007e+000	 1.076236389947829e+000
 2.081153427047526e-001	 1.333862063398268e+000	 1.010404503510971e+000
 1.956413101616094e-001	 1.335748658167719e+000	 9.498725209141442e-001
 1.831887788785194e-001	 1.337513316317994e+000	 8.944105078226141e-001
 1.707593426503554e-001	 1.339156916469786e+000	 8.437660518742445e-001
 1.583545688089779e-001	 1.340680361072242e+000	 7.976649436191493e-001
 1.459759978889937e-001	 1.342084575600195e+000	 7.558118900630185e-001
 1.336251433189217e-001	 1.343370507750096e+000	 7.178912583741997e-001
 1.213034911375085e-001	 1.344539126635463e+000	 6.835678473036825e-001
 2.467873898161972e-001	 1.333607905939121e+000	 1.325244043095935e+000
 2.342006720310153e-001	 1.335875783062715e+000	 1.239011538507095e+000
 2.216305957602592e-001	 1.338018662640203e+000	 1.159230010607575e+000
 2.090788396608836e-001	 1.340037350730813e+000	 1.085726312612860e+000
 1.965470569669353e-001	 1.341932679735482e+000	 1.018302415424355e+000
 1.840368750759551e-001	 1.343705507599512e+000	 9.567360301959416e-001
 1.715498951614955e-001	 1.345356717011284e+000	 9.007812696766755e-001
 1.590876918115827e-001	 1.346887214597952e+000	 8.501693458753572e-001
 1.466518126929277e-001	 1.348297930118954e+000	 8.046093015603676e-001
 1.342437782406623e-001	 1.349589815658226e+000	 7.637887730858395e-001
 1.218650813733418e-001	 1.350763844815924e+000	 7.273747820366761e-001
 2.479246588935540e-001	 1.339753564492330e+000	 1.422196990258477e+000
 2.352799378003296e-001	 1.342031892663085e+000	 1.327008848123350e+000
 2.226519349105829e-001	 1.344184647262086e+000	 1.239029783065080e+000
 2.100423366170146e-001	 1.346212638063118e+000	 1.158096567365625e+000
 1.974528037722611e-001	 1.348116701303070e+000	 1.084019939889493e+000
 1.848849712733908e-001	 1.349897698880909e+000	 1.016585242732886e+000
 1.723404476726357e-001	 1.351556517552706e+000	 9.555530980249573e-001
 1.598208148141875e-001	 1.353094068123619e+000	 9.006601223447250e-001
 1.473276274968615e-001	 1.354511284637695e+000	 8.516196762146269e-001
 1.348624131624028e-001	 1.355809123566352e+000	 8.081226460912357e-001
 1.224266716091751e-001	 1.356988562996386e+000	 7.698382562735370e-001
 2.490619279709109e-001	 1.345899223045047e+000	 1.515504056283832e+000
 2.363592035696440e-001	 1.348188002263058e+000	 1.411604916859698e+000
 2.236732740609066e-001	 1.350350631883655e+000	 1.315669986905885e+000
 2.110058335731456e-001	 1.352387925395184e+000	 1.227545946450786e+000
 1.983585505775870e-001	 1.354300722870483e+000	 1.147052289664342e+000
 1.857330674708265e-001	 1.356089890162184e+000	 1.073981975624163e+000
 1.731310001837759e-001	 1.357756318094050e+000	 1.008102120595878e+000
 1.605539378167923e-001	 1.359300921649242e+000	 9.491547292444953e-001
 1.480034423007955e-001	 1.360724639156415e+000	 8.968574621554665e-001
 1.354810480841434e-001	 1.362028431474473e+000	 8.509044370320588e-001
 1.229882618450085e-001	 1.363213281176847e+000	 8.109670609141714e-001
 2.501991970482677e-001	 1.352044881597271e+000	 1.605206427937666e+000
 2.374384693389584e-001	 1.354344111862633e+000	 1.492837156736085e+000
 2.246946132112303e-001	 1.356516616504911e+000	 1.389184373918709e+000
 2.119693305292766e-001	 1.358563212727011e+000	 1.294104656691114e+000
 1.992642973829129e-001	 1.360484744437721e+000	 1.207426242537599e+000
 1.865811636682623e-001	 1.362282081443339e+000	 1.128949694127403e+000
 1.739215526949161e-001	 1.363956118635316e+000	 1.058448607107154e+000
 1.612870608193972e-001	 1.365507775174822e+000	 9.956703581400257e-001
 1.486792571047294e-001	 1.366937993675118e+000	 9.403368904970966e-001
 1.360996830058839e-001	 1.368247739382590e+000	 8.921455345001984e-001
 1.235498520808418e-001	 1.369437999357308e+000	 8.507698600993596e-001
 1.179339497225086e-001	 1.307190817552695e+000	 3.920045457568795e-001
 1.059843747472164e-001	 1.308213882475532e+000	 3.591593918753975e-001
 9.406599963403002e-002	 1.309124836563052e+000	 3.324990164833866e-001
 8.218018784149464e-002	 1.309924679789219e+000	 3.116155800669407e-001
 7.032827533472953e-002	 1.310614429832114e+000	 2.960845253268600e-001
 5.851157042733094e-002	 1.311195121300776e+000	 2.854654665709042e-001
 4.673135364574900e-002	 1.311667804965984e+000	 2.793030910210267e-001
 3.498887761573204e-002	 1.312033546995621e+000	 2.771280697959298e-001
 2.328536697041906e-002	 1.312293428195254e+000	 2.784579763602949e-001
 1.162201827964448e-002	 1.312448543254535e+000	 2.827982102922133e-001
 0.000000000000000e+000	 1.312500000000000e+000	 2.896429242713171e-001
 1.184955399583419e-001	 1.313415535733156e+000	 4.440643330112454e-001
 1.064890622452100e-001	 1.314443472393405e+000	 4.093545986932809e-001
 9.451393296494579e-002	 1.315358764357251e+000	 3.808827995350638e-001
 8.257152206875441e-002	 1.316162416360439e+000	 3.582398143319414e-001
 7.066317188349387e-002	 1.316855450927135e+000	 3.409994999595959e-001
 5.879019695282523e-002	 1.317438907593088e+000	 3.287195908516985e-001
 4.695388390094370e-002	 1.317913842132745e+000	 3.209426107150487e-001
 3.515549131848222e-002	 1.318281325790982e+000	 3.171967941933048e-001
 2.339624967016626e-002	 1.318542444520057e+000	 3.169970162528932e-001
 1.167736122378192e-002	 1.318698298222429e+000	 3.198457271033616e-001
 0.000000000000000e+000	 1.318750000000000e+000	 3.252338905266135e-001
 1.190571301941752e-001	 1.319640253913617e+000	 4.947250813862247e-001
 1.069937497432035e-001	 1.320673062311279e+000	 4.582101413981925e-001
 9.496186629586155e-002	 1.321592692151450e+000	 4.279901683931541e-001
 8.296285629601422e-002	 1.322400152931659e+000	 4.036547224372917e-001
 7.099806843225820e-002	 1.323096472022156e+000	 3.847760331129619e-001
 5.906882347831951e-002	 1.323682693885399e+000	 3.709099092281061e-001
 4.717641415613840e-002	 1.324159879299507e+000	 3.615966610753482e-001
 3.532210502123241e-002	 1.324529104586343e+000	 3.563620329315027e-001
 2.350713236991347e-002	 1.324791460844860e+000	 3.547181435281180e-001
 1.173270416791936e-002	 1.324948053190324e+000	 3.561644322782174e-001
 0.000000000000000e+000	 1.325000000000000e+000	 3.601886091000770e-001
 1.196187204300086e-001	 1.325864972094079e+000	 5.439964072374610e-001
 1.074984372411971e-001	 1.326902652229152e+000	 5.057351664957491e-001
 9.540979962677731e-002	 1.327826619945649e+000	 4.738298193114824e-001
 8.335419052327397e-002	 1.328637889502879e+000	 4.478685700858433e-001
 7.133296498102255e-002	 1.329337493117177e+000	 4.274219797191925e-001
 5.934745000381381e-002	 1.329926480177710e+000	 4.120438856894964e-001
 4.739894441133311e-002	 1.330405916466269e+000	 4.012723350059028e-001
 3.548871872398259e-002	 1.330776883381705e+000	 3.946305276876768e-001
 2.361801506966067e-002	 1.331040477169663e+000	 3.916277684733169e-001
 1.178804711205680e-002	 1.331197808158218e+000	 3.917604245057220e-001
 0.000000000000000e+000	 1.331250000000000e+000	 3.945128868073636e-001
 1.201803106658419e-001	 1.332089690274540e+000	 5.918877811776240e-001
 1.080031247391906e-001	 1.333132242147025e+000	 5.519386778279490e-001
 9.585773295769309e-002	 1.334060547739849e+000	 5.184103091084065e-001
 8.374552475053376e-002	 1.334875626074099e+000	 4.908894869218614e-001
 7.166786152978692e-002	 1.335578514212197e+000	 4.689450621706710e-001
 5.962607652930810e-002	 1.336170266470021e+000	 4.521288553492949e-001
 4.762147466652781e-002	 1.336651953633030e+000	 4.399766003356758e-001
 3.565533242673277e-002	 1.337024662177065e+000	 4.320088990014014e-001
 2.372889776940788e-002	 1.337289493494466e+000	 4.277321843082931e-001
 1.184339005619424e-002	 1.337447563126113e+000	 4.266396896081622e-001
 0.000000000000000e+000	 1.337500000000000e+000	 4.282124219258946e-001
 1.207419009016752e-001	 1.338314408455001e+000	 6.384085314661987e-001
 1.085078122371841e-001	 1.339361832064899e+000	 5.968295398880472e-001
 9.630566628860884e-002	 1.340294475534048e+000	 5.617400584083635e-001
 8.413685897779354e-002	 1.341113362645318e+000	 5.327254696931758e-001
 7.200275807855126e-002	 1.341819535307218e+000	 5.093528734029219e-001
 5.990470305480240e-002	 1.342414052762333e+000	 4.911720274404325e-001
 4.784400492172251e-002	 1.342897990799792e+000	 4.777163027268427e-001
 3.582194612948295e-002	 1.343272440972427e+000	 4.685036490913698e-001
 2.383978046915507e-002	 1.343538509819269e+000	 4.630375699079577e-001
 1.189873300033168e-002	 1.343697318094007e+000	 4.608081031665079e-001
 0.000000000000000e+000	 1.343750000000000e+000	 4.612928067182571e-001
 1.213034911375085e-001	 1.344539126635463e+000	 6.835678473036825e-001
 1.090124997351777e-001	 1.345591421982771e+000	 6.404164810504252e-001
 9.675359961952459e-002	 1.346528403328247e+000	 6.038273547960090e-001
 8.452819320505332e-002	 1.347351099216539e+000	 5.733843853281708e-001
 7.233765462731559e-002	 1.348060556402239e+000	 5.486528798908817e-001
 6.018332958029669e-002	 1.348657839054644e+000	 5.291804882304807e-001
 4.806653517691722e-002	 1.349144027966553e+000	 5.144981685031659e-001
 3.598855983223315e-002	 1.349520219767788e+000	 5.041211645939790e-001
 2.395066316890228e-002	 1.349787526144072e+000	 4.975499924495895e-001
 1.195407594446912e-002	 1.349947073061902e+000	 4.942714330717676e-001
 0.000000000000000e+000	 1.350000000000000e+000	 4.937595298866996e-001
 1.218650813733418e-001	 1.350763844815924e+000	 7.273747820366761e-001
 1.095171872331713e-001	 1.351821011900645e+000	 6.827080967031983e-001
 9.720153295044037e-002	 1.352762331122447e+000	 6.446803558798083e-001
 8.491952743231311e-002	 1.353588835787759e+000	 6.128739739268659e-001
 7.267255117607996e-002	 1.354301577497260e+000	 5.868524245634248e-001
 6.046195610579098e-002	 1.354901625346955e+000	 5.661612038545536e-001
 4.828906543211192e-002	 1.355390065133315e+000	 5.503288073984795e-001
 3.615517353498333e-002	 1.355767998563149e+000	 5.388677192275622e-001
 2.406154586864948e-002	 1.356036542468875e+000	 5.312754099858849e-001
 1.200941888860656e-002	 1.356196828029797e+000	 5.270353420062394e-001
 0.000000000000000e+000	 1.356250000000000e+000	 5.256179789593036e-001
 1.224266716091751e-001	 1.356988562996386e+000	 7.698382562735370e-001
 1.100218747311648e-001	 1.358050601818519e+000	 7.237128523001013e-001
 9.764946628135612e-002	 1.358996258916646e+000	 6.843070922746916e-001
 8.531086165957288e-002	 1.359826572358978e+000	 6.512018516703325e-001
 7.300744772484429e-002	 1.360542598592280e+000	 6.239587296360966e-001
 6.074058263128528e-002	 1.361145411639267e+000	 6.021210230698499e-001
 4.851159568730662e-002	 1.361636102300076e+000	 5.852147152330156e-001
 3.632178723773352e-002	 1.362015777358511e+000	 5.727494763814172e-001
 2.417242856839668e-002	 1.362285558793679e+000	 5.642196739482391e-001
 1.206476183274400e-002	 1.362446582997692e+000	 5.591053898569062e-001
 0.000000000000000e+000	 1.362500000000000e+000	 5.568734426104303e-001
 1.229882618450085e-001	 1.363213281176847e+000	 8.109670609141714e-001
 1.105265622291583e-001	 1.364280191736392e+000	 7.634390863273040e-001
 9.809739961227189e-002	 1.365230186710845e+000	 7.227154705003805e-001
 8.570219588683267e-002	 1.366064308930198e+000	 6.883755136490235e-001
 7.334234427360864e-002	 1.366783619687301e+000	 6.599788993681004e-001
 6.101920915677957e-002	 1.367389197931578e+000	 6.370666799374666e-001
 4.873412594250132e-002	 1.367882139466838e+000	 6.191622765116389e-001
 3.648840094048370e-002	 1.368263556153872e+000	 6.057724916350341e-001
 2.428331126814388e-002	 1.368534575118481e+000	 5.963885315809074e-001
 1.212010477688144e-002	 1.368696337965586e+000	 5.904870360616484e-001
 0.000000000000000e+000	 1.368750000000000e+000	 5.875311129175082e-001
 1.235498520808418e-001	 1.369437999357308e+000	 8.507698600993596e-001
 1.110312497271519e-001	 1.370509781654266e+000	 8.018950131870118e-001
 9.854533294318768e-002	 1.371464114505045e+000	 7.599132758024195e-001
 8.609353011409246e-002	 1.372302045501418e+000	 7.244023366153994e-001
 7.367724082237301e-002	 1.373024640782322e+000	 6.949199227418168e-001
 6.129783568227386e-002	 1.373632984223889e+000	 6.710047964271766e-001
 4.895665619769603e-002	 1.374128176633600e+000	 6.521777669559088e-001
 3.665501464323389e-002	 1.374511334949233e+000	 6.379427152079541e-001
 2.439419396789109e-002	 1.374783591443285e+000	 6.277876283085795e-001
 1.217544772101889e-002	 1.374946092933481e+000	 6.211856418936510e-001
 0.000000000000000e+000	 1.375000000000000e+000	 6.175960875568621e-001
 1.375000000000000e+000	 0.000000000000000e+000	 1.627982815569935e+001
 1.374946092933481e+000	 1.217544772101893e-002	 1.631982781728632e+001
 1.374783591443285e+000	 2.439419396789118e-002	 1.635027165363766e+001
 1.374511334949233e+000	 3.665501464323380e-002	 1.637091851463747e+001
 1.374128176633600e+000	 4.895665619769599e-002	 1.638153369694141e+001
 1.373632984223889e+000	 6.129783568227386e-002	 1.638188924701892e+001
 1.373024640782322e+000	 7.367724082237305e-002	 1.637176425738820e+001
 1.372302045501418e+000	 8.609353011409254e-002	 1.635094515528303e+001
 1.371464114505045e+000	 9.854533294318760e-002	 1.631922598298838e+001
 1.370509781654265e+000	 1.110312497271519e-001	 1.627640866908120e+001
 1.369437999357309e+000	 1.235498520808418e-001	 1.622230328981677e+001
 1.381250000000000e+000	 0.000000000000000e+000	 1.618652936638837e+001
 1.381195847901373e+000	 1.223079066515876e-002	 1.622630183430738e+001
 1.381032607768078e+000	 2.450507666764795e-002	 1.625657606488228e+001
 1.380759113744573e+000	 3.682162834600558e-002	 1.627711509021563e+001
 1.380374213800323e+000	 4.917918645292924e-002	 1.628768853261598e+001
 1.379876770516140e+000	 6.157646220782859e-002	 1.628807290678503e+001
 1.379265661877255e+000	 7.401213737122470e-002	 1.627805191490838e+001
 1.378539782072519e+000	 8.648486434147158e-002	 1.625741673387946e+001
 1.377698042299088e+000	 9.899326627425967e-002	 1.622596629388444e+001
 1.376739371571940e+000	 1.115359372253439e-001	 1.618350754757738e+001
 1.375662717537524e+000	 1.241114423169210e-001	 1.612985572907690e+001
 1.387500000000000e+000	 0.000000000000000e+000	 1.609580829405316e+001
 1.387445602869260e+000	 1.228613360930335e-002	 1.613540917313696e+001
 1.387281624092853e+000	 2.461595936742385e-002	 1.616556817448321e+001
 1.387006892539870e+000	 3.698824204882056e-002	 1.618605249541261e+001
 1.386620250966969e+000	 4.940171670823955e-002	 1.619663606817415e+001
 1.386120556808270e+000	 6.185508873350414e-002	 1.619709986131307e+001
 1.385506682972014e+000	 7.434703392025099e-002	 1.618723217365129e+001
 1.384777518643381e+000	 8.687619856908913e-002	 1.616682892010098e+001
 1.383931970092819e+000	 9.944119960564431e-002	 1.613569390852979e+001
 1.382968961489218e+000	 1.120406247239329e-001	 1.609363910689911e+001
 1.381887435717248e+000	 1.246730325534918e-001	 1.604048489989803e+001
 1.393750000000000e+000	 0.000000000000000e+000	 1.600761861768351e+001
 1.393695357837143e+000	 1.234147655345270e-002	 1.604710237267392e+001
 1.393530640417608e+000	 2.472684206721888e-002	 1.607719937677087e+001
 1.393254671335122e+000	 3.715485575167875e-002	 1.609768097597229e+001
 1.392866288133538e+000	 4.962424696362693e-002	 1.610832539722819e+001
 1.392364343100279e+000	 6.213371525930057e-002	 1.610891804902540e+001
 1.391747704066598e+000	 7.468193046945192e-002	 1.609925181429191e+001
 1.391015255214005e+000	 8.726753279694520e-002	 1.607912733483204e+001
 1.390165897886237e+000	 9.988913293734153e-002	 1.604835328650304e+001
 1.389198551406099e+000	 1.125453122229188e-001	 1.600674664434471e+001
 1.388112153896480e+000	 1.252346227905544e-001	 1.595413293687804e+001
 1.400000000000000e+000	 0.000000000000000e+000	 1.592191484343021e+001
 1.399945112805021e+000	 1.239681949760682e-002	 1.596133481397687e+001
 1.399779656742344e+000	 2.483772476703304e-002	 1.599142192315733e+001
 1.399502450130332e+000	 3.732146945458013e-002	 1.601195164955810e+001
 1.399112325300030e+000	 4.984677721909139e-002	 1.602270650005756e+001
 1.398608129392168e+000	 6.241234178521783e-002	 1.602347630966251e+001
 1.397988725161008e+000	 7.501682701882748e-002	 1.601405853337064e+001
 1.397252991784390e+000	 8.765886702503976e-002	 1.599425852925958e+001
 1.396399825679341e+000	 1.003370662693514e-001	 1.596388983200525e+001
 1.395428141322583e+000	 1.130499997223017e-001	 1.592277441603158e+001
 1.394336872075220e+000	 1.257962130281087e-001	 1.587074294749995e+001
 1.406250000000000e+000	 0.000000000000000e+000	 1.583865228622350e+001
 1.406194867772894e+000	 1.245216244176571e-002	 1.587806070154971e+001
 1.406028673067062e+000	 2.494860746686634e-002	 1.590818890308990e+001
 1.405750228925499e+000	 3.748808315752472e-002	 1.592881648637701e+001
 1.405358362466445e+000	 5.006930747463292e-002	 1.593973022390509e+001
 1.404851915683935e+000	 6.269096831125595e-002	 1.594072436425353e+001
 1.404229746255242e+000	 7.535172356837765e-002	 1.593160092294063e+001
 1.403490728354536e+000	 8.805020125337286e-002	 1.591216996419974e+001
 1.402633753472135e+000	 1.007849996016738e-001	 1.588224987286879e+001
 1.401657731238670e+000	 1.135546872220816e-001	 1.584166761558918e+001
 1.400561590253469e+000	 1.263578032661547e-001	 1.579025899051200e+001
 1.412500000000000e+000	 0.000000000000000e+000	 1.575778705187984e+001
 1.412444622740763e+000	 1.250750538592936e-002	 1.579723504512365e+001
 1.412277689391759e+000	 2.505949016671876e-002	 1.582745422551053e+001
 1.411998007720623e+000	 3.765469686051250e-002	 1.584822829031788e+001
 1.411604399632782e+000	 5.029183773025153e-002	 1.585934826379677e+001
 1.411095701975581e+000	 6.296959483741492e-002	 1.586061279561879e+001
 1.410470767349303e+000	 7.568662011810248e-002	 1.585182845075572e+001
 1.409728464924444e+000	 8.844153548194444e-002	 1.583280998997311e+001
 1.408867681264614e+000	 1.012329329343088e-001	 1.580338064012268e+001
 1.407887321154360e+000	 1.140593747222584e-001	 1.576337235341756e+001
 1.406786308431226e+000	 1.269193935046924e-001	 1.571262605488222e+001
 1.418750000000000e+000	 0.000000000000000e+000	 1.567927601968151e+001
 1.418694377708626e+000	 1.256284833009778e-002	 1.571881364192109e+001
 1.418526705716438e+000	 2.517037286659033e-002	 1.574917260080545e+001
 1.418245786515703e+000	 3.782131056354349e-002	 1.577014068058856e+001
 1.417850436799043e+000	 5.051436798594722e-002	 1.578151314386757e+001
 1.417339488267107e+000	 6.324822136369473e-002	 1.578309302938783e+001
 1.416711788443189e+000	 7.602151666800192e-002	 1.577469144098165e+001
 1.415966201494114e+000	 8.883286971075455e-002	 1.575612782681233e+001
 1.415101609056782e+000	 1.016808662672564e-001	 1.572723024809849e+001
 1.414116911069653e+000	 1.145640622228321e-001	 1.568783563649432e+001
 1.413011026608491e+000	 1.274809837437218e-001	 1.563779003930883e+001
 1.425000000000000e+000	 0.000000000000000e+000	 1.560307682541454e+001
 1.424944132676485e+000	 1.261819127427096e-002	 1.564275305938584e+001
 1.424775722041097e+000	 2.528125556648102e-002	 1.567329952322942e+001
 1.424493565310741e+000	 3.798792426661768e-002	 1.569450807383602e+001
 1.424096473965226e+000	 5.073689824171995e-002	 1.570617819917967e+001
 1.423583274558513e+000	 6.352684789009543e-002	 1.570811731551640e+001
 1.422952809536900e+000	 7.635641321807599e-002	 1.570014105541529e+001
 1.422203938063545e+000	 8.922420393980315e-002	 1.568207354578500e+001
 1.421335536848637e+000	 1.021287996005165e-001	 1.565374767505973e+001
 1.420346500984550e+000	 1.150687497238029e-001	 1.561500534871258e+001
 1.419235744785265e+000	 1.280425739832429e-001	 1.556569773227011e+001
 1.431250000000000e+000	 0.000000000000000e+000	 1.552914784485129e+001
 1.431193887644339e+000	 1.267353421844891e-002	 1.556901061836638e+001
 1.431024738365738e+000	 2.539213826639083e-002	 1.559979125379087e+001
 1.430741344105735e+000	 3.815453796973507e-002	 1.562128566673493e+001
 1.430342511131333e+000	 5.095942849756979e-002	 1.563329755801642e+001
 1.429827060849796e+000	 6.380547441661694e-002	 1.563563871028829e+001
 1.429193830630436e+000	 7.669130976832471e-002	 1.562812927519572e+001
 1.428441674632737e+000	 8.961553816909029e-002	 1.561059805021646e+001
 1.427569464640179e+000	 1.025767329340893e-001	 1.558288274433862e+001
 1.426576090899048e+000	 1.155734372251705e-001	 1.554483023173467e+001
 1.425460462961546e+000	 1.286041642232557e-001	 1.549629679259690e+001
 1.437500000000000e+000	 0.000000000000000e+000	 1.545744817766371e+001
 1.437443642612189e+000	 1.272887716263163e-002	 1.549754437673726e+001
 1.437273754690359e+000	 2.550302096631979e-002	 1.552860480358322e+001
 1.436989122900686e+000	 3.832115167289565e-002	 1.555042941903062e+001
 1.436588548297362e+000	 5.118195875349669e-002	 1.556282612463841e+001
 1.436070847140959e+000	 6.408410094325932e-002	 1.556561105878642e+001
 1.435434851723798e+000	 7.702620631874807e-002	 1.555860888299239e+001
 1.434679411201692e+000	 9.000687239861596e-002	 1.554165305759732e+001
 1.433803392431409e+000	 1.030246662679747e-001	 1.551458610596509e+001
 1.432805680813151e+000	 1.160781247269352e-001	 1.547725986634470e+001
 1.431685181137337e+000	 1.291657544637603e-001	 1.542953573055182e+001
 1.369437999357309e+000	 1.235498520808418e-001	 1.622230328981677e+001
 1.368247739382590e+000	 1.360996830058840e-001	 1.625045487512634e+001
 1.366937993675117e+000	 1.486792571047294e-001	 1.626774937949297e+001
 1.365507775174822e+000	 1.612870608193971e-001	 1.627404986033372e+001
 1.363956118635316e+000	 1.739215526949160e-001	 1.626922852390692e+001
 1.362282081443339e+000	 1.865811636682623e-001	 1.625316689757471e+001
 1.360484744437721e+000	 1.992642973829129e-001	 1.622575598697885e+001
 1.358563212727011e+000	 2.119693305292767e-001	 1.618689641748123e+001
 1.356516616504911e+000	 2.246946132112302e-001	 1.613649855924583e+001
 1.354344111862633e+000	 2.374384693389583e-001	 1.607448263536862e+001
 1.352044881597271e+000	 2.501991970482677e-001	 1.600077881249222e+001
 1.375662717537524e+000	 1.241114423169210e-001	 1.612985572907690e+001
 1.374467047290415e+000	 1.367183179279156e-001	 1.615910447387770e+001
 1.373151348193492e+000	 1.493550719089900e-001	 1.617763722510971e+001
 1.371714628700050e+000	 1.620201838223544e-001	 1.618531536763187e+001
 1.370155919176214e+000	 1.747121052064248e-001	 1.618200938759776e+001
 1.368474272724119e+000	 1.874292598660727e-001	 1.616759904401089e+001
 1.366668766004588e+000	 2.001700441886096e-001	 1.614197352511702e+001
 1.364738500058480e+000	 2.129328274857646e-001	 1.610503158898399e+001
 1.362682601125834e+000	 2.257159523618868e-001	 1.605668168764413e+001
 1.360500221461909e+000	 2.385177351085711e-001	 1.599684207420507e+001
 1.358190540149242e+000	 2.513364661258782e-001	 1.592544089236642e+001
 1.381887435717248e+000	 1.246730325534918e-001	 1.604048489989803e+001
 1.380686355197663e+000	 1.373369528505294e-001	 1.607073986077073e+001
 1.379364702711233e+000	 1.500308867139039e-001	 1.609041781525723e+001
 1.377921482224615e+000	 1.627533068260169e-001	 1.609937851901011e+001
 1.376355719716452e+000	 1.755026577186707e-001	 1.609749078409713e+001
 1.374666464004271e+000	 1.882773560646329e-001	 1.608463264984780e+001
 1.372852787570888e+000	 2.010757909950483e-001	 1.606069153845741e+001
 1.370913787389476e+000	 2.138963244429667e-001	 1.602556439469618e+001
 1.368848585746405e+000	 2.267372915132091e-001	 1.597915780909814e+001
 1.366656331060986e+000	 2.395970008787807e-001	 1.592138812403531e+001
 1.364336198701197e+000	 2.524737352039960e-001	 1.585218152211241e+001
 1.388112153896480e+000	 1.252346227905544e-001	 1.595413293687804e+001
 1.386905663104334e+000	 1.379555877737252e-001	 1.598530380599156e+001
 1.385578057228340e+000	 1.507067015194712e-001	 1.600603456671177e+001
 1.384128335748520e+000	 1.634864298303844e-001	 1.601618338880899e+001
 1.382555520256030e+000	 1.762932102316540e-001	 1.601561745625310e+001
 1.380858655283793e+000	 1.891254522639424e-001	 1.600421313735120e+001
 1.379036809136621e+000	 2.019815378022287e-001	 1.598185613955705e+001
 1.377089074719996e+000	 2.148598214008826e-001	 1.594844164830013e+001
 1.375014570366623e+000	 2.277586306651971e-001	 1.590387444920723e+001
 1.372812440659865e+000	 2.406762666495872e-001	 1.584806903312084e+001
 1.370481857253138e+000	 2.536110042826211e-001	 1.578094968334982e+001
 1.394336872075220e+000	 1.257962130281087e-001	 1.587074294749995e+001
 1.393124971010426e+000	 1.385742226975032e-001	 1.590274003443034e+001
 1.391791411744813e+000	 1.513825163256917e-001	 1.592443183244480e+001
 1.390335189271762e+000	 1.642195528354570e-001	 1.593567496873132e+001
 1.388755320794948e+000	 1.770837627453745e-001	 1.593633504512436e+001
 1.387050846562689e+000	 1.899735484640015e-001	 1.592628680753105e+001
 1.385220830701788e+000	 2.028872846101512e-001	 1.590541429994110e+001
 1.383264362050041e+000	 2.158233183595125e-001	 1.587361100236581e+001
 1.381180554986489e+000	 2.287799698178508e-001	 1.583077995207832e+001
 1.378968550258544e+000	 2.417555324209907e-001	 1.577683384755751e+001
 1.376627515805065e+000	 2.547482733617536e-001	 1.571169513457182e+001
 1.400561590253469e+000	 1.263578032661547e-001	 1.579025899051200e+001
 1.399344278915942e+000	 1.391928576218633e-001	 1.582299320446557e+001
 1.398004766260651e+000	 1.520583311325656e-001	 1.584555488081813e+001
 1.396542042794342e+000	 1.649526758412347e-001	 1.585779914745654e+001
 1.394955121333207e+000	 1.778743152598321e-001	 1.585959007001997e+001
 1.393243037840956e+000	 1.908216446648102e-001	 1.585080082061391e+001
 1.391404852266388e+000	 2.037930314188154e-001	 1.583131383101468e+001
 1.389439649379613e+000	 2.167868153188564e-001	 1.580102092970878e+001
 1.387346539606003e+000	 2.298013089711703e-001	 1.575982346213705e+001
 1.385124659857024e+000	 2.428347981929910e-001	 1.570763239354606e+001
 1.382773174356977e+000	 2.558855424413934e-001	 1.564436839388103e+001
 1.406786308431226e+000	 1.269193935046924e-001	 1.571262605488222e+001
 1.405563586820881e+000	 1.398114925468056e-001	 1.574600888731142e+001
 1.404218120775856e+000	 1.527341459400927e-001	 1.576934987533247e+001
 1.402748896316261e+000	 1.656857988477176e-001	 1.578250269079613e+001
 1.401154921870806e+000	 1.786648677750271e-001	 1.578532990906902e+001
 1.399435229118594e+000	 1.916697408663684e-001	 1.577770317703354e+001
 1.397588873830422e+000	 2.046987782282214e-001	 1.575950336548142e+001
 1.395614936708709e+000	 2.177503122789143e-001	 1.573062070524296e+001
 1.393512524225165e+000	 2.308226481251554e-001	 1.569095490642151e+001
 1.391280769455305e+000	 2.439140639655882e-001	 1.564041526013280e+001
 1.388918832908874e+000	 2.570228115215406e-001	 1.557892072218420e+001
 1.413011026608491e+000	 1.274809837437218e-001	 1.563779003930883e+001
 1.411782894725242e+000	 1.404301274723300e-001	 1.567173354691155e+001
 1.410431475290427e+000	 1.534099607482733e-001	 1.569576385491033e+001
 1.408955749837519e+000	 1.664189218549054e-001	 1.570973322237337e+001
 1.407354722407744e+000	 1.794554202909592e-001	 1.571350278030393e+001
 1.405627420395604e+000	 1.925178370686762e-001	 1.570694269892443e+001
 1.403772895393890e+000	 2.056045250383694e-001	 1.568993233925318e+001
 1.401790224037330e+000	 2.187138092396860e-001	 1.566236038831356e+001
 1.399678508843974e+000	 2.318439872798062e-001	 1.562412497734414e+001
 1.397436879053388e+000	 2.449933297387823e-001	 1.557513378240715e+001
 1.395064491460756e+000	 2.581600806021951e-001	 1.551530410683088e+001
 1.419235744785265e+000	 1.280425739832429e-001	 1.556569773227011e+001
 1.418002202629026e+000	 1.410487623984366e-001	 1.560011452036148e+001
 1.416644829804363e+000	 1.540857755571072e-001	 1.562474471469826e+001
 1.415162603358114e+000	 1.671520448627984e-001	 1.563943920481175e+001
 1.413554522944023e+000	 1.802459728076286e-001	 1.564405772324148e+001
 1.411819611671986e+000	 1.933659332717335e-001	 1.563846901210190e+001
 1.409956916956790e+000	 2.065102718492592e-001	 1.562255097383588e+001
 1.407965511365477e+000	 2.196773062011719e-001	 1.559619080549446e+001
 1.405844493462431e+000	 2.328653264351228e-001	 1.555928511590703e+001
 1.403592988651271e+000	 2.460725955125733e-001	 1.551174002514097e+001
 1.401210150012624e+000	 2.592973496833569e-001	 1.545347124568251e+001
 1.425460462961546e+000	 1.286041642232557e-001	 1.549629679259690e+001
 1.424221510532232e+000	 1.416673973251252e-001	 1.553109999884430e+001
 1.422858184317665e+000	 1.547615903665943e-001	 1.555624118737208e+001
 1.421369456878048e+000	 1.678851678713965e-001	 1.557156992141621e+001
 1.419754323479643e+000	 1.810365253250352e-001	 1.557694458094660e+001
 1.418011802947740e+000	 1.942140294755404e-001	 1.557223252851437e+001
 1.416140938519124e+000	 2.074160186608908e-001	 1.555731025917684e+001
 1.414140798693149e+000	 2.206408031633716e-001	 1.553206353383649e+001
 1.412010478080536e+000	 2.338866655911051e-001	 1.549638749535743e+001
 1.409749098248955e+000	 2.471518612869611e-001	 1.545018676685647e+001
 1.407355808564477e+000	 2.604346187650261e-001	 1.539337553159919e+001
 1.431685181137337e+000	 1.291657544637603e-001	 1.542953573055182e+001
 1.430440818434862e+000	 1.422860322523961e-001	 1.546463900906349e+001
 1.429071538830333e+000	 1.554374051767349e-001	 1.549020282492977e+001
 1.427576310397320e+000	 1.686182908806997e-001	 1.550607545833219e+001
 1.425954124014602e+000	 1.818270778431791e-001	 1.551211398256361e+001
 1.424203994222866e+000	 1.950621256800968e-001	 1.550818442915368e+001
 1.422324960080891e+000	 2.083217654732644e-001	 1.549416193695935e+001
 1.420316086020347e+000	 2.216043001262855e-001	 1.546993088455275e+001
 1.418176462698288e+000	 2.349080047477530e-001	 1.543538500526915e+001
 1.415905207846440e+000	 2.482311270619459e-001	 1.539042748431001e+001
 1.413501467116316e+000	 2.615718878472026e-001	 1.533497103733088e+001
 1.352044881597271e+000	 2.501991970482677e-001	 1.600077881249222e+001
 1.349618136015367e+000	 2.629750691463879e-001	 1.602101722314778e+001
 1.347063113730461e+000	 2.757643335847816e-001	 1.602947725695146e+001
 1.344379082453875e+000	 2.885652139586563e-001	 1.602597885620985e+001
 1.341565339777935e+000	 3.013759100330443e-001	 1.601034984782726e+001
 1.338621213950380e+000	 3.141945982958410e-001	 1.598242603125540e+001
 1.335546064639080e+000	 3.270194325376127e-001	 1.594205125089728e+001
 1.332339283686066e+000	 3.398485444580937e-001	 1.588907745265775e+001
 1.329000295849871e+000	 3.526800442992546e-001	 1.582336472437364e+001
 1.325528559535179e+000	 3.655120215047849e-001	 1.574478131990200e+001
 1.321923567508776e+000	 3.783425454057877e-001	 1.565320366669052e+001
 1.358190540149242e+000	 2.513364661258782e-001	 1.592544089236642e+001
 1.355752763904955e+000	 2.641704103700999e-001	 1.594606996223505e+001
 1.353186127881840e+000	 2.770178078287799e-001	 1.595503132268044e+001
 1.350489896462637e+000	 2.898768740225575e-001	 1.595214930910592e+001
 1.347663364046909e+000	 3.027458005335780e-001	 1.593725619877466e+001
 1.344705855828977e+000	 3.156227555610450e-001	 1.591019229294366e+001
 1.341616728566111e+000	 3.285058845036624e-001	 1.587080598315100e+001
 1.338395371335989e+000	 3.413933105688904e-001	 1.581895380135160e+001
 1.335041206282409e+000	 3.542831354088895e-001	 1.575450045364062e+001
 1.331553689348262e+000	 3.671734397830012e-001	 1.567731883734890e+001
 1.327932310994728e+000	 3.800622842465611e-001	 1.558729004134160e+001
 1.364336198701197e+000	 2.524737352039960e-001	 1.585218152211241e+001
 1.361887391794713e+000	 2.653657515942289e-001	 1.587320635464377e+001
 1.359309142033547e+000	 2.782712820731241e-001	 1.588267299745027e+001
 1.356600710471854e+000	 2.911885340867532e-001	 1.588041020368634e+001
 1.353761388316435e+000	 3.041156910343744e-001	 1.586625472728051e+001
 1.350790497708194e+000	 3.170509128264993e-001	 1.584005139923224e+001
 1.347687392493800e+000	 3.299923364699706e-001	 1.580165318775639e+001
 1.344451458986578e+000	 3.429380766799736e-001	 1.575092124197528e+001
 1.341082116715592e+000	 3.558862265188592e-001	 1.568772491890271e+001
 1.337578819161937e+000	 3.688348580616219e-001	 1.561194179351032e+001
 1.333941054481186e+000	 3.817820230878282e-001	 1.552345765171508e+001
 1.370481857253138e+000	 2.536110042826211e-001	 1.578094968334982e+001
 1.368022019684643e+000	 2.665610928187749e-001	 1.580237458188300e+001
 1.365432156185581e+000	 2.795247563178143e-001	 1.581234966786520e+001
 1.362711524481525e+000	 2.925001941512431e-001	 1.581070813739823e+001
 1.359859412586514e+000	 3.054855815354332e-001	 1.579729124793172e+001
 1.356875139588033e+000	 3.184790700922041e-001	 1.577194838870008e+001
 1.353758056422149e+000	 3.314787884365373e-001	 1.573453713469804e+001
 1.350507546637834e+000	 3.444828427913435e-001	 1.568492328389949e+001
 1.347123027149419e+000	 3.574893176291641e-001	 1.562298087746874e+001
 1.343603948976201e+000	 3.704962763406464e-001	 1.554859220276151e+001
 1.339949797968151e+000	 3.835017619295890e-001	 1.546164777896061e+001
 1.376627515805065e+000	 2.547482733617536e-001	 1.571169513457182e+001
 1.374156647574744e+000	 2.677564340437378e-001	 1.573352360866623e+001
 1.371555170337943e+000	 2.807782305628503e-001	 1.574400950988577e+001
 1.368822338491652e+000	 2.938118542160273e-001	 1.574299050301381e+001
 1.365957436857147e+000	 3.068554720367543e-001	 1.573031237642181e+001
 1.362959781468492e+000	 3.199072273581594e-001	 1.570582910662302e+001
 1.359828720351157e+000	 3.329652404033623e-001	 1.566940290605260e+001
 1.356563634289757e+000	 3.460276089029999e-001	 1.562090425378295e+001
 1.353163937583890e+000	 3.590924087398042e-001	 1.556021190892889e+001
 1.349629078791057e+000	 3.721576946200751e-001	 1.548721290654545e+001
 1.345958541455622e+000	 3.852215007718435e-001	 1.540180253587162e+001
 1.382773174356977e+000	 2.558855424413934e-001	 1.564436839388103e+001
 1.380291275465014e+000	 2.689517752691177e-001	 1.566660316550675e+001
 1.377678184490632e+000	 2.820317048082323e-001	 1.567760147128744e+001
 1.374933152502233e+000	 2.951235142811060e-001	 1.567720547095644e+001
 1.372055461128332e+000	 3.082253625383382e-001	 1.566526551174858e+001
 1.369044423349572e+000	 3.213353846243651e-001	 1.564164018704730e+001
 1.365899384280823e+000	 3.344516923704459e-001	 1.560619637794228e+001
 1.362619721942346e+000	 3.475723750149431e-001	 1.555880927741064e+001
 1.359204848019006e+000	 3.606954998507794e-001	 1.549936239688156e+001
 1.355654208606503e+000	 3.738191128999080e-001	 1.542774755499344e+001
 1.351967284943599e+000	 3.869412396145918e-001	 1.534386484840432e+001
 1.388918832908874e+000	 2.570228115215406e-001	 1.557892072218420e+001
 1.386425903355457e+000	 2.701471164949146e-001	 1.560156373177529e+001
 1.383801198643649e+000	 2.832851790539601e-001	 1.561307525458535e+001
 1.381043966513270e+000	 2.964351743464790e-001	 1.561330197209606e+001
 1.378153485400069e+000	 3.095952530401844e-001	 1.560209881888427e+001
 1.375129065231273e+000	 3.227635418908214e-001	 1.557932903533878e+001
 1.371970048211149e+000	 3.359381443377879e-001	 1.554486420296753e+001
 1.368675809595603e+000	 3.491171411271729e-001	 1.549858426201381e+001
 1.365245758454765e+000	 3.622985909620898e-001	 1.544037751114558e+001
 1.361679338422540e+000	 3.754805311801449e-001	 1.537014058903390e+001
 1.357976028432083e+000	 3.886609784578338e-001	 1.528777843768747e+001
 1.395064491460756e+000	 2.581600806021951e-001	 1.551530410683088e+001
 1.392560531246069e+000	 2.713424577211284e-001	 1.553835651920512e+001
 1.389924212796994e+000	 2.845386533000338e-001	 1.555038130040976e+001
 1.387154780524760e+000	 2.977468344121463e-001	 1.555122968099910e+001
 1.384251509672359e+000	 3.109651435422930e-001	 1.554076121190408e+001
 1.381213707113595e+000	 3.241916991575281e-001	 1.551884381119360e+001
 1.378040712142134e+000	 3.374245963053884e-001	 1.548535379310389e+001
 1.374731897249526e+000	 3.506619072396892e-001	 1.544017587905758e+001
 1.371286668891169e+000	 3.639016820737352e-001	 1.538320319044284e+001
 1.367704468239168e+000	 3.771419494607859e-001	 1.531433722297383e+001
 1.363984771921072e+000	 3.903807173015694e-001	 1.523348780250752e+001
 1.401210150012624e+000	 2.592973496833569e-001	 1.545347124568251e+001
 1.398695159136853e+000	 2.725377989477592e-001	 1.547693345583179e+001
 1.396047226950666e+000	 2.857921275464536e-001	 1.548947077131953e+001
 1.393265594536706e+000	 2.990584944781081e-001	 1.549093899961950e+001
 1.390349533945203e+000	 3.123350340446642e-001	 1.548120233755823e+001
 1.387298348996538e+000	 3.256198564244852e-001	 1.546013341209584e+001
 1.384111376073777e+000	 3.389110482732473e-001	 1.542761330304912e+001
 1.380787984904116e+000	 3.522066733524921e-001	 1.538353154748149e+001
 1.377327579328216e+000	 3.655047731857157e-001	 1.532778612553610e+001
 1.373729598056387e+000	 3.788033677418311e-001	 1.526028342753884e+001
 1.369993515410568e+000	 3.921004561457988e-001	 1.518093820225469e+001
 1.407355808564477e+000	 2.604346187650261e-001	 1.539337553159919e+001
 1.404829787027808e+000	 2.737331401748068e-001	 1.541724717035315e+001
 1.402170241104665e+000	 2.870456017932190e-001	 1.543029553603936e+001
 1.399376408549107e+000	 3.003701545443642e-001	 1.543238104141680e+001
 1.396447558218599e+000	 3.137049245472980e-001	 1.542337255927480e+001
 1.393382990880102e+000	 3.270480136916928e-001	 1.540314745720853e+001
 1.390182040006080e+000	 3.403975002413647e-001	 1.537159161400651e+001
 1.386844072559373e+000	 3.537514394655817e-001	 1.532859941737911e+001
 1.383368489765908e+000	 3.671078642980314e-001	 1.527407374280897e+001
 1.379754727874196e+000	 3.804647860232803e-001	 1.520792591335740e+001
 1.376002258900570e+000	 3.938201949905220e-001	 1.513007564031603e+001
 1.413501467116316e+000	 2.615718878472026e-001	 1.533497103733088e+001
 1.410964414918934e+000	 2.749284814022716e-001	 1.535925097689743e+001
 1.408293255258992e+000	 2.882990760403306e-001	 1.537280815410842e+001
 1.405487222561964e+000	 3.016818146109147e-001	 1.537550761588864e+001
 1.402545582492548e+000	 3.150748150501942e-001	 1.536722294157983e+001
 1.399467632764287e+000	 3.284761709591509e-001	 1.534783627168509e+001
 1.396252703939042e+000	 3.418839522097406e-001	 1.531723831789132e+001
 1.392900160215297e+000	 3.552962055789581e-001	 1.527532835410318e+001
 1.389409400204244e+000	 3.687109554106822e-001	 1.522201418827425e+001
 1.385779857692595e+000	 3.821262043051337e-001	 1.515721211487604e+001
 1.382011002391079e+000	 3.955399338357390e-001	 1.508084684790137e+001
 1.321923567508776e+000	 3.783425454057877e-001	 1.565320366669052e+001
 1.318184847601070e+000	 3.911696659324475e-001	 1.566279315422654e+001
 1.314311963391346e+000	 4.039914143513104e-001	 1.566065787579593e+001
 1.310304514876250e+000	 4.168058040280615e-001	 1.564656717318873e+001
 1.306162139121100e+000	 4.296108312152950e-001	 1.562029517864433e+001
 1.301884510892183e+000	 4.424044758648388e-001	 1.558162081405100e+001
 1.297471343269316e+000	 4.551847024642187e-001	 1.553032777894677e+001
 1.292922388237685e+000	 4.679494608967651e-001	 1.546620452748908e+001
 1.288237437257986e+000	 4.806966873248238e-001	 1.538904423460382e+001
 1.283416321813917e+000	 4.934243050954899e-001	 1.529864475156968e+001
 1.278458913936058e+000	 5.061302256682358e-001	 1.519480855133659e+001
 1.327932310994728e+000	 3.800622842465611e-001	 1.558729004134160e+001
 1.324176596905944e+000	 3.929477098658934e-001	 1.559654459190196e+001
 1.320286108677419e+000	 4.058277389588511e-001	 1.559389605452197e+001
 1.316260444487603e+000	 4.187003758609637e-001	 1.557912755632875e+001
 1.312099239752110e+000	 4.315636077168836e-001	 1.555202742760360e+001
 1.307802167758893e+000	 4.444154052964026e-001	 1.551238918978991e+001
 1.303368940283585e+000	 4.572537238347174e-001	 1.546001153150191e+001
 1.298799308184033e+000	 4.700765038964468e-001	 1.539469827270970e+001
 1.294093061973027e+000	 4.828816722628575e-001	 1.531625831732080e+001
 1.289250032368283e+000	 4.956671428417136e-001	 1.522450559442606e+001
 1.284270090818699e+000	 5.084308175991221e-001	 1.511925898852248e+001
 1.333941054481186e+000	 3.817820230878282e-001	 1.552345765171508e+001
 1.330168346211229e+000	 3.947257537999234e-001	 1.553255420524710e+001
 1.326260253963818e+000	 4.076640635670465e-001	 1.552957197032176e+001
 1.322216374099206e+000	 4.205949476945721e-001	 1.551430784343880e+001
 1.318036340383304e+000	 4.335163842192101e-001	 1.548656433555072e+001
 1.313719824625731e+000	 4.464263347287159e-001	 1.544614954883404e+001
 1.309266537297937e+000	 4.593227452059572e-001	 1.539287714066075e+001
 1.304676228130428e+000	 4.722035468968414e-001	 1.532656627495373e+001
 1.299948686688089e+000	 4.850666572015552e-001	 1.524704156115622e+001
 1.295083742922653e+000	 4.979099805885318e-001	 1.515413298109464e+001
 1.290081267701339e+000	 5.107314095305132e-001	 1.504767580406205e+001
 1.339949797968151e+000	 3.835017619295890e-001	 1.546164777896061e+001
 1.336160095516925e+000	 3.965037977345373e-001	 1.547076010388729e+001
 1.332234399250542e+000	 4.095003881758970e-001	 1.546762052573783e+001
 1.328172303711058e+000	 4.224895195288868e-001	 1.545203969575723e+001
 1.323973441014682e+000	 4.354691607222745e-001	 1.542383428957322e+001
 1.319637481492697e+000	 4.484372641617787e-001	 1.538282697268456e+001
 1.315164134312370e+000	 4.613917665779381e-001	 1.532884635234950e+001
 1.310553148076869e+000	 4.743305898979486e-001	 1.526172691606554e+001
 1.305804311403172e+000	 4.872516421409168e-001	 1.518130895688091e+001
 1.300917453477028e+000	 5.001528183359452e-001	 1.508743848582928e+001
 1.295892444583980e+000	 5.130320014624097e-001	 1.497996713182828e+001
 1.345958541455622e+000	 3.852215007718435e-001	 1.540180253587162e+001
 1.342151844823032e+000	 3.982818416697354e-001	 1.541110127717879e+001
 1.338208544537592e+000	 4.113367127854024e-001	 1.540797755174241e+001
 1.334128233323161e+000	 4.243840913639077e-001	 1.539225575224592e+001
 1.329910541646245e+000	 4.374219372260768e-001	 1.536376670435360e+001
 1.325555138359791e+000	 4.504481935955910e-001	 1.532234762086885e+001
 1.321061731326886e+000	 4.634607879506604e-001	 1.526784204149309e+001
 1.316430068023356e+000	 4.764576328997685e-001	 1.520009975838285e+001
 1.311659936118276e+000	 4.894366270809424e-001	 1.511897672775687e+001
 1.306751164031409e+000	 5.023956560839532e-001	 1.502433496785549e+001
 1.301703621466620e+000	 5.153325933948112e-001	 1.491604244360890e+001
 1.351967284943599e+000	 3.869412396145918e-001	 1.534386484840432e+001
 1.348143594129551e+000	 4.000598856055175e-001	 1.535351757465909e+001
 1.344182689824968e+000	 4.131730373955627e-001	 1.535057978710558e+001
 1.340084162935513e+000	 4.262786631996349e-001	 1.533488960786313e+001
 1.335847642277991e+000	 4.393747137306167e-001	 1.530629199933384e+001
 1.331472795227014e+000	 4.524591230301528e-001	 1.526463870698421e+001
 1.326959328341484e+000	 4.655298093241237e-001	 1.520978818692605e+001
 1.322306987969890e+000	 4.785846759023014e-001	 1.514160551850370e+001
 1.317515560833400e+000	 4.916216120216321e-001	 1.505996230214834e+001
 1.312584874585795e+000	 5.046384938325562e-001	 1.496473654281543e+001
 1.307514798349261e+000	 5.176331853277179e-001	 1.485581251937464e+001
 1.357976028432083e+000	 3.886609784578338e-001	 1.528777843768747e+001
 1.354135343436480e+000	 4.018379295418836e-001	 1.529794968701647e+001
 1.350156835112669e+000	 4.150093620063780e-001	 1.529536485831158e+001
 1.346040092548116e+000	 4.281732350360682e-001	 1.527987579241310e+001
 1.341784742909922e+000	 4.413274902358946e-001	 1.525134157648636e+001
 1.337390452094364e+000	 4.544700524654643e-001	 1.520962847537787e+001
 1.332856925356164e+000	 4.675988306983284e-001	 1.515460984697003e+001
 1.328183907916470e+000	 4.807117189055468e-001	 1.508616604174950e+001
 1.323371185548544e+000	 4.938065969629858e-001	 1.500418428686052e+001
 1.318418585140186e+000	 5.068813315817540e-001	 1.490855855497121e+001
 1.313325975231901e+000	 5.199337772611297e-001	 1.479918941833737e+001
 1.363984771921072e+000	 3.903807173015694e-001	 1.523348780250752e+001
 1.360127092743821e+000	 4.036159734788338e-001	 1.524433912756247e+001
 1.356130980400696e+000	 4.168456866178482e-001	 1.524227126000521e+001
 1.351996022160969e+000	 4.300678068732080e-001	 1.522714974995475e+001
 1.347721843542036e+000	 4.432802667419102e-001	 1.519884779867224e+001
 1.343308108961842e+000	 4.564809819015251e-001	 1.515724617844315e+001
 1.338754522370927e+000	 4.696678520732742e-001	 1.510223313565627e+001
 1.334060827863097e+000	 4.828387619095050e-001	 1.503370427730347e+001
 1.329226810263710e+000	 4.959915819050033e-001	 1.495156244118245e+001
 1.324252295694582e+000	 5.091241693315465e-001	 1.485571755014255e+001
 1.319137152114542e+000	 5.222343691950466e-001	 1.474608645077280e+001
 1.369993515410568e+000	 3.921004561457988e-001	 1.518093820225469e+001
 1.366118842051572e+000	 4.053940174163679e-001	 1.519262821419168e+001
 1.362105125689049e+000	 4.186820112299733e-001	 1.519123833595358e+001
 1.357951951774071e+000	 4.319623787110538e-001	 1.517664781875220e+001
 1.353658944174334e+000	 4.452330432486636e-001	 1.514874396856914e+001
 1.349225765829449e+000	 4.584919113383354e-001	 1.510742205451335e+001
 1.344652119385771e+000	 4.717368734489613e-001	 1.505258519957429e+001
 1.339937747809769e+000	 4.849658049141760e-001	 1.498414425400305e+001
 1.335082434978895e+000	 4.981765668476849e-001	 1.490201765161344e+001
 1.330086006248984e+000	 5.113670070819339e-001	 1.480613124935704e+001
 1.324948328997182e+000	 5.245349611294686e-001	 1.469641815058496e+001
 1.376002258900570e+000	 3.938201949905220e-001	 1.513007564031603e+001
 1.372110591359735e+000	 4.071720613544862e-001	 1.514276005181477e+001
 1.368079270977727e+000	 4.205183358427534e-001	 1.514220626050603e+001
 1.363907881387423e+000	 4.338569505496060e-001	 1.512830721175076e+001
 1.359596044806817e+000	 4.471858197561550e-001	 1.510096430815137e+001
 1.355143422697184e+000	 4.605028407758954e-001	 1.506008730633441e+001
 1.350549716400698e+000	 4.738058948253895e-001	 1.500559419532680e+001
 1.345814667756488e+000	 4.870928479195594e-001	 1.493741105676661e+001
 1.340938059694102e+000	 5.003615517910305e-001	 1.485547190725142e+001
 1.335919716803390e+000	 5.136098448329161e-001	 1.475971852319055e+001
 1.330759505879823e+000	 5.268355530643959e-001	 1.465010024858935e+001
 1.382011002391079e+000	 3.955399338357390e-001	 1.508084684790137e+001
 1.378102340668309e+000	 4.089501052931885e-001	 1.509467851524919e+001
 1.374053416266731e+000	 4.223546604561885e-001	 1.509511602053823e+001
 1.369863811001026e+000	 4.357515223888644e-001	 1.508206599756194e+001
 1.365533145439484e+000	 4.491385962643842e-001	 1.505544393870505e+001
 1.361061079565046e+000	 4.625137702142050e-001	 1.501517408009966e+001
 1.356447313415707e+000	 4.758749162025590e-001	 1.496118926757301e+001
 1.351691587703254e+000	 4.892198909256559e-001	 1.489343080363537e+001
 1.346793684409330e+000	 5.025465367350401e-001	 1.481184827582336e+001
 1.341753427357802e+000	 5.158526825844932e-001	 1.471639936677689e+001
 1.336570682762464e+000	 5.291361449998284e-001	 1.460704964649333e+001
 1.278458913936058e+000	 5.061302256682358e-001	 1.519480855133659e+001
 1.273365126701276e+000	 5.188123495634235e-001	 1.515611641510442e+001
 1.268134914706553e+000	 5.314685673321096e-001	 1.509393526539124e+001
 1.262768274516529e+000	 5.440967605454945e-001	 1.500895210800241e+001
 1.257265245083973e+000	 5.566948028026507e-001	 1.490187659050273e+001
 1.251625908142133e+000	 5.692605607567765e-001	 1.477344021001900e+001
 1.245850388568263e+000	 5.817918951587184e-001	 1.471472371853708e+001
 1.239938854717515e+000	 5.942866619168478e-001	 1.467177904504296e+001
 1.233891518726467e+000	 6.067427131723422e-001	 1.460915801423885e+001
 1.227708636785547e+000	 6.191578983888870e-001	 1.452722649706653e+001
 1.221390509379698e+000	 6.315300654557748e-001	 1.452050457562546e+001
 1.284270090818699e+000	 5.084308175991221e-001	 1.511925898852248e+001
 1.279153150006022e+000	 5.211705875122908e-001	 1.509283894845592e+001
 1.273899164320837e+000	 5.338843335438077e-001	 1.504387940324734e+001
 1.268508130312173e+000	 5.465699276356508e-001	 1.497296678775131e+001
 1.262980087109851e+000	 5.592252337214336e-001	 1.488070825209813e+001
 1.257315116818638e+000	 5.718481087573232e-001	 1.476773094593730e+001
 1.251513344883410e+000	 5.844364037703060e-001	 1.463468126556516e+001
 1.245574940424570e+000	 5.969879649228826e-001	 1.457636653580063e+001
 1.239500116542952e+000	 6.095006345932356e-001	 1.453132449507809e+001
 1.233289130593488e+000	 6.219722524698852e-001	 1.446718627764756e+001
 1.226942284426960e+000	 6.344006566598018e-001	 1.451346056275517e+001
 1.290081267701339e+000	 5.107314095305132e-001	 1.504767580406205e+001
 1.284941173310762e+000	 5.235288254615732e-001	 1.503184999376382e+001
 1.279663413935102e+000	 5.363000997558499e-001	 1.499442393251131e+001
 1.274247986107770e+000	 5.490430947260999e-001	 1.493588423518172e+001
 1.268694929135650e+000	 5.617556646404781e-001	 1.485673631812243e+001
 1.263004325495019e+000	 5.744356567581201e-001	 1.475750375927127e+001
 1.257176301198379e+000	 5.870809123821530e-001	 1.463872762460647e+001
 1.251211026131383e+000	 5.996892679292056e-001	 1.450096576204069e+001
 1.245108714359122e+000	 6.122585560144659e-001	 1.444630844965940e+001
 1.238869624401028e+000	 6.247866065512894e-001	 1.439826277195905e+001
 1.232494059473726e+000	 6.372712478643247e-001	 1.449199206499442e+001
 1.295892444583980e+000	 5.130320014624097e-001	 1.497996713182828e+001
 1.290729196615497e+000	 5.258870634112705e-001	 1.497307951542157e+001
 1.285427663549347e+000	 5.387158659682363e-001	 1.494552079762570e+001
 1.279987841903325e+000	 5.515162618168426e-001	 1.489767851544761e+001
 1.274409771161371e+000	 5.642860955597846e-001	 1.482995710606774e+001
 1.268693534171278e+000	 5.770232047591678e-001	 1.474277734228008e+001
 1.262839257513171e+000	 5.897254209942590e-001	 1.463657573768445e+001
 1.256847111837954e+000	 6.023905709358165e-001	 1.451180392267851e+001
 1.250717312174975e+000	 6.150164774360335e-001	 1.436892799238693e+001
 1.244450118208166e+000	 6.276009606330998e-001	 1.435170525699676e+001
 1.238045834519995e+000	 6.401418390693439e-001	 1.445623557141460e+001
 1.301703621466620e+000	 5.153325933948112e-001	 1.491604244360890e+001
 1.296517219920227e+000	 5.282453013613825e-001	 1.491645841745797e+001
 1.291191913163572e+000	 5.411316321809669e-001	 1.489712248177103e+001
 1.285727697698835e+000	 5.539894289078781e-001	 1.485832382909120e+001
 1.280124613187013e+000	 5.668165264793529e-001	 1.480036666318230e+001
 1.274382742847414e+000	 5.796107527604657e-001	 1.472356970923620e+001
 1.268502213827785e+000	 5.923699296066241e-001	 1.462826569723356e+001
 1.262483197544283e+000	 6.050918739427152e-001	 1.451480081943958e+001
 1.256325909990511e+000	 6.177743988579378e-001	 1.438353416309673e+001
 1.250030612014904e+000	 6.304153147153168e-001	 1.429604654345471e+001
 1.243597609565769e+000	 6.430124302748591e-001	 1.440632482894305e+001
 1.307514798349261e+000	 5.176331853277179e-001	 1.485581251937464e+001
 1.302305243224953e+000	 5.306035393119093e-001	 1.486191852265645e+001
 1.296956162777778e+000	 5.435473983940417e-001	 1.484918199489358e+001
 1.291467553494301e+000	 5.564625959992067e-001	 1.481779450903440e+001
 1.285839455212577e+000	 5.693469573991830e-001	 1.476796077247596e+001
 1.280071951523426e+000	 5.821983007620143e-001	 1.469989821149172e+001
 1.274165170142223e+000	 5.950144382192485e-001	 1.461383653219341e+001
 1.268119283250371e+000	 6.077931769499020e-001	 1.451001725894120e+001
 1.261934507805731e+000	 6.205323202801789e-001	 1.438869325119219e+001
 1.255611105821241e+000	 6.332296687979400e-001	 1.433771768894900e+001
 1.249149384611046e+000	 6.458830214808704e-001	 1.434239090329967e+001
 1.313325975231901e+000	 5.199337772611297e-001	 1.479918941833737e+001
 1.308093266529673e+000	 5.329617772628511e-001	 1.480939255222850e+001
 1.302720412391964e+000	 5.459631646074605e-001	 1.480165286205157e+001
 1.297207409289723e+000	 5.589357630908284e-001	 1.477606501765022e+001
 1.291554297238061e+000	 5.718773883192748e-001	 1.473273495856591e+001
 1.285761160199316e+000	 5.847858487638131e-001	 1.467177955214467e+001
 1.279828126456483e+000	 5.976589468321319e-001	 1.459332623153721e+001
 1.273755368956216e+000	 6.104944799573767e-001	 1.449751261444145e+001
 1.267543105620634e+000	 6.232902417027574e-001	 1.438448610350365e+001
 1.261191599627176e+000	 6.360440228809695e-001	 1.436476057351540e+001
 1.254701159655828e+000	 6.487536126873776e-001	 1.435491874709997e+001
 1.319137152114542e+000	 5.222343691950466e-001	 1.474608645077280e+001
 1.313881289834389e+000	 5.353200152142078e-001	 1.475881410602461e+001
 1.308484662006131e+000	 5.483789308212237e-001	 1.475448911206886e+001
 1.302947265085101e+000	 5.614089301827432e-001	 1.473310994391128e+001
 1.297269139263468e+000	 5.744078192396287e-001	 1.469468449336850e+001
 1.291450368875083e+000	 5.873733967658628e-001	 1.463922980031783e+001
 1.285491082770565e+000	 6.003034554452746e-001	 1.456677176717876e+001
 1.279391454661820e+000	 6.131957829651392e-001	 1.447734485741081e+001
 1.273151703435221e+000	 6.260481631256726e-001	 1.438037033185936e+001
 1.266772093432710e+000	 6.388583769644054e-001	 1.437735328944206e+001
 1.260252934700113e+000	 6.516242038943809e-001	 1.436790863082769e+001
 1.324948328997182e+000	 5.245349611294686e-001	 1.469641815058496e+001
 1.319669313139100e+000	 5.376782531659793e-001	 1.471011764326579e+001
 1.314248911620278e+000	 5.507946970353309e-001	 1.470764526648759e+001
 1.308687120880435e+000	 5.638820972749512e-001	 1.468890400061353e+001
 1.302983981288796e+000	 5.769382501602444e-001	 1.465380440164064e+001
 1.297139577550727e+000	 5.899609447681626e-001	 1.460226440506163e+001
 1.291154039084470e+000	 6.029479640586763e-001	 1.453420911627629e+001
 1.285027540367181e+000	 6.158970859731898e-001	 1.444957058827300e+001
 1.278760301249492e+000	 6.288060845489250e-001	 1.437995463618074e+001
 1.272352587237843e+000	 6.416727310482476e-001	 1.437567180122680e+001
 1.265804709743902e+000	 6.544947951018804e-001	 1.436503003795709e+001
 1.330759505879823e+000	 5.268355530643959e-001	 1.465010024858935e+001
 1.325457336443806e+000	 5.400364911181658e-001	 1.466323846378011e+001
 1.320013161234406e+000	 5.532104632497822e-001	 1.466107632881013e+001
 1.314426976675724e+000	 5.663552643674523e-001	 1.464342202167270e+001
 1.308698823314045e+000	 5.794686810811217e-001	 1.461008946637641e+001
 1.302828786226248e+000	 5.925484927707132e-001	 1.456089820889288e+001
 1.296816995398198e+000	 6.055924726723373e-001	 1.449567328295187e+001
 1.290663626072301e+000	 6.185983889815284e-001	 1.441424506634086e+001
 1.284368899063445e+000	 6.315640059725138e-001	 1.436700441296937e+001
 1.277933081042574e+000	 6.444870851324960e-001	 1.435988999203542e+001
 1.271356484787195e+000	 6.573653863098761e-001	 1.434647838435281e+001
 1.336570682762464e+000	 5.291361449998284e-001	 1.460704964649333e+001
 1.331245359748507e+000	 5.423947290707670e-001	 1.461811268972849e+001
 1.325777410848514e+000	 5.556262294645777e-001	 1.461473777402156e+001
 1.320166832470970e+000	 5.688284314602464e-001	 1.459663895949127e+001
 1.314413665339216e+000	 5.819991120022612e-001	 1.456353423406278e+001
 1.308517994901646e+000	 5.951360407735142e-001	 1.451514546098023e+001
 1.302479951711748e+000	 6.082369812862576e-001	 1.445119831944468e+001
 1.296299711777179e+000	 6.212996919901549e-001	 1.437142223897054e+001
 1.289977496877083e+000	 6.343219273964403e-001	 1.434167036590730e+001
 1.283513574846905e+000	 6.473014392171509e-001	 1.433017970894798e+001
 1.276908259829992e+000	 6.602359775183677e-001	 1.431244668605993e+001
 1.221390509379698e+000	 6.315300654557748e-001	 1.452050457562546e+001
 1.214937481496401e+000	 6.438570618038492e-001	 1.437708409764124e+001
 1.208349942801147e+000	 6.561367355316510e-001	 1.424183517256038e+001
 1.201628327779292e+000	 6.683669365417821e-001	 1.411515552552230e+001
 1.194773115843350e+000	 6.805455176872632e-001	 1.399742924350779e+001
 1.187784831405943e+000	 6.926703359251807e-001	 1.388902606741863e+001
 1.180664043917732e+000	 7.047392534769517e-001	 1.379030070243351e+001
 1.173411367869948e+000	 7.167501389939834e-001	 1.370159214835135e+001
 1.166027462761179e+000	 7.287008687274819e-001	 1.362322305160702e+001
 1.158513033028134e+000	 7.405893277011462e-001	 1.355549908060692e+001
 1.150868827940138e+000	 7.524134108854679e-001	 1.349870832599190e+001
 1.226942284426960e+000	 6.344006566598018e-001	 1.451346056275517e+001
 1.220459924598960e+000	 6.467836848094288e-001	 1.437032004311904e+001
 1.213842442546173e+000	 6.591191752359410e-001	 1.423480293694807e+001
 1.207090274728887e+000	 6.714049680687699e-001	 1.410742785459752e+001
 1.200203902738765e+000	 6.836389064011775e-001	 1.398870106233257e+001
 1.193183853372122e+000	 6.958188374491456e-001	 1.387911565527972e+001
 1.186030698668031e+000	 7.079426137169163e-001	 1.377915074592837e+001
 1.178745055910865e+000	 7.200080941679482e-001	 1.368927067007163e+001
 1.171327587596932e+000	 7.320131454000439e-001	 1.360992421205297e+001
 1.163779001364925e+000	 7.439556428233736e-001	 1.354154385115587e+001
 1.156100049889941e+000	 7.558334718401130e-001	 1.348454503094416e+001
 1.232494059473726e+000	 6.372712478643247e-001	 1.449199206499442e+001
 1.225982367700928e+000	 6.497103078155994e-001	 1.435079994023113e+001
 1.219334942290522e+000	 6.621016149409073e-001	 1.421669203371328e+001
 1.212552221677731e+000	 6.744429995965097e-001	 1.409030711640678e+001
 1.205634689633362e+000	 6.867322951159091e-001	 1.397227289829076e+001
 1.198582875337428e+000	 6.989673389739836e-001	 1.386320508270893e+001
 1.191397353417411e+000	 7.111459739577992e-001	 1.376370643356426e+001
 1.184078743950827e+000	 7.232660493428671e-001	 1.367436585742107e+001
 1.176627712431704e+000	 7.353254220735852e-001	 1.359575750256364e+001
 1.169044969700721e+000	 7.473219579465960e-001	 1.352843987703984e+001
 1.161331271838743e+000	 7.592535327957583e-001	 1.347295498769125e+001
 1.238045834519995e+000	 6.401418390693439e-001	 1.445623557141460e+001
 1.231504810802304e+000	 6.526369308223613e-001	 1.431863679403749e+001
 1.224827442034195e+000	 6.650840546465501e-001	 1.418759189735099e+001
 1.218014168625822e+000	 6.774810311250012e-001	 1.406385909901444e+001
 1.211065476527143e+000	 6.898256838314585e-001	 1.394818682795676e+001
 1.203981897301861e+000	 7.021158404996948e-001	 1.384131266064670e+001
 1.196764008165873e+000	 7.143493341996011e-001	 1.374396226751873e+001
 1.189412431989835e+000	 7.265240045187402e-001	 1.365684837179163e+001
 1.181927837265497e+000	 7.386376987481065e-001	 1.358066972291219e+001
 1.174310938035522e+000	 7.506882730708130e-001	 1.351611008684069e+001
 1.166562493786546e+000	 7.626735937524034e-001	 1.346383725537580e+001
 1.243597609565769e+000	 6.430124302748591e-001	 1.440632482894305e+001
 1.237027253903089e+000	 6.555635538297144e-001	 1.427394128231870e+001
 1.230319941777190e+000	 6.680664943528695e-001	 1.414759005163412e+001
 1.223476115573161e+000	 6.805190626542447e-001	 1.402814809782661e+001
 1.216496263420105e+000	 6.929190725478250e-001	 1.391648385462753e+001
 1.209380919265421e+000	 7.052643420262790e-001	 1.381345604726282e+001
 1.202130662913416e+000	 7.175526944423217e-001	 1.371991251863860e+001
 1.194746120027889e+000	 7.297819596955675e-001	 1.363668906542344e+001
 1.187227962098311e+000	 7.419499754236071e-001	 1.356460828644012e+001
 1.179576906369329e+000	 7.540545881960250e-001	 1.350447844577302e+001
 1.171793715733349e+000	 7.660936547100485e-001	 1.345709235298242e+001
 1.249149384611046e+000	 6.458830214808704e-001	 1.434239090329967e+001
 1.242549697003283e+000	 6.584901768376589e-001	 1.421682180729342e+001
 1.235812441519510e+000	 6.710489340598651e-001	 1.409677215207421e+001
 1.228938062519748e+000	 6.835570941842403e-001	 1.398323694876134e+001
 1.221927050312251e+000	 6.960124612650093e-001	 1.387720393217339e+001
 1.214779941228108e+000	 7.084128435537361e-001	 1.377965226246260e+001
 1.207497317660041e+000	 7.207560546859609e-001	 1.369155123158084e+001
 1.200079808064988e+000	 7.330399148733489e-001	 1.361385897716305e+001
 1.192528086930144e+000	 7.452622521000876e-001	 1.354752120642197e+001
 1.184842874702140e+000	 7.574209033222320e-001	 1.349346993264753e+001
 1.177024937679151e+000	 7.695137156686936e-001	 1.345262222689673e+001
 1.254701159655828e+000	 6.487536126873776e-001	 1.435491874709997e+001
 1.248072140102887e+000	 6.614167998461944e-001	 1.414738454596238e+001
 1.241304941261153e+000	 6.740313737675376e-001	 1.403522202725483e+001
 1.234400009465584e+000	 6.865951257149880e-001	 1.392918706053818e+001
 1.227357837203579e+000	 6.991058499830111e-001	 1.383038598825499e+001
 1.220178963189922e+000	 7.115613450820667e-001	 1.373991770200767e+001
 1.212863972405747e+000	 7.239594149305189e-001	 1.365887222981688e+001
 1.205413496101134e+000	 7.362978700520847e-001	 1.358832932833575e+001
 1.197828211760998e+000	 7.485745287775474e-001	 1.352935708279311e+001
 1.190108843033957e+000	 7.607872184494340e-001	 1.348301051744670e+001
 1.182256159623954e+000	 7.729337766283387e-001	 1.345033021932572e+001
 1.260252934700113e+000	 6.516242038943809e-001	 1.436790863082769e+001
 1.253594583201898e+000	 6.643434228553208e-001	 1.413293127857244e+001
 1.246797441002119e+000	 6.770138134758863e-001	 1.396302171907176e+001
 1.239861956410667e+000	 6.896331572464877e-001	 1.386605844611410e+001
 1.232788624094089e+000	 7.021992387018301e-001	 1.377606794692740e+001
 1.225577985150862e+000	 7.147098466112700e-001	 1.369426815126367e+001
 1.218230627150533e+000	 7.271627751759953e-001	 1.362186912050431e+001
 1.210747184136326e+000	 7.395558252317747e-001	 1.356007151872537e+001
 1.203128336590873e+000	 7.518868054559872e-001	 1.351006508922692e+001
 1.195374811364778e+000	 7.641535335776306e-001	 1.347302713949260e+001
 1.187487381567757e+000	 7.763538375889839e-001	 1.345012103755267e+001
 1.265804709743902e+000	 6.544947951018804e-001	 1.436503003795709e+001
 1.259117026300318e+000	 6.672700458650386e-001	 1.414062755110154e+001
 1.252289940742410e+000	 6.799962531849114e-001	 1.392187711431009e+001
 1.245323903354998e+000	 6.926711887787389e-001	 1.379390975329268e+001
 1.238219410983781e+000	 7.052926274214670e-001	 1.371428675064886e+001
 1.230977007110929e+000	 7.178583481413468e-001	 1.364271879858622e+001
 1.223597281894402e+000	 7.303661354223907e-001	 1.358053529923084e+001
 1.216080872170563e+000	 7.428137804124187e-001	 1.352905712266150e+001
 1.208428461419768e+000	 7.551990821354064e-001	 1.348959496055354e+001
 1.200640779694605e+000	 7.675198487068222e-001	 1.346344768618953e+001
 1.192718603510560e+000	 7.797738985506290e-001	 1.345190072400163e+001
 1.271356484787195e+000	 6.573653863098761e-001	 1.434647838435281e+001
 1.264639469398148e+000	 6.701966688753476e-001	 1.413422392820199e+001
 1.257782440482023e+000	 6.829786928946134e-001	 1.392702729902040e+001
 1.250785850298578e+000	 6.957092203117422e-001	 1.372668373995300e+001
 1.243650197872656e+000	 7.083860161419212e-001	 1.364507838171290e+001
 1.236376029070124e+000	 7.210068496722966e-001	 1.358528424835585e+001
 1.228963936637352e+000	 7.335694956697045e-001	 1.353486395463352e+001
 1.221414560203845e+000	 7.460717355940170e-001	 1.349525788520785e+001
 1.213728586247683e+000	 7.585113588158053e-001	 1.346789698050705e+001
 1.205906748023437e+000	 7.708861638370089e-001	 1.345420097232338e+001
 1.197949825452362e+000	 7.831939595132741e-001	 1.345557662708527e+001
 1.276908259829992e+000	 6.602359775183677e-001	 1.431244668605993e+001
 1.270161912495386e+000	 6.731232918862480e-001	 1.411389349545980e+001
 1.263274940220960e+000	 6.859611326049919e-001	 1.391980780232773e+001
 1.256247797241406e+000	 6.987472518454978e-001	 1.373209881277186e+001
 1.249080984760714e+000	 7.114794048631932e-001	 1.356847788312174e+001
 1.241775051028446e+000	 7.241553512041195e-001	 1.352197853367322e+001
 1.234330591379382e+000	 7.367728559179375e-001	 1.348484807289786e+001
 1.226748248236175e+000	 7.493296907765696e-001	 1.345864571845095e+001
 1.219028711074619e+000	 7.618236354971838e-001	 1.344492196979305e+001
 1.211172716351275e+000	 7.742524789681905e-001	 1.344521671990135e+001
 1.203181047393165e+000	 7.866140204769193e-001	 1.346105737281436e+001
 1.150868827940138e+000	 7.524134108854679e-001	 1.349870832599190e+001
 1.143095641457127e+000	 7.641710243723180e-001	 1.334669575462544e+001
 1.135194312051163e+000	 7.758600865485734e-001	 1.320081042733267e+001
 1.127165722491293e+000	 7.874785292674239e-001	 1.306132627722946e+001
 1.119010799591597e+000	 7.990242990159947e-001	 1.292850350747002e+001
 1.110730513922648e+000	 8.104953580780098e-001	 1.280258813656401e+001
 1.102325879486378e+000	 8.218896856901418e-001	 1.268381156901644e+001
 1.093797953354514e+000	 8.332052791907166e-001	 1.257239019241282e+001
 1.085147835270769e+000	 8.444401551594336e-001	 1.246852500201321e+001
 1.076376667217045e+000	 8.555923505467825e-001	 1.237240125384594e+001
 1.067485632943935e+000	 8.666599237918263e-001	 1.228418814722175e+001
 1.156100049889941e+000	 7.558334718401130e-001	 1.348454503094416e+001
 1.148291530740845e+000	 7.676445290243954e-001	 1.333242044082284e+001
 1.140354286200958e+000	 7.793867233012455e-001	 1.318722994700065e+001
 1.132289203051912e+000	 7.910579771231862e-001	 1.304922732189889e+001
 1.124097212320582e+000	 8.026562276431940e-001	 1.291865175559859e+001
 1.115779288989222e+000	 8.141794278826454e-001	 1.279572741716209e+001
 1.107336451668866e+000	 8.256255478929260e-001	 1.268066304259646e+001
 1.098769762236110e+000	 8.369925759093534e-001	 1.257365155056310e+001
 1.090080325433506e+000	 8.482785194960810e-001	 1.247486968687811e+001
 1.081269288433778e+000	 8.594814066806458e-001	 1.238447769877121e+001
 1.072337840368207e+000	 8.705992870768339e-001	 1.230261903979938e+001
 1.161331271838743e+000	 7.592535327957583e-001	 1.347295498769125e+001
 1.153487420023567e+000	 7.711180336774725e-001	 1.332033056341768e+001
 1.145514260349772e+000	 7.829133600549174e-001	 1.317544485204474e+001
 1.137412683611576e+000	 7.946374249799487e-001	 1.303853165329419e+001
 1.129183625048646e+000	 8.062881562713933e-001	 1.290980933329393e+001
 1.120828064054921e+000	 8.178634976882810e-001	 1.278948040172855e+001
 1.112347023850532e+000	 8.293614100967099e-001	 1.267773111694716e+001
 1.103741571116950e+000	 8.407798726289903e-001	 1.257473112011995e+001
 1.095012815595560e+000	 8.521168838337285e-001	 1.248063309946584e+001
 1.086161909649915e+000	 8.633704628155090e-001	 1.239557248549922e+001
 1.077190047791978e+000	 8.745386503628416e-001	 1.231966717816272e+001
 1.166562493786546e+000	 7.626735937524034e-001	 1.346383725537580e+001
 1.158683309305295e+000	 7.745915383315495e-001	 1.331032973627268e+001
 1.150674234497606e+000	 7.864399968095893e-001	 1.316536338278408e+001
 1.142536164170285e+000	 7.982168728377111e-001	 1.302915220797818e+001
 1.134270037775790e+000	 8.099200849005925e-001	 1.290189394114314e+001
 1.125876839119744e+000	 8.215475674949171e-001	 1.278376962059058e+001
 1.117357596031378e+000	 8.330972723014943e-001	 1.267494321573305e+001
 1.108713379997035e+000	 8.445671693496275e-001	 1.257556127951015e+001
 1.099945305756934e+000	 8.559552481723760e-001	 1.248575263216697e+001
 1.091054530865455e+000	 8.672595189513723e-001	 1.240562807731079e+001
 1.082042255215247e+000	 8.784780136498493e-001	 1.233528015108743e+001
 1.171793715733349e+000	 7.660936547100485e-001	 1.345709235298242e+001
 1.163879198586027e+000	 7.780650429866267e-001	 1.330232294890626e+001
 1.155834208644460e+000	 7.899666335652614e-001	 1.315689506990877e+001
 1.147659644728039e+000	 8.017963206964738e-001	 1.302100312653823e+001
 1.139356450502013e+000	 8.135520135307918e-001	 1.289482439638673e+001
 1.130925614183691e+000	 8.252316373025528e-001	 1.277851863237372e+001
 1.122368168211403e+000	 8.368331345072786e-001	 1.267222770161716e+001
 1.113685188876363e+000	 8.483544660712644e-001	 1.257607525595496e+001
 1.104877795917627e+000	 8.597936125120232e-001	 1.249016643509872e+001
 1.095947152080400e+000	 8.711485750882357e-001	 1.241458760332480e+001
 1.086894462638015e+000	 8.824173769378569e-001	 1.234940612052005e+001
 1.177024937679151e+000	 7.695137156686936e-001	 1.345262222689673e+001
 1.169075087865765e+000	 7.815385476427039e-001	 1.329621653592312e+001
 1.160994182790333e+000	 7.934932703219332e-001	 1.314995070580535e+001
 1.152783125284838e+000	 8.053757685562363e-001	 1.301399972682973e+001
 1.144442863227316e+000	 8.171839421619914e-001	 1.288852060810491e+001
 1.135974389246762e+000	 8.289157071111886e-001	 1.277365200115120e+001
 1.127378740390607e+000	 8.405689967140626e-001	 1.266951385539443e+001
 1.118656997754935e+000	 8.521417627939015e-001	 1.257620710660765e+001
 1.109810286077638e+000	 8.636319768526709e-001	 1.249381339926659e+001
 1.100839773294748e+000	 8.750376312260990e-001	 1.242239484370200e+001
 1.091746670060282e+000	 8.863567402268646e-001	 1.236199380884094e+001
 1.182256159623954e+000	 7.729337766283387e-001	 1.345033021932572e+001
 1.174270977144507e+000	 7.850120522997811e-001	 1.329191814725524e+001
 1.166154156935227e+000	 7.970199070796056e-001	 1.314444231664269e+001
 1.157906605840680e+000	 8.089552164169988e-001	 1.300805847793070e+001
 1.149529275951698e+000	 8.208158707941905e-001	 1.288290355306090e+001
 1.141023164308958e+000	 8.325997769208243e-001	 1.276909527419923e+001
 1.132389312568990e+000	 8.443048589218470e-001	 1.266673185567919e+001
 1.123628806632751e+000	 8.559290595175384e-001	 1.257589170019210e+001
 1.114742776236968e+000	 8.674703411943183e-001	 1.249663314017315e+001
 1.105732394508499e+000	 8.789266873649623e-001	 1.242899421524134e+001
 1.096598877482047e+000	 8.902961035168723e-001	 1.237299248646580e+001
 1.187487381567757e+000	 7.763538375889839e-001	 1.345012103755267e+001
 1.179466866422254e+000	 7.884855569578583e-001	 1.328933671919023e+001
 1.171314131079141e+000	 8.005465438382775e-001	 1.314028313519666e+001
 1.163030086395568e+000	 8.125346642787614e-001	 1.300309697478417e+001
 1.154615688675160e+000	 8.244477994273897e-001	 1.287789525218446e+001
 1.146071939370278e+000	 8.362838467314601e-001	 1.276477496034074e+001
 1.137399884746552e+000	 8.480407211306311e-001	 1.266381275912899e+001
 1.128600615509811e+000	 8.597163562421754e-001	 1.257506469912740e+001
 1.119675266395616e+000	 8.713087055369658e-001	 1.249856598186014e+001
 1.110625015721654e+000	 8.828157435048256e-001	 1.243433075735700e+001
 1.101451084903311e+000	 8.942354668078801e-001	 1.238235195977386e+001
 1.192718603510560e+000	 7.797738985506290e-001	 1.345190072400163e+001
 1.184662755699006e+000	 7.919590616169355e-001	 1.328838244616159e+001
 1.176474105222074e+000	 8.040731805979495e-001	 1.313738757438909e+001
 1.168153566949501e+000	 8.161141121415239e-001	 1.299903391350805e+001
 1.159702101397701e+000	 8.280797280615889e-001	 1.287341874767334e+001
 1.151120714430722e+000	 8.399679165430958e-001	 1.276061850885877e+001
 1.142410456923293e+000	 8.517765833404151e-001	 1.266068848118983e+001
 1.133572424386115e+000	 8.635036529678125e-001	 1.257366254212109e+001
 1.124607756553584e+000	 8.751470698806133e-001	 1.249955294136974e+001
 1.115517636934213e+000	 8.867047996456892e-001	 1.243835011842482e+001
 1.106303292324074e+000	 8.981748300998879e-001	 1.239002255935441e+001
 1.197949825452362e+000	 7.831939595132741e-001	 1.345557662708527e+001
 1.189858644974764e+000	 7.954325662770124e-001	 1.328896675327835e+001
 1.181634079364027e+000	 8.075998173586216e-001	 1.313567120152058e+001
 1.173277047502478e+000	 8.196935600052864e-001	 1.299578906735264e+001
 1.164788514119321e+000	 8.317116566967884e-001	 1.286939808069435e+001
 1.156169489490290e+000	 8.436519863557316e-001	 1.275655428896234e+001
 1.147421029099213e+000	 8.555124455511994e-001	 1.265729177734501e+001
 1.138544233261663e+000	 8.672909496944495e-001	 1.257162242722092e+001
 1.129540246710870e+000	 8.789854342252608e-001	 1.249953571361411e+001
 1.120410258146176e+000	 8.905938557875524e-001	 1.244099854248581e+001
 1.111155499744336e+000	 9.021141933928956e-001	 1.239595512856146e+001
 1.203181047393165e+000	 7.866140204769193e-001	 1.346105737281436e+001
 1.195054534249526e+000	 7.989060709380897e-001	 1.329100226957116e+001
 1.186794053505000e+000	 8.111264541202936e-001	 1.313505071317509e+001
 1.178400528054499e+000	 8.232730078700490e-001	 1.299328326328386e+001
 1.169874926840022e+000	 8.353435853329877e-001	 1.286575826966726e+001
 1.161218264548983e+000	 8.473360561693676e-001	 1.275251156978805e+001
 1.152431601274313e+000	 8.592483077629837e-001	 1.265355622485338e+001
 1.143516042136455e+000	 8.710782464220866e-001	 1.256888229530665e+001
 1.134472736867475e+000	 8.828237985709083e-001	 1.249845665663887e+001
 1.125302879357543e+000	 8.944829119304160e-001	 1.244222285629732e+001
 1.116007707164096e+000	 9.060535566869034e-001	 1.240010101236632e+001
 1.067485632943935e+000	 8.666599237918263e-001	 1.228418814722175e+001
 1.058475957465724e+000	 8.776409559270160e-001	 1.210313389518950e+001
 1.049348906520820e+000	 8.885335516688586e-001	 1.193100504321355e+001
 1.040105785997771e+000	 8.993358404930295e-001	 1.176788825821127e+001
 1.030747941326993e+000	 9.100459776926331e-001	 1.161385315846950e+001
 1.021276756839340e+000	 9.206621454184820e-001	 1.146895219892297e+001
 1.011693655091940e+000	 9.311825537001275e-001	 1.133322058962074e+001
 1.002000096162005e+000	 9.416054414464441e-001	 1.120667624763748e+001
 9.921975769093336e-001	 9.519290774245990e-001	 1.108931978258934e+001
 9.822876302082761e-001	 9.621517612162696e-001	 1.098113451582933e+001
 9.722718241500000e-001	 9.722718241500000e-001	 1.088208653329750e+001
 1.072337840368207e+000	 8.705992870768339e-001	 1.230261903979938e+001
 1.063287211819318e+000	 8.816302329945243e-001	 1.212711295797701e+001
 1.054118674278869e+000	 8.925723405353065e-001	 1.195980558769733e+001
 1.044833539571264e+000	 9.034237306724723e-001	 1.180074903486093e+001
 1.035433159242514e+000	 9.141825503140953e-001	 1.164997895947532e+001
 1.025918923915885e+000	 9.248469733480368e-001	 1.150751449857866e+001
 1.016292262614673e+000	 9.354152016676193e-001	 1.137335822172498e+001
 1.006554642052806e+000	 9.458854661767574e-001	 1.124749611922240e+001
 9.967075658939900e-001	 9.562560277733776e-001	 1.112989762322343e+001
 9.867525739801863e-001	 9.665251783099840e-001	 1.102051566167818e+001
 9.766912415302499e-001	 9.766912415302500e-001	 1.091928674506801e+001
 1.077190047791978e+000	 8.745386503628416e-001	 1.231966717816272e+001
 1.068098466172510e+000	 8.856195100630275e-001	 1.214922331981761e+001
 1.058888442036616e+000	 8.966111294027344e-001	 1.198626276651656e+001
 1.049561293144556e+000	 9.075116208528702e-001	 1.183080330524165e+001
 1.040118377157935e+000	 9.183191229364774e-001	 1.168284687177997e+001
 1.030561090992429e+000	 9.290318012784669e-001	 1.154237951106426e+001
 1.020890870137506e+000	 9.396478496359313e-001	 1.140937136945786e+001
 1.011109187943807e+000	 9.501654909078254e-001	 1.128377671911393e+001
 1.001217554878947e+000	 9.605829781228368e-001	 1.116553401444477e+001
 9.912175177524969e-001	 9.708985954042936e-001	 1.105456598065013e+001
 9.811106589109998e-001	 9.811106589109998e-001	 1.095077973416153e+001
 1.082042255215247e+000	 8.784780136498493e-001	 1.233528015108743e+001
 1.072909720525302e+000	 8.896087871325260e-001	 1.216941888173700e+001
 1.063658209794062e+000	 9.006499182711422e-001	 1.201033668660304e+001
 1.054289046717647e+000	 9.115995110342230e-001	 1.185801727270731e+001
 1.044803595073254e+000	 9.224556955597798e-001	 1.171242908259480e+001
 1.035203258068972e+000	 9.332166292097718e-001	 1.157352529186395e+001
 1.025489477660438e+000	 9.438804976050631e-001	 1.144124383803808e+001
 1.015663733835007e+000	 9.544455156396489e-001	 1.131550748084046e+001
 1.005727543864203e+000	 9.649099284729759e-001	 1.119622389385010e+001
 9.956824615252075e-001	 9.752720124991983e-001	 1.108328578742431e+001
 9.855300762922499e-001	 9.855300762922500e-001	 1.097657106268662e+001
 1.086894462638015e+000	 8.824173769378569e-001	 1.234940612052005e+001
 1.077720974877691e+000	 8.935980642030192e-001	 1.218765400427055e+001
 1.068427977551206e+000	 9.046887071405296e-001	 1.203198780283381e+001
 1.059016800290537e+000	 9.156874012165311e-001	 1.188235737914638e+001
 1.049488812988472e+000	 9.265922681840022e-001	 1.173869791046319e+001
 1.039845425145515e+000	 9.374014571419520e-001	 1.160092992285567e+001
 1.030088085183470e+000	 9.481131455750150e-001	 1.146895935645525e+001
 1.020218279726408e+000	 9.587255403722272e-001	 1.134267766144481e+001
 1.010237532849759e+000	 9.692368788237946e-001	 1.122196192471028e+001
 1.000147405298318e+000	 9.796454295946977e-001	 1.110667502697934e+001
 9.899494936740000e-001	 9.899494936740000e-001	 1.099666583018659e+001
 1.091746670060282e+000	 8.863567402268646e-001	 1.236199380884094e+001
 1.082532229229680e+000	 8.975873412745076e-001	 1.220388349725169e+001
 1.073197745308050e+000	 9.087274960108978e-001	 1.205117691029894e+001
 1.063744553863226e+000	 9.197752913997940e-001	 1.190379029968069e+001
 1.054174030903590e+000	 9.307288408091445e-001	 1.176162580234293e+001
 1.044487592222057e+000	 9.415862850750074e-001	 1.162457151172437e+001
 1.034686692706601e+000	 9.523457935457873e-001	 1.149250157916352e+001
 1.024772825618007e+000	 9.630055651055606e-001	 1.136527634540627e+001
 1.014747521835615e+000	 9.735638291752935e-001	 1.124274250206689e+001
 1.004612349071828e+000	 9.840188466907922e-001	 1.112473328280831e+001
 9.943689110562497e-001	 9.943689110562497e-001	 1.101106868391917e+001
 1.096598877482047e+000	 8.902961035168723e-001	 1.237299248646580e+001
 1.087343483581267e+000	 9.015766183469912e-001	 1.221806260987184e+001
 1.077967513064593e+000	 9.127662848822455e-001	 1.206786513677418e+001
 1.068472307435714e+000	 9.238631815840123e-001	 1.192228293750543e+001
 1.058859248818606e+000	 9.348654134352069e-001	 1.178118533076469e+001
 1.049129759298598e+000	 9.457711130089377e-001	 1.164442819139196e+001
 1.039285300229832e+000	 9.565784415173796e-001	 1.151185408773080e+001
 1.029327371509807e+000	 9.672855898396492e-001	 1.138329244845758e+001
 1.019257510821771e+000	 9.778907795274726e-001	 1.125855975866647e+001
 1.009077292845738e+000	 9.883922637874820e-001	 1.113745978491678e+001
 9.987883284389998e-001	 9.987883284389999e-001	 1.101978382886279e+001
 1.101451084903311e+000	 8.942354668078801e-001	 1.238235195977386e+001
 1.092154737932453e+000	 9.055658954204693e-001	 1.223014702100261e+001
 1.082737280820834e+000	 9.168050737545735e-001	 1.208201393539374e+001
 1.073200061008001e+000	 9.279510717691853e-001	 1.193780241886583e+001
 1.063544466733522e+000	 9.390019860621895e-001	 1.179734919106642e+001
 1.053771926375139e+000	 9.499559409437431e-001	 1.166047811946018e+001
 1.043883907753162e+000	 9.608110894897918e-001	 1.152700039244409e+001
 1.033881917401806e+000	 9.715656145744926e-001	 1.139671472130311e+001
 1.023767499808227e+000	 9.822177298803317e-001	 1.126940757073767e+001
 1.013542236620049e+000	 9.927656808847664e-001	 1.114485341760824e+001
 1.003207745822250e+000	 1.003207745822250e+000	 1.102281503745816e+001
 1.106303292324074e+000	 8.981748300998879e-001	 1.239002255935441e+001
 1.096965992283238e+000	 9.095551724949427e-001	 1.224009282977355e+001
 1.087507048576774e+000	 9.208438626278815e-001	 1.209358507751470e+001
 1.077927814580087e+000	 9.320389619553134e-001	 1.195031608816526e+001
 1.068229684648337e+000	 9.431385586900923e-001	 1.181009019869983e+001
 1.058414093451679e+000	 9.541407688794236e-001	 1.167269947767074e+001
 1.048482515276592e+000	 9.650437374630242e-001	 1.153792393387309e+001
 1.038436463294005e+000	 9.758456393100914e-001	 1.140553175323678e+001
 1.028277488794982e+000	 9.865446802338704e-001	 1.127527956361670e+001
 1.018007180394759e+000	 9.971390979826460e-001	 1.114691272706575e+001
 1.007627163206000e+000	 1.007627163206000e+000	 1.102016565909408e+001
 1.111155499744336e+000	 9.021141933928956e-001	 1.239595512856146e+001
 1.101777246633621e+000	 9.135444495704109e-001	 1.224785654639553e+001
 1.092276816332413e+000	 9.248826515021695e-001	 1.210254064576938e+001
 1.082655568151972e+000	 9.361268521423970e-001	 1.195979150320227e+001
 1.072914902563051e+000	 9.472751313189153e-001	 1.181938128660806e+001
 1.063056260528219e+000	 9.583255968159792e-001	 1.168107047137700e+001
 1.053081122800121e+000	 9.692763854370767e-001	 1.154460808439154e+001
 1.042991009186404e+000	 9.801256640464451e-001	 1.140973197566696e+001
 1.032787477782038e+000	 9.908716305880899e-001	 1.127616911722584e+001
 1.022472124169869e+000	 1.001512515081121e+000	 1.114363592873442e+001
 1.012046580590250e+000	 1.012046580590250e+000	 1.101183862934416e+001
 1.116007707164096e+000	 9.060535566869034e-001	 1.240010101236632e+001
 1.106588500983603e+000	 9.175337266468745e-001	 1.225339508322494e+001
 1.097046584087751e+000	 9.289214403774377e-001	 1.210884302729787e+001
 1.087383321723656e+000	 9.402147423304352e-001	 1.196619643053147e+001
 1.077600120477664e+000	 9.514117039486579e-001	 1.182519550267165e+001
 1.067698427604757e+000	 9.625104247534099e-001	 1.168556932903131e+001
 1.057679730323750e+000	 9.735090334119493e-001	 1.154703614966062e+001
 1.047545555079003e+000	 9.844056887835539e-001	 1.140930366554837e+001
 1.037297466769393e+000	 9.951985809429892e-001	 1.127206937140774e+001
 1.026937067945379e+000	 1.005885932180191e+000	 1.113502091451125e+001
 1.016465997975000e+000	 1.016465997975000e+000	 1.099783647896283e+001
 9.722718241500000e-001	 9.722718241500000e-001	 1.088208653329750e+001
 9.621517612162694e-001	 9.822876302082761e-001	 1.071815044445919e+001
 9.519290774245989e-001	 9.921975769093333e-001	 1.055275315598244e+001
 9.416054414464440e-001	 1.002000096162005e+000	 1.038547630168262e+001
 9.311825537001276e-001	 1.011693655091940e+000	 1.021589598862871e+001
 9.206621454184818e-001	 1.021276756839340e+000	 1.004358335800731e+001
 9.100459776926331e-001	 1.030747941326993e+000	 9.868105161643923e+000
 8.993358404930296e-001	 1.040105785997770e+000	 9.689024352998597e+000
 8.885335516688586e-001	 1.049348906520820e+000	 9.505900691407787e+000
 8.776409559270160e-001	 1.058475957465724e+000	 9.318291358296664e+000
 8.666599237918263e-001	 1.067485632943935e+000	 9.125751584050414e+000
 9.766912415302499e-001	 9.766912415302500e-001	 1.091928674506801e+001
 9.665251783099836e-001	 9.867525739801865e-001	 1.074904739513485e+001
 9.562560277733777e-001	 9.967075658939899e-001	 1.057908875916522e+001
 9.458854661767572e-001	 1.006554642052806e+000	 1.040904899123731e+001
 9.354152016676194e-001	 1.016292262614673e+000	 1.023855890920435e+001
 9.248469733480369e-001	 1.025918923915885e+000	 1.006724249995769e+001
 9.141825503140953e-001	 1.035433159242514e+000	 9.894717443021582e+000
 9.034237306724724e-001	 1.044833539571264e+000	 9.720595651382999e+000
 8.925723405353064e-001	 1.054118674278869e+000	 9.544483828400844e+000
 8.816302329945243e-001	 1.063287211819318e+000	 9.365984039590627e+000
 8.705992870768339e-001	 1.072337840368207e+000	 9.184694298037432e+000
 9.811106589109998e-001	 9.811106589109998e-001	 1.095077973416153e+001
 9.708985954042935e-001	 9.912175177524970e-001	 1.077509582859990e+001
 9.605829781228369e-001	 1.001217554878947e+000	 1.060142298475076e+001
 9.501654909078253e-001	 1.011109187943807e+000	 1.042945545827720e+001
 9.396478496359313e-001	 1.020890870137506e+000	 1.025887836599249e+001
 9.290318012784666e-001	 1.030561090992429e+000	 1.008936813589801e+001
 9.183191229364774e-001	 1.040118377157934e+000	 9.920592978221514e+000
 9.075116208528701e-001	 1.049561293144556e+000	 9.752213376439546e+000
 8.966111294027341e-001	 1.058888442036616e+000	 9.583882597204616e+000
 8.856195100630275e-001	 1.068098466172510e+000	 9.415247218044506e+000
 8.745386503628417e-001	 1.077190047791978e+000	 9.245947671647787e+000
 9.855300762922499e-001	 9.855300762922500e-001	 1.097657106268662e+001
 9.752720124991982e-001	 9.956824615252071e-001	 1.079628998339045e+001
 9.649099284729756e-001	 1.005727543864203e+000	 1.061973894768429e+001
 9.544455156396487e-001	 1.015663733835007e+000	 1.044666789939647e+001
 9.438804976050631e-001	 1.025489477660438e+000	 1.027681584759668e+001
 9.332166292097718e-001	 1.035203258068972e+000	 1.010991126177926e+001
 9.224556955597798e-001	 1.044803595073254e+000	 9.945672490708221e+000
 9.115995110342232e-001	 1.054289046717647e+000	 9.783808203988084e+000
 9.006499182711419e-001	 1.063658209794062e+000	 9.624017855357186e+000
 8.896087871325260e-001	 1.072909720525302e+000	 9.465992166638801e+000
 8.784780136498495e-001	 1.082042255215247e+000	 9.309413631225862e+000
 9.899494936740000e-001	 9.899494936740000e-001	 1.099666583018659e+001
 9.796454295946977e-001	 1.000147405298318e+000	 1.081262383871958e+001
 9.692368788237945e-001	 1.010237532849759e+000	 1.063401970345068e+001
 9.587255403722272e-001	 1.020218279726408e+000	 1.046065864811928e+001
 9.481131455750151e-001	 1.030088085183470e+000	 1.029233317237475e+001
 9.374014571419520e-001	 1.039845425145515e+000	 1.012882339247214e+001
 9.265922681840022e-001	 1.049488812988472e+000	 9.969897408284982e+000
 9.156874012165313e-001	 1.059016800290537e+000	 9.815311695775032e+000
 9.046887071405299e-001	 1.068427977551207e+000	 9.664811523995660e+000
 8.935980642030192e-001	 1.077720974877691e+000	 9.518131395628227e+000
 8.824173769378571e-001	 1.086894462638015e+000	 9.374995509992118e+000
 9.943689110562497e-001	 9.943689110562497e-001	 1.101106868391917e+001
 9.840188466907921e-001	 1.004612349071828e+000	 1.082409112023928e+001
 9.735638291752937e-001	 1.014747521835615e+000	 1.064424824939659e+001
 9.630055651055606e-001	 1.024772825618007e+000	 1.047140017185789e+001
 9.523457935457874e-001	 1.034686692706601e+000	 1.030539248111067e+001
 9.415862850750074e-001	 1.044487592222057e+000	 1.014605655023622e+001
 9.307288408091446e-001	 1.054174030903590e+000	 9.993209847443119e+000
 9.197752913997943e-001	 1.063744553863226e+000	 9.846656279786707e+000
 9.087274960108978e-001	 1.073197745308051e+000	 9.706186564219832e+000
 8.975873412745076e-001	 1.082532229229680e+000	 9.571578625046657e+000
 8.863567402268648e-001	 1.091746670060282e+000	 9.442598016778472e+000
 9.987883284389998e-001	 9.987883284389999e-001	 1.101978382886279e+001
 9.883922637874820e-001	 1.009077292845738e+000	 1.083068530565085e+001
 9.778907795274728e-001	 1.019257510821771e+000	 1.065040752601662e+001
 9.672855898396491e-001	 1.029327371509807e+000	 1.047886506894951e+001
 9.565784415173797e-001	 1.039285300229832e+000	 1.031595622988120e+001
 9.457711130089376e-001	 1.049129759298598e+000	 1.016156325349313e+001
 9.348654134352068e-001	 1.058859248818606e+000	 1.001555259812474e+001
 9.238631815840123e-001	 1.068472307435714e+000	 9.877775231084508e+000
 9.127662848822457e-001	 1.077967513064593e+000	 9.748066954085376e+000
 9.015766183469910e-001	 1.087343483581267e+000	 9.626248757942822e+000
 8.902961035168723e-001	 1.096598877482047e+000	 9.512127205594441e+000
 1.003207745822250e+000	 1.003207745822250e+000	 1.102281503745816e+001
 9.927656808847662e-001	 1.013542236620048e+000	 1.083239963016608e+001
 9.822177298803316e-001	 1.023767499808226e+000	 1.065248041820528e+001
 9.715656145744925e-001	 1.033881917401806e+000	 1.048302606577332e+001
 9.608110894897918e-001	 1.043883907753162e+000	 1.032398718311100e+001
 9.499559409437431e-001	 1.053771926375139e+000	 1.017529650589938e+001
 9.390019860621897e-001	 1.063544466733522e+000	 1.003686910888948e+001
 9.279510717691852e-001	 1.073200061008001e+000	 9.908602653146666e+000
 9.168050737545735e-001	 1.082737280820834e+000	 9.790377666202806e+000
 9.055658954204692e-001	 1.092154737932453e+000	 9.682057854321682e+000
 8.942354668078801e-001	 1.101451084903311e+000	 9.583490445997745e+000
 1.007627163206000e+000	 1.007627163206000e+000	 1.102016565909408e+001
 9.971390979826460e-001	 1.018007180394759e+000	 1.082922709182485e+001
 9.865446802338707e-001	 1.028277488794982e+000	 1.065044975647642e+001
 9.758456393100914e-001	 1.038436463294005e+000	 1.048385601394218e+001
 9.650437374630242e-001	 1.048482515276592e+000	 1.032944840681109e+001
 9.541407688794236e-001	 1.058414093451679e+000	 1.018720978570414e+001
 9.431385586900923e-001	 1.068229684648337e+000	 1.005710347247076e+001
 9.320389619553136e-001	 1.077927814580087e+000	 9.939073459701858e+000
 9.208438626278813e-001	 1.087507048576774e+000	 9.833044645927993e+000
 9.095551724949427e-001	 1.096965992283238e+000	 9.738923105773269e+000
 8.981748300998879e-001	 1.106303292324074e+000	 9.656596394244659e+000
 1.012046580590250e+000	 1.012046580590250e+000	 1.101183862934416e+001
 1.001512515081121e+000	 1.022472124169869e+000	 1.082116045667400e+001
 9.908716305880898e-001	 1.032787477782037e+000	 1.064429831815045e+001
 9.801256640464447e-001	 1.042991009186404e+000	 1.048132788756827e+001
 9.692763854370766e-001	 1.053081122800121e+000	 1.033230326199314e+001
 9.583255968159792e-001	 1.063056260528219e+000	 1.019725703538766e+001
 9.472751313189151e-001	 1.072914902563051e+000	 1.007620041171129e+001
 9.361268521423967e-001	 1.082655568151972e+000	 9.969123357037367e+000
 9.248826515021694e-001	 1.092276816332413e+000	 9.875994790122455e+000
 9.135444495704108e-001	 1.101777246633621e+000	 9.796762810765365e+000
 9.021141933928956e-001	 1.111155499744336e+000	 9.731354965196132e+000
 1.016465997975000e+000	 1.016465997975000e+000	 1.099783647896283e+001
 1.005885932180191e+000	 1.026937067945379e+000	 1.080819226381025e+001
 9.951985809429891e-001	 1.037297466769393e+000	 1.063400882851129e+001
 9.844056887835538e-001	 1.047545555079003e+000	 1.047541478059990e+001
 9.735090334119494e-001	 1.057679730323751e+000	 1.033251539825750e+001
 9.625104247534098e-001	 1.067698427604757e+000	 1.020539265156877e+001
 9.514117039486579e-001	 1.077600120477664e+000	 1.009410526586449e+001
 9.402147423304353e-001	 1.087383321723656e+000	 9.998688826770151e+000
 9.289214403774374e-001	 1.097046584087751e+000	 9.919155926468786e+000
 9.175337266468745e-001	 1.106588500983603e+000	 9.855496350580568e+000
 9.060535566869034e-001	 1.116007707164096e+000	 9.807677304956526e+000
 8.666599237918263e-001	 1.067485632943935e+000	 9.125751584050414e+000
 8.555923505467824e-001	 1.076376667217045e+000	 8.941173264860931e+000
 8.444401551594337e-001	 1.085147835270769e+000	 8.762334304793733e+000
 8.332052791907164e-001	 1.093797953354513e+000	 8.589238120174867e+000
 8.218896856901418e-001	 1.102325879486378e+000	 8.421875835039362e+000
 8.104953580780097e-001	 1.110730513922648e+000	 8.260226528123502e+000
 7.990242990159947e-001	 1.119010799591597e+000	 8.104257501841046e+000
 7.874785292674239e-001	 1.127165722491292e+000	 7.953924572318039e+000
 7.758600865485733e-001	 1.135194312051163e+000	 7.809172379508349e+000
 7.641710243723182e-001	 1.143095641457127e+000	 7.669934716372102e+000
 7.524134108854681e-001	 1.150868827940138e+000	 7.536134876056179e+000
 8.705992870768339e-001	 1.072337840368207e+000	 9.184694298037432e+000
 8.594814066806454e-001	 1.081269288433778e+000	 9.016196860163513e+000
 8.482785194960811e-001	 1.090080325433506e+000	 8.849638993850979e+000
 8.369925759093532e-001	 1.098769762236110e+000	 8.684893083575016e+000
 8.256255478929260e-001	 1.107336451668866e+000	 8.521823466721532e+000
 8.141794278826452e-001	 1.115779288989222e+000	 8.360286798275981e+000
 8.026562276431940e-001	 1.124097212320582e+000	 8.200132431173822e+000
 7.910579771231864e-001	 1.132289203051912e+000	 8.041202811231642e+000
 7.793867233012453e-001	 1.140354286200958e+000	 7.883333885543978e+000
 7.676445290243953e-001	 1.148291530740845e+000	 7.726355523206928e+000
 7.558334718401131e-001	 1.156100049889941e+000	 7.570091947193063e+000
 8.745386503628417e-001	 1.077190047791978e+000	 9.245947671647787e+000
 8.633704628155090e-001	 1.086161909649915e+000	 9.091650708129633e+000
 8.521168838337286e-001	 1.095012815595560e+000	 8.935533333649032e+000
 8.407798726289903e-001	 1.103741571116951e+000	 8.777337687078788e+000
 8.293614100967101e-001	 1.112347023850532e+000	 8.616802076236771e+000
 8.178634976882812e-001	 1.120828064054921e+000	 8.453661459738441e+000
 8.062881562713932e-001	 1.129183625048646e+000	 8.287647938227286e+000
 7.946374249799488e-001	 1.137412683611576e+000	 8.118491253746502e+000
 7.829133600549173e-001	 1.145514260349772e+000	 7.945919296005548e+000
 7.711180336774725e-001	 1.153487420023567e+000	 7.769658614271687e+000
 7.592535327957583e-001	 1.161331271838743e+000	 7.589434933608134e+000
 8.784780136498495e-001	 1.082042255215247e+000	 9.309413631225862e+000
 8.672595189513723e-001	 1.091054530865455e+000	 9.167462682162027e+000
 8.559552481723760e-001	 1.099945305756934e+000	 9.019970647784263e+000
 8.445671693496273e-001	 1.108713379997035e+000	 8.866550196229092e+000
 8.330972723014944e-001	 1.117357596031378e+000	 8.706814351798974e+000
 8.215475674949171e-001	 1.125876839119744e+000	 8.540377093456121e+000
 8.099200849005926e-001	 1.134270037775790e+000	 8.366853956443853e+000
 7.982168728377114e-001	 1.142536164170286e+000	 8.185862635656145e+000
 7.864399968095893e-001	 1.150674234497606e+000	 7.997023589362486e+000
 7.745915383315496e-001	 1.158683309305295e+000	 7.799960641903009e+000
 7.626735937524034e-001	 1.166562493786546e+000	 7.594301583961053e+000
 8.824173769378571e-001	 1.086894462638015e+000	 9.374995509992118e+000
 8.711485750882357e-001	 1.095947152080400e+000	 9.243561602066162e+000
 8.597936125120235e-001	 1.104877795917626e+000	 9.102904754823948e+000
 8.483544660712643e-001	 1.113685188876363e+000	 8.952508929347196e+000
 8.368331345072785e-001	 1.122368168211403e+000	 8.791862601641347e+000
 8.252316373025528e-001	 1.130925614183691e+000	 8.620459477252757e+000
 8.135520135307919e-001	 1.139356450502013e+000	 8.437799202805165e+000
 8.017963206964740e-001	 1.147659644728039e+000	 8.243388072924471e+000
 7.899666335652612e-001	 1.155834208644460e+000	 8.036739731024818e+000
 7.780650429866266e-001	 1.163879198586027e+000	 7.817375862444362e+000
 7.660936547100484e-001	 1.171793715733349e+000	 7.584826878431873e+000
 8.863567402268648e-001	 1.091746670060282e+000	 9.442598016778472e+000
 8.750376312260989e-001	 1.100839773294748e+000	 9.319877213019566e+000
 8.636319768526711e-001	 1.109810286077638e+000	 9.184289957306561e+000
 8.521417627939012e-001	 1.118656997754935e+000	 9.035192256359961e+000
 8.405689967140625e-001	 1.127378740390607e+000	 8.871948762459986e+000
 8.289157071111886e-001	 1.135974389246762e+000	 8.693933603679383e+000
 8.171839421619912e-001	 1.144442863227316e+000	 8.500531204863817e+000
 8.053757685562365e-001	 1.152783125284837e+000	 8.291137097681805e+000
 7.934932703219333e-001	 1.160994182790334e+000	 8.065158718076987e+000
 7.815385476427038e-001	 1.169075087865765e+000	 7.822016189489590e+000
 7.695137156686936e-001	 1.177024937679152e+000	 7.561143090242709e+000
 8.902961035168723e-001	 1.096598877482047e+000	 9.512127205594441e+000
 8.789266873649624e-001	 1.105732394508499e+000	 9.396340165098447e+000
 8.674703411943185e-001	 1.114742776236968e+000	 9.264081031034914e+000
 8.559290595175385e-001	 1.123628806632752e+000	 9.114578597658081e+000
 8.443048589218470e-001	 1.132389312568990e+000	 8.947074407634229e+000
 8.325997769208242e-001	 1.141023164308958e+000	 8.760823697386204e+000
 8.208158707941905e-001	 1.149529275951698e+000	 8.555096327058793e+000
 8.089552164169989e-001	 1.157906605840680e+000	 8.329177693266379e+000
 7.970199070796054e-001	 1.166154156935227e+000	 8.082369622825354e+000
 7.850120522997811e-001	 1.174270977144507e+000	 7.813991245714143e+000
 7.729337766283387e-001	 1.182256159623954e+000	 7.523379845547638e+000
 8.942354668078801e-001	 1.101451084903311e+000	 9.583490445997745e+000
 8.828157435048257e-001	 1.110625015721654e+000	 9.472881993346743e+000
 8.713087055369658e-001	 1.119675266395616e+000	 9.342233214651023e+000
 8.597163562421755e-001	 1.128600615509811e+000	 9.190646422984731e+000
 8.480407211306312e-001	 1.137399884746552e+000	 9.017240755228182e+000
 8.362838467314600e-001	 1.146071939370278e+000	 8.821153232037206e+000
 8.244477994273897e-001	 1.154615688675160e+000	 8.601539796334230e+000
 8.125346642787614e-001	 1.163030086395568e+000	 8.357576328337665e+000
 8.005465438382774e-001	 1.171314131079140e+000	 8.088459635194678e+000
 7.884855569578581e-001	 1.179466866422254e+000	 7.793408413335913e+000
 7.763538375889839e-001	 1.187487381567757e+000	 7.471664181736347e+000
 8.981748300998879e-001	 1.106303292324074e+000	 9.656596394244659e+000
 8.867047996456892e-001	 1.115517636934213e+000	 9.549435098368438e+000
 8.751470698806134e-001	 1.124607756553584e+000	 9.418702199487388e+000
 8.635036529678124e-001	 1.133572424386115e+000	 9.263374250352525e+000
 8.517765833404152e-001	 1.142410456923293e+000	 9.082448675784011e+000
 8.399679165430957e-001	 1.151120714430722e+000	 8.874944946779300e+000
 8.280797280615889e-001	 1.159702101397701e+000	 8.639905727084415e+000
 8.161141121415241e-001	 1.168153566949501e+000	 8.376397990093524e+000
 8.040731805979494e-001	 1.176474105222074e+000	 8.083514104007254e+000
 7.919590616169355e-001	 1.184662755699006e+000	 7.760372883247769e+000
 7.797738985506288e-001	 1.192718603510559e+000	 7.406120604206317e+000
 9.021141933928956e-001	 1.111155499744336e+000	 9.731354965196132e+000
 8.905938557875524e-001	 1.120410258146176e+000	 9.625932727428875e+000
 8.789854342252608e-001	 1.129540246710870e+000	 9.493444119681833e+000
 8.672909496944493e-001	 1.138544233261663e+000	 9.332740644990466e+000
 8.555124455511993e-001	 1.147421029099214e+000	 9.142698699908731e+000
 8.436519863557315e-001	 1.156169489490290e+000	 8.922220862279769e+000
 8.317116566967884e-001	 1.164788514119322e+000	 8.670237145446198e+000
 8.196935600052865e-001	 1.173277047502477e+000	 8.385706216616757e+000
 8.075998173586215e-001	 1.181634079364027e+000	 8.067616577182752e+000
 7.954325662770125e-001	 1.189858644974764e+000	 7.714987702863639e+000
 7.831939595132741e-001	 1.197949825452362e+000	 7.326871141646731e+000
 9.060535566869034e-001	 1.116007707164096e+000	 9.807677304956526e+000
 8.944829119304159e-001	 1.125302879357542e+000	 9.702308956048961e+000
 8.828237985709084e-001	 1.134472736867475e+000	 9.566415542551885e+000
 8.710782464220863e-001	 1.143516042136455e+000	 9.398724218317412e+000
 8.592483077629837e-001	 1.152431601274313e+000	 9.197991025664928e+000
 8.473360561693675e-001	 1.161218264548983e+000	 8.963002296345058e+000
 8.353435853329877e-001	 1.169874926840022e+000	 8.692576012955371e+000
 8.232730078700490e-001	 1.178400528054499e+000	 8.385563128376782e+000
 8.111264541202936e-001	 1.186794053505000e+000	 8.040848840887641e+000
 7.989060709380897e-001	 1.195054534249526e+000	 7.657353822714520e+000
 7.866140204769193e-001	 1.203181047393165e+000	 7.234035399878770e+000
 7.524134108854681e-001	 1.150868827940138e+000	 7.536134876056179e+000
 7.405893277011463e-001	 1.158513033028134e+000	 7.385186420782736e+000
 7.287008687274819e-001	 1.166027462761179e+000	 7.213823801452412e+000
 7.167501389939834e-001	 1.173411367869948e+000	 7.021179739554823e+000
 7.047392534769517e-001	 1.180664043917732e+000	 6.806408010275085e+000
 6.926703359251807e-001	 1.187784831405943e+000	 6.568684403970551e+000
 6.805455176872634e-001	 1.194773115843350e+000	 6.307207653632076e+000
 6.683669365417824e-001	 1.201628327779292e+000	 6.021200326735551e+000
 6.561367355316509e-001	 1.208349942801147e+000	 5.709909679974190e+000
 6.438570618038492e-001	 1.214937481496401e+000	 5.372608475467069e+000
 6.315300654557748e-001	 1.221390509379698e+000	 5.008595757123612e+000
 7.558334718401131e-001	 1.156100049889941e+000	 7.570091947193063e+000
 7.439556428233736e-001	 1.163779001364925e+000	 7.390590072873519e+000
 7.320131454000440e-001	 1.171327587596931e+000	 7.203231904288363e+000
 7.200080941679481e-001	 1.178745055910865e+000	 7.007383204817178e+000
 7.079426137169161e-001	 1.186030698668031e+000	 6.802417004485558e+000
 6.958188374491457e-001	 1.193183853372122e+000	 6.587714442393802e+000
 6.836389064011775e-001	 1.200203902738765e+000	 6.362665594532984e+000
 6.714049680687699e-001	 1.207090274728887e+000	 6.126670285348909e+000
 6.591191752359408e-001	 1.213842442546173e+000	 5.879138881472675e+000
 6.467836848094288e-001	 1.220459924598960e+000	 5.619493066083081e+000
 6.344006566598016e-001	 1.226942284426960e+000	 5.347166592433398e+000
 7.592535327957583e-001	 1.161331271838743e+000	 7.589434933608134e+000
 7.473219579465960e-001	 1.169044969700721e+000	 7.385587295347173e+000
 7.353254220735852e-001	 1.176627712431704e+000	 7.186325070482236e+000
 7.232660493428670e-001	 1.184078743950827e+000	 6.991245500115507e+000
 7.111459739577992e-001	 1.191397353417411e+000	 6.799939387255398e+000
 6.989673389739836e-001	 1.198582875337428e+000	 6.611991820961682e+000
 6.867322951159092e-001	 1.205634689633362e+000	 6.426982905174961e+000
 6.744429995965099e-001	 1.212552221677730e+000	 6.244488490551878e+000
 6.621016149409071e-001	 1.219334942290522e+000	 6.064080907640667e+000
 6.497103078155996e-001	 1.225982367700928e+000	 5.885329699749187e+000
 6.372712478643247e-001	 1.232494059473726e+000	 5.707802353876310e+000
 7.626735937524034e-001	 1.166562493786546e+000	 7.594301583961053e+000
 7.506882730708131e-001	 1.174310938035523e+000	 7.370260227594204e+000
 7.386376987481063e-001	 1.181927837265497e+000	 7.163131421938319e+000
 7.265240045187403e-001	 1.189412431989835e+000	 6.972742341581461e+000
 7.143493341996013e-001	 1.196764008165873e+000	 6.798900099457845e+000
 7.021158404996948e-001	 1.203981897301861e+000	 6.641392353466471e+000
 6.898256838314585e-001	 1.211065476527143e+000	 6.499987936966419e+000
 6.774810311250014e-001	 1.218014168625822e+000	 6.374437511432801e+000
 6.650840546465500e-001	 1.224827442034195e+000	 6.264474239525314e+000
 6.526369308223613e-001	 1.231504810802304e+000	 6.169814476805925e+000
 6.401418390693439e-001	 1.238045834519995e+000	 6.090158480318626e+000
 7.660936547100484e-001	 1.171793715733349e+000	 7.584826878431873e+000
 7.540545881960251e-001	 1.179576906369329e+000	 7.344689237912458e+000
 7.419499754236072e-001	 1.187227962098310e+000	 7.133678278556485e+000
 7.297819596955674e-001	 1.194746120027889e+000	 6.951849583769092e+000
 7.175526944423217e-001	 1.202130662913416e+000	 6.799225131814436e+000
 7.052643420262789e-001	 1.209380919265421e+000	 6.675793785653094e+000
 6.929190725478249e-001	 1.216496263420106e+000	 6.581511825750090e+000
 6.805190626542451e-001	 1.223476115573161e+000	 6.516303524095665e+000
 6.680664943528692e-001	 1.230319941777191e+000	 6.480061757609900e+000
 6.555635538297144e-001	 1.237027253903090e+000	 6.472648659051022e+000
 6.430124302748591e-001	 1.243597609565769e+000	 6.493896303486275e+000
 7.695137156686936e-001	 1.177024937679152e+000	 7.561143090242709e+000
 7.574209033222322e-001	 1.184842874702140e+000	 7.308952962865345e+000
 7.452622521000878e-001	 1.192528086930144e+000	 7.097992176053627e+000
 7.330399148733491e-001	 1.200079808064989e+000	 6.928543216578160e+000
 7.207560546859609e-001	 1.207497317660041e+000	 6.800841501564002e+000
 7.084128435537361e-001	 1.214779941228108e+000	 6.715075752285472e+000
 6.960124612650093e-001	 1.221927050312251e+000	 6.671388429926678e+000
 6.835570941842404e-001	 1.228938062519748e+000	 6.669876231503687e+000
 6.710489340598651e-001	 1.235812441519510e+000	 6.710590644047029e+000
 6.584901768376587e-001	 1.242549697003283e+000	 6.793538555038539e+000
 6.458830214808703e-001	 1.249149384611046e+000	 6.918682917012799e+000
 7.729337766283387e-001	 1.182256159623954e+000	 7.523379845547638e+000
 7.607872184494341e-001	 1.190108843033957e+000	 7.263128345594653e+000
 7.485745287775476e-001	 1.197828211760998e+000	 7.056098883313425e+000
 7.362978700520847e-001	 1.205413496101134e+000	 6.902799362260142e+000
 7.239594149305189e-001	 1.212863972405746e+000	 6.803677229752999e+000
 7.115613450820667e-001	 1.220178963189922e+000	 6.759119735355582e+000
 6.991058499830111e-001	 1.227357837203579e+000	 6.769454270220807e+000
 6.865951257149880e-001	 1.234400009465583e+000	 6.834948785451060e+000
 6.740313737675374e-001	 1.241304941261153e+000	 6.955812287490002e+000
 6.614167998461942e-001	 1.248072140102887e+000	 7.132195408426232e+000
 6.487536126873776e-001	 1.254701159655828e+000	 6.696882727806186e+000
 7.763538375889839e-001	 1.187487381567757e+000	 7.471664181736347e+000
 7.641535335776306e-001	 1.195374811364779e+000	 7.207290673119590e+000
 7.518868054559872e-001	 1.203128336590873e+000	 7.008023419276429e+000
 7.395558252317745e-001	 1.210747184136326e+000	 6.874594272503162e+000
 7.271627751759954e-001	 1.218230627150533e+000	 6.807661319125288e+000
 7.147098466112702e-001	 1.225577985150862e+000	 6.807809023394364e+000
 7.021992387018302e-001	 1.232788624094088e+000	 6.875548471040490e+000
 6.896331572464876e-001	 1.239861956410667e+000	 7.011317710598095e+000
 6.770138134758862e-001	 1.246797441002119e+000	 7.215482190437945e+000
 6.643434228553209e-001	 1.253594583201898e+000	 6.984222532775362e+000
 6.516242038943810e-001	 1.260252934700113e+000	 6.377752853837297e+000
 7.797738985506288e-001	 1.192718603510559e+000	 7.406120604206317e+000
 7.675198487068222e-001	 1.200640779694606e+000	 7.141513612656321e+000
 7.551990821354065e-001	 1.208428461419768e+000	 6.953790069386995e+000
 7.428137804124186e-001	 1.216080872170563e+000	 6.843904325592846e+000
 7.303661354223907e-001	 1.223597281894402e+000	 6.812723732593198e+000
 7.178583481413468e-001	 1.230977007110930e+000	 6.861028671855497e+000
 7.052926274214670e-001	 1.238219410983781e+000	 6.989512703378807e+000
 6.926711887787389e-001	 1.245323903354998e+000	 7.198782830504818e+000
 6.799962531849115e-001	 1.252289940742410e+000	 7.172209170292343e+000
 6.672700458650387e-001	 1.259117026300318e+000	 6.585892871853599e+000
 6.544947951018805e-001	 1.265804709743902e+000	 6.081995240548258e+000
 7.831939595132741e-001	 1.197949825452362e+000	 7.326871141646731e+000
 7.708861638370090e-001	 1.205906748023437e+000	 7.065869246984320e+000
 7.585113588158053e-001	 1.213728586247683e+000	 6.893422401607823e+000
 7.460717355940170e-001	 1.221414560203846e+000	 6.810706023649116e+000
 7.335694956697046e-001	 1.228963936637351e+000	 6.818795372272545e+000
 7.210068496722966e-001	 1.236376029070124e+000	 6.918665464535516e+000
 7.083860161419212e-001	 1.243650197872656e+000	 7.111191129209898e+000
 6.957092203117423e-001	 1.250785850298578e+000	 7.289713167752485e+000
 6.829786928946134e-001	 1.257782440482023e+000	 6.701869551961686e+000
 6.701966688753476e-001	 1.264639469398148e+000	 6.207919210259897e+000
 6.573653863098761e-001	 1.271356484787195e+000	 5.809327733120669e+000
 7.866140204769193e-001	 1.203181047393165e+000	 7.234035399878770e+000
 7.742524789681906e-001	 1.211172716351274e+000	 6.980428108890878e+000
 7.618236354971839e-001	 1.219028711074619e+000	 6.826943282017641e+000
 7.493296907765696e-001	 1.226748248236175e+000	 6.774975989933010e+000
 7.367728559179372e-001	 1.234330591379383e+000	 6.825808059067494e+000
 7.241553512041193e-001	 1.241775051028446e+000	 6.980607876002180e+000
 7.114794048631932e-001	 1.249080984760714e+000	 7.240430347340127e+000
 6.987472518454979e-001	 1.256247797241406e+000	 6.754182032783236e+000
 6.859611326049917e-001	 1.263274940220960e+000	 6.248833180155957e+000
 6.731232918862481e-001	 1.270161912495386e+000	 5.850061168210789e+000
 6.602359775183677e-001	 1.276908259829992e+000	 5.559473333942156e+000
 6.315300654557748e-001	 1.221390509379698e+000	 5.008595757123612e+000
 6.191578983888870e-001	 1.227708636785547e+000	 4.870585970118778e+000
 6.067427131723423e-001	 1.233891518726467e+000	 4.789921048341708e+000
 5.942866619168479e-001	 1.239938854717516e+000	 4.803835976086342e+000
 5.817918951587183e-001	 1.245850388568263e+000	 4.912407735114169e+000
 5.692605607567765e-001	 1.251625908142133e+000	 4.872493048883535e+000
 5.566948028026508e-001	 1.257265245083973e+000	 4.319978062158630e+000
 5.440967605454946e-001	 1.262768274516530e+000	 3.872567342858596e+000
 5.314685673321093e-001	 1.268134914706553e+000	 3.531605424535537e+000
 5.188123495634236e-001	 1.273365126701276e+000	 3.298309983115580e+000
 5.061302256682360e-001	 1.278458913936058e+000	 3.173771500762904e+000
 6.344006566598016e-001	 1.226942284426960e+000	 5.347166592433398e+000
 6.219722524698850e-001	 1.233289130593488e+000	 5.350389218419853e+000
 6.095006345932358e-001	 1.239500116542952e+000	 5.384014474474677e+000
 5.969879649228826e-001	 1.245574940424570e+000	 5.500226474645153e+000
 5.844364037703060e-001	 1.251513344883410e+000	 5.474465049862880e+000
 5.718481087573232e-001	 1.257315116818638e+000	 4.887257158139564e+000
 5.592252337214336e-001	 1.262980087109851e+000	 4.391308501421449e+000
 5.465699276356508e-001	 1.268508130312172e+000	 3.987955920354483e+000
 5.338843335438076e-001	 1.273899164320837e+000	 3.678422513655796e+000
 5.211705875122910e-001	 1.279153150006021e+000	 3.463817064642084e+000
 5.084308175991221e-001	 1.284270090818699e+000	 3.345133645622354e+000
 6.372712478643247e-001	 1.232494059473726e+000	 5.707802353876310e+000
 6.247866065512894e-001	 1.238869624401028e+000	 5.847938050458016e+000
 6.122585560144660e-001	 1.245108714359122e+000	 5.992367552110650e+000
 5.996892679292055e-001	 1.251211026131383e+000	 6.029546941349270e+000
 5.870809123821531e-001	 1.257176301198379e+000	 5.430229604487375e+000
 5.744356567581201e-001	 1.263004325495019e+000	 4.908611318053044e+000
 5.617556646404782e-001	 1.268694929135650e+000	 4.465996323571175e+000
 5.490430947261002e-001	 1.274247986107771e+000	 4.103588405172179e+000
 5.363000997558497e-001	 1.279663413935102e+000	 3.822490108196527e+000
 5.235288254615732e-001	 1.284941173310762e+000	 3.623702121353260e+000
 5.107314095305132e-001	 1.290081267701339e+000	 3.508122821785478e+000
 6.401418390693439e-001	 1.238045834519995e+000	 6.090158480318626e+000
 6.276009606330998e-001	 1.244450118208166e+000	 6.348257951798116e+000
 6.150164774360336e-001	 1.250717312174975e+000	 6.510365695760119e+000
 6.023905709358165e-001	 1.256847111837954e+000	 5.920867484705468e+000
 5.897254209942590e-001	 1.262839257513171e+000	 5.395826849982104e+000
 5.770232047591676e-001	 1.268693534171278e+000	 4.936490530712661e+000
 5.642860955597846e-001	 1.274409771161371e+000	 4.544018217348307e+000
 5.515162618168427e-001	 1.279987841903325e+000	 4.219481592785617e+000
 5.387158659682362e-001	 1.285427663549347e+000	 3.963863521818121e+000
 5.258870634112705e-001	 1.290729196615497e+000	 3.778057388960633e+000
 5.130320014624097e-001	 1.295892444583980e+000	 3.662866584326939e+000
 6.430124302748591e-001	 1.243597609565769e+000	 6.493896303486275e+000
 6.304153147153168e-001	 1.250030612014904e+000	 6.860743429868546e+000
 6.177743988579378e-001	 1.256325909990511e+000	 6.332170203074199e+000
 6.050918739427151e-001	 1.262483197544283e+000	 5.825294174753097e+000
 5.923699296066242e-001	 1.268502213827786e+000	 5.371150981809420e+000
 5.796107527604656e-001	 1.274382742847414e+000	 4.970831457133455e+000
 5.668165264793528e-001	 1.280124613187013e+000	 4.625351767259897e+000
 5.539894289078782e-001	 1.285727697698835e+000	 4.335652439648113e+000
 5.411316321809667e-001	 1.291191913163572e+000	 4.102597522914532e+000
 5.282453013613825e-001	 1.296517219920227e+000	 3.926973880359268e+000
 5.153325933948112e-001	 1.301703621466620e+000	 3.809490616789061e+000
 6.458830214808703e-001	 1.249149384611046e+000	 6.918682917012799e+000
 6.332296687979401e-001	 1.255611105821241e+000	 6.593759922874678e+000
 6.205323202801791e-001	 1.261934507805731e+000	 6.170381803276869e+000
 6.077931769499019e-001	 1.268119283250371e+000	 5.742680406766973e+000
 5.950144382192485e-001	 1.274165170142223e+000	 5.356098591242798e+000
 5.821983007620143e-001	 1.280071951523426e+000	 5.011572380390763e+000
 5.693469573991831e-001	 1.285839455212577e+000	 4.709975433675560e+000
 5.564625959992068e-001	 1.291467553494301e+000	 4.452118059615274e+000
 5.435473983940415e-001	 1.296956162777778e+000	 4.238746346730105e+000
 5.306035393119093e-001	 1.302305243224953e+000	 4.070541412802823e+000
 5.176331853277179e-001	 1.307514798349261e+000	 3.948118772771344e+000
 6.487536126873776e-001	 1.254701159655828e+000	 6.696882727806186e+000
 6.360440228809695e-001	 1.261191599627176e+000	 6.347134468910082e+000
 6.232902417027575e-001	 1.267543105620634e+000	 6.024813138845287e+000
 6.104944799573766e-001	 1.273755368956216e+000	 5.672882702200090e+000
 5.976589468321319e-001	 1.279828126456483e+000	 5.350568612362029e+000
 5.847858487638131e-001	 1.285761160199316e+000	 5.058653169735232e+000
 5.718773883192748e-001	 1.291554297238061e+000	 4.797868533449162e+000
 5.589357630908286e-001	 1.297207409289723e+000	 4.568895720461524e+000
 5.459631646074604e-001	 1.302720412391964e+000	 4.372363707154800e+000
 5.329617772628510e-001	 1.308093266529673e+000	 4.208848634355111e+000
 5.199337772611297e-001	 1.313325975231901e+000	 4.078873116416099e+000
 6.516242038943810e-001	 1.260252934700113e+000	 6.377752853837297e+000
 6.388583769644054e-001	 1.266772093432710e+000	 6.120620808463778e+000
 6.260481631256726e-001	 1.273151703435221e+000	 5.889498997126048e+000
 6.131957829651392e-001	 1.279391454661820e+000	 5.615760639824937e+000
 6.003034554452746e-001	 1.285491082770565e+000	 5.354462270450332e+000
 5.873733967658629e-001	 1.291450368875083e+000	 5.112015245654576e+000
 5.744078192396286e-001	 1.297269139263467e+000	 4.889011221053514e+000
 5.614089301827433e-001	 1.302947265085101e+000	 4.686002840491631e+000
 5.483789308212235e-001	 1.308484662006131e+000	 4.503502808208971e+000
 5.353200152142077e-001	 1.313881289834389e+000	 4.341983049643447e+000
 5.222343691950466e-001	 1.319137152114542e+000	 4.201873961823241e+000
 6.544947951018805e-001	 1.265804709743902e+000	 6.081995240548258e+000
 6.416727310482475e-001	 1.272352587237843e+000	 5.913977246798500e+000
 6.288060845489250e-001	 1.278760301249492e+000	 5.761032685001985e+000
 6.158970859731897e-001	 1.285027540367182e+000	 5.571176788686494e+000
 6.029479640586763e-001	 1.291154039084470e+000	 5.367683031747611e+000
 5.899609447681626e-001	 1.297139577550727e+000	 5.171601545854461e+000
 5.769382501602444e-001	 1.302983981288795e+000	 4.983384470212624e+000
 5.638820972749513e-001	 1.308687120880435e+000	 4.803456985237901e+000
 5.507946970353308e-001	 1.314248911620279e+000	 4.632216355222592e+000
 5.376782531659793e-001	 1.319669313139100e+000	 4.470031044935079e+000
 5.245349611294686e-001	 1.324948328997182e+000	 4.317239911429592e+000
 6.573653863098761e-001	 1.271356484787195e+000	 5.809327733120669e+000
 6.444870851324959e-001	 1.277933081042574e+000	 5.726966554282981e+000
 6.315640059725142e-001	 1.284368899063445e+000	 5.648845019385536e+000
 6.185983889815283e-001	 1.290663626072301e+000	 5.538996642813530e+000
 6.055924726723373e-001	 1.296816995398197e+000	 5.390136554522482e+000
 5.925484927707132e-001	 1.302828786226248e+000	 5.237356492133052e+000
 5.794686810811218e-001	 1.308698823314045e+000	 5.080970056011931e+000
 5.663552643674522e-001	 1.314426976675724e+000	 4.921275864246756e+000
 5.532104632497821e-001	 1.320013161234406e+000	 4.758556565725749e+000
 5.400364911181658e-001	 1.325457336443806e+000	 4.593077912552741e+000
 5.268355530643959e-001	 1.330759505879823e+000	 4.425087893379978e+000
 6.602359775183677e-001	 1.276908259829992e+000	 5.559473333942156e+000
 6.473014392171510e-001	 1.283513574846905e+000	 5.559355869325845e+000
 6.343219273964404e-001	 1.289977496877083e+000	 5.552745929842419e+000
 6.212996919901549e-001	 1.296299711777179e+000	 5.519088557630843e+000
 6.082369812862577e-001	 1.302479951711748e+000	 5.421730641418742e+000
 5.951360407735142e-001	 1.308517994901645e+000	 5.309225958116088e+000
 5.819991120022612e-001	 1.314413665339216e+000	 5.181750537480188e+000
 5.688284314602466e-001	 1.320166832470970e+000	 5.039477327947301e+000
 5.556262294645776e-001	 1.325777410848514e+000	 4.882575180051780e+000
 5.423947290707671e-001	 1.331245359748507e+000	 4.711207874659634e+000
 5.291361449998285e-001	 1.336570682762464e+000	 4.525533197926020e+000
 5.061302256682360e-001	 1.278458913936058e+000	 3.173771500762904e+000
 4.934243050954900e-001	 1.283416321813917e+000	 3.187698863630432e+000
 4.806966873248240e-001	 1.288237437257986e+000	 3.187800467263683e+000
 4.679494608967650e-001	 1.292922388237685e+000	 3.174175847154044e+000
 4.551847024642187e-001	 1.297471343269316e+000	 3.146918181730187e+000
 4.424044758648387e-001	 1.301884510892183e+000	 3.106113684369756e+000
 4.296108312152951e-001	 1.306162139121100e+000	 3.051841041053311e+000
 4.168058040280616e-001	 1.310304514876250e+000	 2.984170894190085e+000
 4.039914143513103e-001	 1.314311963391346e+000	 2.903165372986087e+000
 3.911696659324473e-001	 1.318184847601070e+000	 2.808877670555525e+000
 3.783425454057877e-001	 1.321923567508776e+000	 2.701351667827079e+000
 5.084308175991221e-001	 1.284270090818699e+000	 3.345133645622354e+000
 4.956671428417136e-001	 1.289250032368282e+000	 3.337310069470775e+000
 4.828816722628577e-001	 1.294093061973027e+000	 3.317133316037205e+000
 4.700765038964468e-001	 1.298799308184033e+000	 3.284764082217299e+000
 4.572537238347172e-001	 1.303368940283585e+000	 3.240354281864069e+000
 4.444154052964026e-001	 1.307802167758893e+000	 3.184046406148997e+000
 4.315636077168837e-001	 1.312099239752110e+000	 3.115972933553633e+000
 4.187003758609637e-001	 1.316260444487603e+000	 3.036255789986398e+000
 4.058277389588510e-001	 1.320286108677419e+000	 2.945005859370411e+000
 3.929477098658933e-001	 1.324176596905944e+000	 2.842322544860304e+000
 3.800622842465611e-001	 1.327932310994728e+000	 2.728293380695237e+000
 5.107314095305132e-001	 1.290081267701339e+000	 3.508122821785478e+000
 4.979099805885320e-001	 1.295083742922653e+000	 3.479415886686871e+000
 4.850666572015554e-001	 1.299948686688089e+000	 3.439814394367359e+000
 4.722035468968412e-001	 1.304676228130428e+000	 3.389540040144476e+000
 4.593227452059572e-001	 1.309266537297937e+000	 3.328803318098408e+000
 4.464263347287159e-001	 1.313719824625731e+000	 3.257802849734732e+000
 4.335163842192102e-001	 1.318036340383304e+000	 3.176724766242079e+000
 4.205949476945723e-001	 1.322216374099205e+000	 3.085742144839523e+000
 4.076640635670464e-001	 1.326260253963818e+000	 2.985014499511514e+000
 3.947257537999234e-001	 1.330168346211229e+000	 2.874687326258351e+000
 3.817820230878282e-001	 1.333941054481187e+000	 2.754891702817186e+000
 5.130320014624097e-001	 1.295892444583980e+000	 3.662866584326939e+000
 5.001528183359453e-001	 1.300917453477029e+000	 3.614130546005193e+000
 4.872516421409170e-001	 1.305804311403172e+000	 3.555944835332655e+000
 4.743305898979485e-001	 1.310553148076869e+000	 3.488591988048598e+000
 4.613917665779381e-001	 1.315164134312370e+000	 3.412340928054582e+000
 4.484372641617787e-001	 1.319637481492697e+000	 3.327446264308780e+000
 4.354691607222746e-001	 1.323973441014682e+000	 3.234147645294668e+000
 4.224895195288869e-001	 1.328172303711058e+000	 3.132669171524816e+000
 4.095003881758970e-001	 1.332234399250542e+000	 3.023218866353978e+000
 3.965037977345373e-001	 1.336160095516925e+000	 2.905988205190287e+000
 3.835017619295890e-001	 1.339949797968151e+000	 2.781151703007685e+000
 5.153325933948112e-001	 1.301703621466620e+000	 3.809490616789061e+000
 5.023956560839533e-001	 1.306751164031409e+000	 3.741566626771644e+000
 4.894366270809426e-001	 1.311659936118276e+000	 3.665624336979534e+000
 4.764576328997685e-001	 1.316430068023356e+000	 3.582006970490294e+000
 4.634607879506604e-001	 1.321061731326886e+000	 3.491041735334835e+000
 4.504481935955910e-001	 1.325555138359791e+000	 3.393039089562337e+000
 4.374219372260769e-001	 1.329910541646245e+000	 3.288292067851603e+000
 4.243840913639079e-001	 1.334128233323161e+000	 3.177075670104026e+000
 4.113367127854022e-001	 1.338208544537592e+000	 3.059646312263793e+000
 3.982818416697354e-001	 1.342151844823032e+000	 2.936241339411641e+000
 3.852215007718435e-001	 1.345958541455622e+000	 2.807078600994233e+000
 5.176331853277179e-001	 1.307514798349261e+000	 3.948118772771344e+000
 5.046384938325562e-001	 1.312584874585795e+000	 3.861835093648193e+000
 4.916216120216324e-001	 1.317515560833400e+000	 3.768951194213957e+000
 4.785846759023011e-001	 1.322306987969890e+000	 3.669870836645206e+000
 4.655298093241237e-001	 1.326959328341484e+000	 3.564979372058411e+000
 4.524591230301528e-001	 1.331472795227014e+000	 3.454642973684038e+000
 4.393747137306168e-001	 1.335847642277992e+000	 3.339207935550413e+000
 4.262786631996350e-001	 1.340084162935514e+000	 3.219000037098050e+000
 4.131730373955627e-001	 1.344182689824968e+000	 3.094323973930235e+000
 4.000598856055175e-001	 1.348143594129551e+000	 2.965462854717830e+000
 3.869412396145918e-001	 1.351967284943599e+000	 2.832677764065051e+000
 5.199337772611297e-001	 1.313325975231901e+000	 4.078873116416099e+000
 5.068813315817538e-001	 1.318418585140186e+000	 3.975045332336160e+000
 4.938065969629860e-001	 1.323371185548544e+000	 3.866022329844493e+000
 4.807117189055466e-001	 1.328183907916470e+000	 3.752268266750156e+000
 4.675988306983283e-001	 1.332856925356165e+000	 3.634226500795800e+000
 4.544700524654642e-001	 1.337390452094364e+000	 3.512318790870913e+000
 4.413274902358946e-001	 1.341784742909922e+000	 3.386944567702190e+000
 4.281732350360685e-001	 1.346040092548116e+000	 3.258480274413470e+000
 4.150093620063778e-001	 1.350156835112669e+000	 3.127278777138052e+000
 4.018379295418835e-001	 1.354135343436480e+000	 2.993668845652631e+000
 3.886609784578337e-001	 1.357976028432082e+000	 2.857954703804423e+000
 5.222343691950466e-001	 1.319137152114542e+000	 4.201873961823241e+000
 5.091241693315465e-001	 1.324252295694582e+000	 4.081305184355736e+000
 4.959915819050035e-001	 1.329226810263710e+000	 3.956933324803648e+000
 4.828387619095048e-001	 1.334060827863097e+000	 3.829282797851334e+000
 4.696678520732742e-001	 1.338754522370927e+000	 3.698854835924503e+000
 4.564809819015250e-001	 1.343308108961842e+000	 3.566126658377150e+000
 4.432802667419103e-001	 1.347721843542036e+000	 3.431550714116241e+000
 4.300678068732081e-001	 1.351996022160969e+000	 3.295553998035887e+000
 4.168456866178480e-001	 1.356130980400697e+000	 3.158537441412209e+000
 4.036159734788337e-001	 1.360127092743820e+000	 3.020875376195116e+000
 3.903807173015694e-001	 1.363984771921072e+000	 2.882915072913162e+000
 5.245349611294686e-001	 1.324948328997182e+000	 4.317239911429592e+000
 5.113670070819338e-001	 1.330086006248983e+000	 4.180720980908518e+000
 4.981765668476850e-001	 1.335082434978895e+000	 4.041778447575521e+000
 4.849658049141757e-001	 1.339937747809769e+000	 3.900996848873191e+000
 4.717368734489612e-001	 1.344652119385771e+000	 3.758935164422599e+000
 4.584919113383355e-001	 1.349225765829449e+000	 3.616125953113358e+000
 4.452330432486638e-001	 1.353658944174335e+000	 3.473074567591275e+000
 4.319623787110540e-001	 1.357951951774071e+000	 3.330258446491527e+000
 4.186820112299732e-001	 1.362105125689049e+000	 3.188126484542028e+000
 4.053940174163679e-001	 1.366118842051572e+000	 3.047098480431079e+000
 3.921004561457988e-001	 1.369993515410568e+000	 2.907564662114746e+000
 5.268355530643959e-001	 1.330759505879823e+000	 4.425087893379978e+000
 5.136098448329162e-001	 1.335919716803391e+000	 4.273397575853585e+000
 5.003615517910306e-001	 1.340938059694102e+000	 4.120650682851972e+000
 4.870928479195594e-001	 1.345814667756488e+000	 3.967491745033538e+000
 4.738058948253894e-001	 1.350549716400698e+000	 3.814537366118582e+000
 4.605028407758955e-001	 1.355143422697184e+000	 3.662375327811827e+000
 4.471858197561550e-001	 1.359596044806817e+000	 3.511563776075609e+000
 4.338569505496061e-001	 1.363907881387423e+000	 3.362630489090073e+000
 4.205183358427532e-001	 1.368079270977727e+000	 3.216072226984933e+000
 4.071720613544861e-001	 1.372110591359735e+000	 3.072354163205512e+000
 3.938201949905220e-001	 1.376002258900571e+000	 2.931909397142523e+000
 5.291361449998285e-001	 1.336570682762464e+000	 4.525533197926020e+000
 5.158526825844934e-001	 1.341753427357802e+000	 4.359438377825984e+000
 5.025465367350401e-001	 1.346793684409329e+000	 4.193641759441287e+000
 4.892198909256558e-001	 1.351691587703254e+000	 4.028847741617735e+000
 4.758749162025590e-001	 1.356447313415707e+000	 3.865730433411284e+000
 4.625137702142049e-001	 1.361061079565046e+000	 3.704932726768488e+000
 4.491385962643843e-001	 1.365533145439484e+000	 3.547065454512528e+000
 4.357515223888646e-001	 1.369863811001026e+000	 3.392706633950175e+000
 4.223546604561884e-001	 1.374053416266731e+000	 3.242400796156276e+000
 4.089501052931884e-001	 1.378102340668309e+000	 3.096658400757405e+000
 3.955399338357390e-001	 1.382011002391079e+000	 2.955955335803000e+000
 3.783425454057877e-001	 1.321923567508776e+000	 2.701351667827079e+000
 3.655120215047849e-001	 1.325528559535179e+000	 2.583403969267877e+000
 3.526800442992548e-001	 1.329000295849870e+000	 2.466974005584684e+000
 3.398485444580935e-001	 1.332339283686066e+000	 2.352232584703272e+000
 3.270194325376127e-001	 1.335546064639080e+000	 2.239324458839573e+000
 3.141945982958410e-001	 1.338621213950380e+000	 2.128368308056282e+000
 3.013759100330444e-001	 1.341565339777935e+000	 2.019456784555312e+000
 2.885652139586564e-001	 1.344379082453875e+000	 1.912656616197309e+000
 2.757643335847815e-001	 1.347063113730461e+000	 1.808008767619550e+000
 2.629750691463878e-001	 1.349618136015367e+000	 1.705528657188910e+000
 2.501991970482677e-001	 1.352044881597271e+000	 1.605206427937666e+000
 3.800622842465611e-001	 1.327932310994728e+000	 2.728293380695237e+000
 3.671734397830013e-001	 1.331553689348262e+000	 2.609199104797739e+000
 3.542831354088895e-001	 1.335041206282409e+000	 2.492014385066506e+000
 3.413933105688902e-001	 1.338395371335988e+000	 2.376904748150395e+000
 3.285058845036624e-001	 1.341616728566111e+000	 2.264009125838808e+000
 3.156227555610450e-001	 1.344705855828977e+000	 2.153439848979329e+000
 3.027458005335781e-001	 1.347663364046909e+000	 2.045282702965444e+000
 2.898768740225576e-001	 1.350489896462636e+000	 1.939597043251234e+000
 2.770178078287799e-001	 1.353186127881840e+000	 1.836415969217532e+000
 2.641704103700999e-001	 1.355752763904955e+000	 1.735746554599303e+000
 2.513364661258782e-001	 1.358190540149242e+000	 1.637570132569331e+000
 3.817820230878282e-001	 1.333941054481187e+000	 2.754891702817186e+000
 3.688348580616218e-001	 1.337578819161936e+000	 2.634481323966495e+000
 3.558862265188593e-001	 1.341082116715592e+000	 2.516373347285655e+000
 3.429380766799734e-001	 1.344451458986578e+000	 2.400728179833260e+000
 3.299923364699706e-001	 1.347687392493800e+000	 2.287679088972568e+000
 3.170509128264993e-001	 1.350790497708194e+000	 2.177332206561910e+000
 3.041156910343745e-001	 1.353761388316435e+000	 2.069766595560775e+000
 2.911885340867532e-001	 1.356600710471854e+000	 1.965034377469661e+000
 2.782712820731240e-001	 1.359309142033547e+000	 1.863160918893738e+000
 2.653657515942289e-001	 1.361887391794713e+000	 1.764145075400225e+000
 2.524737352039960e-001	 1.364336198701197e+000	 1.667959490719926e+000
 3.835017619295890e-001	 1.339949797968151e+000	 2.781151703007685e+000
 3.704962763406464e-001	 1.343603948976201e+000	 2.659256825721637e+000
 3.574893176291643e-001	 1.347123027149419e+000	 2.540058269744263e+000
 3.444828427913434e-001	 1.350507546637834e+000	 2.423711483789335e+000
 3.314787884365373e-001	 1.353758056422149e+000	 2.310344226320106e+000
 3.184790700922041e-001	 1.356875139588033e+000	 2.200056579921851e+000
 3.054855815354332e-001	 1.359859412586514e+000	 2.092921028946326e+000
 2.925001941512431e-001	 1.362711524481525e+000	 1.988982598813065e+000
 2.795247563178142e-001	 1.365432156185581e+000	 1.888259055219622e+000
 2.665610928187748e-001	 1.368022019684643e+000	 1.790741161381719e+000
 2.536110042826211e-001	 1.370481857253138e+000	 1.696392991325972e+000
 3.852215007718435e-001	 1.345958541455622e+000	 2.807078600994233e+000
 3.721576946200751e-001	 1.349629078791057e+000	 2.683531925122680e+000
 3.590924087398043e-001	 1.353163937583890e+000	 2.563076610776156e+000
 3.460276089029998e-001	 1.356563634289757e+000	 2.445863309152059e+000
 3.329652404033623e-001	 1.359828720351157e+000	 2.332014424884370e+000
 3.199072273581594e-001	 1.362959781468492e+000	 2.221624140507512e+000
 3.068554720367544e-001	 1.365957436857146e+000	 2.114758505065467e+000
 2.938118542160275e-001	 1.368822338491652e+000	 2.011455585209355e+000
 2.807782305628502e-001	 1.371555170337943e+000	 1.911725676998277e+000
 2.677564340437378e-001	 1.374156647574743e+000	 1.815551576486803e+000
 2.547482733617536e-001	 1.376627515805065e+000	 1.722888907074836e+000
 3.869412396145918e-001	 1.351967284943599e+000	 2.832677764065051e+000
 3.738191128999080e-001	 1.355654208606503e+000	 2.707313050757243e+000
 3.606954998507796e-001	 1.359204848019006e+000	 2.585435907748839e+000
 3.475723750149430e-001	 1.362619721942347e+000	 2.467192349147888e+000
 3.344516923704459e-001	 1.365899384280824e+000	 2.352699580391280e+000
 3.213353846243651e-001	 1.369044423349572e+000	 2.242046032712514e+000
 3.082253625383383e-001	 1.372055461128332e+000	 2.135291462637967e+000
 2.951235142811061e-001	 1.374933152502233e+000	 2.032467114818965e+000
 2.820317048082321e-001	 1.377678184490632e+000	 1.933575946370367e+000
 2.689517752691177e-001	 1.380291275465015e+000	 1.838592910763416e+000
 2.558855424413934e-001	 1.382773174356977e+000	 1.747465299209797e+000
 3.886609784578337e-001	 1.357976028432082e+000	 2.857954703804423e+000
 3.754805311801449e-001	 1.361679338422540e+000	 2.730606742231564e+000
 3.622985909620898e-001	 1.365245758454765e+000	 2.607143775316178e+000
 3.491171411271727e-001	 1.368675809595603e+000	 2.487707340121105e+000
 3.359381443377879e-001	 1.371970048211149e+000	 2.372409597098007e+000
 3.227635418908214e-001	 1.375129065231273e+000	 2.261333374474007e+000
 3.095952530401844e-001	 1.378153485400069e+000	 2.154532278557837e+000
 2.964351743464790e-001	 1.381043966513269e+000	 2.052030868243350e+000
 2.832851790539599e-001	 1.383801198643649e+000	 1.953824891835983e+000
 2.701471164949145e-001	 1.386425903355456e+000	 1.859881584212983e+000
 2.570228115215406e-001	 1.388918832908874e+000	 1.770140022208464e+000
 3.903807173015694e-001	 1.363984771921072e+000	 2.882915072913162e+000
 3.771419494607860e-001	 1.367704468239168e+000	 2.753419647724181e+000
 3.639016820737352e-001	 1.371286668891168e+000	 2.628207903715968e+000
 3.506619072396891e-001	 1.374731897249526e+000	 2.507417060583317e+000
 3.374245963053883e-001	 1.378040712142134e+000	 2.391154387604866e+000
 3.241916991575281e-001	 1.381213707113595e+000	 2.279497257855792e+000
 3.109651435422932e-001	 1.384251509672359e+000	 2.172493269254907e+000
 2.977468344121465e-001	 1.387154780524760e+000	 2.070160430673597e+000
 2.845386533000337e-001	 1.389924212796994e+000	 1.972487411201487e+000
 2.713424577211284e-001	 1.392560531246069e+000	 1.879433850534630e+000
 2.581600806021951e-001	 1.395064491460756e+000	 1.790930728336933e+000
 3.921004561457988e-001	 1.369993515410568e+000	 2.907564662114746e+000
 3.788033677418311e-001	 1.373729598056386e+000	 2.775758521606323e+000
 3.655047731857159e-001	 1.377327579328216e+000	 2.648636057111928e+000
 3.522066733524920e-001	 1.380787984904117e+000	 2.526330330290590e+000
 3.389110482732471e-001	 1.384111376073778e+000	 2.408943872672134e+000
 3.256198564244852e-001	 1.387298348996538e+000	 2.296548749616311e+000
 3.123350340446643e-001	 1.390349533945203e+000	 2.189186692022017e+000
 2.990584944781082e-001	 1.393265594536706e+000	 2.086869293982937e+000
 2.857921275464534e-001	 1.396047226950666e+000	 1.989578274442614e+000
 2.725377989477592e-001	 1.398695159136854e+000	 1.897265800772488e+000
 2.592973496833569e-001	 1.401210150012624e+000	 1.809854872083899e+000
 3.938201949905220e-001	 1.376002258900571e+000	 2.931909397142523e+000
 3.804647860232803e-001	 1.379754727874196e+000	 2.797630222121059e+000
 3.671078642980315e-001	 1.383368489765908e+000	 2.668436071980182e+000
 3.537514394655816e-001	 1.386844072559373e+000	 2.544456009340521e+000
 3.403975002413646e-001	 1.390182040006080e+000	 2.425787981042129e+000
 3.270480136916928e-001	 1.393382990880102e+000	 2.312498891759533e+000
 3.137049245472980e-001	 1.396447558218599e+000	 2.204624746304294e+000
 3.003701545443643e-001	 1.399376408549108e+000	 2.102170858763973e+000
 2.870456017932189e-001	 1.402170241104665e+000	 2.005112126496893e+000
 2.737331401748068e-001	 1.404829787027808e+000	 1.913393366867682e+000
 2.604346187650261e-001	 1.407355808564477e+000	 1.826929714479246e+000
 3.955399338357390e-001	 1.382011002391079e+000	 2.955955335803000e+000
 3.821262043051337e-001	 1.385779857692596e+000	 2.819041709127582e+000
 3.687109554106823e-001	 1.389409400204244e+000	 2.687615855536690e+000
 3.552962055789580e-001	 1.392900160215298e+000	 2.561802997297030e+000
 3.418839522097405e-001	 1.396252703939042e+000	 2.441696649264888e+000
 3.284761709591509e-001	 1.399467632764286e+000	 2.327358702074966e+000
 3.150748150501943e-001	 1.402545582492548e+000	 2.218819574959159e+000
 3.016818146109148e-001	 1.405487222561964e+000	 2.116078436312714e+000
 2.882990760403305e-001	 1.408293255258992e+000	 2.019103489982384e+000
 2.749284814022716e-001	 1.410964414918934e+000	 1.927832325116033e+000
 2.615718878472026e-001	 1.413501467116316e+000	 1.842172327300331e+000
 2.501991970482677e-001	 1.352044881597271e+000	 1.605206427937666e+000
 2.374384693389584e-001	 1.354344111862633e+000	 1.492837156736085e+000
 2.246946132112303e-001	 1.356516616504911e+000	 1.389184373918709e+000
 2.119693305292766e-001	 1.358563212727011e+000	 1.294104656691114e+000
 1.992642973829129e-001	 1.360484744437721e+000	 1.207426242537599e+000
 1.865811636682623e-001	 1.362282081443339e+000	 1.128949694127403e+000
 1.739215526949161e-001	 1.363956118635316e+000	 1.058448607107154e+000
 1.612870608193972e-001	 1.365507775174822e+000	 9.956703581400257e-001
 1.486792571047294e-001	 1.366937993675118e+000	 9.403368904970966e-001
 1.360996830058839e-001	 1.368247739382590e+000	 8.921455345001984e-001
 1.235498520808418e-001	 1.369437999357308e+000	 8.507698600993596e-001
 2.513364661258782e-001	 1.358190540149242e+000	 1.637570132569331e+000
 2.385177351085711e-001	 1.360500221461909e+000	 1.527480304085113e+000
 2.257159523618869e-001	 1.362682601125834e+000	 1.425783573868948e+000
 2.129328274857645e-001	 1.364738500058480e+000	 1.332340512914020e+000
 2.001700441886096e-001	 1.366668766004588e+000	 1.246983229989646e+000
 1.874292598660727e-001	 1.368474272724119e+000	 1.169516034207204e+000
 1.747121052064249e-001	 1.370155919176214e+000	 1.099716141021008e+000
 1.620201838223545e-001	 1.371714628700050e+000	 1.037334418999276e+000
 1.493550719089899e-001	 1.373151348193492e+000	 9.820961746561011e-001
 1.367183179279155e-001	 1.374467047290415e+000	 9.337019726268878e-001
 1.241114423169210e-001	 1.375662717537524e+000	 8.918284884432759e-001
 2.524737352039960e-001	 1.364336198701197e+000	 1.667959490719926e+000
 2.395970008787808e-001	 1.366656331060986e+000	 1.560131920603763e+000
 2.267372915132092e-001	 1.368848585746405e+000	 1.460381824954764e+000
 2.138963244429666e-001	 1.370913787389476e+000	 1.368573764888308e+000
 2.010757909950482e-001	 1.372852787570888e+000	 1.284543709192599e+000
 1.882773560646328e-001	 1.374666464004270e+000	 1.208099694687456e+000
 1.755026577186708e-001	 1.376355719716452e+000	 1.139022530576293e+000
 1.627533068260170e-001	 1.377921482224615e+000	 1.077066544099018e+000
 1.500308867139039e-001	 1.379364702711233e+000	 1.021960364765980e+000
 1.373369528505293e-001	 1.380686355197663e+000	 9.734077444293331e-001
 1.246730325534918e-001	 1.381887435717248e+000	 9.310884104314029e-001
 2.536110042826211e-001	 1.370481857253138e+000	 1.696392991325972e+000
 2.406762666495873e-001	 1.372812440659865e+000	 1.590810262503422e+000
 2.277586306651972e-001	 1.375014570366623e+000	 1.492997120646310e+000
 2.148598214008825e-001	 1.377089074719996e+000	 1.402822113983462e+000
 2.019815378022287e-001	 1.379036809136621e+000	 1.320125060703882e+000
 1.891254522639423e-001	 1.380858655283794e+000	 1.244717707244645e+000
 1.762932102316540e-001	 1.382555520256030e+000	 1.176384431132443e+000
 1.634864298303844e-001	 1.384128335748519e+000	 1.114882985671552e+000
 1.507067015194711e-001	 1.385578057228340e+000	 1.059945283738620e+000
 1.379555877737252e-001	 1.386905663104333e+000	 1.011278217915018e+000
 1.252346227905544e-001	 1.388112153896480e+000	 9.685645141806409e-001
 2.547482733617536e-001	 1.376627515805065e+000	 1.722888907074836e+000
 2.417555324209907e-001	 1.378968550258544e+000	 1.619533363593462e+000
 2.287799698178509e-001	 1.381180554986489e+000	 1.523647226865848e+000
 2.158233183595124e-001	 1.383264362050042e+000	 1.435103029874297e+000
 2.028872846101511e-001	 1.385220830701789e+000	 1.353744430234322e+000
 1.899735484640015e-001	 1.387050846562689e+000	 1.279386866540605e+000
 1.770837627453745e-001	 1.388755320794949e+000	 1.211818259843672e+000
 1.642195528354571e-001	 1.390335189271762e+000	 1.150799757522888e+000
 1.513825163256916e-001	 1.391791411744813e+000	 1.096066516797564e+000
 1.385742226975032e-001	 1.393124971010427e+000	 1.047328525089661e+000
 1.257962130281087e-001	 1.394336872075220e+000	 1.004271454432022e+000
 2.558855424413934e-001	 1.382773174356977e+000	 1.747465299209797e+000
 2.428347981929910e-001	 1.385124659857024e+000	 1.646319040222294e+000
 2.298013089711703e-001	 1.387346539606003e+000	 1.552349687042585e+000
 2.167868153188564e-001	 1.389439649379613e+000	 1.465433755690954e+000
 2.037930314188153e-001	 1.391404852266389e+000	 1.385418733866598e+000
 1.908216446648102e-001	 1.393243037840956e+000	 1.312123735490899e+000
 1.778743152598322e-001	 1.394955121333207e+000	 1.245340200955020e+000
 1.649526758412349e-001	 1.396542042794342e+000	 1.184832640331744e+000
 1.520583311325655e-001	 1.398004766260651e+000	 1.130339416759886e+000
 1.391928576218633e-001	 1.399344278915942e+000	 1.081573567201249e+000
 1.263578032661547e-001	 1.400561590253469e+000	 1.038223657739222e+000
 2.570228115215406e-001	 1.388918832908874e+000	 1.770140022208464e+000
 2.439140639655883e-001	 1.391280769455306e+000	 1.671184896089061e+000
 2.308226481251554e-001	 1.393512524225165e+000	 1.579121827037573e+000
 2.177503122789142e-001	 1.395614936708709e+000	 1.493831313030017e+000
 2.046987782282214e-001	 1.397588873830422e+000	 1.415164663137220e+000
 1.916697408663684e-001	 1.399435229118594e+000	 1.342944650391552e+000
 1.786648677750272e-001	 1.401154921870806e+000	 1.276966210953995e+000
 1.656857988477177e-001	 1.402748896316261e+000	 1.216997186807705e+000
 1.527341459400927e-001	 1.404218120775856e+000	 1.162779109177922e+000
 1.398114925468056e-001	 1.405563586820881e+000	 1.114028019846291e+000
 1.269193935046924e-001	 1.406786308431226e+000	 1.070435327513677e+000
 2.581600806021951e-001	 1.395064491460756e+000	 1.790930728336933e+000
 2.449933297387824e-001	 1.397436879053387e+000	 1.694148326927949e+000
 2.318439872798063e-001	 1.399678508843974e+000	 1.603980759933659e+000
 2.187138092396860e-001	 1.401790224037330e+000	 1.520312506835079e+000
 2.056045250383694e-001	 1.403772895393890e+000	 1.442998689980119e+000
 1.925178370686762e-001	 1.405627420395604e+000	 1.371865725911410e+000
 1.794554202909593e-001	 1.407354722407745e+000	 1.306712023587212e+000
 1.664189218549055e-001	 1.408955749837519e+000	 1.247308726711421e+000
 1.534099607482732e-001	 1.410431475290427e+000	 1.193400497344713e+000
 1.404301274723299e-001	 1.411782894725242e+000	 1.144706337940584e+000
 1.274809837437218e-001	 1.413011026608491e+000	 1.100920448942029e+000
 2.592973496833569e-001	 1.401210150012624e+000	 1.809854872083899e+000
 2.460725955125733e-001	 1.403592988651271e+000	 1.715226525067652e+000
 2.328653264351228e-001	 1.405844493462431e+000	 1.626943390703198e+000
 2.196773062011718e-001	 1.407965511365477e+000	 1.544893930146336e+000
 2.065102718492591e-001	 1.409956916956790e+000	 1.468937071544658e+000
 1.933659332717335e-001	 1.411819611671986e+000	 1.398902859950735e+000
 1.802459728076286e-001	 1.413554522944023e+000	 1.334593154744707e+000
 1.671520448627985e-001	 1.415162603358114e+000	 1.275782371745315e+000
 1.540857755571071e-001	 1.416644829804363e+000	 1.222218267169168e+000
 1.410487623984365e-001	 1.418002202629026e+000	 1.173622760556105e+000
 1.280425739832429e-001	 1.419235744785265e+000	 1.129692793771029e+000
 2.604346187650261e-001	 1.407355808564477e+000	 1.826929714479246e+000
 2.471518612869612e-001	 1.409749098248955e+000	 1.734436483874424e+000
 2.338866655911051e-001	 1.412010478080536e+000	 1.648026420750674e+000
 2.206408031633716e-001	 1.414140798693149e+000	 1.567591968729544e+000
 2.074160186608908e-001	 1.416140938519124e+000	 1.492995854883504e+000
 1.942140294755403e-001	 1.418011802947740e+000	 1.424071738376037e+000
 1.810365253250353e-001	 1.419754323479643e+000	 1.360624907218162e+000
 1.678851678713966e-001	 1.421369456878048e+000	 1.302433020313575e+000
 1.547615903665943e-001	 1.422858184317665e+000	 1.249246891921232e+000
 1.416673973251252e-001	 1.424221510532232e+000	 1.200791315636493e+000
 1.286041642232557e-001	 1.425460462961547e+000	 1.156765924967041e+000
 2.615718878472026e-001	 1.413501467116316e+000	 1.842172327300331e+000
 2.482311270619460e-001	 1.415905207846441e+000	 1.751795002074716e+000
 2.349080047477531e-001	 1.418176462698288e+000	 1.667246352339808e+000
 2.216043001262854e-001	 1.420316086020347e+000	 1.588422805579360e+000
 2.083217654732643e-001	 1.422324960080891e+000	 1.515190881521380e+000
 1.950621256800968e-001	 1.424203994222866e+000	 1.447387839628669e+000
 1.818270778431791e-001	 1.425954124014603e+000	 1.384822375331767e+000
 1.686182908806998e-001	 1.427576310397320e+000	 1.327275362158658e+000
 1.554374051767348e-001	 1.429071538830333e+000	 1.274500636855774e+000
 1.422860322523960e-001	 1.430440818434861e+000	 1.226225824586217e+000
 1.291657544637603e-001	 1.431685181137337e+000	 1.182153201256129e+000
 1.235498520808418e-001	 1.369437999357308e+000	 8.507698600993596e-001
 1.110312497271519e-001	 1.370509781654266e+000	 8.018950131870118e-001
 9.854533294318768e-002	 1.371464114505045e+000	 7.599132758024195e-001
 8.609353011409246e-002	 1.372302045501418e+000	 7.244023366153994e-001
 7.367724082237301e-002	 1.373024640782322e+000	 6.949199227418168e-001
 6.129783568227386e-002	 1.373632984223889e+000	 6.710047964271766e-001
 4.895665619769603e-002	 1.374128176633600e+000	 6.521777669559088e-001
 3.665501464323389e-002	 1.374511334949233e+000	 6.379427152079541e-001
 2.439419396789109e-002	 1.374783591443285e+000	 6.277876283085795e-001
 1.217544772101889e-002	 1.374946092933481e+000	 6.211856418936510e-001
 0.000000000000000e+000	 1.375000000000000e+000	 6.175960875568621e-001
 1.241114423169210e-001	 1.375662717537524e+000	 8.918284884432759e-001
 1.115359372253439e-001	 1.376739371571940e+000	 8.419715950472885e-001
 9.899326627425975e-002	 1.377698042299088e+000	 7.991670487363413e-001
 8.648486434147150e-002	 1.378539782072519e+000	 7.629919527170157e-001
 7.401213737122465e-002	 1.379265661877255e+000	 7.330030159223144e-001
 6.157646220782859e-002	 1.379876770516140e+000	 7.087375621980863e-001
 4.917918645292928e-002	 1.380374213800323e+000	 6.897145551489630e-001
 3.682162834600568e-002	 1.380759113744573e+000	 6.754356360044267e-001
 2.450507666764786e-002	 1.381032607768078e+000	 6.653861719256919e-001
 1.223079066515871e-002	 1.381195847901373e+000	 6.590363122303644e-001
 0.000000000000000e+000	 1.381250000000000e+000	 6.558420500677522e-001
 1.246730325534918e-001	 1.381887435717248e+000	 9.310884104314029e-001
 1.120406247239329e-001	 1.382968961489218e+000	 8.803374565591871e-001
 9.944119960564439e-002	 1.383931970092818e+000	 8.368013673931686e-001
 8.687619856908906e-002	 1.384777518643381e+000	 8.000566200050082e-001
 7.434703392025097e-002	 1.385506682972014e+000	 7.696588602890533e-001
 6.185508873350414e-002	 1.386120556808270e+000	 7.451439247998762e-001
 4.940171670823959e-002	 1.386620250966969e+000	 7.260288786680360e-001
 3.698824204882066e-002	 1.387006892539869e+000	 7.118130669280948e-001
 2.461595936742376e-002	 1.387281624092853e+000	 7.019791766293502e-001
 1.228613360930330e-002	 1.387445602869260e+000	 6.959943071742824e-001
 0.000000000000000e+000	 1.387500000000000e+000	 6.933110463680712e-001
 1.252346227905544e-001	 1.388112153896480e+000	 9.685645141806409e-001
 1.125453122229189e-001	 1.389198551406099e+000	 9.170065974186502e-001
 9.988913293734161e-002	 1.390165897886237e+000	 8.728293747295518e-001
 8.726753279694510e-002	 1.391015255214005e+000	 8.356086565163683e-001
 7.468193046945187e-002	 1.391747704066598e+000	 8.048989808892194e-001
 6.213371525930057e-002	 1.392364343100279e+000	 7.802346482890852e-001
 4.962424696362697e-002	 1.392866288133538e+000	 7.611307726222201e-001
 3.715485575167885e-002	 1.393254671335123e+000	 7.470843461930053e-001
 2.472684206721879e-002	 1.393530640417608e+000	 7.375753157722618e-001
 1.234147655345266e-002	 1.393695357837143e+000	 7.320676671966082e-001
 0.000000000000000e+000	 1.393750000000000e+000	 7.300105159528464e-001
 1.257962130281087e-001	 1.394336872075220e+000	 1.004271454432022e+000
 1.130499997223017e-001	 1.395428141322583e+000	 9.519927943615598e-001
 1.003370662693515e-001	 1.396399825679342e+000	 9.072640010843264e-001
 8.765886702503968e-002	 1.397252991784390e+000	 8.696601779397575e-001
 7.501682701882743e-002	 1.397988725161008e+000	 8.387347106093646e-001
 6.241234178521783e-002	 1.398608129392168e+000	 8.140203146699421e-001
 4.984677721909144e-002	 1.399112325300030e+000	 7.950301000898937e-001
 3.732146945458022e-002	 1.399502450130333e+000	 7.812586499170259e-001
 2.483772476703296e-002	 1.399779656742344e+000	 7.721831104525454e-001
 1.239681949760677e-002	 1.399945112805021e+000	 7.672642902659557e-001
 0.000000000000000e+000	 1.400000000000000e+000	 7.659477654684614e-001
 1.263578032661547e-001	 1.400561590253469e+000	 1.038223657739222e+000
 1.135546872220816e-001	 1.401657731238670e+000	 9.853096061178395e-001
 1.007849996016739e-001	 1.402633753472134e+000	 9.401179689052456e-001
 8.805020125337275e-002	 1.403490728354536e+000	 9.022231021117856e-001
 7.535172356837762e-002	 1.404229746255243e+000	 8.711771944465759e-001
 6.269096831125595e-002	 1.404851915683935e+000	 8.465113279382450e-001
 5.006930747463297e-002	 1.405358362466445e+000	 8.277365559410315e-001
 3.748808315752481e-002	 1.405750228925500e+000	 8.143449957235124e-001
 2.494860746686625e-002	 1.406028673067061e+000	 8.058109328998341e-001
 1.245216244176566e-002	 1.406194867772894e+000	 8.015919350155958e-001
 0.000000000000000e+000	 1.406250000000000e+000	 8.011299716658866e-001
 1.269193935046924e-001	 1.406786308431226e+000	 1.070435327513677e+000
 1.140593747222584e-001	 1.407887321154360e+000	 1.016970378237376e+000
 1.012329329343088e-001	 1.408867681264614e+000	 9.714037973476929e-001
 8.844153548194436e-002	 1.409728464924444e+000	 9.333091533940789e-001
 7.568662011810243e-002	 1.410470767349303e+000	 9.022373936643370e-001
 6.296959483741493e-002	 1.411095701975582e+000	 8.777179180211808e-001
 5.029183773025157e-002	 1.411604399632782e+000	 8.592596705593114e-001
 3.765469686051261e-002	 1.411998007720623e+000	 8.463522462469515e-001
 2.505949016671867e-002	 1.412277689391759e+000	 8.384670097667160e-001
 1.250750538592932e-002	 1.412444622740763e+000	 8.350582238259481e-001
 0.000000000000000e+000	 1.412500000000000e+000	 8.355641842737264e-001
 1.274809837437218e-001	 1.413011026608491e+000	 1.100920448942029e+000
 1.145640622228322e-001	 1.414116911069653e+000	 1.046988247782024e+000
 1.016808662672565e-001	 1.415101609056782e+000	 1.001133806752405e+000
 8.883286971075448e-002	 1.415966201494114e+000	 9.629298669337876e-001
 7.602151666800189e-002	 1.416711788443188e+000	 9.319260898402502e-001
 6.324822136369475e-002	 1.417339488267107e+000	 9.076501446103485e-001
 5.051436798594725e-002	 1.417850436799043e+000	 8.896088134640106e-001
 3.782131056354359e-002	 1.418245786515704e+000	 8.772891125482326e-001
 2.517037286659023e-002	 1.418526705716437e+000	 8.701594253373638e-001
 1.256284833009773e-002	 1.418694377708626e+000	 8.676706458242713e-001
 0.000000000000000e+000	 1.418750000000000e+000	 8.692573287962657e-001
 1.280425739832429e-001	 1.419235744785265e+000	 1.129692793771029e+000
 1.150687497238029e-001	 1.420346500984549e+000	 1.075376147900333e+000
 1.021287996005166e-001	 1.421335536848637e+000	 1.029320123005239e+000
 8.922420393980309e-002	 1.422203938063545e+000	 9.910965928149668e-001
 7.635641321807597e-002	 1.422952809536899e+000	 9.602538888066430e-001
 6.352684789009541e-002	 1.423583274558512e+000	 9.363179008952329e-001
 5.073689824171999e-002	 1.424096473965226e+000	 9.187931968398488e-001
 3.798792426661777e-002	 1.424493565310741e+000	 9.071641574385539e-001
 2.528125556648092e-002	 1.424775722041098e+000	 9.008961246479176e-001
 1.261819127427092e-002	 1.424944132676485e+000	 8.994365598090289e-001
 0.000000000000000e+000	 1.425000000000000e+000	 9.022162092378637e-001
 1.286041642232557e-001	 1.425460462961547e+000	 1.156765924967041e+000
 1.155734372251706e-001	 1.426576090899048e+000	 1.102146812278639e+000
 1.025767329340894e-001	 1.427569464640179e+000	 1.055974681783507e+000
 8.961553816909022e-002	 1.428441674632738e+000	 1.017820500097820e+000
 7.669130976832467e-002	 1.429193830630436e+000	 9.872312244869089e-001
 6.380547441661695e-002	 1.429827060849796e+000	 9.637309171993708e-001
 5.095942849756983e-002	 1.430342511131333e+000	 9.468218789687408e-001
 3.815453796973516e-002	 1.430741344105735e+000	 9.359857987145772e-001
 2.539213826639074e-002	 1.431024738365738e+000	 9.306849165279847e-001
 1.267353421844886e-002	 1.431193887644339e+000	 9.303631970937933e-001
 0.000000000000000e+000	 1.431250000000000e+000	 9.344475107554708e-001
 1.291657544637603e-001	 1.431685181137337e+000	 1.182153201256129e+000
 1.160781247269352e-001	 1.432805680813151e+000	 1.127312779476865e+000
 1.030246662679748e-001	 1.433803392431409e+000	 1.081109232690461e+000
 9.000687239861585e-002	 1.434679411201691e+000	 1.043112580754979e+000
 7.702620631874801e-002	 1.435434851723798e+000	 1.012868362633675e+000
 6.408410094325932e-002	 1.436070847140960e+000	 9.898987645197571e-001
 5.118195875349673e-002	 1.436588548297362e+000	 9.737037675800694e-001
 3.832115167289575e-002	 1.436989122900686e+000	 9.637623123129434e-001
 2.550302096631970e-002	 1.437273754690359e+000	 9.595334765605731e-001
 1.272887716263158e-002	 1.437443642612189e+000	 9.604576642797321e-001
 0.000000000000000e+000	 1.437500000000000e+000	 9.659578022424983e-001
 1.437500000000000e+000	 0.000000000000000e+000	 1.545744817766371e+001
 1.437443642612189e+000	 1.272887716263163e-002	 1.549754437673726e+001
 1.437273754690359e+000	 2.550302096631979e-002	 1.552860480358322e+001
 1.436989122900686e+000	 3.832115167289565e-002	 1.555042941903062e+001
 1.436588548297362e+000	 5.118195875349669e-002	 1.556282612463841e+001
 1.436070847140959e+000	 6.408410094325932e-002	 1.556561105878642e+001
 1.435434851723798e+000	 7.702620631874807e-002	 1.555860888299239e+001
 1.434679411201692e+000	 9.000687239861596e-002	 1.554165305759732e+001
 1.433803392431409e+000	 1.030246662679747e-001	 1.551458610596509e+001
 1.432805680813151e+000	 1.160781247269352e-001	 1.547725986634470e+001
 1.431685181137337e+000	 1.291657544637603e-001	 1.542953573055182e+001
 1.443750000000000e+000	 0.000000000000000e+000	 1.538234768884306e+001
 1.443693397580038e+000	 1.278422010681434e-002	 1.542221535208569e+001
 1.443522771014981e+000	 2.561390366624874e-002	 1.545312987399151e+001
 1.443236901695637e+000	 3.848776537605625e-002	 1.547489472088016e+001
 1.442834585463392e+000	 5.140448900942359e-002	 1.548732141096354e+001
 1.442314633432123e+000	 6.436272746990168e-002	 1.549022980935430e+001
 1.441675872817160e+000	 7.736110286917140e-002	 1.548344841303339e+001
 1.440917147770646e+000	 9.039820662814159e-002	 1.546681462491180e+001
 1.440037320222639e+000	 1.034725996018600e-001	 1.544017501612284e+001
 1.439035270727254e+000	 1.165828122286998e-001	 1.540338557568774e+001
 1.437909899313127e+000	 1.297273447042648e-001	 1.535631194670306e+001
 1.450000000000000e+000	 0.000000000000000e+000	 1.530918320871523e+001
 1.449943152547892e+000	 1.283956305099229e-002	 1.534884954314292e+001
 1.449771787339621e+000	 2.572478636615857e-002	 1.537964365461791e+001
 1.449484680490630e+000	 3.865437907917364e-002	 1.540137250432735e+001
 1.449080622629498e+000	 5.162701926527341e-002	 1.541385121820818e+001
 1.448558419723407e+000	 6.464135399642322e-002	 1.541690338091192e+001
 1.447916893910696e+000	 7.769599941942010e-002	 1.541036131946007e+001
 1.447154884339838e+000	 9.078954085742870e-002	 1.539406637571640e+001
 1.446271248014181e+000	 1.039205329354328e-001	 1.536786916680534e+001
 1.445264860641753e+000	 1.170874997300675e-001	 1.533162983261111e+001
 1.444134617489409e+000	 1.302889349442776e-001	 1.528521826949904e+001
 1.456250000000000e+000	 0.000000000000000e+000	 1.523791866663466e+001
 1.456192907515751e+000	 1.289490599516548e-002	 1.527741010221185e+001
 1.456020803664280e+000	 2.583566906604925e-002	 1.530810852115182e+001
 1.455732459285668e+000	 3.882099278224781e-002	 1.532982436925997e+001
 1.455326659795682e+000	 5.184954952104615e-002	 1.534237637165415e+001
 1.454802206014812e+000	 6.491998052282388e-002	 1.534559182572455e+001
 1.454157915004406e+000	 7.803089596949418e-002	 1.533930688351351e+001
 1.453392620909269e+000	 9.118087508647736e-002	 1.532336682263361e+001
 1.452505175806036e+000	 1.043684662686930e-001	 1.529762630484434e+001
 1.451494450556649e+000	 1.175921872310382e-001	 1.526194962141491e+001
 1.450359335666182e+000	 1.308505251837987e-001	 1.521621092440766e+001
 1.462500000000000e+000	 0.000000000000000e+000	 1.516851860854797e+001
 1.462442662483614e+000	 1.295024893933389e-002	 1.520786080634000e+001
 1.462269819988959e+000	 2.594655176592081e-002	 1.523848748202137e+001
 1.461980238080748e+000	 3.898760648527880e-002	 1.526021255613592e+001
 1.461572696961942e+000	 5.207207977674184e-002	 1.527285834481742e+001
 1.461045992306338e+000	 6.519860704910370e-002	 1.527625585178332e+001
 1.460398936098293e+000	 7.836579251939363e-002	 1.527024504947596e+001
 1.459630357478939e+000	 9.157220931528744e-002	 1.525467514846065e+001
 1.458739103598204e+000	 1.048163996016406e-001	 1.522940485419352e+001
 1.457724040471942e+000	 1.180968747316120e-001	 1.519430261027774e+001
 1.456584053843448e+000	 1.314121154228281e-001	 1.514924682733646e+001
 1.468750000000000e+000	 0.000000000000000e+000	 1.510094818387506e+001
 1.468692417451483e+000	 1.300559188349754e-002	 1.514016604402671e+001
 1.468518836313657e+000	 2.605743446577324e-002	 1.517074416493085e+001
 1.468228016875872e+000	 3.915422018826659e-002	 1.519249993235416e+001
 1.467818734128280e+000	 5.229461003236045e-002	 1.520525924565591e+001
 1.467289778597984e+000	 6.547723357526267e-002	 1.520885680885391e+001
 1.466639957192353e+000	 7.870068906911845e-002	 1.520313641056347e+001
 1.465868094048847e+000	 9.196354354385904e-002	 1.518795119191036e+001
 1.464973031390684e+000	 1.052643329342756e-001	 1.516316390152160e+001
 1.463953630387632e+000	 1.186015622317888e-001	 1.512864713670576e+001
 1.462808772021205e+000	 1.319737056613659e-001	 1.508428356994213e+001
 1.475000000000000e+000	 0.000000000000000e+000	 1.503517313272366e+001
 1.474942172419356e+000	 1.306093482765643e-002	 1.507429080226897e+001
 1.474767852638374e+000	 2.616831716560653e-002	 1.510484280374028e+001
 1.474475795671038e+000	 3.932083389121117e-002	 1.512664997897194e+001
 1.474064771294694e+000	 5.251714028790198e-002	 1.513954180312815e+001
 1.473533564889751e+000	 6.575586010130077e-002	 1.514335667487963e+001
 1.472880978286588e+000	 7.903558561866864e-002	 1.513794219517747e+001
 1.472105830618993e+000	 9.235487777219209e-002	 1.512315543371451e+001
 1.471206959183476e+000	 1.057122662665980e-001	 1.509886318217190e+001
 1.470183220303719e+000	 1.191062497315686e-001	 1.506494219335247e+001
 1.469033490199453e+000	 1.325352958994118e-001	 1.502127940531414e+001
 1.481250000000000e+000	 0.000000000000000e+000	 1.497115977342748e+001
 1.481191927387234e+000	 1.311627777181055e-002	 1.501020065393475e+001
 1.481016868963110e+000	 2.627919986542070e-002	 1.504074822567766e+001
 1.480723574466249e+000	 3.948744759411255e-002	 1.506262677775858e+001
 1.480310808461187e+000	 5.273967054336644e-002	 1.507566935409158e+001
 1.479777351181640e+000	 6.603448662721805e-002	 1.507971804272861e+001
 1.479121999380997e+000	 7.937048216804418e-002	 1.507462425350400e+001
 1.478343567189379e+000	 9.274621200028668e-002	 1.506024898307935e+001
 1.477440886976581e+000	 1.061601995986078e-001	 1.503646306647705e+001
 1.476412810220203e+000	 1.196109372309515e-001	 1.500314741419684e+001
 1.475258208378194e+000	 1.330968861369661e-001	 1.496019323402009e+001
 1.487500000000000e+000	 0.000000000000000e+000	 1.490887499039867e+001
 1.487441682355117e+000	 1.317162071595991e-002	 1.494786174545465e+001
 1.487265885287865e+000	 2.639008256521573e-002	 1.497842583887297e+001
 1.486971353261502e+000	 3.965406129697074e-002	 1.500039499857537e+001
 1.486556845627755e+000	 5.296220079875382e-002	 1.501360583053198e+001
 1.486021137473649e+000	 6.631311315301447e-002	 1.501790410727523e+001
 1.485363020475581e+000	 7.970537871724509e-002	 1.501314504445126e+001
 1.484581303760002e+000	 9.313754622814274e-002	 1.499919356448217e+001
 1.483674814769999e+000	 1.066081329303050e-001	 1.497592454641895e+001
 1.482642400137084e+000	 1.201156247299375e-001	 1.494322306106994e+001
 1.481482926557426e+000	 1.336584763740287e-001	 1.490098459050353e+001
 1.493750000000000e+000	 0.000000000000000e+000	 1.484828622228518e+001
 1.493691437323004e+000	 1.322696366010450e-002	 1.488724078482292e+001
 1.493514901612639e+000	 2.650096526499163e-002	 1.491784162020546e+001
 1.493219132056798e+000	 3.982067499978573e-002	 1.493991988707230e+001
 1.492802882794401e+000	 5.318473105406414e-002	 1.495331574711281e+001
 1.492264923765779e+000	 6.659173967869005e-002	 1.495787865280595e+001
 1.491604041570340e+000	 8.004027526627142e-002	 1.495346762291458e+001
 1.490819040330864e+000	 9.352888045576030e-002	 1.493995150479971e+001
 1.489908742563730e+000	 1.070560662616897e-001	 1.491720922262354e+001
 1.488871990054361e+000	 1.206203122285264e-001	 1.488513001052026e+001
 1.487707644737150e+000	 1.342200666105996e-001	 1.484361362982283e+001
 1.500000000000000e+000	 0.000000000000000e+000	 1.478936145042412e+001
 1.499941192290897e+000	 1.328230660424432e-002	 1.482830502989824e+001
 1.499763917937433e+000	 2.661184796474840e-002	 1.485896210345480e+001
 1.499466910852138e+000	 3.998728870255752e-002	 1.488116725269263e+001
 1.499048919961125e+000	 5.340726130929738e-002	 1.489476418903625e+001
 1.498508710058030e+000	 6.687036620424476e-002	 1.489960604073970e+001
 1.497845062665274e+000	 8.037517181512309e-002	 1.489555562736026e+001
 1.497056776901965e+000	 9.392021468313935e-002	 1.488248572075784e+001
 1.496142670357773e+000	 1.075039995927618e-001	 1.486027929168072e+001
 1.495101579972036e+000	 1.211249997267185e-001	 1.482882974100676e+001
 1.493932362917365e+000	 1.347816568466788e-001	 1.478804111472156e+001
 1.431685181137337e+000	 1.291657544637603e-001	 1.542953573055182e+001
 1.430440818434862e+000	 1.422860322523961e-001	 1.546463900906349e+001
 1.429071538830333e+000	 1.554374051767349e-001	 1.549020282492977e+001
 1.427576310397320e+000	 1.686182908806997e-001	 1.550607545833219e+001
 1.425954124014602e+000	 1.818270778431791e-001	 1.551211398256361e+001
 1.424203994222866e+000	 1.950621256800968e-001	 1.550818442915368e+001
 1.422324960080891e+000	 2.083217654732644e-001	 1.549416193695935e+001
 1.420316086020347e+000	 2.216043001262855e-001	 1.546993088455275e+001
 1.418176462698288e+000	 2.349080047477530e-001	 1.543538500526915e+001
 1.415905207846440e+000	 2.482311270619459e-001	 1.539042748431001e+001
 1.413501467116316e+000	 2.615718878472026e-001	 1.533497103733088e+001
 1.437909899313127e+000	 1.297273447042648e-001	 1.535631194670306e+001
 1.436660126337491e+000	 1.429046671796668e-001	 1.539150231796046e+001
 1.435284893343001e+000	 1.561132199868753e-001	 1.541725291364704e+001
 1.433783163916593e+000	 1.693514138900029e-001	 1.543341668306420e+001
 1.432153924549561e+000	 1.826176303613229e-001	 1.543985547466310e+001
 1.430396185497991e+000	 1.959102218846532e-001	 1.543644019737170e+001
 1.428508981642658e+000	 2.092275122856378e-001	 1.542305096554465e+001
 1.426491373347543e+000	 2.225677970891992e-001	 1.539957722686474e+001
 1.424342447316041e+000	 2.359293439044010e-001	 1.536591787255584e+001
 1.422061317443925e+000	 2.493103928369307e-001	 1.532198132930040e+001
 1.419647125668154e+000	 2.627091569293791e-001	 1.526768563229106e+001
 1.444134617489409e+000	 1.302889349442776e-001	 1.528521826949904e+001
 1.442879434240697e+000	 1.435233021063555e-001	 1.532051265136225e+001
 1.441498247856303e+000	 1.567890347963625e-001	 1.534646540742594e+001
 1.439990017436526e+000	 1.700845368986010e-001	 1.536293416299644e+001
 1.438353725085180e+000	 1.834081828787295e-001	 1.536978555042322e+001
 1.436588376773746e+000	 1.967583180884601e-001	 1.536689536664016e+001
 1.434693003204992e+000	 2.101332590972695e-001	 1.535414871398394e+001
 1.432666660675216e+000	 2.235312940513990e-001	 1.533144012361560e+001
 1.430508431934146e+000	 2.369506830603833e-001	 1.529867366090146e+001
 1.428217427041610e+000	 2.503896586113186e-001	 1.525576301214522e+001
 1.425792784220007e+000	 2.638464260110482e-001	 1.520263155209911e+001
 1.450359335666182e+000	 1.308505251837987e-001	 1.521621092440766e+001
 1.449098742144481e+000	 1.441419370324621e-001	 1.525162538860194e+001
 1.447711602370240e+000	 1.574648496051964e-001	 1.527779484148432e+001
 1.446196870957122e+000	 1.708176599064939e-001	 1.529458159172947e+001
 1.444553525621460e+000	 1.841987353953989e-001	 1.530185706481289e+001
 1.442780568050127e+000	 1.976064142915174e-001	 1.529950195677908e+001
 1.440877024767892e+000	 2.110390059081593e-001	 1.528740637093761e+001
 1.438841948003363e+000	 2.244947910128848e-001	 1.526546993681042e+001
 1.436674416552602e+000	 2.379720222156998e-001	 1.523360191068364e+001
 1.434373536639493e+000	 2.514689243851095e-001	 1.519172125715384e+001
 1.431938442771874e+000	 2.649836950922101e-001	 1.513975671109499e+001
 1.456584053843448e+000	 1.314121154228281e-001	 1.514924682733646e+001
 1.455318050048842e+000	 1.447605719579864e-001	 1.518479660737644e+001
 1.453924956884810e+000	 1.581406644133769e-001	 1.521119645716815e+001
 1.452403724478379e+000	 1.715507829136818e-001	 1.522831337659096e+001
 1.450753326158399e+000	 1.849892879113310e-001	 1.523602359395775e+001
 1.448972759327138e+000	 1.984545104938252e-001	 1.523421271602085e+001
 1.447061046331360e+000	 2.119447527183072e-001	 1.522277586055512e+001
 1.445017235331984e+000	 2.254582879736566e-001	 1.520161777083649e+001
 1.442840401171412e+000	 2.389933613703506e-001	 1.517065291136759e+001
 1.440529646237575e+000	 2.525481901583036e-001	 1.512980554423662e+001
 1.438084101323757e+000	 2.661209641728645e-001	 1.507900978553613e+001
 1.462808772021205e+000	 1.319737056613659e-001	 1.508428356994213e+001
 1.461537357953780e+000	 1.453792068829287e-001	 1.511998306888782e+001
 1.460138311400015e+000	 1.588164792209041e-001	 1.514662618692716e+001
 1.458610578000298e+000	 1.722839059201646e-001	 1.516408462345019e+001
 1.456953126695997e+000	 1.857798404265259e-001	 1.517223941979666e+001
 1.455164950604776e+000	 1.993026066953834e-001	 1.517098110551208e+001
 1.453245067895393e+000	 2.128504995277133e-001	 1.516020982682612e+001
 1.451192522661080e+000	 2.264217849337145e-001	 1.513983545666827e+001
 1.449006385790574e+000	 2.400147005243358e-001	 1.510977768556850e+001
 1.446685755835857e+000	 2.536274559309008e-001	 1.506996609282836e+001
 1.444229759875654e+000	 2.672582332530117e-001	 1.502034019738640e+001
 1.469033490199453e+000	 1.325352958994118e-001	 1.502127940531414e+001
 1.467756665859296e+000	 1.459978418072888e-001	 1.505714220336212e+001
 1.466351665915853e+000	 1.594922940277780e-001	 1.508404063967335e+001
 1.464817431522879e+000	 1.730170289259423e-001	 1.510185112191845e+001
 1.463152927234256e+000	 1.865703929409836e-001	 1.511045951512784e+001
 1.461357141883043e+000	 2.001507028961921e-001	 1.510976128420930e+001
 1.459429089459994e+000	 2.137562463363775e-001	 1.509966161832984e+001
 1.457367809990651e+000	 2.273852818930584e-001	 1.508007553647330e+001
 1.455172370410087e+000	 2.410360396776552e-001	 1.505092797351850e+001
 1.452841865434337e+000	 2.547067217029012e-001	 1.501215384622034e+001
 1.450375418427566e+000	 2.683955023326515e-001	 1.496369809851719e+001
 1.475258208378194e+000	 1.330968861369661e-001	 1.496019323402009e+001
 1.473975973765389e+000	 1.466164767310668e-001	 1.499623209593499e+001
 1.472565020432326e+000	 1.601681088339985e-001	 1.502339708650915e+001
 1.471024285046121e+000	 1.737501519310150e-001	 1.504156933092385e+001
 1.469352727773174e+000	 1.873609454547041e-001	 1.505063952903391e+001
 1.467549333161938e+000	 2.009987990962512e-001	 1.505050809415756e+001
 1.465613111025160e+000	 2.146619931442999e-001	 1.504108527337010e+001
 1.463543097320697e+000	 2.283487788516883e-001	 1.502229124860827e+001
 1.461338355029953e+000	 2.420573788303089e-001	 1.499405621792710e+001
 1.458997975033016e+000	 2.557859874743046e-001	 1.495632045628918e+001
 1.456521076979492e+000	 2.695327714117841e-001	 1.490903435530870e+001
 1.481482926557426e+000	 1.336584763740287e-001	 1.490098459050353e+001
 1.480195281672060e+000	 1.472351116542627e-001	 1.493721147289306e+001
 1.478778374949433e+000	 1.608439236395657e-001	 1.496465344681610e+001
 1.477231138570025e+000	 1.744832749353825e-001	 1.498319636465035e+001
 1.475552528312752e+000	 1.881514979676874e-001	 1.499273577267413e+001
 1.473741524441461e+000	 2.018468952955608e-001	 1.499317704613955e+001
 1.471797132590894e+000	 2.155677399514804e-001	 1.498443550548546e+001
 1.469718384651217e+000	 2.293122758096042e-001	 1.496643651299321e+001
 1.467504339650172e+000	 2.430787179822969e-001	 1.493911554922320e+001
 1.465154084631894e+000	 2.568652532451111e-001	 1.490241826861053e+001
 1.462666735531433e+000	 2.706700404904092e-001	 1.485630053363900e+001
 1.487707644737150e+000	 1.342200666105996e-001	 1.484361362982283e+001
 1.486414589579308e+000	 1.478537465768764e-001	 1.488003968826082e+001
 1.484991729467174e+000	 1.615197384444796e-001	 1.490776827469246e+001
 1.483437992094591e+000	 1.752163979390450e-001	 1.492668997882927e+001
 1.481752328852990e+000	 1.889420504799333e-001	 1.493670520543354e+001
 1.479933715721612e+000	 2.026949914941209e-001	 1.493772430568545e+001
 1.477981154157194e+000	 2.164734867579190e-001	 1.492966768932291e+001
 1.475893671982212e+000	 2.302757727668061e-001	 1.491246591685275e+001
 1.473670324270743e+000	 2.441000571336192e-001	 1.488605977116793e+001
 1.471310194230972e+000	 2.579445190153208e-001	 1.485040030794651e+001
 1.468812394083389e+000	 2.718073095685270e-001	 1.480544888425043e+001
 1.493932362917365e+000	 1.347816568466788e-001	 1.478804111472156e+001
 1.492633897487133e+000	 1.484723814989081e-001	 1.482467671072264e+001
 1.491205083985549e+000	 1.621955532487402e-001	 1.485270074572995e+001
 1.489644845619818e+000	 1.759495209420023e-001	 1.487200855737377e+001
 1.487952129393888e+000	 1.897326029914421e-001	 1.488250542141809e+001
 1.486125907002392e+000	 2.035430876919314e-001	 1.488410667943220e+001
 1.484165175724061e+000	 2.173792335636158e-001	 1.487673784686477e+001
 1.482068959313682e+000	 2.312392697232942e-001	 1.486033470081401e+001
 1.479836308891665e+000	 2.451213962842758e-001	 1.483484334682643e+001
 1.477466303830248e+000	 2.590237847849335e-001	 1.480022026409608e+001
 1.474958052635360e+000	 2.729445786461375e-001	 1.475643232848141e+001
 1.413501467116316e+000	 2.615718878472026e-001	 1.533497103733088e+001
 1.410964414918934e+000	 2.749284814022716e-001	 1.535925097689743e+001
 1.408293255258992e+000	 2.882990760403306e-001	 1.537280815410842e+001
 1.405487222561964e+000	 3.016818146109147e-001	 1.537550761588864e+001
 1.402545582492548e+000	 3.150748150501942e-001	 1.536722294157983e+001
 1.399467632764287e+000	 3.284761709591509e-001	 1.534783627168509e+001
 1.396252703939042e+000	 3.418839522097406e-001	 1.531723831789132e+001
 1.392900160215297e+000	 3.552962055789581e-001	 1.527532835410318e+001
 1.389409400204244e+000	 3.687109554106822e-001	 1.522201418827425e+001
 1.385779857692595e+000	 3.821262043051337e-001	 1.515721211487604e+001
 1.382011002391079e+000	 3.955399338357390e-001	 1.508084684790137e+001
 1.419647125668154e+000	 2.627091569293791e-001	 1.526768563229106e+001
 1.417099042810059e+000	 2.761238226297362e-001	 1.529226894017321e+001
 1.414416269413320e+000	 2.895525502874420e-001	 1.530630453883054e+001
 1.411598036574820e+000	 3.029934746774652e-001	 1.530966105539933e+001
 1.408643606766497e+000	 3.164447055530904e-001	 1.530221564535965e+001
 1.405552274648471e+000	 3.299043282266091e-001	 1.528385401495036e+001
 1.402323367872004e+000	 3.433704041781163e-001	 1.525447042461585e+001
 1.398956247871222e+000	 3.568409716923343e-001	 1.521396767322464e+001
 1.395450310642580e+000	 3.703140465233330e-001	 1.516225706285220e+001
 1.391804987510995e+000	 3.837876225869871e-001	 1.509925834397763e+001
 1.388019745881587e+000	 3.972596726809558e-001	 1.502489964099974e+001
 1.425792784220007e+000	 2.638464260110482e-001	 1.520263155209911e+001
 1.423233670701014e+000	 2.773191638567839e-001	 1.522748857044354e+001
 1.420539283567319e+000	 2.908060245342076e-001	 1.524197121364008e+001
 1.417708850587221e+000	 3.043051347437213e-001	 1.524595172519038e+001
 1.414741631039892e+000	 3.178145960557241e-001	 1.523931087503009e+001
 1.411636916532035e+000	 3.313324854938166e-001	 1.522193797559009e+001
 1.408394031804306e+000	 3.448568561462337e-001	 1.519373087863884e+001
 1.405012335526478e+000	 3.583857378054239e-001	 1.515459595265176e+001
 1.401491221080272e+000	 3.719171376356486e-001	 1.510444804050891e+001
 1.397830117328805e+000	 3.854490408684363e-001	 1.504321039737770e+001
 1.394028489371590e+000	 3.989794115256789e-001	 1.497081460869578e+001
 1.431938442771874e+000	 2.649836950922101e-001	 1.513975671109499e+001
 1.429368298591798e+000	 2.785145050834147e-001	 1.516485738735144e+001
 1.426662297720991e+000	 2.920594987806272e-001	 1.517975531499416e+001
 1.423819664599167e+000	 3.056167948096831e-001	 1.518432639046787e+001
 1.420839655312735e+000	 3.191844865580954e-001	 1.517845503690710e+001
 1.417721558414978e+000	 3.327606427607738e-001	 1.516203421381839e+001
 1.414464695735950e+000	 3.463433081140926e-001	 1.513496540728830e+001
 1.411068423181069e+000	 3.599305039182269e-001	 1.509715860047071e+001
 1.407532131517320e+000	 3.735202287476291e-001	 1.504853222416086e+001
 1.403855247146023e+000	 3.871104591494813e-001	 1.498901308732244e+001
 1.400037232861086e+000	 4.006991503699084e-001	 1.491853628749096e+001
 1.438084101323757e+000	 2.661209641728645e-001	 1.507900978553613e+001
 1.435502926482411e+000	 2.797098463096286e-001	 1.510432367158781e+001
 1.432785311874335e+000	 2.933129730267011e-001	 1.511960473924872e+001
 1.429930478610658e+000	 3.069284548753504e-001	 1.512473257490674e+001
 1.426937679585026e+000	 3.205543770602040e-001	 1.511959529406282e+001
 1.423806200297300e+000	 3.341888000274805e-001	 1.510408954460801e+001
 1.420535359666934e+000	 3.478297600816931e-001	 1.507812049036770e+001
 1.417124510834992e+000	 3.614752700307432e-001	 1.504160177467228e+001
 1.413573041953723e+000	 3.751233198592746e-001	 1.499445546376992e+001
 1.409880376962651e+000	 3.887718774301224e-001	 1.493661196995448e+001
 1.406045976350075e+000	 4.024188892136441e-001	 1.486800995434363e+001
 1.444229759875654e+000	 2.672582332530117e-001	 1.502034019738640e+001
 1.441637554372854e+000	 2.809051875354254e-001	 1.504583644869866e+001
 1.438908326027352e+000	 2.945664472724289e-001	 1.506146812649045e+001
 1.436041292621694e+000	 3.082401149407234e-001	 1.506711854451339e+001
 1.433035703856764e+000	 3.219242675620503e-001	 1.506267955022444e+001
 1.429890842179001e+000	 3.356169572939367e-001	 1.504805152163199e+001
 1.426606023597260e+000	 3.493162120490351e-001	 1.502314334414584e+001
 1.423180598488248e+000	 3.630200361429730e-001	 1.498787236719674e+001
 1.419613952389482e+000	 3.767264109705849e-001	 1.494216434044860e+001
 1.415905506778688e+000	 3.904332957103594e-001	 1.488595332948516e+001
 1.412054719838559e+000	 4.041386280568860e-001	 1.481918161091456e+001
 1.450375418427566e+000	 2.683955023326515e-001	 1.496369809851719e+001
 1.447772182263124e+000	 2.821005287608053e-001	 1.498934547330447e+001
 1.445031340180042e+000	 2.958199215178108e-001	 1.500529484478005e+001
 1.442152106632276e+000	 3.095517750058019e-001	 1.501143329189815e+001
 1.439133728127948e+000	 3.232941580636340e-001	 1.500765643408217e+001
 1.435975484060081e+000	 3.370451145601425e-001	 1.499386842161304e+001
 1.432676687526927e+000	 3.508026640161186e-001	 1.496998190575386e+001
 1.429236686140838e+000	 3.645648022549161e-001	 1.493591798838370e+001
 1.425654862824598e+000	 3.783295020815601e-001	 1.489160615096984e+001
 1.421930636594134e+000	 3.920947139901922e-001	 1.483698416276947e+001
 1.418063463326536e+000	 4.058583668996343e-001	 1.477199796821303e+001
 1.456521076979492e+000	 2.695327714117841e-001	 1.490903435530870e+001
 1.453906810153224e+000	 2.832958699857682e-001	 1.493480121371883e+001
 1.451154354332403e+000	 2.970733957628468e-001	 1.495103497479381e+001
 1.448262920642402e+000	 3.108634350705863e-001	 1.495762652094615e+001
 1.445231752398580e+000	 3.246640485649553e-001	 1.495447528399493e+001
 1.442060125940541e+000	 3.384732718260977e-001	 1.494148922906937e+001
 1.438747351455935e+000	 3.522891159829438e-001	 1.491858481797713e+001
 1.435292773792761e+000	 3.661095683665726e-001	 1.488568695181631e+001
 1.431695773259069e+000	 3.799325931922002e-001	 1.484272889266853e+001
 1.427955766408990e+000	 3.937561322696209e-001	 1.478965216427125e+001
 1.424072206814007e+000	 4.075781057418889e-001	 1.472640643163172e+001
 1.462666735531433e+000	 2.706700404904092e-001	 1.485630053363900e+001
 1.460041438043154e+000	 2.844912112103142e-001	 1.488215483695495e+001
 1.457277368484438e+000	 2.983268700075370e-001	 1.489863929485298e+001
 1.454373734652074e+000	 3.121750951350762e-001	 1.490564863187456e+001
 1.451329776668660e+000	 3.260339390660141e-001	 1.490308613308116e+001
 1.448144767820379e+000	 3.399014290918026e-001	 1.489086362144516e+001
 1.444818015384284e+000	 3.537755679495104e-001	 1.486890141443053e+001
 1.441348861444017e+000	 3.676543344779424e-001	 1.483712825954710e+001
 1.437736683692896e+000	 3.815356843025052e-001	 1.479548124872384e+001
 1.433980896223255e+000	 3.954175505486456e-001	 1.474390571140760e+001
 1.430080950300971e+000	 4.092978445836497e-001	 1.468235508635878e+001
 1.468812394083389e+000	 2.718073095685270e-001	 1.480544888425043e+001
 1.466176065932912e+000	 2.856865524344432e-001	 1.483135819410831e+001
 1.463400382636144e+000	 2.995803442518811e-001	 1.484805926632840e+001
 1.460484548661291e+000	 3.134867551992718e-001	 1.485545070666506e+001
 1.457427800938187e+000	 3.274038295668103e-001	 1.485343969468407e+001
 1.454229409699596e+000	 3.413295863572569e-001	 1.484194195461398e+001
 1.450888679311973e+000	 3.552620199158186e-001	 1.482088170510605e+001
 1.447404949094607e+000	 3.691991005890257e-001	 1.479019158769487e+001
 1.443777594126079e+000	 3.831387754124749e-001	 1.474981257381103e+001
 1.440006026036928e+000	 3.970789688272660e-001	 1.469969385026122e+001
 1.436089693787430e+000	 4.110175834249168e-001	 1.463979268315630e+001
 1.474958052635360e+000	 2.729445786461375e-001	 1.475643232848141e+001
 1.472310693822500e+000	 2.868818936581553e-001	 1.478236380610516e+001
 1.469523396787524e+000	 3.008338184958796e-001	 1.479924701941063e+001
 1.466595362670053e+000	 3.147984152631731e-001	 1.480698449486019e+001
 1.463525825207160e+000	 3.287737200673443e-001	 1.480548734820049e+001
 1.460314051578193e+000	 3.427577436224609e-001	 1.479467524874500e+001
 1.456959343239004e+000	 3.567484718818684e-001	 1.477447636228148e+001
 1.453461036744529e+000	 3.707438666998223e-001	 1.474482727240161e+001
 1.449818504558618e+000	 3.847418665221097e-001	 1.470567288011192e+001
 1.446031155850012e+000	 3.987403871054825e-001	 1.465696628164973e+001
 1.442098437273382e+000	 4.127373222656903e-001	 1.459866862449394e+001
 1.382011002391079e+000	 3.955399338357390e-001	 1.508084684790137e+001
 1.378102340668309e+000	 4.089501052931885e-001	 1.509467851524919e+001
 1.374053416266731e+000	 4.223546604561885e-001	 1.509511602053823e+001
 1.369863811001026e+000	 4.357515223888644e-001	 1.508206599756194e+001
 1.365533145439484e+000	 4.491385962643842e-001	 1.505544393870505e+001
 1.361061079565046e+000	 4.625137702142050e-001	 1.501517408009966e+001
 1.356447313415707e+000	 4.758749162025590e-001	 1.496118926757301e+001
 1.351691587703254e+000	 4.892198909256559e-001	 1.489343080363537e+001
 1.346793684409330e+000	 5.025465367350401e-001	 1.481184827582336e+001
 1.341753427357802e+000	 5.158526825844932e-001	 1.471639936677689e+001
 1.336570682762464e+000	 5.291361449998284e-001	 1.460704964649333e+001
 1.388019745881587e+000	 3.972596726809558e-001	 1.502489964099974e+001
 1.384094089976881e+000	 4.107281492318909e-001	 1.504057562918392e+001
 1.380027561555725e+000	 4.241909850696234e-001	 1.504290900898881e+001
 1.375819740614606e+000	 4.376460942281228e-001	 1.503180257882012e+001
 1.371470246072112e+000	 4.510913727726133e-001	 1.500716796646287e+001
 1.366978736432848e+000	 4.645246996525145e-001	 1.496892551382621e+001
 1.362344910430627e+000	 4.779439375797284e-001	 1.491700414241292e+001
 1.357568507649899e+000	 4.913469339317523e-001	 1.485134119976777e+001
 1.352649309124399e+000	 5.047315216790496e-001	 1.477188228722322e+001
 1.347587137912014e+000	 5.180955203360702e-001	 1.467858106932756e+001
 1.342381859644857e+000	 5.314367369352608e-001	 1.457139906540359e+001
 1.394028489371590e+000	 3.989794115256789e-001	 1.497081460869578e+001
 1.390085839285036e+000	 4.125061931700092e-001	 1.498819984079334e+001
 1.386001706844374e+000	 4.260273096824035e-001	 1.499229387091307e+001
 1.381775670227893e+000	 4.395406660666750e-001	 1.498299576540900e+001
 1.377407346704477e+000	 4.530441492801046e-001	 1.496021339236303e+001
 1.372896393300399e+000	 4.665356290900744e-001	 1.492386330580994e+001
 1.368242507445289e+000	 4.800129589561568e-001	 1.487387061061607e+001
 1.363445427596256e+000	 4.934739769371360e-001	 1.481016880827069e+001
 1.358504933839132e+000	 5.069165066223952e-001	 1.473269962391314e+001
 1.353420848465821e+000	 5.203383580870525e-001	 1.464141281498644e+001
 1.348193036526755e+000	 5.337373288701881e-001	 1.453626596197201e+001
 1.400037232861086e+000	 4.006991503699084e-001	 1.491853628749096e+001
 1.396077588592775e+000	 4.142842371075434e-001	 1.493749658638683e+001
 1.391975852132678e+000	 4.278636342945287e-001	 1.494321694382186e+001
 1.387731599840885e+000	 4.414352379045209e-001	 1.493559279724612e+001
 1.383344447336580e+000	 4.549969257868581e-001	 1.491452835974555e+001
 1.378814050167700e+000	 4.685465585268848e-001	 1.487993650363848e+001
 1.374140104459692e+000	 4.820819803318437e-001	 1.483173862465068e+001
 1.369322347542326e+000	 4.956010199418068e-001	 1.476986448693229e+001
 1.364360558553530e+000	 5.091014915650768e-001	 1.469425204924549e+001
 1.359254559019222e+000	 5.225811958374398e-001	 1.460484727271797e+001
 1.354004213408158e+000	 5.360379208046102e-001	 1.450160391062467e+001
 1.406045976350075e+000	 4.024188892136441e-001	 1.486800995434363e+001
 1.402069337900099e+000	 4.160622810444934e-001	 1.488841201916730e+001
 1.397949997420637e+000	 4.296999589059988e-001	 1.489562525850986e+001
 1.393687529453584e+000	 4.433298097416606e-001	 1.488954158388737e+001
 1.389281547968421e+000	 4.569497022928738e-001	 1.487006165791754e+001
 1.384731707034750e+000	 4.705574879629457e-001	 1.483709477717954e+001
 1.380037701473836e+000	 4.841510017067896e-001	 1.479055873557260e+001
 1.375199267488110e+000	 4.977280629457651e-001	 1.473037966844133e+001
 1.370216183267591e+000	 5.112864765070944e-001	 1.465649187780193e+001
 1.365088269572218e+000	 5.248240335872324e-001	 1.456883763907106e+001
 1.359815390289067e+000	 5.383385127385272e-001	 1.446736698976464e+001
 1.412054719838559e+000	 4.041386280568860e-001	 1.481918161091456e+001
 1.408061087207006e+000	 4.178403249808596e-001	 1.484089299397788e+001
 1.403924142708251e+000	 4.315362835168141e-001	 1.484946652430515e+001
 1.399643459065989e+000	 4.452243815780940e-001	 1.484479069027962e+001
 1.395218648599999e+000	 4.589024787981515e-001	 1.482676270840917e+001
 1.390649363901549e+000	 4.725684173982571e-001	 1.479528840534083e+001
 1.385935298487721e+000	 4.862200230809941e-001	 1.475028208028962e+001
 1.381076187433606e+000	 4.998551059490105e-001	 1.469166634815508e+001
 1.376071807981317e+000	 5.134714614484480e-001	 1.461937196366504e+001
 1.370921980124809e+000	 5.270668713364302e-001	 1.453333762695368e+001
 1.365626567169480e+000	 5.406391046719390e-001	 1.443350977104880e+001
 1.418063463326536e+000	 4.058583668996343e-001	 1.477199796821303e+001
 1.414052836513498e+000	 4.196183689166417e-001	 1.479488705243688e+001
 1.409898287995520e+000	 4.333726081269745e-001	 1.480468911469329e+001
 1.405599388678101e+000	 4.471189534138211e-001	 1.480128932287515e+001
 1.401155749231316e+000	 4.608552553026916e-001	 1.478458155157929e+001
 1.396567020768099e+000	 4.745793468328191e-001	 1.475446826316676e+001
 1.391832895501348e+000	 4.882890444544576e-001	 1.471086036914905e+001
 1.386953107378814e+000	 5.019821489515434e-001	 1.465367707217864e+001
 1.381927432694706e+000	 5.156564463891377e-001	 1.458284568898831e+001
 1.376755690676995e+000	 5.293097090850332e-001	 1.449830145469337e+001
 1.371437744049399e+000	 5.429396966048457e-001	 1.439998730893780e+001
 1.424072206814007e+000	 4.075781057418889e-001	 1.472640643163172e+001
 1.420044585819574e+000	 4.213964128518398e-001	 1.475034240844878e+001
 1.415872433282443e+000	 4.352089327364799e-001	 1.476124205330559e+001
 1.411555318289918e+000	 4.490135252488421e-001	 1.475898731609784e+001
 1.407092849862371e+000	 4.628080318064937e-001	 1.474346883355976e+001
 1.402484677634397e+000	 4.765902762666312e-001	 1.471458580926153e+001
 1.397730492514715e+000	 4.903580658271798e-001	 1.467224587384007e+001
 1.392830027323736e+000	 5.041091919533632e-001	 1.461636492574557e+001
 1.387783057407760e+000	 5.178414313291633e-001	 1.454686695285522e+001
 1.382589401228776e+000	 5.315525468330412e-001	 1.446368383537402e+001
 1.377248920928823e+000	 5.452402885372472e-001	 1.436675513051007e+001
 1.430080950300971e+000	 4.092978445836497e-001	 1.468235508635878e+001
 1.426036335125233e+000	 4.231744567864537e-001	 1.470720793408051e+001
 1.421846578569022e+000	 4.370452573453303e-001	 1.471907500026063e+001
 1.417511247901442e+000	 4.509080970831567e-001	 1.471783511915045e+001
 1.413029950493163e+000	 4.647608083095580e-001	 1.470337579352920e+001
 1.408402334500446e+000	 4.786012056996941e-001	 1.467559307352978e+001
 1.403628089527824e+000	 4.924270871991608e-001	 1.463439141560075e+001
 1.398706947268370e+000	 5.062362349544705e-001	 1.457968352189172e+001
 1.393638682120477e+000	 5.200264162685249e-001	 1.451139016041962e+001
 1.388423111780151e+000	 5.337953845804544e-001	 1.442943996644208e+001
 1.383060097807752e+000	 5.475408804691434e-001	 1.433376922553315e+001
 1.436089693787430e+000	 4.110175834249168e-001	 1.463979268315630e+001
 1.432028084430478e+000	 4.249525007204838e-001	 1.466543314579247e+001
 1.427820723855256e+000	 4.388815819535258e-001	 1.467813823884863e+001
 1.423467177512673e+000	 4.528026689167652e-001	 1.467778378315327e+001
 1.418967051123693e+000	 4.667135848118846e-001	 1.466425425130622e+001
 1.414319991366243e+000	 4.806121351320074e-001	 1.463744264522440e+001
 1.409525686540675e+000	 4.944961085704005e-001	 1.459725035372121e+001
 1.404583867212716e+000	 5.083632779548649e-001	 1.454358699041346e+001
 1.399494306832859e+000	 5.222114012072227e-001	 1.447637021231826e+001
 1.394256822331122e+000	 5.360382223272727e-001	 1.439552551957352e+001
 1.388871274686186e+000	 5.498414724005347e-001	 1.430098603678381e+001
 1.442098437273382e+000	 4.127373222656903e-001	 1.459866862449394e+001
 1.438019833735305e+000	 4.267305446539297e-001	 1.462496819101354e+001
 1.433794869141144e+000	 4.407179065610665e-001	 1.463838266254864e+001
 1.429423107123609e+000	 4.546972407496674e-001	 1.463878494860390e+001
 1.424904151753961e+000	 4.686663613134735e-001	 1.462605659525267e+001
 1.420237648231791e+000	 4.826230645635711e-001	 1.460008766129355e+001
 1.415423283553266e+000	 4.965651299408992e-001	 1.456077657433421e+001
 1.410460787156776e+000	 5.104903209545468e-001	 1.450802996710168e+001
 1.405349931544904e+000	 5.243963861452563e-001	 1.444176249434839e+001
 1.400090532881687e+000	 5.382810600734965e-001	 1.436189663079367e+001
 1.394682451564126e+000	 5.521420643314209e-001	 1.426836245061045e+001
 1.336570682762464e+000	 5.291361449998284e-001	 1.460704964649333e+001
 1.331245359748507e+000	 5.423947290707670e-001	 1.461811268972849e+001
 1.325777410848514e+000	 5.556262294645777e-001	 1.461473777402156e+001
 1.320166832470970e+000	 5.688284314602464e-001	 1.459663895949127e+001
 1.314413665339216e+000	 5.819991120022612e-001	 1.456353423406278e+001
 1.308517994901646e+000	 5.951360407735142e-001	 1.451514546098023e+001
 1.302479951711748e+000	 6.082369812862576e-001	 1.445119831944468e+001
 1.296299711777179e+000	 6.212996919901549e-001	 1.437142223897054e+001
 1.289977496877083e+000	 6.343219273964403e-001	 1.434167036590730e+001
 1.283513574846905e+000	 6.473014392171509e-001	 1.433017970894798e+001
 1.276908259829992e+000	 6.602359775183677e-001	 1.431244668605993e+001
 1.342381859644857e+000	 5.314367369352608e-001	 1.457139906540359e+001
 1.337033383052914e+000	 5.447529670233685e-001	 1.458123774492124e+001
 1.331541660462285e+000	 5.580419956793733e-001	 1.457692545249034e+001
 1.325906688265840e+000	 5.713015985530406e-001	 1.455818485207682e+001
 1.320128507363978e+000	 5.845295429234005e-001	 1.452474237955121e+001
 1.314207203576607e+000	 5.977235887763150e-001	 1.447632817490106e+001
 1.308142908024839e+000	 6.108814899001777e-001	 1.441267600753470e+001
 1.301935797481580e+000	 6.240009949987813e-001	 1.433352319530209e+001
 1.295586094690231e+000	 6.370798488203663e-001	 1.431704860411900e+001
 1.289094068650738e+000	 6.501157933018059e-001	 1.430041591124137e+001
 1.282460034872289e+000	 6.631065687268593e-001	 1.427787989843098e+001
 1.348193036526755e+000	 5.337373288701881e-001	 1.453626596197201e+001
 1.342821406356735e+000	 5.471112049755550e-001	 1.454491942518724e+001
 1.337305910075400e+000	 5.604577618938248e-001	 1.453970778597504e+001
 1.331646544060003e+000	 5.737747656455416e-001	 1.452036233682994e+001
 1.325843349388003e+000	 5.870599738442780e-001	 1.448661798705834e+001
 1.319896412250820e+000	 6.003111367788656e-001	 1.443821317962766e+001
 1.313805864337190e+000	 6.135259985138387e-001	 1.437488980107133e+001
 1.307571883185269e+000	 6.267022980071199e-001	 1.430582515785922e+001
 1.301194692502715e+000	 6.398377702439555e-001	 1.429005771807799e+001
 1.294674562453978e+000	 6.529301473860542e-001	 1.426833861004946e+001
 1.288011809914083e+000	 6.659771599348549e-001	 1.424105068807930e+001
 1.354004213408158e+000	 5.360379208046102e-001	 1.450160391062467e+001
 1.348609429659971e+000	 5.494694429273265e-001	 1.450911000984358e+001
 1.343070159687858e+000	 5.628735281079319e-001	 1.450303578465394e+001
 1.337386399853459e+000	 5.762479327377497e-001	 1.448312118170183e+001
 1.331558191411289e+000	 5.895904047648937e-001	 1.444910961015256e+001
 1.325585620924282e+000	 6.028986847811656e-001	 1.440074784311337e+001
 1.319468820648799e+000	 6.161705071272404e-001	 1.433778591207324e+001
 1.313207968888246e+000	 6.294036010151705e-001	 1.428183889886696e+001
 1.306803290314537e+000	 6.425956916672078e-001	 1.426071847819844e+001
 1.300255056256623e+000	 6.557445014698961e-001	 1.423396860396345e+001
 1.293563584955372e+000	 6.688477511423544e-001	 1.420197987426355e+001
 1.359815390289067e+000	 5.383385127385272e-001	 1.446736698976464e+001
 1.354397452962621e+000	 5.518276808786832e-001	 1.447376229623541e+001
 1.348834409299661e+000	 5.652892943216950e-001	 1.446686099039055e+001
 1.343126255646209e+000	 5.787210998296645e-001	 1.444641169958294e+001
 1.337273033433836e+000	 5.921208356852474e-001	 1.441216636018466e+001
 1.331274829596996e+000	 6.054862327832152e-001	 1.436388010351761e+001
 1.325131776959667e+000	 6.188150157403830e-001	 1.430131113476136e+001
 1.318844054590511e+000	 6.321049040229332e-001	 1.425546548288482e+001
 1.312411888125696e+000	 6.453536130901232e-001	 1.422905225977582e+001
 1.305835550058675e+000	 6.585588555533323e-001	 1.419732730712394e+001
 1.299115359996157e+000	 6.717183423493577e-001	 1.416068890200209e+001
 1.365626567169480e+000	 5.406391046719390e-001	 1.443350977104880e+001
 1.360185476264687e+000	 5.541859188296250e-001	 1.443882958871410e+001
 1.354598658910808e+000	 5.677050605351138e-001	 1.443113546542095e+001
 1.348866111438251e+000	 5.811942669212862e-001	 1.441018473670866e+001
 1.342987875455647e+000	 5.946512666053395e-001	 1.437573789442000e+001
 1.336964038268959e+000	 6.080737807850144e-001	 1.432755845707356e+001
 1.330794733269795e+000	 6.214595243532666e-001	 1.426541283317151e+001
 1.324480140292063e+000	 6.348062070304077e-001	 1.422672681965488e+001
 1.318020485936192e+000	 6.481115345127013e-001	 1.419508103011688e+001
 1.311416043860133e+000	 6.613732096363617e-001	 1.415843673612369e+001
 1.304667135036438e+000	 6.745889335558650e-001	 1.411719982875915e+001
 1.371437744049399e+000	 5.429396966048457e-001	 1.439998730893780e+001
 1.365973499566168e+000	 5.565441567801518e-001	 1.440426568789572e+001
 1.360362908521299e+000	 5.701208267481885e-001	 1.439581178132908e+001
 1.354605967229586e+000	 5.836674340126149e-001	 1.437439166135951e+001
 1.348702717476718e+000	 5.971816975251695e-001	 1.433977440447256e+001
 1.342653246940173e+000	 6.106613287865625e-001	 1.429173194626475e+001
 1.336457689579182e+000	 6.241040329658908e-001	 1.423003892908188e+001
 1.330116225992904e+000	 6.375075100375944e-001	 1.419564538773703e+001
 1.323629083746024e+000	 6.508694559349428e-001	 1.415882733599745e+001
 1.316996537660998e+000	 6.641875637189851e-001	 1.411731949724431e+001
 1.310218910076216e+000	 6.774595247618763e-001	 1.407153531146921e+001
 1.377248920928823e+000	 5.452402885372472e-001	 1.436675513051007e+001
 1.371761522867063e+000	 5.589023947302638e-001	 1.437002488019107e+001
 1.366127158131135e+000	 5.725365929609192e-001	 1.436084300830102e+001
 1.360345823020215e+000	 5.861406011036503e-001	 1.433898435284767e+001
 1.354417559497051e+000	 5.997121284447378e-001	 1.430422660503180e+001
 1.348342455610637e+000	 6.132488767878606e-001	 1.425635014830080e+001
 1.342120645887828e+000	 6.267485415782558e-001	 1.419938954659781e+001
 1.335752311693033e+000	 6.402088130444933e-001	 1.416224422250857e+001
 1.329237681555194e+000	 6.536273773568471e-001	 1.412031429143698e+001
 1.322577031461269e+000	 6.670019178012019e-001	 1.407399877401525e+001
 1.315770685115489e+000	 6.803301159673915e-001	 1.402371859388985e+001
 1.383060097807752e+000	 5.475408804691434e-001	 1.433376922553315e+001
 1.377549546167373e+000	 5.612606326799611e-001	 1.433606192760023e+001
 1.371891407740314e+000	 5.749523591733057e-001	 1.432618270465005e+001
 1.366085678810137e+000	 5.886137681943928e-001	 1.430391519078078e+001
 1.360132401516647e+000	 6.022425593640441e-001	 1.426904572287366e+001
 1.354031664280353e+000	 6.158364247889083e-001	 1.422136316388354e+001
 1.347783602195733e+000	 6.293930501903621e-001	 1.416903608988136e+001
 1.341388397392449e+000	 6.429101160511042e-001	 1.412654690446626e+001
 1.334846279363701e+000	 6.563852987784145e-001	 1.407956556578181e+001
 1.328157525260946e+000	 6.698162718830125e-001	 1.402849831508675e+001
 1.321322460154259e+000	 6.832007071724106e-001	 1.397377349427371e+001
 1.388871274686186e+000	 5.498414724005347e-001	 1.430098603678381e+001
 1.383337569467098e+000	 5.636188706292432e-001	 1.430233205776264e+001
 1.377655657348837e+000	 5.773681253853478e-001	 1.429178490660492e+001
 1.371825534599352e+000	 5.910869352848422e-001	 1.426913704459586e+001
 1.365847243535504e+000	 6.047729902830887e-001	 1.423418348614741e+001
 1.359720872949318e+000	 6.184239727897054e-001	 1.418672160625538e+001
 1.353446558502897e+000	 6.320375588022088e-001	 1.413634555936131e+001
 1.347024483091154e+000	 6.456114190574270e-001	 1.408857754782231e+001
 1.340454877171543e+000	 6.591432201996447e-001	 1.403660537208741e+001
 1.333738019060030e+000	 6.726306259644167e-001	 1.398084242240754e+001
 1.326874235192525e+000	 6.860712983769336e-001	 1.392172439334965e+001
 1.394682451564126e+000	 5.521420643314209e-001	 1.426836245061045e+001
 1.389125592766238e+000	 5.659771085781107e-001	 1.426879095425657e+001
 1.383419906956705e+000	 5.797838915970461e-001	 1.425760411835318e+001
 1.377565390387860e+000	 5.935601023749983e-001	 1.423460326335420e+001
 1.371562085553623e+000	 6.073034212018715e-001	 1.419959211393043e+001
 1.365410081617534e+000	 6.210115207902520e-001	 1.415237659052140e+001
 1.359109514809321e+000	 6.346820674137966e-001	 1.410134247306056e+001
 1.352660568789146e+000	 6.483127220634620e-001	 1.404836078938509e+001
 1.346063474978724e+000	 6.619011416205383e-001	 1.399145845579123e+001
 1.339318512858520e+000	 6.754449800454148e-001	 1.393105593969736e+001
 1.332426010230286e+000	 6.889418895809607e-001	 1.386759622260449e+001
 1.276908259829992e+000	 6.602359775183677e-001	 1.431244668605993e+001
 1.270161912495386e+000	 6.731232918862480e-001	 1.411389349545980e+001
 1.263274940220960e+000	 6.859611326049919e-001	 1.391980780232773e+001
 1.256247797241406e+000	 6.987472518454978e-001	 1.373209881277186e+001
 1.249080984760714e+000	 7.114794048631932e-001	 1.356847788312174e+001
 1.241775051028446e+000	 7.241553512041195e-001	 1.352197853367322e+001
 1.234330591379382e+000	 7.367728559179375e-001	 1.348484807289786e+001
 1.226748248236175e+000	 7.493296907765696e-001	 1.345864571845095e+001
 1.219028711074619e+000	 7.618236354971838e-001	 1.344492196979305e+001
 1.211172716351275e+000	 7.742524789681905e-001	 1.344521671990135e+001
 1.203181047393165e+000	 7.866140204769193e-001	 1.346105737281436e+001
 1.282460034872289e+000	 6.631065687268593e-001	 1.427787989843098e+001
 1.275684355592127e+000	 6.760499148971507e-001	 1.409414768154094e+001
 1.268767439959407e+000	 6.889435723153801e-001	 1.391500124776794e+001
 1.261709744183755e+000	 7.017852833792754e-001	 1.374228458107895e+001
 1.254511771648311e+000	 7.145727935845044e-001	 1.357786552810683e+001
 1.247174072986329e+000	 7.273038527360040e-001	 1.347075359841982e+001
 1.239697246121003e+000	 7.399762161662590e-001	 1.344972556810388e+001
 1.232081936268124e+000	 7.525876459592436e-001	 1.343953900474434e+001
 1.224328835901213e+000	 7.651359121787211e-001	 1.344167673859756e+001
 1.216438684678813e+000	 7.776187940995731e-001	 1.345761052126394e+001
 1.208412269333717e+000	 7.900340814408130e-001	 1.348879920834138e+001
 1.288011809914083e+000	 6.659771599348549e-001	 1.424105068807930e+001
 1.281206798688463e+000	 6.789765379074670e-001	 1.407113225786701e+001
 1.274259939697550e+000	 6.919260120251115e-001	 1.390591375603895e+001
 1.267171691125901e+000	 7.048233149123454e-001	 1.374717439227799e+001
 1.259942558535805e+000	 7.176661823050773e-001	 1.359671701496682e+001
 1.252573094944208e+000	 7.304523542671393e-001	 1.345636669599153e+001
 1.245063900862719e+000	 7.431795764138403e-001	 1.340785884863233e+001
 1.237415624300272e+000	 7.558456011412063e-001	 1.341262759473289e+001
 1.229628960728105e+000	 7.684481888595963e-001	 1.342956981945499e+001
 1.221704653006748e+000	 7.809851092303634e-001	 1.346008965844966e+001
 1.213643491274765e+000	 7.934541424042042e-001	 1.350557794362155e+001
 1.293563584955372e+000	 6.688477511423544e-001	 1.420197987426355e+001
 1.286729241784396e+000	 6.819031609171972e-001	 1.404488162331301e+001
 1.279752439435389e+000	 6.949084517341863e-001	 1.389259329136851e+001
 1.272633638067844e+000	 7.078613464447078e-001	 1.374682975526944e+001
 1.265373345423195e+000	 7.207595710249116e-001	 1.360932931589781e+001
 1.257972116902085e+000	 7.336008557975249e-001	 1.348185235217700e+001
 1.250430555604533e+000	 7.463829366606811e-001	 1.336617989867975e+001
 1.242749312332616e+000	 7.591035563224577e-001	 1.337794743489866e+001
 1.234929085555294e+000	 7.717604655398097e-001	 1.340864998569742e+001
 1.226970621335081e+000	 7.843514243605609e-001	 1.345271571957865e+001
 1.218874713216311e+000	 7.968742033670927e-001	 1.351146796344482e+001
 1.299115359996157e+000	 6.717183423493577e-001	 1.416068890200209e+001
 1.292251684879925e+000	 6.848297839263412e-001	 1.401543058035280e+001
 1.285244939172925e+000	 6.978908914426039e-001	 1.387508799906374e+001
 1.278095585009582e+000	 7.108993779763625e-001	 1.374131213725736e+001
 1.270804132310481e+000	 7.238529597440070e-001	 1.361577719273647e+001
 1.263371138859958e+000	 7.367493573271609e-001	 1.350017930491165e+001
 1.255797210346444e+000	 7.495862969067813e-001	 1.339623520177747e+001
 1.248083000365158e+000	 7.623615115029975e-001	 1.333553353843124e+001
 1.240229210382780e+000	 7.750727422193608e-001	 1.337896485486695e+001
 1.232236589663811e+000	 7.877177394901663e-001	 1.343554891485472e+001
 1.224105935158355e+000	 8.002942643294785e-001	 1.350654205303716e+001
 1.304667135036438e+000	 6.745889335558650e-001	 1.411719982875915e+001
 1.297774127975050e+000	 6.877564069348985e-001	 1.398281432647214e+001
 1.290737438910156e+000	 7.008733311503647e-001	 1.385344620165859e+001
 1.283557531951117e+000	 7.139374095073098e-001	 1.373068296463620e+001
 1.276234919197665e+000	 7.269463484623645e-001	 1.361613514832400e+001
 1.268770160817828e+000	 7.398978588560475e-001	 1.351143509983540e+001
 1.261163865088452e+000	 7.527896571521413e-001	 1.341823569654409e+001
 1.253416688397895e+000	 7.656194666828261e-001	 1.333820898699489e+001
 1.245529335210563e+000	 7.783850188982501e-001	 1.334056091330630e+001
 1.237502557992939e+000	 7.910840546191789e-001	 1.340864810588259e+001
 1.229337157100896e+000	 8.037143252913617e-001	 1.349087143209383e+001
 1.310218910076216e+000	 6.774595247618763e-001	 1.407153531146921e+001
 1.303296571069771e+000	 6.906830299428702e-001	 1.394706844579964e+001
 1.296229938647085e+000	 7.038557708574690e-001	 1.382771639515889e+001
 1.289019478892449e+000	 7.169754410375496e-001	 1.371500362385594e+001
 1.281665706084745e+000	 7.300397371799832e-001	 1.361047743199301e+001
 1.274169182775695e+000	 7.430463603841846e-001	 1.351570681546877e+001
 1.266530519830556e+000	 7.559930173967605e-001	 1.343228125085812e+001
 1.258750376430831e+000	 7.688774218619434e-001	 1.336180940542087e+001
 1.250829460038644e+000	 7.816972955764769e-001	 1.330591777271759e+001
 1.242768526322464e+000	 7.944503697475993e-001	 1.337207083424004e+001
 1.234568379043934e+000	 8.071343862527423e-001	 1.346452578794747e+001
 1.315770685115489e+000	 6.803301159673915e-001	 1.402371859388985e+001
 1.308819014164088e+000	 6.936096529502549e-001	 1.390822890094964e+001
 1.301722438383709e+000	 7.068382105639163e-001	 1.379794724538259e+001
 1.294481425833577e+000	 7.200134725670816e-001	 1.369433546226424e+001
 1.287096492971720e+000	 7.331331258968632e-001	 1.359887804491623e+001
 1.279568204733558e+000	 7.461948619115721e-001	 1.351308107306772e+001
 1.271897174572757e+000	 7.591963776406394e-001	 1.343847106628042e+001
 1.264084064463964e+000	 7.721353770403494e-001	 1.337659376276860e+001
 1.256129584867021e+000	 7.850095722540423e-001	 1.332901282396839e+001
 1.248034494652386e+000	 7.978166848754269e-001	 1.332587334932643e+001
 1.239799600987469e+000	 8.105544472136200e-001	 1.342757330789625e+001
 1.321322460154259e+000	 6.832007071724106e-001	 1.397377349427371e+001
 1.314341457258001e+000	 6.965362759570538e-001	 1.386633202507121e+001
 1.307214938120029e+000	 7.098206502697065e-001	 1.376418758439236e+001
 1.299943372774501e+000	 7.230515040959060e-001	 1.366873978892840e+001
 1.292527279858593e+000	 7.362265146130052e-001	 1.358141074531974e+001
 1.284967226691418e+000	 7.493433634382103e-001	 1.350364404622999e+001
 1.277263829315056e+000	 7.623997378837780e-001	 1.343690369205278e+001
 1.269417752497294e+000	 7.753933322180440e-001	 1.338267293826150e+001
 1.261429709695697e+000	 7.883218489309454e-001	 1.334245306863301e+001
 1.253300462982705e+000	 8.011830000026622e-001	 1.331776209480581e+001
 1.245030822931502e+000	 8.139745081739952e-001	 1.338008071071748e+001
 1.326874235192525e+000	 6.860712983769336e-001	 1.392172439334965e+001
 1.319863900351511e+000	 6.994628989632662e-001	 1.382141451409584e+001
 1.312707437856045e+000	 7.128030899748405e-001	 1.372648640701767e+001
 1.305405319715221e+000	 7.260895356240228e-001	 1.363827787543597e+001
 1.297958066745362e+000	 7.393199033284079e-001	 1.355814905356541e+001
 1.290366248649275e+000	 7.524918649640988e-001	 1.348748147026024e+001
 1.282630484057451e+000	 7.656030981261758e-001	 1.342767703874444e+001
 1.274751440530820e+000	 7.786512873950273e-001	 1.338015697221503e+001
 1.266729834524669e+000	 7.916341256071865e-001	 1.334636062542663e+001
 1.258566431313422e+000	 8.045493151293049e-001	 1.332774426259570e+001
 1.250262044876032e+000	 8.173945691338680e-001	 1.332577975219139e+001
 1.332426010230286e+000	 6.889418895809607e-001	 1.386759622260449e+001
 1.325386343444616e+000	 7.023895219688925e-001	 1.377351341917992e+001
 1.318199937591758e+000	 7.157855296793174e-001	 1.368489286746363e+001
 1.310867266655738e+000	 7.291275671514321e-001	 1.360301095667552e+001
 1.303388853632028e+000	 7.424132920430727e-001	 1.352916625710665e+001
 1.295765270607128e+000	 7.556403664892382e-001	 1.346467865130141e+001
 1.287997138799944e+000	 7.688064583678336e-001	 1.341088839155808e+001
 1.280085128564544e+000	 7.819092425712994e-001	 1.336915508351412e+001
 1.272029959353938e+000	 7.949464022827657e-001	 1.334085659580398e+001
 1.263832399644536e+000	 8.079156302553554e-001	 1.332738789600297e+001
 1.255493266821060e+000	 8.208146300932377e-001	 1.333015981330156e+001
 1.203181047393165e+000	 7.866140204769193e-001	 1.346105737281436e+001
 1.195054534249526e+000	 7.989060709380897e-001	 1.329100226957116e+001
 1.186794053505000e+000	 8.111264541202936e-001	 1.313505071317509e+001
 1.178400528054499e+000	 8.232730078700490e-001	 1.299328326328386e+001
 1.169874926840022e+000	 8.353435853329877e-001	 1.286575826966726e+001
 1.161218264548983e+000	 8.473360561693676e-001	 1.275251156978805e+001
 1.152431601274313e+000	 8.592483077629837e-001	 1.265355622485338e+001
 1.143516042136455e+000	 8.710782464220866e-001	 1.256888229530665e+001
 1.134472736867475e+000	 8.828237985709083e-001	 1.249845665663887e+001
 1.125302879357543e+000	 8.944829119304160e-001	 1.244222285629732e+001
 1.116007707164096e+000	 9.060535566869034e-001	 1.240010101236632e+001
 1.208412269333717e+000	 7.900340814408130e-001	 1.348879920834138e+001
 1.200250423524085e+000	 8.023795755994608e-001	 1.331538299873941e+001
 1.191954027645812e+000	 8.146530908822947e-001	 1.315598501636790e+001
 1.183524008606398e+000	 8.268524557351654e-001	 1.301076833966458e+001
 1.174961339560631e+000	 8.389755139695566e-001	 1.287987416089888e+001
 1.166267039607612e+000	 8.510201259833777e-001	 1.276342139611827e+001
 1.157442173449372e+000	 8.629841699751378e-001	 1.266150633279684e+001
 1.148487851011224e+000	 8.748655431500788e-001	 1.257420231630089e+001
 1.139405227024070e+000	 8.866621629168863e-001	 1.250155947620064e+001
 1.130195500568906e+000	 8.983719680735749e-001	 1.244360449335407e+001
 1.120859914583855e+000	 9.099929199811616e-001	 1.240034040859209e+001
 1.213643491274765e+000	 7.934541424042042e-001	 1.350557794362155e+001
 1.205446312799230e+000	 8.058530802604190e-001	 1.332985407615417e+001
 1.197114001787281e+000	 8.181797276439535e-001	 1.316806810350528e+001
 1.188647489159004e+000	 8.304319035999904e-001	 1.302046514325343e+001
 1.180047752281979e+000	 8.426074426058642e-001	 1.288726874443740e+001
 1.171315814666991e+000	 8.547041957971380e-001	 1.276868041025131e+001
 1.162452745625170e+000	 8.667200321870321e-001	 1.266487915768281e+001
 1.153459659886703e+000	 8.786528398777815e-001	 1.257602111535650e+001
 1.144337717181326e+000	 8.905005272625252e-001	 1.250223916075827e+001
 1.135088121780861e+000	 9.022610242163248e-001	 1.244364259791754e+001
 1.125712122004117e+000	 9.139322832749210e-001	 1.240031687652532e+001
 1.218874713216311e+000	 7.968742033670927e-001	 1.351146796344482e+001
 1.210642202074963e+000	 8.093265849209649e-001	 1.333447566138481e+001
 1.202273975929408e+000	 8.217063644052699e-001	 1.317134588634377e+001
 1.193770969712318e+000	 8.340113514645238e-001	 1.302240532215671e+001
 1.185134165004066e+000	 8.462393712419107e-001	 1.288795939569249e+001
 1.176364589727120e+000	 8.583882656106475e-001	 1.276829171267342e+001
 1.167463317801710e+000	 8.704558943986667e-001	 1.266366352969149e+001
 1.158431468762894e+000	 8.824401366051953e-001	 1.257431326382696e+001
 1.149270207339243e+000	 8.943388916078250e-001	 1.250045604119176e+001
 1.139980742993407e+000	 9.061500803586664e-001	 1.244228328562591e+001
 1.130564329424880e+000	 9.178716465681824e-001	 1.239996234867322e+001
 1.224105935158355e+000	 8.002942643294785e-001	 1.350654205303716e+001
 1.215838091351285e+000	 8.128000895810982e-001	 1.332930655487284e+001
 1.207433950072194e+000	 8.252330011662444e-001	 1.316586315850863e+001
 1.198894450266342e+000	 8.375907993287654e-001	 1.301661964779389e+001
 1.190220577726892e+000	 8.498712998776959e-001	 1.288196285516385e+001
 1.181413364787998e+000	 8.620723354239065e-001	 1.276225801095716e+001
 1.172473889978988e+000	 8.741917566100410e-001	 1.265784812818965e+001
 1.163403277639794e+000	 8.862274333323190e-001	 1.256905342434025e+001
 1.154202697497821e+000	 8.981772559527860e-001	 1.249617078161524e+001
 1.144873364206545e+000	 9.100391365005991e-001	 1.243947324706728e+001
 1.135416536846144e+000	 9.218110098609448e-001	 1.239920957384781e+001
 1.229337157100896e+000	 8.037143252913617e-001	 1.349087143209383e+001
 1.221033980628193e+000	 8.162735942408190e-001	 1.331440422684996e+001
 1.212593924215636e+000	 8.287596379268765e-001	 1.315166361928486e+001
 1.204017930821073e+000	 8.411702471927155e-001	 1.300313803355035e+001
 1.195306990450457e+000	 8.535032285132206e-001	 1.286929524195078e+001
 1.186462139849625e+000	 8.657564052369153e-001	 1.275058162812159e+001
 1.177484462157008e+000	 8.779276188211557e-001	 1.264742148493880e+001
 1.168375086517405e+000	 8.900147300591539e-001	 1.256021634885662e+001
 1.159135187657060e+000	 9.020156202974078e-001	 1.248934437228710e+001
 1.149765985420274e+000	 9.139281926421231e-001	 1.243515973554708e+001
 1.140268744267909e+000	 9.257503731532083e-001	 1.239799209979804e+001
 1.234568379043934e+000	 8.071343862527423e-001	 1.346452578794747e+001
 1.226229869905689e+000	 8.197470989001275e-001	 1.328982484552028e+001
 1.217753898359738e+000	 8.322862746871667e-001	 1.312878989680140e+001
 1.209141411376513e+000	 8.447496950563737e-001	 1.298198955295625e+001
 1.200393403174760e+000	 8.571351571484834e-001	 1.284997206691629e+001
 1.191510914912002e+000	 8.694404750496731e-001	 1.273326451077934e+001
 1.182495034335767e+000	 8.816634810320101e-001	 1.263237198722316e+001
 1.173346895395727e+000	 8.938020267856990e-001	 1.254777687677572e+001
 1.164067677816960e+000	 9.058539846416905e-001	 1.247993812270007e+001
 1.154658606634594e+000	 9.178172487832381e-001	 1.242929055516563e+001
 1.145120951690176e+000	 9.296897364449732e-001	 1.239624425628340e+001
 1.239799600987469e+000	 8.105544472136200e-001	 1.342757330789625e+001
 1.231425759183772e+000	 8.232206035590231e-001	 1.325562330452954e+001
 1.222913872504496e+000	 8.358129114471146e-001	 1.309728357063001e+001
 1.214264891932661e+000	 8.483291429197404e-001	 1.295320245740487e+001
 1.205479815899802e+000	 8.607670857834857e-001	 1.282400824552031e+001
 1.196559689975129e+000	 8.731245448621806e-001	 1.271030823707776e+001
 1.187505606515266e+000	 8.853993432426049e-001	 1.261268788089699e+001
 1.178318704274760e+000	 8.975893235119548e-001	 1.253170993309242e+001
 1.169000167977521e+000	 9.096923489856347e-001	 1.246791365484636e+001
 1.159551227849505e+000	 9.217063049239446e-001	 1.242181404919838e+001
 1.149973159112944e+000	 9.336290997362399e-001	 1.239390113857535e+001
 1.245030822931502e+000	 8.139745081739952e-001	 1.338008071071748e+001
 1.236621648462442e+000	 8.266941082175063e-001	 1.321185324974114e+001
 1.228073846649913e+000	 8.393395482067202e-001	 1.305718519381349e+001
 1.219388372489517e+000	 8.519085907828151e-001	 1.291680419342428e+001
 1.210566228625584e+000	 8.643990144182266e-001	 1.279141811032723e+001
 1.201608465039004e+000	 8.768086146744376e-001	 1.268171402443996e+001
 1.192516178695505e+000	 8.891352054529395e-001	 1.258835727335649e+001
 1.183290513154503e+000	 9.013766202379213e-001	 1.251199052659794e+001
 1.173932658138743e+000	 9.135307133292399e-001	 1.245323289665235e+001
 1.164443849065007e+000	 9.255953610642422e-001	 1.241267908876835e+001
 1.154825366536213e+000	 9.375684630270074e-001	 1.239089859137538e+001
 1.250262044876032e+000	 8.173945691338680e-001	 1.332577975219139e+001
 1.241817537741701e+000	 8.301676128755768e-001	 1.315856710534070e+001
 1.233233820795987e+000	 8.428661849659839e-001	 1.300853431434131e+001
 1.224511853047082e+000	 8.554880386455985e-001	 1.287282141951597e+001
 1.215652641352105e+000	 8.680309430527068e-001	 1.275221542320061e+001
 1.206657240103630e+000	 8.804926844864441e-001	 1.264748273711097e+001
 1.197526750876485e+000	 8.928710676630144e-001	 1.255936813643594e+001
 1.188262322034956e+000	 9.051639169635982e-001	 1.248859374812735e+001
 1.178865148300625e+000	 9.173690776725054e-001	 1.243585807557867e+001
 1.169336470281101e+000	 9.294844172041313e-001	 1.240183506180371e+001
 1.159677573959984e+000	 9.415078263172766e-001	 1.238717319313657e+001
 1.255493266821060e+000	 8.208146300932377e-001	 1.333015981330156e+001
 1.247013427021546e+000	 8.336411175332352e-001	 1.309581609928757e+001
 1.238393794942719e+000	 8.463928217249054e-001	 1.295136949608812e+001
 1.229635333605355e+000	 8.590674865080902e-001	 1.282128002257139e+001
 1.220739054079364e+000	 8.716628716869257e-001	 1.270641338719324e+001
 1.211706015169005e+000	 8.841767542982002e-001	 1.260761489351585e+001
 1.202537323058205e+000	 8.966069298728294e-001	 1.252570830923198e+001
 1.193234130916121e+000	 9.089512136889860e-001	 1.246149476885006e+001
 1.183797638463169e+000	 9.212074420154325e-001	 1.241575171237943e+001
 1.174229091497786e+000	 9.333734733436117e-001	 1.238923186227049e+001
 1.164529781384256e+000	 9.454471896070471e-001	 1.238266224077697e+001
 1.116007707164096e+000	 9.060535566869034e-001	 1.240010101236632e+001
 1.106588500983603e+000	 9.175337266468745e-001	 1.225339508322494e+001
 1.097046584087751e+000	 9.289214403774377e-001	 1.210884302729787e+001
 1.087383321723656e+000	 9.402147423304352e-001	 1.196619643053147e+001
 1.077600120477664e+000	 9.514117039486579e-001	 1.182519550267165e+001
 1.067698427604757e+000	 9.625104247534099e-001	 1.168556932903131e+001
 1.057679730323750e+000	 9.735090334119493e-001	 1.154703614966062e+001
 1.047545555079003e+000	 9.844056887835539e-001	 1.140930366554837e+001
 1.037297466769393e+000	 9.951985809429892e-001	 1.127206937140774e+001
 1.026937067945379e+000	 1.005885932180191e+000	 1.113502091451125e+001
 1.016465997975000e+000	 1.016465997975000e+000	 1.099783647896283e+001
 1.120859914583855e+000	 9.099929199811616e-001	 1.240034040859209e+001
 1.111399755333585e+000	 9.215230037235411e-001	 1.225137376157624e+001
 1.101816351843089e+000	 9.329602292528665e-001	 1.210586535616791e+001
 1.092111075295340e+000	 9.443026325185966e-001	 1.196357165323560e+001
 1.082285338392278e+000	 9.555482765784910e-001	 1.182423650603624e+001
 1.072340594681296e+000	 9.666952526909032e-001	 1.168759140481825e+001
 1.062278337847380e+000	 9.777416813868619e-001	 1.155335575058368e+001
 1.052100100971601e+000	 9.886857135206854e-001	 1.142123715765453e+001
 1.041807455756748e+000	 9.995255312978982e-001	 1.129093178460471e+001
 1.031402011720889e+000	 1.010259349279263e+000	 1.116212469303094e+001
 1.020885415359750e+000	 1.020885415359750e+000	 1.103449023355237e+001
 1.125712122004117e+000	 9.139322832749210e-001	 1.240031687652532e+001
 1.116211009683968e+000	 9.255122807996187e-001	 1.224913807442358e+001
 1.106586119598727e+000	 9.369990181276361e-001	 1.210271628522705e+001
 1.096838828867224e+000	 9.483905227060490e-001	 1.196081281457462e+001
 1.086970556306992e+000	 9.596848492075851e-001	 1.182317513147037e+001
 1.076982761757835e+000	 9.708800806276471e-001	 1.168953710575218e+001
 1.066876945370909e+000	 9.819743293610350e-001	 1.155961927647341e+001
 1.056654646864000e+000	 9.929657382571069e-001	 1.143312915086093e+001
 1.046317444743804e+000	 1.003852481652148e+000	 1.130976153341874e+001
 1.035866955495999e+000	 1.014632766377745e+000	 1.118919888465862e+001
 1.025304832744000e+000	 1.025304832744000e+000	 1.107111170884959e+001
 1.130564329424880e+000	 9.178716465681824e-001	 1.239996234867322e+001
 1.121022264034753e+000	 9.295015578751081e-001	 1.224661910445148e+001
 1.111355887354667e+000	 9.410378070017470e-001	 1.209932616479023e+001
 1.101566582439310e+000	 9.524784128927921e-001	 1.195784965045129e+001
 1.091655774221807e+000	 9.638214218359399e-001	 1.182194061884763e+001
 1.081624928834375e+000	 9.750649085636418e-001	 1.169133529440460e+001
 1.071475552894339e+000	 9.862069773344683e-001	 1.156575533159039e+001
 1.061209192756199e+000	 9.972457629928186e-001	 1.144490811029058e+001
 1.050827433730559e+000	 1.008179432005737e+000	 1.132848706310977e+001
 1.040331899270710e+000	 1.019006183475637e+000	 1.121617203408494e+001
 1.029724250127750e+000	 1.029724250127750e+000	 1.110762966820738e+001
 1.135416536846144e+000	 9.218110098609448e-001	 1.239920957384781e+001
 1.125833518385939e+000	 9.334908349500082e-001	 1.224374876427392e+001
 1.116125655110908e+000	 9.450765958751990e-001	 1.209562618690765e+001
 1.106294336011597e+000	 9.565663030788263e-001	 1.195461274848395e+001
 1.096340992136722e+000	 9.679579944635550e-001	 1.182046306790382e+001
 1.086267095910916e+000	 9.792497364988867e-001	 1.169291569951735e+001
 1.076074160417669e+000	 9.904396253071618e-001	 1.157169339082929e+001
 1.065763738648198e+000	 1.001525787727820e+000	 1.145650337431787e+001
 1.055337422717015e+000	 1.012506382358666e+000	 1.134703769295670e+001
 1.044796843045020e+000	 1.023379600572939e+000	 1.124297355893638e+001
 1.034143667511000e+000	 1.034143667511000e+000	 1.114397374498054e+001
 1.140268744267909e+000	 9.257503731532083e-001	 1.239799209979804e+001
 1.130644772737526e+000	 9.374801120243199e-001	 1.224045977877603e+001
 1.120895422867451e+000	 9.491153847479923e-001	 1.209154836745633e+001
 1.111022089584085e+000	 9.606541932641511e-001	 1.195103352988523e+001
 1.101026210051739e+000	 9.720945670904312e-001	 1.181867341994250e+001
 1.090909262987458e+000	 9.834345644333823e-001	 1.169420889757311e+001
 1.080672767940900e+000	 9.946722732791161e-001	 1.157736378119566e+001
 1.070318284539998e+000	 1.005805812462112e+000	 1.146784513598880e+001
 1.059847411703171e+000	 1.016833332710936e+000	 1.136534359766105e+001
 1.049261786818930e+000	 1.027753017669651e+000	 1.126953373120202e+001
 1.038563084893750e+000	 1.038563084893750e+000	 1.118007442401535e+001
 1.145120951690176e+000	 9.296897364449732e-001	 1.239624425628340e+001
 1.135456027089515e+000	 9.414693890980430e-001	 1.223668566790530e+001
 1.125665190624295e+000	 9.531541736201262e-001	 1.208702552868528e+001
 1.115749843156775e+000	 9.647420834487671e-001	 1.194704423180069e+001
 1.105711427966857e+000	 9.762311397165681e-001	 1.181650344000484e+001
 1.095551430064000e+000	 9.876193923671283e-001	 1.169514629483565e+001
 1.085271375464031e+000	 9.989049212503305e-001	 1.158269766375163e+001
 1.074872830431597e+000	 1.010085837195695e+000	 1.147886442491333e+001
 1.064357400689027e+000	 1.021160283062546e+000	 1.138333578922379e+001
 1.053726730592440e+000	 1.032126434765774e+000	 1.129578365913280e+001
 1.042982502276000e+000	 1.042982502276000e+000	 1.121586302360918e+001
 1.149973159112944e+000	 9.336290997362399e-001	 1.239390113857535e+001
 1.140267281441904e+000	 9.454586661711770e-001	 1.223236072989763e+001
 1.130434958381440e+000	 9.571929624916020e-001	 1.208199128220416e+001
 1.120477596729665e+000	 9.688299736326740e-001	 1.194257789009559e+001
 1.110396645882075e+000	 9.803677123419654e-001	 1.181388569949161e+001
 1.100193597140542e+000	 9.918042203001248e-001	 1.169566010984288e+001
 1.089869982987063e+000	 1.003137569220805e+000	 1.158762701602049e+001
 1.079427376322998e+000	 1.014365861928567e+000	 1.148949308961693e+001
 1.068867389674583e+000	 1.025487233413495e+000	 1.140094609928057e+001
 1.058191674365551e+000	 1.036499851861306e+000	 1.132165526959824e+001
 1.047401919657750e+000	 1.047401919657750e+000	 1.125127167792734e+001
 1.154825366536213e+000	 9.375684630270074e-001	 1.239089859137538e+001
 1.145078535794696e+000	 9.494479432437226e-001	 1.222742002492734e+001
 1.135204726138886e+000	 9.612317513624183e-001	 1.207638001239943e+001
 1.125205350302756e+000	 9.729178638158719e-001	 1.193756832257421e+001
 1.115081863797394e+000	 9.845042849666236e-001	 1.181075355922234e+001
 1.104835764217085e+000	 9.959890482323718e-001	 1.169568335634330e+001
 1.094468590509995e+000	 1.007370217190540e+000	 1.159208461483432e+001
 1.083981922214198e+000	 1.018645886660730e+000	 1.149966378033546e+001
 1.073377378659839e+000	 1.029814183763785e+000	 1.141810716188263e+001
 1.062656618138261e+000	 1.040873268956248e+000	 1.134708129088943e+001
 1.051821337039000e+000	 1.051821337039000e+000	 1.128623331986304e+001
 1.159677573959984e+000	 9.415078263172766e-001	 1.238717319313657e+001
 1.149889790147888e+000	 9.534372203156791e-001	 1.222179935916657e+001
 1.139974493896633e+000	 9.652705402325760e-001	 1.207012686026816e+001
 1.129933103876048e+000	 9.770057539983607e-001	 1.193195011262244e+001
 1.119767081712815e+000	 9.886408575905428e-001	 1.180704115292062e+001
 1.109477931293629e+000	 1.000173876163869e+000	 1.169514982665878e+001
 1.099067198032828e+000	 1.011602865159535e+000	 1.159600401961139e+001
 1.088536468105199e+000	 1.022925911392182e+000	 1.150930993224438e+001
 1.077887367644796e+000	 1.034141134113415e+000	 1.143475239671010e+001
 1.067121561910572e+000	 1.045246686050601e+000	 1.137199523595236e+001
 1.056240754419750e+000	 1.056240754419750e+000	 1.132068166432746e+001
 1.164529781384256e+000	 9.454471896070471e-001	 1.238266224077697e+001
 1.154701044501482e+000	 9.574264973870472e-001	 1.221543526924394e+001
 1.144744261654681e+000	 9.693093291020749e-001	 1.206316770765459e+001
 1.134660857449541e+000	 9.810936441801405e-001	 1.192565859325723e+001
 1.124452299628336e+000	 9.927774302137222e-001	 1.180268337111182e+001
 1.114120098370174e+000	 1.004358704094617e+000	 1.169399407546513e+001
 1.103665805555561e+000	 1.015835513127791e+000	 1.159931955605286e+001
 1.093091013996000e+000	 1.027205936122925e+000	 1.151836574910443e+001
 1.082397356629452e+000	 1.038468084462385e+000	 1.145081599270402e+001
 1.071586505682482e+000	 1.049620103144363e+000	 1.139633138604110e+001
 1.060660171800000e+000	 1.060660171800000e+000	 1.135455119195783e+001
 1.016465997975000e+000	 1.016465997975000e+000	 1.099783647896283e+001
 1.005885932180191e+000	 1.026937067945379e+000	 1.080819226381025e+001
 9.951985809429891e-001	 1.037297466769393e+000	 1.063400882851129e+001
 9.844056887835538e-001	 1.047545555079003e+000	 1.047541478059990e+001
 9.735090334119494e-001	 1.057679730323751e+000	 1.033251539825750e+001
 9.625104247534098e-001	 1.067698427604757e+000	 1.020539265156877e+001
 9.514117039486579e-001	 1.077600120477664e+000	 1.009410526586449e+001
 9.402147423304353e-001	 1.087383321723656e+000	 9.998688826770151e+000
 9.289214403774374e-001	 1.097046584087751e+000	 9.919155926468786e+000
 9.175337266468745e-001	 1.106588500983603e+000	 9.855496350580568e+000
 9.060535566869034e-001	 1.116007707164096e+000	 9.807677304956526e+000
 1.020885415359750e+000	 1.020885415359750e+000	 1.103449023355237e+001
 1.010259349279263e+000	 1.031402011720889e+000	 1.085942901219313e+001
 9.995255312978983e-001	 1.041807455756748e+000	 1.069670793901306e+001
 9.886857135206852e-001	 1.052100100971601e+000	 1.054635075798371e+001
 9.777416813868620e-001	 1.062278337847380e+000	 1.040836100012796e+001
 9.666952526909033e-001	 1.072340594681296e+000	 1.028272211158787e+001
 9.555482765784911e-001	 1.082285338392278e+000	 1.016939761947311e+001
 9.443026325185967e-001	 1.092111075295340e+000	 1.006833133494011e+001
 9.329602292528664e-001	 1.101816351843089e+000	 9.979447592850804e+000
 9.215230037235409e-001	 1.111399755333585e+000	 9.902651527264263e+000
 9.099929199811616e-001	 1.120859914583855e+000	 9.837829381920617e+000
 1.025304832744000e+000	 1.025304832744000e+000	 1.107111170884959e+001
 1.014632766377745e+000	 1.035866955495999e+000	 1.090924229818223e+001
 1.003852481652148e+000	 1.046317444743804e+000	 1.075662449065949e+001
 9.929657382571065e-001	 1.056654646864000e+000	 1.061317780118700e+001
 9.819743293610350e-001	 1.066876945370909e+000	 1.047880462565606e+001
 9.708800806276471e-001	 1.076982761757835e+000	 1.035339047530930e+001
 9.596848492075851e-001	 1.086970556306992e+000	 1.023680424460997e+001
 9.483905227060487e-001	 1.096838828867224e+000	 1.012889851189674e+001
 9.369990181276359e-001	 1.106586119598727e+000	 1.002950987201414e+001
 9.255122807996187e-001	 1.116211009683968e+000	 9.938459300024784e+000
 9.139322832749214e-001	 1.125712122004117e+000	 9.855552545023279e+000
 1.029724250127750e+000	 1.029724250127750e+000	 1.110762966820738e+001
 1.019006183475637e+000	 1.040331899270710e+000	 1.095757902601836e+001
 1.008179432005737e+000	 1.050827433730559e+000	 1.081372315978642e+001
 9.972457629928183e-001	 1.061209192756199e+000	 1.067587798130481e+001
 9.862069773344684e-001	 1.071475552894339e+000	 1.054384535506010e+001
 9.750649085636418e-001	 1.081624928834375e+000	 1.041741343838866e+001
 9.638214218359398e-001	 1.091655774221807e+000	 1.029635705088738e+001
 9.524784128927922e-001	 1.101566582439310e+000	 1.018043807219662e+001
 9.410378070017470e-001	 1.111355887354668e+000	 1.006940586718568e+001
 9.295015578751081e-001	 1.121022264034753e+000	 9.962997737499128e+000
 9.178716465681824e-001	 1.130564329424880e+000	 9.860939398345519e+000
 1.034143667511000e+000	 1.034143667511000e+000	 1.114397374498054e+001
 1.023379600572939e+000	 1.044796843045020e+000	 1.100438666083447e+001
 1.012506382358666e+000	 1.055337422717015e+000	 1.086796888100057e+001
 1.001525787727820e+000	 1.065763738648198e+000	 1.073443333171562e+001
 9.904396253071619e-001	 1.076074160417669e+000	 1.060348194162892e+001
 9.792497364988867e-001	 1.086267095910916e+000	 1.047480608724737e+001
 9.679579944635550e-001	 1.096340992136722e+000	 1.034808706341909e+001
 9.565663030788262e-001	 1.106294336011597e+000	 1.022299657780074e+001
 9.450765958751991e-001	 1.116125655110909e+000	 1.009919726818810e+001
 9.334908349500082e-001	 1.125833518385939e+000	 9.976343241515725e+000
 9.218110098609448e-001	 1.135416536846144e+000	 9.854080633272664e+000
 1.038563084893750e+000	 1.038563084893750e+000	 1.118007442401535e+001
 1.027753017669651e+000	 1.049261786818930e+000	 1.104961321672162e+001
 1.016833332710936e+000	 1.059847411703171e+000	 1.091932684168493e+001
 1.005805812462112e+000	 1.070318284539998e+000	 1.078882584888497e+001
 9.946722732791159e-001	 1.080672767940900e+000	 1.065771281867747e+001
 9.834345644333822e-001	 1.090909262987458e+000	 1.052558291203571e+001
 9.720945670904312e-001	 1.101026210051739e+000	 1.039202444164026e+001
 9.606541932641513e-001	 1.111022089584085e+000	 1.025661946259815e+001
 9.491153847479920e-001	 1.120895422867451e+000	 1.011894438151178e+001
 9.374801120243199e-001	 1.130644772737526e+000	 9.978570582558445e+000
 9.257503731532084e-001	 1.140268744267909e+000	 9.835065069189437e+000
 1.042982502276000e+000	 1.042982502276000e+000	 1.121586302360918e+001
 1.032126434765774e+000	 1.053726730592441e+000	 1.109320724509862e+001
 1.021160283062546e+000	 1.064357400689027e+000	 1.096776247664290e+001
 1.010085837195694e+000	 1.074872830431597e+000	 1.083903749314624e+001
 9.989049212503307e-001	 1.085271375464031e+000	 1.070653610632608e+001
 9.876193923671282e-001	 1.095551430064000e+000	 1.056975781926462e+001
 9.762311397165678e-001	 1.105711427966856e+000	 1.042819849764757e+001
 9.647420834487672e-001	 1.115749843156775e+000	 1.028135105630572e+001
 9.531541736201263e-001	 1.125665190624295e+000	 1.012870615962320e+001
 9.414693890980429e-001	 1.135456027089515e+000	 9.969752934329085e+000
 9.296897364449733e-001	 1.145120951690176e+000	 9.803979693141189e+000
 1.047401919657750e+000	 1.047401919657750e+000	 1.125127167792734e+001
 1.036499851861306e+000	 1.058191674365551e+000	 1.113511782337576e+001
 1.025487233413495e+000	 1.068867389674583e+000	 1.101324146287887e+001
 1.014365861928567e+000	 1.079427376322998e+000	 1.088505018946390e+001
 1.003137569220805e+000	 1.089869982987063e+000	 1.074994961810790e+001
 9.918042203001246e-001	 1.100193597140542e+000	 1.060734414411982e+001
 9.803677123419654e-001	 1.110396645882075e+000	 1.045663771407614e+001
 9.688299736326739e-001	 1.120477596729664e+000	 1.029723460776274e+001
 9.571929624916017e-001	 1.130434958381440e+000	 1.012854022953069e+001
 9.454586661711769e-001	 1.140267281441904e+000	 9.949961907434691e+000
 9.336290997362399e-001	 1.149973159112944e+000	 9.760909698490906e+000
 1.051821337039000e+000	 1.051821337039000e+000	 1.128623331986304e+001
 1.040873268956249e+000	 1.062656618138261e+000	 1.117529454390498e+001
 1.029814183763785e+000	 1.073377378659839e+000	 1.105572971450963e+001
 1.018645886660729e+000	 1.083981922214198e+000	 1.092684582817605e+001
 1.007370217190540e+000	 1.094468590509995e+000	 1.078795086741010e+001
 9.959890482323716e-001	 1.104835764217085e+000	 1.063835466246393e+001
 9.845042849666236e-001	 1.115081863797394e+000	 1.047736976152450e+001
 9.729178638158719e-001	 1.125205350302756e+000	 1.030431230763891e+001
 9.612317513624183e-001	 1.135204726138886e+000	 1.011850292063007e+001
 9.494479432437226e-001	 1.145078535794696e+000	 9.919267582225761e+000
 9.375684630270074e-001	 1.154825366536213e+000	 9.705938522601544e+000
 1.056240754419750e+000	 1.056240754419750e+000	 1.132068166432746e+001
 1.045246686050601e+000	 1.067121561910572e+000	 1.121368750320661e+001
 1.034141134113415e+000	 1.077887367644796e+000	 1.109519337780395e+001
 1.022925911392182e+000	 1.088536468105199e+000	 1.096440626571899e+001
 1.011602865159535e+000	 1.099067198032828e+000	 1.082053707375238e+001
 1.000173876163869e+000	 1.109477931293629e+000	 1.066280160253771e+001
 9.886408575905425e-001	 1.119767081712815e+000	 1.049042151554317e+001
 9.770057539983605e-001	 1.129933103876048e+000	 1.030262531057118e+001
 9.652705402325761e-001	 1.139974493896633e+000	 1.009864929185152e+001
 9.534372203156791e-001	 1.149889790147888e+000	 9.877738540809792e+000
 9.415078263172766e-001	 1.159677573959984e+000	 9.639147883572639e+000
 1.060660171800000e+000	 1.060660171800000e+000	 1.135455119195783e+001
 1.049620103144363e+000	 1.071586505682483e+000	 1.125024729146611e+001
 1.038468084462385e+000	 1.082397356629452e+000	 1.113159882634626e+001
 1.027205936122925e+000	 1.093091013996000e+000	 1.099771332533339e+001
 1.015835513127791e+000	 1.103665805555561e+000	 1.084770516890995e+001
 1.004358704094617e+000	 1.114120098370174e+000	 1.068069665636901e+001
 9.927774302137223e-001	 1.124452299628336e+000	 1.049581907319843e+001
 9.810936441801405e-001	 1.134660857449541e+000	 1.029221375674825e+001
 9.693093291020748e-001	 1.144744261654682e+000	 1.006903315812760e+001
 9.574264973870474e-001	 1.154701044501482e+000	 9.825441898264414e+000
 9.454471896070470e-001	 1.164529781384256e+000	 9.560617816057770e+000
 9.060535566869034e-001	 1.116007707164096e+000	 9.807677304956526e+000
 8.944829119304159e-001	 1.125302879357542e+000	 9.702308956048961e+000
 8.828237985709084e-001	 1.134472736867475e+000	 9.566415542551885e+000
 8.710782464220863e-001	 1.143516042136455e+000	 9.398724218317412e+000
 8.592483077629837e-001	 1.152431601274313e+000	 9.197991025664928e+000
 8.473360561693675e-001	 1.161218264548983e+000	 8.963002296345058e+000
 8.353435853329877e-001	 1.169874926840022e+000	 8.692576012955371e+000
 8.232730078700490e-001	 1.178400528054499e+000	 8.385563128376782e+000
 8.111264541202936e-001	 1.186794053505000e+000	 8.040848840887641e+000
 7.989060709380897e-001	 1.195054534249526e+000	 7.657353822714520e+000
 7.866140204769193e-001	 1.203181047393165e+000	 7.234035399878770e+000
 9.099929199811616e-001	 1.120859914583855e+000	 9.837829381920617e+000
 8.983719680735749e-001	 1.130195500568906e+000	 9.702047632255141e+000
 8.866621629168866e-001	 1.139405227024070e+000	 9.544774858626655e+000
 8.748655431500784e-001	 1.148487851011224e+000	 9.364941338060977e+000
 8.629841699751379e-001	 1.157442173449372e+000	 9.161496611515375e+000
 8.510201259833777e-001	 1.166267039607612e+000	 8.933410724683291e+000
 8.389755139695566e-001	 1.174961339560631e+000	 8.679675443167961e+000
 8.268524557351656e-001	 1.183524008606397e+000	 8.399305439747081e+000
 8.146530908822947e-001	 1.191954027645812e+000	 8.091339451513514e+000
 8.023795755994608e-001	 1.200250423524085e+000	 7.754841404747406e+000
 7.900340814408130e-001	 1.208412269333717e+000	 7.388901505438141e+000
 9.139322832749214e-001	 1.125712122004117e+000	 9.855552545023279e+000
 9.022610242163249e-001	 1.135088121780861e+000	 9.692507205622306e+000
 8.905005272625254e-001	 1.144337717181326e+000	 9.516928176439640e+000
 8.786528398777815e-001	 1.153459659886703e+000	 9.327947502662680e+000
 8.667200321870323e-001	 1.162452745625171e+000	 9.124706921935308e+000
 8.547041957971379e-001	 1.171315814666991e+000	 8.906358945979683e+000
 8.426074426058642e-001	 1.180047752281979e+000	 8.672067930435544e+000
 8.304319035999906e-001	 1.188647489159004e+000	 8.421011130791777e+000
 8.181797276439534e-001	 1.197114001787281e+000	 8.152379742323312e+000
 8.058530802604190e-001	 1.205446312799230e+000	 7.865379921979374e+000
 7.934541424042041e-001	 1.213643491274765e+000	 7.559233790209001e+000
 9.178716465681824e-001	 1.130564329424880e+000	 9.860939398345519e+000
 9.061500803586664e-001	 1.139980742993407e+000	 9.673740374498227e+000
 8.943388916078253e-001	 1.149270207339243e+000	 9.482889314824497e+000
 8.824401366051949e-001	 1.158431468762894e+000	 9.287718694303008e+000
 8.704558943986666e-001	 1.167463317801710e+000	 9.087561161232657e+000
 8.583882656106475e-001	 1.176364589727120e+000	 8.881750460638788e+000
 8.462393712419108e-001	 1.185134165004066e+000	 8.669622359674635e+000
 8.340113514645240e-001	 1.193770969712319e+000	 8.450515573050854e+000
 8.217063644052699e-001	 1.202273975929409e+000	 8.223772686526518e+000
 8.093265849209649e-001	 1.210642202074963e+000	 7.988741076504767e+000
 7.968742033670927e-001	 1.218874713216311e+000	 7.744773823780430e+000
 9.218110098609448e-001	 1.135416536846144e+000	 9.854080633272664e+000
 9.100391365005991e-001	 1.144873364206545e+000	 9.645798609428985e+000
 8.981772559527859e-001	 1.154202697497821e+000	 9.442671532326820e+000
 8.862274333323189e-001	 1.163403277639794e+000	 9.244230984717245e+000
 8.741917566100411e-001	 1.172473889978989e+000	 9.049999255167597e+000
 8.620723354239066e-001	 1.181413364787998e+000	 8.859490104206095e+000
 8.498712998776961e-001	 1.190220577726892e+000	 8.672209546173054e+000
 8.375907993287656e-001	 1.198894450266342e+000	 8.487656644966977e+000
 8.252330011662442e-001	 1.207433950072194e+000	 8.305324321844266e+000
 8.128000895810981e-001	 1.215838091351284e+000	 8.124700173402820e+000
 8.002942643294784e-001	 1.224105935158354e+000	 7.945267297865073e+000
 9.257503731532084e-001	 1.140268744267909e+000	 9.835065069189437e+000
 9.139281926421230e-001	 1.149765985420274e+000	 9.608732179283122e+000
 9.020156202974080e-001	 1.159135187657060e+000	 9.396287539124552e+000
 8.900147300591536e-001	 1.168375086517405e+000	 9.197460533289773e+000
 8.779276188211556e-001	 1.177484462157008e+000	 9.011961835603064e+000
 8.657564052369151e-001	 1.186462139849625e+000	 8.839484018962242e+000
 8.535032285132206e-001	 1.195306990450457e+000	 8.679702194517184e+000
 8.411702471927155e-001	 1.204017930821073e+000	 8.532274678546646e+000
 8.287596379268766e-001	 1.212593924215637e+000	 8.396843685306207e+000
 8.162735942408189e-001	 1.221033980628193e+000	 8.273036044077957e+000
 8.037143252913617e-001	 1.229337157100896e+000	 8.160463938593709e+000
 9.296897364449733e-001	 1.145120951690176e+000	 9.803979693141189e+000
 9.178172487832382e-001	 1.154658606634594e+000	 9.562590176710208e+000
 9.058539846416911e-001	 1.164067677816960e+000	 9.343749508646113e+000
 8.938020267856988e-001	 1.173346895395727e+000	 9.147383585197487e+000
 8.816634810320101e-001	 1.182495034335767e+000	 8.973390225544693e+000
 8.694404750496731e-001	 1.191510914912002e+000	 8.821639626236291e+000
 8.571351571484834e-001	 1.200393403174760e+000	 8.691974858565908e+000
 8.447496950563737e-001	 1.209141411376513e+000	 8.584212407378704e+000
 8.322862746871665e-001	 1.217753898359738e+000	 8.498142749706462e+000
 8.197470989001274e-001	 1.226229869905688e+000	 8.433530971549367e+000
 8.071343862527423e-001	 1.234568379043934e+000	 8.390117421041490e+000
 9.336290997362399e-001	 1.149973159112944e+000	 9.760909698490906e+000
 9.217063049239446e-001	 1.159551227849505e+000	 9.507420542955934e+000
 9.096923489856348e-001	 1.169000167977521e+000	 9.285069088893978e+000
 8.975893235119549e-001	 1.178318704274760e+000	 9.093976469599850e+000
 8.853993432426049e-001	 1.187505606515266e+000	 8.934226424559448e+000
 8.731245448621807e-001	 1.196559689975128e+000	 8.805865599422829e+000
 8.607670857834857e-001	 1.205479815899803e+000	 8.708903902435212e+000
 8.483291429197405e-001	 1.214264891932661e+000	 8.643314915967720e+000
 8.358129114471143e-001	 1.222913872504496e+000	 8.609036361667389e+000
 8.232206035590229e-001	 1.231425759183772e+000	 8.605970617632931e+000
 8.105544472136200e-001	 1.239799600987469e+000	 8.633985285915784e+000
 9.375684630270074e-001	 1.154825366536213e+000	 9.705938522601544e+000
 9.255953610642423e-001	 1.164443849065007e+000	 9.443270092051581e+000
 9.135307133292396e-001	 1.173932658138742e+000	 9.220257413483903e+000
 9.013766202379212e-001	 1.183290513154503e+000	 9.037215597873891e+000
 8.891352054529396e-001	 1.192516178695505e+000	 8.894413094562649e+000
 8.768086146744375e-001	 1.201608465039004e+000	 8.792071837677577e+000
 8.643990144182266e-001	 1.210566228625584e+000	 8.730367462467877e+000
 8.519085907828153e-001	 1.219388372489517e+000	 8.709429590344572e+000
 8.393395482067202e-001	 1.228073846649913e+000	 8.729342181264993e+000
 8.266941082175063e-001	 1.236621648462442e+000	 8.790143951957299e+000
 8.139745081739952e-001	 1.245030822931502e+000	 8.891828858346038e+000
 9.415078263172766e-001	 1.159677573959984e+000	 9.639147883572639e+000
 9.294844172041312e-001	 1.169336470281101e+000	 9.370184534395241e+000
 9.173690776725055e-001	 1.178865148300625e+000	 9.149325112405226e+000
 9.051639169635980e-001	 1.188262322034956e+000	 8.977077461894966e+000
 8.928710676630145e-001	 1.197526750876485e+000	 8.853893545960924e+000
 8.804926844864440e-001	 1.206657240103630e+000	 8.780169440273948e+000
 8.680309430527067e-001	 1.215652641352104e+000	 8.756245410158057e+000
 8.554880386455986e-001	 1.224511853047082e+000	 8.782406069918299e+000
 8.428661849659838e-001	 1.233233820795987e+000	 8.858880623170339e+000
 8.301676128755771e-001	 1.241817537741700e+000	 8.985843182763592e+000
 8.173945691338680e-001	 1.250262044876032e+000	 9.131521672314205e+000
 9.454471896070470e-001	 1.164529781384256e+000	 9.560617816057770e+000
 9.333734733436114e-001	 1.174229091497786e+000	 9.288208499744286e+000
 9.212074420154326e-001	 1.183797638463169e+000	 9.072282322513530e+000
 9.089512136889858e-001	 1.193234130916121e+000	 8.913538632359336e+000
 8.966069298728295e-001	 1.202537323058205e+000	 8.812611724142474e+000
 8.841767542982003e-001	 1.211706015169005e+000	 8.770070681600272e+000
 8.716628716869257e-001	 1.220739054079364e+000	 8.786419316002045e+000
 8.590674865080902e-001	 1.229635333605355e+000	 8.862096200529727e+000
 8.463928217249052e-001	 1.238393794942719e+000	 8.997474799261893e+000
 8.336411175332353e-001	 1.247013427021546e+000	 9.192863689433018e+000
 8.208146300932377e-001	 1.255493266821059e+000	 8.782446938979341e+000
 7.866140204769193e-001	 1.203181047393165e+000	 7.234035399878770e+000
 7.742524789681906e-001	 1.211172716351274e+000	 6.980428108890878e+000
 7.618236354971839e-001	 1.219028711074619e+000	 6.826943282017641e+000
 7.493296907765696e-001	 1.226748248236175e+000	 6.774975989933010e+000
 7.367728559179372e-001	 1.234330591379383e+000	 6.825808059067494e+000
 7.241553512041193e-001	 1.241775051028446e+000	 6.980607876002180e+000
 7.114794048631932e-001	 1.249080984760714e+000	 7.240430347340127e+000
 6.987472518454979e-001	 1.256247797241406e+000	 6.754182032783236e+000
 6.859611326049917e-001	 1.263274940220960e+000	 6.248833180155957e+000
 6.731232918862481e-001	 1.270161912495386e+000	 5.850061168210789e+000
 6.602359775183677e-001	 1.276908259829992e+000	 5.559473333942156e+000
 7.900340814408130e-001	 1.208412269333717e+000	 7.388901505438141e+000
 7.776187940995730e-001	 1.216438684678813e+000	 7.234203127723010e+000
 7.651359121787212e-001	 1.224328835901213e+000	 7.173607754699162e+000
 7.525876459592436e-001	 1.232081936268125e+000	 7.208349329385859e+000
 7.399762161662590e-001	 1.239697246121003e+000	 7.339555324565566e+000
 7.273038527360041e-001	 1.247174072986329e+000	 7.568246652931242e+000
 7.145727935845044e-001	 1.254511771648311e+000	 7.288367594142005e+000
 7.017852833792756e-001	 1.261709744183755e+000	 6.728703148956598e+000
 6.889435723153800e-001	 1.268767439959407e+000	 6.266853664098735e+000
 6.760499148971507e-001	 1.275684355592126e+000	 5.904434294042740e+000
 6.631065687268594e-001	 1.282460034872289e+000	 5.642956105506890e+000
 7.934541424042041e-001	 1.213643491274765e+000	 7.559233790209001e+000
 7.809851092303634e-001	 1.221704653006748e+000	 7.501103706332992e+000
 7.684481888595963e-001	 1.229628960728105e+000	 7.531116807796688e+000
 7.558456011412063e-001	 1.237415624300272e+000	 7.650346752221858e+000
 7.431795764138404e-001	 1.245063900862719e+000	 7.859767457627750e+000
 7.304523542671393e-001	 1.252573094944208e+000	 7.818944386574131e+000
 7.176661823050773e-001	 1.259942558535805e+000	 7.218519292411731e+000
 7.048233149123456e-001	 1.267171691125901e+000	 6.707320126384837e+000
 6.919260120251114e-001	 1.274259939697551e+000	 6.286954971460478e+000
 6.789765379074673e-001	 1.281206798688463e+000	 5.958936168082994e+000
 6.659771599348549e-001	 1.288011809914083e+000	 5.724679205121278e+000
 7.968742033670927e-001	 1.218874713216311e+000	 7.744773823780430e+000
 7.843514243605609e-001	 1.226970621335082e+000	 7.780902546205954e+000
 7.717604655398097e-001	 1.234929085555294e+000	 7.899273535813394e+000
 7.591035563224576e-001	 1.242749312332616e+000	 8.100800995127305e+000
 7.463829366606812e-001	 1.250430555604533e+000	 8.330024499559087e+000
 7.336008557975249e-001	 1.257972116902085e+000	 7.701994068548616e+000
 7.207595710249116e-001	 1.265373345423195e+000	 7.154793073668287e+000
 7.078613464447079e-001	 1.272633638067844e+000	 6.690007720822504e+000
 6.949084517341859e-001	 1.279752439435389e+000	 6.309136846495051e+000
 6.819031609171972e-001	 1.286729241784396e+000	 6.013590706406027e+000
 6.688477511423544e-001	 1.293563584955372e+000	 5.804689896722503e+000
 8.002942643294784e-001	 1.224105935158354e+000	 7.945267297865073e+000
 7.877177394901663e-001	 1.232236589663812e+000	 8.073375942959100e+000
 7.750727422193610e-001	 1.240229210382780e+000	 8.277884112143759e+000
 7.623615115029974e-001	 1.248083000365157e+000	 8.559547371388701e+000
 7.495862969067814e-001	 1.255797210346444e+000	 8.163459352242239e+000
 7.367493573271609e-001	 1.263371138859958e+000	 7.593201915264820e+000
 7.238529597440071e-001	 1.270804132310482e+000	 7.097139045612810e+000
 7.108993779763629e-001	 1.278095585009583e+000	 6.676741388624333e+000
 6.978908914426039e-001	 1.285244939172925e+000	 6.333399299182302e+000
 6.848297839263412e-001	 1.292251684879925e+000	 6.068421669887837e+000
 6.717183423493577e-001	 1.299115359996157e+000	 5.883034882207703e+000
 8.037143252913617e-001	 1.229337157100896e+000	 8.160463938593709e+000
 7.910840546191789e-001	 1.237502557992939e+000	 8.378303709871142e+000
 7.783850188982502e-001	 1.245529335210563e+000	 8.666757723564817e+000
 7.656194666828260e-001	 1.253416688397896e+000	 8.587889602624367e+000
 7.527896571521411e-001	 1.261163865088452e+000	 8.007096494572231e+000
 7.398978588560475e-001	 1.268770160817828e+000	 7.492493476321621e+000
 7.269463484623645e-001	 1.276234919197665e+000	 7.045508440776110e+000
 7.139374095073099e-001	 1.283557531951117e+000	 6.667497271839232e+000
 7.008733311503648e-001	 1.290737438910157e+000	 6.359742599573805e+000
 6.877564069348985e-001	 1.297774127975050e+000	 6.123452667507656e+000
 6.745889335558651e-001	 1.304667135036438e+000	 5.959760313391961e+000
 8.071343862527423e-001	 1.234568379043934e+000	 8.390117421041490e+000
 7.944503697475994e-001	 1.242768526322464e+000	 8.695469103355700e+000
 7.816972955764773e-001	 1.250829460038644e+000	 8.960924518041740e+000
 7.688774218619433e-001	 1.258750376430831e+000	 8.381670165979587e+000
 7.559930173967605e-001	 1.266530519830556e+000	 7.860837028197320e+000
 7.430463603841846e-001	 1.274169182775695e+000	 7.399795845230492e+000
 7.300397371799832e-001	 1.281665706084745e+000	 6.999853592686871e+000
 7.169754410375495e-001	 1.289019478892449e+000	 6.662252183682396e+000
 7.038557708574689e-001	 1.296229938647085e+000	 6.388167272283170e+000
 6.906830299428701e-001	 1.303296571069771e+000	 6.178707159565838e+000
 6.774595247618763e-001	 1.310218910076216e+000	 6.034911803662673e+000
 8.105544472136200e-001	 1.239799600987469e+000	 8.633985285915784e+000
 7.978166848754269e-001	 1.248034494652386e+000	 9.024658750320270e+000
 7.850095722540423e-001	 1.256129584867021e+000	 8.702782354532548e+000
 7.721353770403492e-001	 1.264084064463964e+000	 8.187580187608541e+000
 7.591963776406394e-001	 1.271897174572757e+000	 7.724584012327501e+000
 7.461948619115721e-001	 1.279568204733558e+000	 7.315037626840981e+000
 7.331331258968632e-001	 1.287096492971720e+000	 6.960127912643848e+000
 7.200134725670817e-001	 1.294481425833576e+000	 6.660983594375605e+000
 7.068382105639162e-001	 1.301722438383709e+000	 6.418674091115259e+000
 6.936096529502550e-001	 1.308819014164088e+000	 6.234208460821065e+000
 6.803301159673916e-001	 1.315770685115489e+000	 6.108534439339040e+000
 8.139745081739952e-001	 1.245030822931502e+000	 8.891828858346038e+000
 8.011830000026622e-001	 1.253300462982705e+000	 8.956980548085477e+000
 7.883218489309455e-001	 1.261429709695696e+000	 8.458800376401703e+000
 7.753933322180439e-001	 1.269417752497294e+000	 8.005498816257028e+000
 7.623997378837780e-001	 1.277263829315056e+000	 7.598242422608742e+000
 7.493433634382103e-001	 1.284967226691418e+000	 7.238148905592072e+000
 7.362265146130050e-001	 1.292527279858593e+000	 6.926285867075211e+000
 7.230515040959061e-001	 1.299943372774501e+000	 6.663669617345568e+000
 7.098206502697066e-001	 1.307214938120029e+000	 6.451264073831459e+000
 6.965362759570539e-001	 1.314341457258001e+000	 6.289979743547248e+000
 6.832007071724106e-001	 1.321322460154259e+000	 6.180672790744597e+000
 8.173945691338680e-001	 1.250262044876032e+000	 9.131521672314205e+000
 8.045493151293049e-001	 1.258566431313422e+000	 8.661263844168218e+000
 7.916341256071866e-001	 1.266729834524669e+000	 8.228833964112077e+000
 7.786512873950272e-001	 1.274751440530820e+000	 7.835307516698192e+000
 7.656030981261759e-001	 1.282630484057451e+000	 7.481719111030294e+000
 7.524918649640989e-001	 1.290366248649275e+000	 7.169061214556837e+000
 7.393199033284080e-001	 1.297958066745362e+000	 6.898282955462310e+000
 7.260895356240229e-001	 1.305405319715221e+000	 6.670288995766266e+000
 7.128030899748404e-001	 1.312707437856046e+000	 6.485938477045620e+000
 6.994628989632662e-001	 1.319863900351511e+000	 6.346044040515500e+000
 6.860712983769336e-001	 1.326874235192524e+000	 6.251370923002478e+000
 8.208146300932377e-001	 1.255493266821059e+000	 8.782446938979341e+000
 8.079156302553555e-001	 1.263832399644537e+000	 8.381572788296305e+000
 7.949464022827656e-001	 1.272029959353938e+000	 8.012741207990262e+000
 7.819092425712991e-001	 1.280085128564544e+000	 7.676890021480040e+000
 7.688064583678334e-001	 1.287997138799943e+000	 7.374922766835148e+000
 7.556403664892382e-001	 1.295765270607128e+000	 7.107707505263916e+000
 7.424132920430727e-001	 1.303388853632028e+000	 6.876075688819968e+000
 7.291275671514323e-001	 1.310867266655738e+000	 6.680821089440047e+000
 7.157855296793174e-001	 1.318199937591758e+000	 6.522698791247895e+000
 7.023895219688927e-001	 1.325386343444617e+000	 6.402424247899265e+000
 6.889418895809607e-001	 1.332426010230286e+000	 6.320672406559514e+000
 6.602359775183677e-001	 1.276908259829992e+000	 5.559473333942156e+000
 6.473014392171510e-001	 1.283513574846905e+000	 5.559355869325845e+000
 6.343219273964404e-001	 1.289977496877083e+000	 5.552745929842419e+000
 6.212996919901549e-001	 1.296299711777179e+000	 5.519088557630843e+000
 6.082369812862577e-001	 1.302479951711748e+000	 5.421730641418742e+000
 5.951360407735142e-001	 1.308517994901645e+000	 5.309225958116088e+000
 5.819991120022612e-001	 1.314413665339216e+000	 5.181750537480188e+000
 5.688284314602466e-001	 1.320166832470970e+000	 5.039477327947301e+000
 5.556262294645776e-001	 1.325777410848514e+000	 4.882575180051780e+000
 5.423947290707671e-001	 1.331245359748507e+000	 4.711207874659634e+000
 5.291361449998285e-001	 1.336570682762464e+000	 4.525533197926020e+000
 6.631065687268594e-001	 1.282460034872289e+000	 5.642956105506890e+000
 6.501157933018059e-001	 1.289094068650738e+000	 5.638923209237112e+000
 6.370798488203665e-001	 1.295586094690231e+000	 5.627366958452586e+000
 6.240009949987811e-001	 1.301935797481580e+000	 5.602769561669614e+000
 6.108814899001775e-001	 1.308142908024839e+000	 5.500469086880597e+000
 5.977235887763150e-001	 1.314207203576608e+000	 5.382111759560788e+000
 5.845295429234005e-001	 1.320128507363978e+000	 5.247917753054550e+000
 5.713015985530409e-001	 1.325906688265840e+000	 5.098104322668650e+000
 5.580419956793733e-001	 1.331541660462285e+000	 4.932884730120970e+000
 5.447529670233685e-001	 1.337033383052914e+000	 4.752467213808227e+000
 5.314367369352608e-001	 1.342381859644857e+000	 4.557054006894231e+000
 6.659771599348549e-001	 1.288011809914083e+000	 5.724679205121278e+000
 6.529301473860543e-001	 1.294674562453978e+000	 5.717044710760459e+000
 6.398377702439559e-001	 1.301194692502715e+000	 5.700863142451021e+000
 6.267022980071197e-001	 1.307571883185269e+000	 5.676054030146158e+000
 6.135259985138387e-001	 1.313805864337189e+000	 5.578143988149162e+000
 6.003111367788655e-001	 1.319896412250819e+000	 5.454248674264262e+000
 5.870599738442781e-001	 1.325843349388003e+000	 5.313658243080163e+000
 5.737747656455419e-001	 1.331646544060003e+000	 5.156634219543934e+000
 5.604577618938246e-001	 1.337305910075399e+000	 4.983434233176908e+000
 5.471112049755550e-001	 1.342821406356735e+000	 4.794310930362502e+000
 5.337373288701880e-001	 1.348193036526755e+000	 4.589510935560392e+000
 6.688477511423544e-001	 1.293563584955372e+000	 5.804689896722503e+000
 6.557445014698961e-001	 1.300255056256623e+000	 5.793762627752029e+000
 6.425956916672080e-001	 1.306803290314538e+000	 5.773271632280733e+000
 6.294036010151703e-001	 1.313207968888246e+000	 5.743172077329953e+000
 6.161705071272404e-001	 1.319468820648799e+000	 5.654798396915063e+000
 6.028986847811656e-001	 1.325585620924282e+000	 5.525673776717851e+000
 5.895904047648937e-001	 1.331558191411289e+000	 5.379003028950121e+000
 5.762479327377498e-001	 1.337386399853459e+000	 5.215091914794200e+000
 5.628735281079317e-001	 1.343070159687858e+000	 5.034242392026027e+000
 5.494694429273265e-001	 1.348609429659971e+000	 4.836751469300878e+000
 5.360379208046102e-001	 1.354004213408158e+000	 4.622910110484822e+000
 6.717183423493577e-001	 1.299115359996157e+000	 5.883034882207703e+000
 6.585588555533323e-001	 1.305835550058675e+000	 5.869118729943772e+000
 6.453536130901230e-001	 1.312411888125696e+000	 5.844629173788999e+000
 6.321049040229330e-001	 1.318844054590511e+000	 5.809556906630124e+000
 6.188150157403831e-001	 1.325131776959668e+000	 5.730475123983077e+000
 6.054862327832150e-001	 1.331274829596995e+000	 5.596423984618103e+000
 5.921208356852474e-001	 1.337273033433836e+000	 5.443983060781101e+000
 5.787210998296646e-001	 1.343126255646209e+000	 5.273502320265878e+000
 5.652892943216948e-001	 1.348834409299661e+000	 5.085328013336728e+000
 5.518276808786832e-001	 1.354397452962622e+000	 4.879801468986972e+000
 5.383385127385272e-001	 1.359815390289066e+000	 4.657257942376770e+000
 6.745889335558651e-001	 1.304667135036438e+000	 5.959760313391961e+000
 6.613732096363618e-001	 1.311416043860133e+000	 5.943154313245930e+000
 6.481115345127013e-001	 1.318020485936191e+000	 5.914972116837001e+000
 6.348062070304077e-001	 1.324480140292063e+000	 5.875239834722031e+000
 6.214595243532666e-001	 1.330794733269795e+000	 5.805216744397287e+000
 6.080737807850141e-001	 1.336964038268959e+000	 5.666536062201604e+000
 5.946512666053394e-001	 1.342987875455647e+000	 5.508629218930143e+000
 5.811942669212864e-001	 1.348866111438251e+000	 5.331890363099062e+000
 5.677050605351138e-001	 1.354598658910808e+000	 5.136710005429685e+000
 5.541859188296250e-001	 1.360185476264687e+000	 4.923473757055766e+000
 5.406391046719390e-001	 1.365626567169480e+000	 4.692561120048564e+000
 6.774595247618763e-001	 1.310218910076216e+000	 6.034911803662673e+000
 6.641875637189850e-001	 1.316996537660998e+000	 6.015910209783898e+000
 6.508694559349428e-001	 1.323629083746024e+000	 5.984336423687628e+000
 6.375075100375943e-001	 1.330116225992904e+000	 5.940251868370480e+000
 6.241040329658909e-001	 1.336457689579182e+000	 5.879065602435572e+000
 6.106613287865625e-001	 1.342653246940173e+000	 5.736046623496607e+000
 5.971816975251695e-001	 1.348702717476718e+000	 5.572972315473251e+000
 5.836674340126150e-001	 1.354605967229587e+000	 5.390280985402239e+000
 5.701208267481885e-001	 1.360362908521299e+000	 5.188407376123920e+000
 5.565441567801517e-001	 1.365973499566167e+000	 4.967781346403454e+000
 5.429396966048457e-001	 1.371437744049399e+000	 4.728826604523959e+000
 6.803301159673916e-001	 1.315770685115489e+000	 6.108534439339040e+000
 6.670019178012020e-001	 1.322577031461269e+000	 6.087426797683876e+000
 6.536273773568472e-001	 1.329237681555193e+000	 6.052757677183955e+000
 6.402088130444931e-001	 1.335752311693032e+000	 6.004623710968518e+000
 6.267485415782559e-001	 1.342120645887828e+000	 5.943132801106521e+000
 6.132488767878608e-001	 1.348342455610638e+000	 5.804992135492319e+000
 5.997121284447378e-001	 1.354417559497051e+000	 5.637043095644381e+000
 5.861406011036505e-001	 1.360345823020215e+000	 5.448699143937667e+000
 5.725365929609191e-001	 1.366127158131134e+000	 5.240439230638311e+000
 5.589023947302637e-001	 1.371761522867063e+000	 5.012737431278877e+000
 5.452402885372472e-001	 1.377248920928823e+000	 4.766061623294701e+000
 6.832007071724106e-001	 1.321322460154259e+000	 6.180672790744597e+000
 6.698162718830123e-001	 1.328157525260946e+000	 6.157744010610410e+000
 6.563852987784146e-001	 1.334846279363700e+000	 6.120271088719960e+000
 6.429101160511040e-001	 1.341388397392449e+000	 6.068385768910164e+000
 6.293930501903619e-001	 1.347783602195733e+000	 6.002231548390692e+000
 6.158364247889082e-001	 1.354031664280353e+000	 5.873408921227672e+000
 6.022425593640441e-001	 1.360132401516647e+000	 5.700872239241511e+000
 5.886137681943929e-001	 1.366085678810137e+000	 5.507169809812415e+000
 5.749523591733055e-001	 1.371891407740314e+000	 5.292824769544654e+000
 5.612606326799611e-001	 1.377549546167373e+000	 5.058355383474313e+000
 5.475408804691434e-001	 1.383060097807752e+000	 4.804273664723011e+000
 6.860712983769336e-001	 1.326874235192524e+000	 6.251370923002478e+000
 6.726306259644167e-001	 1.333738019060029e+000	 6.226901347063808e+000
 6.591432201996449e-001	 1.340454877171543e+000	 6.186911506011059e+000
 6.456114190574269e-001	 1.347024483091154e+000	 6.131568157804487e+000
 6.320375588022088e-001	 1.353446558502897e+000	 6.061050294420117e+000
 6.184239727897053e-001	 1.359720872949318e+000	 5.941333162802754e+000
 6.047729902830887e-001	 1.365847243535504e+000	 5.764490361993818e+000
 5.910869352848421e-001	 1.371825534599352e+000	 5.565717968179473e+000
 5.773681253853478e-001	 1.377655657348837e+000	 5.345583286773393e+000
 5.636188706292433e-001	 1.383337569467098e+000	 5.104648748609950e+000
 5.498414724005347e-001	 1.388871274686186e+000	 4.843470472583658e+000
 6.889418895809607e-001	 1.332426010230286e+000	 6.320672406559514e+000
 6.754449800454148e-001	 1.339318512858520e+000	 6.294937879447851e+000
 6.619011416205384e-001	 1.346063474978724e+000	 6.252713420670728e+000
 6.483127220634620e-001	 1.352660568789146e+000	 6.194200708532963e+000
 6.346820674137966e-001	 1.359109514809321e+000	 6.119614132230094e+000
 6.210115207902519e-001	 1.365410081617534e+000	 6.008800904315133e+000
 6.073034212018716e-001	 1.371562085553623e+000	 5.827928016898350e+000
 5.935601023749986e-001	 1.377565390387860e+000	 5.624368617944001e+000
 5.797838915970459e-001	 1.383419906956706e+000	 5.398734167668017e+000
 5.659771085781108e-001	 1.389125592766239e+000	 5.151631242513516e+000
 5.521420643314209e-001	 1.394682451564126e+000	 4.883660040743091e+000
 5.291361449998285e-001	 1.336570682762464e+000	 4.525533197926020e+000
 5.158526825844934e-001	 1.341753427357802e+000	 4.359438377825984e+000
 5.025465367350401e-001	 1.346793684409329e+000	 4.193641759441287e+000
 4.892198909256558e-001	 1.351691587703254e+000	 4.028847741617735e+000
 4.758749162025590e-001	 1.356447313415707e+000	 3.865730433411284e+000
 4.625137702142049e-001	 1.361061079565046e+000	 3.704932726768488e+000
 4.491385962643843e-001	 1.365533145439484e+000	 3.547065454512528e+000
 4.357515223888646e-001	 1.369863811001026e+000	 3.392706633950175e+000
 4.223546604561884e-001	 1.374053416266731e+000	 3.242400796156276e+000
 4.089501052931884e-001	 1.378102340668309e+000	 3.096658400757405e+000
 3.955399338357390e-001	 1.382011002391079e+000	 2.955955335803000e+000
 5.314367369352608e-001	 1.342381859644857e+000	 4.557054006894231e+000
 5.180955203360702e-001	 1.347587137912014e+000	 4.390965488920945e+000
 5.047315216790497e-001	 1.352649309124398e+000	 4.225752159832743e+000
 4.913469339317523e-001	 1.357568507649899e+000	 4.062107388542762e+000
 4.779439375797284e-001	 1.362344910430627e+000	 3.900693628793991e+000
 4.645246996525144e-001	 1.366978736432848e+000	 3.742141503405421e+000
 4.510913727726134e-001	 1.371470246072112e+000	 3.587048974818195e+000
 4.376460942281230e-001	 1.375819740614605e+000	 3.435980602217034e+000
 4.241909850696234e-001	 1.380027561555725e+000	 3.289466885258920e+000
 4.107281492318908e-001	 1.384094089976881e+000	 3.148003694189460e+000
 3.972596726809558e-001	 1.388019745881587e+000	 3.012051785899651e+000
 5.337373288701880e-001	 1.348193036526755e+000	 4.589510935560392e+000
 5.203383580870525e-001	 1.353420848465820e+000	 4.423080768672924e+000
 5.069165066223954e-001	 1.358504933839132e+000	 4.258100996397580e+000
 4.934739769371359e-001	 1.363445427596256e+000	 4.095254260068387e+000
 4.800129589561568e-001	 1.368242507445289e+000	 3.935191655845035e+000
 4.665356290900744e-001	 1.372896393300399e+000	 3.778531830240322e+000
 4.530441492801046e-001	 1.377407346704477e+000	 3.625860162946172e+000
 4.395406660666751e-001	 1.381775670227892e+000	 3.477728037214325e+000
 4.260273096824034e-001	 1.386001706844374e+000	 3.334652197779319e+000
 4.125061931700091e-001	 1.390085839285036e+000	 3.197114196077449e+000
 3.989794115256789e-001	 1.394028489371590e+000	 3.065559922273170e+000
 5.360379208046102e-001	 1.354004213408158e+000	 4.622910110484822e+000
 5.225811958374399e-001	 1.359254559019222e+000	 4.455793070804431e+000
 5.091014915650770e-001	 1.364360558553530e+000	 4.290699912539326e+000
 4.956010199418068e-001	 1.369322347542327e+000	 4.128302850738169e+000
 4.820819803318437e-001	 1.374140104459692e+000	 3.969241920613846e+000
 4.685465585268848e-001	 1.378814050167700e+000	 3.814124084059023e+000
 4.549969257868581e-001	 1.383344447336580e+000	 3.663522424484256e+000
 4.414352379045211e-001	 1.387731599840885e+000	 3.517975430193507e+000
 4.278636342945286e-001	 1.391975852132678e+000	 3.377986366258137e+000
 4.142842371075431e-001	 1.396077588592775e+000	 3.244022734609445e+000
 4.006991503699084e-001	 1.400037232861086e+000	 3.116515821818518e+000
 5.383385127385272e-001	 1.359815390289066e+000	 4.657257942376770e+000
 5.248240335872325e-001	 1.365088269572218e+000	 4.489111469545292e+000
 5.112864765070946e-001	 1.370216183267591e+000	 4.323560707694544e+000
 4.977280629457651e-001	 1.375199267488110e+000	 4.161267745858664e+000
 4.841510017067895e-001	 1.380037701473836e+000	 4.002861853876801e+000
 4.705574879629457e-001	 1.384731707034750e+000	 3.848938599612220e+000
 4.569497022928739e-001	 1.389281547968421e+000	 3.700059055526257e+000
 4.433298097416607e-001	 1.393687529453584e+000	 3.556749094791945e+000
 4.296999589059987e-001	 1.397949997420637e+000	 3.419498776877281e+000
 4.160622810444935e-001	 1.402069337900099e+000	 3.288761822278545e+000
 4.024188892136441e-001	 1.406045976350075e+000	 3.164955175840916e+000
 5.406391046719390e-001	 1.365626567169480e+000	 4.692561120048564e+000
 5.270668713364303e-001	 1.370921980124809e+000	 4.523045254940620e+000
 5.134714614484482e-001	 1.376071807981317e+000	 4.356695334013832e+000
 4.998551059490105e-001	 1.381076187433606e+000	 4.194163619567597e+000
 4.862200230809941e-001	 1.385935298487721e+000	 4.036068910612716e+000
 4.725684173982572e-001	 1.390649363901550e+000	 3.882995670508215e+000
 4.589024787981516e-001	 1.395218648600000e+000	 3.735493244999319e+000
 4.452243815780942e-001	 1.399643459065989e+000	 3.594075170812256e+000
 4.315362835168141e-001	 1.403924142708251e+000	 3.459218574701748e+000
 4.178403249808596e-001	 1.408061087207006e+000	 3.331363662599300e+000
 4.041386280568861e-001	 1.412054719838559e+000	 3.210913298262299e+000
 5.429396966048457e-001	 1.371437744049399e+000	 4.728826604523959e+000
 5.293097090850331e-001	 1.376755690676995e+000	 4.557603928279020e+000
 5.156564463891378e-001	 1.381927432694706e+000	 4.390115893126308e+000
 5.019821489515430e-001	 1.386953107378814e+000	 4.227005232952020e+000
 4.882890444544576e-001	 1.391832895501348e+000	 4.068880569488930e+000
 4.745793468328191e-001	 1.396567020768099e+000	 3.916315550085540e+000
 4.608552553026916e-001	 1.401155749231316e+000	 3.769848076937455e+000
 4.471189534138211e-001	 1.405599388678100e+000	 3.629979627905355e+000
 4.333726081269743e-001	 1.409898287995520e+000	 3.497174668787661e+000
 4.196183689166416e-001	 1.414052836513498e+000	 3.371860156655246e+000
 4.058583668996343e-001	 1.418063463326536e+000	 3.254425133616056e+000
 5.452402885372472e-001	 1.377248920928823e+000	 4.766061623294701e+000
 5.315525468330412e-001	 1.382589401228776e+000	 4.592797197635650e+000
 5.178414313291635e-001	 1.387783057407759e+000	 4.423834632985735e+000
 5.041091919533631e-001	 1.392830027323735e+000	 4.259807432213852e+000
 4.903580658271797e-001	 1.397730492514716e+000	 4.101314332361890e+000
 4.765902762666312e-001	 1.402484677634397e+000	 3.948918452262153e+000
 4.628080318064938e-001	 1.407092849862371e+000	 3.803146532691790e+000
 4.490135252488422e-001	 1.411555318289918e+000	 3.664488269159932e+000
 4.352089327364798e-001	 1.415872433282443e+000	 3.533395737161852e+000
 4.213964128518397e-001	 1.420044585819573e+000	 3.410282909477662e+000
 4.075781057418889e-001	 1.424072206814007e+000	 3.295525264839139e+000
 5.475408804691434e-001	 1.383060097807752e+000	 4.804273664723011e+000
 5.337953845804545e-001	 1.388423111780151e+000	 4.628634973527748e+000
 5.200264162685251e-001	 1.393638682120477e+000	 4.457863944796543e+000
 5.062362349544703e-001	 1.398706947268369e+000	 4.292585146881825e+000
 4.924270871991608e-001	 1.403628089527825e+000	 4.133387723790065e+000
 4.786012056996941e-001	 1.408402334500446e+000	 3.980824552363574e+000
 4.647608083095582e-001	 1.413029950493163e+000	 3.835411493089630e+000
 4.509080970831568e-001	 1.417511247901442e+000	 3.697626734601372e+000
 4.370452573453302e-001	 1.421846578569022e+000	 3.567910231675406e+000
 4.231744567864537e-001	 1.426036335125233e+000	 3.446663236265995e+000
 4.092978445836497e-001	 1.430080950300971e+000	 3.334247920869655e+000
 5.498414724005347e-001	 1.388871274686186e+000	 4.843470472583658e+000
 5.360382223272729e-001	 1.394256822331122e+000	 4.665127364679392e+000
 5.222114012072228e-001	 1.399494306832858e+000	 4.492216360017379e+000
 5.083632779548648e-001	 1.404583867212716e+000	 4.325353388068922e+000
 4.944961085704005e-001	 1.409525686540675e+000	 4.165118290559136e+000
 4.806121351320075e-001	 1.414319991366243e+000	 4.012053987930706e+000
 4.667135848118846e-001	 1.418967051123693e+000	 3.866665740536670e+000
 4.528026689167652e-001	 1.423467177512672e+000	 3.729420504604013e+000
 4.388815819535256e-001	 1.427820723855255e+000	 3.600746382734769e+000
 4.249525007204837e-001	 1.432028084430477e+000	 3.481032168452134e+000
 4.110175834249168e-001	 1.436089693787430e+000	 3.370626984052735e+000
 5.521420643314209e-001	 1.394682451564126e+000	 4.883660040743091e+000
 5.382810600734966e-001	 1.400090532881687e+000	 4.702284673893577e+000
 5.243963861452564e-001	 1.405349931544904e+000	 4.526904547438381e+000
 5.104903209545466e-001	 1.410460787156776e+000	 4.358127246771163e+000
 4.965651299408992e-001	 1.415423283553266e+000	 4.196523601218870e+000
 4.826230645635711e-001	 1.420237648231790e+000	 4.042626859506235e+000
 4.686663613134736e-001	 1.424904151753962e+000	 3.896931961067304e+000
 4.546972407496676e-001	 1.429423107123609e+000	 3.759894903216436e+000
 4.407179065610664e-001	 1.433794869141144e+000	 3.631932203915162e+000
 4.267305446539296e-001	 1.438019833735305e+000	 3.513420459609830e+000
 4.127373222656903e-001	 1.442098437273382e+000	 3.404695997360213e+000
 3.955399338357390e-001	 1.382011002391079e+000	 2.955955335803000e+000
 3.821262043051337e-001	 1.385779857692596e+000	 2.819041709127582e+000
 3.687109554106823e-001	 1.389409400204244e+000	 2.687615855536690e+000
 3.552962055789580e-001	 1.392900160215298e+000	 2.561802997297030e+000
 3.418839522097405e-001	 1.396252703939042e+000	 2.441696649264888e+000
 3.284761709591509e-001	 1.399467632764286e+000	 2.327358702074966e+000
 3.150748150501943e-001	 1.402545582492548e+000	 2.218819574959159e+000
 3.016818146109148e-001	 1.405487222561964e+000	 2.116078436312714e+000
 2.882990760403305e-001	 1.408293255258992e+000	 2.019103489982384e+000
 2.749284814022716e-001	 1.410964414918934e+000	 1.927832325116033e+000
 2.615718878472026e-001	 1.413501467116316e+000	 1.842172327300331e+000
 3.972596726809558e-001	 1.388019745881587e+000	 3.012051785899651e+000
 3.837876225869871e-001	 1.391804987510995e+000	 2.876231963717053e+000
 3.703140465233331e-001	 1.395450310642580e+000	 2.745471635204266e+000
 3.568409716923341e-001	 1.398956247871221e+000	 2.619913103994469e+000
 3.433704041781163e-001	 1.402323367872004e+000	 2.499666742662907e+000
 3.299043282266090e-001	 1.405552274648471e+000	 2.384811058077029e+000
 3.164447055530905e-001	 1.408643606766497e+000	 2.275392827448024e+000
 3.029934746774652e-001	 1.411598036574820e+000	 2.171427303203071e+000
 2.895525502874419e-001	 1.414416269413320e+000	 2.072898484646861e+000
 2.761238226297362e-001	 1.417099042810059e+000	 1.979759454256902e+000
 2.627091569293791e-001	 1.419647125668154e+000	 1.891932776319374e+000
 3.989794115256789e-001	 1.394028489371590e+000	 3.065559922273170e+000
 3.854490408684362e-001	 1.397830117328804e+000	 2.930896130614288e+000
 3.719171376356488e-001	 1.401491221080272e+000	 2.800871145286586e+000
 3.583857378054237e-001	 1.405012335526478e+000	 2.675644364577273e+000
 3.448568561462336e-001	 1.408394031804306e+000	 2.555343024245981e+000
 3.313324854938166e-001	 1.411636916532035e+000	 2.440062245102129e+000
 3.178145960557242e-001	 1.414741631039892e+000	 2.329865152363023e+000
 3.043051347437213e-001	 1.417708850587220e+000	 2.224783064917845e+000
 2.908060245342075e-001	 1.420539283567319e+000	 2.124815752464059e+000
 2.773191638567839e-001	 1.423233670701014e+000	 2.029931758351685e+000
 2.638464260110482e-001	 1.425792784220007e+000	 1.940068785841029e+000
 4.006991503699084e-001	 1.400037232861086e+000	 3.116515821818518e+000
 3.871104591494815e-001	 1.403855247146023e+000	 2.983068243834089e+000
 3.735202287476293e-001	 1.407532131517320e+000	 2.853846342447132e+000
 3.599305039182267e-001	 1.411068423181068e+000	 2.729026625480808e+000
 3.463433081140926e-001	 1.414464695735950e+000	 2.608753198929583e+000
 3.327606427607738e-001	 1.417721558414979e+000	 2.493137796821461e+000
 3.191844865580955e-001	 1.420839655312735e+000	 2.382259883958259e+000
 3.056167948096831e-001	 1.423819664599166e+000	 2.276166829657022e+000
 2.920594987806271e-001	 1.426662297720991e+000	 2.174874150458485e+000
 2.785145050834146e-001	 1.429368298591798e+000	 2.078365819626381e+000
 2.649836950922100e-001	 1.431938442771874e+000	 1.986594641143268e+000
 4.024188892136441e-001	 1.406045976350075e+000	 3.164955175840916e+000
 3.887718774301224e-001	 1.409880376962651e+000	 3.032781972727296e+000
 3.751233198592747e-001	 1.413573041953723e+000	 2.904428840569911e+000
 3.614752700307431e-001	 1.417124510834992e+000	 2.780089413192307e+000
 3.478297600816930e-001	 1.420535359666935e+000	 2.659924675439041e+000
 3.341888000274805e-001	 1.423806200297300e+000	 2.544062975383949e+000
 3.205543770602041e-001	 1.426937679585026e+000	 2.432600110527333e+000
 3.069284548753505e-001	 1.429930478610658e+000	 2.325599486097336e+000
 2.933129730267010e-001	 1.432785311874335e+000	 2.223092343424451e+000
 2.797098463096284e-001	 1.435502926482411e+000	 2.125078056206130e+000
 2.661209641728645e-001	 1.438084101323757e+000	 2.031524492353412e+000
 4.041386280568861e-001	 1.412054719838559e+000	 3.210913298262299e+000
 3.904332957103595e-001	 1.415905506778688e+000	 3.080070629737394e+000
 3.767264109705850e-001	 1.419613952389483e+000	 2.952649918051574e+000
 3.630200361429728e-001	 1.423180598488248e+000	 2.828861941055699e+000
 3.493162120490351e-001	 1.426606023597260e+000	 2.708884572609051e+000
 3.356169572939367e-001	 1.429890842179001e+000	 2.592862777193745e+000
 3.219242675620505e-001	 1.433035703856764e+000	 2.480908679637266e+000
 3.082401149407235e-001	 1.436041292621694e+000	 2.373101708061933e+000
 2.945664472724287e-001	 1.438908326027352e+000	 2.269488808015615e+000
 2.809051875354254e-001	 1.441637554372853e+000	 2.170084725607391e+000
 2.672582332530117e-001	 1.444229759875654e+000	 2.074872357324336e+000
 4.058583668996343e-001	 1.418063463326536e+000	 3.254425133616056e+000
 3.920947139901922e-001	 1.421930636594134e+000	 3.124967177963726e+000
 3.783295020815603e-001	 1.425654862824598e+000	 2.998540524909465e+000
 3.645648022549160e-001	 1.429236686140839e+000	 2.875373115907229e+000
 3.508026640161185e-001	 1.432676687526927e+000	 2.755659725527518e+000
 3.370451145601425e-001	 1.435975484060081e+000	 2.639561938539329e+000
 3.232941580636341e-001	 1.439133728127948e+000	 2.527208203228565e+000
 3.095517750058021e-001	 1.442152106632276e+000	 2.418693959073447e+000
 2.958199215178106e-001	 1.445031340180042e+000	 2.314081836730422e+000
 2.821005287608053e-001	 1.447772182263124e+000	 2.213401928141749e+000
 2.683955023326515e-001	 1.450375418427566e+000	 2.116652124435824e+000
 4.075781057418889e-001	 1.424072206814007e+000	 3.295525264839139e+000
 3.937561322696209e-001	 1.427955766408990e+000	 3.167504238530281e+000
 3.799325931922003e-001	 1.431695773259069e+000	 3.042131289710228e+000
 3.661095683665724e-001	 1.435292773792761e+000	 2.919651544541267e+000
 3.522891159829437e-001	 1.438747351455934e+000	 2.800276691520435e+000
 3.384732718260977e-001	 1.442060125940540e+000	 2.684184941082420e+000
 3.246640485649553e-001	 1.445231752398580e+000	 2.571521062584771e+000
 3.108634350705865e-001	 1.448262920642402e+000	 2.462396496790035e+000
 2.970733957628466e-001	 1.451154354332404e+000	 2.356889541798494e+000
 2.832958699857682e-001	 1.453906810153224e+000	 2.255045610230998e+000
 2.695327714117840e-001	 1.456521076979492e+000	 2.156877555327283e+000
 4.092978445836497e-001	 1.430080950300971e+000	 3.334247920869655e+000
 3.954175505486456e-001	 1.433980896223255e+000	 3.207714097771907e+000
 3.815356843025053e-001	 1.437736683692896e+000	 3.083452526322092e+000
 3.676543344779423e-001	 1.441348861444017e+000	 2.961725540014793e+000
 3.537755679495103e-001	 1.444818015384283e+000	 2.842761755988263e+000
 3.399014290918027e-001	 1.448144767820379e+000	 2.726756017207029e+000
 3.260339390660141e-001	 1.451329776668660e+000	 2.613869413180058e+000
 3.121750951350764e-001	 1.454373734652074e+000	 2.504229377330755e+000
 2.983268700075368e-001	 1.457277368484438e+000	 2.397929858966633e+000
 2.844912112103142e-001	 1.460041438043154e+000	 2.295031567640730e+000
 2.706700404904092e-001	 1.462666735531433e+000	 2.195562287559300e+000
 4.110175834249168e-001	 1.436089693787430e+000	 3.370626984052735e+000
 3.970789688272661e-001	 1.440006026036929e+000	 3.245628714236092e+000
 3.831387754124750e-001	 1.443777594126079e+000	 3.122534240498757e+000
 3.691991005890256e-001	 1.447404949094606e+000	 3.001623127791057e+000
 3.552620199158185e-001	 1.450888679311973e+000	 2.883140938093794e+000
 3.413295863572569e-001	 1.454229409699597e+000	 2.767299155233436e+000
 3.274038295668104e-001	 1.457427800938186e+000	 2.654275189401594e+000
 3.134867551992719e-001	 1.460484548661290e+000	 2.544212459491214e+000
 2.995803442518811e-001	 1.463400382636145e+000	 2.437220551191652e+000
 2.856865524344431e-001	 1.466176065932912e+000	 2.333375448632566e+000
 2.718073095685270e-001	 1.468812394083389e+000	 2.232719837209924e+000
 4.127373222656903e-001	 1.442098437273382e+000	 3.404695997360213e+000
 3.987403871054826e-001	 1.446031155850012e+000	 3.281279725513394e+000
 3.847418665221098e-001	 1.449818504558618e+000	 3.159406136298610e+000
 3.707438666998223e-001	 1.453461036744529e+000	 3.039372051732039e+000
 3.567484718818683e-001	 1.456959343239004e+000	 2.921439996308993e+000
 3.427577436224609e-001	 1.460314051578193e+000	 2.805838104503956e+000
 3.287737200673443e-001	 1.463525825207160e+000	 2.692760109157573e+000
 3.147984152631733e-001	 1.466595362670052e+000	 2.582365408855043e+000
 3.008338184958795e-001	 1.469523396787524e+000	 2.474779212240211e+000
 2.868818936581553e-001	 1.472310693822500e+000	 2.370092757035889e+000
 2.729445786461375e-001	 1.474958052635360e+000	 2.268363601405806e+000
 2.615718878472026e-001	 1.413501467116316e+000	 1.842172327300331e+000
 2.482311270619460e-001	 1.415905207846441e+000	 1.751795002074716e+000
 2.349080047477531e-001	 1.418176462698288e+000	 1.667246352339808e+000
 2.216043001262854e-001	 1.420316086020347e+000	 1.588422805579360e+000
 2.083217654732643e-001	 1.422324960080891e+000	 1.515190881521380e+000
 1.950621256800968e-001	 1.424203994222866e+000	 1.447387839628669e+000
 1.818270778431791e-001	 1.425954124014603e+000	 1.384822375331767e+000
 1.686182908806998e-001	 1.427576310397320e+000	 1.327275362158658e+000
 1.554374051767348e-001	 1.429071538830333e+000	 1.274500636855774e+000
 1.422860322523960e-001	 1.430440818434861e+000	 1.226225824586217e+000
 1.291657544637603e-001	 1.431685181137337e+000	 1.182153201256129e+000
 2.627091569293791e-001	 1.419647125668154e+000	 1.891932776319374e+000
 2.493103928369308e-001	 1.422061317443925e+000	 1.800522904861499e+000
 2.359293439044011e-001	 1.424342447316041e+000	 1.714999579239064e+000
 2.225677970891991e-001	 1.426491373347543e+000	 1.635261296388392e+000
 2.092275122856378e-001	 1.428508981642658e+000	 1.561176225176840e+000
 1.959102218846532e-001	 1.430396185497991e+000	 1.492582859470378e+000
 1.826176303613230e-001	 1.432153924549562e+000	 1.429290720688311e+000
 1.693514138900029e-001	 1.433783163916592e+000	 1.371081106951308e+000
 1.561132199868752e-001	 1.435284893343001e+000	 1.317707885896535e+000
 1.429046671796668e-001	 1.436660126337491e+000	 1.268898328195846e+000
 1.297273447042648e-001	 1.437909899313127e+000	 1.224353978797590e+000
 2.638464260110482e-001	 1.425792784220007e+000	 1.940068785841029e+000
 2.503896586113186e-001	 1.428217427041610e+000	 1.847615651222757e+000
 2.369506830603834e-001	 1.430508431934146e+000	 1.761111874319742e+000
 2.235312940513989e-001	 1.432666660675216e+000	 1.680458044421031e+000
 2.101332590972694e-001	 1.434693003204992e+000	 1.605523995911230e+000
 1.967583180884601e-001	 1.436588376773745e+000	 1.536149467007238e+000
 1.834081828787295e-001	 1.438353725085180e+000	 1.472144808733072e+000
 1.700845368986010e-001	 1.439990017436526e+000	 1.413291741201247e+000
 1.567890347963625e-001	 1.441498247856304e+000	 1.359344154235440e+000
 1.435233021063554e-001	 1.442879434240697e+000	 1.310028949335948e+000
 1.302889349442776e-001	 1.444134617489409e+000	 1.265046919967389e+000
 2.649836950922100e-001	 1.431938442771874e+000	 1.986594641143268e+000
 2.514689243851096e-001	 1.434373536639493e+000	 1.893087121320418e+000
 2.379720222156999e-001	 1.436674416552602e+000	 1.805596724801602e+000
 2.244947910128847e-001	 1.438841948003363e+000	 1.724026156462153e+000
 2.110390059081592e-001	 1.440877024767892e+000	 1.648246932886247e+000
 1.976064142915174e-001	 1.442780568050127e+000	 1.578100046868272e+000
 1.841987353953989e-001	 1.444553525621460e+000	 1.513396682908776e+000
 1.708176599064940e-001	 1.446196870957122e+000	 1.453918980737980e+000
 1.574648496051963e-001	 1.447711602370240e+000	 1.399420843865104e+000
 1.441419370324620e-001	 1.449098742144481e+000	 1.349628790114954e+000
 1.308505251837987e-001	 1.450359335666182e+000	 1.304242841096273e+000
 2.661209641728645e-001	 1.438084101323757e+000	 2.031524492353412e+000
 2.525481901583037e-001	 1.440529646237576e+000	 1.936951057222983e+000
 2.389933613703507e-001	 1.442840401171412e+000	 1.848467477111059e+000
 2.254582879736565e-001	 1.445017235331984e+000	 1.765978596043479e+000
 2.119447527183072e-001	 1.447061046331360e+000	 1.689357629792436e+000
 1.984545104938252e-001	 1.448972759327137e+000	 1.618446836234623e+000
 1.849892879113311e-001	 1.450753326158399e+000	 1.553058237470228e+000
 1.715507829136819e-001	 1.452403724478379e+000	 1.492974390700039e+000
 1.581406644133768e-001	 1.453924956884810e+000	 1.437949204818113e+000
 1.447605719579864e-001	 1.455318050048842e+000	 1.387708799647109e+000
 1.314121154228281e-001	 1.456584053843448e+000	 1.341952404716548e+000
 2.672582332530117e-001	 1.444229759875654e+000	 2.074872357324336e+000
 2.536274559309009e-001	 1.446685755835856e+000	 1.979221065842513e+000
 2.400147005243359e-001	 1.449006385790573e+000	 1.889737339874898e+000
 2.264217849337144e-001	 1.451192522661080e+000	 1.806328186492261e+000
 2.128504995277133e-001	 1.453245067895393e+000	 1.728868537945888e+000
 1.993026066953834e-001	 1.455164950604776e+000	 1.657201927976594e+000
 1.857798404265260e-001	 1.456953126695997e+000	 1.591141220658593e+000
 1.722839059201647e-001	 1.458610578000298e+000	 1.530469388740829e+000
 1.588164792209040e-001	 1.460138311400015e+000	 1.474940338401259e+000
 1.453792068829286e-001	 1.461537357953781e+000	 1.424279777306331e+000
 1.319737056613659e-001	 1.462808772021205e+000	 1.378186122834491e+000
 2.683955023326515e-001	 1.450375418427566e+000	 2.116652124435824e+000
 2.547067217029012e-001	 1.452841865434337e+000	 2.019910621799029e+000
 2.410360396776553e-001	 1.455172370410087e+000	 1.929419386841371e+000
 2.273852818930583e-001	 1.457367809990651e+000	 1.845087613901625e+000
 2.137562463363775e-001	 1.459429089459994e+000	 1.766791969304035e+000
 2.001507028961921e-001	 1.461357141883043e+000	 1.694377273710928e+000
 1.865703929409837e-001	 1.463152927234256e+000	 1.627657237795169e+000
 1.730170289259424e-001	 1.464817431522879e+000	 1.566415248153652e+000
 1.594922940277779e-001	 1.466351665915853e+000	 1.510405200345443e+000
 1.459978418072888e-001	 1.467756665859296e+000	 1.459352375899293e+000
 1.325352958994119e-001	 1.469033490199453e+000	 1.412954360118283e+000
 2.695327714117840e-001	 1.456521076979492e+000	 2.156877555327283e+000
 2.557859874743046e-001	 1.458997975033016e+000	 2.059033070211514e+000
 2.420573788303090e-001	 1.461338355029953e+000	 1.967526559724776e+000
 2.283487788516881e-001	 1.463543097320696e+000	 1.882269430025736e+000
 2.146619931442998e-001	 1.465613111025160e+000	 1.803140099405990e+000
 2.009987990962512e-001	 1.467549333161938e+000	 1.729984686781687e+000
 1.873609454547042e-001	 1.469352727773174e+000	 1.662617754295789e+000
 1.737501519310151e-001	 1.471024285046121e+000	 1.600823100916638e+000
 1.601681088339984e-001	 1.472565020432326e+000	 1.544354603877227e+000
 1.466164767310668e-001	 1.473975973765389e+000	 1.492937104759119e+000
 1.330968861369661e-001	 1.475258208378194e+000	 1.446267337007703e+000
 2.706700404904092e-001	 1.462666735531433e+000	 2.195562287559300e+000
 2.568652532451112e-001	 1.465154084631894e+000	 2.096601629417631e+000
 2.430787179822969e-001	 1.467504339650172e+000	 2.004071670979896e+000
 2.293122758096041e-001	 1.469718384651217e+000	 1.917886055101514e+000
 2.155677399514803e-001	 1.471797132590894e+000	 1.837924970237718e+000
 2.018468952955608e-001	 1.473741524441461e+000	 1.764035845163302e+000
 1.881514979676874e-001	 1.475552528312752e+000	 1.696034098610564e+000
 1.744832749353826e-001	 1.477231138570025e+000	 1.633703940662442e+000
 1.608439236395657e-001	 1.478778374949433e+000	 1.576799222713417e+000
 1.472351116542627e-001	 1.480195281672060e+000	 1.525044332756133e+000
 1.336584763740287e-001	 1.481482926557426e+000	 1.478135132743819e+000
 2.718073095685270e-001	 1.468812394083389e+000	 2.232719837209924e+000
 2.579445190153208e-001	 1.471310194230972e+000	 2.132629393627855e+000
 2.441000571336193e-001	 1.473670324270742e+000	 2.039067406505341e+000
 2.302757727668061e-001	 1.475893671982212e+000	 1.951949780601574e+000
 2.164734867579189e-001	 1.477981154157194e+000	 1.871158493027259e+000
 2.026949914941209e-001	 1.479933715721612e+000	 1.796542294294599e+000
 1.889420504799334e-001	 1.481752328852990e+000	 1.727917465089194e+000
 1.752163979390450e-001	 1.483437992094591e+000	 1.665068625572135e+000
 1.615197384444795e-001	 1.484991729467174e+000	 1.607749593978651e+000
 1.478537465768764e-001	 1.486414589579308e+000	 1.555684291239513e+000
 1.342200666105996e-001	 1.487707644737150e+000	 1.508567688321863e+000
 2.729445786461375e-001	 1.474958052635360e+000	 2.268363601405806e+000
 2.590237847849337e-001	 1.477466303830249e+000	 2.167129335508697e+000
 2.451213962842759e-001	 1.479836308891665e+000	 2.072526328281197e+000
 2.312392697232941e-001	 1.482068959313682e+000	 1.984472771914374e+000
 2.173792335636158e-001	 1.484165175724061e+000	 1.902852450967672e+000
 2.035430876919314e-001	 1.486125907002392e+000	 1.827515449839234e+000
 1.897326029914422e-001	 1.487952129393888e+000	 1.758278916775485e+000
 1.759495209420024e-001	 1.489644845619818e+000	 1.694927881196247e+000
 1.621955532487401e-001	 1.491205083985549e+000	 1.637216121051674e+000
 1.484723814989080e-001	 1.492633897487133e+000	 1.584867076901531e+000
 1.347816568466787e-001	 1.493932362917365e+000	 1.537574809373257e+000
 1.291657544637603e-001	 1.431685181137337e+000	 1.182153201256129e+000
 1.160781247269352e-001	 1.432805680813151e+000	 1.127312779476865e+000
 1.030246662679748e-001	 1.433803392431409e+000	 1.081109232690461e+000
 9.000687239861585e-002	 1.434679411201691e+000	 1.043112580754979e+000
 7.702620631874801e-002	 1.435434851723798e+000	 1.012868362633675e+000
 6.408410094325932e-002	 1.436070847140960e+000	 9.898987645197571e-001
 5.118195875349673e-002	 1.436588548297362e+000	 9.737037675800694e-001
 3.832115167289575e-002	 1.436989122900686e+000	 9.637623123129434e-001
 2.550302096631970e-002	 1.437273754690359e+000	 9.595334765605731e-001
 1.272887716263158e-002	 1.437443642612189e+000	 9.604576642797321e-001
 0.000000000000000e+000	 1.437500000000000e+000	 9.659578022424983e-001
 1.297273447042648e-001	 1.437909899313127e+000	 1.224353978797590e+000
 1.165828122286998e-001	 1.439035270727253e+000	 1.168930468635612e+000
 1.034725996018601e-001	 1.440037320222639e+000	 1.122097324770803e+000
 9.039820662814151e-002	 1.440917147770646e+000	 1.083426625295333e+000
 7.736110286917136e-002	 1.441675872817160e+000	 1.052465632044219e+000
 6.436272746990168e-002	 1.442314633432123e+000	 1.028737926552799e+000
 5.140448900942363e-002	 1.442834585463392e+000	 1.011744566096339e+000
 3.848776537605635e-002	 1.443236901695637e+000	 1.000965256760458e+000
 2.561390366624865e-002	 1.443522771014981e+000	 9.958595405556481e-001
 1.278422010681430e-002	 1.443693397580038e+000	 9.958679936410263e-001
 0.000000000000000e+000	 1.443750000000000e+000	 1.000413432797153e+000
 1.302889349442776e-001	 1.444134617489409e+000	 1.265046919967389e+000
 1.170874997300675e-001	 1.445264860641753e+000	 1.209127071124165e+000
 1.039205329354329e-001	 1.446271248014181e+000	 1.161756744712859e+000
 9.078954085742862e-002	 1.447154884339838e+000	 1.122510013201199e+000
 7.769599941942007e-002	 1.447916893910696e+000	 1.090935792184639e+000
 6.464135399642321e-002	 1.448558419723407e+000	 1.066558984361357e+000
 5.162701926527345e-002	 1.449080622629498e+000	 1.048881644046336e+000
 3.865437907917373e-002	 1.449484680490631e+000	 1.037384159146333e+000
 2.572478636615848e-002	 1.449771787339621e+000	 1.031526447563878e+000
 1.283956305099224e-002	 1.449943152547892e+000	 1.030749165068181e+000
 0.000000000000000e+000	 1.450000000000000e+000	 1.034474921732461e+000
 1.308505251837987e-001	 1.450359335666182e+000	 1.304242841096273e+000
 1.175921872310382e-001	 1.451494450556649e+000	 1.247912516512357e+000
 1.043684662686931e-001	 1.452505175806036e+000	 1.200096539685901e+000
 9.118087508647724e-002	 1.453392620909269e+000	 1.160370914025953e+000
 7.803089596949416e-002	 1.454157915004407e+000	 1.128286140180609e+000
 6.491998052282388e-002	 1.454802206014812e+000	 1.103368368207842e+000
 5.184954952104621e-002	 1.455326659795682e+000	 1.085120570752049e+000
 3.882099278224790e-002	 1.455732459285668e+000	 1.073023734107455e+000
 2.583566906604916e-002	 1.456020803664280e+000	 1.066538064104996e+000
 1.289490599516543e-002	 1.456192907515751e+000	 1.065104203822033e+000
 0.000000000000000e+000	 1.456250000000000e+000	 1.068144460179525e+000
 1.314121154228281e-001	 1.456584053843448e+000	 1.341952404716548e+000
 1.180968747316120e-001	 1.457724040471942e+000	 1.285296590512810e+000
 1.048163996016407e-001	 1.458739103598204e+000	 1.237125623341585e+000
 9.157220931528735e-002	 1.459630357478939e+000	 1.197017374536053e+000
 7.836579251939360e-002	 1.460398936098293e+000	 1.164523861481467e+000
 6.519860704910370e-002	 1.461045992306338e+000	 1.139172408164227e+000
 5.207207977674189e-002	 1.461572696961942e+000	 1.120466827194472e+000
 3.898760648527889e-002	 1.461980238080748e+000	 1.107888620146655e+000
 2.594655176592072e-002	 1.462269819988959e+000	 1.100898193120550e+000
 1.295024893933384e-002	 1.462442662483615e+000	 1.098936084481237e+000
 0.000000000000000e+000	 1.462500000000000e+000	 1.101424201814600e+000
 1.319737056613659e-001	 1.462808772021205e+000	 1.378186122834491e+000
 1.186015622317888e-001	 1.463953630387632e+000	 1.321288938041311e+000
 1.052643329342757e-001	 1.464973031390684e+000	 1.272852778655402e+000
 9.196354354385894e-002	 1.465868094048847e+000	 1.232457321323079e+000
 7.870068906911841e-002	 1.466639957192353e+000	 1.199656032236969e+000
 6.547723357526267e-002	 1.467289778597984e+000	 1.173977336242732e+000
 5.229461003236050e-002	 1.467818734128280e+000	 1.154925807892902e+000
 3.915422018826668e-002	 1.468228016875872e+000	 1.141983381252885e+000
 2.605743446577315e-002	 1.468518836313657e+000	 1.134610575325979e+000
 1.300559188349750e-002	 1.468692417451483e+000	 1.132247732020198e+000
 0.000000000000000e+000	 1.468750000000000e+000	 1.134316263655230e+000
 1.325352958994119e-001	 1.469033490199453e+000	 1.412954360118283e+000
 1.191062497315686e-001	 1.470183220303719e+000	 1.355899066202443e+000
 1.057122662665981e-001	 1.471206959183476e+000	 1.307286660695522e+000
 9.235487777219202e-002	 1.472105830618993e+000	 1.266698563349506e+000
 7.903558561866859e-002	 1.472880978286588e+000	 1.233689621611816e+000
 6.575586010130079e-002	 1.473533564889752e+000	 1.207789288473316e+000
 5.251714028790202e-002	 1.474064771294695e+000	 1.188502822737175e+000
 3.932083389121127e-002	 1.474475795671039e+000	 1.175312508479180e+000
 2.616831716560644e-002	 1.474767852638374e+000	 1.167678890529816e+000
 1.306093482765638e-002	 1.474942172419356e+000	 1.165042022860312e+000
 0.000000000000000e+000	 1.475000000000000e+000	 1.166822726837377e+000
 1.330968861369661e-001	 1.475258208378194e+000	 1.446267337007703e+000
 1.196109372309516e-001	 1.476412810220203e+000	 1.389136347193853e+000
 1.061601995986079e-001	 1.477440886976582e+000	 1.340435799320895e+000
 9.274621200028661e-002	 1.478343567189379e+000	 1.299748794430916e+000
 7.937048216804417e-002	 1.479121999380997e+000	 1.266631494044645e+000
 6.603448662721806e-002	 1.479777351181640e+000	 1.240614306929930e+000
 5.273967054336648e-002	 1.480310808461186e+000	 1.221203098772555e+000
 3.948744759411266e-002	 1.480723574466249e+000	 1.207880421482029e+000
 2.627919986542060e-002	 1.481016868963110e+000	 1.200106758918099e+000
 1.311627777181051e-002	 1.481191927387234e+000	 1.197321785893436e+000
 0.000000000000000e+000	 1.481250000000000e+000	 1.198945637372455e+000
 1.336584763740287e-001	 1.481482926557426e+000	 1.478135132743819e+000
 1.201156247299375e-001	 1.482642400137084e+000	 1.421010021142076e+000
 1.066081329303051e-001	 1.483674814769999e+000	 1.372308601811493e+000
 9.313754622814265e-002	 1.484581303760002e+000	 1.331615595654770e+000
 7.970537871724506e-002	 1.485363020475581e+000	 1.298488411445850e+000
 6.631311315301447e-002	 1.486021137473649e+000	 1.272458341701860e+000
 5.296220079875386e-002	 1.486556845627755e+000	 1.253031781941437e+000
 3.965406129697083e-002	 1.486971353261502e+000	 1.239691470021602e+000
 2.639008256521564e-002	 1.487265885287866e+000	 1.231897742306919e+000
 1.317162071595986e-002	 1.487441682355117e+000	 1.229089803481025e+000
 0.000000000000000e+000	 1.487500000000000e+000	 1.230687006885035e+000
 1.342200666105996e-001	 1.487707644737150e+000	 1.508567688321863e+000
 1.206203122285265e-001	 1.488871990054361e+000	 1.451529198865388e+000
 1.070560662616897e-001	 1.489908742563730e+000	 1.402913355433118e+000
 9.352888045576022e-002	 1.490819040330864e+000	 1.362306437738744e+000
 8.004027526627137e-002	 1.491604041570340e+000	 1.329267035344693e+000
 6.659173967869005e-002	 1.492264923765779e+000	 1.303327252821317e+000
 5.318473105406417e-002	 1.492802882794401e+000	 1.283993938777686e+000
 3.982067499978582e-002	 1.493219132056798e+000	 1.270749935422680e+000
 2.650096526499153e-002	 1.493514901612639e+000	 1.263055345364277e+000
 1.322696366010445e-002	 1.493691437323004e+000	 1.260348812427838e+000
 0.000000000000000e+000	 1.493750000000000e+000	 1.262048813332424e+000
 1.347816568466787e-001	 1.493932362917365e+000	 1.537574809373257e+000
 1.211249997267185e-001	 1.495101579972037e+000	 1.480702864567136e+000
 1.075039995927618e-001	 1.496142670357773e+000	 1.432258229937668e+000
 9.392021468313924e-002	 1.497056776901965e+000	 1.391828683330086e+000
 8.037517181512305e-002	 1.497845062665274e+000	 1.358973928978900e+000
 6.687036620424477e-002	 1.498508710058030e+000	 1.333226812136903e+000
 5.340726130929743e-002	 1.499048919961125e+000	 1.314094558064097e+000
 3.998728870255761e-002	 1.499466910852138e+000	 1.301060032002098e+000
 2.661184796474831e-002	 1.499763917937434e+000	 1.293583016799472e+000
 1.328230660424428e-002	 1.499941192290897e+000	 1.291101504929976e+000
 0.000000000000000e+000	 1.500000000000000e+000	 1.293033001705956e+000
 1.500000000000000e+000	 0.000000000000000e+000	 1.478936145042412e+001
 1.499941192290897e+000	 1.328230660424432e-002	 1.482830502989824e+001
 1.499763917937433e+000	 2.661184796474840e-002	 1.485896210345480e+001
 1.499466910852138e+000	 3.998728870255752e-002	 1.488116725269263e+001
 1.499048919961125e+000	 5.340726130929738e-002	 1.489476418903625e+001
 1.498508710058030e+000	 6.687036620424476e-002	 1.489960604073970e+001
 1.497845062665274e+000	 8.037517181512309e-002	 1.489555562736026e+001
 1.497056776901965e+000	 9.392021468313935e-002	 1.488248572075784e+001
 1.496142670357773e+000	 1.075039995927618e-001	 1.486027929168072e+001
 1.495101579972036e+000	 1.211249997267185e-001	 1.482882974100676e+001
 1.493932362917365e+000	 1.347816568466788e-001	 1.478804111472156e+001
 1.506250000000000e+000	 0.000000000000000e+000	 1.472776024815054e+001
 1.506190947258791e+000	 1.333764954838176e-002	 1.476663205698431e+001
 1.506012934262236e+000	 2.672273066449561e-002	 1.479726170516852e+001
 1.505714689647499e+000	 4.015390240530770e-002	 1.481948794713693e+001
 1.505294957127886e+000	 5.362979156449210e-002	 1.483315882841829e+001
 1.504752496350341e+000	 6.714899272973905e-002	 1.483813197199123e+001
 1.504086083760295e+000	 8.071006836388743e-002	 1.483427485178547e+001
 1.503294513473185e+000	 9.431154891039913e-002	 1.482146505237458e+001
 1.502376598151972e+000	 1.079519329236775e-001	 1.479959051391014e+001
 1.501331169889910e+000	 1.216296872247120e-001	 1.476854976135780e+001
 1.500157081097827e+000	 1.353432470825121e-001	 1.472825211710643e+001
 1.512500000000000e+000	 0.000000000000000e+000	 1.466764087841481e+001
 1.512440702226686e+000	 1.339299249251920e-002	 1.470647733433254e+001
 1.512261950587039e+000	 2.683361336424281e-002	 1.473711447944877e+001
 1.511962468442861e+000	 4.032051610805788e-002	 1.475939522998364e+001
 1.511540994294648e+000	 5.385232181968679e-002	 1.477317195613250e+001
 1.510996282642652e+000	 6.742761925523334e-002	 1.477830676780924e+001
 1.510327104855315e+000	 8.104496491265177e-002	 1.477467178721038e+001
 1.509532250044405e+000	 9.470288313765890e-002	 1.476214940723438e+001
 1.508610525946172e+000	 1.083998662545933e-001	 1.474063253479573e+001
 1.507560759807783e+000	 1.221343747227056e-001	 1.471002481808456e+001
 1.506381799278288e+000	 1.359048373183454e-001	 1.467024085683332e+001
 1.518750000000000e+000	 0.000000000000000e+000	 1.460897436207305e+001
 1.518690457194580e+000	 1.344833543665665e-002	 1.464781097460593e+001
 1.518510966911842e+000	 2.694449606399001e-002	 1.467848962705599e+001
 1.518210247238222e+000	 4.048712981080806e-002	 1.470085738676095e+001
 1.517787031461409e+000	 5.407485207488148e-002	 1.471477093953725e+001
 1.517240068934964e+000	 6.770624578072765e-002	 1.472009687484881e+001
 1.516568125950336e+000	 8.137986146141613e-002	 1.471671195746957e+001
 1.515769986615625e+000	 9.509421736491869e-002	 1.470450338466240e+001
 1.514844453740371e+000	 1.088477995855090e-001	 1.468336902790451e+001
 1.513790349725656e+000	 1.226390622206991e-001	 1.465321765819921e+001
 1.512606517458749e+000	 1.364664275541787e-001	 1.461396915402629e+001
 1.525000000000000e+000	 0.000000000000000e+000	 1.455173219504939e+001
 1.524940212162475e+000	 1.350367838079409e-002	 1.459060357550354e+001
 1.524759983236646e+000	 2.705537876373721e-002	 1.462135684367105e+001
 1.524458026033583e+000	 4.065374351355825e-002	 1.464384320771381e+001
 1.524033068628171e+000	 5.429738233007619e-002	 1.465792366041099e+001
 1.523483855227275e+000	 6.798487230622193e-002	 1.466346926379092e+001
 1.522809147045356e+000	 8.171475801018048e-002	 1.466036141992702e+001
 1.522007723186844e+000	 9.548555159217848e-002	 1.464849212690990e+001
 1.521078381534570e+000	 1.092957329164248e-001	 1.462776421901475e+001
 1.520019939643530e+000	 1.231437497186927e-001	 1.459809159009370e+001
 1.518831235639211e+000	 1.370280177900121e-001	 1.455939939923661e+001
 1.531250000000000e+000	 0.000000000000000e+000	 1.449588633864056e+001
 1.531189967130370e+000	 1.355902132493153e-002	 1.453482620986140e+001
 1.531008999561448e+000	 2.716626146348442e-002	 1.456568630979471e+001
 1.530705804828944e+000	 4.082035721630844e-002	 1.458832197750335e+001
 1.530279105794932e+000	 5.451991258527090e-002	 1.460259850445376e+001
 1.529727641519586e+000	 6.826349883171623e-002	 1.460839141864804e+001
 1.529050168140377e+000	 8.204965455894481e-002	 1.460558675458818e+001
 1.528245459758064e+000	 9.587688581943826e-002	 1.459408130807464e+001
 1.527312309328770e+000	 1.097436662473406e-001	 1.457378287484642e+001
 1.526249529561403e+000	 1.236484372166862e-001	 1.454461047208303e+001
 1.525055953819672e+000	 1.375896080258454e-001	 1.450649454180099e+001
 1.537500000000000e+000	 0.000000000000000e+000	 1.444140921005716e+001
 1.537439722098265e+000	 1.361436426906897e-002	 1.448045041599566e+001
 1.537258015886251e+000	 2.727714416323162e-002	 1.451144868089349e+001
 1.536953583624305e+000	 4.098697091905862e-002	 1.453426346515776e+001
 1.536525142961694e+000	 5.474244284046560e-002	 1.454876435104512e+001
 1.535971427811897e+000	 6.854212535721052e-002	 1.455483132633066e+001
 1.535291189235398e+000	 8.238455110770916e-002	 1.455235505347688e+001
 1.534483196329284e+000	 9.626822004669802e-002	 1.454123712329041e+001
 1.533546237122969e+000	 1.101915995782563e-001	 1.452139029206647e+001
 1.532479119479277e+000	 1.241531247146798e-001	 1.449273870122800e+001
 1.531280672000134e+000	 1.381511982616787e-001	 1.445521807848446e+001
 1.543750000000000e+000	 0.000000000000000e+000	 1.438827367319469e+001
 1.543689477066159e+000	 1.366970721320641e-002	 1.442744818827963e+001
 1.543507032211055e+000	 2.738802686297882e-002	 1.445861507778515e+001
 1.543201362419667e+000	 4.115358462180880e-002	 1.448163791426750e+001
 1.542771180128456e+000	 5.496497309566030e-002	 1.449639056325014e+001
 1.542215214104209e+000	 6.882075188270480e-002	 1.450275746646716e+001
 1.541532210330419e+000	 8.271944765647350e-002	 1.450063391027069e+001
 1.540720932900504e+000	 9.665955427395784e-002	 1.448992627818027e+001
 1.539780164917168e+000	 1.106395329091721e-001	 1.447055228656109e+001
 1.538708709397150e+000	 1.246578122126733e-001	 1.444244120242937e+001
 1.537505390180595e+000	 1.387127884975120e-001	 1.440553404239858e+001
 1.550000000000000e+000	 0.000000000000000e+000	 1.433645302962769e+001
 1.549939232034054e+000	 1.372505015734386e-002	 1.437579196794919e+001
 1.549756048535858e+000	 2.749890956272603e-002	 1.440715707725646e+001
 1.549449141215028e+000	 4.132019832455899e-002	 1.443041603341731e+001
 1.549017217295217e+000	 5.518750335085501e-002	 1.444544697806832e+001
 1.548459000396520e+000	 6.909937840819912e-002	 1.445213880146983e+001
 1.547773231425439e+000	 8.305434420523784e-002	 1.445039141018696e+001
 1.546958669471723e+000	 9.705088850121760e-002	 1.444011597856406e+001
 1.546014092711368e+000	 1.110874662400879e-001	 1.442123518296766e+001
 1.544938299315023e+000	 1.251624997106669e-001	 1.439368341778591e+001
 1.543730108361056e+000	 1.392743787333453e-001	 1.435740699218824e+001
 1.556250000000000e+000	 0.000000000000000e+000	 1.428592100982112e+001
 1.556188987001948e+000	 1.378039310148129e-002	 1.432545463412962e+001
 1.556005064860660e+000	 2.760979226247323e-002	 1.435704670290723e+001
 1.555696920010389e+000	 4.148681202730917e-002	 1.438056898684899e+001
 1.555263254461979e+000	 5.541003360604972e-002	 1.439590389691639e+001
 1.554702786688831e+000	 6.937800493369339e-002	 1.440294476684067e+001
 1.554014252520460e+000	 8.338924075400221e-002	 1.440159612011254e+001
 1.553196406042944e+000	 9.744222272847737e-002	 1.439177392041449e+001
 1.552248020505567e+000	 1.115353995710036e-001	 1.437340580445880e+001
 1.551167889232896e+000	 1.256671872086604e-001	 1.434643129620909e+001
 1.549954826541518e+000	 1.398359689691786e-001	 1.431080200147860e+001
 1.562500000000000e+000	 0.000000000000000e+000	 1.423665176455250e+001
 1.562438741969843e+000	 1.383573604561874e-002	 1.427640949507796e+001
 1.562254081185464e+000	 2.772067496222044e-002	 1.430825641621413e+001
 1.561944698805751e+000	 4.165342573005936e-002	 1.433206838534835e+001
 1.561509291628741e+000	 5.563256386124442e-002	 1.434773207634005e+001
 1.560946572981143e+000	 6.965663145918769e-002	 1.435514526170929e+001
 1.560255273615481e+000	 8.372413730276657e-002	 1.435421707897029e+001
 1.559434142614164e+000	 9.783355695573717e-002	 1.434486828005398e+001
 1.558481948299767e+000	 1.119833329019194e-001	 1.432703146277162e+001
 1.557397479150770e+000	 1.261718747066540e-001	 1.430065128328642e+001
 1.556179544721979e+000	 1.403975592050120e-001	 1.426568464857554e+001
 1.493932362917365e+000	 1.347816568466788e-001	 1.478804111472156e+001
 1.492633897487133e+000	 1.484723814989081e-001	 1.482467671072264e+001
 1.491205083985549e+000	 1.621955532487402e-001	 1.485270074572995e+001
 1.489644845619818e+000	 1.759495209420023e-001	 1.487200855737377e+001
 1.487952129393888e+000	 1.897326029914421e-001	 1.488250542141809e+001
 1.486125907002392e+000	 2.035430876919314e-001	 1.488410667943220e+001
 1.484165175724061e+000	 2.173792335636158e-001	 1.487673784686477e+001
 1.482068959313682e+000	 2.312392697232942e-001	 1.486033470081401e+001
 1.479836308891665e+000	 2.451213962842758e-001	 1.483484334682643e+001
 1.477466303830248e+000	 2.590237847849335e-001	 1.480022026409608e+001
 1.474958052635360e+000	 2.729445786461375e-001	 1.475643232848141e+001
 1.500157081097827e+000	 1.353432470825121e-001	 1.472825211710643e+001
 1.498853205395247e+000	 1.490910164206486e-001	 1.476487431492901e+001
 1.497418438504241e+000	 1.628713680526742e-001	 1.479303765098623e+001
 1.495851699145377e+000	 1.766826439446071e-001	 1.481264175895266e+001
 1.494151929935116e+000	 1.905231555025823e-001	 1.482359626781252e+001
 1.492318098283486e+000	 2.043911838893671e-001	 1.482582092489107e+001
 1.490349197291211e+000	 2.182849803689416e-001	 1.481924569897507e+001
 1.488244246645389e+000	 2.322027666794252e-001	 1.480381086281508e+001
 1.486002293512765e+000	 2.461427354345995e-001	 1.477946705434014e+001
 1.483622413429624e+000	 2.601030505542479e-001	 1.474617531595797e+001
 1.481103711187337e+000	 2.740818477234943e-001	 1.470390711135910e+001
 1.506381799278288e+000	 1.359048373183454e-001	 1.467024085683332e+001
 1.505072513303361e+000	 1.497096513423892e-001	 1.470684034333005e+001
 1.503631793022933e+000	 1.635471828566080e-001	 1.473513152374040e+001
 1.502058552670935e+000	 1.774157669472119e-001	 1.475501834062215e+001
 1.500351730476344e+000	 1.913137080137224e-001	 1.476641479134156e+001
 1.498510289564580e+000	 2.052392800868028e-001	 1.476924504647998e+001
 1.496533218858361e+000	 2.191907271742675e-001	 1.476344354801303e+001
 1.494419533977097e+000	 2.331662636355562e-001	 1.474895508655298e+001
 1.492168278133864e+000	 2.471640745849233e-001	 1.472573485698420e+001
 1.489778523029000e+000	 2.611823163235622e-001	 1.469374849186548e+001
 1.487249369739315e+000	 2.752191168008512e-001	 1.465297207201733e+001
 1.512606517458749e+000	 1.364664275541787e-001	 1.461396915402629e+001
 1.511291821211475e+000	 1.503282862641298e-001	 1.465053606560153e+001
 1.509845147541625e+000	 1.642229976605419e-001	 1.467894309143022e+001
 1.508265406196493e+000	 1.781488899498168e-001	 1.469909849621120e+001
 1.506551531017571e+000	 1.921042605248626e-001	 1.471092066127828e+001
 1.504702480845674e+000	 2.060873762842385e-001	 1.471433819839825e+001
 1.502717240425511e+000	 2.200964739795933e-001	 1.470929004301992e+001
 1.500594821308804e+000	 2.341297605916872e-001	 1.469572552626468e+001
 1.498334262754963e+000	 2.481854137352470e-001	 1.467360442498711e+001
 1.495934632628376e+000	 2.622615820928765e-001	 1.464289698927960e+001
 1.493395028291292e+000	 2.763563858782080e-001	 1.460358394683997e+001
 1.518831235639211e+000	 1.370280177900121e-001	 1.455939939923661e+001
 1.517511129119588e+000	 1.509469211858703e-001	 1.459592332459854e+001
 1.516058502060317e+000	 1.648988124644758e-001	 1.462443365717009e+001
 1.514472259722051e+000	 1.788820129524216e-001	 1.464484299746359e+001
 1.512751331558800e+000	 1.928948130360028e-001	 1.465707412678711e+001
 1.510894672126768e+000	 2.069354724816742e-001	 1.466106011644758e+001
 1.508901261992662e+000	 2.210022207849192e-001	 1.465674441608183e+001
 1.506770108640511e+000	 2.350932575478182e-001	 1.464408092040258e+001
 1.504500247376062e+000	 2.492067528855707e-001	 1.462303401368865e+001
 1.502090742227751e+000	 2.633408478621908e-001	 1.459357859139132e+001
 1.499540686843271e+000	 2.774936549555648e-001	 1.455570005827868e+001
 1.525055953819672e+000	 1.375896080258454e-001	 1.450649454180099e+001
 1.523730437027702e+000	 1.515655561076109e-001	 1.454296452465796e+001
 1.522271856579009e+000	 1.655746272684098e-001	 1.457156508800206e+001
 1.520679113247609e+000	 1.796151359550264e-001	 1.459221318224390e+001
 1.518951132100027e+000	 1.936853655471429e-001	 1.460483600508924e+001
 1.517086863407862e+000	 2.077835686791099e-001	 1.460937110616257e+001
 1.515085283559811e+000	 2.219079675902450e-001	 1.460576647043064e+001
 1.512945395972218e+000	 2.360567545039492e-001	 1.459398057971186e+001
 1.510666231997161e+000	 2.502280920358945e-001	 1.457398245159904e+001
 1.508246851827127e+000	 2.644201136315051e-001	 1.454575165516769e+001
 1.505686345395248e+000	 2.786309240329216e-001	 1.450927830289248e+001
 1.531280672000134e+000	 1.381511982616787e-001	 1.445521807848446e+001
 1.529949744935816e+000	 1.521841910293514e-001	 1.449162262018616e+001
 1.528485211097701e+000	 1.662504420723437e-001	 1.452029980343441e+001
 1.526885966773168e+000	 1.803482589576312e-001	 1.454117094303101e+001
 1.525150932641255e+000	 1.944759180582831e-001	 1.455416766991690e+001
 1.523279054688955e+000	 2.086316648765457e-001	 1.455923203123071e+001
 1.521269305126962e+000	 2.228137143955709e-001	 1.455631656883548e+001
 1.519120683303925e+000	 2.370202514600802e-001	 1.454538437559831e+001
 1.516832216618260e+000	 2.512494311862182e-001	 1.452640912874898e+001
 1.514402961426503e+000	 2.654993794008195e-001	 1.449937509968973e+001
 1.511832003947226e+000	 2.797681931102784e-001	 1.446427713967876e+001
 1.537505390180595e+000	 1.387127884975120e-001	 1.440553404239858e+001
 1.536169052843930e+000	 1.528028259510920e-001	 1.444186110452401e+001
 1.534698565616394e+000	 1.669262568762776e-001	 1.447060076425785e+001
 1.533092820298726e+000	 1.810813819602360e-001	 1.449167871569087e+001
 1.531350733182483e+000	 1.952664705694233e-001	 1.450503104024776e+001
 1.529471245970049e+000	 2.094797610739813e-001	 1.451060430219385e+001
 1.527453326694112e+000	 2.237194612008968e-001	 1.450835562227599e+001
 1.525295970635632e+000	 2.379837484162112e-001	 1.449825272877896e+001
 1.522998201239359e+000	 2.522707703365418e-001	 1.448027398532299e+001
 1.520559071025879e+000	 2.665786451701337e-001	 1.445440839477369e+001
 1.517977662499204e+000	 2.809054621876352e-001	 1.442065557868798e+001
 1.543730108361056e+000	 1.392743787333453e-001	 1.435740699218824e+001
 1.542388360752044e+000	 1.534214608728325e-001	 1.439364399908137e+001
 1.540911920135086e+000	 1.676020716802115e-001	 1.442243146163251e+001
 1.539299673824284e+000	 1.818145049628408e-001	 1.444369946852135e+001
 1.537550533723710e+000	 1.960570230805634e-001	 1.445738856931218e+001
 1.535663437251143e+000	 2.103278572714171e-001	 1.446344986542289e+001
 1.533637348261262e+000	 2.246252080062226e-001	 1.446184507888969e+001
 1.531471257967340e+000	 2.389472453723422e-001	 1.445254659820734e+001
 1.529164185860458e+000	 2.532921094868655e-001	 1.443553750056738e+001
 1.526715180625254e+000	 2.676579109394481e-001	 1.441081154986748e+001
 1.524123321051181e+000	 2.820427312649920e-001	 1.437837316991368e+001
 1.549954826541518e+000	 1.398359689691786e-001	 1.431080200147860e+001
 1.548607668660158e+000	 1.540400957945730e-001	 1.434693584273311e+001
 1.547125274653778e+000	 1.682778864841454e-001	 1.437575590643807e+001
 1.545506527349842e+000	 1.825476279654456e-001	 1.439719669156073e+001
 1.543750334264938e+000	 1.968475755917036e-001	 1.441120323386529e+001
 1.541855628532237e+000	 2.111759534688528e-001	 1.441773119235805e+001
 1.539821369828412e+000	 2.255309548115485e-001	 1.441674691318585e+001
 1.537646545299046e+000	 2.399107423284732e-001	 1.440822747026552e+001
 1.535330170481557e+000	 2.543134486371894e-001	 1.439216068196600e+001
 1.532871290224631e+000	 2.687371767087625e-001	 1.436854510321462e+001
 1.530268979603159e+000	 2.831800003423489e-001	 1.433738999245030e+001
 1.556179544721979e+000	 1.403975592050120e-001	 1.426568464857554e+001
 1.554826976568272e+000	 1.546587307163136e-001	 1.430170168147004e+001
 1.553338629172470e+000	 1.689537012880794e-001	 1.433053861887948e+001
 1.551713380875401e+000	 1.832807509680504e-001	 1.435213438615286e+001
 1.549950134806166e+000	 1.976381281028438e-001	 1.436643852371634e+001
 1.548047819813331e+000	 2.120240496662885e-001	 1.437341126900761e+001
 1.546005391395562e+000	 2.264367016168743e-001	 1.437302361551765e+001
 1.543821832630754e+000	 2.408742392846043e-001	 1.436525734821539e+001
 1.541496155102656e+000	 2.553347877875130e-001	 1.435010505467525e+001
 1.539027399824006e+000	 2.698164424780767e-001	 1.432757011127839e+001
 1.536414638155137e+000	 2.843172694197058e-001	 1.429766664391106e+001
 1.474958052635360e+000	 2.729445786461375e-001	 1.475643232848141e+001
 1.472310693822500e+000	 2.868818936581553e-001	 1.478236380610516e+001
 1.469523396787524e+000	 3.008338184958796e-001	 1.479924701941063e+001
 1.466595362670053e+000	 3.147984152631731e-001	 1.480698449486019e+001
 1.463525825207160e+000	 3.287737200673443e-001	 1.480548734820049e+001
 1.460314051578193e+000	 3.427577436224609e-001	 1.479467524874500e+001
 1.456959343239004e+000	 3.567484718818684e-001	 1.477447636228148e+001
 1.453461036744529e+000	 3.707438666998223e-001	 1.474482727240161e+001
 1.449818504558618e+000	 3.847418665221097e-001	 1.470567288011192e+001
 1.446031155850012e+000	 3.987403871054825e-001	 1.465696628164973e+001
 1.442098437273382e+000	 4.127373222656903e-001	 1.459866862449394e+001
 1.481103711187337e+000	 2.740818477234943e-001	 1.470390711135910e+001
 1.478445321712005e+000	 2.880772348816613e-001	 1.473021118680463e+001
 1.475646410938750e+000	 3.020872927397147e-001	 1.474755563176153e+001
 1.472706176678609e+000	 3.161100753269490e-001	 1.475584845301702e+001
 1.469623849475897e+000	 3.301436105677857e-001	 1.475500635134131e+001
 1.466398693456540e+000	 3.441859008876004e-001	 1.474495467921648e+001
 1.463030007165793e+000	 3.582349238478768e-001	 1.472562737679382e+001
 1.459517124394238e+000	 3.722886328105959e-001	 1.469696688588087e+001
 1.455859414990992e+000	 3.863449576317342e-001	 1.465892404182218e+001
 1.452056285663000e+000	 4.004018053836963e-001	 1.461145794320306e+001
 1.448107180759328e+000	 4.144570611064636e-001	 1.455453579937464e+001
 1.487249369739315e+000	 2.752191168008512e-001	 1.465297207201733e+001
 1.484579949601514e+000	 2.892725761051721e-001	 1.467964744943097e+001
 1.481769425089994e+000	 3.033407669835689e-001	 1.469745087532761e+001
 1.478816990687209e+000	 3.174217353907685e-001	 1.470629586902347e+001
 1.475721873744710e+000	 3.315135010683049e-001	 1.470610475021273e+001
 1.472483335335009e+000	 3.456140581528618e-001	 1.469680859011230e+001
 1.469100671092758e+000	 3.597213758140612e-001	 1.467834714043547e+001
 1.465573212044187e+000	 3.738333989216092e-001	 1.465066873999820e+001
 1.461900325423680e+000	 3.879480487416728e-001	 1.461373019882796e+001
 1.458081415476387e+000	 4.020632236623091e-001	 1.456749665971062e+001
 1.454115924245767e+000	 4.161767999477307e-001	 1.451194143717992e+001
 1.493395028291292e+000	 2.763563858782080e-001	 1.460358394683997e+001
 1.490714577491028e+000	 2.904679173286877e-001	 1.463062852842099e+001
 1.487892439241258e+000	 3.045942412274426e-001	 1.464888788340803e+001
 1.484927804695852e+000	 3.187333954546315e-001	 1.465828107635724e+001
 1.481819898013602e+000	 3.328833915689017e-001	 1.465873608030263e+001
 1.478567977213600e+000	 3.470422154182450e-001	 1.465018972128688e+001
 1.475171335019899e+000	 3.612078277804214e-001	 1.463258760031586e+001
 1.471629299694377e+000	 3.753781650328627e-001	 1.460588399254674e+001
 1.467941235856683e+000	 3.895511398519259e-001	 1.457004172358263e+001
 1.464106545290172e+000	 4.037246419413207e-001	 1.452503202281640e+001
 1.460124667732700e+000	 4.178965387894916e-001	 1.447083435383546e+001
 1.499540686843271e+000	 2.774936549555648e-001	 1.455570005827868e+001
 1.496849205380547e+000	 2.916632585522082e-001	 1.458311095012147e+001
 1.494015453392541e+000	 3.058477154713357e-001	 1.460182238696184e+001
 1.491038618704539e+000	 3.200450555185382e-001	 1.461175901181010e+001
 1.487917922282572e+000	 3.342532820695764e-001	 1.461285448596891e+001
 1.484652619092312e+000	 3.484703726837501e-001	 1.460505142691826e+001
 1.481241998947216e+000	 3.626942797469576e-001	 1.458830132321694e+001
 1.477685387344806e+000	 3.769229311443563e-001	 1.456256442623299e+001
 1.473982146290000e+000	 3.911542309624935e-001	 1.452780961858222e+001
 1.470131675104356e+000	 4.053860602207313e-001	 1.448401425922221e+001
 1.466133411220127e+000	 4.196162776317461e-001	 1.443116400522241e+001
 1.505686345395248e+000	 2.786309240329216e-001	 1.450927830289248e+001
 1.502983833270071e+000	 2.928585997757335e-001	 1.453705182070931e+001
 1.500138467543844e+000	 3.071011897152480e-001	 1.455621070241063e+001
 1.497149432713270e+000	 3.213567155824885e-001	 1.456668520317560e+001
 1.494015946551619e+000	 3.356231725703288e-001	 1.456841470801339e+001
 1.490737260971147e+000	 3.498985299493770e-001	 1.456134766297117e+001
 1.487312662874709e+000	 3.641807317136696e-001	 1.454544148294689e+001
 1.483741474995475e+000	 3.784676972560899e-001	 1.452066243592348e+001
 1.480023056723631e+000	 3.927573220733752e-001	 1.448698550350746e+001
 1.476156804918940e+000	 4.070474785005407e-001	 1.444439421772721e+001
 1.472142154708047e+000	 4.213360164744944e-001	 1.439288047411703e+001
 1.511832003947226e+000	 2.797681931102784e-001	 1.446427713967876e+001
 1.509118461159599e+000	 2.940539409992634e-001	 1.449240881440654e+001
 1.506261481695166e+000	 3.083546639591797e-001	 1.451200971973919e+001
 1.503260246722044e+000	 3.226683756464824e-001	 1.452301575723673e+001
 1.500113970820744e+000	 3.369930630711591e-001	 1.452537207155909e+001
 1.496821902850103e+000	 3.513266872151256e-001	 1.451903297496536e+001
 1.493383326802378e+000	 3.656671836805576e-001	 1.450396184800229e+001
 1.489797562646384e+000	 3.800124633680635e-001	 1.448013101620229e+001
 1.486063967157577e+000	 3.943604131845714e-001	 1.444752160267939e+001
 1.482181934733921e+000	 4.087088967807489e-001	 1.440612335658375e+001
 1.478150898196462e+000	 4.230557553177364e-001	 1.435593445744893e+001
 1.517977662499204e+000	 2.809054621876352e-001	 1.442065557868798e+001
 1.515253089049133e+000	 2.952492822227984e-001	 1.444914016198120e+001
 1.512384495846507e+000	 3.096081382031306e-001	 1.446917689088472e+001
 1.509371060730862e+000	 3.239800357105198e-001	 1.448070734804549e+001
 1.506211995089947e+000	 3.383629535720670e-001	 1.448368247422182e+001
 1.502906544729181e+000	 3.527548444809962e-001	 1.447806248604144e+001
 1.499453990730222e+000	 3.671536356476214e-001	 1.446381676952964e+001
 1.495853650297534e+000	 3.815572294802773e-001	 1.444092374923123e+001
 1.492104877591837e+000	 3.959635042960820e-001	 1.440937073281967e+001
 1.488207064549302e+000	 4.103703150613563e-001	 1.436915373116025e+001
 1.484159641685370e+000	 4.247754941614720e-001	 1.432027725386883e+001
 1.524123321051181e+000	 2.820427312649920e-001	 1.437837316991368e+001
 1.521387716938671e+000	 2.964446234463382e-001	 1.440720463952691e+001
 1.518507509997868e+000	 3.108616124471010e-001	 1.442767021840719e+001
 1.515481874739723e+000	 3.252916957746010e-001	 1.443971720548601e+001
 1.512310019359227e+000	 3.397328440730527e-001	 1.444330237456804e+001
 1.508991186608381e+000	 3.541830017469885e-001	 1.443839188531526e+001
 1.505524654658242e+000	 3.686400876148613e-001	 1.442496116957871e+001
 1.501909737948923e+000	 3.831019955927310e-001	 1.440299479290345e+001
 1.498145788026411e+000	 3.975665954079070e-001	 1.437248629110702e+001
 1.494232194365083e+000	 4.120317333423624e-001	 1.433343798190252e+001
 1.490168385174771e+000	 4.264952330057014e-001	 1.428586075161705e+001
 1.530268979603159e+000	 2.831800003423489e-001	 1.433738999245030e+001
 1.527522344828214e+000	 2.976399646698826e-001	 1.436656155751227e+001
 1.524630524149247e+000	 3.121150866910906e-001	 1.438744824443266e+001
 1.521592688748628e+000	 3.266033558387259e-001	 1.440000310411335e+001
 1.518408043628586e+000	 3.411027345741162e-001	 1.440418878085063e+001
 1.515075828487703e+000	 3.556111590131026e-001	 1.439997741651291e+001
 1.511595318586439e+000	 3.701265395822769e-001	 1.438735052963826e+001
 1.507965825600553e+000	 3.846467617054248e-001	 1.436629886928255e+001
 1.504186698461300e+000	 3.991696865200462e-001	 1.433682224352142e+001
 1.500257324181261e+000	 4.136931516237674e-001	 1.429892932258527e+001
 1.496177128664667e+000	 4.282149718504246e-001	 1.425263741668443e+001
 1.536414638155137e+000	 2.843172694197058e-001	 1.429766664391106e+001
 1.533656972717762e+000	 2.988353058934320e-001	 1.432717075009359e+001
 1.530753538300647e+000	 3.133685609350996e-001	 1.434847003986196e+001
 1.527703502757577e+000	 3.279150159028942e-001	 1.436152335225990e+001
 1.524506067898022e+000	 3.424726250752574e-001	 1.436629924001541e+001
 1.521160470367146e+000	 3.570393162793387e-001	 1.436277586687851e+001
 1.517665982514811e+000	 3.716129915498685e-001	 1.435094087944765e+001
 1.514021913252422e+000	 3.861915278183588e-001	 1.433079125331918e+001
 1.510227608896503e+000	 4.007727776325000e-001	 1.430233311346808e+001
 1.506282453997839e+000	 4.153545699055714e-001	 1.426558152884553e+001
 1.502185872155057e+000	 4.299347106956415e-001	 1.422056028125725e+001
 1.442098437273382e+000	 4.127373222656903e-001	 1.459866862449394e+001
 1.438019833735305e+000	 4.267305446539297e-001	 1.462496819101354e+001
 1.433794869141144e+000	 4.407179065610665e-001	 1.463838266254864e+001
 1.429423107123609e+000	 4.546972407496674e-001	 1.463878494860390e+001
 1.424904151753961e+000	 4.686663613134735e-001	 1.462605659525267e+001
 1.420237648231791e+000	 4.826230645635711e-001	 1.460008766129355e+001
 1.415423283553266e+000	 4.965651299408992e-001	 1.456077657433421e+001
 1.410460787156776e+000	 5.104903209545468e-001	 1.450802996710168e+001
 1.405349931544904e+000	 5.243963861452563e-001	 1.444176249434839e+001
 1.400090532881687e+000	 5.382810600734965e-001	 1.436189663079367e+001
 1.394682451564126e+000	 5.521420643314209e-001	 1.426836245061045e+001
 1.448107180759328e+000	 4.144570611064636e-001	 1.455453579937464e+001
 1.444011583040220e+000	 4.285085885873781e-001	 1.458120579641136e+001
 1.439769014427198e+000	 4.425542311686168e-001	 1.459522651709385e+001
 1.435379036734774e+000	 4.565918125825916e-001	 1.459646559450754e+001
 1.430841252384506e+000	 4.706191378151012e-001	 1.458479908227637e+001
 1.426155305097649e+000	 4.846339939951962e-001	 1.456011132867006e+001
 1.421320880566187e+000	 4.986341513114862e-001	 1.452229483077668e+001
 1.416337707101169e+000	 5.126173639543490e-001	 1.447125006905057e+001
 1.411205556257271e+000	 5.265813710834476e-001	 1.440688532261657e+001
 1.405924243432547e+000	 5.405238978199202e-001	 1.432911646578161e+001
 1.400493628442318e+000	 5.544426562625545e-001	 1.423786674627556e+001
 1.454115924245767e+000	 4.161767999477307e-001	 1.451194143717992e+001
 1.450003332345723e+000	 4.302866325214154e-001	 1.453880112884828e+001
 1.445743159713925e+000	 4.443905557768416e-001	 1.455324558838313e+001
 1.441334966346689e+000	 4.584863844162658e-001	 1.455513728645194e+001
 1.436778353015867e+000	 4.725719143175449e-001	 1.454434690090248e+001
 1.432072961964379e+000	 4.866449234276931e-001	 1.452075318871667e+001
 1.427218477580026e+000	 5.007031726829908e-001	 1.448424283816131e+001
 1.422214627046515e+000	 5.147444069551049e-001	 1.443471030145825e+001
 1.417061180970617e+000	 5.287663560226185e-001	 1.437205760836525e+001
 1.411757953984402e+000	 5.427667355673386e-001	 1.429619416113136e+001
 1.406304805321510e+000	 5.567432481946879e-001	 1.420703651136018e+001
 1.460124667732700e+000	 4.178965387894916e-001	 1.447083435383546e+001
 1.455995081651815e+000	 4.320646764560414e-001	 1.449770435192823e+001
 1.451717305001326e+000	 4.462268803857406e-001	 1.451239140890903e+001
 1.447290895959353e+000	 4.603809562506901e-001	 1.451475294678157e+001
 1.442715453648043e+000	 4.745246908208047e-001	 1.450465438403015e+001
 1.437990618831980e+000	 4.886558528610617e-001	 1.448196900531499e+001
 1.433116074594782e+000	 5.027721940554134e-001	 1.444657781149133e+001
 1.428091546992815e+000	 5.168714499568144e-001	 1.439836935028530e+001
 1.422916805684943e+000	 5.309513409627684e-001	 1.433723952803053e+001
 1.417591664537252e+000	 5.450095733157517e-001	 1.426309140294045e+001
 1.412115982201702e+000	 5.590438401278216e-001	 1.417583496046213e+001
 1.466133411220127e+000	 4.196162776317461e-001	 1.443116400522241e+001
 1.461986830958496e+000	 4.338427203912564e-001	 1.445786623927094e+001
 1.457691450289403e+000	 4.480632049953141e-001	 1.447261609087095e+001
 1.453246825572768e+000	 4.622755280858645e-001	 1.447526604688047e+001
 1.448652554281037e+000	 4.764774673248804e-001	 1.446567638258314e+001
 1.443908275700454e+000	 4.906667822953024e-001	 1.444371502902020e+001
 1.439013671610457e+000	 5.048412154287539e-001	 1.440925742076742e+001
 1.433968466940069e+000	 5.189984929594778e-001	 1.436218632450075e+001
 1.428772430400248e+000	 5.331363259038979e-001	 1.430239164876702e+001
 1.423425375091096e+000	 5.472524110651600e-001	 1.422977023544659e+001
 1.417927159082894e+000	 5.613444320619552e-001	 1.414422563346577e+001
 1.472142154708047e+000	 4.213360164744944e-001	 1.439288047411703e+001
 1.467978580265765e+000	 4.356207643270604e-001	 1.441923816206234e+001
 1.463665595578154e+000	 4.498995296055618e-001	 1.443387231434432e+001
 1.459202755186933e+000	 4.641700999217890e-001	 1.443663059596736e+001
 1.454589654914844e+000	 4.784302438297720e-001	 1.442736825493800e+001
 1.449825932569799e+000	 4.926777117304149e-001	 1.440594798712878e+001
 1.444911268627049e+000	 5.069102368030120e-001	 1.437223978170198e+001
 1.439845386888276e+000	 5.211255359630946e-001	 1.432612074744906e+001
 1.434628055116533e+000	 5.353213108460068e-001	 1.426747492047395e+001
 1.429259085645936e+000	 5.494952488155629e-001	 1.419619305371883e+001
 1.423738335965086e+000	 5.636450239970886e-001	 1.411217238890345e+001
 1.478150898196462e+000	 4.230557553177364e-001	 1.435593445744893e+001
 1.473970329573624e+000	 4.373988082634531e-001	 1.438177207690915e+001
 1.469639740867579e+000	 4.517358542164841e-001	 1.439611331573857e+001
 1.465158684801848e+000	 4.660646717584636e-001	 1.439880113016411e+001
 1.460526755549469e+000	 4.803830203354797e-001	 1.438968585661012e+001
 1.455743589440018e+000	 4.946886411663994e-001	 1.436862507398880e+001
 1.450808865644559e+000	 5.089792581781880e-001	 1.433548344665993e+001
 1.445722306837437e+000	 5.232525789676652e-001	 1.429013254842799e+001
 1.440483679833797e+000	 5.375062957890952e-001	 1.423245066801582e+001
 1.435092796201770e+000	 5.517380865669607e-001	 1.416232259652679e+001
 1.429549512848277e+000	 5.659456159332221e-001	 1.407963939747901e+001
 1.484159641685370e+000	 4.247754941614720e-001	 1.432027725386883e+001
 1.479962078882072e+000	 4.391768522004349e-001	 1.434542051398818e+001
 1.475613886157678e+000	 4.535721788280806e-001	 1.435929287653515e+001
 1.471114614417514e+000	 4.679592435958884e-001	 1.436173270182958e+001
 1.466463856184910e+000	 4.823357968420033e-001	 1.435258553018996e+001
 1.461661246311107e+000	 4.966995706032558e-001	 1.433170394154523e+001
 1.456706462662987e+000	 5.110482795542820e-001	 1.429894739581971e+001
 1.451599226787553e+000	 5.253796219731897e-001	 1.425418205447088e+001
 1.446339304552040e+000	 5.396912807331626e-001	 1.419728058363187e+001
 1.440926506758599e+000	 5.539809243193532e-001	 1.412812193938309e+001
 1.435360689732469e+000	 5.682462078703557e-001	 1.404659113574833e+001
 1.490168385174771e+000	 4.264952330057014e-001	 1.428586075161705e+001
 1.485953828191108e+000	 4.409548961380054e-001	 1.431013656548234e+001
 1.481588031448452e+000	 4.554085034403515e-001	 1.432336531229828e+001
 1.477070544033929e+000	 4.698538154340630e-001	 1.432538086915164e+001
 1.472400956821166e+000	 4.842885733493427e-001	 1.431602409552307e+001
 1.467578903183068e+000	 4.987105000409839e-001	 1.429514269011446e+001
 1.462604059682332e+000	 5.131173009312936e-001	 1.426259102854788e+001
 1.457476146738621e+000	 5.275066649796676e-001	 1.421822998232769e+001
 1.452194929271263e+000	 5.418762656782096e-001	 1.416192671952963e+001
 1.446760217316422e+000	 5.562237620727406e-001	 1.409355448775423e+001
 1.441171866617661e+000	 5.705467998084891e-001	 1.401299237995321e+001
 1.496177128664667e+000	 4.282149718504246e-001	 1.425263741668443e+001
 1.491945577500734e+000	 4.427329400761650e-001	 1.427587387429544e+001
 1.487562176739900e+000	 4.572448280532969e-001	 1.428828546195028e+001
 1.483026473651094e+000	 4.717483872729880e-001	 1.428970168599007e+001
 1.478338057458239e+000	 4.862413498574983e-001	 1.427995884012677e+001
 1.473496560055901e+000	 5.007214294795842e-001	 1.425889985938063e+001
 1.468501656702596e+000	 5.151863223092232e-001	 1.422637415498177e+001
 1.463353066690643e+000	 5.296337079870991e-001	 1.418223743063957e+001
 1.458050553991465e+000	 5.440612506242359e-001	 1.412635148065636e+001
 1.452593927875241e+000	 5.584665998271229e-001	 1.405858397043512e+001
 1.446983043503853e+000	 5.728473917476228e-001	 1.397880820000338e+001
 1.502185872155057e+000	 4.299347106956415e-001	 1.422056028125725e+001
 1.497937326810948e+000	 4.445109840149134e-001	 1.424258662303784e+001
 1.493536322032023e+000	 4.590811526669167e-001	 1.425400867730459e+001
 1.488982403269010e+000	 4.736429591126630e-001	 1.425465169196299e+001
 1.484275158096128e+000	 4.881941263664698e-001	 1.424434750983655e+001
 1.479414216929606e+000	 5.027323589190562e-001	 1.422293441960837e+001
 1.474399253723777e+000	 5.172553436880707e-001	 1.419025698781398e+001
 1.469229986643619e+000	 5.317607509954845e-001	 1.414616587230087e+001
 1.463906178712646e+000	 5.462462355712415e-001	 1.409051761764437e+001
 1.458427638435055e+000	 5.607094375825000e-001	 1.402317443308231e+001
 1.452794220391045e+000	 5.751479836877564e-001	 1.394400395360328e+001
 1.394682451564126e+000	 5.521420643314209e-001	 1.426836245061045e+001
 1.389125592766238e+000	 5.659771085781107e-001	 1.426879095425657e+001
 1.383419906956705e+000	 5.797838915970461e-001	 1.425760411835318e+001
 1.377565390387860e+000	 5.935601023749983e-001	 1.423460326335420e+001
 1.371562085553623e+000	 6.073034212018715e-001	 1.419959211393043e+001
 1.365410081617534e+000	 6.210115207902520e-001	 1.415237659052140e+001
 1.359109514809321e+000	 6.346820674137966e-001	 1.410134247306056e+001
 1.352660568789146e+000	 6.483127220634620e-001	 1.404836078938509e+001
 1.346063474978724e+000	 6.619011416205383e-001	 1.399145845579123e+001
 1.339318512858520e+000	 6.754449800454148e-001	 1.393105593969736e+001
 1.332426010230286e+000	 6.889418895809607e-001	 1.386759622260449e+001
 1.400493628442318e+000	 5.544426562625545e-001	 1.423786674627556e+001
 1.394913616065586e+000	 5.683353465272684e-001	 1.423906473553588e+001
 1.389184156564745e+000	 5.821996578090622e-001	 1.422889989303191e+001
 1.383305246176515e+000	 5.960332694654861e-001	 1.420720523974060e+001
 1.377276927571873e+000	 6.098338521209843e-001	 1.417381633015876e+001
 1.371099290285876e+000	 6.235990687911118e-001	 1.412857100739966e+001
 1.364772471115874e+000	 6.373265760256661e-001	 1.407611078372983e+001
 1.358296654487283e+000	 6.510140250697322e-001	 1.401984054117342e+001
 1.351672072786073e+000	 6.646590630416051e-001	 1.396004484425659e+001
 1.344899006657214e+000	 6.782593341265091e-001	 1.389717531941768e+001
 1.337977785268296e+000	 6.918124807849916e-001	 1.383170646866503e+001
 1.406304805321510e+000	 5.567432481946879e-001	 1.420703651136018e+001
 1.400701639365933e+000	 5.706935844774209e-001	 1.420935060249049e+001
 1.394948406173785e+000	 5.846154240220590e-001	 1.420055434696235e+001
 1.389045101966169e+000	 5.985064365569294e-001	 1.418051235963844e+001
 1.382991769591123e+000	 6.123642830410182e-001	 1.414909191720838e+001
 1.376788498955217e+000	 6.261866167928488e-001	 1.410571303547728e+001
 1.370435427423427e+000	 6.399710846383582e-001	 1.405013674680687e+001
 1.363932740186419e+000	 6.537153280767603e-001	 1.399096616127661e+001
 1.357280670594422e+000	 6.674169844633553e-001	 1.392866080655139e+001
 1.350479500456906e+000	 6.810736882082021e-001	 1.386370324674132e+001
 1.343529560307306e+000	 6.946830719895264e-001	 1.379659928807726e+001
 1.412115982201702e+000	 5.590438401278216e-001	 1.417583496046213e+001
 1.406489662667281e+000	 5.730518224285686e-001	 1.417960665411676e+001
 1.400712655783825e+000	 5.870311902360362e-001	 1.417252047540345e+001
 1.394784957756824e+000	 6.009796036493291e-001	 1.415447252902969e+001
 1.388706611611373e+000	 6.148947139619737e-001	 1.412536170885545e+001
 1.382477707625558e+000	 6.287741647954627e-001	 1.408187568414039e+001
 1.376098383731980e+000	 6.426155932518726e-001	 1.402342759338728e+001
 1.369568825886556e+000	 6.564166310845466e-001	 1.396174104373799e+001
 1.362889268403771e+000	 6.701749058857890e-001	 1.389730588856326e+001
 1.356059994257599e+000	 6.838880422904936e-001	 1.383063540992912e+001
 1.349081335347315e+000	 6.975536631945650e-001	 1.376226650367151e+001
 1.417927159082894e+000	 5.613444320619552e-001	 1.414422563346577e+001
 1.412277685969628e+000	 5.754100603807116e-001	 1.414979139080393e+001
 1.406476905394865e+000	 5.894469564509938e-001	 1.414475175096661e+001
 1.400524813548478e+000	 6.034527707426842e-001	 1.412903420702605e+001
 1.394421453632622e+000	 6.174251448838505e-001	 1.410256916756553e+001
 1.388166916296899e+000	 6.313617127989535e-001	 1.405692629990655e+001
 1.381761340041533e+000	 6.452601018662100e-001	 1.399599133357920e+001
 1.375204911587692e+000	 6.591179340930911e-001	 1.393216943630501e+001
 1.368497866214120e+000	 6.729328273089064e-001	 1.386598056421399e+001
 1.361640488059292e+000	 6.867023963733845e-001	 1.379796849920861e+001
 1.354633110388325e+000	 7.004242544001076e-001	 1.372870101374332e+001
 1.423738335965086e+000	 5.636450239970886e-001	 1.411217238890345e+001
 1.418065709272976e+000	 5.777682983338496e-001	 1.411986370614247e+001
 1.412241155006905e+000	 5.918627226669319e-001	 1.411720211387381e+001
 1.406264669341132e+000	 6.059259378369956e-001	 1.410414639458079e+001
 1.400136295654872e+000	 6.199555758066487e-001	 1.408065837166338e+001
 1.393856124969241e+000	 6.339492608033214e-001	 1.403087733184712e+001
 1.387424296352086e+000	 6.479046104813698e-001	 1.396783674060527e+001
 1.380840997289828e+000	 6.618192371023934e-001	 1.390225642300669e+001
 1.374106464025469e+000	 6.756907487327072e-001	 1.383468621651993e+001
 1.367220981861985e+000	 6.895167504568741e-001	 1.376570018632554e+001
 1.360184885430335e+000	 7.032948456061544e-001	 1.369589677010521e+001
 1.429549512848277e+000	 5.659456159332221e-001	 1.407963939747901e+001
 1.423853732577323e+000	 5.801265362879827e-001	 1.408978287893218e+001
 1.418005404619945e+000	 5.942784888838502e-001	 1.408982596245328e+001
 1.412004525134787e+000	 6.083991049322625e-001	 1.407975862347563e+001
 1.405851137678122e+000	 6.224860067303686e-001	 1.405957400281525e+001
 1.399545333642581e+000	 6.365368088085662e-001	 1.400374190464510e+001
 1.393087252663640e+000	 6.505491190973524e-001	 1.393897333529197e+001
 1.386477082992965e+000	 6.645205401124541e-001	 1.387200790715612e+001
 1.379715061837818e+000	 6.784486701571918e-001	 1.380342511911480e+001
 1.372801475665678e+000	 6.923311045409624e-001	 1.373382910459452e+001
 1.365736660473344e+000	 7.061654368127049e-001	 1.366384875667379e+001
 1.435360689732469e+000	 5.682462078703557e-001	 1.404659113574833e+001
 1.429641755882670e+000	 5.824847742431109e-001	 1.405950856538442e+001
 1.423769654233985e+000	 5.966942551017491e-001	 1.406257814386625e+001
 1.417744380929441e+000	 6.108722720284856e-001	 1.405582094557508e+001
 1.411565979702372e+000	 6.250164376550097e-001	 1.403921383270954e+001
 1.405234542316923e+000	 6.391243568146884e-001	 1.397553380491888e+001
 1.398750208976193e+000	 6.531936277141571e-001	 1.390941137093608e+001
 1.392113168697101e+000	 6.672218431232727e-001	 1.384143059476561e+001
 1.385323659651167e+000	 6.812065915823597e-001	 1.377220041822072e+001
 1.378381969470371e+000	 6.951454586256495e-001	 1.370235482943397e+001
 1.371288435517354e+000	 7.090360280197592e-001	 1.363255296857693e+001
 1.441171866617661e+000	 5.705467998084891e-001	 1.401299237995321e+001
 1.435429779189018e+000	 5.848430121992344e-001	 1.402900079151308e+001
 1.429533903849025e+000	 5.991100213206284e-001	 1.403541394505768e+001
 1.423484236725096e+000	 6.133454391256646e-001	 1.403228392234113e+001
 1.417280821727622e+000	 6.275468685805725e-001	 1.401123607108586e+001
 1.410923750992264e+000	 6.417119048216875e-001	 1.394626746787664e+001
 1.404413165289746e+000	 6.558381363317849e-001	 1.387916181853710e+001
 1.397749254402238e+000	 6.699231461348496e-001	 1.381053197836333e+001
 1.390932257465516e+000	 6.839645130082115e-001	 1.374101611505577e+001
 1.383962463276064e+000	 6.979598127109354e-001	 1.367127785937201e+001
 1.376840210562364e+000	 7.119066192273177e-001	 1.360200639176644e+001
 1.446983043503853e+000	 5.728473917476228e-001	 1.397880820000338e+001
 1.441217802496365e+000	 5.872012501563527e-001	 1.399821994570866e+001
 1.435298153465064e+000	 6.015257875404881e-001	 1.400828908392546e+001
 1.429224092521751e+000	 6.158186062237993e-001	 1.400909861460022e+001
 1.422995663753871e+000	 6.300772995070565e-001	 1.398184373068499e+001
 1.416612959668606e+000	 6.442994528295635e-001	 1.391595796429253e+001
 1.410076121604299e+000	 6.584826449502352e-001	 1.384823635238559e+001
 1.403385340108374e+000	 6.726244491471847e-001	 1.377932032119984e+001
 1.396540855280865e+000	 6.867224344347462e-001	 1.370987704866539e+001
 1.389542957082757e+000	 7.007741667968201e-001	 1.364059959751035e+001
 1.382391985608374e+000	 7.147772104353799e-001	 1.357220698312195e+001
 1.452794220391045e+000	 5.751479836877564e-001	 1.394400395360328e+001
 1.447005825804713e+000	 5.895594881144664e-001	 1.396712677149091e+001
 1.441062403082105e+000	 6.039415537613283e-001	 1.398115970070120e+001
 1.434963948319405e+000	 6.182917733228899e-001	 1.398621657255601e+001
 1.428710505781122e+000	 6.326077304344622e-001	 1.395105581908078e+001
 1.422302168345947e+000	 6.468870008383167e-001	 1.388462098779537e+001
 1.415739077919852e+000	 6.611271535695082e-001	 1.381664733599720e+001
 1.409021425815511e+000	 6.753257521602778e-001	 1.374780464183350e+001
 1.402149453097215e+000	 6.894803558619649e-001	 1.367878887916595e+001
 1.395123450890451e+000	 7.035885208833039e-001	 1.361032233343254e+001
 1.387943760655384e+000	 7.176478016439463e-001	 1.354315365103244e+001
 1.332426010230286e+000	 6.889418895809607e-001	 1.386759622260449e+001
 1.325386343444616e+000	 7.023895219688925e-001	 1.377351341917992e+001
 1.318199937591758e+000	 7.157855296793174e-001	 1.368489286746363e+001
 1.310867266655738e+000	 7.291275671514321e-001	 1.360301095667552e+001
 1.303388853632028e+000	 7.424132920430727e-001	 1.352916625710665e+001
 1.295765270607128e+000	 7.556403664892382e-001	 1.346467865130141e+001
 1.287997138799944e+000	 7.688064583678336e-001	 1.341088839155808e+001
 1.280085128564544e+000	 7.819092425712994e-001	 1.336915508351412e+001
 1.272029959353938e+000	 7.949464022827657e-001	 1.334085659580398e+001
 1.263832399644536e+000	 8.079156302553554e-001	 1.332738789600297e+001
 1.255493266821060e+000	 8.208146300932377e-001	 1.333015981330156e+001
 1.337977785268296e+000	 6.918124807849916e-001	 1.383170646866503e+001
 1.330908786538015e+000	 7.053161449744276e-001	 1.374510274135846e+001
 1.323692437327799e+000	 7.187679693836179e-001	 1.366393727365170e+001
 1.316329213596609e+000	 7.321655986785896e-001	 1.358942254172484e+001
 1.308819640519064e+000	 7.455066807574200e-001	 1.352279317859135e+001
 1.301164292565356e+000	 7.587888680140039e-001	 1.346530517659418e+001
 1.293363793542806e+000	 7.720098186090723e-001	 1.341823501640895e+001
 1.285418816598624e+000	 7.851671977471172e-001	 1.338287872219259e+001
 1.277330084183539e+000	 7.982586789578652e-001	 1.336055084273472e+001
 1.269098367975947e+000	 8.112819453809107e-001	 1.335258335869308e+001
 1.260724488766339e+000	 8.242346910521079e-001	 1.336032451622958e+001
 1.343529560307306e+000	 6.946830719895264e-001	 1.379659928807726e+001
 1.336431229632404e+000	 7.082427679803667e-001	 1.371656412139256e+001
 1.329184937064801e+000	 7.217504090882221e-001	 1.364194028906348e+001
 1.321791160538390e+000	 7.352036302059504e-001	 1.357387676161673e+001
 1.314250427406940e+000	 7.486000694718704e-001	 1.351354465065342e+001
 1.306563314524338e+000	 7.619373695387733e-001	 1.346213648241111e+001
 1.298730448286312e+000	 7.752131788502142e-001	 1.342086539800501e+001
 1.290752504633217e+000	 7.884251529227379e-001	 1.339096427985830e+001
 1.282630209013504e+000	 8.015709556326672e-001	 1.337368480404735e+001
 1.274364336307552e+000	 8.146482605060688e-001	 1.337029641851516e+001
 1.265955710711623e+000	 8.276547520104803e-001	 1.338208524733601e+001
 1.349081335347315e+000	 6.975536631945650e-001	 1.376226650367151e+001
 1.341953672727783e+000	 7.111693909867094e-001	 1.368790130542320e+001
 1.334677436802763e+000	 7.247328487931302e-001	 1.361891754876810e+001
 1.327253107481083e+000	 7.382416617335151e-001	 1.355640110024092e+001
 1.319681214295660e+000	 7.516934581864246e-001	 1.350145996017390e+001
 1.311962336484071e+000	 7.650858710635459e-001	 1.345522360708137e+001
 1.304097103030461e+000	 7.784165390912594e-001	 1.341884226888011e+001
 1.296086192668325e+000	 7.916831080981617e-001	 1.339348612032386e+001
 1.287930333843834e+000	 8.048832323071723e-001	 1.338034440625008e+001
 1.279630304639353e+000	 8.180145756308296e-001	 1.338062449046055e+001
 1.271186932656912e+000	 8.310748129683555e-001	 1.339555083028887e+001
 1.354633110388325e+000	 7.004242544001076e-001	 1.372870101374332e+001
 1.347476115824152e+000	 7.140960139934564e-001	 1.365911892915332e+001
 1.340169936541686e+000	 7.277152884983420e-001	 1.359488539147906e+001
 1.332715054424688e+000	 7.412796932612832e-001	 1.353702355928670e+001
 1.325112001185220e+000	 7.547868469010819e-001	 1.348657872614809e+001
 1.317361358444558e+000	 7.682343725883217e-001	 1.344461773561083e+001
 1.309463757775254e+000	 7.816198993322074e-001	 1.341222832314236e+001
 1.301419880703948e+000	 7.949410632733880e-001	 1.339051838429828e+001
 1.293230458674529e+000	 8.081955089813800e-001	 1.338061516858194e+001
 1.284896272971349e+000	 8.213808907551933e-001	 1.338366439868753e+001
 1.276418154602207e+000	 8.344948739257335e-001	 1.340082931504959e+001
 1.360184885430335e+000	 7.032948456061544e-001	 1.369589677010521e+001
 1.352998558921511e+000	 7.170226370006066e-001	 1.363022249969346e+001
 1.345662436281570e+000	 7.306977282038575e-001	 1.356986084519420e+001
 1.338177001369203e+000	 7.443177247892553e-001	 1.351577264767547e+001
 1.330542788075624e+000	 7.578802356158434e-001	 1.346894089290791e+001
 1.322760380405797e+000	 7.713828741131007e-001	 1.343037019668833e+001
 1.314830412520691e+000	 7.848232595730587e-001	 1.340108621725836e+001
 1.306753568740084e+000	 7.981990184484172e-001	 1.338213499393969e+001
 1.298530583505588e+000	 8.115077856552906e-001	 1.337458221132404e+001
 1.290162241303540e+000	 8.247472058791593e-001	 1.337951238857897e+001
 1.281649376547507e+000	 8.379149348826140e-001	 1.339802799366317e+001
 1.365736660473344e+000	 7.061654368127049e-001	 1.366384875667379e+001
 1.358521002019861e+000	 7.199492600081613e-001	 1.360121837785028e+001
 1.351154936022414e+000	 7.336801679096769e-001	 1.354386161318605e+001
 1.343638948314631e+000	 7.473557563174309e-001	 1.349267737125118e+001
 1.335973574966868e+000	 7.609736243307077e-001	 1.344858672350905e+001
 1.328159402367790e+000	 7.745313756378834e-001	 1.341253245976561e+001
 1.320197067266771e+000	 7.880266198138131e-001	 1.338547857081843e+001
 1.312087256776735e+000	 8.014569736232499e-001	 1.336840965729777e+001
 1.303830708337013e+000	 8.148200623289039e-001	 1.336233026390893e+001
 1.295428209635925e+000	 8.281135210027281e-001	 1.336826413850605e+001
 1.286880598492812e+000	 8.413349958389973e-001	 1.338725341566276e+001
 1.371288435517354e+000	 7.090360280197592e-001	 1.363255296857693e+001
 1.364043445119200e+000	 7.228758830161196e-001	 1.357211376084514e+001
 1.356647435764218e+000	 7.366626076157999e-001	 1.351690606033194e+001
 1.349100895260968e+000	 7.503937878458102e-001	 1.346776722272122e+001
 1.341404361858955e+000	 7.640670130456758e-001	 1.342555679327926e+001
 1.333558424330535e+000	 7.776798771626690e-001	 1.339115613220761e+001
 1.325563722013495e+000	 7.912299800544704e-001	 1.336546796728280e+001
 1.317420944813900e+000	 8.047149287978851e-001	 1.334941587264758e+001
 1.309130833168802e+000	 8.181323390022200e-001	 1.334394367283197e+001
 1.300694177968507e+000	 8.314798361258995e-001	 1.335001477130633e+001
 1.292111820438123e+000	 8.447550567948829e-001	 1.336861140310026e+001
 1.376840210562364e+000	 7.119066192273177e-001	 1.360200639176644e+001
 1.369565888219530e+000	 7.258025060244820e-001	 1.354291666545119e+001
 1.362139935506983e+000	 7.396450473222269e-001	 1.348901319977569e+001
 1.354562842208218e+000	 7.534318193743931e-001	 1.344107217184066e+001
 1.346835148751885e+000	 7.671604017607473e-001	 1.339989198352261e+001
 1.338957446294032e+000	 7.808283786874583e-001	 1.336629295651205e+001
 1.330930376760863e+000	 7.944333402950311e-001	 1.334111695471036e+001
 1.322754632851579e+000	 8.079728839723234e-001	 1.332522693271915e+001
 1.314430958000957e+000	 8.214446156752391e-001	 1.331950640937250e+001
 1.305960146301284e+000	 8.348461512486739e-001	 1.332485886548388e+001
 1.297343042383439e+000	 8.481751177502714e-001	 1.334220706521346e+001
 1.382391985608374e+000	 7.147772104353799e-001	 1.357220698312195e+001
 1.375088331320850e+000	 7.287291290332482e-001	 1.351363591153606e+001
 1.367632435250710e+000	 7.426274870289578e-001	 1.346020267990958e+001
 1.360024789156378e+000	 7.564698509031794e-001	 1.341262265583288e+001
 1.352265935645655e+000	 7.702537904759222e-001	 1.337163347537502e+001
 1.344356468258283e+000	 7.839768802122504e-001	 1.333799480759598e+001
 1.336297031508873e+000	 7.976367005354946e-001	 1.331248804646933e+001
 1.328088320889773e+000	 8.112308391465646e-001	 1.329591592882485e+001
 1.319731082833475e+000	 8.247568923479607e-001	 1.328910207712757e+001
 1.311226114634255e+000	 8.382124663710507e-001	 1.329289046613987e+001
 1.302574264328760e+000	 8.515951787051627e-001	 1.330814481273943e+001
 1.387943760655384e+000	 7.176478016439463e-001	 1.354315365103244e+001
 1.380610774423161e+000	 7.316557520424184e-001	 1.348428110600034e+001
 1.373124934995397e+000	 7.456099267359925e-001	 1.343049477166994e+001
 1.365486736105450e+000	 7.595078824321699e-001	 1.338244957004005e+001
 1.357696722540269e+000	 7.733471791912008e-001	 1.334082274380817e+001
 1.349755490223286e+000	 7.871253817370462e-001	 1.330631369014717e+001
 1.341663686257528e+000	 8.008400607758616e-001	 1.327964372193127e+001
 1.333422008928481e+000	 8.144887943206088e-001	 1.326155575488764e+001
 1.325031207666359e+000	 8.280691690203853e-001	 1.325281391936621e+001
 1.316492082967422e+000	 8.415787814930305e-001	 1.325420309564029e+001
 1.307805486274087e+000	 8.550152396595565e-001	 1.326652837188454e+001
 1.255493266821060e+000	 8.208146300932377e-001	 1.333015981330156e+001
 1.247013427021546e+000	 8.336411175332352e-001	 1.309581609928757e+001
 1.238393794942719e+000	 8.463928217249054e-001	 1.295136949608812e+001
 1.229635333605355e+000	 8.590674865080902e-001	 1.282128002257139e+001
 1.220739054079364e+000	 8.716628716869257e-001	 1.270641338719324e+001
 1.211706015169005e+000	 8.841767542982002e-001	 1.260761489351585e+001
 1.202537323058205e+000	 8.966069298728294e-001	 1.252570830923198e+001
 1.193234130916121e+000	 9.089512136889860e-001	 1.246149476885006e+001
 1.183797638463169e+000	 9.212074420154325e-001	 1.241575171237943e+001
 1.174229091497786e+000	 9.333734733436117e-001	 1.238923186227049e+001
 1.164529781384256e+000	 9.454471896070471e-001	 1.238266224077697e+001
 1.260724488766339e+000	 8.242346910521079e-001	 1.336032451622958e+001
 1.252209316301596e+000	 8.371146221903960e-001	 1.309103212774735e+001
 1.243553769089612e+000	 8.499194584833366e-001	 1.292396861980393e+001
 1.234758814163751e+000	 8.626469343701039e-001	 1.280095242416456e+001
 1.225825466806713e+000	 8.752948003206843e-001	 1.269309458642077e+001
 1.216754790234443e+000	 8.878608241095182e-001	 1.260126005552142e+001
 1.207547895239965e+000	 9.003427920822341e-001	 1.252629226273953e+001
 1.198205939797307e+000	 9.127385104139953e-001	 1.246901200153291e+001
 1.188730128625723e+000	 9.250458063580187e-001	 1.243021634342500e+001
 1.179121712714474e+000	 9.372625294827937e-001	 1.241067759220200e+001
 1.169381988808528e+000	 9.493865528965668e-001	 1.241114227863693e+001
 1.265955710711623e+000	 8.276547520104803e-001	 1.338208524733601e+001
 1.257405205581466e+000	 8.405881268469743e-001	 1.311848071499050e+001
 1.248713743236170e+000	 8.534460952411300e-001	 1.288918819912828e+001
 1.239882294721687e+000	 8.662263822314541e-001	 1.277341798412374e+001
 1.230911879533506e+000	 8.789267289537833e-001	 1.267274646449894e+001
 1.221803565299258e+000	 8.915448939202114e-001	 1.258805817011705e+001
 1.212558467421065e+000	 9.040786542910775e-001	 1.252021612691447e+001
 1.203177748677830e+000	 9.165258071385382e-001	 1.247006071396412e+001
 1.193662618787636e+000	 9.288841707002626e-001	 1.243840855658436e+001
 1.184014333930576e+000	 9.411515856217880e-001	 1.242605145783532e+001
 1.174234196232299e+000	 9.533259161860835e-001	 1.243375537064950e+001
 1.271186932656912e+000	 8.310748129683555e-001	 1.339555083028887e+001
 1.262601094861155e+000	 8.440616315029696e-001	 1.313781449303664e+001
 1.253873717382393e+000	 8.569727319982851e-001	 1.289735630825361e+001
 1.245005775279160e+000	 8.698058300921405e-001	 1.273869663740247e+001
 1.235998292259742e+000	 8.825586575862229e-001	 1.264538623064546e+001
 1.226852340363449e+000	 8.952289637302789e-001	 1.256802370529350e+001
 1.217569039601507e+000	 9.078145164993599e-001	 1.250749161432813e+001
 1.208149557557686e+000	 9.203131038626143e-001	 1.246464985041007e+001
 1.198595108948909e+000	 9.327225350421643e-001	 1.244033451624990e+001
 1.188906955146090e+000	 9.450406417605949e-001	 1.243535683344088e+001
 1.179086403655568e+000	 9.572652794755981e-001	 1.245050209204368e+001
 1.276418154602207e+000	 8.344948739257335e-001	 1.340082931504959e+001
 1.267796984140665e+000	 8.475351361583831e-001	 1.314913925672701e+001
 1.259033691528279e+000	 8.604993687548023e-001	 1.291446452983400e+001
 1.250129255836173e+000	 8.733852779521636e-001	 1.269843062579473e+001
 1.241084704985420e+000	 8.861905862180030e-001	 1.261103048791381e+001
 1.231901115427017e+000	 8.989130335397214e-001	 1.254117056587877e+001
 1.222579611781289e+000	 9.115503787070812e-001	 1.248812991779790e+001
 1.213121366436878e+000	 9.241004005862237e-001	 1.245278787918076e+001
 1.203527599109540e+000	 9.365608993837239e-001	 1.243599995502210e+001
 1.193799576361019e+000	 9.489296978992144e-001	 1.243859670600952e+001
 1.183938611078337e+000	 9.612046427651099e-001	 1.246138267560793e+001
 1.281649376547507e+000	 8.379149348826140e-001	 1.339802799366317e+001
 1.272992873419995e+000	 8.510086408132136e-001	 1.315256008332463e+001
 1.264193665673830e+000	 8.640260055106815e-001	 1.292384407000004e+001
 1.255252736392725e+000	 8.769647258115227e-001	 1.271352983155554e+001
 1.246171117710542e+000	 8.898225148491239e-001	 1.256969524556411e+001
 1.236949890489963e+000	 9.025971033485386e-001	 1.250751210503093e+001
 1.227590183960413e+000	 9.152862409142418e-001	 1.246214172099473e+001
 1.218093175315405e+000	 9.278876973093667e-001	 1.243448280234279e+001
 1.208460089269531e+000	 9.403992637249412e-001	 1.242541018252160e+001
 1.198692197575362e+000	 9.528187540376462e-001	 1.243577368315646e+001
 1.188790818500603e+000	 9.651440060546186e-001	 1.246639701867862e+001
 1.286880598492812e+000	 8.413349958389973e-001	 1.338725341566276e+001
 1.278188762699145e+000	 8.544821454674617e-001	 1.314818134709886e+001
 1.269353639819047e+000	 8.675526422659229e-001	 1.292559706178496e+001
 1.260376216948815e+000	 8.805441736702182e-001	 1.272117477750888e+001
 1.251257530435105e+000	 8.934544434795851e-001	 1.253660563715979e+001
 1.241998665552285e+000	 9.062811731567304e-001	 1.246706113545101e+001
 1.232600756138876e+000	 9.190221031208409e-001	 1.242953720879125e+001
 1.223064984193267e+000	 9.316749940320426e-001	 1.240974216519565e+001
 1.213392579428882e+000	 9.442376280658164e-001	 1.240857009398655e+001
 1.203584818789119e+000	 9.567078101758902e-001	 1.242689000083186e+001
 1.193643025922369e+000	 9.690833693441252e-001	 1.246554468995867e+001
 1.292111820438123e+000	 8.447550567948829e-001	 1.336861140310026e+001
 1.283384651978115e+000	 8.579556501211271e-001	 1.313610673355650e+001
 1.274513613963927e+000	 8.710792790205262e-001	 1.291982498863267e+001
 1.265499697504444e+000	 8.841236215282501e-001	 1.272146468052689e+001
 1.256343943159112e+000	 8.970863721093870e-001	 1.254274203097787e+001
 1.247047440613983e+000	 9.099652429642972e-001	 1.241982994032375e+001
 1.237611328316681e+000	 9.227579653268794e-001	 1.239032607735943e+001
 1.228036793070463e+000	 9.354622907542519e-001	 1.237857306551877e+001
 1.218325069587591e+000	 9.480759924063492e-001	 1.238548417866083e+001
 1.208477440002289e+000	 9.605968663139469e-001	 1.241194753084468e+001
 1.198495233343633e+000	 9.730227326336289e-001	 1.245882493616950e+001
 1.297343042383439e+000	 8.481751177502714e-001	 1.334220706521346e+001
 1.288580541256905e+000	 8.614291547742100e-001	 1.311643925332777e+001
 1.279673588108472e+000	 8.746059157744917e-001	 1.290662869749376e+001
 1.270623178059611e+000	 8.877030693856184e-001	 1.271449815980031e+001
 1.261430355882561e+000	 9.007183007385294e-001	 1.254178890114081e+001
 1.252096215675058e+000	 9.136493127712385e-001	 1.239025886250761e+001
 1.242621900493826e+000	 9.264938275323565e-001	 1.234451754402281e+001
 1.233008601946994e+000	 9.392495874759947e-001	 1.234098216259307e+001
 1.223257559745660e+000	 9.519143567465402e-001	 1.235615652797938e+001
 1.213370061214874e+000	 9.644859224518161e-001	 1.239094778820383e+001
 1.203347440764395e+000	 9.769620959231299e-001	 1.244623668854286e+001
 1.302574264328760e+000	 8.515951787051627e-001	 1.330814481273943e+001
 1.293776430535514e+000	 8.649026594267104e-001	 1.308928125571811e+001
 1.284833562252681e+000	 8.781325525278187e-001	 1.288610841160669e+001
 1.275746658614317e+000	 8.912825172423229e-001	 1.270037324884068e+001
 1.266516768605454e+000	 9.043502293670128e-001	 1.253384202881109e+001
 1.257144990735511e+000	 9.173333825775547e-001	 1.238829846410971e+001
 1.247632472670312e+000	 9.302296897372728e-001	 1.229212035687242e+001
 1.237980410822861e+000	 9.430368841972708e-001	 1.229697568600705e+001
 1.228190049903088e+000	 9.557527210863887e-001	 1.232059084355640e+001
 1.218262682426871e+000	 9.683749785894976e-001	 1.236389193828342e+001
 1.208199648184657e+000	 9.809014592126283e-001	 1.242777856915614e+001
 1.307805486274087e+000	 8.550152396595565e-001	 1.326652837188454e+001
 1.298972319813945e+000	 8.683761640786285e-001	 1.305473444193495e+001
 1.289993536396556e+000	 8.816591892805082e-001	 1.285836374297203e+001
 1.280870139168562e+000	 8.948619650983639e-001	 1.267918740719329e+001
 1.271603181327788e+000	 9.079821579948363e-001	 1.251899665885252e+001
 1.262193765795339e+000	 9.210174523832456e-001	 1.237960094950901e+001
 1.252643044846139e+000	 9.339655519416283e-001	 1.226282600696711e+001
 1.242952219698063e+000	 9.468241809180802e-001	 1.224655944425013e+001
 1.233122540059876e+000	 9.595910854258949e-001	 1.227879044498156e+001
 1.223155303638284e+000	 9.722640347269920e-001	 1.233078080381487e+001
 1.213051855604417e+000	 9.848408225021239e-001	 1.240344889711494e+001
 1.164529781384256e+000	 9.454471896070471e-001	 1.238266224077697e+001
 1.154701044501482e+000	 9.574264973870472e-001	 1.221543526924394e+001
 1.144744261654681e+000	 9.693093291020749e-001	 1.206316770765459e+001
 1.134660857449541e+000	 9.810936441801405e-001	 1.192565859325723e+001
 1.124452299628336e+000	 9.927774302137222e-001	 1.180268337111182e+001
 1.114120098370174e+000	 1.004358704094617e+000	 1.169399407546513e+001
 1.103665805555561e+000	 1.015835513127791e+000	 1.159931955605286e+001
 1.093091013996000e+000	 1.027205936122925e+000	 1.151836574910443e+001
 1.082397356629452e+000	 1.038468084462385e+000	 1.145081599270402e+001
 1.071586505682482e+000	 1.049620103144363e+000	 1.139633138604110e+001
 1.060660171800000e+000	 1.060660171800000e+000	 1.135455119195783e+001
 1.169381988808528e+000	 9.493865528965668e-001	 1.241114227863693e+001
 1.159512298855076e+000	 9.614157744582123e-001	 1.224006019209299e+001
 1.149514029412730e+000	 9.733481179714133e-001	 1.208460145424823e+001
 1.139388611023035e+000	 9.851815343617972e-001	 1.194459973640715e+001
 1.129137517543857e+000	 9.969140028368116e-001	 1.181986445119702e+001
 1.118762265446719e+000	 1.008543532025302e+000	 1.171018089590504e+001
 1.108264413078294e+000	 1.020068161096006e+000	 1.161531044173506e+001
 1.097645559886801e+000	 1.031485960853646e+000	 1.153499076882274e+001
 1.086907345614109e+000	 1.042795034811344e+000	 1.146893614672772e+001
 1.076051449454393e+000	 1.053993520238123e+000	 1.141683775999495e+001
 1.065079589180250e+000	 1.065079589180250e+000	 1.137836407825442e+001
 1.174234196232299e+000	 9.533259161860835e-001	 1.243375537064950e+001
 1.164323553208268e+000	 9.654050515295595e-001	 1.225924600391623e+001
 1.154283797170477e+000	 9.773869068410892e-001	 1.210102346490413e+001
 1.144116364596327e+000	 9.892694245439169e-001	 1.195895585074875e+001
 1.133822735459277e+000	 1.001050575460459e+000	 1.183288633221280e+001
 1.123404432523263e+000	 1.012728359956611e+000	 1.172263325917085e+001
 1.112863020601127e+000	 1.024300809064881e+000	 1.162799031300482e+001
 1.102200105777802e+000	 1.035765985585031e+000	 1.154872670582028e+001
 1.091417334599065e+000	 1.047121985160944e+000	 1.148458742626143e+001
 1.080516393226703e+000	 1.058366937332468e+000	 1.143529353157884e+001
 1.069499006561000e+000	 1.069499006561000e+000	 1.140054248547664e+001
 1.179086403655568e+000	 9.572652794755981e-001	 1.245050209204368e+001
 1.169134807561060e+000	 9.693943286010894e-001	 1.227298777402896e+001
 1.159053564927923e+000	 9.814256957111028e-001	 1.211242335404613e+001
 1.148844118169418e+000	 9.933573147264997e-001	 1.196871114952308e+001
 1.138507953374596e+000	 1.005187148084666e+000	 1.184172788257995e+001
 1.128046599599806e+000	 1.016913187888545e+000	 1.173132474784046e+001
 1.117461628124059e+000	 1.028533457034415e+000	 1.163732752815265e+001
 1.106754651669002e+000	 1.040046010317080e+000	 1.155953675819126e+001
 1.095927323584321e+000	 1.051448935511184e+000	 1.149772793578625e+001
 1.084981336999414e+000	 1.062740354427397e+000	 1.145165178068957e+001
 1.073918423942250e+000	 1.073918423942250e+000	 1.142103454036425e+001
 1.183938611078337e+000	 9.612046427651099e-001	 1.246138267560793e+001
 1.173946061913449e+000	 9.733836056728017e-001	 1.228128031870133e+001
 1.163823332685068e+000	 9.854644845814540e-001	 1.211879057179348e+001
 1.153571871742308e+000	 9.974452049095456e-001	 1.197384976970945e+001
 1.143193171289814e+000	 1.009323720709430e+000	 1.184636798175823e+001
 1.132688766676349e+000	 1.021098015821101e+000	 1.173622904204861e+001
 1.122060235647090e+000	 1.032766105004608e+000	 1.164329062871651e+001
 1.111309197560402e+000	 1.044326035049794e+000	 1.156738439209939e+001
 1.100437312569878e+000	 1.055775885862063e+000	 1.150831613176508e+001
 1.089446280772524e+000	 1.067113771522912e+000	 1.146586602216757e+001
 1.078337841324000e+000	 1.078337841324000e+000	 1.143978888657075e+001
 1.188790818500603e+000	 9.651440060546186e-001	 1.246639701867862e+001
 1.178757316265438e+000	 9.773728827446961e-001	 1.228411820632232e+001
 1.168593100441912e+000	 9.895032734521431e-001	 1.212011440731411e+001
 1.158299625314997e+000	 1.001533095093055e+000	 1.197435577358187e+001
 1.147878389204932e+000	 1.013460293334754e+000	 1.184678552002185e+001
 1.137330933752891e+000	 1.025282843754282e+000	 1.173731991749550e+001
 1.126658843170222e+000	 1.036998752975461e+000	 1.164584833574205e+001
 1.115863743452002e+000	 1.048606059783173e+000	 1.157223333630748e+001
 1.104947301555733e+000	 1.060102836213582e+000	 1.151631081545944e+001
 1.093911224546034e+000	 1.071487188619011e+000	 1.147789019691987e+001
 1.082757258706250e+000	 1.082757258706250e+000	 1.145675467411438e+001
 1.193643025922369e+000	 9.690833693441252e-001	 1.246554468995867e+001
 1.183568570617025e+000	 9.813621598167732e-001	 1.228149576243825e+001
 1.173362868198454e+000	 9.935420623231698e-001	 1.211638399209598e+001
 1.163027378887485e+000	 1.005620985277027e+000	 1.197021315022708e+001
 1.152563607119948e+000	 1.017596865960635e+000	 1.184295939823956e+001
 1.141973100829433e+000	 1.029467671688087e+000	 1.173457124350512e+001
 1.131257450693453e+000	 1.041231400946973e+000	 1.164496954613396e+001
 1.120418289343802e+000	 1.052886084517216e+000	 1.157404757683926e+001
 1.109457290541890e+000	 1.064429786565741e+000	 1.152167112592100e+001
 1.098376168319944e+000	 1.075860605715696e+000	 1.148767866326111e+001
 1.087176676089000e+000	 1.087176676089000e+000	 1.147188154908613e+001
 1.198495233343633e+000	 9.730227326336289e-001	 1.245882493616950e+001
 1.188379824968211e+000	 9.853514368890328e-001	 1.227340707466835e+001
 1.178132635954695e+000	 9.975808511945344e-001	 1.210758830313897e+001
 1.167755132459772e+000	 1.009708875461462e+000	 1.196140581702665e+001
 1.157248825034864e+000	 1.021733438587075e+000	 1.183486852766025e+001
 1.146615267905973e+000	 1.033652499622516e+000	 1.172795698112936e+001
 1.135856058216783e+000	 1.045464048919144e+000	 1.164062332909617e+001
 1.124972835235801e+000	 1.057166109251924e+000	 1.157279135177262e+001
 1.113967279528345e+000	 1.068756736918540e+000	 1.152435653315429e+001
 1.102841112094255e+000	 1.080234022812966e+000	 1.149518618846282e+001
 1.091596093472250e+000	 1.091596093472250e+000	 1.148511964360754e+001
 1.203347440764395e+000	 9.769620959231299e-001	 1.244623668854286e+001
 1.193191079318996e+000	 9.893407139614747e-001	 1.225984599750180e+001
 1.182902403710636e+000	 1.001619640066237e+000	 1.209371616606964e+001
 1.172482886031858e+000	 1.013796765646360e+000	 1.194791762110183e+001
 1.161934042949679e+000	 1.025870011214074e+000	 1.182249182970315e+001
 1.151257434982513e+000	 1.037837327557568e+000	 1.171745118129920e+001
 1.140454665740213e+000	 1.049696696891974e+000	 1.163277892265820e+001
 1.129527381128000e+000	 1.061446133987296e+000	 1.156842914615686e+001
 1.118477268515101e+000	 1.073083687271978e+000	 1.152432683144375e+001
 1.107306055868965e+000	 1.084607439910820e+000	 1.150036794050940e+001
 1.096015510856000e+000	 1.096015510856000e+000	 1.149641956603193e+001
 1.208199648184657e+000	 9.809014592126283e-001	 1.242777856915614e+001
 1.198002333669379e+000	 9.933299910340988e-001	 1.224080615697908e+001
 1.187672171466275e+000	 1.005658428938276e+000	 1.207475625818076e+001
 1.177210639603743e+000	 1.017884655831722e+000	 1.192973234072521e+001
 1.166619260864393e+000	 1.030006583841631e+000	 1.180580823575425e+001
 1.155899602059053e+000	 1.042022155493245e+000	 1.170302798301950e+001
 1.145053273263742e+000	 1.053929344865464e+000	 1.162140573028472e+001
 1.134081927020399e+000	 1.065726158723333e+000	 1.156092568705445e+001
 1.122987257502156e+000	 1.077410637626057e+000	 1.152154213284254e+001
 1.111770999644075e+000	 1.088980857009260e+000	 1.150317948005099e+001
 1.100434928240250e+000	 1.100434928240250e+000	 1.150573239138130e+001
 1.213051855604417e+000	 9.848408225021239e-001	 1.240344889711494e+001
 1.202813588019361e+000	 9.973192681069057e-001	 1.221628095526101e+001
 1.192441939221612e+000	 1.009697217810654e+000	 1.205069711139801e+001
 1.181938393175427e+000	 1.021972546017546e+000	 1.190683368669740e+001
 1.171304478779006e+000	 1.034143156469747e+000	 1.178479668696675e+001
 1.160541769135591e+000	 1.046206983429545e+000	 1.168466161160777e+001
 1.149651880787371e+000	 1.058161992839613e+000	 1.160647331756734e+001
 1.138636472912997e+000	 1.070006183460035e+000	 1.155024593869977e+001
 1.127497246489511e+000	 1.081737587980775e+000	 1.151596286081659e+001
 1.116235943419586e+000	 1.093354274108284e+000	 1.150357675255062e+001
 1.104854345625000e+000	 1.104854345625000e+000	 1.151300965201321e+001
 1.060660171800000e+000	 1.060660171800000e+000	 1.135455119195783e+001
 1.049620103144363e+000	 1.071586505682483e+000	 1.125024729146611e+001
 1.038468084462385e+000	 1.082397356629452e+000	 1.113159882634626e+001
 1.027205936122925e+000	 1.093091013996000e+000	 1.099771332533339e+001
 1.015835513127791e+000	 1.103665805555561e+000	 1.084770516890995e+001
 1.004358704094617e+000	 1.114120098370174e+000	 1.068069665636901e+001
 9.927774302137223e-001	 1.124452299628336e+000	 1.049581907319843e+001
 9.810936441801405e-001	 1.134660857449541e+000	 1.029221375674825e+001
 9.693093291020748e-001	 1.144744261654682e+000	 1.006903315812760e+001
 9.574264973870474e-001	 1.154701044501482e+000	 9.825441898264414e+000
 9.454471896070470e-001	 1.164529781384256e+000	 9.560617816057770e+000
 1.065079589180250e+000	 1.065079589180250e+000	 1.137836407825442e+001
 1.053993520238123e+000	 1.076051449454393e+000	 1.127116961125923e+001
 1.042795034811344e+000	 1.086907345614109e+000	 1.115026501677259e+001
 1.031485960853645e+000	 1.097645559886801e+000	 1.101474065776307e+001
 1.020068161096006e+000	 1.108264413078294e+000	 1.086369320858045e+001
 1.008543532025302e+000	 1.118762265446719e+000	 1.069622674296216e+001
 9.969140028368114e-001	 1.129137517543857e+000	 1.051145382314488e+001
 9.851815343617973e-001	 1.139388611023035e+000	 1.030849658800232e+001
 9.733481179714132e-001	 1.149514029412730e+000	 1.008648783811442e+001
 9.614157744582123e-001	 1.159512298855076e+000	 9.844572115653524e+000
 9.493865528965668e-001	 1.169381988808528e+000	 9.581906776976846e+000
 1.069499006561000e+000	 1.069499006561000e+000	 1.140054248547664e+001
 1.058366937332468e+000	 1.080516393226703e+000	 1.129031976118955e+001
 1.047121985160944e+000	 1.091417334599065e+000	 1.116702149795919e+001
 1.035765985585030e+000	 1.102200105777802e+000	 1.102972094533142e+001
 1.024300809064881e+000	 1.112863020601127e+000	 1.087749712255110e+001
 1.012728359956611e+000	 1.123404432523263e+000	 1.070943592748311e+001
 1.001050575460459e+000	 1.133822735459277e+000	 1.052463124742408e+001
 9.892694245439170e-001	 1.144116364596327e+000	 1.032218606968860e+001
 9.773869068410890e-001	 1.154283797170477e+000	 1.010121358982752e+001
 9.654050515295595e-001	 1.164323553208268e+000	 9.860838315326271e+000
 9.533259161860839e-001	 1.174234196232299e+000	 9.600197162621607e+000
 1.073918423942250e+000	 1.073918423942250e+000	 1.142103454036425e+001
 1.062740354427397e+000	 1.084981336999414e+000	 1.130764779667235e+001
 1.051448935511184e+000	 1.095927323584321e+000	 1.118182029642445e+001
 1.040046010317080e+000	 1.106754651669002e+000	 1.104260822706751e+001
 1.028533457034415e+000	 1.117461628124059e+000	 1.088907300271979e+001
 1.016913187888545e+000	 1.128046599599806e+000	 1.072028239397661e+001
 1.005187148084666e+000	 1.138507953374596e+000	 1.053531166039775e+001
 9.933573147264999e-001	 1.148844118169418e+000	 1.033324468351777e+001
 9.814256957111026e-001	 1.159053564927923e+000	 1.011317509819658e+001
 9.693943286010893e-001	 1.169134807561060e+000	 9.874207420112947e+000
 9.572652794755983e-001	 1.179086403655568e+000	 9.615458167191658e+000
 1.078337841324000e+000	 1.078337841324000e+000	 1.143978888657075e+001
 1.067113771522912e+000	 1.089446280772524e+000	 1.132310425936933e+001
 1.055775885862063e+000	 1.100437312569878e+000	 1.119461389374709e+001
 1.044326035049794e+000	 1.111309197560403e+000	 1.105335696537213e+001
 1.032766105004608e+000	 1.122060235647090e+000	 1.089837733218005e+001
 1.021098015821101e+000	 1.132688766676349e+000	 1.072872468503536e+001
 1.009323720709430e+000	 1.143193171289814e+000	 1.054345570187135e+001
 9.974452049095459e-001	 1.153571871742308e+000	 1.034163520310213e+001
 9.854644845814541e-001	 1.163823332685068e+000	 1.012233730608845e+001
 9.733836056728016e-001	 1.173946061913449e+000	 9.884646576409729e+000
 9.612046427651099e-001	 1.183938611078337e+000	 9.627659173692928e+000
 1.082757258706250e+000	 1.082757258706250e+000	 1.145675467411438e+001
 1.071487188619011e+000	 1.093911224546034e+000	 1.133664016726501e+001
 1.060102836213582e+000	 1.104947301555733e+000	 1.120535521727911e+001
 1.048606059783172e+000	 1.115863743452002e+000	 1.106192203737773e+001
 1.036998752975461e+000	 1.126658843170222e+000	 1.090536697723731e+001
 1.025282843754282e+000	 1.137330933752891e+000	 1.073472169448285e+001
 1.013460293334754e+000	 1.147878389204932e+000	 1.054902433045335e+001
 1.001533095093055e+000	 1.158299625314997e+000	 1.034732068799893e+001
 9.895032734521430e-001	 1.168593100441912e+000	 1.012866540904177e+001
 9.773728827446960e-001	 1.178757316265438e+000	 9.892123149615809e+000
 9.651440060546187e-001	 1.188790818500603e+000	 9.636769750084143e+000
 1.087176676089000e+000	 1.087176676089000e+000	 1.147188154908613e+001
 1.075860605715696e+000	 1.098376168319945e+000	 1.134820700498521e+001
 1.064429786565741e+000	 1.109457290541889e+000	 1.121399763108574e+001
 1.052886084517216e+000	 1.120418289343802e+000	 1.106825872651829e+001
 1.041231400946973e+000	 1.131257450693453e+000	 1.090999917962020e+001
 1.029467671688087e+000	 1.141973100829432e+000	 1.073823266023351e+001
 1.017596865960635e+000	 1.152563607119948e+000	 1.055197881707512e+001
 1.005620985277027e+000	 1.163027378887485e+000	 1.035026447789796e+001
 9.935420623231699e-001	 1.173362868198454e+000	 1.013212485013291e+001
 9.813621598167731e-001	 1.183568570617025e+000	 9.896604719682200e+000
 9.690833693441252e-001	 1.193643025922369e+000	 9.642759645517321e+000
 1.091596093472250e+000	 1.091596093472250e+000	 1.148511964360754e+001
 1.080234022812965e+000	 1.102841112094255e+000	 1.135775671435102e+001
 1.068756736918540e+000	 1.113967279528345e+000	 1.122049492710487e+001
 1.057166109251923e+000	 1.124972835235801e+000	 1.107232271430532e+001
 1.045464048919143e+000	 1.135856058216783e+000	 1.091223154888076e+001
 1.033652499622516e+000	 1.146615267905973e+000	 1.073921715732848e+001
 1.021733438587075e+000	 1.157248825034864e+000	 1.055228073866866e+001
 1.009708875461462e+000	 1.167755132459772e+000	 1.035043018695111e+001
 9.975808511945343e-001	 1.178132635954695e+000	 1.013268131496395e+001
 9.853514368890325e-001	 1.188379824968211e+000	 9.898059076768536e+000
 9.730227326336289e-001	 1.198495233343633e+000	 9.645598786670446e+000
 1.096015510856000e+000	 1.096015510856000e+000	 1.149641956603193e+001
 1.084607439910820e+000	 1.107306055868965e+000	 1.136524168516131e+001
 1.073083687271978e+000	 1.118477268515101e+000	 1.122480131652042e+001
 1.061446133987296e+000	 1.129527381128000e+000	 1.107407007230190e+001
 1.049696696891974e+000	 1.140454665740213e+000	 1.091202205497895e+001
 1.037837327557568e+000	 1.151257434982513e+000	 1.073763509113829e+001
 1.025870011214074e+000	 1.161934042949679e+000	 1.054989197199730e+001
 1.013796765646360e+000	 1.172482886031858e+000	 1.034778169823898e+001
 1.001619640066237e+000	 1.182902403710636e+000	 1.013030072677358e+001
 9.893407139614746e-001	 1.193191079318996e+000	 9.896454217005182e+000
 9.769620959231299e-001	 1.203347440764395e+000	 9.645257274167765e+000
 1.100434928240250e+000	 1.100434928240250e+000	 1.150573239138130e+001
 1.088980857009260e+000	 1.111770999644075e+000	 1.137061474619688e+001
 1.077410637626057e+000	 1.122987257502156e+000	 1.122687142134404e+001
 1.065726158723333e+000	 1.134081927020399e+000	 1.107345725428986e+001
 1.053929344865464e+000	 1.145053273263742e+000	 1.090932902104468e+001
 1.042022155493245e+000	 1.155899602059052e+000	 1.073344669072946e+001
 1.030006583841631e+000	 1.166619260864393e+000	 1.054477468763477e+001
 1.017884655831722e+000	 1.177210639603743e+000	 1.034228315837033e+001
 1.005658428938276e+000	 1.187672171466275e+000	 1.012494924166512e+001
 9.933299910340988e-001	 1.198002333669379e+000	 9.891758338356794e+000
 9.809014592126283e-001	 1.208199648184657e+000	 9.641705379087551e+000
 1.104854345625000e+000	 1.104854345625000e+000	 1.151300965201321e+001
 1.093354274108285e+000	 1.116235943419586e+000	 1.137382915644097e+001
 1.081737587980775e+000	 1.127497246489511e+000	 1.122666026619856e+001
 1.070006183460035e+000	 1.138636472912997e+000	 1.107044108862601e+001
 1.058161992839613e+000	 1.149651880787372e+000	 1.090411111631558e+001
 1.046206983429545e+000	 1.160541769135591e+000	 1.072661250239057e+001
 1.034143156469747e+000	 1.171304478779006e+000	 1.053689134408948e+001
 1.021972546017546e+000	 1.181938393175427e+000	 1.033389897221216e+001
 1.009697217810654e+000	 1.192441939221612e+000	 1.011659324394928e+001
 9.973192681069057e-001	 1.202813588019361e+000	 9.883939836585940e+000
 9.848408225021239e-001	 1.213051855604417e+000	 9.634913539552292e+000
 9.454471896070470e-001	 1.164529781384256e+000	 9.560617816057770e+000
 9.333734733436114e-001	 1.174229091497786e+000	 9.288208499744286e+000
 9.212074420154326e-001	 1.183797638463169e+000	 9.072282322513530e+000
 9.089512136889858e-001	 1.193234130916121e+000	 8.913538632359336e+000
 8.966069298728295e-001	 1.202537323058205e+000	 8.812611724142474e+000
 8.841767542982003e-001	 1.211706015169005e+000	 8.770070681600272e+000
 8.716628716869257e-001	 1.220739054079364e+000	 8.786419316002045e+000
 8.590674865080902e-001	 1.229635333605355e+000	 8.862096200529727e+000
 8.463928217249052e-001	 1.238393794942719e+000	 8.997474799261893e+000
 8.336411175332353e-001	 1.247013427021546e+000	 9.192863689433018e+000
 8.208146300932377e-001	 1.255493266821059e+000	 8.782446938979341e+000
 9.493865528965668e-001	 1.169381988808528e+000	 9.581906776976846e+000
 9.372625294827934e-001	 1.179121712714474e+000	 9.337150959631934e+000
 9.250458063580189e-001	 1.188730128625723e+000	 9.153268490642311e+000
 9.127385104139951e-001	 1.198205939797307e+000	 9.031039495623078e+000
 9.003427920822342e-001	 1.207547895239964e+000	 8.971174282899300e+000
 8.878608241095184e-001	 1.216754790234443e+000	 8.974313125423736e+000
 8.752948003206842e-001	 1.225825466806714e+000	 9.041026146209001e+000
 8.626469343701040e-001	 1.234758814163751e+000	 9.171813306399965e+000
 8.499194584833366e-001	 1.243553769089613e+000	 9.367104494892041e+000
 8.371146221903961e-001	 1.252209316301596e+000	 9.364196732171068e+000
 8.242346910521078e-001	 1.260724488766339e+000	 8.657096612240183e+000
 9.533259161860839e-001	 1.174234196232299e+000	 9.600197162621607e+000
 9.411515856217880e-001	 1.184014333930576e+000	 9.384382153884420e+000
 9.288841707002628e-001	 1.193662618787636e+000	 9.233798061370376e+000
 9.165258071385380e-001	 1.203177748677830e+000	 9.149305222589264e+000
 9.040786542910776e-001	 1.212558467421065e+000	 9.131689415587104e+000
 8.915448939202114e-001	 1.221803565299258e+000	 9.181661581194975e+000
 8.789267289537833e-001	 1.230911879533506e+000	 9.299857655635714e+000
 8.662263822314541e-001	 1.239882294721687e+000	 9.486838512657698e+000
 8.534460952411298e-001	 1.248713743236170e+000	 9.743090014128873e+000
 8.405881268469743e-001	 1.257405205581465e+000	 9.190774259284581e+000
 8.276547520104803e-001	 1.265955710711623e+000	 8.544880502389082e+000
 9.572652794755983e-001	 1.179086403655568e+000	 9.615458167191658e+000
 9.450406417605949e-001	 1.188906955146090e+000	 9.429856033460931e+000
 9.327225350421644e-001	 1.198595108948909e+000	 9.313810183935958e+000
 9.203131038626142e-001	 1.208149557557686e+000	 9.268260608475092e+000
 9.078145164993599e-001	 1.217569039601507e+000	 9.294068016970646e+000
 8.952289637302788e-001	 1.226852340363449e+000	 9.392013502352173e+000
 8.825586575862229e-001	 1.235998292259742e+000	 9.562798320761313e+000
 8.698058300921410e-001	 1.245005775279161e+000	 9.807043788112726e+000
 8.569727319982848e-001	 1.253873717382393e+000	 9.674540578386340e+000
 8.440616315029696e-001	 1.262601094861155e+000	 9.029491918625773e+000
 8.310748129683555e-001	 1.271186932656912e+000	 8.445672044153152e+000
 9.612046427651099e-001	 1.183938611078337e+000	 9.627659173692928e+000
 9.489296978992143e-001	 1.193799576361019e+000	 9.473526990648187e+000
 9.365608993837241e-001	 1.203527599109540e+000	 9.393244694343704e+000
 9.241004005862236e-001	 1.213121366436878e+000	 9.387831373512784e+000
 9.115503787070813e-001	 1.222579611781290e+000	 9.458222137789932e+000
 8.989130335397214e-001	 1.231901115427017e+000	 9.605267721886348e+000
 8.861905862180031e-001	 1.241084704985420e+000	 9.829734213722734e+000
 8.733852779521638e-001	 1.250129255836173e+000	 1.011755695350843e+001
 8.604993687548024e-001	 1.259033691528280e+000	 9.466826085330371e+000
 8.475351361583829e-001	 1.267796984140664e+000	 8.880237082185778e+000
 8.344948739257333e-001	 1.276418154602207e+000	 8.359347055995711e+000
 9.651440060546187e-001	 1.188790818500603e+000	 9.636769750084143e+000
 9.528187540376460e-001	 1.198692197575362e+000	 9.515349850054525e+000
 9.403992637249414e-001	 1.208460089269531e+000	 9.472042101348166e+000
 9.278876973093663e-001	 1.218093175315405e+000	 9.507944144071324e+000
 9.152862409142416e-001	 1.227590183960412e+000	 9.624064961169706e+000
 9.025971033485386e-001	 1.236949890489963e+000	 9.821324424188317e+000
 8.898225148491238e-001	 1.246171117710542e+000	 1.010055296975012e+001
 8.769647258115229e-001	 1.255252736392725e+000	 9.865904676372415e+000
 8.640260055106817e-001	 1.264193665673831e+000	 9.270145697673620e+000
 8.510086408132135e-001	 1.272992873419995e+000	 8.742899275408119e+000
 8.379149348826140e-001	 1.281649376547507e+000	 8.285783691467458e+000
 9.690833693441252e-001	 1.193643025922369e+000	 9.642759645517321e+000
 9.567078101758902e-001	 1.203584818789119e+000	 9.555279859822166e+000
 9.442376280658166e-001	 1.213392579428882e+000	 9.550143572780266e+000
 9.316749940320426e-001	 1.223064984193267e+000	 9.628526434239475e+000
 9.190221031208410e-001	 1.232600756138876e+000	 9.791510779602684e+000
 9.062811731567303e-001	 1.241998665552284e+000	 1.004008511757960e+001
 8.934544434795851e-001	 1.251257530435105e+000	 1.023525402930699e+001
 8.805441736702182e-001	 1.260376216948814e+000	 9.624280841799385e+000
 8.675526422659229e-001	 1.269353639819047e+000	 9.084402690942165e+000
 8.544821454674615e-001	 1.278188762699144e+000	 8.617370133419184e+000
 8.413349958389973e-001	 1.286880598492812e+000	 8.224862391747747e+000
 9.730227326336289e-001	 1.198495233343633e+000	 9.645598786670446e+000
 9.605968663139468e-001	 1.208477440002289e+000	 9.593272683054410e+000
 9.480759924063495e-001	 1.218325069587591e+000	 9.627490922205611e+000
 9.354622907542518e-001	 1.228036793070463e+000	 9.749506627856068e+000
 9.227579653268795e-001	 1.237611328316681e+000	 9.960474972492987e+000
 9.099652429642969e-001	 1.247047440613983e+000	 1.026145260751334e+001
 8.970863721093871e-001	 1.256343943159112e+000	 9.951028355800700e+000
 8.841236215282502e-001	 1.265499697504443e+000	 9.392602504057471e+000
 8.710792790205260e-001	 1.274513613963927e+000	 8.909502225982314e+000
 8.579556501211270e-001	 1.283384651978115e+000	 8.503543358322588e+000
 8.447550567948829e-001	 1.292111820438123e+000	 8.176465839333913e+000
 9.769620959231299e-001	 1.203347440764395e+000	 9.645257274167765e+000
 9.644859224518163e-001	 1.213370061214873e+000	 9.629284389449023e+000
 9.519143567465401e-001	 1.223257559745660e+000	 9.704026595906035e+000
 9.392495874759944e-001	 1.233008601946994e+000	 9.870813960973438e+000
 9.264938275323565e-001	 1.242621900493826e+000	 1.013087398424309e+001
 9.136493127712384e-001	 1.252096215675058e+000	 1.025826197235776e+001
 9.007183007385294e-001	 1.261430355882561e+000	 9.675745012092950e+000
 8.877030693856185e-001	 1.270623178059611e+000	 9.170788379625689e+000
 8.746059157744913e-001	 1.279673588108472e+000	 8.745351310948980e+000
 8.614291547742101e-001	 1.288580541256905e+000	 8.401314677525832e+000
 8.481751177502716e-001	 1.297343042383438e+000	 8.140478912854661e+000
 9.809014592126283e-001	 1.208199648184657e+000	 9.641705379087551e+000
 9.683749785894976e-001	 1.218262682426871e+000	 9.663271447133832e+000
 9.557527210863888e-001	 1.228190049903088e+000	 9.779693660174122e+000
 9.430368841972705e-001	 1.237980410822861e+000	 9.992378504746027e+000
 9.302296897372729e-001	 1.247632472670313e+000	 1.030262530286704e+001
 9.173333825775544e-001	 1.257144990735510e+000	 9.941562689853406e+000
 9.043502293670126e-001	 1.266516768605453e+000	 9.409336286435138e+000
 8.912825172423231e-001	 1.275746658614317e+000	 8.958758813816084e+000
 8.781325525278187e-001	 1.284833562252682e+000	 8.591858764212597e+000
 8.649026594267104e-001	 1.293776430535515e+000	 8.310581803072161e+000
 8.515951787051627e-001	 1.302574264328760e+000	 8.116788642971143e+000
 9.848408225021239e-001	 1.213051855604417e+000	 9.634913539552292e+000
 9.722640347269920e-001	 1.223155303638283e+000	 9.695190714697603e+000
 9.595910854258950e-001	 1.233122540059876e+000	 9.854435788913014e+000
 9.468241809180800e-001	 1.242952219698062e+000	 1.011413114872785e+001
 9.339655519416285e-001	 1.252643044846140e+000	 1.019725991111836e+001
 9.210174523832456e-001	 1.262193765795339e+000	 9.632738082054633e+000
 9.079821579948363e-001	 1.271603181327788e+000	 9.151735878824006e+000
 8.948619650983640e-001	 1.280870139168562e+000	 8.756435748196894e+000
 8.816591892805081e-001	 1.289993536396556e+000	 8.448935178154034e+000
 8.683761640786286e-001	 1.298972319813945e+000	 8.231244391946486e+000
 8.550152396595565e-001	 1.307805486274087e+000	 8.105284169335512e+000
 8.208146300932377e-001	 1.255493266821059e+000	 8.782446938979341e+000
 8.079156302553555e-001	 1.263832399644537e+000	 8.381572788296305e+000
 7.949464022827656e-001	 1.272029959353938e+000	 8.012741207990262e+000
 7.819092425712991e-001	 1.280085128564544e+000	 7.676890021480040e+000
 7.688064583678334e-001	 1.287997138799943e+000	 7.374922766835148e+000
 7.556403664892382e-001	 1.295765270607128e+000	 7.107707505263916e+000
 7.424132920430727e-001	 1.303388853632028e+000	 6.876075688819968e+000
 7.291275671514323e-001	 1.310867266655738e+000	 6.680821089440047e+000
 7.157855296793174e-001	 1.318199937591758e+000	 6.522698791247895e+000
 7.023895219688927e-001	 1.325386343444617e+000	 6.402424247899265e+000
 6.889418895809607e-001	 1.332426010230286e+000	 6.320672406559514e+000
 8.242346910521078e-001	 1.260724488766339e+000	 8.657096612240183e+000
 8.112819453809108e-001	 1.269098367975947e+000	 8.310576141454721e+000
 7.982586789578652e-001	 1.277330084183539e+000	 7.989129098632346e+000
 7.851671977471171e-001	 1.285418816598624e+000	 7.693582888157575e+000
 7.720098186090723e-001	 1.293363793542806e+000	 7.424738084302460e+000
 7.587888680140040e-001	 1.301164292565357e+000	 7.183367279512558e+000
 7.455066807574199e-001	 1.308819640519063e+000	 6.970213981759950e+000
 7.321655986785896e-001	 1.316329213596609e+000	 6.785991563136446e+000
 7.187679693836178e-001	 1.323692437327800e+000	 6.631382261721393e+000
 7.053161449744276e-001	 1.330908786538015e+000	 6.507036238593801e+000
 6.918124807849917e-001	 1.337977785268296e+000	 6.413570691714257e+000
 8.276547520104803e-001	 1.265955710711623e+000	 8.544880502389082e+000
 8.146482605060688e-001	 1.274364336307552e+000	 8.250816044998166e+000
 8.015709556326673e-001	 1.282630209013504e+000	 7.974914732069426e+000
 7.884251529227376e-001	 1.290752504633217e+000	 7.717894288358470e+000
 7.752131788502142e-001	 1.298730448286312e+000	 7.480453022172677e+000
 7.619373695387733e-001	 1.306563314524338e+000	 7.263268713062814e+000
 7.486000694718704e-001	 1.314250427406941e+000	 7.066997538480377e+000
 7.352036302059505e-001	 1.321791160538390e+000	 6.892273041643997e+000
 7.217504090882220e-001	 1.329184937064801e+000	 6.739705142734006e+000
 7.082427679803667e-001	 1.336431229632404e+000	 6.609879195395209e+000
 6.946830719895264e-001	 1.343529560307306e+000	 6.503355090395152e+000
 8.310748129683555e-001	 1.271186932656912e+000	 8.445672044153152e+000
 8.180145756308296e-001	 1.279630304639353e+000	 8.202188458417274e+000
 8.048832323071723e-001	 1.287930333843834e+000	 7.970015848270528e+000
 7.916831080981615e-001	 1.296086192668326e+000	 7.749762990805198e+000
 7.784165390912593e-001	 1.304097103030461e+000	 7.542026619272166e+000
 7.650858710635460e-001	 1.311962336484071e+000	 7.347390349787835e+000
 7.516934581864248e-001	 1.319681214295660e+000	 7.166423636958303e+000
 7.382416617335150e-001	 1.327253107481084e+000	 6.999680760733536e+000
 7.247328487931301e-001	 1.334677436802763e+000	 6.847699846695172e+000
 7.111693909867094e-001	 1.341953672727783e+000	 6.711001921871333e+000
 6.975536631945650e-001	 1.349081335347315e+000	 6.590090008043791e+000
 8.344948739257333e-001	 1.276418154602207e+000	 8.359347055995711e+000
 8.213808907551933e-001	 1.284896272971349e+000	 8.164591348580593e+000
 8.081955089813802e-001	 1.293230458674529e+000	 7.974351830357899e+000
 7.949410632733879e-001	 1.301419880703948e+000	 7.789129055410796e+000
 7.816198993322076e-001	 1.309463757775254e+000	 7.609418866039527e+000
 7.682343725883217e-001	 1.317361358444558e+000	 7.435711358093971e+000
 7.547868469010821e-001	 1.325112001185220e+000	 7.268489865228186e+000
 7.412796932612836e-001	 1.332715054424688e+000	 7.108229964456990e+000
 7.277152884983417e-001	 1.340169936541686e+000	 6.955398505306959e+000
 7.140960139934564e-001	 1.347476115824152e+000	 6.810452664760825e+000
 7.004242544001077e-001	 1.354633110388325e+000	 6.673839030087479e+000
 8.379149348826140e-001	 1.281649376547507e+000	 8.285783691467458e+000
 8.247472058791593e-001	 1.290162241303539e+000	 8.137924648768415e+000
 8.115077856552908e-001	 1.298530583505588e+000	 7.987843671072597e+000
 7.981990184484175e-001	 1.306753568740084e+000	 7.835933806926999e+000
 7.848232595730587e-001	 1.314830412520691e+000	 7.682590685104479e+000
 7.713828741131008e-001	 1.322760380405798e+000	 7.528211518174400e+000
 7.578802356158434e-001	 1.330542788075624e+000	 7.373194115052659e+000
 7.443177247892554e-001	 1.338177001369203e+000	 7.217935904977310e+000
 7.306977282038575e-001	 1.345662436281570e+000	 7.062832975291131e+000
 7.170226370006066e-001	 1.352998558921511e+000	 6.908279125335956e+000
 7.032948456061544e-001	 1.360184885430335e+000	 6.754664938674753e+000
 8.413349958389973e-001	 1.286880598492812e+000	 8.224862391747747e+000
 8.281135210027280e-001	 1.295428209635926e+000	 8.122090218704669e+000
 8.148200623289039e-001	 1.303830708337013e+000	 8.010413940058559e+000
 8.014569736232495e-001	 1.312087256776735e+000	 7.890119809236825e+000
 7.880266198138131e-001	 1.320197067266771e+000	 7.761503912341526e+000
 7.745313756378834e-001	 1.328159402367790e+000	 7.624871209574928e+000
 7.609736243307079e-001	 1.335973574966869e+000	 7.480534575749885e+000
 7.473557563174308e-001	 1.343638948314630e+000	 7.328813842403448e+000
 7.336801679096767e-001	 1.351154936022414e+000	 7.170034843979354e+000
 7.199492600081613e-001	 1.358521002019861e+000	 7.004528470489484e+000
 7.061654368127049e-001	 1.365736660473344e+000	 6.832629729001662e+000
 8.447550567948829e-001	 1.292111820438123e+000	 8.176465839333913e+000
 8.314798361258995e-001	 1.300694177968507e+000	 8.116991805560000e+000
 8.181323390022200e-001	 1.309130833168802e+000	 8.041986751942122e+000
 8.047149287978851e-001	 1.317420944813900e+000	 7.951630840270757e+000
 7.912299800544704e-001	 1.325563722013495e+000	 7.846121278383094e+000
 7.776798771626691e-001	 1.333558424330535e+000	 7.725671399060614e+000
 7.640670130456758e-001	 1.341404361858955e+000	 7.590509728169814e+000
 7.503937878458102e-001	 1.349100895260968e+000	 7.440879044630219e+000
 7.366626076157998e-001	 1.356647435764218e+000	 7.277035434765337e+000
 7.228758830161196e-001	 1.364043445119200e+000	 7.099247343552544e+000
 7.090360280197593e-001	 1.371288435517355e+000	 6.907794625242436e+000
 8.481751177502716e-001	 1.297343042383438e+000	 8.140478912854661e+000
 8.348461512486738e-001	 1.305960146301284e+000	 8.122535005898284e+000
 8.214446156752390e-001	 1.314430958000956e+000	 8.082487735182697e+000
 8.079728839723233e-001	 1.322754632851579e+000	 8.020411867529864e+000
 7.944333402950310e-001	 1.330930376760863e+000	 7.936406390579441e+000
 7.808283786874580e-001	 1.338957446294032e+000	 7.830593628777527e+000
 7.671604017607473e-001	 1.346835148751885e+000	 7.703118338817617e+000
 7.534318193743932e-001	 1.354562842208218e+000	 7.554146787181205e+000
 7.396450473222269e-001	 1.362139935506984e+000	 7.383865812427575e+000
 7.258025060244820e-001	 1.369565888219530e+000	 7.192481874849294e+000
 7.119066192273176e-001	 1.376840210562364e+000	 6.980220096094014e+000
 8.515951787051627e-001	 1.302574264328760e+000	 8.116788642971143e+000
 8.382124663710506e-001	 1.311226114634255e+000	 8.138627228541008e+000
 8.247568923479608e-001	 1.319731082833475e+000	 8.131844001674821e+000
 8.112308391465645e-001	 1.328088320889773e+000	 8.096409024199129e+000
 7.976367005354946e-001	 1.336297031508873e+000	 8.032323715394128e+000
 7.839768802122504e-001	 1.344356468258283e+000	 7.939620004698280e+000
 7.702537904759224e-001	 1.352265935645655e+000	 7.818359454115929e+000
 7.564698509031796e-001	 1.360024789156378e+000	 7.668632353055243e+000
 7.426274870289578e-001	 1.367632435250710e+000	 7.490556788321032e+000
 7.287291290332482e-001	 1.375088331320850e+000	 7.284277691999877e+000
 7.147772104353799e-001	 1.382391985608374e+000	 7.049965869946687e+000
 8.550152396595565e-001	 1.307805486274087e+000	 8.105284169335512e+000
 8.415787814930306e-001	 1.316492082967423e+000	 8.165177658320795e+000
 8.280691690203853e-001	 1.325031207666359e+000	 8.189984117079332e+000
 8.144887943206086e-001	 1.333422008928481e+000	 8.179569585833587e+000
 8.008400607758615e-001	 1.341663686257528e+000	 8.133838561222955e+000
 7.871253817370462e-001	 1.349755490223286e+000	 8.052733185345867e+000
 7.733471791912008e-001	 1.357696722540269e+000	 7.936232394808423e+000
 7.595078824321701e-001	 1.365486736105450e+000	 7.784351032576546e+000
 7.456099267359924e-001	 1.373124934995397e+000	 7.597138925446664e+000
 7.316557520424184e-001	 1.380610774423161e+000	 7.374679929972571e+000
 7.176478016439462e-001	 1.387943760655384e+000	 7.117090949689327e+000
 6.889418895809607e-001	 1.332426010230286e+000	 6.320672406559514e+000
 6.754449800454148e-001	 1.339318512858520e+000	 6.294937879447851e+000
 6.619011416205384e-001	 1.346063474978724e+000	 6.252713420670728e+000
 6.483127220634620e-001	 1.352660568789146e+000	 6.194200708532963e+000
 6.346820674137966e-001	 1.359109514809321e+000	 6.119614132230094e+000
 6.210115207902519e-001	 1.365410081617534e+000	 6.008800904315133e+000
 6.073034212018716e-001	 1.371562085553623e+000	 5.827928016898350e+000
 5.935601023749986e-001	 1.377565390387860e+000	 5.624368617944001e+000
 5.797838915970459e-001	 1.383419906956706e+000	 5.398734167668017e+000
 5.659771085781108e-001	 1.389125592766239e+000	 5.151631242513516e+000
 5.521420643314209e-001	 1.394682451564126e+000	 4.883660040743091e+000
 6.918124807849917e-001	 1.337977785268296e+000	 6.413570691714257e+000
 6.782593341265090e-001	 1.344899006657213e+000	 6.365287057980964e+000
 6.646590630416051e-001	 1.351672072786073e+000	 6.303313550918419e+000
 6.510140250697319e-001	 1.358296654487283e+000	 6.227891494316133e+000
 6.373265760256660e-001	 1.364772471115874e+000	 6.139271828938308e+000
 6.235990687911118e-001	 1.371099290285876e+000	 6.030684433608070e+000
 6.098338521209843e-001	 1.377276927571873e+000	 5.843325946961993e+000
 5.960332694654862e-001	 1.383305246176515e+000	 5.636283074208829e+000
 5.821996578090622e-001	 1.389184156564746e+000	 5.410198839452770e+000
 5.683353465272684e-001	 1.394913616065586e+000	 5.165708039169275e+000
 5.544426562625545e-001	 1.400493628442318e+000	 4.903435749463279e+000
 6.946830719895264e-001	 1.343529560307306e+000	 6.503355090395152e+000
 6.810736882082021e-001	 1.350479500456906e+000	 6.433099498789450e+000
 6.674169844633553e-001	 1.357280670594422e+000	 6.351928762323227e+000
 6.537153280767600e-001	 1.363932740186419e+000	 6.260123789359175e+000
 6.399710846383582e-001	 1.370435427423427e+000	 6.157972027008008e+000
 6.261866167928486e-001	 1.376788498955217e+000	 6.045766602572706e+000
 6.123642830410183e-001	 1.382991769591123e+000	 5.858188454910516e+000
 5.985064365569297e-001	 1.389045101966169e+000	 5.648055325977627e+000
 5.846154240220589e-001	 1.394948406173785e+000	 5.421890146991613e+000
 5.706935844774210e-001	 1.400701639365934e+000	 5.180356061145068e+000
 5.567432481946879e-001	 1.406304805321510e+000	 4.924103160580644e+000
 6.975536631945650e-001	 1.349081335347315e+000	 6.590090008043791e+000
 6.838880422904937e-001	 1.356059994257599e+000	 6.498431478211997e+000
 6.701749058857892e-001	 1.362889268403771e+000	 6.398607513891639e+000
 6.564166310845465e-001	 1.369568825886556e+000	 6.290938549458448e+000
 6.426155932518727e-001	 1.376098383731980e+000	 6.175748495285011e+000
 6.287741647954626e-001	 1.382477707625558e+000	 6.053363871200512e+000
 6.148947139619735e-001	 1.388706611611372e+000	 5.872551047503241e+000
 6.009796036493291e-001	 1.394784957756824e+000	 5.659714050414406e+000
 5.870311902360360e-001	 1.400712655783825e+000	 5.433830266638758e+000
 5.730518224285688e-001	 1.406489662667281e+000	 5.195591314439026e+000
 5.590438401278216e-001	 1.412115982201702e+000	 4.945672441628663e+000
 7.004242544001077e-001	 1.354633110388325e+000	 6.673839030087479e+000
 6.867023963733845e-001	 1.361640488059292e+000	 6.561338578428566e+000
 6.729328273089065e-001	 1.368497866214120e+000	 6.443397691230082e+000
 6.591179340930911e-001	 1.375204911587692e+000	 6.320376272643297e+000
 6.452601018662101e-001	 1.381761340041533e+000	 6.192634655325605e+000
 6.313617127989534e-001	 1.388166916296900e+000	 6.060532725744850e+000
 6.174251448838505e-001	 1.394421453632622e+000	 5.886449089613992e+000
 6.034527707426846e-001	 1.400524813548478e+000	 5.671287877685396e+000
 5.894469564509937e-001	 1.406476905394865e+000	 5.446041417410700e+000
 5.754100603807116e-001	 1.412277685969628e+000	 5.211429932130781e+000
 5.613444320619552e-001	 1.417927159082894e+000	 4.968153966399180e+000
 7.032948456061544e-001	 1.360184885430335e+000	 6.754664938674753e+000
 6.895167504568741e-001	 1.367220981861985e+000	 6.621875701626627e+000
 6.756907487327074e-001	 1.374106464025469e+000	 6.486346618247749e+000
 6.618192371023932e-001	 1.380840997289828e+000	 6.348477008517144e+000
 6.479046104813698e-001	 1.387424296352086e+000	 6.208663588484128e+000
 6.339492608033216e-001	 1.393856124969241e+000	 6.067299587240953e+000
 6.199555758066488e-001	 1.400136295654872e+000	 5.899917807126434e+000
 6.059259378369956e-001	 1.406264669341133e+000	 5.682805391919201e+000
 5.918627226669316e-001	 1.412241155006905e+000	 5.458545860114932e+000
 5.777682983338496e-001	 1.418065709272976e+000	 5.227888171790217e+000
 5.636450239970886e-001	 1.423738335965086e+000	 4.991558310732961e+000
 7.061654368127049e-001	 1.365736660473344e+000	 6.832629729001662e+000
 6.923311045409623e-001	 1.372801475665678e+000	 6.680097083822355e+000
 6.784486701571918e-001	 1.379715061837818e+000	 6.527501068572149e+000
 6.645205401124539e-001	 1.386477082992965e+000	 6.375280367372663e+000
 6.505491190973524e-001	 1.393087252663640e+000	 6.223868042828162e+000
 6.365368088085663e-001	 1.399545333642581e+000	 6.073690644492177e+000
 6.224860067303685e-001	 1.405851137678122e+000	 5.912992289759625e+000
 6.083991049322629e-001	 1.412004525134787e+000	 5.694295132140911e+000
 5.942784888838499e-001	 1.418005404619945e+000	 5.471365896501103e+000
 5.801265362879826e-001	 1.423853732577323e+000	 5.244982412945810e+000
 5.659456159332221e-001	 1.429549512848277e+000	 5.015896248412747e+000
 7.090360280197593e-001	 1.371288435517355e+000	 6.907794625242436e+000
 6.951454586256495e-001	 1.378381969470371e+000	 6.736056308345885e+000
 6.812065915823597e-001	 1.385323659651167e+000	 6.566907276688878e+000
 6.672218431232726e-001	 1.392113168697101e+000	 6.400825529084278e+000
 6.531936277141572e-001	 1.398750208976192e+000	 6.238280439885075e+000
 6.391243568146885e-001	 1.405234542316923e+000	 6.079731858771984e+000
 6.250164376550098e-001	 1.411565979702372e+000	 5.925629244166141e+000
 6.108722720284858e-001	 1.417744380929441e+000	 5.705785593186961e+000
 5.966942551017489e-001	 1.423769654233984e+000	 5.484523868432448e+000
 5.824847742431109e-001	 1.429641755882670e+000	 5.262729154616492e+000
 5.682462078703557e-001	 1.435360689732469e+000	 5.041178747156334e+000
 7.119066192273176e-001	 1.376840210562364e+000	 6.980220096094014e+000
 6.979598127109354e-001	 1.383962463276064e+000	 6.789806319000679e+000
 6.839645130082113e-001	 1.390932257465516e+000	 6.604610948811894e+000
 6.699231461348495e-001	 1.397749254402238e+000	 6.425151251785989e+000
 6.558381363317850e-001	 1.404413165289746e+000	 6.251932881224869e+000
 6.417119048216876e-001	 1.410923750992264e+000	 6.085448968409360e+000
 6.275468685805725e-001	 1.417280821727622e+000	 5.926179251281074e+000
 6.133454391256648e-001	 1.423484236725096e+000	 5.717305226594130e+000
 5.991100213206283e-001	 1.429533903849025e+000	 5.498042157075940e+000
 5.848430121992342e-001	 1.435429779189018e+000	 5.281145012902623e+000
 5.705467998084891e-001	 1.441171866617661e+000	 5.067416964706892e+000
 7.147772104353799e-001	 1.382391985608374e+000	 7.049965869946687e+000
 7.007741667968201e-001	 1.389542957082757e+000	 6.841399432903819e+000
 6.867224344347462e-001	 1.396540855280865e+000	 6.640657273490372e+000
 6.726244491471846e-001	 1.403385340108374e+000	 6.448295880340258e+000
 6.584826449502352e-001	 1.410076121604299e+000	 6.264857154886149e+000
 6.442994528295636e-001	 1.416612959668606e+000	 6.090867493267422e+000
 6.300772995070565e-001	 1.422995663753871e+000	 5.926836910093748e+000
 6.158186062237993e-001	 1.429224092521751e+000	 5.728882441470995e+000
 6.015257875404879e-001	 1.435298153465065e+000	 5.511943182114773e+000
 5.872012501563527e-001	 1.441217802496366e+000	 5.300246718634572e+000
 5.728473917476228e-001	 1.446983043503853e+000	 5.094622245016804e+000
 7.176478016439462e-001	 1.387943760655384e+000	 7.117090949689327e+000
 7.035885208833038e-001	 1.395123450890451e+000	 6.890887353022345e+000
 6.894803558619651e-001	 1.402149453097214e+000	 6.675090931963042e+000
 6.753257521602778e-001	 1.409021425815511e+000	 6.470297354603098e+000
 6.611271535695082e-001	 1.415739077919852e+000	 6.277084741645642e+000
 6.468870008383166e-001	 1.422302168345947e+000	 6.096012739111425e+000
 6.326077304344622e-001	 1.428710505781122e+000	 5.927621636997975e+000
 6.182917733228901e-001	 1.434963948319405e+000	 5.740545605344551e+000
 6.039415537613283e-001	 1.441062403082105e+000	 5.526249400975955e+000
 5.895594881144665e-001	 1.447005825804713e+000	 5.320051115078545e+000
 5.751479836877564e-001	 1.452794220391045e+000	 5.122806114523879e+000
 5.521420643314209e-001	 1.394682451564126e+000	 4.883660040743091e+000
 5.382810600734966e-001	 1.400090532881687e+000	 4.702284673893577e+000
 5.243963861452564e-001	 1.405349931544904e+000	 4.526904547438381e+000
 5.104903209545466e-001	 1.410460787156776e+000	 4.358127246771163e+000
 4.965651299408992e-001	 1.415423283553266e+000	 4.196523601218870e+000
 4.826230645635711e-001	 1.420237648231790e+000	 4.042626859506235e+000
 4.686663613134736e-001	 1.424904151753962e+000	 3.896931961067304e+000
 4.546972407496676e-001	 1.429423107123609e+000	 3.759894903216436e+000
 4.407179065610664e-001	 1.433794869141144e+000	 3.631932203915162e+000
 4.267305446539296e-001	 1.438019833735305e+000	 3.513420459609830e+000
 4.127373222656903e-001	 1.442098437273382e+000	 3.404695997360213e+000
 5.544426562625545e-001	 1.400493628442318e+000	 4.903435749463279e+000
 5.405238978199202e-001	 1.405924243432547e+000	 4.731729627590418e+000
 5.265813710834477e-001	 1.411205556257271e+000	 4.564577719191822e+000
 5.126173639543490e-001	 1.416337707101169e+000	 4.402592328524573e+000
 4.986341513114861e-001	 1.421320880566187e+000	 4.246349970692095e+000
 4.846339939951962e-001	 1.426155305097649e+000	 4.096390517022053e+000
 4.706191378151013e-001	 1.430841252384506e+000	 3.953216436040582e+000
 4.565918125825917e-001	 1.435379036734773e+000	 3.817292130113771e+000
 4.425542311686168e-001	 1.439769014427198e+000	 3.689043367554579e+000
 4.285085885873781e-001	 1.444011583040220e+000	 3.568856809724075e+000
 4.144570611064636e-001	 1.448107180759328e+000	 3.457079632405518e+000
 5.567432481946879e-001	 1.406304805321510e+000	 4.924103160580644e+000
 5.427667355673386e-001	 1.411757953984402e+000	 4.761750825584032e+000
 5.287663560226186e-001	 1.417061180970618e+000	 4.602526781156598e+000
 5.147444069551048e-001	 1.422214627046515e+000	 4.447048229193609e+000
 5.007031726829908e-001	 1.427218477580026e+000	 4.295897535685064e+000
 4.866449234276931e-001	 1.432072961964379e+000	 4.149621345940054e+000
 4.725719143175450e-001	 1.436778353015866e+000	 4.008729795175348e+000
 4.584863844162659e-001	 1.441334966346688e+000	 3.873695814604292e+000
 4.443905557768414e-001	 1.445743159713925e+000	 3.744954532876605e+000
 4.302866325214153e-001	 1.450003332345723e+000	 3.622902772459538e+000
 4.161767999477307e-001	 1.454115924245767e+000	 3.507898640290461e+000
 5.590438401278216e-001	 1.412115982201702e+000	 4.945672441628663e+000
 5.450095733157520e-001	 1.417591664537252e+000	 4.792360485264117e+000
 5.309513409627688e-001	 1.422916805684944e+000	 4.640765854341884e+000
 5.168714499568143e-001	 1.428091546992815e+000	 4.491510827836262e+000
 5.027721940554133e-001	 1.433116074594782e+000	 4.345183788470092e+000
 4.886558528610617e-001	 1.437990618831980e+000	 4.202338307715669e+000
 4.745246908208048e-001	 1.442715453648043e+000	 4.063492325952304e+000
 4.603809562506903e-001	 1.447290895959353e+000	 3.929127427971780e+000
 4.462268803857405e-001	 1.451717305001327e+000	 3.799688213744536e+000
 4.320646764560414e-001	 1.455995081651815e+000	 3.675581764095374e+000
 4.178965387894916e-001	 1.460124667732700e+000	 3.557177200667579e+000
 5.613444320619552e-001	 1.417927159082894e+000	 4.968153966399180e+000
 5.472524110651600e-001	 1.423425375091096e+000	 4.823570980346981e+000
 5.331363259038982e-001	 1.428772430400248e+000	 4.679309168778486e+000
 5.189984929594775e-001	 1.433968466940069e+000	 4.535996067856009e+000
 5.048412154287538e-001	 1.439013671610457e+000	 4.394226243619892e+000
 4.906667822953023e-001	 1.443908275700454e+000	 4.254560346694222e+000
 4.764774673248804e-001	 1.448652554281036e+000	 4.117524261962402e+000
 4.622755280858646e-001	 1.453246825572768e+000	 3.983608353459612e+000
 4.480632049953139e-001	 1.457691450289403e+000	 3.853266804458882e+000
 4.338427203912564e-001	 1.461986830958496e+000	 3.726917052448630e+000
 4.196162776317461e-001	 1.466133411220127e+000	 3.604939318440092e+000
 5.636450239970886e-001	 1.423738335965086e+000	 4.991558310732961e+000
 5.494952488155629e-001	 1.429259085645936e+000	 4.855394837687385e+000
 5.353213108460069e-001	 1.434628055116533e+000	 4.718171061295111e+000
 5.211255359630945e-001	 1.439845386888276e+000	 4.580519955689465e+000
 5.069102368030120e-001	 1.444911268627049e+000	 4.443042437553586e+000
 4.926777117304149e-001	 1.449825932569800e+000	 4.306306390458871e+000
 4.784302438297721e-001	 1.454589654914845e+000	 4.170845784004578e+000
 4.641700999217892e-001	 1.459202755186933e+000	 4.037159888068655e+000
 4.498995296055618e-001	 1.463665595578154e+000	 3.905712582198373e+000
 4.356207643270603e-001	 1.467978580265765e+000	 3.776931759902344e+000
 4.213360164744944e-001	 1.472142154708048e+000	 3.651208827329381e+000
 5.659456159332221e-001	 1.429549512848277e+000	 5.015896248412747e+000
 5.517380865669607e-001	 1.435092796201769e+000	 4.887844734165069e+000
 5.375062957890952e-001	 1.440483679833797e+000	 4.757365973347081e+000
 5.232525789676651e-001	 1.445722306837438e+000	 4.625098559524255e+000
 5.089792581781880e-001	 1.450808865644559e+000	 4.491649928091652e+000
 4.946886411663994e-001	 1.455743589440018e+000	 4.357595350171008e+000
 4.803830203354796e-001	 1.460526755549469e+000	 4.223477021160721e+000
 4.660646717584637e-001	 1.465158684801848e+000	 4.089803244308804e+000
 4.517358542164839e-001	 1.469639740867579e+000	 3.957047709399403e+000
 4.373988082634531e-001	 1.473970329573624e+000	 3.825648866362956e+000
 4.230557553177363e-001	 1.478150898196462e+000	 3.696009393354001e+000
 5.682462078703557e-001	 1.435360689732469e+000	 5.041178747156334e+000
 5.539809243193532e-001	 1.440926506758599e+000	 4.920933493647998e+000
 5.396912807331628e-001	 1.446339304552040e+000	 4.796908448899046e+000
 5.253796219731894e-001	 1.451599226787552e+000	 4.669748008049828e+000
 5.110482795542819e-001	 1.456706462662987e+000	 4.540066294023418e+000
 4.966995706032558e-001	 1.461661246311106e+000	 4.408446120903973e+000
 4.823357968420033e-001	 1.466463856184910e+000	 4.275438051841111e+000
 4.679592435958884e-001	 1.471114614417513e+000	 4.141559551910655e+000
 4.535721788280806e-001	 1.475613886157678e+000	 4.007294236079981e+000
 4.391768522004347e-001	 1.479962078882072e+000	 3.873091212143579e+000
 4.247754941614720e-001	 1.484159641685370e+000	 3.739364518224356e+000
 5.705467998084891e-001	 1.441171866617661e+000	 5.067416964706892e+000
 5.562237620727407e-001	 1.446760217316422e+000	 4.954674084028762e+000
 5.418762656782097e-001	 1.452194929271262e+000	 4.836813132357460e+000
 5.275066649796674e-001	 1.457476146738621e+000	 4.714484489236880e+000
 5.131173009312935e-001	 1.462604059682332e+000	 4.588309134683750e+000
 4.987105000409839e-001	 1.467578903183068e+000	 4.458877581966245e+000
 4.842885733493428e-001	 1.472400956821166e+000	 4.326748904806826e+000
 4.698538154340632e-001	 1.477070544033929e+000	 4.192449859493163e+000
 4.554085034403515e-001	 1.481588031448452e+000	 4.056474102105287e+000
 4.409548961380053e-001	 1.485953828191108e+000	 3.919281500778830e+000
 4.264952330057014e-001	 1.490168385174771e+000	 3.781297542655147e+000
 5.728473917476228e-001	 1.446983043503853e+000	 5.094622245016804e+000
 5.584665998271230e-001	 1.452593927875241e+000	 4.989079614332384e+000
 5.440612506242359e-001	 1.458050553991465e+000	 4.877094766554042e+000
 5.296337079870991e-001	 1.463353066690643e+000	 4.759324249148171e+000
 5.151863223092231e-001	 1.468501656702596e+000	 4.636396069540603e+000
 5.007214294795842e-001	 1.473496560055901e+000	 4.508908597218377e+000
 4.862413498574982e-001	 1.478338057458239e+000	 4.377429560166534e+000
 4.717483872729880e-001	 1.483026473651094e+000	 4.242495136193333e+000
 4.572448280532967e-001	 1.487562176739900e+000	 4.104609139399766e+000
 4.427329400761649e-001	 1.491945577500734e+000	 3.964242301771826e+000
 4.282149718504246e-001	 1.496177128664667e+000	 3.821831649599013e+000
 5.751479836877564e-001	 1.452794220391045e+000	 5.122806114523879e+000
 5.607094375825000e-001	 1.458427638435055e+000	 5.024163331894261e+000
 5.462462355712417e-001	 1.463906178712646e+000	 4.917768190777273e+000
 5.317607509954844e-001	 1.469229986643619e+000	 4.804283590775031e+000
 5.172553436880706e-001	 1.474399253723778e+000	 4.684344737793373e+000
 5.027323589190562e-001	 1.479414216929606e+000	 4.558558015382006e+000
 4.881941263664700e-001	 1.484275158096128e+000	 4.427499950349366e+000
 4.736429591126632e-001	 1.488982403269010e+000	 4.291716273255535e+000
 4.590811526669166e-001	 1.493536322032023e+000	 4.151721074106108e+000
 4.445109840149132e-001	 1.497937326810948e+000	 4.007996053273241e+000
 4.299347106956416e-001	 1.502185872155057e+000	 3.860989867400971e+000
 4.127373222656903e-001	 1.442098437273382e+000	 3.404695997360213e+000
 3.987403871054826e-001	 1.446031155850012e+000	 3.281279725513394e+000
 3.847418665221098e-001	 1.449818504558618e+000	 3.159406136298610e+000
 3.707438666998223e-001	 1.453461036744529e+000	 3.039372051732039e+000
 3.567484718818683e-001	 1.456959343239004e+000	 2.921439996308993e+000
 3.427577436224609e-001	 1.460314051578193e+000	 2.805838104503956e+000
 3.287737200673443e-001	 1.463525825207160e+000	 2.692760109157573e+000
 3.147984152631733e-001	 1.466595362670052e+000	 2.582365408855043e+000
 3.008338184958795e-001	 1.469523396787524e+000	 2.474779212240211e+000
 2.868818936581553e-001	 1.472310693822500e+000	 2.370092757035889e+000
 2.729445786461375e-001	 1.474958052635360e+000	 2.268363601405806e+000
 4.144570611064636e-001	 1.448107180759328e+000	 3.457079632405518e+000
 4.004018053836965e-001	 1.452056285663000e+000	 3.330279627563876e+000
 3.863449576317343e-001	 1.455859414990992e+000	 3.205493225163069e+000
 3.722886328105957e-001	 1.459517124394238e+000	 3.083025589617448e+000
 3.582349238478767e-001	 1.463030007165793e+000	 2.963146709691205e+000
 3.441859008876004e-001	 1.466398693456541e+000	 2.846091308260640e+000
 3.301436105677856e-001	 1.469623849475897e+000	 2.732058834454206e+000
 3.161100753269490e-001	 1.472706176678609e+000	 2.621213536236712e+000
 3.020872927397145e-001	 1.475646410938750e+000	 2.513684611334759e+000
 2.880772348816613e-001	 1.478445321712004e+000	 2.409566434233526e+000
 2.740818477234943e-001	 1.481103711187337e+000	 2.308918856830318e+000
 4.161767999477307e-001	 1.454115924245767e+000	 3.507898640290461e+000
 4.020632236623091e-001	 1.458081415476386e+000	 3.377716619418858e+000
 3.879480487416731e-001	 1.461900325423680e+000	 3.250019911565516e+000
 3.738333989216091e-001	 1.465573212044187e+000	 3.125122122495131e+000
 3.597213758140612e-001	 1.469100671092758e+000	 3.003300799160150e+000
 3.456140581528618e-001	 1.472483335335009e+000	 2.884797341673929e+000
 3.315135010683050e-001	 1.475721873744710e+000	 2.769816999161321e+000
 3.174217353907685e-001	 1.478816990687209e+000	 2.658528947515520e+000
 3.033407669835688e-001	 1.481769425089994e+000	 2.551066446914880e+000
 2.892725761051720e-001	 1.484579949601514e+000	 2.447527076787214e+000
 2.752191168008512e-001	 1.487249369739315e+000	 2.347973045752573e+000
 4.178965387894916e-001	 1.460124667732700e+000	 3.557177200667579e+000
 4.037246419413207e-001	 1.464106545290171e+000	 3.423613534150535e+000
 3.895511398519261e-001	 1.467941235856683e+000	 3.293007736501796e+000
 3.753781650328626e-001	 1.471629299694377e+000	 3.165681954360871e+000
 3.612078277804214e-001	 1.475171335019899e+000	 3.041921387310112e+000
 3.470422154182451e-001	 1.478567977213600e+000	 2.921974202004495e+000
 3.328833915689017e-001	 1.481819898013602e+000	 2.806051531688260e+000
 3.187333954546316e-001	 1.484927804695852e+000	 2.694327559095112e+000
 3.045942412274425e-001	 1.487892439241258e+000	 2.586939680537476e+000
 2.904679173286876e-001	 1.490714577491028e+000	 2.483988748823459e+000
 2.763563858782080e-001	 1.493395028291292e+000	 2.385539392494612e+000
 4.196162776317461e-001	 1.466133411220127e+000	 3.604939318440092e+000
 4.053860602207313e-001	 1.470131675104356e+000	 3.467993038734486e+000
 3.911542309624935e-001	 1.473982146290000e+000	 3.334478082985231e+000
 3.769229311443562e-001	 1.477685387344806e+000	 3.204725238807319e+000
 3.626942797469575e-001	 1.481241998947216e+000	 3.079027453378163e+000
 3.484703726837501e-001	 1.484652619092312e+000	 2.957639749666292e+000
 3.342532820695765e-001	 1.487917922282572e+000	 2.840779229577768e+000
 3.200450555185384e-001	 1.491038618704539e+000	 2.728625161964753e+000
 3.058477154713355e-001	 1.494015453392541e+000	 2.621319153266709e+000
 2.916632585522081e-001	 1.496849205380547e+000	 2.518965398374744e+000
 2.774936549555648e-001	 1.499540686843271e+000	 2.421631009159518e+000
 4.213360164744944e-001	 1.472142154708048e+000	 3.651208827329381e+000
 4.070474785005407e-001	 1.476156804918939e+000	 3.510877637437670e+000
 3.927573220733754e-001	 1.480023056723631e+000	 3.374452179269512e+000
 3.784676972560898e-001	 1.483741474995475e+000	 3.242271982093031e+000
 3.641807317136696e-001	 1.487312662874709e+000	 3.114637836167363e+000
 3.498985299493770e-001	 1.490737260971147e+000	 2.991811711019983e+000
 3.356231725703290e-001	 1.494015946551619e+000	 2.874016762177719e+000
 3.213567155824886e-001	 1.497149432713270e+000	 2.761437424257025e+000
 3.071011897152478e-001	 1.500138467543843e+000	 2.654219588134061e+000
 2.928585997757334e-001	 1.502983833270071e+000	 2.552470859747399e+000
 2.786309240329216e-001	 1.505686345395249e+000	 2.456260897922011e+000
 4.230557553177363e-001	 1.478150898196462e+000	 3.696009393354001e+000
 4.087088967807490e-001	 1.482181934733921e+000	 3.552289675126011e+000
 3.943604131845716e-001	 1.486063967157577e+000	 3.412951101995528e+000
 3.800124633680634e-001	 1.489797562646384e+000	 3.278342046137178e+000
 3.656671836805576e-001	 1.493383326802377e+000	 3.148771236902816e+000
 3.513266872151256e-001	 1.496821902850103e+000	 3.024507681096551e+000
 3.369930630711591e-001	 1.500113970820744e+000	 2.905780673246580e+000
 3.226683756464824e-001	 1.503260246722044e+000	 2.792779893746034e+000
 3.083546639591794e-001	 1.506261481695165e+000	 2.685655592535933e+000
 2.940539409992635e-001	 1.509118461159600e+000	 2.584518855835465e+000
 2.797681931102784e-001	 1.511832003947226e+000	 2.489441953262215e+000
 4.247754941614720e-001	 1.484159641685370e+000	 3.739364518224356e+000
 4.103703150613562e-001	 1.488207064549302e+000	 3.592251340491351e+000
 3.959635042960821e-001	 1.492104877591837e+000	 3.449995779259687e+000
 3.815572294802770e-001	 1.495853650297534e+000	 3.312955151440360e+000
 3.671536356476214e-001	 1.499453990730222e+000	 3.181446222016028e+000
 3.527548444809961e-001	 1.502906544729181e+000	 3.055745126256570e+000
 3.383629535720671e-001	 1.506211995089946e+000	 2.936087383494284e+000
 3.239800357105200e-001	 1.509371060730862e+000	 2.822668000283386e+000
 3.096081382031304e-001	 1.512384495846507e+000	 2.715641660576240e+000
 2.952492822227983e-001	 1.515253089049133e+000	 2.615123000374193e+000
 2.809054621876352e-001	 1.517977662499204e+000	 2.521186964146155e+000
 4.264952330057014e-001	 1.490168385174771e+000	 3.781297542655147e+000
 4.120317333423624e-001	 1.494232194365083e+000	 3.630784669200141e+000
 3.975665954079071e-001	 1.498145788026411e+000	 3.485606993609016e+000
 3.831019955927310e-001	 1.501909737948924e+000	 3.346130879938015e+000
 3.686400876148611e-001	 1.505524654658242e+000	 3.212681225863000e+000
 3.541830017469885e-001	 1.508991186608381e+000	 3.085541386784775e+000
 3.397328440730528e-001	 1.512310019359227e+000	 2.964953193065183e+000
 3.252916957746012e-001	 1.515481874739723e+000	 2.851117058175719e+000
 3.108616124471008e-001	 1.518507509997868e+000	 2.744192175348847e+000
 2.964446234463380e-001	 1.521387716938671e+000	 2.644296800141246e+000
 2.820427312649920e-001	 1.524123321051181e+000	 2.551508616152947e+000
 4.282149718504246e-001	 1.496177128664667e+000	 3.821831649599013e+000
 4.136931516237675e-001	 1.500257324181261e+000	 3.667911546965911e+000
 3.991696865200463e-001	 1.504186698461300e+000	 3.519805384963748e+000
 3.846467617054247e-001	 1.507965825600553e+000	 3.377888677780552e+000
 3.701265395822768e-001	 1.511595318586438e+000	 3.242494553375219e+000
 3.556111590131026e-001	 1.515075828487703e+000	 3.113913679420005e+000
 3.411027345741161e-001	 1.518408043628585e+000	 2.992394283956973e+000
 3.266033558387259e-001	 1.521592688748628e+000	 2.878142268505000e+000
 3.121150866910905e-001	 1.524630524149247e+000	 2.771321411168190e+000
 2.976399646698825e-001	 1.527522344828214e+000	 2.672053657105032e+000
 2.831800003423489e-001	 1.530268979603159e+000	 2.580419493550480e+000
 4.299347106956416e-001	 1.502185872155057e+000	 3.860989867400971e+000
 4.153545699055715e-001	 1.506282453997839e+000	 3.703653712548657e+000
 4.007727776325000e-001	 1.510227608896503e+000	 3.552611453470019e+000
 3.861915278183588e-001	 1.514021913252423e+000	 3.408247858050323e+000
 3.716129915498684e-001	 1.517665982514811e+000	 3.270904382649402e+000
 3.570393162793387e-001	 1.521160470367146e+000	 3.140879099828400e+000
 3.424726250752574e-001	 1.524506067898022e+000	 3.018426722385374e+000
 3.279150159028944e-001	 1.527703502757577e+000	 2.903758721392551e+000
 3.133685609350995e-001	 1.530753538300647e+000	 2.797043535743701e+000
 2.988353058934320e-001	 1.533656972717762e+000	 2.698406870520056e+000
 2.843172694197058e-001	 1.536414638155137e+000	 2.607932081322463e+000
 2.729445786461375e-001	 1.474958052635360e+000	 2.268363601405806e+000
 2.590237847849337e-001	 1.477466303830249e+000	 2.167129335508697e+000
 2.451213962842759e-001	 1.479836308891665e+000	 2.072526328281197e+000
 2.312392697232941e-001	 1.482068959313682e+000	 1.984472771914374e+000
 2.173792335636158e-001	 1.484165175724061e+000	 1.902852450967672e+000
 2.035430876919314e-001	 1.486125907002392e+000	 1.827515449839234e+000
 1.897326029914422e-001	 1.487952129393888e+000	 1.758278916775485e+000
 1.759495209420024e-001	 1.489644845619818e+000	 1.694927881196247e+000
 1.621955532487401e-001	 1.491205083985549e+000	 1.637216121051674e+000
 1.484723814989080e-001	 1.492633897487133e+000	 1.584867076901531e+000
 1.347816568466787e-001	 1.493932362917365e+000	 1.537574809373257e+000
 2.740818477234943e-001	 1.481103711187337e+000	 2.308918856830318e+000
 2.601030505542479e-001	 1.483622413429624e+000	 2.208784034353117e+000
 2.461427354345996e-001	 1.486002293512765e+000	 2.114997804401976e+000
 2.322027666794251e-001	 1.488244246645389e+000	 2.027483493779550e+000
 2.182849803689416e-001	 1.490349197291211e+000	 1.946129815987912e+000
 2.043911838893670e-001	 1.492318098283486e+000	 1.870791576542039e+000
 1.905231555025824e-001	 1.494151929935116e+000	 1.801290435527633e+000
 1.766826439446072e-001	 1.495851699145376e+000	 1.737415724145859e+000
 1.628713680526740e-001	 1.497418438504241e+000	 1.678925311948924e+000
 1.490910164206486e-001	 1.498853205395247e+000	 1.625546521419933e+000
 1.353432470825121e-001	 1.500157081097827e+000	 1.576977086533639e+000
 2.752191168008512e-001	 1.487249369739315e+000	 2.347973045752573e+000
 2.611823163235623e-001	 1.489778523029000e+000	 2.248913357397622e+000
 2.471640745849233e-001	 1.492168278133864e+000	 2.155927858702515e+000
 2.331662636355562e-001	 1.494419533977096e+000	 2.068945011291186e+000
 2.191907271742674e-001	 1.496533218858361e+000	 1.987858449583066e+000
 2.052392800868028e-001	 1.498510289564580e+000	 1.912527684094911e+000
 1.913137080137225e-001	 1.500351730476344e+000	 1.842778862694498e+000
 1.774157669472120e-001	 1.502058552670935e+000	 1.778405586530062e+000
 1.635471828566080e-001	 1.503631793022933e+000	 1.719169777308996e+000
 1.497096513423891e-001	 1.505072513303361e+000	 1.664802592557729e+000
 1.359048373183454e-001	 1.506381799278288e+000	 1.615005385470354e+000
 2.763563858782080e-001	 1.493395028291292e+000	 2.385539392494612e+000
 2.622615820928765e-001	 1.495934632628376e+000	 2.287530213295876e+000
 2.481854137352471e-001	 1.498334262754963e+000	 2.195329059177906e+000
 2.341297605916871e-001	 1.500594821308803e+000	 2.108869527436900e+000
 2.200964739795933e-001	 1.502717240425511e+000	 2.028050166019012e+000
 2.060873762842385e-001	 1.504702480845674e+000	 1.952735174949934e+000
 1.921042605248627e-001	 1.506551531017571e+000	 1.882755166436580e+000
 1.781488899498168e-001	 1.508265406196493e+000	 1.817907980340590e+000
 1.642229976605419e-001	 1.509845147541625e+000	 1.757959551670010e+000
 1.503282862641297e-001	 1.511291821211475e+000	 1.702644826694651e+000
 1.364664275541787e-001	 1.512606517458749e+000	 1.651668724268094e+000
 2.774936549555648e-001	 1.499540686843271e+000	 2.421631009159518e+000
 2.633408478621909e-001	 1.502090742227751e+000	 2.324647394194121e+000
 2.492067528855708e-001	 1.504500247376061e+000	 2.233213853868302e+000
 2.350932575478181e-001	 1.506770108640511e+000	 2.147269122638650e+000
 2.210022207849191e-001	 1.508901261992661e+000	 2.066716655214929e+000
 2.069354724816742e-001	 1.510894672126768e+000	 1.991425326254707e+000
 1.928948130360028e-001	 1.512751331558800e+000	 1.921230189467452e+000
 1.788820129524216e-001	 1.514472259722052e+000	 1.855933292788890e+000
 1.648988124644758e-001	 1.516058502060317e+000	 1.795304546255658e+000
 1.509469211858703e-001	 1.517511129119588e+000	 1.739082639153944e+000
 1.370280177900120e-001	 1.518831235639211e+000	 1.686976002995378e+000
 2.786309240329216e-001	 1.505686345395249e+000	 2.456260897922011e+000
 2.644201136315053e-001	 1.508246851827127e+000	 2.360277578108035e+000
 2.502280920358945e-001	 1.510666231997161e+000	 2.269594573306204e+000
 2.360567545039491e-001	 1.512945395972218e+000	 2.184155757254898e+000
 2.219079675902450e-001	 1.515085283559812e+000	 2.103869485281624e+000
 2.077835686791099e-001	 1.517086863407862e+000	 2.028609292411323e+000
 1.936853655471430e-001	 1.518951132100027e+000	 1.958214651615349e+000
 1.796151359550265e-001	 1.520679113247609e+000	 1.892491788852693e+000
 1.655746272684097e-001	 1.522271856579009e+000	 1.831214551492298e+000
 1.515655561076108e-001	 1.523730437027703e+000	 1.774125326671768e+000
 1.375896080258454e-001	 1.525055953819672e+000	 1.720936006113519e+000
 2.797681931102784e-001	 1.511832003947226e+000	 2.489441953262215e+000
 2.654993794008196e-001	 1.514402961426503e+000	 2.394433331242504e+000
 2.512494311862182e-001	 1.516832216618260e+000	 2.304483432907165e+000
 2.370202514600801e-001	 1.519120683303925e+000	 2.219541274020028e+000
 2.228137143955709e-001	 1.521269305126962e+000	 2.139520104998222e+000
 2.086316648765457e-001	 1.523279054688955e+000	 2.064298107569090e+000
 1.944759180582832e-001	 1.525150932641255e+000	 1.993719152319873e+000
 1.803482589576313e-001	 1.526885966773168e+000	 1.927593613760406e+000
 1.662504420723436e-001	 1.528485211097702e+000	 1.865699239463403e+000
 1.521841910293514e-001	 1.529949744935816e+000	 1.807782069808851e+000
 1.381511982616787e-001	 1.531280672000134e+000	 1.753557404825627e+000
 2.809054621876352e-001	 1.517977662499204e+000	 2.521186964146155e+000
 2.665786451701339e-001	 1.520559071025879e+000	 2.427127110255633e+000
 2.522707703365420e-001	 1.522998201239359e+000	 2.337892535297472e+000
 2.379837484162111e-001	 1.525295970635633e+000	 2.253437400426315e+000
 2.237194612008967e-001	 1.527453326694112e+000	 2.173679846226266e+000
 2.094797610739814e-001	 1.529471245970049e+000	 2.098502688060765e+000
 1.952664705694233e-001	 1.531350733182483e+000	 2.027754173070018e+000
 1.810813819602361e-001	 1.533092820298726e+000	 1.961248795415083e+000
 1.669262568762776e-001	 1.534698565616394e+000	 1.898768166305029e+000
 1.528028259510919e-001	 1.536169052843930e+000	 1.840061935302138e+000
 1.387127884975120e-001	 1.537505390180595e+000	 1.784848759370054e+000
 2.820427312649920e-001	 1.524123321051181e+000	 2.551508616152947e+000
 2.676579109394481e-001	 1.526715180625255e+000	 2.458371264466350e+000
 2.532921094868657e-001	 1.529164185860458e+000	 2.369833872590481e+000
 2.389472453723421e-001	 1.531471257967340e+000	 2.285855751046305e+000
 2.246252080062225e-001	 1.533637348261262e+000	 2.206359926267649e+000
 2.103278572714171e-001	 1.535663437251143e+000	 2.131233834775985e+000
 1.960570230805635e-001	 1.537550533723710e+000	 2.060330079780622e+000
 1.818145049628409e-001	 1.539299673824284e+000	 1.993467246760077e+000
 1.676020716802114e-001	 1.540911920135086e+000	 1.930430774544684e+000
 1.534214608728324e-001	 1.542388360752044e+000	 1.870973878357990e+000
 1.392743787333453e-001	 1.543730108361056e+000	 1.814818521256842e+000
 2.831800003423489e-001	 1.530268979603159e+000	 2.580419493550480e+000
 2.687371767087625e-001	 1.532871290224630e+000	 2.488178038011538e+000
 2.543134486371894e-001	 1.535330170481557e+000	 2.400319328603596e+000
 2.399107423284731e-001	 1.537646545299047e+000	 2.316807829801928e+000
 2.255309548115484e-001	 1.539821369828412e+000	 2.237571450164992e+000
 2.111759534688528e-001	 1.541855628532237e+000	 2.162502235481111e+000
 1.968475755917036e-001	 1.543750334264938e+000	 2.091457125114800e+000
 1.825476279654457e-001	 1.545506527349842e+000	 2.024258768087946e+000
 1.682778864841454e-001	 1.547125274653778e+000	 1.960696395381613e+000
 1.540400957945730e-001	 1.548607668660158e+000	 1.900526744893904e+000
 1.398359689691786e-001	 1.549954826541518e+000	 1.843475035451811e+000
 2.843172694197058e-001	 1.536414638155137e+000	 2.607932081322463e+000
 2.698164424780769e-001	 1.539027399824007e+000	 2.516559571947126e+000
 2.553347877875132e-001	 1.541496155102656e+000	 2.429360681025779e+000
 2.408742392846042e-001	 1.543821832630754e+000	 2.346305032175346e+000
 2.264367016168743e-001	 1.546005391395562e+000	 2.267325412946958e+000
 2.120240496662885e-001	 1.548047819813331e+000	 2.192318467080916e+000
 1.976381281028438e-001	 1.549950134806166e+000	 2.121145450748338e+000
 1.832807509680506e-001	 1.551713380875401e+000	 2.053633049291490e+000
 1.689537012880793e-001	 1.553338629172470e+000	 1.989574250913575e+000
 1.546587307163136e-001	 1.554826976568272e+000	 1.928729273723084e+000
 1.403975592050119e-001	 1.556179544721979e+000	 1.870826542506564e+000
 1.347816568466787e-001	 1.493932362917365e+000	 1.537574809373257e+000
 1.211249997267185e-001	 1.495101579972037e+000	 1.480702864567136e+000
 1.075039995927618e-001	 1.496142670357773e+000	 1.432258229937668e+000
 9.392021468313924e-002	 1.497056776901965e+000	 1.391828683330086e+000
 8.037517181512305e-002	 1.497845062665274e+000	 1.358973928978900e+000
 6.687036620424477e-002	 1.498508710058030e+000	 1.333226812136903e+000
 5.340726130929743e-002	 1.499048919961125e+000	 1.314094558064097e+000
 3.998728870255761e-002	 1.499466910852138e+000	 1.301060032002098e+000
 2.661184796474831e-002	 1.499763917937434e+000	 1.293583016799472e+000
 1.328230660424428e-002	 1.499941192290897e+000	 1.291101504929976e+000
 0.000000000000000e+000	 1.500000000000000e+000	 1.293033001705956e+000
 1.353432470825121e-001	 1.500157081097827e+000	 1.576977086533639e+000
 1.216296872247120e-001	 1.501331169889910e+000	 1.519073250534852e+000
 1.079519329236776e-001	 1.502376598151973e+000	 1.469697105361742e+000
 9.431154891039904e-002	 1.503294513473185e+000	 1.428436914187634e+000
 8.071006836388737e-002	 1.504086083760294e+000	 1.394852424919956e+000
 6.714899272973905e-002	 1.504752496350341e+000	 1.368476096636704e+000
 5.362979156449213e-002	 1.505294957127886e+000	 1.348814350888139e+000
 4.015390240530780e-002	 1.505714689647499e+000	 1.335348844434005e+000
 2.672273066449551e-002	 1.506012934262236e+000	 1.327537760046809e+000
 1.333764954838172e-002	 1.506190947258791e+000	 1.324817112077376e+000
 0.000000000000000e+000	 1.506250000000000e+000	 1.326602063546317e+000
 1.359048373183454e-001	 1.506381799278288e+000	 1.615005385470354e+000
 1.221343747227056e-001	 1.507560759807783e+000	 1.556145099343608e+000
 1.083998662545934e-001	 1.508610525946172e+000	 1.505917908873897e+000
 9.470288313765882e-002	 1.509532250044404e+000	 1.463912511047326e+000
 8.104496491265173e-002	 1.510327104855315e+000	 1.429688640690739e+000
 6.742761925523334e-002	 1.510996282642652e+000	 1.402778308890754e+000
 5.385232181968683e-002	 1.511540994294648e+000	 1.382687066779807e+000
 4.032051610805798e-002	 1.511962468442861e+000	 1.368895291218048e+000
 2.683361336424271e-002	 1.512261950587040e+000	 1.360859488956651e+000
 1.339299249251916e-002	 1.512440702226686e+000	 1.358013615935510e+000
 0.000000000000000e+000	 1.512500000000000e+000	 1.359770408438874e+000
 1.364664275541787e-001	 1.512606517458749e+000	 1.651668724268094e+000
 1.226390622206992e-001	 1.513790349725656e+000	 1.591926668190108e+000
 1.088477995855091e-001	 1.514844453740371e+000	 1.540928153422725e+000
 9.509421736491858e-002	 1.515769986615625e+000	 1.498262259496153e+000
 8.137986146141607e-002	 1.516568125950336e+000	 1.463488651624454e+000
 6.770624578072765e-002	 1.517240068934964e+000	 1.436138831278863e+000
 5.407485207488153e-002	 1.517787031461409e+000	 1.415717412635337e+000
 4.048712981080817e-002	 1.518210247238222e+000	 1.401703421379185e+000
 2.694449606398991e-002	 1.518510966911843e+000	 1.393551612412035e+000
 1.344833543665660e-002	 1.518690457194580e+000	 1.390693803068040e+000
 0.000000000000000e+000	 1.518750000000000e+000	 1.392540218521771e+000
 1.370280177900120e-001	 1.518831235639211e+000	 1.686976002995378e+000
 1.231437497186927e-001	 1.520019939643530e+000	 1.626426103726332e+000
 1.092957329164249e-001	 1.521078381534571e+000	 1.574735249062754e+000
 9.548555159217838e-002	 1.522007723186844e+000	 1.531492850053766e+000
 8.171475801018044e-002	 1.522809147045357e+000	 1.496258445984184e+000
 6.798487230622193e-002	 1.523483855227275e+000	 1.468562967275060e+000
 5.429738233007624e-002	 1.524033068628171e+000	 1.447910024769077e+000
 4.065374351355835e-002	 1.524458026033583e+000	 1.433777221840044e+000
 2.705537876373712e-002	 1.524759983236646e+000	 1.425617485825067e+000
 1.350367838079404e-002	 1.524940212162475e+000	 1.422860415346617e+000
 0.000000000000000e+000	 1.525000000000000e+000	 1.424913640160156e+000
 1.375896080258454e-001	 1.525055953819672e+000	 1.720936006113519e+000
 1.236484372166863e-001	 1.526249529561403e+000	 1.659651444314197e+000
 1.097436662473407e-001	 1.527312309328770e+000	 1.607346505054468e+000
 9.587688581943815e-002	 1.528245459758064e+000	 1.563610880113396e+000
 8.204965455894477e-002	 1.529050168140377e+000	 1.528003926740556e+000
 6.826349883171623e-002	 1.529727641519586e+000	 1.500055943056272e+000
 5.451991258527095e-002	 1.530279105794933e+000	 1.479269470353179e+000
 4.082035721630854e-002	 1.530705804828944e+000	 1.465120618688631e+000
 2.716626146348432e-002	 1.531008999561448e+000	 1.457060412229022e+000
 1.355902132493148e-002	 1.531189967130370e+000	 1.454516150862315e+000
 0.000000000000000e+000	 1.531250000000000e+000	 1.456892784676820e+000
 1.381511982616787e-001	 1.531280672000134e+000	 1.753557404825627e+000
 1.241531247146798e-001	 1.532479119479276e+000	 1.691610622229034e+000
 1.101915995782564e-001	 1.533546237122969e+000	 1.638769131913711e+000
 9.626822004669793e-002	 1.534483196329284e+000	 1.594622855834005e+000
 8.238455110770911e-002	 1.535291189235398e+000	 1.558730913304268e+000
 6.854212535721051e-002	 1.535971427811898e+000	 1.530622909074862e+000
 5.474244284046565e-002	 1.536525142961694e+000	 1.509800248823303e+000
 4.098697091905872e-002	 1.536953583624306e+000	 1.495737478415000e+000
 2.727714416323152e-002	 1.537258015886252e+000	 1.487883643342471e+000
 1.361436426906892e-002	 1.537439722098264e+000	 1.485663664816373e+000
 0.000000000000000e+000	 1.537500000000000e+000	 1.488479729063993e+000
 1.387127884975120e-001	 1.537505390180595e+000	 1.784848759370054e+000
 1.246578122126733e-001	 1.538708709397150e+000	 1.722311465804538e+000
 1.106395329091722e-001	 1.539780164917169e+000	 1.669010243409208e+000
 9.665955427395774e-002	 1.540720932900505e+000	 1.624535193986711e+000
 8.271944765647349e-002	 1.541532210330419e+000	 1.588445143219354e+000
 6.882075188270481e-002	 1.542215214104209e+000	 1.560268941590735e+000
 5.496497309566035e-002	 1.542771180128455e+000	 1.539506793249154e+000
 4.115358462180891e-002	 1.543201362419667e+000	 1.525631609117059e+000
 2.738802686297873e-002	 1.543507032211055e+000	 1.518090380608045e+000
 1.366970721320636e-002	 1.543689477066159e+000	 1.516305570386966e+000
 0.000000000000000e+000	 1.543750000000000e+000	 1.519676516678251e+000
 1.392743787333453e-001	 1.543730108361056e+000	 1.814818521256842e+000
 1.251624997106669e-001	 1.544938299315023e+000	 1.751761701529925e+000
 1.110874662400879e-001	 1.546014092711368e+000	 1.698076858514052e+000
 9.705088850121751e-002	 1.546958669471724e+000	 1.653354223758379e+000
 8.305434420523782e-002	 1.547773231425440e+000	 1.617152273811694e+000
 6.909937840819910e-002	 1.548459000396520e+000	 1.588999044167037e+000
 5.518750335085505e-002	 1.549017217295217e+000	 1.568393471674330e+000
 4.132019832455909e-002	 1.549449141215028e+000	 1.554806761678794e+000
 2.749890956272593e-002	 1.549756048535858e+000	 1.547683776206026e+000
 1.372505015734380e-002	 1.549939232034054e+000	 1.546444439577787e+000
 0.000000000000000e+000	 1.550000000000000e+000	 1.550485157919117e+000
 1.398359689691786e-001	 1.549954826541518e+000	 1.843475035451811e+000
 1.256671872086605e-001	 1.551167889232896e+000	 1.779968956094766e+000
 1.115353995710037e-001	 1.552248020505567e+000	 1.725975903309246e+000
 9.744222272847730e-002	 1.553196406042944e+000	 1.681086188508702e+000
 8.338924075400217e-002	 1.554014252520460e+000	 1.644857883801211e+000
 6.937800493369339e-002	 1.554702786688831e+000	 1.616818149130818e+000
 5.541003360604975e-002	 1.555263254461978e+000	 1.596464588418943e+000
 4.148681202730927e-002	 1.555696920010389e+000	 1.583266630917567e+000
 2.760979226247313e-002	 1.556005064860661e+000	 1.576666934044322e+000
 1.378039310148125e-002	 1.556188987001948e+000	 1.576082804044092e+000
 0.000000000000000e+000	 1.556250000000000e+000	 1.580907630890217e+000
 1.403975592050119e-001	 1.556179544721979e+000	 1.870826542506564e+000
 1.261718747066540e-001	 1.557397479150770e+000	 1.806940758384201e+000
 1.119833329019195e-001	 1.558481948299767e+000	 1.752714212841341e+000
 9.783355695573708e-002	 1.559434142614163e+000	 1.707737247488494e+000
 8.372413730276652e-002	 1.560255273615481e+000	 1.671567474873535e+000
 6.965663145918770e-002	 1.560946572981143e+000	 1.643731118996654e+000
 5.563256386124446e-002	 1.561509291628741e+000	 1.623724385357651e+000
 4.165342573005947e-002	 1.561944698805751e+000	 1.611014856707401e+000
 2.772067496222034e-002	 1.562254081185464e+000	 1.605042910722205e+000
 1.383573604561869e-002	 1.562438741969843e+000	 1.605223155899930e+000
 0.000000000000000e+000	 1.562500000000000e+000	 1.610945882045628e+000
 1.562500000000000e+000	 0.000000000000000e+000	 1.423665176455250e+001
 1.562438741969843e+000	 1.383573604561874e-002	 1.427640949507796e+001
 1.562254081185464e+000	 2.772067496222044e-002	 1.430825641621413e+001
 1.561944698805751e+000	 4.165342573005936e-002	 1.433206838534835e+001
 1.561509291628741e+000	 5.563256386124442e-002	 1.434773207634005e+001
 1.560946572981143e+000	 6.965663145918769e-002	 1.435514526170929e+001
 1.560255273615481e+000	 8.372413730276657e-002	 1.435421707897029e+001
 1.559434142614164e+000	 9.783355695573717e-002	 1.434486828005398e+001
 1.558481948299767e+000	 1.119833329019194e-001	 1.432703146277162e+001
 1.557397479150770e+000	 1.261718747066540e-001	 1.430065128328642e+001
 1.556179544721979e+000	 1.403975592050120e-001	 1.426568464857554e+001
 1.568750000000000e+000	 0.000000000000000e+000	 1.418616977783046e+001
 1.568688496937735e+000	 1.389107898975618e-002	 1.422571887351359e+001
 1.568503097510257e+000	 2.783155766196764e-002	 1.425743397056246e+001
 1.568192477601090e+000	 4.182003943280956e-002	 1.428119583205566e+001
 1.567755328795464e+000	 5.585509411643913e-002	 1.429689619121081e+001
 1.567190359273394e+000	 6.993525798468199e-002	 1.430443803196419e+001
 1.566496294710414e+000	 8.405903385153091e-002	 1.430373585334642e+001
 1.565671879185264e+000	 9.822489118299696e-002	 1.429471591658720e+001
 1.564715876093810e+000	 1.124312662328352e-001	 1.427731647389244e+001
 1.563627069068445e+000	 1.266765622046475e-001	 1.425148797785127e+001
 1.562404262902195e+000	 1.409591494408453e-001	 1.421719327044700e+001
 1.575000000000000e+000	 0.000000000000000e+000	 1.413682005094927e+001
 1.574938251905623e+000	 1.394642193389362e-002	 1.417619282774422e+001
 1.574752113835032e+000	 2.794244036171485e-002	 1.420780649592334e+001
 1.574440256396387e+000	 4.198665313555974e-002	 1.423154671104488e+001
 1.574001365962110e+000	 5.607762437163382e-002	 1.424731025432054e+001
 1.573434145565524e+000	 7.021388451017628e-002	 1.425500531162989e+001
 1.572737315805173e+000	 8.439393040029525e-002	 1.425455173597948e+001
 1.571909615756127e+000	 9.861622541025675e-002	 1.424588129232932e+001
 1.570949803887540e+000	 1.128791995637509e-001	 1.422893788372058e+001
 1.569856658985723e+000	 1.271812497026411e-001	 1.420367775765275e+001
 1.568628981081919e+000	 1.415207396766786e-001	 1.417006969167473e+001
 1.581250000000000e+000	 0.000000000000000e+000	 1.408857889531656e+001
 1.581188006873505e+000	 1.400176487803106e-002	 1.412780679806468e+001
 1.581001130159787e+000	 2.805332306146205e-002	 1.415934856156729e+001
 1.580688035191640e+000	 4.215326683830992e-002	 1.418309472105647e+001
 1.580247403128678e+000	 5.630015462682852e-002	 1.419894709479020e+001
 1.579677931857533e+000	 7.049251103567059e-002	 1.420681906154518e+001
 1.578978336899758e+000	 8.472882694905960e-002	 1.420663582120054e+001
 1.578147352326750e+000	 9.900755963751652e-002	 1.419833463732563e+001
 1.577183731680958e+000	 1.133271328946667e-001	 1.418186506069512e+001
 1.576086248902604e+000	 1.276859372006346e-001	 1.415718913267000e+001
 1.574853699261150e+000	 1.420823299125119e-001	 1.412428156740171e+001
 1.587500000000000e+000	 0.000000000000000e+000	 1.404142299538869e+001
 1.587437761841383e+000	 1.405710782216851e-002	 1.408053660681025e+001
 1.587250146484523e+000	 2.816420576120925e-002	 1.411203512765674e+001
 1.586935813986850e+000	 4.231988054106010e-002	 1.413581396042938e+001
 1.586493440295170e+000	 5.652268488202322e-002	 1.415177994989608e+001
 1.585921718149421e+000	 7.077113756116485e-002	 1.415985165910626e+001
 1.585219357994167e+000	 8.506372349782396e-002	 1.415995962814081e+001
 1.584385088897135e+000	 9.939889386477629e-002	 1.415204661450004e+001
 1.583417659474063e+000	 1.137750662255825e-001	 1.413606781404265e+001
 1.582315838819088e+000	 1.281906246986282e-001	 1.411199106140519e+001
 1.581078417439891e+000	 1.426439201483452e-001	 1.407979700885020e+001
 1.593750000000000e+000	 0.000000000000000e+000	 1.399532940135599e+001
 1.593687516809256e+000	 1.411245076630595e-002	 1.403435845086528e+001
 1.593499162809240e+000	 2.827508846095646e-002	 1.406584153758143e+001
 1.593183592782016e+000	 4.248649424381028e-002	 1.408967891926571e+001
 1.592739477461585e+000	 5.674521513721794e-002	 1.410578245706650e+001
 1.592165504441189e+000	 7.104976408665914e-002	 1.411407589009895e+001
 1.591460379088402e+000	 8.539862004658828e-002	 1.411449509240233e+001
 1.590622825467282e+000	 9.979022809203607e-002	 1.410698831116715e+001
 1.589651587266856e+000	 1.142229995564982e-001	 1.409151638513461e+001
 1.588545428735175e+000	 1.286953121966217e-001	 1.406805294208860e+001
 1.587303135618140e+000	 1.432055103841785e-001	 1.403658457437883e+001
 1.600000000000000e+000	 0.000000000000000e+000	 1.395027552199963e+001
 1.599937271777125e+000	 1.416779371044339e-002	 1.398924889434811e+001
 1.599748179133938e+000	 2.838597116070365e-002	 1.402074351047327e+001
 1.599431371577140e+000	 4.265310794656047e-002	 1.404466447177907e+001
 1.598985514627923e+000	 5.696774539241264e-002	 1.406092864606674e+001
 1.598409290732835e+000	 7.132839061215343e-002	 1.406946494072247e+001
 1.597701400182462e+000	 8.573351659535264e-002	 1.407021455792368e+001
 1.596860562037190e+000	 1.001815623192959e-001	 1.406313123074335e+001
 1.595885515059336e+000	 1.146709328874140e-001	 1.404818143904696e+001
 1.594775018650865e+000	 1.291999996946153e-001	 1.402534460409043e+001
 1.593527853795897e+000	 1.437671006200119e-001	 1.399461326074959e+001
 1.606250000000000e+000	 0.000000000000000e+000	 1.390623911771503e+001
 1.606187026744988e+000	 1.422313665458083e-002	 1.394518486146635e+001
 1.605997195458617e+000	 2.849685386045086e-002	 1.397671713389647e+001
 1.605679150372221e+000	 4.281972164931065e-002	 1.400074586882158e+001
 1.605231551794184e+000	 5.719027564760735e-002	 1.401719293136562e+001
 1.604653077024361e+000	 7.160701713764772e-002	 1.402599238979926e+001
 1.603942421276348e+000	 8.606841314411701e-002	 1.402709076903567e+001
 1.603098298606860e+000	 1.005728965465556e-001	 1.402044728465153e+001
 1.602119442851504e+000	 1.151188662183297e-001	 1.400603405631679e+001
 1.601004608566158e+000	 1.297046871926088e-001	 1.398383629953273e+001
 1.599752571973162e+000	 1.443286908558452e-001	 1.395385249459844e+001
 1.612500000000000e+000	 0.000000000000000e+000	 1.386319829369770e+001
 1.612436781712848e+000	 1.427847959871827e-002	 1.390214362953828e+001
 1.612246211783276e+000	 2.860773656019807e-002	 1.393373885670724e+001
 1.611926929167258e+000	 4.298633535206083e-002	 1.395789873058483e+001
 1.611477588960367e+000	 5.741280590280205e-002	 1.397455010468030e+001
 1.610896863315766e+000	 7.188564366314205e-002	 1.398363220116581e+001
 1.610183442370058e+000	 8.640330969288133e-002	 1.398509686270190e+001
 1.609336035176290e+000	 1.009642307738154e-001	 1.397890878441392e+001
 1.608353370643359e+000	 1.155667995492455e-001	 1.396504572489083e+001
 1.607234198481054e+000	 1.302093746906024e-001	 1.394349869509656e+001
 1.605977290149935e+000	 1.448902810916785e-001	 1.391427212410459e+001
 1.618750000000000e+000	 0.000000000000000e+000	 1.382113149328684e+001
 1.618686536680701e+000	 1.433382254285571e-002	 1.386010282217618e+001
 1.618495228107917e+000	 2.871861925994527e-002	 1.389178548207910e+001
 1.618174707962252e+000	 4.315294905481103e-002	 1.391609903946946e+001
 1.617723626126473e+000	 5.763533615799676e-002	 1.393297532769341e+001
 1.617140649607050e+000	 7.216427018863632e-002	 1.394235871624019e+001
 1.616424463463595e+000	 8.673820624164570e-002	 1.394420636093886e+001
 1.615573771745483e+000	 1.013555650010752e-001	 1.393848843392817e+001
 1.614587298434901e+000	 1.160147328801613e-001	 1.392518833226035e+001
 1.613463788395553e+000	 1.307140621885959e-001	 1.390430286401908e+001
 1.612202008326217e+000	 1.454518713275118e-001	 1.387584241085255e+001
 1.625000000000000e+000	 0.000000000000000e+000	 1.378001749146260e+001
 1.624936291648551e+000	 1.438916548699316e-002	 1.381904040262687e+001
 1.624744244432538e+000	 2.882950195969248e-002	 1.385083416068893e+001
 1.624422486757203e+000	 4.331956275756122e-002	 1.387532313311991e+001
 1.623969663292503e+000	 5.785786641319145e-002	 1.389244412493819e+001
 1.623384435898213e+000	 7.244289671413062e-002	 1.390214664676066e+001
 1.622665484556957e+000	 8.707310279041004e-002	 1.390439316341120e+001
 1.621811508314437e+000	 1.017468992283350e-001	 1.389915932192179e+001
 1.620821226226131e+000	 1.164626662110771e-001	 1.388643415777766e+001
 1.619693378309656e+000	 1.312187496865895e-001	 1.386622027827479e+001
 1.618426726502007e+000	 1.460134615633451e-001	 1.383853402188187e+001
 1.556179544721979e+000	 1.403975592050120e-001	 1.426568464857554e+001
 1.554826976568272e+000	 1.546587307163136e-001	 1.430170168147004e+001
 1.553338629172470e+000	 1.689537012880794e-001	 1.433053861887948e+001
 1.551713380875401e+000	 1.832807509680504e-001	 1.435213438615286e+001
 1.549950134806166e+000	 1.976381281028438e-001	 1.436643852371634e+001
 1.548047819813331e+000	 2.120240496662885e-001	 1.437341126900761e+001
 1.546005391395562e+000	 2.264367016168743e-001	 1.437302361551765e+001
 1.543821832630754e+000	 2.408742392846043e-001	 1.436525734821539e+001
 1.541496155102656e+000	 2.553347877875130e-001	 1.435010505467525e+001
 1.539027399824006e+000	 2.698164424780767e-001	 1.432757011127839e+001
 1.536414638155137e+000	 2.843172694197058e-001	 1.429766664391106e+001
 1.562404262902195e+000	 1.409591494408453e-001	 1.421719327044700e+001
 1.561046284476097e+000	 1.552773656380542e-001	 1.425310497298933e+001
 1.559551983690845e+000	 1.696295160920133e-001	 1.428194728860336e+001
 1.557920234400628e+000	 1.840138739706553e-001	 1.430366538617463e+001
 1.556149935347064e+000	 1.984286806139839e-001	 1.431821518258380e+001
 1.554240011094110e+000	 2.128721458637242e-001	 1.432556341949518e+001
 1.552189412962429e+000	 2.273424484222002e-001	 1.432568771682525e+001
 1.549997119962224e+000	 2.418377362407352e-001	 1.431857660216272e+001
 1.547662139723579e+000	 2.563561269378368e-001	 1.430422951545750e+001
 1.545183509423283e+000	 2.708957082473911e-001	 1.428265678834809e+001
 1.542560296707107e+000	 2.854545384970625e-001	 1.425387959755031e+001
 1.568628981081919e+000	 1.415207396766786e-001	 1.417006969167473e+001
 1.567265592383345e+000	 1.558960005597948e-001	 1.420589225725023e+001
 1.565765338208586e+000	 1.703053308959472e-001	 1.423475433971322e+001
 1.564127087925194e+000	 1.847469969732601e-001	 1.425660735857199e+001
 1.562349735887302e+000	 1.992192331251241e-001	 1.427141361633368e+001
 1.560432202374262e+000	 2.137202420611600e-001	 1.427914637016215e+001
 1.558373434528729e+000	 2.282481952275260e-001	 1.427978987978489e+001
 1.556172407293219e+000	 2.428012331968663e-001	 1.427333943091682e+001
 1.553828124344150e+000	 2.573774660881605e-001	 1.425980133351572e+001
 1.551339619022360e+000	 2.719749740167054e-001	 1.423919289423706e+001
 1.548705955259063e+000	 2.865918075744193e-001	 1.421154236251017e+001
 1.574853699261150e+000	 1.420823299125119e-001	 1.412428156740171e+001
 1.573484900290016e+000	 1.565146354815353e-001	 1.416003029777170e+001
 1.571978692725693e+000	 1.709811456998811e-001	 1.418892564680941e+001
 1.570333941449098e+000	 1.854801199758649e-001	 1.421092529223505e+001
 1.568549536426880e+000	 2.000097856362642e-001	 1.422599793186658e+001
 1.566624393653785e+000	 2.145683382585957e-001	 1.423412335016199e+001
 1.564557456094462e+000	 2.291539420328518e-001	 1.423529246057600e+001
 1.562347694623739e+000	 2.437647301529973e-001	 1.422950732299582e+001
 1.559994108964369e+000	 2.583988052384842e-001	 1.421678113556726e+001
 1.557495728621238e+000	 2.730542397860197e-001	 1.419713820027785e+001
 1.554851613811004e+000	 2.877290766517761e-001	 1.417061386171785e+001
 1.581078417439891e+000	 1.426439201483452e-001	 1.407979700885020e+001
 1.579704208196108e+000	 1.571332704032758e-001	 1.411548632216864e+001
 1.578192047242165e+000	 1.716569605038150e-001	 1.414442755644676e+001
 1.576540794972340e+000	 1.862132429784697e-001	 1.416658465570364e+001
 1.574749336965799e+000	 2.008003381474044e-001	 1.418193272326022e+001
 1.572816584932680e+000	 2.154164344560314e-001	 1.419045808318024e+001
 1.570741477659630e+000	 2.300596888381777e-001	 1.419215831708820e+001
 1.568522981953785e+000	 2.447282271091282e-001	 1.418704227562428e+001
 1.566160093584234e+000	 2.594201443888080e-001	 1.417513006384591e+001
 1.563651838219917e+000	 2.741335055553340e-001	 1.415645299993908e+001
 1.560997272362931e+000	 2.888663457291330e-001	 1.413105354666121e+001
 1.587303135618140e+000	 1.432055103841785e-001	 1.403658457437883e+001
 1.585923516101624e+000	 1.577519053250164e-001	 1.407222801305205e+001
 1.584405401758004e+000	 1.723327753077489e-001	 1.410122687788029e+001
 1.582747648494921e+000	 1.869463659810745e-001	 1.412355138776218e+001
 1.580949137504057e+000	 2.015908906585446e-001	 1.413918306221681e+001
 1.579008776210947e+000	 2.162645306534670e-001	 1.414811477773791e+001
 1.576925499224230e+000	 2.309654356435036e-001	 1.415035079908367e+001
 1.574698269283356e+000	 2.456917240652593e-001	 1.414590678475868e+001
 1.572326078203749e+000	 2.604414835391317e-001	 1.413480976599407e+001
 1.569807947818398e+000	 2.752127713246483e-001	 1.411709809858773e+001
 1.567142930914842e+000	 2.900036148064898e-001	 1.409282138702473e+001
 1.593527853795897e+000	 1.437671006200119e-001	 1.399461326074959e+001
 1.592142824006563e+000	 1.583705402467569e-001	 1.403022349914229e+001
 1.590618756273208e+000	 1.730085901116828e-001	 1.405929087402836e+001
 1.588954502016840e+000	 1.876794889836793e-001	 1.408179188825543e+001
 1.587148938041656e+000	 2.023814431696848e-001	 1.409771448873461e+001
 1.585200967488586e+000	 2.171126268509028e-001	 1.410705811772188e+001
 1.583109520788263e+000	 2.318711824488294e-001	 1.410983373859041e+001
 1.580873556612452e+000	 2.466552210213903e-001	 1.410606383534638e+001
 1.578492062822910e+000	 2.614628226894554e-001	 1.409578238519138e+001
 1.575964057416679e+000	 2.762920370939627e-001	 1.407903480349090e+001
 1.573288589466739e+000	 2.911408838838466e-001	 1.405587786056855e+001
 1.599752571973162e+000	 1.443286908558452e-001	 1.395385249459844e+001
 1.598362131910924e+000	 1.589891751684975e-001	 1.398944134658995e+001
 1.596832110787779e+000	 1.736844049156167e-001	 1.401858725264640e+001
 1.595161355538097e+000	 1.884126119862842e-001	 1.404127300911827e+001
 1.593348738578594e+000	 2.031719956808249e-001	 1.405749300199695e+001
 1.591393158765595e+000	 2.179607230483385e-001	 1.406725325313661e+001
 1.589293542351731e+000	 2.327769292541553e-001	 1.407057144051954e+001
 1.587048843941074e+000	 2.476187179775213e-001	 1.406747689181236e+001
 1.584658047441719e+000	 2.624841618397791e-001	 1.405801055051391e+001
 1.582120167014761e+000	 2.773713028632770e-001	 1.404222491405134e+001
 1.579434248018622e+000	 2.922781529612034e-001	 1.402018394324371e+001
 1.605977290149935e+000	 1.448902810916785e-001	 1.391427212410459e+001
 1.604581439814708e+000	 1.596078100902380e-001	 1.394985055049859e+001
 1.603045465301715e+000	 1.743602197195506e-001	 1.397908415770598e+001
 1.601368209058693e+000	 1.891457349888890e-001	 1.400196204561437e+001
 1.599548539114873e+000	 2.039625481919651e-001	 1.401848505147346e+001
 1.597585350041978e+000	 2.188088192457742e-001	 1.402866579107103e+001
 1.595477563914631e+000	 2.336826760594811e-001	 1.403252867350096e+001
 1.593224131269220e+000	 2.485822149336523e-001	 1.403010988876687e+001
 1.590824032060176e+000	 2.635055009901028e-001	 1.402145736751750e+001
 1.588276276612644e+000	 2.784505686325913e-001	 1.400663071226995e+001
 1.585579906570490e+000	 2.934154220385603e-001	 1.398570109953722e+001
 1.612202008326217e+000	 1.454518713275118e-001	 1.387584241085255e+001
 1.610800747717914e+000	 1.602264450119786e-001	 1.391142052664364e+001
 1.609258819815017e+000	 1.750360345234845e-001	 1.394075016097374e+001
 1.607575062578627e+000	 1.898788579914938e-001	 1.396382672777768e+001
 1.605748339650493e+000	 2.047531007031052e-001	 1.398065752822718e+001
 1.603777541317732e+000	 2.196569154432099e-001	 1.399126178687414e+001
 1.601661585476965e+000	 2.345884228648070e-001	 1.399567066093124e+001
 1.599399418596892e+000	 2.495457118897832e-001	 1.399392722192857e+001
 1.596990016678281e+000	 2.645268401404266e-001	 1.398608640903946e+001
 1.594432386210329e+000	 2.795298344019056e-001	 1.397221495342906e+001
 1.591725565122343e+000	 2.945526911159171e-001	 1.395239127304100e+001
 1.618426726502007e+000	 1.460134615633451e-001	 1.383853402188187e+001
 1.617020055620544e+000	 1.608450799337192e-001	 1.387412110338277e+001
 1.615472174327686e+000	 1.757118493274185e-001	 1.390355425378459e+001
 1.613781916097899e+000	 1.906119809940986e-001	 1.392683521205144e+001
 1.611948140185452e+000	 2.055436532142454e-001	 1.394397775642234e+001
 1.609969732592857e+000	 2.205050116406457e-001	 1.395500773553496e+001
 1.607845607038732e+000	 2.354941696701328e-001	 1.395996307222808e+001
 1.605574705924090e+000	 2.505092088459143e-001	 1.395889373925704e+001
 1.603156001296034e+000	 2.655481792907503e-001	 1.395186170621222e+001
 1.600588495807814e+000	 2.806091001712200e-001	 1.393894085699107e+001
 1.597871223674181e+000	 2.956899601932739e-001	 1.392021687723816e+001
 1.536414638155137e+000	 2.843172694197058e-001	 1.429766664391106e+001
 1.533656972717762e+000	 2.988353058934320e-001	 1.432717075009359e+001
 1.530753538300647e+000	 3.133685609350996e-001	 1.434847003986196e+001
 1.527703502757577e+000	 3.279150159028942e-001	 1.436152335225990e+001
 1.524506067898022e+000	 3.424726250752574e-001	 1.436629924001541e+001
 1.521160470367146e+000	 3.570393162793387e-001	 1.436277586687851e+001
 1.517665982514811e+000	 3.716129915498685e-001	 1.435094087944765e+001
 1.514021913252422e+000	 3.861915278183588e-001	 1.433079125331918e+001
 1.510227608896503e+000	 4.007727776325000e-001	 1.430233311346808e+001
 1.506282453997839e+000	 4.153545699055714e-001	 1.426558152884553e+001
 1.502185872155057e+000	 4.299347106956415e-001	 1.422056028125725e+001
 1.542560296707107e+000	 2.854545384970625e-001	 1.425387959755031e+001
 1.539791600607396e+000	 3.000306471169837e-001	 1.428363192514189e+001
 1.536876552452210e+000	 3.146220351791182e-001	 1.430537775656688e+001
 1.533814316766754e+000	 3.292266759670844e-001	 1.431907932449622e+001
 1.530604092167734e+000	 3.438425155764375e-001	 1.432470855360574e+001
 1.527245112246900e+000	 3.584674735456356e-001	 1.432224695087094e+001
 1.523736646443513e+000	 3.730994435175480e-001	 1.431168547009029e+001
 1.520078000904626e+000	 3.877362939314128e-001	 1.429302435047970e+001
 1.516268519332028e+000	 4.023758687451108e-001	 1.426627292925486e+001
 1.512307583814712e+000	 4.170159881875747e-001	 1.423144942819674e+001
 1.508194615645699e+000	 4.316544495411053e-001	 1.418858071427546e+001
 1.548705955259063e+000	 2.865918075744193e-001	 1.421154236251017e+001
 1.545926228497195e+000	 3.012259883405355e-001	 1.424148438904233e+001
 1.542999566604081e+000	 3.158755094231369e-001	 1.426361624096230e+001
 1.539925130776341e+000	 3.305383360312745e-001	 1.427790359379339e+001
 1.536702116437921e+000	 3.452124060776174e-001	 1.428432179593904e+001
 1.533329754127153e+000	 3.598956308119324e-001	 1.428285575190244e+001
 1.529807310372698e+000	 3.745858954852274e-001	 1.427349977947030e+001
 1.526134088557255e+000	 3.892810600444667e-001	 1.425625744071058e+001
 1.522309429767884e+000	 4.039789598577217e-001	 1.423114134670974e+001
 1.518332713631777e+000	 4.186774064695782e-001	 1.419817293605504e+001
 1.514203359136353e+000	 4.333741883865690e-001	 1.415738222714774e+001
 1.554851613811004e+000	 2.877290766517761e-001	 1.417061386171785e+001
 1.552060856387161e+000	 3.024213295640872e-001	 1.420068690260259e+001
 1.549122580756260e+000	 3.171289836671555e-001	 1.422314410412951e+001
 1.546035944786340e+000	 3.318499960954648e-001	 1.423795463423346e+001
 1.542800140708584e+000	 3.465822965787975e-001	 1.424509731715917e+001
 1.539414396007905e+000	 3.613237880782294e-001	 1.424456050957357e+001
 1.535877974302365e+000	 3.760723474529070e-001	 1.423634195037269e+001
 1.532190176210312e+000	 3.908258261575206e-001	 1.422044858404045e+001
 1.528350340204068e+000	 4.055820509703325e-001	 1.419689635749424e+001
 1.524357843449034e+000	 4.203388247515815e-001	 1.416570999043211e+001
 1.520212102627021e+000	 4.350939272320326e-001	 1.412692271927835e+001
 1.560997272362931e+000	 2.888663457291330e-001	 1.413105354666121e+001
 1.558195484277292e+000	 3.036166707876391e-001	 1.416119875072709e+001
 1.555245594908748e+000	 3.183824579111742e-001	 1.418392047651154e+001
 1.552146758796750e+000	 3.331616561596549e-001	 1.419919143425371e+001
 1.548898164979722e+000	 3.479521870799777e-001	 1.420699397648729e+001
 1.545499037889156e+000	 3.627519453445263e-001	 1.420731996701257e+001
 1.541948638232517e+000	 3.775587994205865e-001	 1.420017062328875e+001
 1.538246263863795e+000	 3.923705922705745e-001	 1.418555633211172e+001
 1.534391250640583e+000	 4.071851420829433e-001	 1.416349643852038e+001
 1.530382973266482e+000	 4.220002430335849e-001	 1.413401900795635e+001
 1.526220846117701e+000	 4.368136660774964e-001	 1.409716056178499e+001
 1.567142930914842e+000	 2.900036148064898e-001	 1.409282138702473e+001
 1.564330112167590e+000	 3.048120120111909e-001	 1.412297973214048e+001
 1.561368609061544e+000	 3.196359321551928e-001	 1.414590499772950e+001
 1.558257572807571e+000	 3.344733162238452e-001	 1.416157348656147e+001
 1.554996189251334e+000	 3.493220775811578e-001	 1.416997113224014e+001
 1.551583679770906e+000	 3.641801026108232e-001	 1.417109336100221e+001
 1.548019302163151e+000	 3.790452513882660e-001	 1.416494492665725e+001
 1.544302351517705e+000	 3.939153583836284e-001	 1.415153971854119e+001
 1.540432161077427e+000	 4.087882331955541e-001	 1.413090054243579e+001
 1.536408103084122e+000	 4.236616613155883e-001	 1.410305887448812e+001
 1.532229589608394e+000	 4.385334049229602e-001	 1.406805458824956e+001
 1.573288589466739e+000	 2.911408838838466e-001	 1.405587786056855e+001
 1.570464740058053e+000	 3.060073532347425e-001	 1.408599014935221e+001
 1.567491623214647e+000	 3.208894063992115e-001	 1.410905780663793e+001
 1.564368386818804e+000	 3.357849762880352e-001	 1.412506077828497e+001
 1.561094213523421e+000	 3.506919680823378e-001	 1.413398863208177e+001
 1.557668321653156e+000	 3.656082598771200e-001	 1.413584041233816e+001
 1.554089966094268e+000	 3.805317033559455e-001	 1.413062446733420e+001
 1.550358439172042e+000	 3.954601244966823e-001	 1.411835824950644e+001
 1.546473071514601e+000	 4.103913243081651e-001	 1.409906808833205e+001
 1.542433232901954e+000	 4.253230795975916e-001	 1.407278893595526e+001
 1.538238333099099e+000	 4.402531437684238e-001	 1.403956408568571e+001
 1.579434248018622e+000	 2.922781529612034e-001	 1.402018394324371e+001
 1.576599367948684e+000	 3.072026944582944e-001	 1.405019079885516e+001
 1.573614637368059e+000	 3.221428806432301e-001	 1.407333953161187e+001
 1.570479200830447e+000	 3.370966363522254e-001	 1.408961378135432e+001
 1.567192237795984e+000	 3.520618585835179e-001	 1.409900680350352e+001
 1.563752963535904e+000	 3.670364171434170e-001	 1.410152131641238e+001
 1.560160630025868e+000	 3.820181553236250e-001	 1.409716932128509e+001
 1.556414526826806e+000	 3.970048906097363e-001	 1.408597189455199e+001
 1.552513981952105e+000	 4.119944154207760e-001	 1.406795895267001e+001
 1.548458362719978e+000	 4.269844978795951e-001	 1.404316898940214e+001
 1.544247076589816e+000	 4.419728826138875e-001	 1.401164878571709e+001
 1.585579906570490e+000	 2.934154220385603e-001	 1.398570109953722e+001
 1.582733995839479e+000	 3.083980356818460e-001	 1.401554296155241e+001
 1.579737651521780e+000	 3.233963548872488e-001	 1.403871128106016e+001
 1.576590014842502e+000	 3.384082964164156e-001	 1.405519344310610e+001
 1.573290262069022e+000	 3.534317490846979e-001	 1.406498644452471e+001
 1.569837605419152e+000	 3.684645744097139e-001	 1.406809673401555e+001
 1.566231293957952e+000	 3.835046072913045e-001	 1.406454002449368e+001
 1.562470614481996e+000	 3.985496567227901e-001	 1.405434107760946e+001
 1.558554892389939e+000	 4.135975065333868e-001	 1.403753346041588e+001
 1.554483492538194e+000	 4.286459161615985e-001	 1.401415927424726e+001
 1.550255820080547e+000	 4.436926214593512e-001	 1.398426885596101e+001
 1.591725565122343e+000	 2.945526911159171e-001	 1.395239127304100e+001
 1.588868623730442e+000	 3.095933769053978e-001	 1.398200839340560e+001
 1.585860665675808e+000	 3.246498291312674e-001	 1.400513463415821e+001
 1.582700828854969e+000	 3.397199564806058e-001	 1.402176117710561e+001
 1.579388286342534e+000	 3.548016395858781e-001	 1.403188881460932e+001
 1.575922247302898e+000	 3.698927316760107e-001	 1.403552778235241e+001
 1.572301957890518e+000	 3.849910592589840e-001	 1.403269756408123e+001
 1.568526702137613e+000	 4.000944228358441e-001	 1.402342666822547e+001
 1.564595802828102e+000	 4.152005976459977e-001	 1.400775237638297e+001
 1.560508622356601e+000	 4.303073344436018e-001	 1.398572046374314e+001
 1.556264563571290e+000	 4.454123603048150e-001	 1.395738489161150e+001
 1.597871223674181e+000	 2.956899601932739e-001	 1.392021687723816e+001
 1.595003251621570e+000	 3.107887181289496e-001	 1.394954931629922e+001
 1.591983679830145e+000	 3.259033033752861e-001	 1.397257163179505e+001
 1.588811642867847e+000	 3.410316165447961e-001	 1.398927885418094e+001
 1.585486310616522e+000	 3.561715300870582e-001	 1.399967562579195e+001
 1.582006889187144e+000	 3.713208889423076e-001	 1.400377602626476e+001
 1.578372621823568e+000	 3.864775112266636e-001	 1.400160336963091e+001
 1.574582789793657e+000	 4.016391889488981e-001	 1.399318997299219e+001
 1.570636713266596e+000	 4.168036887586086e-001	 1.397857689677293e+001
 1.566533752175201e+000	 4.319687527256053e-001	 1.395781365663332e+001
 1.562273307062045e+000	 4.471320991502787e-001	 1.393095790721671e+001
 1.502185872155057e+000	 4.299347106956415e-001	 1.422056028125725e+001
 1.497937326810948e+000	 4.445109840149134e-001	 1.424258662303784e+001
 1.493536322032023e+000	 4.590811526669167e-001	 1.425400867730459e+001
 1.488982403269010e+000	 4.736429591126630e-001	 1.425465169196299e+001
 1.484275158096128e+000	 4.881941263664698e-001	 1.424434750983655e+001
 1.479414216929606e+000	 5.027323589190562e-001	 1.422293441960837e+001
 1.474399253723777e+000	 5.172553436880707e-001	 1.419025698781398e+001
 1.469229986643619e+000	 5.317607509954845e-001	 1.414616587230087e+001
 1.463906178712646e+000	 5.462462355712415e-001	 1.409051761764437e+001
 1.458427638435055e+000	 5.607094375825000e-001	 1.402317443308231e+001
 1.452794220391045e+000	 5.751479836877564e-001	 1.394400395360328e+001
 1.508194615645699e+000	 4.316544495411053e-001	 1.418858071427546e+001
 1.503929076121370e+000	 4.462890279539537e-001	 1.421023769211599e+001
 1.499510467324318e+000	 4.609174772808639e-001	 1.422142243288263e+001
 1.494938332887072e+000	 4.755375309526911e-001	 1.422196739439135e+001
 1.490212258734147e+000	 4.901469028758102e-001	 1.421171167781505e+001
 1.485331873803437e+000	 5.047432883589030e-001	 1.419050086751828e+001
 1.480296850745088e+000	 5.193243650672886e-001	 1.415818685158499e+001
 1.475106906596738e+000	 5.338877940042262e-001	 1.411462762347206e+001
 1.469761803433995e+000	 5.484312205185792e-001	 1.405968706529647e+001
 1.464261348995071e+000	 5.629522753381745e-001	 1.399323471333839e+001
 1.458605397278485e+000	 5.774485756281426e-001	 1.391514550641679e+001
 1.514203359136353e+000	 4.333741883865690e-001	 1.415738222714774e+001
 1.509920825431620e+000	 4.480670718929893e-001	 1.417866844688228e+001
 1.505484612616284e+000	 4.627538018947917e-001	 1.418961400467043e+001
 1.500894262504678e+000	 4.774321027926755e-001	 1.419005861472840e+001
 1.496149359371613e+000	 4.920996793850723e-001	 1.417984868424741e+001
 1.491249530676646e+000	 5.067542177986275e-001	 1.415883714205272e+001
 1.486194447765740e+000	 5.213933864463302e-001	 1.412688324759365e+001
 1.480983826549191e+000	 5.360148370127269e-001	 1.408385238071532e+001
 1.475617428154701e+000	 5.506162054656015e-001	 1.402961581273792e+001
 1.470095059554497e+000	 5.651951130934489e-001	 1.396405045944597e+001
 1.464416574165419e+000	 5.797491675680337e-001	 1.388703861666587e+001
 1.520212102627021e+000	 4.350939272320326e-001	 1.412692271927835e+001
 1.515912574741696e+000	 4.498451158320199e-001	 1.414783587889325e+001
 1.511458757907920e+000	 4.645901265086999e-001	 1.415853948113893e+001
 1.506850192121827e+000	 4.793266746326158e-001	 1.415888054374754e+001
 1.502086460008525e+000	 4.940524558942565e-001	 1.414871282822918e+001
 1.497167187549233e+000	 5.087651472382295e-001	 1.412789665728527e+001
 1.492092044785732e+000	 5.234624078251947e-001	 1.409629871218803e+001
 1.486860746500978e+000	 5.381418800209867e-001	 1.405379181059350e+001
 1.481473052874764e+000	 5.528011904123084e-001	 1.400025466533322e+001
 1.475928770113334e+000	 5.674379508483235e-001	 1.393557162480680e+001
 1.470227751051848e+000	 5.820497595074301e-001	 1.385963239567507e+001
 1.526220846117701e+000	 4.368136660774964e-001	 1.409716056178499e+001
 1.521904324051600e+000	 4.516231597710458e-001	 1.411769745817803e+001
 1.517432903199227e+000	 4.664264511225887e-001	 1.412815543589518e+001
 1.512806121738521e+000	 4.812212464725122e-001	 1.412838886392280e+001
 1.508023560644883e+000	 4.960052324033625e-001	 1.411825890701833e+001
 1.503084844421199e+000	 5.107760766777092e-001	 1.409763333180763e+001
 1.497989641805066e+000	 5.255314292038827e-001	 1.406638629248007e+001
 1.492737666452098e+000	 5.402689230290056e-001	 1.402439809656575e+001
 1.487328677594183e+000	 5.549861753586998e-001	 1.397155495135885e+001
 1.481762480671581e+000	 5.696807886027979e-001	 1.390774869162991e+001
 1.476038927937772e+000	 5.843503514463317e-001	 1.383287648934786e+001
 1.532229589608394e+000	 4.385334049229602e-001	 1.406805458824956e+001
 1.527896073361330e+000	 4.534012037100668e-001	 1.408821112385644e+001
 1.523407048490205e+000	 4.682627757364581e-001	 1.409841891816986e+001
 1.518762051354758e+000	 4.831158183123650e-001	 1.409853973978770e+001
 1.513960661280687e+000	 4.979580089123902e-001	 1.408844220626746e+001
 1.509002501292543e+000	 5.127870061170665e-001	 1.406800157883703e+001
 1.503887238823741e+000	 5.276004505823942e-001	 1.403709953633063e+001
 1.498614586402552e+000	 5.423959660367836e-001	 1.399562392885233e+001
 1.493184302312959e+000	 5.571711603047761e-001	 1.394346851175004e+001
 1.487596191229239e+000	 5.719236263568724e-001	 1.388053266056289e+001
 1.481850104823191e+000	 5.866509433847384e-001	 1.380672106768476e+001
 1.538238333099099e+000	 4.402531437684238e-001	 1.403956408568571e+001
 1.533887822670887e+000	 4.551792476490828e-001	 1.405933527497708e+001
 1.529381193780854e+000	 4.700991003503082e-001	 1.406928744352785e+001
 1.524717980970538e+000	 4.850103901521738e-001	 1.406928980851992e+001
 1.519897761915938e+000	 4.999107854213399e-001	 1.405921849048480e+001
 1.514920158163267e+000	 5.147979355563015e-001	 1.403895629655563e+001
 1.509784835841756e+000	 5.296694719607292e-001	 1.400839248256913e+001
 1.504491506352339e+000	 5.445230090443205e-001	 1.396742249453688e+001
 1.499039927031092e+000	 5.593561452505369e-001	 1.391594769008794e+001
 1.493429901786307e+000	 5.741664641105471e-001	 1.385387504056613e+001
 1.487661281708105e+000	 5.889515353226502e-001	 1.378111681454705e+001
 1.544247076589816e+000	 4.419728826138875e-001	 1.401164878571709e+001
 1.539879571980272e+000	 4.569572915880942e-001	 1.403102876156941e+001
 1.535355339071173e+000	 4.719354249641385e-001	 1.404071898479546e+001
 1.530673910585862e+000	 4.869049619919389e-001	 1.404059617074609e+001
 1.525834862550635e+000	 5.018635619302113e-001	 1.403054399371797e+001
 1.520837815033369e+000	 5.168088649954140e-001	 1.401045285867532e+001
 1.515682432859113e+000	 5.317384933388875e-001	 1.398021965144172e+001
 1.510368426301461e+000	 5.466500520516168e-001	 1.393974746789991e+001
 1.504895551748581e+000	 5.615411301959822e-001	 1.388894532282044e+001
 1.499263612342785e+000	 5.764093018638214e-001	 1.382772783902336e+001
 1.493472458592513e+000	 5.912521272600672e-001	 1.375601491765938e+001
 1.550255820080547e+000	 4.436926214593512e-001	 1.398426885596101e+001
 1.545871321289484e+000	 4.587353355271006e-001	 1.400325087590357e+001
 1.541329484361163e+000	 4.737717495779497e-001	 1.401267196319884e+001
 1.536629840200730e+000	 4.887995338316599e-001	 1.401241638155993e+001
 1.531771963184778e+000	 5.038163384390048e-001	 1.400237541045440e+001
 1.526755471902849e+000	 5.188197944344042e-001	 1.398244710522222e+001
 1.521580029875810e+000	 5.338075147168691e-001	 1.395253603528152e+001
 1.516245346249915e+000	 5.487770950586718e-001	 1.391255300097683e+001
 1.510751176465427e+000	 5.637261151411123e-001	 1.386241472971061e+001
 1.505097322898673e+000	 5.786521396166959e-001	 1.380204355208243e+001
 1.499283635476416e+000	 5.935527191969892e-001	 1.373136705884517e+001
 1.556264563571290e+000	 4.454123603048150e-001	 1.395738489161150e+001
 1.551863070598523e+000	 4.605133794661023e-001	 1.397596134395318e+001
 1.547303629650823e+000	 4.756080741917413e-001	 1.398510523970760e+001
 1.542585769815142e+000	 4.906941056713374e-001	 1.398470844174907e+001
 1.537709063818367e+000	 5.057691149477200e-001	 1.397466988673243e+001
 1.532673128771708e+000	 5.208307238732720e-001	 1.395489533353423e+001
 1.527477626891849e+000	 5.358765360946740e-001	 1.392529708939489e+001
 1.522122266197703e+000	 5.509041380654860e-001	 1.388579371433512e+001
 1.516606801181630e+000	 5.659111000859269e-001	 1.383630970450618e+001
 1.510931033453972e+000	 5.808949773691703e-001	 1.377677515521963e+001
 1.505094812359814e+000	 5.958533111334164e-001	 1.370712540448781e+001
 1.562273307062045e+000	 4.471320991502787e-001	 1.393095790721671e+001
 1.557854819907389e+000	 4.622914234050990e-001	 1.394912031705473e+001
 1.553277774940155e+000	 4.774443988055136e-001	 1.395797810657821e+001
 1.548541699429098e+000	 4.925886775109708e-001	 1.395743078922374e+001
 1.543646164451403e+000	 5.077218914563572e-001	 1.394738501145775e+001
 1.538590785639945e+000	 5.228416533120174e-001	 1.392775428946671e+001
 1.533375223907228e+000	 5.379455574723024e-001	 1.389845872315815e+001
 1.527999186144825e+000	 5.530311810720592e-001	 1.385942468806388e+001
 1.522462425897189e+000	 5.680960850304262e-001	 1.381058450582451e+001
 1.516764744008681e+000	 5.831378151212450e-001	 1.375187609402179e+001
 1.510905989242708e+000	 5.981539030693488e-001	 1.368324259621237e+001
 1.452794220391045e+000	 5.751479836877564e-001	 1.394400395360328e+001
 1.447005825804713e+000	 5.895594881144664e-001	 1.396712677149091e+001
 1.441062403082105e+000	 6.039415537613283e-001	 1.398115970070120e+001
 1.434963948319405e+000	 6.182917733228899e-001	 1.398621657255601e+001
 1.428710505781122e+000	 6.326077304344622e-001	 1.395105581908078e+001
 1.422302168345947e+000	 6.468870008383167e-001	 1.388462098779537e+001
 1.415739077919852e+000	 6.611271535695082e-001	 1.381664733599720e+001
 1.409021425815511e+000	 6.753257521602778e-001	 1.374780464183350e+001
 1.402149453097215e+000	 6.894803558619649e-001	 1.367878887916595e+001
 1.395123450890451e+000	 7.035885208833039e-001	 1.361032233343254e+001
 1.387943760655384e+000	 7.176478016439463e-001	 1.354315365103244e+001
 1.458605397278485e+000	 5.774485756281426e-001	 1.391514550641679e+001
 1.452793849113353e+000	 5.919177260727875e-001	 1.394279663400773e+001
 1.446826652699472e+000	 6.063573199823407e-001	 1.396183840112687e+001
 1.440703804117413e+000	 6.207649404221272e-001	 1.397238861048231e+001
 1.434425347808741e+000	 6.351381613619986e-001	 1.392880709226341e+001
 1.427991377023663e+000	 6.494745488471951e-001	 1.386345041022317e+001
 1.421402034235776e+000	 6.637716621889106e-001	 1.379696549742439e+001
 1.414657511523003e+000	 6.780270551735149e-001	 1.373002165247901e+001
 1.407758050913895e+000	 6.922382772893519e-001	 1.366331441831129e+001
 1.400703944698441e+000	 7.064028749699909e-001	 1.359756570657848e+001
 1.393495535702646e+000	 7.205183928527605e-001	 1.353352385519715e+001
 1.464416574165419e+000	 5.797491675680337e-001	 1.388703861666587e+001
 1.458581872421578e+000	 5.942759640305283e-001	 1.391914725628918e+001
 1.452590902316496e+000	 6.087730862027164e-001	 1.394312481881150e+001
 1.446443659915128e+000	 6.232381075207016e-001	 1.395909315086516e+001
 1.440140189836098e+000	 6.376685922888754e-001	 1.390515110032835e+001
 1.433680585701129e+000	 6.520620968554468e-001	 1.384085632967740e+001
 1.427064990551440e+000	 6.664161708077497e-001	 1.377583800985046e+001
 1.420293597230208e+000	 6.807283581862820e-001	 1.371076490859473e+001
 1.413366648730238e+000	 6.949961987163924e-001	 1.364633209369071e+001
 1.406284438506024e+000	 7.092172290564849e-001	 1.358326106611655e+001
 1.399047310749411e+000	 7.233889840615668e-001	 1.352229982589048e+001
 1.470227751051848e+000	 5.820497595074301e-001	 1.385963239567507e+001
 1.464369895729389e+000	 5.966342019876888e-001	 1.389612771102961e+001
 1.458355151933176e+000	 6.111888524224562e-001	 1.392496802602345e+001
 1.452183515712550e+000	 6.257112746186135e-001	 1.394238999917043e+001
 1.445855031863193e+000	 6.401990232150928e-001	 1.388010906280394e+001
 1.439369794378344e+000	 6.546496448630722e-001	 1.381686132484583e+001
 1.432727946866845e+000	 6.690606794260251e-001	 1.375328881436858e+001
 1.425929682937125e+000	 6.834296611985786e-001	 1.369005971619881e+001
 1.418975246546244e+000	 6.977541201430864e-001	 1.362786857804842e+001
 1.411864932313202e+000	 7.120315831427867e-001	 1.356743645260835e+001
 1.404599085795681e+000	 7.262595752703654e-001	 1.350951097188252e+001
 1.476038927937772e+000	 5.843503514463317e-001	 1.383287648934786e+001
 1.470157919036784e+000	 5.989924399442692e-001	 1.387368759866001e+001
 1.464119401549511e+000	 6.136046186415598e-001	 1.390731761536963e+001
 1.457923371509678e+000	 6.281844417158622e-001	 1.391534370595916e+001
 1.451569873890026e+000	 6.427294541406502e-001	 1.385370270309353e+001
 1.445059003055308e+000	 6.572371928700709e-001	 1.379148846922717e+001
 1.438390903181991e+000	 6.717051880437370e-001	 1.372934233726496e+001
 1.431565768643753e+000	 6.861309642104052e-001	 1.366793185633244e+001
 1.424583844361914e+000	 7.005120415694337e-001	 1.360795100843129e+001
 1.417445426119973e+000	 7.148459372288961e-001	 1.355012035964931e+001
 1.410150860841454e+000	 7.291301664791561e-001	 1.349518714316260e+001
 1.481850104823191e+000	 5.866509433847384e-001	 1.380672106768476e+001
 1.475945942343765e+000	 6.013506779002691e-001	 1.385177703700026e+001
 1.469883651165503e+000	 6.160203848600270e-001	 1.389012368959282e+001
 1.463663227306514e+000	 6.306576088124481e-001	 1.388696165572190e+001
 1.457284715916599e+000	 6.452598850655483e-001	 1.382595423859571e+001
 1.450748211732023e+000	 6.598247408764429e-001	 1.376476132142889e+001
 1.444053859496878e+000	 6.743496966608860e-001	 1.370402348050531e+001
 1.437201854350093e+000	 6.888322672217614e-001	 1.364440757574556e+001
 1.430192442177247e+000	 7.032699629954345e-001	 1.358660697708452e+001
 1.423025919926337e+000	 7.176602913148127e-001	 1.353134172498543e+001
 1.415702635886732e+000	 7.320007576879389e-001	 1.347935862228780e+001
 1.487661281708105e+000	 5.889515353226502e-001	 1.378111681454705e+001
 1.481733965650330e+000	 6.037089158556890e-001	 1.383034665115405e+001
 1.475647900781149e+000	 6.184361510778578e-001	 1.387333685160801e+001
 1.469403083103056e+000	 6.331307759083714e-001	 1.385726522005495e+001
 1.462999557942908e+000	 6.477903159897870e-001	 1.379688637105581e+001
 1.456437420408486e+000	 6.624122888821885e-001	 1.373670391569232e+001
 1.449716815811506e+000	 6.769942052774711e-001	 1.367735761244421e+001
 1.442837940056146e+000	 6.915335702326478e-001	 1.361951357780117e+001
 1.435801039992243e+000	 7.060278844210888e-001	 1.356386452256139e+001
 1.428606413732295e+000	 7.204746454005370e-001	 1.351112992183879e+001
 1.421254410931513e+000	 7.348713488967140e-001	 1.346205611593451e+001
 1.493472458592513e+000	 5.912521272600672e-001	 1.375601491765938e+001
 1.487521988956481e+000	 6.060671538105286e-001	 1.380934756363926e+001
 1.481412150396452e+000	 6.208519172950525e-001	 1.385690819477155e+001
 1.475142938899306e+000	 6.356039430036320e-001	 1.382627625349885e+001
 1.468714399968956e+000	 6.503207469133656e-001	 1.376652227714296e+001
 1.462126629084699e+000	 6.649998368873077e-001	 1.370734075263927e+001
 1.455379772125874e+000	 6.796387138934928e-001	 1.364937055875141e+001
 1.448474025761911e+000	 6.942348732430639e-001	 1.359327701359168e+001
 1.441409637806902e+000	 7.087858058463965e-001	 1.353975212104015e+001
 1.434186907537848e+000	 7.232889994860685e-001	 1.348951475043492e+001
 1.426806185975798e+000	 7.377419401054810e-001	 1.344331074664687e+001
 1.499283635476416e+000	 5.935527191969892e-001	 1.373136705884517e+001
 1.493310012262217e+000	 6.084253917647881e-001	 1.378873138474834e+001
 1.487176400011411e+000	 6.232676835116107e-001	 1.384078929337627e+001
 1.480882794695262e+000	 6.380771100982297e-001	 1.379401708417899e+001
 1.474429241994742e+000	 6.528511778362849e-001	 1.373488559924614e+001
 1.467815837760662e+000	 6.675873848918004e-001	 1.367669679023348e+001
 1.461042728439983e+000	 6.822832225089511e-001	 1.362008859354910e+001
 1.454110111467388e+000	 6.969361762530096e-001	 1.356572547326197e+001
 1.447018235621223e+000	 7.115437272713575e-001	 1.351429867784276e+001
 1.439767401342993e+000	 7.261033535714079e-001	 1.346652642972776e+001
 1.432357961019587e+000	 7.406125313142403e-001	 1.342315404477755e+001
 1.505094812359814e+000	 5.958533111334164e-001	 1.370712540448781e+001
 1.499098035567538e+000	 6.107836297184671e-001	 1.376845020313178e+001
 1.492940649626025e+000	 6.256834497275327e-001	 1.381971699997175e+001
 1.486622650490926e+000	 6.405502771921645e-001	 1.376051050466309e+001
 1.480144084020266e+000	 6.553816087585446e-001	 1.370200043648326e+001
 1.473505046436374e+000	 6.701749328956662e-001	 1.364479743495172e+001
 1.466705684753834e+000	 6.849277311238458e-001	 1.358953843075457e+001
 1.459746197172577e+000	 6.996374792624854e-001	 1.353688697753365e+001
 1.452626833435208e+000	 7.143016486959719e-001	 1.348753351915041e+001
 1.445347895147732e+000	 7.289177076565544e-001	 1.344219558931612e+001
 1.437909736062880e+000	 7.434831225229918e-001	 1.340161794061488e+001
 1.510905989242708e+000	 5.981539030693488e-001	 1.368324259621237e+001
 1.504886058872444e+000	 6.131418676715659e-001	 1.374845657659887e+001
 1.498704899240296e+000	 6.280992159428186e-001	 1.378472433592419e+001
 1.492362506286295e+000	 6.430234442854368e-001	 1.372577976302957e+001
 1.485858926045528e+000	 6.579120396801447e-001	 1.366789133591816e+001
 1.479194255111835e+000	 6.727624808989059e-001	 1.361166853315846e+001
 1.472368641067425e+000	 6.875722397381776e-001	 1.355774721562257e+001
 1.465382282877478e+000	 7.023387822714909e-001	 1.350678996942443e+001
 1.458235431248856e+000	 7.170595701202400e-001	 1.345948638391015e+001
 1.450928388952065e+000	 7.317320617415087e-001	 1.341655326154648e+001
 1.443461511105678e+000	 7.463537137317355e-001	 1.337873475669178e+001
 1.387943760655384e+000	 7.176478016439463e-001	 1.354315365103244e+001
 1.380610774423161e+000	 7.316557520424184e-001	 1.348428110600034e+001
 1.373124934995397e+000	 7.456099267359925e-001	 1.343049477166994e+001
 1.365486736105450e+000	 7.595078824321699e-001	 1.338244957004005e+001
 1.357696722540269e+000	 7.733471791912008e-001	 1.334082274380817e+001
 1.349755490223286e+000	 7.871253817370462e-001	 1.330631369014717e+001
 1.341663686257528e+000	 8.008400607758616e-001	 1.327964372193127e+001
 1.333422008928481e+000	 8.144887943206088e-001	 1.326155575488764e+001
 1.325031207666359e+000	 8.280691690203853e-001	 1.325281391936621e+001
 1.316492082967422e+000	 8.415787814930305e-001	 1.325420309564029e+001
 1.307805486274087e+000	 8.550152396595565e-001	 1.326652837188454e+001
 1.393495535702646e+000	 7.205183928527605e-001	 1.353352385519715e+001
 1.386133217525675e+000	 7.345823750518816e-001	 1.347541716969851e+001
 1.378617434740245e+000	 7.485923664433556e-001	 1.342189218132607e+001
 1.370948683054646e+000	 7.625459139615139e-001	 1.337359993349321e+001
 1.363127509434973e+000	 7.764405679068488e-001	 1.333121470962542e+001
 1.355154512188354e+000	 7.902738832622165e-001	 1.329543388393374e+001
 1.347030341006223e+000	 8.040434210165985e-001	 1.326697769803294e+001
 1.338755696967212e+000	 8.177467494950086e-001	 1.324658896182550e+001
 1.330331332499253e+000	 8.313814456931410e-001	 1.323503267728720e+001
 1.321758051300592e+000	 8.449450966153062e-001	 1.323309558401637e+001
 1.313036708219413e+000	 8.584353006142016e-001	 1.324158562564893e+001
 1.399047310749411e+000	 7.233889840615668e-001	 1.352229982589048e+001
 1.391655660627609e+000	 7.375089980615273e-001	 1.346490510057878e+001
 1.384109934484456e+000	 7.515748061510716e-001	 1.341158866059969e+001
 1.376410630003179e+000	 7.655839454913618e-001	 1.336299769452943e+001
 1.368558296329018e+000	 7.795339566231315e-001	 1.331980355397992e+001
 1.360553534152795e+000	 7.934223847881334e-001	 1.328270162142252e+001
 1.352396995754356e+000	 8.072467812581730e-001	 1.325241110224525e+001
 1.344089385005473e+000	 8.210047046703168e-001	 1.322967473940529e+001
 1.335631457331802e+000	 8.346937223668556e-001	 1.321525844925679e+001
 1.327024019633571e+000	 8.483114117385717e-001	 1.320995087736759e+001
 1.318267930164734e+000	 8.618553615698467e-001	 1.321456287337689e+001
 1.404599085795681e+000	 7.262595752703654e-001	 1.350951097188252e+001
 1.397178103728960e+000	 7.404356210713552e-001	 1.345277569414530e+001
 1.389602434228030e+000	 7.545572458591405e-001	 1.339961630528766e+001
 1.381872576951048e+000	 7.686219770217138e-001	 1.335067616177880e+001
 1.373989083222403e+000	 7.826273453400493e-001	 1.330662370992161e+001
 1.365952556116610e+000	 7.965708863147961e-001	 1.326815237078324e+001
 1.357763650501927e+000	 8.104501415005846e-001	 1.323598034773893e+001
 1.349423073043268e+000	 8.242626598465335e-001	 1.321085035493017e+001
 1.340931582164007e+000	 8.380059990415296e-001	 1.319352926516445e+001
 1.332289987966361e+000	 8.516777268628274e-001	 1.318480767601658e+001
 1.323499152110051e+000	 8.652754225264918e-001	 1.318549939313831e+001
 1.410150860841454e+000	 7.291301664791561e-001	 1.349518714316260e+001
 1.402700546829731e+000	 7.433622440813656e-001	 1.343906017446741e+001
 1.395094933970967e+000	 7.575396855675626e-001	 1.338600762790453e+001
 1.387334523898254e+000	 7.716600085525693e-001	 1.333666904955672e+001
 1.379419870115128e+000	 7.857207340576018e-001	 1.329171000597747e+001
 1.371351578079799e+000	 7.997193878422050e-001	 1.325182198628687e+001
 1.363130305248935e+000	 8.136535017438337e-001	 1.321772222524982e+001
 1.354756761080593e+000	 8.275206150236584e-001	 1.319015344558048e+001
 1.346231706995868e+000	 8.413182757171628e-001	 1.316988351794230e+001
 1.337555956298959e+000	 8.550440419880724e-001	 1.315770503735466e+001
 1.328730374055361e+000	 8.686954834841369e-001	 1.315443481496387e+001
 1.415702635886732e+000	 7.320007576879389e-001	 1.347935862228780e+001
 1.408222989929920e+000	 7.462888670915583e-001	 1.342379018577656e+001
 1.400587433713267e+000	 7.605221252763378e-001	 1.337079554951155e+001
 1.392796470844797e+000	 7.746980400839292e-001	 1.332101046990926e+001
 1.384850657007195e+000	 7.888141227757899e-001	 1.327509765839733e+001
 1.376750600042362e+000	 8.028678893703602e-001	 1.323374670073485e+001
 1.368496959995381e+000	 8.168568619879201e-001	 1.319767389567596e+001
 1.360090449117449e+000	 8.307785702016917e-001	 1.316762201116051e+001
 1.351531831827384e+000	 8.446305523937554e-001	 1.314435995644597e+001
 1.342821924631369e+000	 8.584103571143074e-001	 1.312868236884009e+001
 1.333961596000666e+000	 8.721155444427821e-001	 1.312140911394357e+001
 1.421254410931513e+000	 7.348713488967140e-001	 1.346205611593451e+001
 1.413745433029527e+000	 7.492154901019337e-001	 1.340699778425992e+001
 1.406079933454930e+000	 7.635045649854657e-001	 1.335401339173728e+001
 1.398258417790677e+000	 7.777360716157934e-001	 1.330373492484511e+001
 1.390281443898602e+000	 7.919075114946127e-001	 1.325682226358069e+001
 1.382149622004299e+000	 8.060163908992617e-001	 1.321396311806595e+001
 1.373863614741265e+000	 8.200602222328439e-001	 1.317587288284767e+001
 1.365424137153838e+000	 8.340365253806338e-001	 1.314329440701650e+001
 1.356831956658556e+000	 8.479428290713067e-001	 1.311699767850379e+001
 1.348087892963587e+000	 8.617766722415324e-001	 1.309777942116105e+001
 1.339192817945967e+000	 8.755356054024271e-001	 1.308646260348769e+001
 1.426806185975798e+000	 7.377419401054810e-001	 1.344331074664687e+001
 1.419267876128554e+000	 7.521421131124909e-001	 1.338871543004577e+001
 1.411572433195955e+000	 7.664870046949467e-001	 1.333569486898430e+001
 1.403720364735893e+000	 7.807741031481608e-001	 1.328487729874849e+001
 1.395712230789349e+000	 7.950009002140707e-001	 1.323691979068124e+001
 1.387548643965611e+000	 8.091648924289091e-001	 1.319250820613584e+001
 1.379230269486587e+000	 8.232635824786051e-001	 1.315235706646650e+001
 1.370757825189758e+000	 8.372944805604841e-001	 1.311720933711930e+001
 1.362132081489383e+000	 8.512551057498177e-001	 1.308783612412658e+001
 1.353353861295616e+000	 8.651429873697469e-001	 1.306503628155799e+001
 1.344424039891262e+000	 8.789556663630723e-001	 1.304963592874428e+001
 1.432357961019587e+000	 7.406125313142403e-001	 1.342315404477755e+001
 1.424790319226999e+000	 7.550687361232309e-001	 1.336897597937513e+001
 1.417064932936343e+000	 7.694694444047807e-001	 1.331587408081756e+001
 1.409182311680447e+000	 7.838121346810323e-001	 1.326447285096923e+001
 1.401143017679437e+000	 7.980942889341637e-001	 1.321542657438275e+001
 1.392947665926296e+000	 8.123133939593031e-001	 1.316941928966427e+001
 1.384596924231346e+000	 8.264669427252037e-001	 1.312716467520882e+001
 1.376091513225209e+000	 8.405524357412424e-001	 1.308940584730805e+001
 1.367432206319866e+000	 8.545673824292881e-001	 1.305691506887708e+001
 1.358619829627455e+000	 8.685093024989514e-001	 1.303049336730120e+001
 1.349655261836551e+000	 8.823757273247173e-001	 1.301097006017052e+001
 1.437909736062880e+000	 7.434831225229918e-001	 1.340161794061488e+001
 1.430312762324863e+000	 7.579953591341530e-001	 1.334781267695479e+001
 1.422557432676095e+000	 7.724518841149679e-001	 1.329458550452860e+001
 1.414644258624336e+000	 7.868501662144077e-001	 1.324255720858360e+001
 1.406573804568864e+000	 8.011876776548915e-001	 1.319237930784239e+001
 1.398346687886356e+000	 8.154618954904432e-001	 1.314473404334583e+001
 1.389963578975543e+000	 8.296703029726396e-001	 1.310033427998861e+001
 1.381425201260192e+000	 8.438103909229096e-001	 1.305992331869048e+001
 1.372732331150004e+000	 8.578796591097174e-001	 1.302427461739133e+001
 1.363885797959104e+000	 8.718756176291453e-001	 1.299419141931961e+001
 1.354886483781835e+000	 8.857957882873625e-001	 1.297050628725222e+001
 1.443461511105678e+000	 7.463537137317355e-001	 1.337873475669178e+001
 1.435835205422145e+000	 7.609219821452579e-001	 1.332525914848689e+001
 1.428049932415209e+000	 7.754343238255081e-001	 1.327186398787165e+001
 1.420106205567564e+000	 7.898881977482871e-001	 1.321916635932283e+001
 1.412004591457633e+000	 8.042810663762547e-001	 1.316781503579735e+001
 1.403745709845789e+000	 8.186103970223295e-001	 1.311849048511975e+001
 1.395330233719178e+000	 8.328736632209131e-001	 1.307190478737607e+001
 1.386758889294707e+000	 8.470683461054850e-001	 1.302880146119532e+001
 1.378032455979799e+000	 8.611919357911061e-001	 1.298995519705087e+001
 1.369151766290563e+000	 8.752419327603297e-001	 1.295617149597665e+001
 1.360117705727114e+000	 8.892158492510077e-001	 1.292828621236904e+001
 1.307805486274087e+000	 8.550152396595565e-001	 1.326652837188454e+001
 1.298972319813945e+000	 8.683761640786285e-001	 1.305473444193495e+001
 1.289993536396556e+000	 8.816591892805082e-001	 1.285836374297203e+001
 1.280870139168562e+000	 8.948619650983639e-001	 1.267918740719329e+001
 1.271603181327788e+000	 9.079821579948363e-001	 1.251899665885252e+001
 1.262193765795339e+000	 9.210174523832456e-001	 1.237960094950901e+001
 1.252643044846139e+000	 9.339655519416283e-001	 1.226282600696711e+001
 1.242952219698063e+000	 9.468241809180802e-001	 1.224655944425013e+001
 1.233122540059876e+000	 9.595910854258949e-001	 1.227879044498156e+001
 1.223155303638284e+000	 9.722640347269920e-001	 1.233078080381487e+001
 1.213051855604417e+000	 9.848408225021239e-001	 1.240344889711494e+001
 1.313036708219413e+000	 8.584353006142016e-001	 1.324158562564893e+001
 1.304168209092373e+000	 8.718496687307505e-001	 1.303675582039029e+001
 1.295153510540420e+000	 8.851858260333588e-001	 1.284798857929747e+001
 1.285993619722784e+000	 8.984414129545281e-001	 1.267703368161512e+001
 1.276689594050083e+000	 9.116140866227506e-001	 1.252566078101587e+001
 1.267242540855106e+000	 9.247015221889994e-001	 1.239565756121283e+001
 1.257653617021877e+000	 9.377014141460242e-001	 1.228882780502253e+001
 1.247924028573141e+000	 9.506114776389119e-001	 1.222941916677126e+001
 1.238055030216503e+000	 9.634294497654113e-001	 1.227553526056486e+001
 1.228047924849494e+000	 9.761530908644885e-001	 1.234205810971343e+001
 1.217904063023927e+000	 9.887801857916196e-001	 1.242987312817744e+001
 1.318267930164734e+000	 8.618553615698467e-001	 1.321456287337689e+001
 1.309364098370976e+000	 8.753231733838619e-001	 1.301626380826473e+001
 1.300313484684599e+000	 8.887124627871693e-001	 1.283465873657253e+001
 1.291117100277423e+000	 9.020208608116035e-001	 1.267147631002719e+001
 1.281776006772856e+000	 9.152460152515062e-001	 1.252846484761502e+001
 1.272291315915372e+000	 9.283855919955051e-001	 1.240739051139765e+001
 1.262664189198095e+000	 9.414372763510616e-001	 1.231003539551946e+001
 1.252895837448642e+000	 9.543987743602564e-001	 1.223819553078818e+001
 1.242987520373453e+000	 9.672678141052902e-001	 1.226638491518662e+001
 1.232940546060886e+000	 9.800421470021775e-001	 1.234697302707619e+001
 1.222756270443441e+000	 9.927195490811176e-001	 1.244946746235312e+001
 1.323499152110051e+000	 8.652754225264918e-001	 1.318549939313831e+001
 1.314559987649754e+000	 8.787966780379640e-001	 1.299330281676414e+001
 1.305473458829094e+000	 8.922390995419407e-001	 1.281842377724730e+001
 1.296240580832480e+000	 9.056003086695890e-001	 1.266257002198873e+001
 1.286862419496107e+000	 9.188779438811026e-001	 1.252746876893744e+001
 1.277340090976136e+000	 9.320696618027621e-001	 1.241486490245247e+001
 1.267674761374793e+000	 9.451731385567412e-001	 1.232651908207765e+001
 1.257867646324564e+000	 9.581860710821130e-001	 1.226420576657455e+001
 1.247920010530725e+000	 9.711061784455314e-001	 1.225133766647958e+001
 1.237833167272461e+000	 9.839312031400593e-001	 1.234552904021529e+001
 1.227608477862957e+000	 9.966589123706190e-001	 1.246224065889303e+001
 1.328730374055361e+000	 8.686954834841369e-001	 1.315443481496387e+001
 1.319755876928706e+000	 8.822701826930561e-001	 1.296791753161324e+001
 1.310633432973906e+000	 8.957657362976721e-001	 1.279933345996742e+001
 1.301364061387952e+000	 9.091797565284856e-001	 1.265036966408383e+001
 1.291948832219835e+000	 9.225098725115403e-001	 1.252273249231296e+001
 1.282388866037400e+000	 9.357537316107707e-001	 1.241814579305016e+001
 1.272685333551971e+000	 9.489090007630624e-001	 1.233834904310286e+001
 1.262839455200907e+000	 9.619733678044815e-001	 1.228509539098206e+001
 1.252852500688319e+000	 9.749445427861353e-001	 1.226014961773297e+001
 1.242725788484219e+000	 9.878202592781339e-001	 1.233772925967720e+001
 1.232460685282475e+000	 1.000598275660123e+000	 1.246820101920731e+001
 1.333961596000666e+000	 8.721155444427821e-001	 1.312140911394357e+001
 1.324951766207834e+000	 8.857436873491383e-001	 1.294015290767310e+001
 1.315793407119032e+000	 8.992923730543639e-001	 1.277743773572717e+001
 1.306487541943841e+000	 9.127592043882928e-001	 1.263493019762698e+001
 1.297035244944042e+000	 9.261418011428193e-001	 1.251431600138753e+001
 1.287437641099163e+000	 9.394378014195307e-001	 1.241729819900475e+001
 1.277695905729629e+000	 9.526448629700259e-001	 1.234559533424274e+001
 1.267811264077671e+000	 9.657606645273624e-001	 1.230093950499082e+001
 1.257784990846234e+000	 9.787829071271014e-001	 1.228507434277051e+001
 1.247618409696159e+000	 9.917093154164008e-001	 1.232357642957200e+001
 1.237312892701997e+000	 1.004537638949629e+000	 1.246735639584216e+001
 1.339192817945967e+000	 8.755356054024271e-001	 1.308646260348769e+001
 1.330147655487137e+000	 8.892171920062103e-001	 1.291005416368472e+001
 1.320953381264475e+000	 9.028190098120164e-001	 1.275278674411265e+001
 1.311611022500147e+000	 9.163386522490107e-001	 1.261630669642210e+001
 1.302121657668725e+000	 9.297737297749389e-001	 1.250227931541349e+001
 1.292486416161425e+000	 9.431218712290423e-001	 1.241238709410829e+001
 1.282706477907767e+000	 9.563807251776310e-001	 1.234832789078398e+001
 1.272783072954856e+000	 9.695479612507554e-001	 1.231181301020645e+001
 1.262717481004472e+000	 9.826212714684303e-001	 1.230456520160411e+001
 1.252511030908281e+000	 9.955983715548602e-001	 1.232831657623791e+001
 1.242165100121521e+000	 1.008477002239138e+000	 1.245971420124746e+001
 1.344424039891262e+000	 8.789556663630723e-001	 1.304963592874428e+001
 1.335343544766614e+000	 8.926906966642725e-001	 1.287766677713502e+001
 1.326113355410233e+000	 9.063456465706288e-001	 1.272543080963277e+001
 1.316734503056869e+000	 9.199181001106392e-001	 1.259455434457406e+001
 1.307208070393888e+000	 9.334056584078999e-001	 1.248668248855750e+001
 1.297535191224185e+000	 9.468059410393053e-001	 1.240347741094885e+001
 1.287717050086386e+000	 9.601165873858779e-001	 1.234661652999423e+001
 1.277754881832463e+000	 9.733352579746607e-001	 1.231779061273922e+001
 1.267649971163032e+000	 9.864596358101214e-001	 1.231870179126189e+001
 1.257403652120586e+000	 9.994874276935127e-001	 1.235106149804160e+001
 1.247017307541048e+000	 1.012416365528650e+000	 1.244528141633832e+001
 1.349655261836551e+000	 8.823757273247173e-001	 1.301097006017052e+001
 1.340539434046267e+000	 8.961642013233252e-001	 1.284303647924240e+001
 1.331273329556306e+000	 9.098722833302017e-001	 1.269542043813523e+001
 1.321857983614008e+000	 9.234975479731784e-001	 1.256972843435094e+001
 1.312294483119527e+000	 9.370375870417017e-001	 1.246758560922347e+001
 1.302583966287445e+000	 9.504900108503199e-001	 1.239063404170869e+001
 1.292727622265484e+000	 9.638524495947666e-001	 1.234053095340915e+001
 1.282726690710491e+000	 9.771225546990784e-001	 1.231894682699213e+001
 1.272582461321914e+000	 9.902980001521750e-001	 1.232756344047618e+001
 1.262296273333074e+000	 1.003376483832358e+000	 1.236807182017319e+001
 1.251869514960577e+000	 1.016355728818164e+000	 1.244217011538442e+001
 1.354886483781835e+000	 8.857957882873625e-001	 1.297050628725222e+001
 1.345735323326094e+000	 8.996377059833675e-001	 1.280620925005849e+001
 1.336433303702696e+000	 9.133989200907349e-001	 1.266280631330608e+001
 1.326981464171564e+000	 9.270769958366286e-001	 1.254188436409627e+001
 1.317380895845645e+000	 9.406695156763451e-001	 1.244504879939153e+001
 1.307632741351204e+000	 9.541740806620860e-001	 1.237392183894436e+001
 1.297738194445063e+000	 9.675883118042974e-001	 1.233014074906661e+001
 1.287698499588939e+000	 9.809098514240082e-001	 1.231535597936249e+001
 1.277514951481117e+000	 9.941363644945912e-001	 1.233122921486336e+001
 1.267188894545744e+000	 1.007265539971395e+000	 1.237943134632064e+001
 1.256721722380109e+000	 1.020295092107681e+000	 1.246164036172331e+001
 1.360117705727114e+000	 8.892158492510077e-001	 1.292828621236904e+001
 1.350931212606096e+000	 9.031112106444003e-001	 1.276723131368288e+001
 1.341593277849401e+000	 9.169255568522285e-001	 1.262763929324962e+001
 1.332104944729536e+000	 9.306564437009891e-001	 1.251107763618875e+001
 1.322467308572240e+000	 9.443014443118293e-001	 1.241913221397270e+001
 1.312681516415462e+000	 9.578581504746034e-001	 1.235340561634868e+001
 1.302748766625122e+000	 9.713241740144702e-001	 1.231551539368952e+001
 1.292670308467809e+000	 9.846971481494502e-001	 1.230709221185702e+001
 1.282447441640643e+000	 9.979747288373698e-001	 1.232977792198352e+001
 1.272081515758596e+000	 1.011154596110625e+000	 1.238522354789401e+001
 1.261573929799644e+000	 1.024234455397201e+000	 1.247508719420363e+001
 1.213051855604417e+000	 9.848408225021239e-001	 1.240344889711494e+001
 1.202813588019361e+000	 9.973192681069057e-001	 1.221628095526101e+001
 1.192441939221612e+000	 1.009697217810654e+000	 1.205069711139801e+001
 1.181938393175427e+000	 1.021972546017546e+000	 1.190683368669740e+001
 1.171304478779006e+000	 1.034143156469747e+000	 1.178479668696675e+001
 1.160541769135591e+000	 1.046206983429545e+000	 1.168466161160777e+001
 1.149651880787371e+000	 1.058161992839613e+000	 1.160647331756734e+001
 1.138636472912997e+000	 1.070006183460035e+000	 1.155024593869977e+001
 1.127497246489511e+000	 1.081737587980775e+000	 1.151596286081659e+001
 1.116235943419586e+000	 1.093354274108284e+000	 1.150357675255062e+001
 1.104854345625000e+000	 1.104854345625000e+000	 1.151300965201321e+001
 1.217904063023927e+000	 9.887801857916196e-001	 1.242987312817744e+001
 1.207624842369049e+000	 1.001308545179710e+000	 1.224818526614715e+001
 1.197211706976621e+000	 1.013736006683022e+000	 1.208645119719904e+001
 1.186666146746756e+000	 1.026060436203348e+000	 1.194478521404949e+001
 1.175989696693250e+000	 1.038279729097823e+000	 1.182327269707344e+001
 1.165183936211755e+000	 1.050391811365783e+000	 1.172196994881340e+001
 1.154250488310630e+000	 1.062394640813672e+000	 1.164090408181947e+001
 1.143191018805241e+000	 1.074286208196614e+000	 1.158007296019585e+001
 1.132007235476537e+000	 1.086064538335333e+000	 1.153944519508753e+001
 1.120700887194801e+000	 1.097727691207106e+000	 1.151896019419613e+001
 1.109273763009500e+000	 1.109273763009500e+000	 1.151852826526849e+001
 1.222756270443441e+000	 9.927195490811176e-001	 1.244946746235312e+001
 1.212436096718549e+000	 1.005297822252327e+000	 1.227298780433725e+001
 1.201981474731271e+000	 1.017774795555032e+000	 1.211484915805484e+001
 1.191393900317577e+000	 1.030148326388642e+000	 1.197514393211636e+001
 1.180674914606855e+000	 1.042416301725260e+000	 1.185393701347907e+001
 1.169826103287170e+000	 1.054576639301272e+000	 1.175126562735888e+001
 1.158849095833050e+000	 1.066627288786891e+000	 1.166713924882683e+001
 1.147745564696575e+000	 1.078566232932284e+000	 1.160153956642575e+001
 1.136517224462603e+000	 1.090391488688932e+000	 1.155442049799560e+001
 1.125165830969026e+000	 1.102101108304938e+000	 1.152570825875993e+001
 1.113693180393000e+000	 1.113693180393000e+000	 1.151530148158081e+001
 1.227608477862957e+000	 9.966589123706190e-001	 1.246224065889303e+001
 1.217247351067862e+000	 1.009287099324757e+000	 1.229070032940913e+001
 1.206751242485564e+000	 1.021813584426684e+000	 1.213590559138910e+001
 1.196121653887891e+000	 1.034236216573428e+000	 1.199792711209167e+001
 1.185360132519822e+000	 1.046552874352059e+000	 1.187680941557312e+001
 1.174468270361837e+000	 1.058761467236012e+000	 1.177257076785471e+001
 1.163447703354631e+000	 1.070859936759272e+000	 1.168520311214770e+001
 1.152300110586999e+000	 1.082846257667044e+000	 1.161467205442429e+001
 1.141027213447708e+000	 1.094718439041570e+000	 1.156091689948579e+001
 1.129630774742261e+000	 1.106474525401780e+000	 1.152385073753914e+001
 1.118112597775500e+000	 1.118112597775500e+000	 1.150336058115630e+001
 1.232460685282475e+000	 1.000598275660123e+000	 1.246820101920731e+001
 1.222058605416987e+000	 1.013276376396999e+000	 1.230133409501883e+001
 1.211521010239499e+000	 1.025852373297978e+000	 1.214963454335676e+001
 1.200849407457696e+000	 1.038324106757706e+000	 1.201315143131212e+001
 1.190045350432150e+000	 1.050689446978220e+000	 1.189190904908219e+001
 1.179110437435754e+000	 1.062946295170004e+000	 1.178590682024899e+001
 1.168046310875372e+000	 1.075092584730813e+000	 1.169511926050288e+001
 1.156854656476514e+000	 1.087126282400895e+000	 1.161949598505764e+001
 1.145537202431854e+000	 1.099045389393249e+000	 1.155896176486379e+001
 1.134095718514506e+000	 1.110847942497632e+000	 1.151341663159723e+001
 1.122532015157000e+000	 1.122532015157000e+000	 1.148273603126046e+001
 1.237312892701997e+000	 1.004537638949629e+000	 1.246735639584216e+001
 1.226869859765926e+000	 1.017265653469053e+000	 1.230489985882066e+001
 1.216290777993077e+000	 1.029891162168915e+000	 1.215604951965314e+001
 1.205577161026993e+000	 1.042411996941476e+000	 1.202083298490181e+001
 1.194730568343840e+000	 1.054826019603742e+000	 1.189925443849597e+001
 1.183752604508923e+000	 1.067131123103247e+000	 1.179129457697730e+001
 1.172644918395275e+000	 1.079325232701516e+000	 1.169691059159647e+001
 1.161409202365119e+000	 1.091406307133835e+000	 1.161603619745852e+001
 1.150047191415041e+000	 1.103372339743968e+000	 1.154858170978962e+001
 1.138560662285762e+000	 1.115221359592494e+000	 1.149443416725839e+001
 1.126951432537500e+000	 1.126951432537500e+000	 1.145345750215835e+001
 1.242165100121521e+000	 1.008477002239138e+000	 1.245971420124746e+001
 1.231681114114676e+000	 1.021254930540920e+000	 1.230140789215519e+001
 1.221060545746296e+000	 1.033929951039494e+000	 1.215516349606961e+001
 1.210304914595782e+000	 1.046499887124737e+000	 1.202098729714317e+001
 1.199415786254891e+000	 1.058962592228625e+000	 1.189886349919965e+001
 1.188394771581343e+000	 1.071315951035740e+000	 1.178875418580547e+001
 1.177243525914338e+000	 1.083557880671379e+000	 1.169059932561148e+001
 1.165963748252815e+000	 1.095686331865867e+000	 1.160431682312191e+001
 1.154557180397267e+000	 1.107699290093727e+000	 1.152980261491865e+001
 1.143025606056027e+000	 1.119594776686367e+000	 1.146693081123944e+001
 1.131370849917000e+000	 1.131370849917000e+000	 1.141555388268110e+001
 1.247017307541048e+000	 1.012416365528650e+000	 1.244528141633832e+001
 1.236492368463239e+000	 1.025244207612600e+000	 1.229086798950983e+001
 1.225830313499159e+000	 1.037968739909716e+000	 1.214698892880321e+001
 1.215032668164063e+000	 1.050587777307491e+000	 1.201362933258339e+001
 1.204101004165304e+000	 1.063099164852871e+000	 1.189075354932531e+001
 1.193036938653014e+000	 1.075500778967485e+000	 1.177830516237094e+001
 1.181842133432561e+000	 1.087790528640402e+000	 1.167620701839200e+001
 1.170518294139602e+000	 1.099966356596989e+000	 1.158436129967317e+001
 1.159067169378534e+000	 1.112026240442527e+000	 1.150264964020169e+001
 1.147490549825303e+000	 1.123968193779249e+000	 1.143093328542780e+001
 1.135790267295500e+000	 1.135790267295500e+000	 1.136905329542869e+001
 1.251869514960577e+000	 1.016355728818164e+000	 1.244217011538442e+001
 1.241303622811615e+000	 1.029233484684092e+000	 1.227328947776079e+001
 1.230600081251663e+000	 1.042007528779580e+000	 1.213153776452610e+001
 1.219760421731836e+000	 1.054675667489737e+000	 1.199877350688126e+001
 1.208786222075079e+000	 1.067235737476477e+000	 1.187494132132562e+001
 1.197679105723935e+000	 1.079685606898482e+000	 1.175996640243405e+001
 1.186440740949946e+000	 1.092023176608587e+000	 1.165375457431781e+001
 1.175072840025478e+000	 1.104246381327201e+000	 1.155619238431418e+001
 1.163577158358840e+000	 1.116353190790366e+000	 1.146714723885179e+001
 1.151955493593588e+000	 1.128341610871141e+000	 1.138646758131655e+001
 1.140209684673000e+000	 1.140209684673000e+000	 1.131398311161945e+001
 1.256721722380109e+000	 1.020295092107681e+000	 1.246164036172331e+001
 1.246114877159803e+000	 1.033222761755397e+000	 1.224868122520029e+001
 1.235369849003810e+000	 1.046046317649086e+000	 1.210882145022233e+001
 1.224488175299102e+000	 1.058763557671475e+000	 1.197643369740430e+001
 1.213471439984216e+000	 1.071372310099446e+000	 1.185144297328104e+001
 1.202321272794109e+000	 1.083870434828729e+000	 1.173375619384434e+001
 1.191039348466491e+000	 1.096255824575932e+000	 1.162326225888037e+001
 1.179627385910445e+000	 1.108526406056504e+000	 1.151983216695985e+001
 1.168087147338187e+000	 1.120680141137247e+000	 1.142331917098816e+001
 1.156420437360884e+000	 1.132715027962044e+000	 1.133355897410460e+001
 1.144629102049500e+000	 1.144629102049500e+000	 1.125036996559570e+001
 1.261573929799644e+000	 1.024234455397201e+000	 1.247508719420363e+001
 1.250926131507804e+000	 1.037212038826515e+000	 1.222568762412365e+001
 1.240139616755600e+000	 1.050085106518235e+000	 1.207885094279658e+001
 1.229215928865859e+000	 1.062851447852705e+000	 1.194662325357987e+001
 1.218156657892713e+000	 1.075508882721776e+000	 1.182027409994513e+001
 1.206963439863533e+000	 1.088055262758227e+000	 1.169969222823130e+001
 1.195637955982198e+000	 1.100488472542438e+000	 1.158474971096984e+001
 1.184181931794503e+000	 1.112806430784898e+000	 1.147530208306965e+001
 1.172597136316575e+000	 1.125007091483167e+000	 1.137118851696456e+001
 1.160885381127190e+000	 1.137088445051956e+000	 1.127223203647156e+001
 1.149048519425000e+000	 1.149048519425000e+000	 1.117823976899403e+001
 1.104854345625000e+000	 1.104854345625000e+000	 1.151300965201321e+001
 1.093354274108285e+000	 1.116235943419586e+000	 1.137382915644097e+001
 1.081737587980775e+000	 1.127497246489511e+000	 1.122666026619856e+001
 1.070006183460035e+000	 1.138636472912997e+000	 1.107044108862601e+001
 1.058161992839613e+000	 1.149651880787372e+000	 1.090411111631558e+001
 1.046206983429545e+000	 1.160541769135591e+000	 1.072661250239057e+001
 1.034143156469747e+000	 1.171304478779006e+000	 1.053689134408948e+001
 1.021972546017546e+000	 1.181938393175427e+000	 1.033389897221216e+001
 1.009697217810654e+000	 1.192441939221612e+000	 1.011659324394928e+001
 9.973192681069057e-001	 1.202813588019361e+000	 9.883939836585940e+000
 9.848408225021239e-001	 1.213051855604417e+000	 9.634913539552292e+000
 1.109273763009500e+000	 1.109273763009500e+000	 1.151852826526849e+001
 1.097727691207106e+000	 1.120700887194800e+000	 1.136110281565507e+001
 1.086064538335333e+000	 1.132007235476537e+000	 1.120236311735311e+001
 1.074286208196614e+000	 1.143191018805241e+000	 1.104142013962792e+001
 1.062394640813672e+000	 1.154250488310630e+000	 1.087737951594464e+001
 1.050391811365783e+000	 1.165183936211755e+000	 1.070934264912384e+001
 1.038279729097823e+000	 1.175989696693250e+000	 1.053640783436070e+001
 1.026060436203348e+000	 1.186666146746756e+000	 1.035767139791938e+001
 1.013736006683022e+000	 1.197211706976621e+000	 1.017222884925116e+001
 1.001308545179710e+000	 1.207624842369049e+000	 9.979176044239523e+000
 9.887801857916196e-001	 1.217904063023927e+000	 9.777610357232613e+000
 1.113693180393000e+000	 1.113693180393000e+000	 1.151530148158081e+001
 1.102101108304938e+000	 1.125165830969026e+000	 1.134189661664722e+001
 1.090391488688932e+000	 1.136517224462602e+000	 1.117380327124084e+001
 1.078566232932284e+000	 1.147745564696575e+000	 1.101030420411946e+001
 1.066627288786891e+000	 1.158849095833050e+000	 1.085067014831683e+001
 1.054576639301272e+000	 1.169826103287170e+000	 1.069416074709645e+001
 1.042416301725260e+000	 1.180674914606855e+000	 1.054002551729011e+001
 1.030148326388642e+000	 1.191393900317577e+000	 1.038750483808172e+001
 1.017774795555031e+000	 1.201981474731271e+000	 1.023583096321731e+001
 1.005297822252327e+000	 1.212436096718549e+000	 1.008422905455288e+001
 9.927195490811178e-001	 1.222756270443441e+000	 9.931918234785316e+000
 1.118112597775500e+000	 1.118112597775500e+000	 1.150336058115630e+001
 1.106474525401780e+000	 1.129630774742261e+000	 1.131621520443546e+001
 1.094718439041570e+000	 1.141027213447708e+000	 1.114095935559822e+001
 1.082846257667044e+000	 1.152300110586999e+000	 1.097704652280443e+001
 1.070859936759272e+000	 1.163447703354631e+000	 1.082391150927980e+001
 1.058761467236012e+000	 1.174468270361837e+000	 1.068097120097835e+001
 1.046552874352059e+000	 1.185360132519822e+000	 1.054762537111185e+001
 1.034236216573428e+000	 1.196121653887891e+000	 1.042325751985850e+001
 1.021813584426684e+000	 1.206751242485564e+000	 1.030723574745841e+001
 1.009287099324757e+000	 1.217247351067862e+000	 1.019891365881747e+001
 9.966589123706190e-001	 1.227608477862957e+000	 1.009763129764514e+001
 1.122532015157000e+000	 1.122532015157000e+000	 1.148273603126046e+001
 1.110847942497632e+000	 1.134095718514506e+000	 1.128406283146181e+001
 1.099045389393249e+000	 1.145537202431854e+000	 1.110381001638918e+001
 1.087126282400895e+000	 1.156854656476514e+000	 1.094160075566201e+001
 1.075092584730813e+000	 1.168046310875372e+000	 1.079703290505942e+001
 1.062946295170004e+000	 1.179110437435754e+000	 1.066967960679030e+001
 1.050689446978220e+000	 1.190045350432150e+000	 1.055908993607913e+001
 1.038324106757706e+000	 1.200849407457696e+000	 1.046478959262230e+001
 1.025852373297978e+000	 1.211521010239499e+000	 1.038628163535653e+001
 1.013276376396999e+000	 1.222058605416987e+000	 1.032304725886124e+001
 1.000598275660123e+000	 1.232460685282476e+000	 1.027454660960872e+001
 1.126951432537500e+000	 1.126951432537500e+000	 1.145345750215835e+001
 1.115221359592494e+000	 1.138560662285761e+000	 1.124544336528984e+001
 1.103372339743968e+000	 1.150047191415040e+000	 1.106233391744816e+001
 1.091406307133835e+000	 1.161409202365120e+000	 1.090392097372623e+001
 1.079325232701516e+000	 1.172644918395275e+000	 1.076996443636925e+001
 1.067131123103247e+000	 1.183752604508923e+000	 1.066019272854484e+001
 1.054826019603742e+000	 1.194730568343840e+000	 1.057430328383717e+001
 1.042411996941476e+000	 1.205577161026993e+000	 1.051196309026924e+001
 1.029891162168915e+000	 1.216290777993077e+000	 1.047280928751964e+001
 1.017265653469053e+000	 1.226869859765925e+000	 1.045644981586127e+001
 1.004537638949629e+000	 1.237312892701997e+000	 1.046246411521857e+001
 1.131370849917000e+000	 1.131370849917000e+000	 1.141555388268110e+001
 1.119594776686367e+000	 1.143025606056027e+000	 1.120036029612153e+001
 1.107699290093728e+000	 1.154557180397267e+000	 1.101650974013111e+001
 1.095686331865867e+000	 1.165963748252815e+000	 1.086396165105686e+001
 1.083557880671379e+000	 1.177243525914338e+000	 1.074263698289328e+001
 1.071315951035740e+000	 1.188394771581342e+000	 1.065241847543270e+001
 1.058962592228625e+000	 1.199415786254892e+000	 1.059315098751268e+001
 1.046499887124738e+000	 1.210304914595782e+000	 1.056464189441159e+001
 1.033929951039494e+000	 1.221060545746296e+000	 1.056666154828221e+001
 1.021254930540920e+000	 1.231681114114676e+000	 1.059894380035675e+001
 1.008477002239138e+000	 1.242165100121521e+000	 1.066118658349897e+001
 1.135790267295500e+000	 1.135790267295500e+000	 1.136905329542869e+001
 1.123968193779249e+000	 1.147490549825302e+000	 1.114881674413932e+001
 1.112026240442527e+000	 1.159067169378533e+000	 1.096631618297448e+001
 1.099966356596989e+000	 1.170518294139602e+000	 1.082167765689901e+001
 1.087790528640402e+000	 1.181842133432561e+000	 1.071498218813128e+001
 1.075500778967485e+000	 1.193036938653013e+000	 1.064626587954436e+001
 1.063099164852871e+000	 1.204101004165305e+000	 1.061552009250280e+001
 1.050587777307491e+000	 1.215032668164063e+000	 1.062269169842980e+001
 1.037968739909716e+000	 1.225830313499159e+000	 1.066768340321967e+001
 1.025244207612600e+000	 1.236492368463239e+000	 1.075035414342859e+001
 1.012416365528650e+000	 1.247017307541048e+000	 1.087051955300523e+001
 1.140209684673000e+000	 1.140209684673000e+000	 1.131398311161945e+001
 1.128341610871141e+000	 1.151955493593588e+000	 1.109081546667673e+001
 1.116353190790367e+000	 1.163577158358840e+000	 1.091173196136218e+001
 1.104246381327201e+000	 1.175072840025478e+000	 1.077702424802444e+001
 1.092023176608587e+000	 1.186440740949946e+000	 1.068693244459590e+001
 1.079685606898482e+000	 1.197679105723935e+000	 1.064164507410765e+001
 1.067235737476477e+000	 1.208786222075079e+000	 1.064129908794201e+001
 1.054675667489737e+000	 1.219760421731836e+000	 1.068597997236132e+001
 1.042007528779580e+000	 1.230600081251663e+000	 1.077572193765139e+001
 1.029233484684092e+000	 1.241303622811615e+000	 1.091050818901457e+001
 1.016355728818164e+000	 1.251869514960577e+000	 1.091718904273597e+001
 1.144629102049500e+000	 1.144629102049500e+000	 1.125036996559570e+001
 1.132715027962044e+000	 1.156420437360884e+000	 1.102635886522322e+001
 1.120680141137247e+000	 1.168087147338187e+000	 1.085273580720061e+001
 1.108526406056504e+000	 1.179627385910445e+000	 1.072995706124993e+001
 1.096255824575932e+000	 1.191039348466491e+000	 1.065842087935269e+001
 1.083870434828729e+000	 1.202321272794109e+000	 1.063846727223060e+001
 1.071372310099446e+000	 1.213471439984216e+000	 1.067037787883121e+001
 1.058763557671475e+000	 1.224488175299101e+000	 1.075437592860113e+001
 1.046046317649086e+000	 1.235369849003810e+000	 1.089062629610553e+001
 1.033222761755397e+000	 1.246114877159803e+000	 1.107923564732882e+001
 1.020295092107681e+000	 1.256721722380110e+000	 1.070231914100613e+001
 1.149048519425000e+000	 1.149048519425000e+000	 1.117823976899403e+001
 1.137088445051956e+000	 1.160885381127190e+000	 1.095544899226751e+001
 1.125007091483167e+000	 1.172597136316574e+000	 1.078930646860069e+001
 1.112806430784898e+000	 1.184181931794503e+000	 1.068043210612925e+001
 1.100488472542439e+000	 1.195637955982198e+000	 1.062938133989457e+001
 1.088055262758227e+000	 1.206963439863533e+000	 1.063664474613424e+001
 1.075508882721776e+000	 1.218156657892713e+000	 1.070264775880938e+001
 1.062851447852705e+000	 1.229215928865858e+000	 1.082775048839618e+001
 1.050085106518235e+000	 1.240139616755599e+000	 1.101224764271840e+001
 1.037212038826515e+000	 1.250926131507804e+000	 1.117375469266253e+001
 1.024234455397201e+000	 1.261573929799644e+000	 1.050383890505887e+001
 9.848408225021239e-001	 1.213051855604417e+000	 9.634913539552292e+000
 9.722640347269920e-001	 1.223155303638283e+000	 9.695190714697603e+000
 9.595910854258950e-001	 1.233122540059876e+000	 9.854435788913014e+000
 9.468241809180800e-001	 1.242952219698062e+000	 1.011413114872785e+001
 9.339655519416285e-001	 1.252643044846140e+000	 1.019725991111836e+001
 9.210174523832456e-001	 1.262193765795339e+000	 9.632738082054633e+000
 9.079821579948363e-001	 1.271603181327788e+000	 9.151735878824006e+000
 8.948619650983640e-001	 1.280870139168562e+000	 8.756435748196894e+000
 8.816591892805081e-001	 1.289993536396556e+000	 8.448935178154034e+000
 8.683761640786286e-001	 1.298972319813945e+000	 8.231244391946486e+000
 8.550152396595565e-001	 1.307805486274087e+000	 8.105284169335512e+000
 9.887801857916196e-001	 1.217904063023927e+000	 9.777610357232613e+000
 9.761530908644883e-001	 1.228047924849494e+000	 9.920335841930076e+000
 9.634294497654115e-001	 1.238055030216503e+000	 1.015594825287391e+001
 9.506114776389117e-001	 1.247924028573141e+000	 1.048574749231460e+001
 9.377014141460240e-001	 1.257653617021877e+000	 1.010912451814758e+001
 9.247015221889994e-001	 1.267242540855106e+000	 9.593224141693327e+000
 9.116140866227506e-001	 1.276689594050083e+000	 9.153660557906992e+000
 8.984414129545284e-001	 1.285993619722784e+000	 8.792477076551112e+000
 8.851858260333587e-001	 1.295153510540420e+000	 8.511639550191049e+000
 8.718496687307504e-001	 1.304168209092373e+000	 8.313034154872890e+000
 8.584353006142017e-001	 1.313036708219413e+000	 8.198465287383563e+000
 9.927195490811178e-001	 1.222756270443441e+000	 9.931918234785316e+000
 9.800421470021775e-001	 1.232940546060886e+000	 1.015478465317756e+001
 9.672678141052902e-001	 1.242987520373453e+000	 1.046451328485148e+001
 9.543987743602563e-001	 1.252895837448643e+000	 1.056610382660670e+001
 9.414372763510617e-001	 1.262664189198095e+000	 1.002942686445772e+001
 9.283855919955052e-001	 1.272291315915372e+000	 9.559986852238026e+000
 9.152460152515063e-001	 1.281776006772856e+000	 9.159756661670853e+000
 9.020208608116035e-001	 1.291117100277423e+000	 8.830641405058891e+000
 8.887124627871692e-001	 1.300313484684599e+000	 8.574476199729363e+000
 8.753231733838619e-001	 1.309364098370976e+000	 8.393024034659947e+000
 8.618553615698467e-001	 1.318267930164734e+000	 8.287973743147637e+000
 9.966589123706190e-001	 1.227608477862957e+000	 1.009763129764514e+001
 9.839312031400594e-001	 1.237833167272461e+000	 1.039835928325518e+001
 9.711061784455316e-001	 1.247920010530724e+000	 1.077998040042955e+001
 9.581860710821128e-001	 1.257867646324564e+000	 1.044353485968710e+001
 9.451731385567413e-001	 1.267674761374793e+000	 9.958109207743236e+000
 9.320696618027623e-001	 1.277340090976136e+000	 9.532993301870421e+000
 9.188779438811027e-001	 1.286862419496107e+000	 9.170015418763290e+000
 9.056003086695893e-001	 1.296240580832480e+000	 8.870943403305981e+000
 8.922390995419406e-001	 1.305473458829095e+000	 8.637482528740499e+000
 8.787966780379641e-001	 1.314559987649754e+000	 8.471273448582169e+000
 8.652754225264918e-001	 1.323499152110051e+000	 8.373890244085199e+000
 1.000598275660123e+000	 1.232460685282476e+000	 1.027454660960872e+001
 9.878202592781337e-001	 1.242725788484219e+000	 1.065088436677592e+001
 9.749445427861353e-001	 1.252852500688318e+000	 1.081949486952133e+001
 9.619733678044814e-001	 1.262839455200907e+000	 1.033145475171803e+001
 9.489090007630626e-001	 1.272685333551971e+000	 9.895115050830084e+000
 9.357537316107706e-001	 1.282388866037401e+000	 9.512211426620759e+000
 9.225098725115403e-001	 1.291948832219836e+000	 9.184428519150920e+000
 9.091797565284858e-001	 1.301364061387952e+000	 8.913397826574721e+000
 8.957657362976721e-001	 1.310633432973906e+000	 8.700695660331187e+000
 8.822701826930560e-001	 1.319755876928706e+000	 8.547841181688671e+000
 8.686954834841368e-001	 1.328730374055361e+000	 8.456294523404100e+000
 1.004537638949629e+000	 1.237312892701997e+000	 1.046246411521857e+001
 9.917093154164007e-001	 1.247618409696159e+000	 1.091218698913510e+001
 9.787829071271017e-001	 1.257784990846234e+000	 1.066420738856650e+001
 9.657606645273620e-001	 1.267811264077671e+000	 1.022978352346157e+001
 9.526448629700257e-001	 1.277695905729629e+000	 9.840389117260566e+000
 9.394378014195309e-001	 1.287437641099163e+000	 9.497609993744671e+000
 9.261418011428193e-001	 1.297035244944042e+000	 9.202988105072528e+000
 9.127592043882929e-001	 1.306487541943841e+000	 8.958019514164201e+000
 8.992923730543638e-001	 1.315793407119032e+000	 8.764152444210627e+000
 8.857436873491382e-001	 1.324951766207834e+000	 8.622785399199472e+000
 8.721155444427821e-001	 1.333961596000667e+000	 8.535265359165283e+000
 1.008477002239138e+000	 1.242165100121521e+000	 1.066118658349897e+001
 9.955983715548602e-001	 1.252511030908281e+000	 1.094133119940529e+001
 9.826212714684304e-001	 1.262717481004472e+000	 1.052141799390754e+001
 9.695479612507555e-001	 1.272783072954856e+000	 1.013844278461494e+001
 9.563807251776310e-001	 1.282706477907767e+000	 9.793877327451959e+000
 9.431218712290422e-001	 1.292486416161424e+000	 9.489158585486530e+000
 9.297737297749389e-001	 1.302121657668725e+000	 9.225686762207269e+000
 9.163386522490106e-001	 1.311611022500147e+000	 9.004823387749527e+000
 9.028190098120161e-001	 1.320953381264475e+000	 8.827889462030944e+000
 8.892171920062102e-001	 1.330147655487137e+000	 8.696163658611926e+000
 8.755356054024271e-001	 1.339192817945967e+000	 8.610880592939356e+000
 1.012416365528650e+000	 1.247017307541048e+000	 1.087051955300523e+001
 9.994874276935127e-001	 1.257403652120586e+000	 1.075521866284834e+001
 9.864596358101216e-001	 1.267649971163032e+000	 1.039102529785427e+001
 9.733352579746608e-001	 1.277754881832463e+000	 1.005735570289846e+001
 9.601165873858778e-001	 1.287717050086386e+000	 9.755526775410461e+000
 9.468059410393052e-001	 1.297535191224185e+000	 9.486827583225363e+000
 9.334056584078999e-001	 1.307208070393888e+000	 9.252517511046303e+000
 9.199181001106394e-001	 1.316734503056869e+000	 9.053824449778542e+000
 9.063456465706284e-001	 1.326113355410233e+000	 8.891943032602070e+000
 8.926906966642724e-001	 1.335343544766614e+000	 8.768032921524139e+000
 8.789556663630723e-001	 1.344424039891262e+000	 8.683217148024609e+000
 1.016355728818164e+000	 1.251869514960577e+000	 1.091718904273597e+001
 1.003376483832358e+000	 1.262296273333073e+000	 1.058357123670501e+001
 9.902980001521751e-001	 1.272582461321914e+000	 1.027292982715387e+001
 9.771225546990783e-001	 1.282726690710491e+000	 9.986446973860012e+000
 9.638524495947666e-001	 1.292727622265484e+000	 9.725285705987730e+000
 9.504900108503198e-001	 1.302583966287445e+000	 9.490588151986586e+000
 9.370375870417017e-001	 1.312294483119527e+000	 9.283473798465998e+000
 9.234975479731785e-001	 1.321857983614008e+000	 9.105037781906889e+000
 9.098722833302017e-001	 1.331273329556307e+000	 8.956349216985203e+000
 8.961642013233252e-001	 1.340539434046266e+000	 8.838449565182490e+000
 8.823757273247173e-001	 1.349655261836551e+000	 8.752351047243980e+000
 1.020295092107681e+000	 1.256721722380110e+000	 1.070231914100613e+001
 1.007265539971395e+000	 1.267188894545744e+000	 1.042626693538494e+001
 9.941363644945912e-001	 1.277514951481117e+000	 1.016703398603160e+001
 9.809098514240080e-001	 1.287698499588939e+000	 9.925642791381403e+000
 9.675883118042974e-001	 1.297738194445063e+000	 9.703103492663008e+000
 9.541740806620859e-001	 1.307632741351203e+000	 9.500412225314191e+000
 9.406695156763448e-001	 1.317380895845645e+000	 9.318549489498002e+000
 9.270769958366286e-001	 1.326981464171564e+000	 9.158478543469007e+000
 9.133989200907349e-001	 1.336433303702696e+000	 9.021143823469236e+000
 8.996377059833675e-001	 1.345735323326094e+000	 8.907469393764407e+000
 8.857957882873625e-001	 1.354886483781835e+000	 8.818357430328833e+000
 1.024234455397201e+000	 1.261573929799644e+000	 1.050383890505887e+001
 1.011154596110625e+000	 1.272081515758596e+000	 1.028318599562172e+001
 9.979747288373699e-001	 1.282447441640643e+000	 1.007324202008535e+001
 9.846971481494501e-001	 1.292670308467809e+000	 9.874870818864034e+000
 9.713241740144702e-001	 1.302748766625122e+000	 9.688930615840045e+000
 9.578581504746034e-001	 1.312681516415461e+000	 9.516272490491215e+000
 9.443014443118293e-001	 1.322467308572240e+000	 9.357738859286092e+000
 9.306564437009892e-001	 1.332104944729536e+000	 9.214161969983888e+000
 9.169255568522284e-001	 1.341593277849401e+000	 9.086362412431530e+000
 9.031112106444001e-001	 1.350931212606097e+000	 8.975147649396417e+000
 8.892158492510077e-001	 1.360117705727114e+000	 8.881310570900739e+000
 8.550152396595565e-001	 1.307805486274087e+000	 8.105284169335512e+000
 8.415787814930306e-001	 1.316492082967423e+000	 8.165177658320795e+000
 8.280691690203853e-001	 1.325031207666359e+000	 8.189984117079332e+000
 8.144887943206086e-001	 1.333422008928481e+000	 8.179569585833587e+000
 8.008400607758615e-001	 1.341663686257528e+000	 8.133838561222955e+000
 7.871253817370462e-001	 1.349755490223286e+000	 8.052733185345867e+000
 7.733471791912008e-001	 1.357696722540269e+000	 7.936232394808423e+000
 7.595078824321701e-001	 1.365486736105450e+000	 7.784351032576546e+000
 7.456099267359924e-001	 1.373124934995397e+000	 7.597138925446664e+000
 7.316557520424184e-001	 1.380610774423161e+000	 7.374679929972571e+000
 7.176478016439462e-001	 1.387943760655384e+000	 7.117090949689327e+000
 8.584353006142017e-001	 1.313036708219413e+000	 8.198465287383563e+000
 8.449450966153063e-001	 1.321758051300592e+000	 8.238331321880899e+000
 8.313814456931410e-001	 1.330331332499253e+000	 8.245288883167012e+000
 8.177467494950087e-001	 1.338755696967212e+000	 8.219276346078235e+000
 8.040434210165985e-001	 1.347030341006223e+000	 8.160267920345344e+000
 7.902738832622167e-001	 1.355154512188354e+000	 8.068272780965701e+000
 7.764405679068487e-001	 1.363127509434973e+000	 7.943334162664540e+000
 7.625459139615141e-001	 1.370948683054646e+000	 7.785528421297801e+000
 7.485923664433554e-001	 1.378617434740245e+000	 7.594964065065982e+000
 7.345823750518817e-001	 1.386133217525675e+000	 7.371780758411453e+000
 7.205183928527605e-001	 1.393495535702645e+000	 7.116148301474710e+000
 8.618553615698467e-001	 1.318267930164734e+000	 8.287973743147637e+000
 8.483114117385717e-001	 1.327024019633571e+000	 8.308692334489198e+000
 8.346937223668556e-001	 1.335631457331802e+000	 8.298659614227077e+000
 8.210047046703168e-001	 1.344089385005473e+000	 8.257886034937508e+000
 8.072467812581730e-001	 1.352396995754356e+000	 8.186415277744542e+000
 7.934223847881334e-001	 1.360553534152795e+000	 8.084323324058392e+000
 7.795339566231314e-001	 1.368558296329018e+000	 7.951717495467659e+000
 7.655839454913620e-001	 1.376410630003178e+000	 7.788735464693782e+000
 7.515748061510715e-001	 1.384109934484456e+000	 7.595544240530199e+000
 7.375089980615273e-001	 1.391655660627609e+000	 7.372339129677430e+000
 7.233889840615668e-001	 1.399047310749411e+000	 7.119342678381953e+000
 8.652754225264918e-001	 1.323499152110051e+000	 8.373890244085199e+000
 8.516777268628273e-001	 1.332289987966361e+000	 8.376330032698302e+000
 8.380059990415296e-001	 1.340931582164007e+000	 8.350154512005988e+000
 8.242626598465332e-001	 1.349423073043268e+000	 8.295445960201276e+000
 8.104501415005847e-001	 1.357763650501927e+000	 8.212317292674658e+000
 7.965708863147961e-001	 1.365952556116610e+000	 8.100911075155441e+000
 7.826273453400493e-001	 1.373989083222403e+000	 7.961398509047176e+000
 7.686219770217139e-001	 1.381872576951048e+000	 7.793978391934529e+000
 7.545572458591405e-001	 1.389602434228030e+000	 7.598876056226422e+000
 7.404356210713552e-001	 1.397178103728960e+000	 7.376342288895494e+000
 7.262595752703656e-001	 1.404599085795681e+000	 7.126652235244427e+000
 8.686954834841368e-001	 1.328730374055361e+000	 8.456294523404100e+000
 8.550440419880724e-001	 1.337555956298959e+000	 8.441312951060345e+000
 8.413182757171629e-001	 1.346231706995868e+000	 8.399831144715998e+000
 8.275206150236582e-001	 1.354756761080593e+000	 8.332002960738645e+000
 8.136535017438338e-001	 1.363130305248935e+000	 8.238010316168726e+000
 7.997193878422050e-001	 1.371351578079799e+000	 8.118062143289837e+000
 7.857207340576019e-001	 1.379419870115129e+000	 7.972393320423142e+000
 7.716600085525698e-001	 1.387334523898254e+000	 7.801263581980598e+000
 7.575396855675625e-001	 1.395094933970967e+000	 7.604956410791703e+000
 7.433622440813656e-001	 1.402700546829731e+000	 7.383777915707429e+000
 7.291301664791561e-001	 1.410150860841454e+000	 7.138055697443002e+000
 8.721155444427821e-001	 1.333961596000667e+000	 8.535265359165283e+000
 8.584103571143074e-001	 1.342821924631369e+000	 8.503708837853436e+000
 8.446305523937554e-001	 1.351531831827384e+000	 8.447746459456154e+000
 8.307785702016919e-001	 1.360090449117450e+000	 8.367603415692363e+000
 8.168568619879201e-001	 1.368496959995381e+000	 8.263530397080508e+000
 8.028678893703602e-001	 1.376750600042362e+000	 8.135802488965819e+000
 7.888141227757899e-001	 1.384850657007195e+000	 7.984718047782605e+000
 7.746980400839295e-001	 1.392796470844797e+000	 7.810597560646276e+000
 7.605221252763377e-001	 1.400587433713267e+000	 7.613782491341832e+000
 7.462888670915583e-001	 1.408222989929920e+000	 7.394634115751706e+000
 7.320007576879390e-001	 1.415702635886732e+000	 7.153532349718089e+000
 8.755356054024271e-001	 1.339192817945967e+000	 8.610880592939356e+000
 8.617766722415324e-001	 1.348087892963588e+000	 8.563584670438431e+000
 8.479428290713070e-001	 1.356831956658556e+000	 8.493956794344213e+000
 8.340365253806334e-001	 1.365424137153838e+000	 8.402293253457643e+000
 8.200602222328439e-001	 1.373863614741265e+000	 8.288913287988171e+000
 8.060163908992617e-001	 1.382149622004300e+000	 8.154157927061178e+000
 7.919075114946127e-001	 1.390281443898602e+000	 7.998388810456806e+000
 7.777360716157932e-001	 1.398258417790677e+000	 7.821986997730511e+000
 7.635045649854657e-001	 1.406079933454930e+000	 7.625351767837869e+000
 7.492154901019336e-001	 1.413745433029528e+000	 7.408899412343237e+000
 7.348713488967140e-001	 1.421254410931513e+000	 7.173062025245582e+000
 8.789556663630723e-001	 1.344424039891262e+000	 8.683217148024609e+000
 8.651429873697468e-001	 1.353353861295617e+000	 8.621006670256966e+000
 8.512551057498179e-001	 1.362132081489383e+000	 8.538517890364334e+000
 8.372944805604835e-001	 1.370757825189758e+000	 8.436117960452039e+000
 8.232635824786051e-001	 1.379230269486587e+000	 8.314194450957116e+000
 8.091648924289092e-001	 1.387548643965611e+000	 8.173154129659212e+000
 7.950009002140707e-001	 1.395712230789349e+000	 8.013421728898727e+000
 7.807741031481609e-001	 1.403720364735893e+000	 7.835438704216354e+000
 7.664870046949466e-001	 1.411572433195955e+000	 7.639661987582884e+000
 7.521421131124909e-001	 1.419267876128554e+000	 7.426562738347722e+000
 7.377419401054811e-001	 1.426806185975798e+000	 7.196625094965771e+000
 8.823757273247173e-001	 1.349655261836551e+000	 8.752351047243980e+000
 8.685093024989514e-001	 1.358619829627455e+000	 8.676040317480766e+000
 8.545673824292881e-001	 1.367432206319866e+000	 8.581484902939591e+000
 8.405524357412423e-001	 1.376091513225209e+000	 8.469122589680444e+000
 8.264669427252037e-001	 1.384596924231346e+000	 8.339409063170869e+000
 8.123133939593030e-001	 1.392947665926296e+000	 8.192816628816445e+000
 7.980942889341637e-001	 1.401143017679436e+000	 8.029832924662475e+000
 7.838121346810324e-001	 1.409182311680447e+000	 7.850959629534584e+000
 7.694694444047809e-001	 1.417064932936344e+000	 7.656711169847501e+000
 7.550687361232309e-001	 1.424790319226999e+000	 7.447613428243462e+000
 7.406125313142404e-001	 1.432357961019587e+000	 7.224202457162677e+000
 8.857957882873625e-001	 1.354886483781835e+000	 8.818357430328833e+000
 8.718756176291453e-001	 1.363885797959104e+000	 8.728750365323302e+000
 8.578796591097176e-001	 1.372732331150004e+000	 8.622912413235921e+000
 8.438103909229094e-001	 1.381425201260192e+000	 8.501351769102389e+000
 8.296703029726398e-001	 1.389963578975543e+000	 8.364592022429887e+000
 8.154618954904432e-001	 1.398346687886356e+000	 8.213170819266141e+000
 8.011876776548917e-001	 1.406573804568864e+000	 8.047638520380220e+000
 7.868501662144078e-001	 1.414644258624336e+000	 7.868556858891185e+000
 7.724518841149679e-001	 1.422557432676095e+000	 7.676497600619216e+000
 7.579953591341530e-001	 1.430312762324862e+000	 7.472041210370285e+000
 7.434831225229918e-001	 1.437909736062881e+000	 7.255775527283067e+000
 8.892158492510077e-001	 1.360117705727114e+000	 8.881310570900739e+000
 8.752419327603298e-001	 1.369151766290563e+000	 8.779200854017862e+000
 8.611919357911062e-001	 1.378032455979799e+000	 8.662854439205937e+000
 8.470683461054850e-001	 1.386758889294707e+000	 8.532849709805712e+000
 8.328736632209129e-001	 1.395330233719178e+000	 8.389777952525522e+000
 8.186103970223295e-001	 1.403745709845790e+000	 8.234241961058940e+000
 8.042810663762547e-001	 1.412004591457633e+000	 8.066854639743305e+000
 7.898881977482875e-001	 1.420106205567564e+000	 7.888237610655669e+000
 7.754343238255080e-001	 1.428049932415210e+000	 7.699019827473509e+000
 7.609219821452578e-001	 1.435835205422145e+000	 7.499836199352967e+000
 7.463537137317355e-001	 1.443461511105678e+000	 7.291326227990783e+000
 7.176478016439462e-001	 1.387943760655384e+000	 7.117090949689327e+000
 7.035885208833038e-001	 1.395123450890451e+000	 6.890887353022345e+000
 6.894803558619651e-001	 1.402149453097214e+000	 6.675090931963042e+000
 6.753257521602778e-001	 1.409021425815511e+000	 6.470297354603098e+000
 6.611271535695082e-001	 1.415739077919852e+000	 6.277084741645642e+000
 6.468870008383166e-001	 1.422302168345947e+000	 6.096012739111425e+000
 6.326077304344622e-001	 1.428710505781122e+000	 5.927621636997975e+000
 6.182917733228901e-001	 1.434963948319405e+000	 5.740545605344551e+000
 6.039415537613283e-001	 1.441062403082105e+000	 5.526249400975955e+000
 5.895594881144665e-001	 1.447005825804713e+000	 5.320051115078545e+000
 5.751479836877564e-001	 1.452794220391045e+000	 5.122806114523879e+000
 7.205183928527605e-001	 1.393495535702645e+000	 7.116148301474710e+000
 7.064028749699908e-001	 1.400703944698441e+000	 6.900684127249155e+000
 6.922382772893521e-001	 1.407758050913895e+000	 6.694115001335086e+000
 6.780270551735148e-001	 1.414657511523003e+000	 6.497015169561919e+000
 6.637716621889105e-001	 1.421402034235776e+000	 6.309942894488851e+000
 6.494745488471951e-001	 1.427991377023663e+000	 6.133439524371244e+000
 6.351381613619986e-001	 1.434425347808741e+000	 5.968028606253006e+000
 6.207649404221273e-001	 1.440703804117413e+000	 5.794415084622473e+000
 6.063573199823406e-001	 1.446826652699473e+000	 5.581323495748978e+000
 5.919177260727875e-001	 1.452793849113353e+000	 5.374761950088331e+000
 5.774485756281426e-001	 1.458605397278485e+000	 5.175583065193265e+000
 7.233889840615668e-001	 1.399047310749411e+000	 7.119342678381953e+000
 7.092172290564849e-001	 1.406284438506024e+000	 6.914084200884411e+000
 6.949961987163925e-001	 1.413366648730238e+000	 6.716221032576527e+000
 6.807283581862819e-001	 1.420293597230208e+000	 6.526306247739953e+000
 6.664161708077496e-001	 1.427064990551440e+000	 6.344878491144354e+000
 6.520620968554468e-001	 1.433680585701129e+000	 6.172461043108259e+000
 6.376685922888755e-001	 1.440140189836098e+000	 6.009560926871494e+000
 6.232381075207019e-001	 1.446443659915128e+000	 5.848564759041750e+000
 6.087730862027163e-001	 1.452590902316496e+000	 5.636199451510259e+000
 5.942759640305282e-001	 1.458581872421578e+000	 5.428811482286372e+000
 5.797491675680337e-001	 1.464416574165419e+000	 5.227250994150930e+000
 7.262595752703656e-001	 1.404599085795681e+000	 7.126652235244427e+000
 7.120315831427867e-001	 1.411864932313201e+000	 6.931071021938273e+000
 6.977541201430866e-001	 1.418975246546245e+000	 6.741397619215523e+000
 6.834296611985785e-001	 1.425929682937124e+000	 6.558164179164762e+000
 6.690606794260250e-001	 1.432727946866845e+000	 6.381889967863411e+000
 6.546496448630721e-001	 1.439369794378343e+000	 6.213080426362839e+000
 6.401990232150928e-001	 1.445855031863193e+000	 6.052226272192399e+000
 6.257112746186135e-001	 1.452183515712550e+000	 5.899802642977046e+000
 6.111888524224562e-001	 1.458355151933176e+000	 5.690907522526701e+000
 5.966342019876888e-001	 1.464369895729389e+000	 5.482233456201027e+000
 5.820497595074301e-001	 1.470227751051848e+000	 5.277846987783518e+000
 7.291301664791561e-001	 1.410150860841454e+000	 7.138055697443002e+000
 7.148459372288961e-001	 1.417445426119973e+000	 6.951628518493980e+000
 7.005120415694339e-001	 1.424583844361914e+000	 6.769633746718016e+000
 6.861309642104051e-001	 1.431565768643753e+000	 6.592582860036646e+000
 6.717051880437372e-001	 1.438390903181991e+000	 6.420975983699667e+000
 6.572371928700708e-001	 1.445059003055308e+000	 6.255300947030092e+000
 6.427294541406502e-001	 1.451569873890026e+000	 6.096032378905979e+000
 6.281844417158624e-001	 1.457923371509678e+000	 5.943630843620565e+000
 6.136046186415597e-001	 1.464119401549511e+000	 5.745477876836684e+000
 5.989924399442691e-001	 1.470157919036784e+000	 5.535061459092765e+000
 5.843503514463317e-001	 1.476038927937772e+000	 5.327407906696180e+000
 7.320007576879390e-001	 1.415702635886732e+000	 7.153532349718089e+000
 7.176602913148127e-001	 1.423025919926337e+000	 6.975741089294457e+000
 7.032699629954347e-001	 1.430192442177247e+000	 6.800918784804015e+000
 6.888322672217614e-001	 1.437201854350094e+000	 6.629556486724611e+000
 6.743496966608860e-001	 1.444053859496878e+000	 6.462135416140346e+000
 6.598247408764429e-001	 1.450748211732023e+000	 6.299126017077325e+000
 6.452598850655484e-001	 1.457284715916598e+000	 6.140987045812182e+000
 6.306576088124485e-001	 1.463663227306514e+000	 5.988164698837403e+000
 6.160203848600268e-001	 1.469883651165502e+000	 5.799940597940420e+000
 6.013506779002691e-001	 1.475945942343765e+000	 5.587328924038499e+000
 5.866509433847384e-001	 1.481850104823191e+000	 5.375970390140000e+000
 7.348713488967140e-001	 1.421254410931513e+000	 7.173062025245582e+000
 7.204746454005370e-001	 1.428606413732295e+000	 7.003393594549844e+000
 7.060278844210889e-001	 1.435801039992242e+000	 6.835242479941415e+000
 6.915335702326477e-001	 1.442837940056146e+000	 6.669079549904216e+000
 6.769942052774711e-001	 1.449716815811506e+000	 6.505367356840225e+000
 6.624122888821885e-001	 1.456437420408486e+000	 6.344559184828438e+000
 6.477903159897869e-001	 1.462999557942908e+000	 6.187098132607183e+000
 6.331307759083718e-001	 1.469403083103057e+000	 6.033416233507268e+000
 6.184361510778575e-001	 1.475647900781149e+000	 5.854325686450599e+000
 6.037089158556889e-001	 1.481733965650330e+000	 5.639069132942595e+000
 5.889515353226502e-001	 1.487661281708105e+000	 5.423570860335329e+000
 7.377419401054811e-001	 1.426806185975798e+000	 7.196625094965771e+000
 7.232889994860686e-001	 1.434186907537848e+000	 7.034571346959378e+000
 7.087858058463964e-001	 1.441409637806901e+000	 6.872594948016157e+000
 6.942348732430638e-001	 1.448474025761911e+000	 6.711146828830762e+000
 6.796387138934927e-001	 1.455379772125874e+000	 6.550671107454485e+000
 6.649998368873078e-001	 1.462126629084699e+000	 6.391604132310940e+000
 6.503207469133657e-001	 1.468714399968956e+000	 6.234373558698899e+000
 6.356039430036321e-001	 1.475142938899306e+000	 6.079397460556268e+000
 6.208519172950521e-001	 1.481412150396452e+000	 5.908663061706467e+000
 6.060671538105285e-001	 1.487521988956481e+000	 5.690315219478491e+000
 5.912521272600670e-001	 1.493472458592513e+000	 5.470245526693435e+000
 7.406125313142404e-001	 1.432357961019587e+000	 7.224202457162677e+000
 7.261033535714078e-001	 1.439767401342993e+000	 7.069260102942846e+000
 7.115437272713576e-001	 1.447018235621223e+000	 6.912966667174412e+000
 6.969361762530095e-001	 1.454110111467388e+000	 6.755753385747894e+000
 6.822832225089511e-001	 1.461042728439983e+000	 6.598046175569435e+000
 6.675873848918004e-001	 1.467815837760662e+000	 6.440264672664494e+000
 6.528511778362849e-001	 1.474429241994742e+000	 6.282821302049721e+000
 6.380771100982299e-001	 1.480882794695262e+000	 6.126120381187519e+000
 6.232676835116104e-001	 1.487176400011411e+000	 5.962982563347269e+000
 6.084253917647879e-001	 1.493310012262217e+000	 5.741100171961205e+000
 5.935527191969892e-001	 1.499283635476416e+000	 5.516030389941736e+000
 7.434831225229918e-001	 1.437909736062881e+000	 7.255775527283067e+000
 7.289177076565546e-001	 1.445347895147732e+000	 7.107446054073074e+000
 7.143016486959720e-001	 1.452626833435208e+000	 6.956348470827640e+000
 6.996374792624852e-001	 1.459746197172577e+000	 6.802894560424131e+000
 6.849277311238459e-001	 1.466705684753834e+000	 6.647492270726888e+000
 6.701749328956664e-001	 1.473505046436374e+000	 6.490544747610483e+000
 6.553816087585446e-001	 1.480144084020266e+000	 6.332449398045585e+000
 6.405502771921646e-001	 1.486622650490925e+000	 6.173596985108313e+000
 6.256834497275324e-001	 1.492940649626025e+000	 6.014370756644514e+000
 6.107836297184670e-001	 1.499098035567538e+000	 5.791456836152508e+000
 5.958533111334164e-001	 1.505094812359814e+000	 5.560961246151527e+000
 7.463537137317355e-001	 1.443461511105678e+000	 7.291326227990783e+000
 7.317320617415088e-001	 1.450928388952066e+000	 7.149115818709872e+000
 7.170595701202400e-001	 1.458235431248856e+000	 7.002731540821151e+000
 7.023387822714911e-001	 1.465382282877478e+000	 6.852565964814810e+000
 6.875722397381775e-001	 1.472368641067425e+000	 6.699009300539828e+000
 6.727624808989060e-001	 1.479194255111836e+000	 6.542448424978218e+000
 6.579120396801448e-001	 1.485858926045529e+000	 6.383265938392725e+000
 6.430234442854368e-001	 1.492362506286295e+000	 6.221839250750512e+000
 6.280992159428185e-001	 1.498704899240296e+000	 6.058539700204884e+000
 6.131418676715660e-001	 1.504886058872444e+000	 5.841417918004918e+000
 5.981539030693489e-001	 1.510905989242708e+000	 5.605073690674655e+000
 5.751479836877564e-001	 1.452794220391045e+000	 5.122806114523879e+000
 5.607094375825000e-001	 1.458427638435055e+000	 5.024163331894261e+000
 5.462462355712417e-001	 1.463906178712646e+000	 4.917768190777273e+000
 5.317607509954844e-001	 1.469229986643619e+000	 4.804283590775031e+000
 5.172553436880706e-001	 1.474399253723778e+000	 4.684344737793373e+000
 5.027323589190562e-001	 1.479414216929606e+000	 4.558558015382006e+000
 4.881941263664700e-001	 1.484275158096128e+000	 4.427499950349366e+000
 4.736429591126632e-001	 1.488982403269010e+000	 4.291716273255535e+000
 4.590811526669166e-001	 1.493536322032023e+000	 4.151721074106108e+000
 4.445109840149132e-001	 1.497937326810948e+000	 4.007996053273241e+000
 4.299347106956416e-001	 1.502185872155057e+000	 3.860989867400971e+000
 5.774485756281426e-001	 1.458605397278485e+000	 5.175583065193265e+000
 5.629522753381746e-001	 1.464261348995071e+000	 5.072210103800053e+000
 5.484312205185793e-001	 1.469761803433995e+000	 4.961659488828659e+000
 5.338877940042263e-001	 1.475106906596738e+000	 4.844617359599747e+000
 5.193243650672886e-001	 1.480296850745088e+000	 4.721741047011206e+000
 5.047432883589030e-001	 1.485331873803437e+000	 4.593657927695092e+000
 4.901469028758103e-001	 1.490212258734147e+000	 4.460964374626455e+000
 4.755375309526912e-001	 1.494938332887072e+000	 4.324224804784498e+000
 4.609174772808637e-001	 1.499510467324318e+000	 4.183970824169379e+000
 4.462890279539536e-001	 1.503929076121370e+000	 4.040700470189758e+000
 4.316544495411053e-001	 1.508194615645699e+000	 3.894877551149844e+000
 5.797491675680337e-001	 1.464416574165419e+000	 5.227250994150930e+000
 5.651951130934489e-001	 1.470095059554498e+000	 5.119233607991348e+000
 5.506162054656018e-001	 1.475617428154702e+000	 5.004611211278101e+000
 5.360148370127269e-001	 1.480983826549192e+000	 4.884093305469198e+000
 5.213933864463300e-001	 1.486194447765740e+000	 4.758359466105524e+000
 5.067542177986275e-001	 1.491249530676646e+000	 4.628058179615592e+000
 4.920996793850724e-001	 1.496149359371613e+000	 4.493805778756857e+000
 4.774321027926755e-001	 1.500894262504678e+000	 4.356185477296195e+000
 4.627538018947914e-001	 1.505484612616284e+000	 4.215746504212325e+000
 4.480670718929892e-001	 1.509920825431620e+000	 4.073003337420213e+000
 4.333741883865689e-001	 1.514203359136353e+000	 3.928435036723011e+000
 5.820497595074301e-001	 1.470227751051848e+000	 5.277846987783518e+000
 5.674379508483236e-001	 1.475928770113334e+000	 5.165267984780081e+000
 5.528011904123086e-001	 1.481473052874764e+000	 5.046654617646522e+000
 5.381418800209866e-001	 1.486860746500978e+000	 4.922739873851805e+000
 5.234624078251946e-001	 1.492092044785732e+000	 4.794225694620693e+000
 5.087651472382295e-001	 1.497167187549233e+000	 4.661781794212118e+000
 4.940524558942565e-001	 1.502086460008525e+000	 4.526044580038550e+000
 4.793266746326159e-001	 1.506850192121827e+000	 4.387616174210265e+000
 4.645901265086997e-001	 1.511458757907920e+000	 4.247063536786220e+000
 4.498451158320198e-001	 1.515912574741696e+000	 4.104917690708016e+000
 4.350939272320326e-001	 1.520212102627021e+000	 3.961673048099859e+000
 5.843503514463317e-001	 1.476038927937772e+000	 5.327407906696180e+000
 5.696807886027981e-001	 1.481762480671581e+000	 5.210347179407824e+000
 5.549861753587001e-001	 1.487328677594183e+000	 5.087820802286773e+000
 5.402689230290054e-001	 1.492737666452098e+000	 4.960585374132368e+000
 5.255314292038827e-001	 1.497989641805066e+000	 4.829365324274328e+000
 5.107760766777092e-001	 1.503084844421199e+000	 4.694851714153884e+000
 4.960052324033625e-001	 1.508023560644883e+000	 4.557701141956539e+000
 4.812212464725125e-001	 1.512806121738521e+000	 4.418534750873638e+000
 4.664264511225886e-001	 1.517432903199227e+000	 4.277937341260942e+000
 4.516231597710457e-001	 1.521904324051600e+000	 4.136456586652315e+000
 4.368136660774963e-001	 1.526220846117701e+000	 3.994602353290532e+000
 5.866509433847384e-001	 1.481850104823191e+000	 5.375970390140000e+000
 5.719236263568726e-001	 1.487596191229239e+000	 5.254504945871879e+000
 5.571711603047762e-001	 1.493184302312959e+000	 5.128140697622746e+000
 5.423959660367834e-001	 1.498614586402552e+000	 4.997657982280289e+000
 5.276004505823942e-001	 1.503887238823741e+000	 4.863803841073841e+000
 5.127870061170666e-001	 1.509002501292543e+000	 4.727290803286293e+000
 4.979580089123903e-001	 1.513960661280687e+000	 4.588795775237070e+000
 4.831158183123652e-001	 1.518762051354758e+000	 4.448959035112318e+000
 4.682627757364580e-001	 1.523407048490205e+000	 4.308383333888121e+000
 4.534012037100667e-001	 1.527896073361330e+000	 4.167633102297596e+000
 4.385334049229602e-001	 1.532229589608394e+000	 4.027233763474111e+000
 5.889515353226502e-001	 1.487661281708105e+000	 5.423570860335329e+000
 5.741664641105470e-001	 1.493429901786307e+000	 5.297774850660256e+000
 5.593561452505371e-001	 1.499039927031092e+000	 5.167645077311979e+000
 5.445230090443204e-001	 1.504491506352339e+000	 5.033985743455178e+000
 5.296694719607290e-001	 1.509784835841757e+000	 4.897566627379896e+000
 5.147979355563015e-001	 1.514920158163267e+000	 4.759121848170533e+000
 4.999107854213399e-001	 1.519897761915938e+000	 4.619348738879262e+000
 4.850103901521740e-001	 1.524717980970538e+000	 4.478906827767885e+000
 4.700991003503078e-001	 1.529381193780853e+000	 4.338416927861659e+000
 4.551792476490827e-001	 1.533887822670887e+000	 4.198460334735819e+000
 4.402531437684237e-001	 1.538238333099099e+000	 4.059578132154541e+000
 5.912521272600670e-001	 1.493472458592513e+000	 5.470245526693435e+000
 5.764093018638214e-001	 1.499263612342785e+000	 5.340190276399187e+000
 5.615411301959823e-001	 1.504895551748581e+000	 5.206364559334440e+000
 5.466500520516164e-001	 1.510368426301460e+000	 5.069596574551861e+000
 5.317384933388873e-001	 1.515682432859113e+000	 4.930678963922637e+000
 5.168088649954140e-001	 1.520837815033368e+000	 4.790367559588236e+000
 5.018635619302115e-001	 1.525834862550635e+000	 4.649380241159891e+000
 4.869049619919389e-001	 1.530673910585862e+000	 4.508395903223256e+000
 4.719354249641385e-001	 1.535355339071173e+000	 4.368053533377132e+000
 4.569572915880941e-001	 1.539879571980272e+000	 4.228951400714895e+000
 4.419728826138875e-001	 1.544247076589816e+000	 4.091646354337826e+000
 5.935527191969892e-001	 1.499283635476416e+000	 5.516030389941736e+000
 5.786521396166959e-001	 1.505097322898673e+000	 5.381784425417204e+000
 5.637261151411124e-001	 1.510751176465427e+000	 5.244329609009493e+000
 5.487770950586716e-001	 1.516245346249915e+000	 5.104518266686084e+000
 5.338075147168689e-001	 1.521580029875810e+000	 4.963166031771780e+000
 5.188197944344042e-001	 1.526755471902849e+000	 4.821050574008408e+000
 5.038163384390049e-001	 1.531771963184778e+000	 4.678910440617732e+000
 4.887995338316601e-001	 1.536629840200731e+000	 4.537444009914182e+000
 4.737717495779496e-001	 1.541329484361163e+000	 4.397308557690313e+000
 4.587353355271004e-001	 1.545871321289484e+000	 4.259119436259194e+000
 4.436926214593512e-001	 1.550255820080547e+000	 4.123449365726953e+000
 5.958533111334164e-001	 1.505094812359814e+000	 5.560961246151527e+000
 5.808949773691705e-001	 1.510931033453972e+000	 5.422590323224435e+000
 5.659111000859270e-001	 1.516606801181630e+000	 5.281570541943008e+000
 5.509041380654858e-001	 1.522122266197703e+000	 5.138778487623155e+000
 5.358765360946739e-001	 1.527477626891849e+000	 4.995052914260566e+000
 5.208307238732721e-001	 1.532673128771708e+000	 4.851193455023931e+000
 5.057691149477200e-001	 1.537709063818367e+000	 4.707959447013212e+000
 4.906941056713374e-001	 1.542585769815142e+000	 4.566068870831733e+000
 4.756080741917412e-001	 1.547303629650823e+000	 4.426197405173390e+000
 4.605133794661022e-001	 1.551863070598523e+000	 4.288977596296714e+000
 4.454123603048150e-001	 1.556264563571290e+000	 4.154998141937327e+000
 5.981539030693489e-001	 1.510905989242708e+000	 5.605073690674655e+000
 5.831378151212451e-001	 1.516764744008681e+000	 5.462640821914750e+000
 5.680960850304262e-001	 1.522462425897189e+000	 5.318117526906723e+000
 5.530311810720591e-001	 1.527999186144825e+000	 5.172404784149265e+000
 5.379455574723024e-001	 1.533375223907228e+000	 5.026364598865444e+000
 5.228416533120174e-001	 1.538590785639945e+000	 4.880818694750944e+000
 5.077218914563574e-001	 1.543646164451403e+000	 4.736547322266258e+000
 4.925886775109709e-001	 1.548541699429098e+000	 4.594288184010759e+000
 4.774443988055134e-001	 1.553277774940155e+000	 4.454735477370462e+000
 4.622914234050989e-001	 1.557854819907389e+000	 4.318539054294950e+000
 4.471320991502787e-001	 1.562273307062045e+000	 4.186303697728193e+000
 4.299347106956416e-001	 1.502185872155057e+000	 3.860989867400971e+000
 4.153545699055715e-001	 1.506282453997839e+000	 3.703653712548657e+000
 4.007727776325000e-001	 1.510227608896503e+000	 3.552611453470019e+000
 3.861915278183588e-001	 1.514021913252423e+000	 3.408247858050323e+000
 3.716129915498684e-001	 1.517665982514811e+000	 3.270904382649402e+000
 3.570393162793387e-001	 1.521160470367146e+000	 3.140879099828400e+000
 3.424726250752574e-001	 1.524506067898022e+000	 3.018426722385374e+000
 3.279150159028944e-001	 1.527703502757577e+000	 2.903758721392551e+000
 3.133685609350995e-001	 1.530753538300647e+000	 2.797043535743701e+000
 2.988353058934320e-001	 1.533656972717762e+000	 2.698406870520056e+000
 2.843172694197058e-001	 1.536414638155137e+000	 2.607932081322463e+000
 4.316544495411053e-001	 1.508194615645699e+000	 3.894877551149844e+000
 4.170159881875748e-001	 1.512307583814712e+000	 3.740404176282439e+000
 4.023758687451110e-001	 1.516268519332028e+000	 3.591835167754484e+000
 3.877362939314126e-001	 1.520078000904626e+000	 3.449559515243028e+000
 3.730994435175478e-001	 1.523736646443513e+000	 3.313922826003430e+000
 3.584674735456357e-001	 1.527245112246900e+000	 3.185227243346862e+000
 3.438425155764375e-001	 1.530604092167734e+000	 3.063731462201283e+000
 3.292266759670846e-001	 1.533814316766753e+000	 2.949650839449974e+000
 3.146220351791181e-001	 1.536876552452210e+000	 2.843157596542514e+000
 3.000306471169837e-001	 1.539791600607396e+000	 2.744381111678782e+000
 2.854545384970625e-001	 1.542560296707108e+000	 2.653408298705295e+000
 4.333741883865689e-001	 1.514203359136353e+000	 3.928435036723011e+000
 4.186774064695781e-001	 1.518332713631777e+000	 3.776649264433960e+000
 4.039789598577218e-001	 1.522309429767884e+000	 3.630386999328173e+000
 3.892810600444665e-001	 1.526134088557255e+000	 3.490041568019536e+000
 3.745858954852273e-001	 1.529807310372698e+000	 3.355962833787758e+000
 3.598956308119324e-001	 1.533329754127153e+000	 3.228457105816986e+000
 3.452124060776175e-001	 1.536702116437921e+000	 3.107787146310678e+000
 3.305383360312746e-001	 1.539925130776341e+000	 2.994172273170030e+000
 3.158755094231368e-001	 1.542999566604081e+000	 2.887788555724860e+000
 3.012259883405354e-001	 1.545926228497195e+000	 2.788769100809794e+000
 2.865918075744193e-001	 1.548705955259063e+000	 2.697204426303438e+000
 4.350939272320326e-001	 1.520212102627021e+000	 3.961673048099859e+000
 4.203388247515816e-001	 1.524357843449034e+000	 3.812400375720833e+000
 4.055820509703327e-001	 1.528350340204068e+000	 3.668278984012077e+000
 3.908258261575204e-001	 1.532190176210312e+000	 3.529706652124109e+000
 3.760723474529069e-001	 1.535877974302366e+000	 3.397037604949521e+000
 3.613237880782295e-001	 1.539414396007905e+000	 3.270582413131491e+000
 3.465822965787976e-001	 1.542800140708584e+000	 3.150607991755765e+000
 3.318499960954648e-001	 1.546035944786340e+000	 3.037337695412171e+000
 3.171289836671554e-001	 1.549122580756261e+000	 2.930951507101816e+000
 3.024213295640872e-001	 1.552060856387160e+000	 2.831586318270449e+000
 2.877290766517761e-001	 1.554851613811004e+000	 2.739336297080936e+000
 4.368136660774963e-001	 1.526220846117701e+000	 3.994602353290532e+000
 4.220002430335849e-001	 1.530382973266482e+000	 3.847668929372293e+000
 4.071851420829435e-001	 1.534391250640583e+000	 3.705523155552747e+000
 3.923705922705744e-001	 1.538246263863795e+000	 3.568567379579625e+000
 3.775587994205865e-001	 1.541948638232517e+000	 3.437160294008836e+000
 3.627519453445263e-001	 1.545499037889156e+000	 3.311616826989724e+000
 3.479521870799777e-001	 1.548898164979721e+000	 3.192208132563179e+000
 3.331616561596551e-001	 1.552146758796750e+000	 3.079161678142306e+000
 3.183824579111740e-001	 1.555245594908748e+000	 2.972661426652167e+000
 3.036166707876390e-001	 1.558195484277292e+000	 2.872848110591898e+000
 2.888663457291330e-001	 1.560997272362931e+000	 2.779819595120404e+000
 4.385334049229602e-001	 1.532229589608394e+000	 4.027233763474111e+000
 4.236616613155883e-001	 1.536408103084122e+000	 3.882466364724856e+000
 4.087882331955544e-001	 1.540432161077427e+000	 3.742131545661239e+000
 3.939153583836282e-001	 1.544302351517705e+000	 3.606636339151235e+000
 3.790452513882660e-001	 1.548019302163151e+000	 3.476344011926732e+000
 3.641801026108232e-001	 1.551583679770907e+000	 3.351573946156795e+000
 3.493220775811579e-001	 1.554996189251334e+000	 3.232601621372012e+000
 3.344733162238452e-001	 1.558257572807571e+000	 3.119658694409469e+000
 3.196359321551927e-001	 1.561368609061544e+000	 3.012933174834202e+000
 3.048120120111908e-001	 1.564330112167590e+000	 2.912569693102113e+000
 2.900036148064898e-001	 1.567142930914842e+000	 2.818669858541979e+000
 4.402531437684237e-001	 1.538238333099099e+000	 4.059578132154541e+000
 4.253230795975916e-001	 1.542433232901954e+000	 3.916804140830105e+000
 4.103913243081653e-001	 1.546473071514601e+000	 3.778116184054004e+000
 3.954601244966822e-001	 1.550358439172042e+000	 3.643926096801371e+000
 3.805317033559454e-001	 1.554089966094268e+000	 3.514601826958370e+000
 3.656082598771200e-001	 1.557668321653156e+000	 3.390467307691932e+000
 3.506919680823378e-001	 1.561094213523421e+000	 3.271802431024018e+000
 3.357849762880354e-001	 1.564368386818803e+000	 3.158843120278720e+000
 3.208894063992113e-001	 1.567491623214647e+000	 3.051781498841697e+000
 3.060073532347424e-001	 1.570464740058053e+000	 2.950766152490058e+000
 2.911408838838466e-001	 1.573288589466739e+000	 2.855902482353541e+000
 4.419728826138875e-001	 1.544247076589816e+000	 4.091646354337826e+000
 4.269844978795951e-001	 1.548458362719978e+000	 3.950693736071090e+000
 4.119944154207761e-001	 1.552513981952105e+000	 3.813489098491058e+000
 3.970048906097360e-001	 1.556414526826806e+000	 3.680449196132702e+000
 3.820181553236250e-001	 1.560160630025868e+000	 3.551946765482590e+000
 3.670364171434169e-001	 1.563752963535904e+000	 3.428310388149446e+000
 3.520618585835180e-001	 1.567192237795984e+000	 3.309824456115163e+000
 3.370966363522256e-001	 1.570479200830447e+000	 3.196729236718020e+000
 3.221428806432301e-001	 1.573614637368060e+000	 3.089221034807586e+000
 3.072026944582943e-001	 1.576599367948683e+000	 2.987452449306898e+000
 2.922781529612034e-001	 1.579434248018622e+000	 2.891532721236417e+000
 4.436926214593512e-001	 1.550255820080547e+000	 4.123449365726953e+000
 4.286459161615985e-001	 1.554483492538194e+000	 3.984146647788471e+000
 4.135975065333870e-001	 1.558554892389939e+000	 3.848262314814273e+000
 3.985496567227901e-001	 1.562470614481996e+000	 3.716218158822572e+000
 3.835046072913043e-001	 1.566231293957951e+000	 3.588391812813963e+000
 3.684645744097139e-001	 1.569837605419152e+000	 3.465116604752147e+000
 3.534317490846979e-001	 1.573290262069022e+000	 3.346681514512494e+000
 3.384082964164157e-001	 1.576590014842503e+000	 3.233331231441052e+000
 3.233963548872487e-001	 1.579737651521780e+000	 3.125266309955896e+000
 3.083980356818460e-001	 1.582733995839480e+000	 3.022643420411031e+000
 2.934154220385603e-001	 1.585579906570489e+000	 2.925575692263588e+000
 4.454123603048150e-001	 1.556264563571290e+000	 4.154998141937327e+000
 4.303073344436019e-001	 1.560508622356602e+000	 4.017174391913045e+000
 4.152005976459979e-001	 1.564595802828102e+000	 3.882447856984259e+000
 4.000944228358439e-001	 1.568526702137613e+000	 3.751245485045102e+000
 3.849910592589840e-001	 1.572301957890518e+000	 3.623949913995114e+000
 3.698927316760107e-001	 1.575922247302898e+000	 3.500899316535092e+000
 3.548016395858781e-001	 1.579388286342534e+000	 3.382387348834950e+000
 3.397199564806059e-001	 1.582700828854969e+000	 3.268663200707136e+000
 3.246498291312673e-001	 1.585860665675808e+000	 3.159931744704760e+000
 3.095933769053978e-001	 1.588868623730441e+000	 3.056353781356808e+000
 2.945526911159171e-001	 1.591725565122343e+000	 2.958046377556596e+000
 4.471320991502787e-001	 1.562273307062045e+000	 4.186303697728193e+000
 4.319687527256053e-001	 1.566533752175201e+000	 4.049788502609882e+000
 4.168036887586087e-001	 1.570636713266596e+000	 3.916057747116723e+000
 4.016391889488980e-001	 1.574582789793657e+000	 3.785543653885731e+000
 3.864775112266635e-001	 1.578372621823568e+000	 3.658633974571826e+000
 3.713208889423077e-001	 1.582006889187144e+000	 3.535671825465855e+000
 3.561715300870582e-001	 1.585486310616522e+000	 3.416955627901645e+000
 3.410316165447962e-001	 1.588811642867847e+000	 3.302739151080389e+000
 3.259033033752860e-001	 1.591983679830145e+000	 3.193231654720280e+000
 3.107887181289495e-001	 1.595003251621570e+000	 3.088598128725415e+000
 2.956899601932739e-001	 1.597871223674181e+000	 2.988959626881321e+000
 2.843172694197058e-001	 1.536414638155137e+000	 2.607932081322463e+000
 2.698164424780769e-001	 1.539027399824007e+000	 2.516559571947126e+000
 2.553347877875132e-001	 1.541496155102656e+000	 2.429360681025779e+000
 2.408742392846042e-001	 1.543821832630754e+000	 2.346305032175346e+000
 2.264367016168743e-001	 1.546005391395562e+000	 2.267325412946958e+000
 2.120240496662885e-001	 1.548047819813331e+000	 2.192318467080916e+000
 1.976381281028438e-001	 1.549950134806166e+000	 2.121145450748338e+000
 1.832807509680506e-001	 1.551713380875401e+000	 2.053633049291490e+000
 1.689537012880793e-001	 1.553338629172470e+000	 1.989574250913575e+000
 1.546587307163136e-001	 1.554826976568272e+000	 1.928729273723084e+000
 1.403975592050119e-001	 1.556179544721979e+000	 1.870826542506564e+000
 2.854545384970625e-001	 1.542560296707108e+000	 2.653408298705295e+000
 2.708957082473911e-001	 1.545183509423283e+000	 2.560953746903716e+000
 2.563561269378369e-001	 1.547662139723579e+000	 2.472689387202690e+000
 2.418377362407351e-001	 1.549997119962224e+000	 2.388591626889442e+000
 2.273424484222001e-001	 1.552189412962429e+000	 2.308599530164771e+000
 2.128721458637242e-001	 1.554240011094110e+000	 2.232615512772795e+000
 1.984286806139840e-001	 1.556149935347064e+000	 2.160506101601126e+000
 1.840138739706554e-001	 1.557920234400628e+000	 2.092102755723412e+000
 1.696295160920131e-001	 1.559551983690845e+000	 2.027202745300952e+000
 1.552773656380541e-001	 1.561046284476097e+000	 1.965570084701244e+000
 1.409591494408453e-001	 1.562404262902195e+000	 1.906936516170606e+000
 2.865918075744193e-001	 1.548705955259063e+000	 2.697204426303438e+000
 2.719749740167054e-001	 1.551339619022360e+000	 2.603691829002405e+000
 2.573774660881606e-001	 1.553828124344150e+000	 2.514392153775761e+000
 2.428012331968661e-001	 1.556172407293219e+000	 2.429288594515767e+000
 2.282481952275259e-001	 1.558373434528729e+000	 2.348326487790312e+000
 2.137202420611599e-001	 1.560432202374262e+000	 2.271414009965680e+000
 1.992192331251241e-001	 1.562349735887302e+000	 2.198422940295080e+000
 1.847469969732601e-001	 1.564127087925194e+000	 2.129189486404694e+000
 1.703053308959471e-001	 1.565765338208586e+000	 2.063515168549860e+000
 1.558960005597947e-001	 1.567265592383345e+000	 2.001167758966108e+000
 1.415207396766786e-001	 1.568628981081919e+000	 1.941882272599718e+000
 2.877290766517761e-001	 1.554851613811004e+000	 2.739336297080936e+000
 2.730542397860198e-001	 1.557495728621238e+000	 2.644788683940872e+000
 2.583988052384843e-001	 1.559994108964369e+000	 2.554482884329590e+000
 2.437647301529971e-001	 1.562347694623739e+000	 2.468408882308070e+000
 2.291539420328518e-001	 1.564557456094463e+000	 2.386518283128211e+000
 2.145683382585957e-001	 1.566624393653785e+000	 2.308725012972197e+000
 2.000097856362643e-001	 1.568549536426880e+000	 2.234906085656909e+000
 1.854801199758650e-001	 1.570333941449098e+000	 2.164902432701601e+000
 1.709811456998810e-001	 1.571978692725693e+000	 2.098519793088426e+000
 1.565146354815352e-001	 1.573484900290015e+000	 2.035529658995956e+000
 1.420823299125119e-001	 1.574853699261150e+000	 1.975670273753989e+000
 2.888663457291330e-001	 1.560997272362931e+000	 2.779819595120404e+000
 2.741335055553341e-001	 1.563651838219917e+000	 2.684259034676493e+000
 2.594201443888080e-001	 1.566160093584234e+000	 2.592975346184376e+000
 2.447282271091282e-001	 1.568522981953785e+000	 2.505965308058456e+000
 2.300596888381777e-001	 1.570741477659630e+000	 2.423186791149735e+000
 2.154164344560313e-001	 1.572816584932680e+000	 2.344559461216787e+000
 2.008003381474045e-001	 1.574749336965799e+000	 2.269965549380426e+000
 1.862132429784698e-001	 1.576540794972340e+000	 2.199250686910150e+000
 1.716569605038149e-001	 1.578192047242166e+000	 2.132224800634126e+000
 1.571332704032758e-001	 1.579704208196109e+000	 2.068663065213156e+000
 1.426439201483452e-001	 1.581078417439891e+000	 2.008306908477849e+000
 2.900036148064898e-001	 1.567142930914842e+000	 2.818669858541979e+000
 2.752127713246484e-001	 1.569807947818397e+000	 2.722117464224330e+000
 2.604414835391318e-001	 1.572326078203748e+000	 2.629883173065915e+000
 2.456917240652592e-001	 1.574698269283356e+000	 2.541970562637709e+000
 2.309654356435035e-001	 1.576925499224230e+000	 2.458343766891647e+000
 2.162645306534670e-001	 1.579008776210947e+000	 2.378928181488702e+000
 2.015908906585446e-001	 1.580949137504057e+000	 2.303611238129222e+000
 1.869463659810746e-001	 1.582747648494921e+000	 2.232243244198437e+000
 1.723327753077489e-001	 1.584405401758004e+000	 2.164638283973957e+000
 1.577519053250163e-001	 1.585923516101624e+000	 2.100575177592380e+000
 1.432055103841785e-001	 1.587303135618139e+000	 2.039798493933775e+000
 2.911408838838466e-001	 1.573288589466739e+000	 2.855902482353541e+000
 2.762920370939627e-001	 1.575964057416679e+000	 2.758378418391299e+000
 2.614628226894555e-001	 1.578492062822910e+000	 2.665219867717254e+000
 2.466552210213902e-001	 1.580873556612452e+000	 2.576437212472989e+000
 2.318711824488293e-001	 1.583109520788264e+000	 2.492000847799476e+000
 2.171126268509028e-001	 1.585200967488586e+000	 2.411841890141714e+000
 2.023814431696848e-001	 1.587148938041656e+000	 2.335852955586490e+000
 1.876794889836794e-001	 1.588954502016840e+000	 2.263889004504082e+000
 1.730085901116827e-001	 1.590618756273208e+000	 2.195768248700354e+000
 1.583705402467569e-001	 1.592142824006563e+000	 2.131273117232388e+000
 1.437671006200119e-001	 1.593527853795897e+000	 2.070151277001629e+000
 2.922781529612034e-001	 1.579434248018622e+000	 2.891532721236417e+000
 2.773713028632771e-001	 1.582120167014761e+000	 2.793056208444744e+000
 2.624841618397792e-001	 1.584658047441719e+000	 2.698998804444996e+000
 2.476187179775212e-001	 1.587048843941073e+000	 2.609377701969478e+000
 2.327769292541552e-001	 1.589293542351731e+000	 2.524169556014370e+000
 2.179607230483385e-001	 1.591393158765596e+000	 2.443311195243013e+000
 2.031719956808250e-001	 1.593348738578595e+000	 2.366700404459290e+000
 1.884126119862842e-001	 1.595161355538097e+000	 2.294196774385955e+000
 1.736844049156167e-001	 1.596832110787779e+000	 2.225622614908039e+000
 1.589891751684975e-001	 1.598362131910924e+000	 2.160763927891414e+000
 1.443286908558452e-001	 1.599752571973162e+000	 2.099371435647196e+000
 2.934154220385603e-001	 1.585579906570489e+000	 2.925575692263588e+000
 2.784505686325914e-001	 1.588276276612644e+000	 2.826165013720490e+000
 2.635055009901029e-001	 1.590824032060176e+000	 2.731233231610189e+000
 2.485822149336522e-001	 1.593224131269220e+000	 2.640804355874969e+000
 2.336826760594810e-001	 1.595477563914631e+000	 2.554861300607883e+000
 2.188088192457742e-001	 1.597585350041978e+000	 2.473346598670324e+000
 2.039625481919651e-001	 1.599548539114873e+000	 2.396163188434767e+000
 1.891457349888891e-001	 1.601368209058693e+000	 2.323175268835222e+000
 1.743602197195505e-001	 1.603045465301715e+000	 2.254209218850879e+000
 1.596078100902379e-001	 1.604581439814708e+000	 2.189054577483950e+000
 1.448902810916785e-001	 1.605977290149935e+000	 2.127465080256488e+000
 2.945526911159171e-001	 1.591725565122343e+000	 2.958046377556596e+000
 2.795298344019057e-001	 1.594432386210329e+000	 2.857718884169655e+000
 2.645268401404267e-001	 1.596990016678281e+000	 2.761936274057375e+000
 2.495457118897832e-001	 1.599399418596892e+000	 2.670729381590190e+000
 2.345884228648069e-001	 1.601661585476965e+000	 2.584087379765208e+000
 2.196569154432100e-001	 1.603777541317732e+000	 2.501958498164287e+000
 2.047531007031053e-001	 1.605748339650493e+000	 2.424250814092595e+000
 1.898788579914939e-001	 1.607575062578627e+000	 2.350833113041709e+000
 1.750360345234845e-001	 1.609258819815018e+000	 2.281535814560611e+000
 1.602264450119785e-001	 1.610800747717914e+000	 2.216151959546767e+000
 1.454518713275118e-001	 1.612202008326217e+000	 2.154438254940901e+000
 2.956899601932739e-001	 1.597871223674181e+000	 2.988959626881321e+000
 2.806091001712200e-001	 1.600588495807814e+000	 2.887731742845877e+000
 2.655481792907504e-001	 1.603156001296034e+000	 2.791120935492280e+000
 2.505092088459142e-001	 1.605574705924090e+000	 2.699164871424614e+000
 2.354941696701328e-001	 1.607845607038732e+000	 2.611858982917033e+000
 2.205050116406457e-001	 1.609969732592858e+000	 2.529157189329389e+000
 2.055436532142455e-001	 1.611948140185452e+000	 2.450972692771859e+000
 1.906119809940987e-001	 1.613781916097899e+000	 2.377178844121962e+000
 1.757118493274184e-001	 1.615472174327686e+000	 2.307610075427677e+000
 1.608450799337191e-001	 1.617020055620544e+000	 2.242062894668943e+000
 1.460134615633451e-001	 1.618426726502008e+000	 2.180296938812276e+000
 1.403975592050119e-001	 1.556179544721979e+000	 1.870826542506564e+000
 1.261718747066540e-001	 1.557397479150770e+000	 1.806940758384201e+000
 1.119833329019195e-001	 1.558481948299767e+000	 1.752714212841341e+000
 9.783355695573708e-002	 1.559434142614163e+000	 1.707737247488494e+000
 8.372413730276652e-002	 1.560255273615481e+000	 1.671567474873535e+000
 6.965663145918770e-002	 1.560946572981143e+000	 1.643731118996654e+000
 5.563256386124446e-002	 1.561509291628741e+000	 1.623724385357651e+000
 4.165342573005947e-002	 1.561944698805751e+000	 1.611014856707401e+000
 2.772067496222034e-002	 1.562254081185464e+000	 1.605042910722205e+000
 1.383573604561869e-002	 1.562438741969843e+000	 1.605223155899930e+000
 0.000000000000000e+000	 1.562500000000000e+000	 1.610945882045628e+000
 1.409591494408453e-001	 1.562404262902195e+000	 1.906936516170606e+000
 1.266765622046476e-001	 1.563627069068445e+000	 1.842786088019438e+000
 1.124312662328353e-001	 1.564715876093810e+000	 1.788218219821783e+000
 9.822489118299686e-002	 1.565671879185264e+000	 1.742824477314910e+000
 8.405903385153087e-002	 1.566496294710415e+000	 1.706163368649466e+000
 6.993525798468199e-002	 1.567190359273394e+000	 1.677761693403067e+000
 5.585509411643917e-002	 1.567755328795464e+000	 1.657115921612381e+000
 4.182003943280965e-002	 1.568192477601090e+000	 1.643693598947319e+000
 2.783155766196755e-002	 1.568503097510258e+000	 1.636934774213944e+000
 1.389107898975613e-002	 1.568688496937735e+000	 1.636253445442695e+000
 0.000000000000000e+000	 1.568750000000000e+000	 1.641039020896967e+000
 1.415207396766786e-001	 1.568628981081919e+000	 1.941882272599718e+000
 1.271812497026411e-001	 1.569856658985723e+000	 1.877516235498627e+000
 1.128791995637510e-001	 1.570949803887540e+000	 1.822663161865035e+000
 9.861622541025662e-002	 1.571909615756127e+000	 1.776915780050503e+000
 8.439393040029522e-002	 1.572737315805173e+000	 1.739833425952682e+000
 7.021388451017628e-002	 1.573434145565524e+000	 1.710943400735108e+000
 5.607762437163387e-002	 1.574001365962110e+000	 1.689742359048122e+000
 4.198665313555984e-002	 1.574440256396387e+000	 1.675697723838532e+000
 2.794244036171475e-002	 1.574752113835032e+000	 1.668249123895707e+000
 1.394642193389357e-002	 1.574938251905623e+000	 1.666809850350721e+000
 0.000000000000000e+000	 1.575000000000000e+000	 1.670768328426415e+000
 1.420823299125119e-001	 1.574853699261150e+000	 1.975670273753989e+000
 1.276859372006347e-001	 1.576086248902604e+000	 1.911137196836620e+000
 1.133271328946668e-001	 1.577183731680958e+000	 1.856054564989891e+000
 9.900755963751641e-002	 1.578147352326750e+000	 1.810016208014145e+000
 8.472882694905956e-002	 1.578978336899757e+000	 1.772582222032011e+000
 7.049251103567059e-002	 1.579677931857533e+000	 1.743280336115322e+000
 5.630015462682857e-002	 1.580247403128678e+000	 1.721607309903330e+000
 4.215326683831001e-002	 1.580688035191640e+000	 1.707030358258861e+000
 2.805332306146195e-002	 1.581001130159787e+000	 1.698988599073507e+000
 1.400176487803101e-002	 1.581188006873506e+000	 1.696894520395395e+000
 0.000000000000000e+000	 1.581250000000000e+000	 1.700135463142538e+000
 1.426439201483452e-001	 1.581078417439891e+000	 2.008306908477849e+000
 1.281906246986282e-001	 1.582315838819088e+000	 1.943654897465146e+000
 1.137750662255826e-001	 1.583417659474063e+000	 1.888397887661685e+000
 9.939889386477620e-002	 1.584385088897135e+000	 1.842130749495656e+000
 8.506372349782393e-002	 1.585219357994167e+000	 1.804414272117713e+000
 7.077113756116485e-002	 1.585921718149421e+000	 1.774776539138292e+000
 5.652268488202328e-002	 1.586493440295171e+000	 1.752714335851529e+000
 4.231988054106020e-002	 1.586935813986850e+000	 1.737694583950902e+000
 2.816420576120916e-002	 1.587250146484523e+000	 1.729155799806748e+000
 1.405710782216845e-002	 1.587437761841383e+000	 1.726509572443492e+000
 0.000000000000000e+000	 1.587500000000000e+000	 1.729142057435898e+000
 1.432055103841785e-001	 1.587303135618139e+000	 2.039798493933775e+000
 1.286953121966218e-001	 1.588545428735175e+000	 1.975075193615022e+000
 1.142229995564983e-001	 1.589651587266856e+000	 1.919698522117930e+000
 9.979022809203596e-002	 1.590622825467282e+000	 1.873264330012583e+000
 8.539862004658826e-002	 1.591460379088402e+000	 1.835334032599139e+000
 7.104976408665915e-002	 1.592165504441188e+000	 1.805435994959178e+000
 5.674521513721799e-002	 1.592739477461585e+000	 1.783066948993264e+000
 4.248649424381039e-002	 1.593183592782017e+000	 1.767693438407112e+000
 2.827508846095635e-002	 1.593499162809240e+000	 1.758753287678808e+000
 1.411245076630589e-002	 1.593687516809256e+000	 1.755657091102270e+000
 0.000000000000000e+000	 1.593750000000000e+000	 1.757789718090656e+000
 1.437671006200119e-001	 1.593527853795897e+000	 2.070151277001629e+000
 1.291999996946153e-001	 1.594775018650864e+000	 2.005403873670472e+000
 1.146709328874141e-001	 1.595885515059336e+000	 1.949961795662165e+000
 1.001815623192958e-001	 1.596860562037190e+000	 1.903421813534437e+000
 8.573351659535261e-002	 1.597701400182462e+000	 1.865345902172117e+000
 7.132839061215344e-002	 1.598409290732835e+000	 1.835262635356452e+000
 5.696774539241269e-002	 1.598985514627923e+000	 1.812668612823581e+000
 4.265310794656058e-002	 1.599431371577140e+000	 1.797029915734438e+000
 2.838597116070356e-002	 1.599748179133938e+000	 1.787783586547970e+000
 1.416779371044334e-002	 1.599937271777125e+000	 1.784339129350318e+000
 0.000000000000000e+000	 1.600000000000000e+000	 1.786080026784972e+000
 1.443286908558452e-001	 1.599752571973162e+000	 2.099371435647196e+000
 1.297046871926089e-001	 1.601004608566158e+000	 2.034646659486441e+000
 1.151188662183298e-001	 1.602119442851504e+000	 1.979192971925907e+000
 1.005728965465556e-001	 1.603098298606860e+000	 1.932608003681161e+000
 8.606841314411697e-002	 1.603942421276348e+000	 1.894454222963600e+000
 7.160701713764774e-002	 1.604653077024361e+000	 1.864260339771746e+000
 5.719027564760738e-002	 1.605231551794183e+000	 1.841522743177906e+000
 4.281972164931076e-002	 1.605679150372221e+000	 1.825706967497552e+000
 2.849685386045076e-002	 1.605997195458616e+000	 1.816249183281292e+000
 1.422313665458078e-002	 1.606187026744988e+000	 1.812557709151062e+000
 0.000000000000000e+000	 1.606250000000000e+000	 1.814014540579696e+000
 1.448902810916785e-001	 1.605977290149935e+000	 2.127465080256488e+000
 1.302093746906024e-001	 1.607234198481054e+000	 2.062809207679379e+000
 1.155667995492456e-001	 1.608353370643358e+000	 2.007397252103635e+000
 1.009642307738153e-001	 1.609336035176290e+000	 1.960827644892440e+000
 8.640330969288131e-002	 1.610183442370059e+000	 1.922663281626428e+000
 7.188564366314203e-002	 1.610896863315766e+000	 1.892432936321946e+000
 5.741280590280209e-002	 1.611477588960367e+000	 1.869632709156319e+000
 4.298633535206095e-002	 1.611926929167258e+000	 1.853727503544547e+000
 2.860773656019797e-002	 1.612246211783277e+000	 1.844152528471939e+000
 1.427847959871822e-002	 1.612436781712847e+000	 1.840314822055854e+000
 0.000000000000000e+000	 1.612500000000000e+000	 1.841594792394903e+000
 1.454518713275118e-001	 1.612202008326217e+000	 2.154438254940901e+000
 1.307140621885960e-001	 1.613463788395553e+000	 2.089897110886574e+000
 1.160147328801614e-001	 1.614587298434901e+000	 2.034579776158278e+000
 1.013555650010751e-001	 1.615573771745483e+000	 1.988085423570103e+000
 8.673820624164565e-002	 1.616424463463595e+000	 1.949977310411023e+000
 7.216427018863633e-002	 1.617140649607050e+000	 1.919784202792831e+000
 5.763533615799679e-002	 1.617723626126473e+000	 1.897001834024251e+000
 4.315294905481112e-002	 1.618174707962252e+000	 1.881094392810386e+000
 2.871861925994517e-002	 1.618495228107917e+000	 1.871496037139198e+000
 1.433382254285566e-002	 1.618686536680701e+000	 1.867612429789745e+000
 0.000000000000000e+000	 1.618750000000000e+000	 1.868822291476456e+000
 1.460134615633451e-001	 1.618426726502008e+000	 2.180296938812276e+000
 1.312187496865896e-001	 1.619693378309656e+000	 2.115915898995448e+000
 1.164626662110772e-001	 1.620821226226131e+000	 2.060745623997965e+000
 1.017468992283349e-001	 1.621811508314437e+000	 2.014385969194533e+000
 8.707310279041000e-002	 1.622665484556957e+000	 1.976400488210826e+000
 7.244289671413061e-002	 1.623384435898214e+000	 1.946317867604428e+000
 5.785786641319150e-002	 1.623969663292503e+000	 1.923633396096165e+000
 4.331956275756132e-002	 1.624422486757203e+000	 1.907810464106098e+000
 2.882950195969237e-002	 1.624744244432538e+000	 1.898282089412319e+000
 1.438916548699310e-002	 1.624936291648551e+000	 1.894452464825671e+000
 0.000000000000000e+000	 1.625000000000000e+000	 1.895698523850974e+000
 1.625000000000000e+000	 0.000000000000000e+000	 1.378001749146260e+001
 1.624936291648551e+000	 1.438916548699316e-002	 1.381904040262687e+001
 1.624744244432538e+000	 2.882950195969248e-002	 1.385083416068893e+001
 1.624422486757203e+000	 4.331956275756122e-002	 1.387532313311991e+001
 1.623969663292503e+000	 5.785786641319145e-002	 1.389244412493819e+001
 1.623384435898213e+000	 7.244289671413062e-002	 1.390214664676066e+001
 1.622665484556957e+000	 8.707310279041004e-002	 1.390439316341120e+001
 1.621811508314437e+000	 1.017468992283350e-001	 1.389915932192179e+001
 1.620821226226131e+000	 1.164626662110771e-001	 1.388643415777766e+001
 1.619693378309656e+000	 1.312187496865895e-001	 1.386622027827479e+001
 1.618426726502007e+000	 1.460134615633451e-001	 1.383853402188187e+001
 1.631250000000000e+000	 0.000000000000000e+000	 1.373810491164598e+001
 1.631186046616400e+000	 1.444450843113059e-002	 1.377703327896703e+001
 1.630993260757160e+000	 2.894038465943968e-002	 1.380877485349694e+001
 1.630670265552154e+000	 4.348617646031140e-002	 1.383326037588332e+001
 1.630215700458532e+000	 5.808039666838616e-002	 1.385043324153494e+001
 1.629628222189377e+000	 7.272152323962491e-002	 1.386024976705096e+001
 1.628906505650319e+000	 8.740799933917438e-002	 1.386267943677268e+001
 1.628049244883391e+000	 1.021382334555948e-001	 1.385770512828159e+001
 1.627055154017361e+000	 1.169105995419928e-001	 1.384532331568166e+001
 1.625922968223758e+000	 1.317234371845830e-001	 1.382554424952371e+001
 1.624651444677798e+000	 1.465750517991785e-001	 1.379839211225297e+001
 1.637500000000000e+000	 0.000000000000000e+000	 1.369695822032589e+001
 1.637435801584254e+000	 1.449985137526804e-002	 1.373584337699726e+001
 1.637242277081800e+000	 2.905126735918688e-002	 1.376758236869977e+001
 1.636918044347148e+000	 4.365279016306158e-002	 1.379211229162008e+001
 1.636461737624638e+000	 5.830292692358086e-002	 1.380938311563392e+001
 1.635872008480660e+000	 7.300014976511920e-002	 1.381935794915708e+001
 1.635147526743855e+000	 8.774289588793872e-002	 1.382201328368294e+001
 1.634286981452584e+000	 1.025295676828546e-001	 1.381733921681745e+001
 1.633289081808903e+000	 1.173585328729086e-001	 1.380533965263633e+001
 1.632152558138257e+000	 1.322281246825766e-001	 1.378603247821226e+001
 1.630876162854079e+000	 1.471366420350118e-001	 1.375944971518052e+001
 1.643750000000000e+000	 0.000000000000000e+000	 1.365655880875771e+001
 1.643685556552113e+000	 1.455519431940548e-002	 1.369545098740579e+001
 1.643491293406459e+000	 2.916215005893408e-002	 1.372723589301707e+001
 1.643165823142185e+000	 4.381940386581177e-002	 1.375185696013568e+001
 1.642707774790822e+000	 5.852545717877557e-002	 1.376927071764939e+001
 1.642115794772066e+000	 7.327877629061350e-002	 1.377944705210715e+001
 1.641388547837566e+000	 8.807779243670309e-002	 1.378236945028431e+001
 1.640524718022015e+000	 1.029209019101144e-001	 1.377803521979408e+001
 1.639523009600758e+000	 1.178064662038243e-001	 1.376645568655816e+001
 1.638382148053153e+000	 1.327328121805701e-001	 1.374765636797132e+001
 1.637100881030853e+000	 1.476982322708450e-001	 1.372167712061866e+001
 1.650000000000000e+000	 0.000000000000000e+000	 1.361688835014755e+001
 1.649935311519976e+000	 1.461053726354292e-002	 1.365583669495910e+001
 1.649740309731139e+000	 2.927303275868129e-002	 1.368771491929262e+001
 1.649413601937265e+000	 4.398601756856195e-002	 1.371247277931787e+001
 1.648953811957083e+000	 5.874798743397026e-002	 1.373007334794354e+001
 1.648359581063591e+000	 7.355740281610779e-002	 1.374049327664464e+001
 1.647629568931452e+000	 8.841268898546743e-002	 1.374372303609774e+001
 1.646762454591684e+000	 1.033122361373741e-001	 1.373976713440905e+001
 1.645756937392925e+000	 1.182543995347401e-001	 1.372864431173548e+001
 1.644611737968446e+000	 1.332374996785637e-001	 1.371038771012218e+001
 1.643325599208118e+000	 1.482598225066784e-001	 1.368504501740358e+001
 1.656250000000000e+000	 0.000000000000000e+000	 1.357792879433227e+001
 1.656185066487845e+000	 1.466588020768036e-002	 1.361698137295320e+001
 1.655989326055836e+000	 2.938391545842849e-002	 1.364899924071803e+001
 1.655661380732389e+000	 4.415263127131213e-002	 1.367393845913527e+001
 1.655199849123420e+000	 5.897051768916498e-002	 1.369176863060108e+001
 1.654603367355238e+000	 7.383602934160208e-002	 1.370247315878074e+001
 1.653870590025512e+000	 8.874758553423179e-002	 1.370604948735561e+001
 1.653000191161592e+000	 1.037035703646339e-001	 1.370250931590730e+001
 1.651990865185405e+000	 1.187023328656559e-001	 1.369187879172710e+001
 1.650841327884136e+000	 1.337421871765573e-001	 1.367419867636107e+001
 1.649550317385875e+000	 1.488214127425117e-001	 1.364952448572750e+001
 1.662500000000000e+000	 0.000000000000000e+000	 1.353966236257983e+001
 1.662434821455718e+000	 1.472122315181780e-002	 1.357886617779026e+001
 1.662238342380553e+000	 2.949479815817569e-002	 1.361106894518739e+001
 1.661909159527556e+000	 4.431924497406231e-002	 1.363623301577105e+001
 1.661445886289835e+000	 5.919304794435967e-002	 1.365433450734433e+001
 1.660847153647005e+000	 7.411465586709637e-002	 1.366536356349257e+001
 1.660111611119747e+000	 8.908248208299611e-002	 1.366932459048429e+001
 1.659237927731739e+000	 1.040949045918937e-001	 1.366623647085079e+001
 1.658224792978198e+000	 1.191502661965716e-001	 1.365613275242109e+001
 1.657070917800224e+000	 1.342468746745508e-001	 1.363906181160968e+001
 1.655775035564124e+000	 1.493830029783450e-001	 1.361508698978232e+001
 1.668750000000000e+000	 0.000000000000000e+000	 1.350207154250620e+001
 1.668684576423596e+000	 1.477656609595524e-002	 1.354147254367698e+001
 1.668487358705289e+000	 2.960568085792290e-002	 1.357390440977836e+001
 1.668156938322766e+000	 4.448585867681251e-002	 1.359933576588867e+001
 1.667691923456327e+000	 5.941557819955437e-002	 1.361774923158475e+001
 1.667090939938893e+000	 7.439328239259066e-002	 1.362914167856265e+001
 1.666352632214156e+000	 8.941737863176048e-002	 1.363352446573372e+001
 1.665475664302124e+000	 1.044862388191535e-001	 1.363092365053966e+001
 1.664458720771303e+000	 1.195981995274874e-001	 1.362138017524969e+001
 1.663300507716707e+000	 1.347515621725443e-001	 1.360495002702571e+001
 1.661999753742864e+000	 1.499445932141783e-001	 1.358170437056852e+001
 1.675000000000000e+000	 0.000000000000000e+000	 1.346513908310622e+001
 1.674934331391479e+000	 1.483190904009269e-002	 1.350478217744148e+001
 1.674736375030045e+000	 2.971656355767010e-002	 1.353748629535702e+001
 1.674404717118019e+000	 4.465247237956268e-002	 1.356322632102587e+001
 1.673937960622896e+000	 5.963810845474908e-002	 1.358199136260803e+001
 1.673334726230903e+000	 7.467190891808496e-002	 1.359378500855632e+001
 1.672593653308740e+000	 8.975227518052482e-002	 1.359862556094918e+001
 1.671713400872747e+000	 1.048775730464132e-001	 1.359654624458045e+001
 1.670692648564721e+000	 1.200461328584031e-001	 1.358759539055594e+001
 1.669530097633589e+000	 1.352562496705379e-001	 1.357183659317020e+001
 1.668224471922096e+000	 1.505061834500116e-001	 1.354934883886538e+001
 1.681250000000000e+000	 0.000000000000000e+000	 1.342884798989529e+001
 1.681184086359366e+000	 1.488725198423013e-002	 1.346877705346633e+001
 1.680985391354819e+000	 2.982744625741730e-002	 1.350179554130290e+001
 1.680652495913316e+000	 4.481908608231287e-002	 1.352788458211367e+001
 1.680183997789542e+000	 5.986063870994379e-002	 1.354703975988860e+001
 1.679578512523033e+000	 7.495053544357926e-002	 1.355927136893375e+001
 1.678834674403499e+000	 9.008717172928916e-002	 1.356460464548227e+001
 1.677951137443610e+000	 1.052689072736730e-001	 1.356307997459798e+001
 1.676926576358452e+000	 1.204940661893189e-001	 1.355475307110836e+001
 1.675759687550866e+000	 1.357609371685314e-001	 1.353969513332722e+001
 1.674449190101820e+000	 1.510677736858450e-001	 1.351799296835755e+001
 1.687500000000000e+000	 0.000000000000000e+000	 1.339318152015890e+001
 1.687433841327259e+000	 1.494259492836757e-002	 1.343343940873355e+001
 1.687234407679612e+000	 2.993832895716451e-002	 1.346681336035145e+001
 1.686900274708655e+000	 4.498569978506306e-002	 1.349329073411734e+001
 1.686430034956265e+000	 6.008316896513850e-002	 1.351287357753060e+001
 1.685822298815284e+000	 7.522916196907355e-002	 1.352557888029254e+001
 1.685075695498433e+000	 9.042206827805353e-002	 1.353143880423695e+001
 1.684188874014711e+000	 1.056602415009328e-001	 1.353050088808677e+001
 1.683160504152495e+000	 1.209419995202347e-001	 1.352282822575978e+001
 1.681989277468541e+000	 1.362656246665250e-001	 1.350849961697176e+001
 1.680673908282036e+000	 1.516293639216783e-001	 1.348760968891463e+001
 1.618426726502007e+000	 1.460134615633451e-001	 1.383853402188187e+001
 1.617020055620544e+000	 1.608450799337192e-001	 1.387412110338277e+001
 1.615472174327686e+000	 1.757118493274185e-001	 1.390355425378459e+001
 1.613781916097899e+000	 1.906119809940986e-001	 1.392683521205144e+001
 1.611948140185452e+000	 2.055436532142454e-001	 1.394397775642234e+001
 1.609969732592857e+000	 2.205050116406457e-001	 1.395500773553496e+001
 1.607845607038732e+000	 2.354941696701328e-001	 1.395996307222808e+001
 1.605574705924090e+000	 2.505092088459143e-001	 1.395889373925704e+001
 1.603156001296034e+000	 2.655481792907503e-001	 1.395186170621222e+001
 1.600588495807814e+000	 2.806091001712200e-001	 1.393894085699107e+001
 1.597871223674181e+000	 2.956899601932739e-001	 1.392021687723816e+001
 1.624651444677798e+000	 1.465750517991785e-001	 1.379839211225297e+001
 1.623239363523173e+000	 1.614637148554573e-001	 1.383376562732960e+001
 1.621685528840354e+000	 1.763876641313428e-001	 1.386314957766627e+001
 1.619988769617171e+000	 1.913451039966817e-001	 1.388655206735196e+001
 1.618147940720411e+000	 2.063342057253469e-001	 1.390399333354863e+001
 1.616161923867983e+000	 2.213531078380207e-001	 1.391550577134393e+001
 1.614029628600499e+000	 2.363999164753710e-001	 1.392113393086522e+001
 1.611749993251287e+000	 2.514727058019256e-001	 1.392093448588664e+001
 1.609321985913786e+000	 2.665695184409173e-001	 1.391497617321896e+001
 1.606744605405299e+000	 2.816883659403353e-001	 1.390333970223330e+001
 1.604016882226020e+000	 2.968272292703844e-001	 1.388611763393515e+001
 1.630876162854079e+000	 1.471366420350118e-001	 1.375944971518052e+001
 1.629458671426380e+000	 1.620823497771907e-001	 1.379460741368561e+001
 1.627898883353656e+000	 1.770634789352479e-001	 1.382393756858438e+001
 1.626195623137105e+000	 1.920782269992214e-001	 1.384745465964715e+001
 1.624347741256031e+000	 2.071247582363709e-001	 1.386518539599528e+001
 1.622354115143737e+000	 2.222012040352745e-001	 1.387716873470216e+001
 1.620213650162833e+000	 2.373056632804340e-001	 1.388345587123355e+001
 1.617925280578959e+000	 2.524362027576979e-001	 1.388411020095762e+001
 1.615487970531891e+000	 2.675908575907709e-001	 1.387920725101354e+001
 1.612900715002984e+000	 2.827676317090528e-001	 1.386883458189038e+001
 1.610162540777873e+000	 2.979644983470022e-001	 1.385309165813338e+001
 1.637100881030853e+000	 1.476982322708450e-001	 1.372167712061866e+001
 1.635677979330163e+000	 1.627009846989193e-001	 1.375661604688178e+001
 1.634112237867593e+000	 1.777392937391337e-001	 1.378588711309638e+001
 1.632402476657701e+000	 1.928113500017178e-001	 1.380951118574559e+001
 1.630547541792309e+000	 2.079153107473176e-001	 1.382752145942831e+001
 1.628546306420119e+000	 2.230493002324069e-001	 1.383996346922717e+001
 1.626397671725733e+000	 2.382114100853218e-001	 1.384689507448964e+001
 1.624100567907106e+000	 2.533996997132307e-001	 1.384838641325230e+001
 1.621653955150348e+000	 2.686121967403111e-001	 1.384451982659478e+001
 1.619056824600867e+000	 2.838468974773725e-001	 1.383538975227646e+001
 1.616308199329740e+000	 2.991017674231273e-001	 1.382110258707422e+001
 1.643325599208118e+000	 1.482598225066784e-001	 1.368504501740358e+001
 1.641897287234524e+000	 1.633196196206430e-001	 1.371976151512472e+001
 1.640325592382163e+000	 1.784151085430003e-001	 1.374896750620134e+001
 1.638609330178958e+000	 1.935444730041707e-001	 1.377269025533201e+001
 1.636747342329249e+000	 2.087058632581869e-001	 1.379096945658911e+001
 1.634738497697129e+000	 2.238973964294180e-001	 1.380385723957162e+001
 1.632581693289201e+000	 2.391171568900344e-001	 1.381141814654200e+001
 1.630275855235727e+000	 2.543631966685243e-001	 1.381372907977436e+001
 1.627819939769157e+000	 2.696335358895377e-001	 1.381087921840117e+001
 1.625212934198949e+000	 2.849261632452941e-001	 1.380296990410970e+001
 1.622453857881623e+000	 3.002390364987599e-001	 1.379011449510944e+001
 1.649550317385875e+000	 1.488214127425117e-001	 1.364952448572750e+001
 1.648116595139462e+000	 1.639382545423620e-001	 1.368401420277809e+001
 1.646538946897367e+000	 1.790909233468477e-001	 1.371314844363342e+001
 1.644816183700877e+000	 1.942775960065802e-001	 1.373696088317732e+001
 1.642947142866847e+000	 2.094964157689787e-001	 1.375549772942517e+001
 1.640930688974768e+000	 2.247454926263078e-001	 1.376881772347950e+001
 1.638765714853234e+000	 2.400229036945716e-001	 1.377699211003650e+001
 1.636451142564823e+000	 2.553266936235787e-001	 1.378010457766891e+001
 1.633985924388319e+000	 2.706548750384510e-001	 1.377825116817075e+001
 1.631369043797230e+000	 2.860054290128180e-001	 1.377154015431611e+001
 1.628599516433520e+000	 3.013763055738997e-001	 1.376009188545382e+001
 1.655775035564124e+000	 1.493830029783450e-001	 1.361508698978232e+001
 1.654335903044978e+000	 1.645568894640762e-001	 1.364934488291608e+001
 1.652752301413206e+000	 1.797667381506759e-001	 1.367840001432941e+001
 1.651023037223457e+000	 1.950107190089463e-001	 1.370229248152422e+001
 1.649146943405106e+000	 2.102869682796933e-001	 1.372107502139828e+001
 1.647122880253034e+000	 2.255935888230763e-001	 1.373481300402094e+001
 1.644949736417835e+000	 2.409286504989337e-001	 1.374358439652334e+001
 1.642626429894394e+000	 2.562901905783939e-001	 1.374747969632520e+001
 1.640151909007833e+000	 2.716762141870508e-001	 1.374660183298416e+001
 1.637525153395711e+000	 2.870846947799440e-001	 1.374106603801795e+001
 1.634745174985431e+000	 3.025135746485468e-001	 1.373099968212380e+001
 1.661999753742864e+000	 1.499445932141783e-001	 1.358170437056852e+001
 1.660555210951071e+000	 1.651755243857856e-001	 1.361572471004413e+001
 1.658965655929679e+000	 1.804425529544848e-001	 1.364469269306516e+001
 1.657229890746700e+000	 1.957438420112691e-001	 1.366865485264376e+001
 1.655346743944024e+000	 2.110775207903304e-001	 1.368767046996541e+001
 1.653315071531929e+000	 2.264416850197235e-001	 1.370181156200213e+001
 1.651133757983002e+000	 2.418343973031205e-001	 1.371116283879932e+001
 1.648801717224440e+000	 2.572536875329698e-001	 1.371582162965673e+001
 1.646317893627698e+000	 2.726975533353372e-001	 1.371589777748690e+001
 1.643681262994390e+000	 2.881639605466721e-001	 1.371151350070250e+001
 1.640890833537358e+000	 3.036508437227013e-001	 1.370280322205738e+001
 1.668224471922096e+000	 1.505061834500116e-001	 1.354934883886538e+001
 1.666774518857742e+000	 1.657941593074902e-001	 1.358312521298282e+001
 1.665179010446786e+000	 1.811183677582746e-001	 1.361199733325726e+001
 1.663436744270604e+000	 1.964769650135484e-001	 1.363601818155880e+001
 1.661546544483602e+000	 2.118680733008900e-001	 1.365525359922824e+001
 1.659507262811453e+000	 2.272897812162494e-001	 1.366978226854466e+001
 1.657317779548735e+000	 2.427401441071321e-001	 1.367969566342221e+001
 1.654977004554960e+000	 2.582171844873064e-001	 1.368509796855411e+001
 1.652483878247917e+000	 2.737188924833102e-001	 1.368610596628525e+001
 1.649837372593268e+000	 2.892432263130023e-001	 1.368284889056589e+001
 1.647036492089299e+000	 3.047881127963631e-001	 1.367546824741021e+001
 1.674449190101820e+000	 1.510677736858450e-001	 1.351799296835755e+001
 1.672993826764990e+000	 1.664127942291901e-001	 1.355151828791015e+001
 1.671392364964526e+000	 1.817941825620451e-001	 1.358028515992500e+001
 1.669643597795169e+000	 1.972100880157843e-001	 1.360435302892963e+001
 1.667746345023840e+000	 2.126586258113723e-001	 1.362379431274629e+001
 1.665699454091604e+000	 2.281378774126539e-001	 1.363869437783069e+001
 1.663501801115035e+000	 2.436458909109685e-001	 1.364915148339160e+001
 1.661152291885955e+000	 2.591806814414038e-001	 1.365527669350624e+001
 1.658649862868488e+000	 2.747402316309697e-001	 1.365719375651229e+001
 1.655993482192346e+000	 2.903224920789346e-001	 1.365503895102777e+001
 1.653182150641255e+000	 3.059253818695323e-001	 1.364896089802382e+001
 1.680673908282036e+000	 1.516293639216783e-001	 1.348760968891463e+001
 1.679213134672815e+000	 1.670314291508851e-001	 1.352087619155881e+001
 1.677605719482902e+000	 1.824699973657963e-001	 1.354952776280901e+001
 1.675850451320397e+000	 1.979432110179769e-001	 1.357363032409773e+001
 1.673946145564738e+000	 2.134491783217772e-001	 1.359326288650991e+001
 1.671891645372384e+000	 2.289859736089372e-001	 1.360851752000922e+001
 1.669685822681902e+000	 2.445516377146296e-001	 1.361949929099253e+001
 1.667327579217426e+000	 2.601441783952620e-001	 1.362632616738566e+001
 1.664815847489411e+000	 2.757615707783158e-001	 1.362912889055874e+001
 1.662149591791622e+000	 2.914017578444691e-001	 1.362805081341248e+001
 1.659327809193226e+000	 3.070626509422089e-001	 1.362324770406097e+001
 1.597871223674181e+000	 2.956899601932739e-001	 1.392021687723816e+001
 1.595003251621570e+000	 3.107887181289496e-001	 1.394954931629922e+001
 1.591983679830145e+000	 3.259033033752861e-001	 1.397257163179505e+001
 1.588811642867847e+000	 3.410316165447961e-001	 1.398927885418094e+001
 1.585486310616522e+000	 3.561715300870582e-001	 1.399967562579195e+001
 1.582006889187144e+000	 3.713208889423076e-001	 1.400377602626476e+001
 1.578372621823568e+000	 3.864775112266636e-001	 1.400160336963091e+001
 1.574582789793657e+000	 4.016391889488981e-001	 1.399318997299219e+001
 1.570636713266596e+000	 4.168036887586086e-001	 1.397857689677293e+001
 1.566533752175201e+000	 4.319687527256053e-001	 1.395781365663332e+001
 1.562273307062045e+000	 4.471320991502787e-001	 1.393095790721671e+001
 1.604016882226020e+000	 2.968272292703844e-001	 1.388611763393515e+001
 1.601137879512695e+000	 3.119840593522074e-001	 1.391554258772040e+001
 1.598106693984472e+000	 3.271567776189681e-001	 1.393878849850464e+001
 1.594922456880703e+000	 3.423432766086116e-001	 1.395585524753303e+001
 1.591584334890471e+000	 3.575414205878306e-001	 1.396675239172447e+001
 1.588091531071329e+000	 3.727490462081689e-001	 1.397149898184230e+001
 1.584443285756530e+000	 3.879639631938843e-001	 1.397012335195547e+001
 1.580638877449581e+000	 4.031839550614754e-001	 1.396266288010582e+001
 1.576677623704931e+000	 4.184067798707299e-001	 1.394916372018407e+001
 1.572558881993601e+000	 4.336301710071112e-001	 1.392968050510586e+001
 1.568282050552553e+000	 4.488518379952425e-001	 1.390427602147077e+001
 1.610162540777873e+000	 2.979644983470022e-001	 1.385309165813338e+001
 1.607272507403650e+000	 3.131794005748775e-001	 1.388256832660792e+001
 1.604229708138472e+000	 3.284102518619765e-001	 1.390599558472041e+001
 1.601033270893104e+000	 3.436549366716779e-001	 1.392337821248167e+001
 1.597682359163867e+000	 3.589113110877877e-001	 1.393473073161649e+001
 1.594176172954892e+000	 3.741772034731588e-001	 1.394007721644625e+001
 1.590513949688832e+000	 3.894504151601877e-001	 1.393945107567612e+001
 1.586694965104838e+000	 4.047287211730991e-001	 1.393289480500835e+001
 1.582718534142623e+000	 4.200098709818718e-001	 1.392045971059053e+001
 1.578584011811410e+000	 4.352915892876224e-001	 1.390220560339886e+001
 1.574290794042556e+000	 4.505715768392062e-001	 1.387820046474895e+001
 1.616308199329740e+000	 2.991017674231273e-001	 1.382110258707422e+001
 1.613407135294434e+000	 3.143747417969595e-001	 1.385058974432190e+001
 1.610352722292144e+000	 3.296637261043116e-001	 1.387415568082752e+001
 1.607144084905050e+000	 3.449665967339949e-001	 1.389181012372620e+001
 1.603780383436710e+000	 3.602812015869297e-001	 1.390357261015850e+001
 1.600260814837835e+000	 3.756053607372772e-001	 1.390947229082776e+001
 1.596584613620476e+000	 3.909368671255735e-001	 1.390954770407122e+001
 1.592751052759428e+000	 4.062734872837696e-001	 1.390384652037240e+001
 1.588759444579671e+000	 4.216129620920345e-001	 1.389242525733039e+001
 1.584609141628628e+000	 4.369530075671387e-001	 1.387534896519460e+001
 1.580299537532052e+000	 4.522913156821699e-001	 1.385269088316599e+001
 1.622453857881623e+000	 3.002390364987599e-001	 1.379011449510944e+001
 1.619541763185047e+000	 3.155700830184538e-001	 1.381957048903446e+001
 1.616475736445488e+000	 3.309172003459734e-001	 1.384323201357737e+001
 1.613254898916541e+000	 3.462782567955628e-001	 1.386111379173789e+001
 1.609878407709000e+000	 3.616510920852563e-001	 1.387324042706926e+001
 1.606345456720158e+000	 3.770335180005244e-001	 1.387964619987229e+001
 1.602655277551461e+000	 3.924233190900420e-001	 1.388037483350799e+001
 1.598807140413352e+000	 4.078182533934863e-001	 1.387547923076195e+001
 1.594800355016075e+000	 4.232160532012180e-001	 1.386502118028318e+001
 1.590634271445256e+000	 4.386144258456604e-001	 1.384907103321311e+001
 1.586308281021041e+000	 4.540110545241337e-001	 1.382770735021699e+001
 1.628599516433520e+000	 3.013763055738997e-001	 1.376009188545382e+001
 1.625676391075489e+000	 3.167654242393603e-001	 1.378947463748797e+001
 1.622598750598505e+000	 3.321706745869615e-001	 1.381318823785419e+001
 1.619365712927578e+000	 3.475899168563814e-001	 1.383125245453796e+001
 1.615976431980738e+000	 3.630209825827678e-001	 1.384369700888787e+001
 1.612430098601858e+000	 3.784616752629001e-001	 1.385056136440832e+001
 1.608725941481786e+000	 3.939097710535931e-001	 1.385189448527102e+001
 1.604863228066608e+000	 4.093630195022497e-001	 1.384775456448376e+001
 1.600841265451834e+000	 4.248191443094223e-001	 1.383820872174625e+001
 1.596659401261293e+000	 4.402758441231872e-001	 1.382333267111721e+001
 1.592317024509525e+000	 4.557307933650973e-001	 1.380321035871361e+001
 1.634745174985431e+000	 3.025135746485468e-001	 1.373099968212380e+001
 1.631811018965760e+000	 3.179607654596787e-001	 1.376026668693916e+001
 1.628721764751195e+000	 3.334241488272765e-001	 1.378398842862752e+001
 1.625476526938159e+000	 3.489015769164505e-001	 1.380218976966079e+001
 1.622074456251923e+000	 3.643908730794638e-001	 1.381490560095058e+001
 1.618514740482938e+000	 3.798898325244045e-001	 1.382218062320091e+001
 1.614796605411453e+000	 3.953962230162266e-001	 1.382406909757523e+001
 1.610919315719198e+000	 4.109077856100596e-001	 1.382063456562199e+001
 1.606882175886949e+000	 4.264222354166472e-001	 1.381194953849478e+001
 1.602684531076739e+000	 4.419372623997191e-001	 1.379809515560002e+001
 1.598325767997502e+000	 4.574505322050610e-001	 1.377916081290221e+001
 1.640890833537358e+000	 3.036508437227013e-001	 1.370280322205738e+001
 1.637945646855860e+000	 3.191561066794094e-001	 1.373191154728439e+001
 1.634844778903556e+000	 3.346776230669177e-001	 1.375559707308537e+001
 1.631587340948285e+000	 3.502132369757705e-001	 1.377388980629801e+001
 1.628172480522555e+000	 3.657607635753448e-001	 1.378682985954846e+001
 1.624599382363398e+000	 3.813179897850377e-001	 1.379446722512517e+001
 1.620867269340460e+000	 3.968826749779427e-001	 1.379686151775806e+001
 1.616975403371121e+000	 4.124525517169163e-001	 1.379408168625230e+001
 1.612923086321420e+000	 4.280253265228929e-001	 1.378620569401994e+001
 1.608709660891595e+000	 4.435986806752563e-001	 1.377332016865038e+001
 1.604334511484973e+000	 4.591702710440248e-001	 1.375552002075908e+001
 1.647036492089299e+000	 3.047881127963631e-001	 1.367546824741021e+001
 1.644080274745790e+000	 3.203514478985522e-001	 1.370437453336112e+001
 1.640967793055591e+000	 3.359310973058858e-001	 1.372797906294363e+001
 1.637698154957957e+000	 3.515248970343413e-001	 1.374631703761820e+001
 1.634270504792634e+000	 3.671306540704103e-001	 1.375943384426007e+001
 1.630684024243236e+000	 3.827461470447994e-001	 1.376738482151500e+001
 1.626937933268809e+000	 3.983691269387413e-001	 1.377023499464669e+001
 1.623031491022377e+000	 4.139973178228193e-001	 1.376805877883002e+001
 1.618963996755247e+000	 4.296284176281593e-001	 1.376093965094093e+001
 1.614734790705860e+000	 4.452600989497987e-001	 1.374896978999120e+001
 1.610343254971937e+000	 4.608900098819885e-001	 1.373224968645808e+001
 1.653182150641255e+000	 3.059253818695323e-001	 1.364896089802382e+001
 1.650214902635548e+000	 3.215467891171071e-001	 1.367762135742117e+001
 1.647090807207297e+000	 3.371845715441803e-001	 1.370109968692692e+001
 1.643808968967174e+000	 3.528365570921629e-001	 1.371943633325808e+001
 1.640368529062161e+000	 3.685005445646606e-001	 1.373268201045552e+001
 1.636768666122454e+000	 3.841743043036897e-001	 1.374089745868239e+001
 1.633008597196499e+000	 3.998555788986226e-001	 1.374415317109528e+001
 1.629087578672966e+000	 4.155420839277691e-001	 1.374252908874813e+001
 1.625004907188431e+000	 4.312315087324466e-001	 1.373611426358617e+001
 1.620759920519534e+000	 4.469215172233463e-001	 1.372500648968681e+001
 1.616351998458396e+000	 4.626097487189523e-001	 1.370931190300655e+001
 1.659327809193226e+000	 3.070626509422089e-001	 1.362324770406097e+001
 1.656349530525136e+000	 3.227421303350743e-001	 1.365161812177102e+001
 1.653213821358677e+000	 3.384380457818015e-001	 1.367492462341662e+001
 1.649919782975936e+000	 3.541482171492352e-001	 1.369321295198055e+001
 1.646466553331135e+000	 3.698704350580958e-001	 1.370653920196705e+001
 1.642853308001051e+000	 3.856024615617087e-001	 1.371496957060305e+001
 1.639079261123530e+000	 4.013420308575864e-001	 1.371858007668831e+001
 1.635143666322889e+000	 4.170868500317654e-001	 1.371745624706059e+001
 1.631045817620969e+000	 4.328345998357547e-001	 1.371169277073951e+001
 1.626785050332617e+000	 4.485829354958991e-001	 1.370139312091433e+001
 1.622360741944348e+000	 4.643294875549160e-001	 1.368666914504447e+001
 1.562273307062045e+000	 4.471320991502787e-001	 1.393095790721671e+001
 1.557854819907389e+000	 4.622914234050990e-001	 1.394912031705473e+001
 1.553277774940155e+000	 4.774443988055136e-001	 1.395797810657821e+001
 1.548541699429098e+000	 4.925886775109708e-001	 1.395743078922374e+001
 1.543646164451403e+000	 5.077218914563572e-001	 1.394738501145775e+001
 1.538590785639945e+000	 5.228416533120174e-001	 1.392775428946671e+001
 1.533375223907228e+000	 5.379455574723024e-001	 1.389845872315815e+001
 1.527999186144825e+000	 5.530311810720592e-001	 1.385942468806388e+001
 1.522462425897189e+000	 5.680960850304262e-001	 1.381058450582451e+001
 1.516764744008681e+000	 5.831378151212450e-001	 1.375187609402179e+001
 1.510905989242708e+000	 5.981539030693488e-001	 1.368324259621237e+001
 1.568282050552553e+000	 4.488518379952425e-001	 1.390427602147077e+001
 1.563846569215960e+000	 4.640694673435957e-001	 1.392212499358719e+001
 1.559251920229149e+000	 4.792807234187858e-001	 1.393099244801291e+001
 1.554497629042678e+000	 4.944832493501042e-001	 1.393078630369020e+001
 1.549583265084030e+000	 5.096746679644943e-001	 1.392142150733024e+001
 1.544508442507747e+000	 5.248525827502629e-001	 1.390281975504752e+001
 1.539272820922149e+000	 5.400145788494308e-001	 1.387490919106758e+001
 1.533876106091470e+000	 5.551582240781324e-001	 1.383762408412590e+001
 1.528318050612258e+000	 5.702810699744254e-001	 1.379090448226421e+001
 1.522598454562893e+000	 5.853806528728195e-001	 1.373469584682011e+001
 1.516717166125101e+000	 6.004544950047813e-001	 1.366894866649330e+001
 1.574290794042556e+000	 4.505715768392062e-001	 1.387820046474895e+001
 1.569838318524116e+000	 4.658475112810973e-001	 1.389571806761238e+001
 1.565226065517798e+000	 4.811170480310775e-001	 1.390457535541127e+001
 1.560453558655965e+000	 4.963778211882816e-001	 1.390468869840923e+001
 1.555520365716395e+000	 5.116274444717095e-001	 1.389598139142494e+001
 1.550426099375298e+000	 5.268635121876308e-001	 1.387838336035207e+001
 1.545170417936810e+000	 5.420836002257359e-001	 1.385183084551035e+001
 1.539753026037827e+000	 5.572852670834465e-001	 1.381626606247289e+001
 1.534173675326991e+000	 5.724660549177399e-001	 1.377163684110274e+001
 1.528432165116700e+000	 5.876234906237938e-001	 1.371789624362385e+001
 1.522528343006999e+000	 6.027550869397086e-001	 1.365500216264022e+001
 1.580299537532052e+000	 4.522913156821699e-001	 1.385269088316599e+001
 1.575830067831855e+000	 4.676255552176038e-001	 1.386985842775849e+001
 1.571200210806102e+000	 4.829533726423885e-001	 1.387868498054953e+001
 1.566409488268957e+000	 4.982723930255027e-001	 1.387909540960992e+001
 1.561457466348499e+000	 5.135802209780029e-001	 1.387102140639531e+001
 1.556343756242599e+000	 5.288744416241209e-001	 1.385440117709160e+001
 1.551068014951213e+000	 5.441526216012174e-001	 1.382917911054592e+001
 1.545629945983897e+000	 5.594123100880016e-001	 1.379530542345371e+001
 1.540029300041389e+000	 5.746510398603700e-001	 1.375273578356320e+001
 1.534265875670101e+000	 5.898663283741681e-001	 1.370143091175130e+001
 1.528339519888403e+000	 6.050556788741307e-001	 1.364135616391488e+001
 1.586308281021041e+000	 4.540110545241337e-001	 1.382770735021699e+001
 1.581821817139179e+000	 4.694035991531151e-001	 1.384450539425888e+001
 1.577174356094060e+000	 4.847896972527190e-001	 1.385327991070148e+001
 1.572365417881656e+000	 5.001669648617677e-001	 1.385396431257493e+001
 1.567394566980340e+000	 5.155329974833746e-001	 1.384649873716378e+001
 1.562261413109649e+000	 5.308853710597334e-001	 1.383082972211762e+001
 1.556965611965358e+000	 5.462216429758756e-001	 1.380690985789725e+001
 1.551506865929681e+000	 5.615393530917978e-001	 1.377469741725238e+001
 1.545884924755451e+000	 5.768360248023154e-001	 1.373415596252080e+001
 1.540099586223098e+000	 5.921091661239428e-001	 1.368525393163183e+001
 1.534150696769311e+000	 6.073562708080476e-001	 1.362796420378829e+001
 1.592317024509525e+000	 4.557307933650973e-001	 1.380321035871361e+001
 1.587813566446086e+000	 4.711816430876312e-001	 1.381961871080854e+001
 1.583148501381675e+000	 4.866260218620689e-001	 1.382831916042166e+001
 1.578321347494061e+000	 5.020615366970765e-001	 1.382925371335651e+001
 1.573331667611918e+000	 5.174857739878241e-001	 1.382237100257716e+001
 1.568179069976448e+000	 5.328963004944683e-001	 1.380762594902301e+001
 1.562863208979243e+000	 5.482906643497104e-001	 1.378497939850426e+001
 1.557383785875177e+000	 5.636663960948347e-001	 1.375439773540062e+001
 1.551740549469176e+000	 5.790210097435762e-001	 1.371585247398110e+001
 1.545933296775688e+000	 5.943520038731174e-001	 1.366931982825662e+001
 1.539961873649725e+000	 6.096568627414595e-001	 1.361478026137075e+001
 1.598325767997502e+000	 4.574505322050610e-001	 1.377916081290221e+001
 1.593805315752578e+000	 4.729596870211522e-001	 1.379515853660431e+001
 1.589122646668944e+000	 4.884623464704384e-001	 1.380376216351361e+001
 1.584277277106173e+000	 5.039561085314291e-001	 1.380492234067922e+001
 1.579268768243235e+000	 5.194385504913519e-001	 1.379859624725019e+001
 1.574096726842998e+000	 5.349072299283256e-001	 1.378474723993260e+001
 1.568760805992869e+000	 5.503596857227220e-001	 1.376334447426783e+001
 1.563260705820385e+000	 5.657934390971128e-001	 1.373436250248185e+001
 1.557596174182566e+000	 5.812059946841524e-001	 1.369778084875051e+001
 1.551767007327875e+000	 5.965948416216919e-001	 1.365358356282236e+001
 1.545773050529643e+000	 6.119574546743660e-001	 1.360175875303504e+001
 1.604334511484973e+000	 4.591702710440248e-001	 1.375552002075908e+001
 1.599797065058654e+000	 4.747377309536781e-001	 1.377108543856400e+001
 1.595096791955867e+000	 4.902986710778273e-001	 1.377956876517889e+001
 1.590233206717991e+000	 5.058506803648258e-001	 1.378092933802481e+001
 1.585205868874289e+000	 5.213913269939580e-001	 1.377513293359235e+001
 1.580014383709297e+000	 5.369181593613053e-001	 1.376215139747820e+001
 1.574658403006237e+000	 5.524287070949101e-001	 1.374196224997946e+001
 1.569137625765307e+000	 5.679204820986317e-001	 1.371454826802163e+001
 1.563451798895619e+000	 5.833909796240439e-001	 1.367989704429388e+001
 1.557600717879655e+000	 5.988376793696664e-001	 1.363800052456239e+001
 1.551584227409067e+000	 6.142580466067676e-001	 1.358885452422818e+001
 1.610343254971937e+000	 4.608900098819885e-001	 1.373224968645808e+001
 1.605788814364313e+000	 4.765157748852087e-001	 1.374736038371950e+001
 1.601070937242445e+000	 4.921349956842354e-001	 1.375569921434169e+001
 1.596189136329514e+000	 5.077452521972661e-001	 1.375723425589421e+001
 1.591142969505081e+000	 5.233441034956419e-001	 1.375193993401310e+001
 1.585932040575345e+000	 5.389290887934074e-001	 1.373979663695340e+001
 1.580556000019346e+000	 5.544977284662748e-001	 1.372079030543148e+001
 1.575014545709941e+000	 5.700475250993914e-001	 1.369491199855959e+001
 1.569307423608336e+000	 5.855759645632507e-001	 1.366215743677463e+001
 1.563434428431030e+000	 6.010805171170407e-001	 1.362252652276112e+001
 1.557395404287996e+000	 6.165586385386639e-001	 1.357602284146617e+001
 1.616351998458396e+000	 4.626097487189523e-001	 1.370931190300655e+001
 1.611780563669557e+000	 4.782938188157442e-001	 1.372394473177988e+001
 1.607045082528679e+000	 4.939713202896632e-001	 1.373211415614469e+001
 1.602145065940745e+000	 5.096398240287504e-001	 1.373379704424210e+001
 1.597080070135612e+000	 5.252968799964042e-001	 1.372897652330115e+001
 1.591849697441142e+000	 5.409400182246319e-001	 1.371764157864318e+001
 1.586453597032196e+000	 5.565667498368161e-001	 1.369978662770322e+001
 1.580891465654287e+000	 5.721745680993922e-001	 1.367541106989827e+001
 1.575163048320718e+000	 5.877609495017732e-001	 1.364451881327207e+001
 1.569268138982001e+000	 6.033233548638152e-001	 1.360711777894641e+001
 1.563206581166431e+000	 6.188592304700552e-001	 1.356321938450747e+001
 1.622360741944348e+000	 4.643294875549160e-001	 1.368666914504447e+001
 1.617772312974385e+000	 4.800718627452847e-001	 1.370080022785953e+001
 1.613019227814568e+000	 4.958076448941104e-001	 1.370877462461169e+001
 1.608100995551681e+000	 5.115343958592786e-001	 1.371057804507952e+001
 1.603017170765880e+000	 5.272496564962447e-001	 1.370620237117297e+001
 1.597767354306690e+000	 5.429509476549786e-001	 1.369564524032416e+001
 1.592351194044788e+000	 5.586357712065342e-001	 1.367890960361882e+001
 1.586768385598347e+000	 5.743016110986338e-001	 1.365600325952420e+001
 1.581018673032763e+000	 5.899459344396107e-001	 1.362693836417193e+001
 1.575101849532566e+000	 6.055661926099898e-001	 1.359173091925523e+001
 1.569017758044370e+000	 6.211598224009413e-001	 1.355040023870039e+001
 1.510905989242708e+000	 5.981539030693488e-001	 1.368324259621237e+001
 1.504886058872444e+000	 6.131418676715659e-001	 1.374845657659887e+001
 1.498704899240296e+000	 6.280992159428186e-001	 1.378472433592419e+001
 1.492362506286295e+000	 6.430234442854368e-001	 1.372577976302957e+001
 1.485858926045528e+000	 6.579120396801447e-001	 1.366789133591816e+001
 1.479194255111835e+000	 6.727624808989059e-001	 1.361166853315846e+001
 1.472368641067425e+000	 6.875722397381776e-001	 1.355774721562257e+001
 1.465382282877478e+000	 7.023387822714909e-001	 1.350678996942443e+001
 1.458235431248856e+000	 7.170595701202400e-001	 1.345948638391015e+001
 1.450928388952065e+000	 7.317320617415087e-001	 1.341655326154648e+001
 1.443461511105678e+000	 7.463537137317355e-001	 1.337873475669178e+001
 1.516717166125101e+000	 6.004544950047813e-001	 1.366894866649330e+001
 1.510674082176851e+000	 6.155001056241675e-001	 1.373982994884272e+001
 1.504469148854067e+000	 6.305149821576140e-001	 1.376121451879935e+001
 1.498102362081165e+000	 6.454966113782310e-001	 1.370381648334672e+001
 1.491573768070291e+000	 6.604424706012843e-001	 1.364754048297037e+001
 1.484883463786797e+000	 6.753500289017069e-001	 1.359299378270927e+001
 1.478031597380517e+000	 6.902167483520976e-001	 1.354081039048809e+001
 1.471018368581879e+000	 7.050400852801174e-001	 1.349165141536851e+001
 1.463844029062004e+000	 7.198174915441662e-001	 1.344620536012608e+001
 1.456508882755899e+000	 7.345464158261638e-001	 1.340518834494198e+001
 1.449013286147975e+000	 7.492243049402270e-001	 1.336934425913941e+001
 1.522528343006999e+000	 6.027550869397086e-001	 1.365500216264022e+001
 1.516462105480671e+000	 6.178583435763538e-001	 1.373148283876156e+001
 1.510233398467181e+000	 6.329307483720653e-001	 1.373661107171274e+001
 1.503842217875329e+000	 6.479697784707319e-001	 1.368077615899268e+001
 1.497288610094315e+000	 6.629729015221616e-001	 1.362612565153261e+001
 1.490572672461009e+000	 6.779375769042574e-001	 1.357326453656472e+001
 1.483694553692867e+000	 6.928612569657585e-001	 1.352282491025812e+001
 1.476654454285568e+000	 7.077413882884562e-001	 1.347546635147758e+001
 1.469452626874488e+000	 7.225754129677554e-001	 1.343187622913277e+001
 1.462089376559138e+000	 7.373607699104123e-001	 1.339276993985103e+001
 1.454565061189768e+000	 7.520948961482227e-001	 1.335889107284768e+001
 1.528339519888403e+000	 6.050556788741307e-001	 1.364135616391488e+001
 1.522250128783907e+000	 6.202165815281253e-001	 1.372336818353762e+001
 1.515997648079639e+000	 6.353465145861726e-001	 1.371093623913832e+001
 1.509582073668785e+000	 6.504429455629400e-001	 1.365668222043860e+001
 1.503003452117601e+000	 6.655033324427773e-001	 1.360367143211824e+001
 1.496261881134472e+000	 6.805251249065573e-001	 1.355250651850162e+001
 1.489357510004476e+000	 6.955057655791603e-001	 1.350381760439431e+001
 1.482290539988545e+000	 7.104426912965066e-001	 1.345826268454497e+001
 1.475061224686310e+000	 7.253333343910074e-001	 1.341652794595422e+001
 1.467669870361784e+000	 7.401751239942541e-001	 1.337932801970713e+001
 1.460116836231057e+000	 7.549654873557220e-001	 1.334740615914694e+001
 1.534150696769311e+000	 6.073562708080476e-001	 1.362796420378829e+001
 1.528038152086558e+000	 6.225748194794820e-001	 1.371543936954671e+001
 1.521761897691443e+000	 6.377622807999356e-001	 1.368421270965458e+001
 1.515321929461534e+000	 6.529161126548548e-001	 1.363155853709935e+001
 1.508718294140149e+000	 6.680337633631310e-001	 1.358020284895397e+001
 1.501951089807185e+000	 6.831126729086068e-001	 1.353074588071198e+001
 1.495020466315344e+000	 6.981502741923028e-001	 1.348381572540977e+001
 1.487926625690810e+000	 7.131439943042692e-001	 1.344006873898828e+001
 1.480669822497469e+000	 7.280912558139230e-001	 1.340018987775009e+001
 1.473250364163836e+000	 7.429894780776901e-001	 1.336489296453147e+001
 1.465668611271842e+000	 7.578360785627255e-001	 1.333492088035050e+001
 1.539961873649725e+000	 6.096568627414595e-001	 1.361478026137075e+001
 1.533826175388624e+000	 6.249330574304237e-001	 1.370765022388289e+001
 1.527526147302590e+000	 6.401780470133546e-001	 1.365646360756501e+001
 1.521061785253577e+000	 6.553892797464765e-001	 1.360542940905168e+001
 1.514433136161959e+000	 6.705641942832228e-001	 1.355574535179663e+001
 1.507640298479149e+000	 6.857002209104057e-001	 1.350800919571977e+001
 1.500683422625473e+000	 7.007947828051865e-001	 1.346284694088700e+001
 1.493562711392362e+000	 7.158452973117438e-001	 1.342091324896948e+001
 1.486278420307964e+000	 7.308491772365011e-001	 1.338289179603920e+001
 1.478830857965295e+000	 7.458038321607196e-001	 1.334949555326136e+001
 1.471220386312124e+000	 7.607066697692330e-001	 1.332146699218889e+001
 1.545773050529643e+000	 6.119574546743660e-001	 1.360175875303504e+001
 1.539614198690104e+000	 6.272912953809506e-001	 1.367793649321015e+001
 1.533290396913081e+000	 6.425938132264293e-001	 1.362771248470803e+001
 1.526801641044912e+000	 6.578624468378052e-001	 1.357831955893894e+001
 1.520147978183030e+000	 6.730946252030529e-001	 1.353032480793439e+001
 1.513329507150363e+000	 6.882877689119542e-001	 1.348432344847990e+001
 1.506346378934859e+000	 7.034392914178106e-001	 1.344093932567576e+001
 1.499198797093203e+000	 7.185466003189306e-001	 1.340082535069314e+001
 1.491887018117797e+000	 7.336070986587424e-001	 1.336466386909909e+001
 1.484411351766159e+000	 7.486181862433429e-001	 1.333316695625196e+001
 1.476772161351901e+000	 7.635772609752441e-001	 1.330707663641490e+001
 1.551584227409067e+000	 6.142580466067676e-001	 1.358885452422818e+001
 1.545402221990999e+000	 6.296495333310627e-001	 1.364659095557173e+001
 1.539054646522916e+000	 6.450095794391600e-001	 1.359798331245063e+001
 1.532541496835541e+000	 6.603356139288407e-001	 1.355025412405793e+001
 1.525862820203364e+000	 6.756250561226213e-001	 1.350396749436790e+001
 1.519018715820828e+000	 6.908753169132522e-001	 1.345971602865484e+001
 1.512009335243505e+000	 7.060838000301758e-001	 1.341812135426644e+001
 1.504834882793331e+000	 7.212479033258294e-001	 1.337983457487741e+001
 1.497495615926966e+000	 7.363650200806466e-001	 1.334553665453603e+001
 1.489991845566430e+000	 7.514325403255597e-001	 1.331593872794626e+001
 1.482323936391174e+000	 7.664478521807593e-001	 1.329178233357458e+001
 1.557395404287996e+000	 6.165586385386639e-001	 1.357602284146617e+001
 1.551190245291310e+000	 6.320077712807598e-001	 1.361426452456066e+001
 1.544818896132095e+000	 6.474253456515463e-001	 1.356730047386126e+001
 1.538281352625463e+000	 6.628087810195831e-001	 1.352125864862278e+001
 1.531577662222959e+000	 6.781554870419276e-001	 1.347670009016636e+001
 1.524707924490543e+000	 6.934628649142999e-001	 1.343421472306402e+001
 1.517672291551410e+000	 7.087283086422820e-001	 1.339442189333404e+001
 1.510470968492748e+000	 7.239492063324402e-001	 1.335797083939371e+001
 1.503104213735473e+000	 7.391229415022143e-001	 1.332554109202127e+001
 1.495572339366107e+000	 7.542468944073704e-001	 1.329784279970926e+001
 1.487875711429944e+000	 7.693184433857784e-001	 1.327561697594022e+001
 1.563206581166431e+000	 6.188592304700552e-001	 1.356321938450747e+001
 1.556978268591035e+000	 6.343660092300421e-001	 1.358098080532557e+001
 1.550583145740619e+000	 6.498411118635885e-001	 1.353568875605753e+001
 1.544021208414677e+000	 6.652819481100324e-001	 1.349135907620147e+001
 1.537292504241816e+000	 6.806859179609723e-001	 1.344854966899412e+001
 1.530397133159508e+000	 6.960504129150971e-001	 1.340784770830183e+001
 1.523335247858574e+000	 7.113728172541287e-001	 1.336987019444846e+001
 1.516107054191452e+000	 7.266505093387631e-001	 1.333526444207064e+001
 1.508712811543316e+000	 7.418808629234445e-001	 1.330470849618957e+001
 1.501152833165190e+000	 7.570612484887744e-001	 1.327891147282204e+001
 1.493427486468210e+000	 7.721890345903014e-001	 1.325861382060103e+001
 1.569017758044370e+000	 6.211598224009413e-001	 1.355040023870039e+001
 1.562766291890175e+000	 6.367242471789095e-001	 1.354676380412618e+001
 1.556347395348487e+000	 6.522568780752869e-001	 1.350317334272374e+001
 1.549761064203185e+000	 6.677551152001887e-001	 1.346058174232039e+001
 1.543007346259935e+000	 6.832163488797551e-001	 1.341954369180347e+001
 1.536086341827724e+000	 6.986379609156435e-001	 1.338064354351951e+001
 1.528998204164998e+000	 7.140173258657167e-001	 1.334449588694690e+001
 1.521743139889445e+000	 7.293518123447982e-001	 1.331174605365763e+001
 1.514321409350497e+000	 7.446387843443381e-001	 1.328307054969551e+001
 1.506733326963681e+000	 7.598756025697726e-001	 1.325917741163142e+001
 1.498979261505972e+000	 7.750596257943284e-001	 1.324080648270711e+001
 1.443461511105678e+000	 7.463537137317355e-001	 1.337873475669178e+001
 1.435835205422145e+000	 7.609219821452579e-001	 1.332525914848689e+001
 1.428049932415209e+000	 7.754343238255081e-001	 1.327186398787165e+001
 1.420106205567564e+000	 7.898881977482871e-001	 1.321916635932283e+001
 1.412004591457633e+000	 8.042810663762547e-001	 1.316781503579735e+001
 1.403745709845789e+000	 8.186103970223295e-001	 1.311849048511975e+001
 1.395330233719178e+000	 8.328736632209131e-001	 1.307190478737607e+001
 1.386758889294707e+000	 8.470683461054850e-001	 1.302880146119532e+001
 1.378032455979799e+000	 8.611919357911061e-001	 1.298995519705087e+001
 1.369151766290563e+000	 8.752419327603297e-001	 1.295617149597665e+001
 1.360117705727114e+000	 8.892158492510077e-001	 1.292828621236904e+001
 1.449013286147975e+000	 7.492243049402270e-001	 1.336934425913941e+001
 1.441357648518932e+000	 7.638486051561580e-001	 1.331541437238277e+001
 1.433542432153844e+000	 7.784167635358864e-001	 1.326138156930585e+001
 1.425568152510335e+000	 7.929262292820426e-001	 1.320786200675512e+001
 1.417435378345981e+000	 8.073744550975266e-001	 1.315550421578483e+001
 1.409144731804847e+000	 8.217588985541524e-001	 1.310498912041000e+001
 1.400696888462492e+000	 8.360770234691457e-001	 1.305702996598092e+001
 1.392092577328965e+000	 8.503263012880374e-001	 1.301237215501125e+001
 1.383332580809410e+000	 8.645042124724848e-001	 1.297179298854551e+001
 1.374417734621924e+000	 8.786082478915110e-001	 1.293610131141875e+001
 1.365348927672390e+000	 8.926359102146527e-001	 1.290613706004039e+001
 1.454565061189768e+000	 7.520948961482227e-001	 1.335889107284768e+001
 1.446880091615312e+000	 7.667752281664673e-001	 1.330448445671449e+001
 1.439034931892154e+000	 7.813992032455884e-001	 1.324978949252923e+001
 1.431030099452858e+000	 7.959642608150461e-001	 1.319542140557963e+001
 1.422866165234146e+000	 8.104678438179809e-001	 1.314202848679213e+001
 1.414543753763778e+000	 8.249074000851021e-001	 1.309029212394629e+001
 1.406063543205723e+000	 8.392803837164595e-001	 1.304092674111466e+001
 1.397426265363176e+000	 8.535842564696359e-001	 1.299467964411114e+001
 1.388632705639001e+000	 8.678164891528837e-001	 1.295233076998580e+001
 1.379683702953281e+000	 8.819745630216976e-001	 1.291469233887745e+001
 1.370580149617666e+000	 8.960559711772977e-001	 1.288260840681603e+001
 1.460116836231057e+000	 7.549654873557220e-001	 1.334740615914694e+001
 1.452402534711281e+000	 7.697018511761850e-001	 1.329250142679415e+001
 1.444527431630141e+000	 7.843816429546138e-001	 1.323712079447557e+001
 1.436492046395133e+000	 7.990022923472975e-001	 1.318187855126127e+001
 1.428296952122129e+000	 8.135612325376178e-001	 1.312742274903951e+001
 1.419942775722581e+000	 8.280559016151787e-001	 1.307443524628935e+001
 1.411430197948874e+000	 8.424837439628549e-001	 1.302363165867295e+001
 1.402759953397341e+000	 8.568422116502800e-001	 1.297576121417734e+001
 1.393932830468572e+000	 8.711287658323029e-001	 1.293160651080004e+001
 1.384949671284631e+000	 8.853408781508892e-001	 1.289198317504421e+001
 1.375811371562942e+000	 8.994760321389431e-001	 1.285773941977715e+001
 1.465668611271842e+000	 7.578360785627255e-001	 1.333492088035050e+001
 1.457924977806841e+000	 7.726284741853117e-001	 1.327949770163235e+001
 1.450019931367805e+000	 7.873640826629625e-001	 1.322340889875217e+001
 1.441953993337160e+000	 8.020403238787969e-001	 1.316726781917709e+001
 1.433727739009929e+000	 8.166546212564366e-001	 1.311172227616565e+001
 1.425341797681257e+000	 8.312044031443822e-001	 1.305745460519751e+001
 1.416796852691943e+000	 8.456871042083315e-001	 1.300518162580391e+001
 1.408093641431462e+000	 8.601001668299699e-001	 1.295565450648005e+001
 1.399232955298123e+000	 8.744410425107425e-001	 1.290965853062354e+001
 1.390215639615977e+000	 8.887071932790862e-001	 1.286801276172386e+001
 1.381042593508219e+000	 9.028960930995881e-001	 1.283156960631529e+001
 1.471220386312124e+000	 7.607066697692330e-001	 1.332146699218889e+001
 1.463447420901993e+000	 7.755550971938470e-001	 1.326550608651005e+001
 1.455512431105144e+000	 7.903465223706347e-001	 1.320868760834398e+001
 1.447415940278940e+000	 8.050783554095444e-001	 1.315162395744796e+001
 1.439158525897546e+000	 8.197480099744386e-001	 1.309496270818264e+001
 1.430740819639807e+000	 8.343529046727126e-001	 1.303938667869826e+001
 1.422163507434931e+000	 8.488904644528894e-001	 1.298561390409233e+001
 1.413427329465536e+000	 8.633581220087055e-001	 1.293439751116794e+001
 1.404533080127653e+000	 8.777533191882024e-001	 1.288652549269051e+001
 1.395481607947318e+000	 8.920735084062880e-001	 1.284282037932274e+001
 1.386273815453495e+000	 9.063161540592332e-001	 1.280413880771147e+001
 1.476772161351901e+000	 7.635772609752441e-001	 1.330707663641490e+001
 1.468969863996737e+000	 7.784817202017915e-001	 1.325055976571770e+001
 1.461004930842162e+000	 7.933289620776308e-001	 1.319299109848251e+001
 1.452877887220471e+000	 8.081163869395404e-001	 1.313498207993219e+001
 1.444589312784981e+000	 8.228413986916229e-001	 1.307718004458861e+001
 1.436139841598230e+000	 8.375014062001700e-001	 1.302026829831650e+001
 1.427530162177837e+000	 8.520938246965284e-001	 1.296496610289716e+001
 1.418761017499565e+000	 8.666160771864869e-001	 1.291202856071066e+001
 1.409833204957163e+000	 8.810655958646827e-001	 1.286224639737597e+001
 1.400747576278654e+000	 8.954398235324949e-001	 1.281644564048431e+001
 1.391505037398771e+000	 9.097362150178784e-001	 1.277548719286004e+001
 1.482323936391174e+000	 7.664478521807593e-001	 1.329178233357458e+001
 1.474492307091071e+000	 7.814083432091443e-001	 1.323469229545770e+001
 1.466497430578854e+000	 7.963114017839500e-001	 1.317635390967485e+001
 1.458339834161754e+000	 8.111544184687838e-001	 1.311737765937640e+001
 1.450020099672234e+000	 8.259347874079892e-001	 1.305841063763618e+001
 1.441538863556526e+000	 8.406499077267543e-001	 1.300013664245457e+001
 1.432896816920662e+000	 8.552971849392489e-001	 1.294327617283891e+001
 1.424094705533547e+000	 8.698740323633144e-001	 1.288858632348796e+001
 1.415133329786652e+000	 8.843778725401835e-001	 1.283686057588172e+001
 1.406013544609984e+000	 8.988061386577069e-001	 1.278892848386716e+001
 1.396736259344047e+000	 9.131562759755235e-001	 1.274565525213355e+001
 1.487875711429944e+000	 7.693184433857784e-001	 1.327561697594022e+001
 1.480014750184997e+000	 7.843349662159063e-001	 1.321793759690587e+001
 1.471989930315223e+000	 7.992938414895926e-001	 1.315881094088897e+001
 1.463801781102789e+000	 8.141924499972755e-001	 1.309884652072003e+001
 1.455450886559305e+000	 8.290281761235387e-001	 1.303869118575116e+001
 1.446937885514695e+000	 8.437984092524653e-001	 1.297902922992077e+001
 1.438263471663406e+000	 8.585005451810509e-001	 1.292058239943284e+001
 1.429428393567484e+000	 8.731319875391874e-001	 1.286410979752285e+001
 1.420433454616121e+000	 8.876901492147048e-001	 1.281040768406463e+001
 1.411279512941310e+000	 9.021724537819241e-001	 1.276030916806299e+001
 1.401967481289323e+000	 9.165763369321685e-001	 1.271468379138523e+001
 1.493427486468210e+000	 7.721890345903014e-001	 1.325861382060103e+001
 1.485537193278513e+000	 7.872615892220769e-001	 1.320032994942742e+001
 1.477482430051269e+000	 8.022762811945591e-001	 1.314039744289064e+001
 1.469263728043575e+000	 8.172304815250151e-001	 1.307942483454890e+001
 1.460881673446192e+000	 8.321215648382703e-001	 1.301805872709786e+001
 1.452336907472737e+000	 8.469469107773033e-001	 1.295698391360200e+001
 1.443630126406069e+000	 8.617039054219339e-001	 1.289692339686412e+001
 1.434762081601375e+000	 8.763899427141064e-001	 1.283863830435447e+001
 1.425733579445569e+000	 8.910024258882461e-001	 1.278292769640190e+001
 1.416545481272630e+000	 9.055387689051464e-001	 1.273062826564960e+001
 1.407198703234599e+000	 9.199963978878137e-001	 1.268261392608464e+001
 1.498979261505972e+000	 7.750596257943284e-001	 1.324080648270711e+001
 1.491059636371622e+000	 7.901882122276567e-001	 1.318190398394390e+001
 1.482974929786992e+000	 8.052587208988491e-001	 1.312114901172882e+001
 1.474725674984115e+000	 8.202685130520029e-001	 1.305914911069417e+001
 1.466312460332897e+000	 8.352149535521846e-001	 1.299655063328796e+001
 1.457735929430652e+000	 8.500954123012681e-001	 1.293403887427708e+001
 1.448996781148650e+000	 8.649072656618985e-001	 1.287233810190153e+001
 1.440095769635220e+000	 8.796478978880713e-001	 1.281221148304696e+001
 1.431033704274998e+000	 8.943147025608081e-001	 1.275446090009080e+001
 1.421811449603946e+000	 9.089050840273738e-001	 1.269992665737633e+001
 1.412429925179876e+000	 9.234164588424588e-001	 1.264948707558449e+001
 1.360117705727114e+000	 8.892158492510077e-001	 1.292828621236904e+001
 1.350931212606096e+000	 9.031112106444003e-001	 1.276723131368288e+001
 1.341593277849401e+000	 9.169255568522285e-001	 1.262763929324962e+001
 1.332104944729536e+000	 9.306564437009891e-001	 1.251107763618875e+001
 1.322467308572240e+000	 9.443014443118293e-001	 1.241913221397270e+001
 1.312681516415462e+000	 9.578581504746034e-001	 1.235340561634868e+001
 1.302748766625122e+000	 9.713241740144702e-001	 1.231551539368952e+001
 1.292670308467809e+000	 9.846971481494502e-001	 1.230709221185702e+001
 1.282447441640643e+000	 9.979747288373698e-001	 1.232977792198352e+001
 1.272081515758596e+000	 1.011154596110625e+000	 1.238522354789401e+001
 1.261573929799644e+000	 1.024234455397201e+000	 1.247508719420363e+001
 1.365348927672390e+000	 8.926359102146527e-001	 1.290613706004039e+001
 1.356127101886189e+000	 9.065847153054328e-001	 1.275001031856152e+001
 1.346753251996274e+000	 9.204521936137222e-001	 1.261539356627563e+001
 1.337228425287739e+000	 9.342358915653497e-001	 1.250383499893392e+001
 1.327553721299114e+000	 9.479333729473136e-001	 1.241690158410098e+001
 1.317730291480030e+000	 9.615422202871208e-001	 1.235617741452672e+001
 1.307759338805510e+000	 9.750600362246430e-001	 1.232326197086253e+001
 1.297642117347011e+000	 9.884844448748918e-001	 1.231976829575928e+001
 1.287379931800489e+000	 1.001813093180148e+000	 1.234732108171263e+001
 1.276974136971742e+000	 1.015043652249855e+000	 1.240755467533925e+001
 1.266426137219430e+000	 1.028173818686721e+000	 1.250211100108680e+001
 1.370580149617666e+000	 8.960559711772977e-001	 1.288260840681603e+001
 1.361322991166286e+000	 9.100582199654754e-001	 1.273104060397168e+001
 1.351913226143166e+000	 9.239788303742552e-001	 1.260102614220405e+001
 1.342351905845987e+000	 9.378153394287996e-001	 1.249409413460208e+001
 1.332640134026067e+000	 9.515653015819567e-001	 1.241179285945225e+001
 1.322779066544725e+000	 9.652262900988868e-001	 1.235568813490592e+001
 1.312769910986078e+000	 9.787958984341736e-001	 1.232736160188850e+001
 1.302613926226458e+000	 9.922717415998218e-001	 1.232840891724513e+001
 1.292312421960654e+000	 1.005651457522564e+000	 1.236043785944570e+001
 1.281866758185291e+000	 1.018932708388893e+000	 1.242506634949671e+001
 1.271278344639713e+000	 1.032113181976238e+000	 1.252392039002617e+001
 1.375811371562942e+000	 8.994760321389431e-001	 1.285773941977715e+001
 1.366518880446388e+000	 9.135317246245276e-001	 1.271036557581091e+001
 1.357073200290078e+000	 9.275054671338279e-001	 1.258458463012537e+001
 1.347475386404279e+000	 9.413947872913386e-001	 1.248190681790261e+001
 1.337726546753100e+000	 9.551972302157585e-001	 1.240386194086316e+001
 1.327827841609542e+000	 9.689103599099015e-001	 1.235199776307540e+001
 1.317780483166824e+000	 9.825317606430626e-001	 1.232787831388887e+001
 1.307585735106148e+000	 9.960590383242395e-001	 1.233308209994147e+001
 1.297244912121137e+000	 1.009489821864618e+000	 1.236920022852265e+001
 1.286759379399243e+000	 1.022821764527738e+000	 1.243783444490174e+001
 1.276130552060496e+000	 1.036052545265752e+000	 1.254059508655530e+001
 1.381042593508219e+000	 9.028960930995881e-001	 1.283156960631529e+001
 1.371714769726496e+000	 9.170052292825901e-001	 1.268802891932903e+001
 1.362233174437010e+000	 9.310321038924407e-001	 1.256611685749041e+001
 1.352598866962616e+000	 9.449742351529673e-001	 1.246732498090764e+001
 1.342812959480212e+000	 9.588291588487194e-001	 1.239316482555856e+001
 1.332876616674484e+000	 9.725944297201645e-001	 1.234516632009115e+001
 1.322791055347750e+000	 9.862676228513095e-001	 1.232487610861279e+001
 1.312557543986082e+000	 9.998463350481446e-001	 1.233385578137545e+001
 1.302177402281940e+000	 1.013328186206309e+000	 1.237368001559593e+001
 1.291652000613600e+000	 1.026710820666390e+000	 1.244593462898499e+001
 1.280982759481778e+000	 1.039991908555264e+000	 1.255221454888510e+001
 1.386273815453495e+000	 9.063161540592332e-001	 1.280413880771147e+001
 1.376910659006608e+000	 9.204787339396621e-001	 1.266407459385767e+001
 1.367393148583962e+000	 9.345587406500928e-001	 1.254567086599029e+001
 1.357722347520998e+000	 9.485536830136853e-001	 1.245040071008270e+001
 1.347899372207404e+000	 9.624610874808395e-001	 1.237975760533334e+001
 1.337925391739551e+000	 9.762784995296759e-001	 1.233525386180720e+001
 1.327801627528855e+000	 9.900034850589146e-001	 1.231841896291606e+001
 1.317529352866261e+000	 1.003633631771538e+000	 1.233079781459831e+001
 1.307109892443061e+000	 1.017166550547638e+000	 1.237394890339811e+001
 1.296544621828361e+000	 1.030599876804850e+000	 1.244944236598023e+001
 1.285834966903558e+000	 1.043931271844773e+000	 1.255885797294726e+001
 1.391505037398771e+000	 9.097362150178784e-001	 1.277548719286004e+001
 1.382106548286726e+000	 9.239522385957446e-001	 1.263854682765819e+001
 1.372553122730934e+000	 9.380853774067849e-001	 1.252329490752908e+001
 1.362845828079424e+000	 9.521331308734923e-001	 1.243118624338452e+001
 1.352985784934675e+000	 9.660930161121181e-001	 1.236369646477421e+001
 1.342974166804741e+000	 9.799625693384363e-001	 1.232232047822135e+001
 1.332812199710139e+000	 9.937393472658779e-001	 1.230857082922896e+001
 1.322501161746683e+000	 1.007420928494418e+000	 1.232397596977367e+001
 1.312042382604500e+000	 1.021004914888604e+000	 1.237007843344732e+001
 1.301437243043525e+000	 1.034488932943117e+000	 1.244843292074337e+001
 1.290687174325837e+000	 1.047870635134279e+000	 1.256060429732507e+001
 1.396736259344047e+000	 9.131562759755235e-001	 1.274565525213355e+001
 1.387302437566847e+000	 9.274257432508363e-001	 1.261149011288560e+001
 1.377713096877926e+000	 9.416120141625164e-001	 1.249903744028769e+001
 1.367969308637894e+000	 9.557125787323889e-001	 1.240973396742441e+001
 1.358072197662025e+000	 9.697249447425560e-001	 1.234503767952258e+001
 1.348022941870056e+000	 9.836466391464446e-001	 1.230642629283589e+001
 1.337822771891601e+000	 9.974752094721994e-001	 1.229539563601341e+001
 1.327472970627348e+000	 1.011208225216787e+000	 1.231345793572973e+001
 1.316974872766259e+000	 1.024843279229208e+000	 1.236214000869171e+001
 1.306329864259092e+000	 1.038377989081191e+000	 1.244298136248654e+001
 1.295539381748614e+000	 1.051809998423783e+000	 1.255753220807202e+001
 1.401967481289323e+000	 9.165763369321685e-001	 1.271468379138523e+001
 1.392498326846974e+000	 9.308992479049383e-001	 1.258294920066528e+001
 1.382873071024937e+000	 9.451386509172874e-001	 1.247294712487501e+001
 1.373092789196410e+000	 9.592920265903747e-001	 1.238609641469420e+001
 1.363158610389456e+000	 9.733568733721523e-001	 1.232383761457560e+001
 1.353071716935495e+000	 9.873307089537017e-001	 1.228763146203233e+001
 1.342833344073243e+000	 1.001211071677878e+000	 1.227895728821054e+001
 1.332444779508258e+000	 1.014995521938644e+000	 1.229931132147621e+001
 1.321907362928336e+000	 1.028681643569449e+000	 1.235020489609452e+001
 1.311222485475064e+000	 1.042267045219073e+000	 1.243316256842796e+001
 1.300391589171890e+000	 1.055749361713284e+000	 1.254972014342344e+001
 1.407198703234599e+000	 9.199963978878137e-001	 1.268261392608464e+001
 1.397694216127106e+000	 9.343727525580499e-001	 1.255296909627914e+001
 1.388033045171968e+000	 9.486652876710983e-001	 1.244507282056552e+001
 1.378216269754970e+000	 9.628714744474499e-001	 1.236032626085573e+001
 1.368245023116965e+000	 9.769888020009080e-001	 1.230015272262498e+001
 1.358120492001058e+000	 9.910147787602072e-001	 1.226599617446052e+001
 1.347843916255064e+000	 1.004946933882916e+000	 1.225931966767772e+001
 1.337416588389412e+000	 1.018782818659988e+000	 1.228160365768880e+001
 1.326839853090733e+000	 1.032520007909328e+000	 1.233434422916188e+001
 1.316115106691439e+000	 1.046156101356762e+000	 1.241905122736059e+001
 1.305243796595665e+000	 1.059688725002782e+000	 1.253724629840290e+001
 1.412429925179876e+000	 9.234164588424588e-001	 1.264948707558449e+001
 1.402890105407243e+000	 9.378462572101717e-001	 1.252159505445934e+001
 1.393193019319020e+000	 9.521919244239487e-001	 1.241546358162023e+001
 1.383339750313575e+000	 9.664509223036143e-001	 1.233247632208857e+001
 1.373331435844554e+000	 9.806207306288224e-001	 1.227403954243336e+001
 1.363169267066746e+000	 9.946988485659613e-001	 1.224158065044072e+001
 1.352854488437064e+000	 1.008682796087312e+000	 1.223654663361593e+001
 1.342388397270810e+000	 1.022570115380820e+000	 1.226040239815924e+001
 1.331772343253448e+000	 1.036358372248844e+000	 1.231462901041413e+001
 1.321007727908218e+000	 1.050045157494259e+000	 1.240072184314160e+001
 1.310096004019939e+000	 1.063628088292278e+000	 1.252018862932569e+001
 1.261573929799644e+000	 1.024234455397201e+000	 1.247508719420363e+001
 1.250926131507804e+000	 1.037212038826515e+000	 1.222568762412365e+001
 1.240139616755600e+000	 1.050085106518235e+000	 1.207885094279658e+001
 1.229215928865859e+000	 1.062851447852705e+000	 1.194662325357987e+001
 1.218156657892713e+000	 1.075508882721776e+000	 1.182027409994513e+001
 1.206963439863533e+000	 1.088055262758227e+000	 1.169969222823130e+001
 1.195637955982198e+000	 1.100488472542438e+000	 1.158474971096984e+001
 1.184181931794503e+000	 1.112806430784898e+000	 1.147530208306965e+001
 1.172597136316575e+000	 1.125007091483167e+000	 1.137118851696456e+001
 1.160885381127190e+000	 1.137088445051956e+000	 1.127223203647156e+001
 1.149048519425000e+000	 1.149048519425000e+000	 1.117823976899403e+001
 1.266426137219430e+000	 1.028173818686721e+000	 1.250211100108680e+001
 1.255737385856008e+000	 1.041201315897632e+000	 1.225022005112233e+001
 1.244909384507549e+000	 1.054123895387383e+000	 1.205958977686096e+001
 1.233943682432739e+000	 1.066939338033935e+000	 1.192929121459699e+001
 1.222841875801302e+000	 1.079645455344106e+000	 1.180525482074904e+001
 1.211605606933020e+000	 1.092240090687725e+000	 1.168738195954122e+001
 1.200236563497944e+000	 1.104721120508944e+000	 1.157555689775190e+001
 1.188736477678584e+000	 1.117086455513291e+000	 1.146964692706623e+001
 1.177107125294972e+000	 1.129334041829087e+000	 1.136950252612242e+001
 1.165350324893497e+000	 1.141461862141868e+000	 1.127495756202562e+001
 1.153467936800500e+000	 1.153467936800500e+000	 1.118582953098435e+001
 1.271278344639713e+000	 1.032113181976238e+000	 1.252392039002617e+001
 1.260548640204806e+000	 1.045190592968937e+000	 1.226964863477645e+001
 1.249679152260178e+000	 1.058162684256890e+000	 1.203449346705511e+001
 1.238671436000373e+000	 1.071027228215672e+000	 1.190627413643048e+001
 1.227527093710709e+000	 1.083782027967074e+000	 1.178470297885308e+001
 1.216247774003382e+000	 1.096424918617973e+000	 1.166969390072662e+001
 1.204835171014610e+000	 1.108953768476290e+000	 1.156114328445966e+001
 1.193291023563618e+000	 1.121366480242594e+000	 1.145893009705284e+001
 1.181617114274349e+000	 1.133660992175967e+000	 1.136291603911764e+001
 1.169815268660801e+000	 1.145835279232771e+000	 1.127294573412347e+001
 1.157887354177000e+000	 1.157887354177000e+000	 1.118884695755046e+001
 1.276130552060496e+000	 1.036052545265752e+000	 1.254059508655530e+001
 1.265359894554197e+000	 1.049179870040430e+000	 1.228405111460202e+001
 1.254448920013485e+000	 1.062201473126753e+000	 1.204391221832298e+001
 1.243399189568761e+000	 1.075115118397918e+000	 1.187756376337412e+001
 1.232212311620936e+000	 1.087918600590681e+000	 1.175860849236690e+001
 1.220889941074618e+000	 1.100609746548969e+000	 1.164661616299568e+001
 1.209433778532196e+000	 1.113186416444475e+000	 1.154149519554750e+001
 1.197845569449608e+000	 1.125646504972806e+000	 1.144313615172621e+001
 1.186127103254706e+000	 1.137987942523807e+000	 1.135141187071539e+001
 1.174280212429099e+000	 1.150208696324663e+000	 1.126617764623690e+001
 1.162306771554500e+000	 1.162306771554500e+000	 1.118727144430165e+001
 1.280982759481778e+000	 1.039991908555264e+000	 1.255221454888510e+001
 1.270171148904182e+000	 1.053169147112110e+000	 1.229350499045727e+001
 1.259218687767471e+000	 1.066240261996975e+000	 1.205136409791993e+001
 1.248126943137903e+000	 1.079203008580672e+000	 1.184315165513076e+001
 1.236897529531981e+000	 1.092055173214926e+000	 1.172696112218364e+001
 1.225532108146729e+000	 1.104794574480714e+000	 1.161813672759183e+001
 1.214032386050700e+000	 1.117419064413498e+000	 1.151659885262031e+001
 1.202400115336553e+000	 1.129926529703928e+000	 1.142224957389859e+001
 1.190637092236043e+000	 1.142314892872606e+000	 1.133497278659907e+001
 1.178745156198392e+000	 1.154582113417545e+000	 1.125463436938259e+001
 1.166726188933000e+000	 1.166726188933000e+000	 1.118108239083005e+001
 1.285834966903558e+000	 1.043931271844773e+000	 1.255885797294726e+001
 1.274982403254761e+000	 1.057158424183977e+000	 1.229808752706446e+001
 1.263988455522137e+000	 1.070279050867554e+000	 1.205404591342542e+001
 1.252854696707799e+000	 1.083290898763934e+000	 1.182796933950149e+001
 1.241582747443846e+000	 1.096191745839810e+000	 1.168975047494662e+001
 1.230174275219714e+000	 1.108979402413208e+000	 1.158424344824574e+001
 1.218630993570125e+000	 1.121651712383361e+000	 1.148644037637380e+001
 1.206954661224452e+000	 1.134206554435960e+000	 1.139625477192995e+001
 1.195147081218360e+000	 1.146641843222365e+000	 1.131358150429615e+001
 1.183210099968679e+000	 1.158955530511417e+000	 1.123829695254562e+001
 1.171145606312500e+000	 1.171145606312500e+000	 1.117025920063546e+001
 1.290687174325837e+000	 1.047870635134279e+000	 1.256060429732507e+001
 1.279793657605934e+000	 1.061147701256031e+000	 1.229787575842977e+001
 1.268758223277480e+000	 1.074317839738491e+000	 1.205203276311244e+001
 1.257582450278449e+000	 1.087378788947703e+000	 1.182433879202627e+001
 1.246267965356531e+000	 1.100328318465332e+000	 1.164696600594844e+001
 1.234816442293573e+000	 1.113164230346451e+000	 1.154492405357271e+001
 1.223229601090470e+000	 1.125884360354063e+000	 1.145100578849130e+001
 1.211509207113307e+000	 1.138486579168901e+000	 1.136513608112690e+001
 1.199657070201657e+000	 1.150968793573085e+000	 1.128722069408379e+001
 1.187675043739963e+000	 1.163328947606280e+000	 1.121714642309401e+001
 1.175565023693000e+000	 1.175565023693000e+000	 1.115478128105194e+001
 1.295539381748614e+000	 1.051809998423783e+000	 1.255753220807202e+001
 1.284604911957700e+000	 1.065136978328273e+000	 1.229294649216369e+001
 1.273527991033503e+000	 1.078356628609786e+000	 1.204539954491390e+001
 1.262310203849854e+000	 1.091466679131981e+000	 1.181618215754765e+001
 1.250953183270034e+000	 1.104464891091493e+000	 1.160660752354853e+001
 1.239458609368307e+000	 1.117349058280442e+000	 1.150016614941516e+001
 1.227828208611734e+000	 1.130117008325605e+000	 1.141028101349806e+001
 1.216063753003115e+000	 1.142766603902752e+000	 1.132887776511144e+001
 1.204167059185934e+000	 1.155295743924763e+000	 1.125587297987329e+001
 1.192139987512241e+000	 1.167702364702132e+000	 1.119116378718294e+001
 1.179984441074500e+000	 1.179984441074500e+000	 1.113462804317593e+001
 1.300391589171890e+000	 1.055749361713284e+000	 1.254972014342344e+001
 1.289416166310060e+000	 1.069126255400703e+000	 1.228337631370510e+001
 1.278297758790205e+000	 1.082395417481438e+000	 1.203422096016003e+001
 1.267037957422011e+000	 1.095554569316767e+000	 1.180357222317390e+001
 1.255638401184356e+000	 1.108601463718291e+000	 1.159277109054560e+001
 1.244100776443915e+000	 1.121533886215182e+000	 1.144995722113337e+001
 1.232426816133917e+000	 1.134349656297985e+000	 1.136425188057411e+001
 1.220618298893879e+000	 1.147046628637511e+000	 1.128746401715763e+001
 1.208677048171190e+000	 1.159622694277402e+000	 1.121952094007536e+001
 1.196604931285514e+000	 1.172075781798974e+000	 1.116033003015112e+001
 1.184403858457000e+000	 1.184403858457000e+000	 1.110977890179603e+001
 1.305243796595665e+000	 1.059688725002782e+000	 1.253724629840290e+001
 1.294227420663014e+000	 1.073115532473319e+000	 1.226924159045057e+001
 1.283067526547585e+000	 1.086434206353448e+000	 1.201857151723289e+001
 1.271765710994924e+000	 1.099642459502062e+000	 1.178658160807140e+001
 1.260323619099499e+000	 1.112738036345729e+000	 1.157464069172154e+001
 1.248742943520398e+000	 1.125718714150671e+000	 1.139428463584496e+001
 1.237025423657020e+000	 1.138582304271205e+000	 1.131290412532591e+001
 1.225172844785597e+000	 1.151326653373181e+000	 1.124087896149963e+001
 1.213187037157426e+000	 1.163949644631000e+000	 1.117814710844572e+001
 1.201069875059781e+000	 1.176449198896806e+000	 1.112462611690726e+001
 1.188823275840500e+000	 1.188823275840500e+000	 1.108021327532461e+001
 1.310096004019939e+000	 1.063628088292278e+000	 1.252018862932569e+001
 1.299038675016562e+000	 1.077104809546124e+000	 1.225061847579243e+001
 1.287837294305645e+000	 1.090472995225815e+000	 1.199852553513929e+001
 1.276493464568590e+000	 1.103730349687863e+000	 1.176528276657432e+001
 1.265008837015460e+000	 1.116874608973804e+000	 1.155228688766360e+001
 1.253385110597755e+000	 1.129903542086910e+000	 1.136095626388990e+001
 1.241624031181043e+000	 1.142814952245264e+000	 1.125622339151973e+001
 1.229727390678271e+000	 1.155606678109761e+000	 1.118910665461020e+001
 1.217697026144643e+000	 1.168276594985559e+000	 1.113173397491210e+001
 1.205534818835045e+000	 1.180822615995628e+000	 1.108403299230884e+001
 1.193242693225000e+000	 1.193242693225000e+000	 1.104591058573045e+001
 1.149048519425000e+000	 1.149048519425000e+000	 1.117823976899403e+001
 1.137088445051956e+000	 1.160885381127190e+000	 1.095544899226751e+001
 1.125007091483167e+000	 1.172597136316574e+000	 1.078930646860069e+001
 1.112806430784898e+000	 1.184181931794503e+000	 1.068043210612925e+001
 1.100488472542439e+000	 1.195637955982198e+000	 1.062938133989457e+001
 1.088055262758227e+000	 1.206963439863533e+000	 1.063664474613424e+001
 1.075508882721776e+000	 1.218156657892713e+000	 1.070264775880938e+001
 1.062851447852705e+000	 1.229215928865858e+000	 1.082775048839618e+001
 1.050085106518235e+000	 1.240139616755599e+000	 1.101224764271840e+001
 1.037212038826515e+000	 1.250926131507804e+000	 1.117375469266253e+001
 1.024234455397201e+000	 1.261573929799644e+000	 1.050383890505887e+001
 1.153467936800500e+000	 1.153467936800500e+000	 1.118582953098435e+001
 1.141461862141868e+000	 1.165350324893497e+000	 1.098081705307126e+001
 1.129334041829087e+000	 1.177107125294972e+000	 1.083545573413384e+001
 1.117086455513291e+000	 1.188736477678584e+000	 1.075043434918748e+001
 1.104721120508944e+000	 1.200236563497944e+000	 1.072637404905501e+001
 1.092240090687726e+000	 1.211605606933020e+000	 1.076382790667150e+001
 1.079645455344106e+000	 1.222841875801302e+000	 1.086328057020115e+001
 1.066939338033935e+000	 1.233943682432739e+000	 1.102514802309094e+001
 1.054123895387383e+000	 1.244909384507549e+000	 1.124977745092552e+001
 1.041201315897632e+000	 1.255737385856008e+000	 1.102951014759035e+001
 1.028173818686721e+000	 1.266426137219430e+000	 1.039981229700714e+001
 1.157887354177000e+000	 1.157887354177000e+000	 1.118884695755046e+001
 1.145835279232771e+000	 1.169815268660801e+000	 1.100250599675791e+001
 1.133660992175967e+000	 1.181617114274349e+000	 1.087880159767534e+001
 1.121366480242594e+000	 1.193291023563618e+000	 1.081849096884899e+001
 1.108953768476290e+000	 1.204835171014610e+000	 1.082226055403035e+001
 1.096424918617973e+000	 1.216247774003382e+000	 1.089072551088127e+001
 1.083782027967074e+000	 1.227527093710709e+000	 1.102442930105456e+001
 1.071027228215672e+000	 1.238671436000373e+000	 1.122384339187074e+001
 1.058162684256889e+000	 1.249679152260178e+000	 1.148936706954178e+001
 1.045190592968937e+000	 1.260548640204806e+000	 1.089456515730007e+001
 1.032113181976238e+000	 1.271278344639714e+000	 1.030573888642661e+001
 1.162306771554500e+000	 1.162306771554500e+000	 1.118727144430165e+001
 1.150208696324663e+000	 1.174280212429099e+000	 1.102048525915266e+001
 1.137987942523807e+000	 1.186127103254706e+000	 1.091930377914316e+001
 1.125646504972806e+000	 1.197845569449608e+000	 1.088455221757008e+001
 1.113186416444475e+000	 1.209433778532196e+000	 1.091698189266434e+001
 1.100609746548969e+000	 1.220889941074618e+000	 1.101726963907751e+001
 1.087918600590681e+000	 1.232212311620936e+000	 1.118601733529489e+001
 1.075115118397918e+000	 1.243399189568761e+000	 1.142375154729339e+001
 1.062201473126754e+000	 1.254448920013485e+000	 1.135252088192335e+001
 1.049179870040430e+000	 1.265359894554197e+000	 1.076886124228276e+001
 1.036052545265752e+000	 1.276130552060497e+000	 1.022155207490330e+001
 1.166726188933000e+000	 1.166726188933000e+000	 1.118108239083005e+001
 1.154582113417545e+000	 1.178745156198392e+000	 1.103472443184775e+001
 1.142314892872606e+000	 1.190637092236043e+000	 1.095692230247412e+001
 1.129926529703929e+000	 1.202400115336553e+000	 1.094856879647682e+001
 1.117419064413498e+000	 1.214032386050700e+000	 1.101047969245223e+001
 1.104794574480714e+000	 1.225532108146729e+000	 1.114339309847001e+001
 1.092055173214926e+000	 1.236897529531981e+000	 1.134796891718811e+001
 1.079203008580672e+000	 1.248126943137903e+000	 1.162478843184306e+001
 1.066240261996975e+000	 1.259218687767472e+000	 1.119668357090684e+001
 1.053169147112109e+000	 1.270171148904182e+000	 1.065234116031433e+001
 1.039991908555264e+000	 1.280982759481778e+000	 1.014718661897345e+001
 1.171145606312500e+000	 1.171145606312500e+000	 1.117025920063546e+001
 1.158955530511417e+000	 1.183210099968679e+000	 1.104519325926291e+001
 1.146641843222365e+000	 1.195147081218360e+000	 1.099161748988837e+001
 1.134206554435960e+000	 1.206954661224452e+000	 1.101049184690067e+001
 1.121651712383361e+000	 1.218630993570125e+000	 1.110269615941456e+001
 1.108979402413208e+000	 1.230174275219714e+000	 1.126902940945025e+001
 1.096191745839810e+000	 1.241582747443846e+000	 1.151020913510924e+001
 1.083290898763934e+000	 1.252854696707799e+000	 1.159420602644152e+001
 1.070279050867554e+000	 1.263988455522137e+000	 1.104931952731243e+001
 1.057158424183976e+000	 1.274982403254761e+000	 1.054494888311089e+001
 1.043931271844773e+000	 1.285834966903558e+000	 1.008257860455753e+001
 1.175565023693000e+000	 1.175565023693000e+000	 1.115478128105194e+001
 1.163328947606280e+000	 1.187675043739963e+000	 1.105186163577272e+001
 1.150968793573085e+000	 1.199657070201657e+000	 1.102334995628235e+001
 1.138486579168901e+000	 1.211509207113306e+000	 1.107027294210282e+001
 1.125884360354064e+000	 1.223229601090470e+000	 1.119357406722334e+001
 1.113164230346451e+000	 1.234816442293573e+000	 1.139411279218432e+001
 1.100328318465332e+000	 1.246267965356530e+000	 1.167266390567517e+001
 1.087378788947704e+000	 1.257582450278449e+000	 1.141737945077008e+001
 1.074317839738491e+000	 1.268758223277480e+000	 1.091038193025737e+001
 1.061147701256031e+000	 1.279793657605934e+000	 1.044662957351033e+001
 1.047870635134279e+000	 1.290687174325837e+000	 1.002766542197211e+001
 1.179984441074500e+000	 1.179984441074500e+000	 1.113462804317593e+001
 1.167702364702131e+000	 1.192139987512241e+000	 1.105469960289873e+001
 1.155295743924763e+000	 1.204167059185933e+000	 1.105208060374799e+001
 1.142766603902751e+000	 1.216063753003115e+000	 1.112786407918649e+001
 1.130117008325605e+000	 1.227828208611734e+000	 1.128305674657132e+001
 1.117349058280442e+000	 1.239458609368307e+000	 1.151857815350957e+001
 1.104464891091493e+000	 1.250953183270034e+000	 1.176103148239726e+001
 1.091466679131981e+000	 1.262310203849853e+000	 1.124827071892166e+001
 1.078356628609785e+000	 1.273527991033503e+000	 1.077982501271662e+001
 1.065136978328273e+000	 1.284604911957700e+000	 1.035732956316651e+001
 1.051809998423783e+000	 1.295539381748614e+000	 9.982385741502954e+000
 1.184403858457000e+000	 1.184403858457000e+000	 1.110977890179603e+001
 1.172075781798974e+000	 1.196604931285514e+000	 1.105367734656403e+001
 1.159622694277402e+000	 1.208677048171189e+000	 1.107777061621457e+001
 1.147046628637511e+000	 1.220618298893879e+000	 1.118321767118906e+001
 1.134349656297985e+000	 1.232426816133917e+000	 1.137108807478012e+001
 1.121533886215182e+000	 1.244100776443915e+000	 1.164236107412328e+001
 1.108601463718291e+000	 1.255638401184356e+000	 1.156301751637767e+001
 1.095554569316767e+000	 1.267037957422011e+000	 1.108684311909530e+001
 1.082395417481438e+000	 1.278297758790205e+000	 1.065760404186205e+001
 1.069126255400703e+000	 1.289416166310060e+000	 1.027699633074294e+001
 1.055749361713284e+000	 1.300391589171890e+000	 9.946679489525051e+000
 1.188823275840500e+000	 1.188823275840500e+000	 1.108021327532461e+001
 1.176449198896806e+000	 1.201069875059781e+000	 1.104876519440894e+001
 1.163949644631001e+000	 1.213187037157426e+000	 1.110038145421007e+001
 1.151326653373181e+000	 1.225172844785597e+000	 1.123628653935090e+001
 1.138582304271205e+000	 1.237025423657020e+000	 1.145761246563959e+001
 1.125718714150671e+000	 1.248742943520397e+000	 1.176539779605747e+001
 1.112738036345729e+000	 1.260323619099498e+000	 1.137197841912554e+001
 1.099642459502062e+000	 1.271765710994924e+000	 1.093306084013165e+001
 1.086434206353448e+000	 1.283067526547585e+000	 1.054367529983920e+001
 1.073115532473319e+000	 1.294227420663014e+000	 1.020557848059305e+001
 1.059688725002782e+000	 1.305243796595665e+000	 9.920487825155263e+000
 1.193242693225000e+000	 1.193242693225000e+000	 1.104591058573045e+001
 1.180822615995628e+000	 1.205534818835045e+000	 1.103993361316731e+001
 1.168276594985559e+000	 1.217697026144643e+000	 1.111987484973912e+001
 1.155606678109760e+000	 1.229727390678270e+000	 1.128702390555631e+001
 1.142814952245264e+000	 1.241624031181043e+000	 1.154257485947343e+001
 1.129903542086909e+000	 1.253385110597755e+000	 1.163913449369671e+001
 1.116874608973804e+000	 1.265008837015459e+000	 1.118788727952640e+001
 1.103730349687863e+000	 1.276493464568590e+000	 1.078688895483455e+001
 1.090472995225815e+000	 1.287837294305645e+000	 1.043799606497140e+001
 1.077104809546124e+000	 1.299038675016561e+000	 1.014302572191381e+001
 1.063628088292278e+000	 1.310096004019939e+000	 9.903753117423596e+000
 1.024234455397201e+000	 1.261573929799644e+000	 1.050383890505887e+001
 1.011154596110625e+000	 1.272081515758596e+000	 1.028318599562172e+001
 9.979747288373699e-001	 1.282447441640643e+000	 1.007324202008535e+001
 9.846971481494501e-001	 1.292670308467809e+000	 9.874870818864034e+000
 9.713241740144702e-001	 1.302748766625122e+000	 9.688930615840045e+000
 9.578581504746034e-001	 1.312681516415461e+000	 9.516272490491215e+000
 9.443014443118293e-001	 1.322467308572240e+000	 9.357738859286092e+000
 9.306564437009892e-001	 1.332104944729536e+000	 9.214161969983888e+000
 9.169255568522284e-001	 1.341593277849401e+000	 9.086362412431530e+000
 9.031112106444001e-001	 1.350931212606097e+000	 8.975147649396417e+000
 8.892158492510077e-001	 1.360117705727114e+000	 8.881310570900739e+000
 1.028173818686721e+000	 1.266426137219430e+000	 1.039981229700714e+001
 1.015043652249855e+000	 1.276974136971741e+000	 1.021474332218526e+001
 1.001813093180149e+000	 1.287379931800489e+000	 1.003612110018664e+001
 9.884844448748917e-001	 1.297642117347011e+000	 9.864727493302961e+000
 9.750600362246431e-001	 1.307759338805510e+000	 9.701343290431355e+000
 9.615422202871209e-001	 1.317730291480030e+000	 9.546746731745204e+000
 9.479333729473135e-001	 1.327553721299114e+000	 9.401712036172221e+000
 9.342358915653498e-001	 1.337228425287739e+000	 9.267007935295418e+000
 9.204521936137221e-001	 1.346753251996274e+000	 9.143396217257418e+000
 9.065847153054328e-001	 1.356127101886189e+000	 9.031630284213248e+000
 8.926359102146526e-001	 1.365348927672390e+000	 8.932453726808122e+000
 1.032113181976238e+000	 1.271278344639714e+000	 1.030573888642661e+001
 1.018932708388893e+000	 1.281866758185291e+000	 1.015506379249062e+001
 1.005651457522565e+000	 1.292312421960654e+000	 1.000660356175798e+001
 9.922717415998213e-001	 1.302613926226458e+000	 9.861058652789351e+000
 9.787958984341737e-001	 1.312769910986078e+000	 9.719132973288184e+000
 9.652262900988868e-001	 1.322779066544724e+000	 9.581532456828731e+000
 9.515653015819567e-001	 1.332640134026067e+000	 9.448963635961059e+000
 9.378153394287996e-001	 1.342351905845987e+000	 9.322132215282489e+000
 9.239788303742552e-001	 1.351913226143165e+000	 9.201741648049120e+000
 9.100582199654752e-001	 1.361322991166286e+000	 9.088491719872726e+000
 8.960559711772977e-001	 1.370580149617666e+000	 8.983077143001793e+000
 1.036052545265752e+000	 1.276130552060497e+000	 1.022155207490330e+001
 1.022821764527738e+000	 1.286759379399243e+000	 1.010409368442455e+001
 1.009489821864618e+000	 1.297244912121137e+000	 9.984648179418898e+000
 9.960590383242393e-001	 1.307585735106149e+000	 9.863835184104584e+000
 9.825317606430626e-001	 1.317780483166824e+000	 9.742282274041306e+000
 9.689103599099016e-001	 1.327827841609542e+000	 9.620623604436281e+000
 9.551972302157586e-001	 1.337726546753100e+000	 9.499498528420528e+000
 9.413947872913392e-001	 1.347475386404279e+000	 9.379550208864503e+000
 9.275054671338279e-001	 1.357073200290078e+000	 9.261424227295908e+000
 9.135317246245276e-001	 1.366518880446389e+000	 9.145767193470585e+000
 8.994760321389429e-001	 1.375811371562942e+000	 9.033225359113128e+000
 1.039991908555264e+000	 1.280982759481778e+000	 1.014718661897345e+001
 1.026710820666390e+000	 1.291652000613600e+000	 1.006178043023069e+001
 1.013328186206309e+000	 1.302177402281940e+000	 9.970214687165251e+000
 9.998463350481444e-001	 1.312557543986083e+000	 9.873028744118578e+000
 9.862676228513096e-001	 1.322791055347750e+000	 9.770774388895543e+000
 9.725944297201645e-001	 1.332876616674484e+000	 9.664014522169548e+000
 9.588291588487197e-001	 1.342812959480212e+000	 9.553321820479315e+000
 9.449742351529675e-001	 1.352598866962616e+000	 9.439277386361420e+000
 9.310321038924406e-001	 1.362233174437010e+000	 9.322469389178041e+000
 9.170052292825899e-001	 1.371714769726496e+000	 9.203491700192064e+000
 9.028960930995880e-001	 1.381042593508218e+000	 9.082942525425045e+000
 1.043931271844773e+000	 1.285834966903558e+000	 1.008257860455753e+001
 1.030599876804850e+000	 1.296544621828361e+000	 1.002807259473039e+001
 1.017166550547638e+000	 1.307109892443060e+000	 9.963263760267653e+000
 1.003633631771537e+000	 1.317529352866260e+000	 9.888611745259897e+000
 9.900034850589145e-001	 1.327801627528855e+000	 9.804593089561832e+000
 9.762784995296761e-001	 1.337925391739551e+000	 9.711699958822877e+000
 9.624610874808395e-001	 1.347899372207404e+000	 9.610438851751592e+000
 9.485536830136856e-001	 1.357722347520997e+000	 9.501329288145707e+000
 9.345587406500928e-001	 1.367393148583962e+000	 9.384902481231610e+000
 9.204787339396621e-001	 1.376910659006608e+000	 9.261699997875020e+000
 9.063161540592333e-001	 1.386273815453495e+000	 9.132272410217482e+000
 1.047870635134279e+000	 1.290687174325837e+000	 1.002766542197211e+001
 1.034488932943117e+000	 1.301437243043525e+000	 1.000291985403273e+001
 1.021004914888605e+000	 1.312042382604501e+000	 9.963756997578201e+000
 1.007420928494418e+000	 1.322501161746683e+000	 9.910557341312964e+000
 9.937393472658779e-001	 1.332812199710138e+000	 9.843722712440274e+000
 9.799625693384361e-001	 1.342974166804741e+000	 9.763675056841121e+000
 9.660930161121180e-001	 1.352985784934675e+000	 9.670855190163751e+000
 9.521331308734924e-001	 1.362845828079423e+000	 9.565721523326761e+000
 9.380853774067848e-001	 1.372553122730934e+000	 9.448748765977719e+000
 9.239522385957443e-001	 1.382106548286725e+000	 9.320426611472206e+000
 9.097362150178784e-001	 1.391505037398771e+000	 9.181258406949592e+000
 1.051809998423783e+000	 1.295539381748614e+000	 9.982385741502954e+000
 1.038377989081191e+000	 1.306329864259092e+000	 9.986272974724731e+000
 1.024843279229208e+000	 1.316974872766259e+000	 9.971656904234887e+000
 1.011208225216787e+000	 1.327472970627348e+000	 9.938839413536190e+000
 9.974752094721994e-001	 1.337822771891601e+000	 9.888148148044268e+000
 9.836466391464445e-001	 1.348022941870056e+000	 9.819935344948393e+000
 9.697249447425560e-001	 1.358072197662025e+000	 9.734576627678417e+000
 9.557125787323890e-001	 1.367969308637894e+000	 9.632469768463135e+000
 9.416120141625162e-001	 1.377713096877926e+000	 9.514033422514867e+000
 9.274257432508360e-001	 1.387302437566847e+000	 9.379705837412342e+000
 9.131562759755234e-001	 1.396736259344047e+000	 9.229943541277178e+000
 1.055749361713284e+000	 1.300391589171890e+000	 9.946679489525051e+000
 1.042267045219073e+000	 1.311222485475064e+000	 9.978083793526155e+000
 1.028681643569449e+000	 1.321907362928336e+000	 9.986926874753674e+000
 1.014995521938644e+000	 1.332444779508258e+000	 9.973432557088078e+000
 1.001211071677879e+000	 1.342833344073243e+000	 9.937854830663392e+000
 9.873307089537016e-001	 1.353071716935495e+000	 9.880476730941469e+000
 9.733568733721522e-001	 1.363158610389455e+000	 9.801609176114928e+000
 9.592920265903749e-001	 1.373092789196410e+000	 9.701589766303629e+000
 9.451386509172873e-001	 1.382873071024937e+000	 9.580781548074416e+000
 9.308992479049382e-001	 1.392498326846974e+000	 9.439571747863095e+000
 9.165763369321685e-001	 1.401967481289323e+000	 9.278370477915633e+000
 1.059688725002782e+000	 1.305243796595665e+000	 9.920487825155263e+000
 1.046156101356762e+000	 1.316115106691439e+000	 9.978305197398505e+000
 1.032520007909328e+000	 1.326839853090733e+000	 1.000953117649696e+001
 1.018782818659988e+000	 1.337416588389412e+000	 1.001431206775910e+001
 1.004946933882916e+000	 1.347843916255064e+000	 9.992828728255729e+000
 9.910147787602069e-001	 1.358120492001058e+000	 9.945295494643634e+000
 9.769888020009078e-001	 1.368245023116965e+000	 9.871959063062882e+000
 9.628714744474499e-001	 1.378216269754970e+000	 9.773097324558075e+000
 9.486652876710983e-001	 1.388033045171968e+000	 9.649018159543134e+000
 9.343727525580500e-001	 1.397694216127106e+000	 9.500058194900431e+000
 9.199963978878137e-001	 1.407198703234599e+000	 9.326581527348758e+000
 1.063628088292278e+000	 1.310096004019939e+000	 9.903753117423596e+000
 1.050045157494259e+000	 1.321007727908218e+000	 9.986891104096147e+000
 1.036358372248845e+000	 1.331772343253447e+000	 1.003943493350999e+001
 1.022570115380820e+000	 1.342388397270810e+000	 1.006145392899647e+001
 1.008682796087312e+000	 1.352854488437064e+000	 1.005305633256556e+001
 9.946988485659610e-001	 1.363169267066746e+000	 1.001438828101501e+001
 9.806207306288222e-001	 1.373331435844554e+000	 9.945632727885961e+000
 9.664509223036144e-001	 1.383339750313575e+000	 9.847008314693577e+000
 9.521919244239487e-001	 1.393193019319020e+000	 9.718768194950870e+000
 9.378462572101719e-001	 1.402890105407243e+000	 9.561198814582861e+000
 9.234164588424588e-001	 1.412429925179876e+000	 9.374618652388136e+000
 8.892158492510077e-001	 1.360117705727114e+000	 8.881310570900739e+000
 8.752419327603298e-001	 1.369151766290563e+000	 8.779200854017862e+000
 8.611919357911062e-001	 1.378032455979799e+000	 8.662854439205937e+000
 8.470683461054850e-001	 1.386758889294707e+000	 8.532849709805712e+000
 8.328736632209129e-001	 1.395330233719178e+000	 8.389777952525522e+000
 8.186103970223295e-001	 1.403745709845790e+000	 8.234241961058940e+000
 8.042810663762547e-001	 1.412004591457633e+000	 8.066854639743305e+000
 7.898881977482875e-001	 1.420106205567564e+000	 7.888237610655669e+000
 7.754343238255080e-001	 1.428049932415210e+000	 7.699019827473509e+000
 7.609219821452578e-001	 1.435835205422145e+000	 7.499836199352967e+000
 7.463537137317355e-001	 1.443461511105678e+000	 7.291326227990783e+000
 8.926359102146526e-001	 1.365348927672390e+000	 8.932453726808122e+000
 8.786082478915112e-001	 1.374417734621924e+000	 8.820051651158725e+000
 8.645042124724848e-001	 1.383332580809410e+000	 8.694943899036918e+000
 8.503263012880373e-001	 1.392092577328965e+000	 8.557740320430167e+000
 8.360770234691457e-001	 1.400696888462491e+000	 8.409061941685664e+000
 8.217588985541524e-001	 1.409144731804847e+000	 8.249539544411308e+000
 8.073744550975267e-001	 1.417435378345981e+000	 8.079812246987713e+000
 7.929262292820426e-001	 1.425568152510335e+000	 7.900526092110227e+000
 7.784167635358863e-001	 1.433542432153844e+000	 7.712332643707224e+000
 7.638486051561579e-001	 1.441357648518932e+000	 7.515887596493970e+000
 7.492243049402270e-001	 1.449013286147975e+000	 7.311849401334694e+000
 8.960559711772977e-001	 1.370580149617666e+000	 8.983077143001793e+000
 8.819745630216976e-001	 1.379683702953281e+000	 8.860667360586405e+000
 8.678164891528836e-001	 1.388632705639001e+000	 8.727068052085752e+000
 8.535842564696357e-001	 1.397426265363176e+000	 8.582920535888846e+000
 8.392803837164595e-001	 1.406063543205723e+000	 8.428875589229891e+000
 8.249074000851022e-001	 1.414543753763778e+000	 8.265592002221760e+000
 8.104678438179808e-001	 1.422866165234146e+000	 8.093735137063725e+000
 7.959642608150463e-001	 1.431030099452858e+000	 7.913975495862413e+000
 7.813992032455884e-001	 1.439034931892154e+000	 7.726987300430221e+000
 7.667752281664673e-001	 1.446880091615311e+000	 7.533447087331311e+000
 7.520948961482227e-001	 1.454565061189768e+000	 7.334032321353015e+000
 8.994760321389429e-001	 1.375811371562942e+000	 9.033225359113128e+000
 8.853408781508892e-001	 1.384949671284631e+000	 8.901088308688193e+000
 8.711287658323030e-001	 1.393932830468572e+000	 8.759263163553415e+000
 8.568422116502799e-001	 1.402759953397342e+000	 8.608422713954031e+000
 8.424837439628550e-001	 1.411430197948874e+000	 8.449247500850323e+000
 8.280559016151788e-001	 1.419942775722581e+000	 8.282424344937004e+000
 8.135612325376178e-001	 1.428296952122129e+000	 8.108644883384807e+000
 7.990022923472976e-001	 1.436492046395133e+000	 7.928604117773725e+000
 7.843816429546138e-001	 1.444527431630141e+000	 7.742998976593396e+000
 7.697018511761850e-001	 1.452402534711281e+000	 7.552526895598221e+000
 7.549654873557220e-001	 1.460116836231057e+000	 7.357884419195010e+000
 9.028960930995880e-001	 1.381042593508218e+000	 9.082942525425045e+000
 8.887071932790862e-001	 1.390215639615977e+000	 8.941354489777725e+000
 8.744410425107424e-001	 1.399232955298123e+000	 8.791565221476352e+000
 8.601001668299698e-001	 1.408093641431462e+000	 8.634278987754673e+000
 8.456871042083315e-001	 1.416796852691943e+000	 8.470206107716470e+000
 8.312044031443824e-001	 1.425341797681257e+000	 8.300061456184581e+000
 8.166546212564368e-001	 1.433727739009929e+000	 8.124562977819418e+000
 8.020403238787973e-001	 1.441953993337161e+000	 7.944430214993454e+000
 7.873640826629623e-001	 1.450019931367805e+000	 7.760382852818263e+000
 7.726284741853116e-001	 1.457924977806841e+000	 7.573139284621946e+000
 7.578360785627253e-001	 1.465668611271842e+000	 7.383415201062245e+000
 9.063161540592333e-001	 1.386273815453495e+000	 9.132272410217482e+000
 8.920735084062879e-001	 1.395481607947318e+000	 8.981505572361590e+000
 8.777533191882025e-001	 1.404533080127653e+000	 8.824009941954218e+000
 8.633581220087054e-001	 1.413427329465536e+000	 8.660521270015087e+000
 8.488904644528894e-001	 1.422163507434931e+000	 8.491779669767050e+000
 8.343529046727126e-001	 1.430740819639807e+000	 8.318528095165028e+000
 8.197480099744388e-001	 1.439158525897546e+000	 8.141510832228777e+000
 8.050783554095445e-001	 1.447415940278940e+000	 7.961472006689324e+000
 7.903465223706350e-001	 1.455512431105145e+000	 7.779154111365038e+000
 7.755550971938472e-001	 1.463447420901993e+000	 7.595296556576549e+000
 7.607066697692330e-001	 1.471220386312124e+000	 7.410634246792243e+000
 9.097362150178784e-001	 1.391505037398771e+000	 9.181258406949592e+000
 8.954398235324950e-001	 1.400747576278653e+000	 9.021580905263020e+000
 8.810655958646828e-001	 1.409833204957162e+000	 8.856632774262891e+000
 8.666160771864869e-001	 1.418761017499564e+000	 8.687181257197347e+000
 8.520938246965283e-001	 1.427530162177837e+000	 8.513996278929213e+000
 8.375014062001700e-001	 1.436139841598230e+000	 8.337848898991203e+000
 8.228413986916229e-001	 1.444589312784981e+000	 8.159509779971300e+000
 8.081163869395401e-001	 1.452877887220470e+000	 7.979747674761103e+000
 7.933289620776306e-001	 1.461004930842161e+000	 7.799327936102360e+000
 7.784817202017914e-001	 1.468969863996736e+000	 7.619011051753391e+000
 7.635772609752440e-001	 1.476772161351901e+000	 7.439551208474630e+000
 9.131562759755234e-001	 1.396736259344047e+000	 9.229943541277178e+000
 8.988061386577068e-001	 1.406013544609984e+000	 9.061619523608311e+000
 8.843778725401835e-001	 1.415133329786652e+000	 8.889468905850398e+000
 8.698740323633142e-001	 1.424094705533547e+000	 8.714290433551719e+000
 8.552971849392489e-001	 1.432896816920662e+000	 8.536883862264707e+000
 8.406499077267544e-001	 1.441538863556526e+000	 8.358048384974333e+000
 8.259347874079892e-001	 1.450020099672234e+000	 8.178581077372529e+000
 8.111544184687839e-001	 1.458339834161754e+000	 7.999275364538582e+000
 7.963114017839499e-001	 1.466497430578854e+000	 7.820919512476376e+000
 7.814083432091443e-001	 1.474492307091071e+000	 7.644295147846365e+000
 7.664478521807593e-001	 1.482323936391174e+000	 7.470175809097849e+000
 9.165763369321685e-001	 1.401967481289323e+000	 9.278370477915633e+000
 9.021724537819241e-001	 1.411279512941310e+000	 9.101660154679543e+000
 8.876901492147048e-001	 1.420433454616121e+000	 8.922553267222101e+000
 8.731319875391874e-001	 1.429428393567484e+000	 8.741880075075464e+000
 8.585005451810508e-001	 1.438263471663406e+000	 8.560470185045579e+000
 8.437984092524653e-001	 1.446937885514695e+000	 8.379150952858895e+000
 8.290281761235387e-001	 1.455450886559305e+000	 8.198745905162760e+000
 8.141924499972755e-001	 1.463801781102789e+000	 8.020073185464570e+000
 7.992938414895927e-001	 1.471989930315223e+000	 7.843944027482442e+000
 7.843349662159064e-001	 1.480014750184997e+000	 7.671161259254736e+000
 7.693184433857784e-001	 1.487875711429944e+000	 7.502517841226693e+000
 9.199963978878137e-001	 1.407198703234599e+000	 9.326581527348758e+000
 9.055387689051464e-001	 1.416545481272630e+000	 9.141741223636961e+000
 8.910024258882463e-001	 1.425733579445569e+000	 8.955920536716562e+000
 8.763899427141062e-001	 1.434762081601375e+000	 8.769981253383882e+000
 8.617039054219340e-001	 1.443630126406069e+000	 8.584782853761420e+000
 8.469469107773033e-001	 1.452336907472737e+000	 8.401180887008390e+000
 8.321215648382703e-001	 1.460881673446192e+000	 8.220025369881164e+000
 8.172304815250151e-001	 1.469263728043575e+000	 8.042159211760900e+000
 8.022762811945590e-001	 1.477482430051270e+000	 7.868416669635225e+000
 7.872615892220769e-001	 1.485537193278513e+000	 7.699621836400807e+000
 7.721890345903014e-001	 1.493427486468210e+000	 7.536587165708891e+000
 9.234164588424588e-001	 1.412429925179876e+000	 9.374618652388136e+000
 9.089050840273738e-001	 1.421811449603946e+000	 9.181900859113041e+000
 8.943147025608084e-001	 1.431033704274998e+000	 8.989605145175288e+000
 8.796478978880710e-001	 1.440095769635220e+000	 8.798624839495181e+000
 8.649072656618984e-001	 1.448996781148650e+000	 8.609849319060498e+000
 8.500954123012681e-001	 1.457735929430653e+000	 8.424162358541857e+000
 8.352149535521845e-001	 1.466312460332897e+000	 8.242440505251068e+000
 8.202685130520029e-001	 1.474725674984115e+000	 8.065551483081146e+000
 8.052587208988490e-001	 1.482974929786992e+000	 7.894352628941213e+000
 7.901882122276566e-001	 1.491059636371622e+000	 7.729689365062662e+000
 7.750596257943284e-001	 1.498979261505971e+000	 7.572393710410468e+000
 7.463537137317355e-001	 1.443461511105678e+000	 7.291326227990783e+000
 7.317320617415088e-001	 1.450928388952066e+000	 7.149115818709872e+000
 7.170595701202400e-001	 1.458235431248856e+000	 7.002731540821151e+000
 7.023387822714911e-001	 1.465382282877478e+000	 6.852565964814810e+000
 6.875722397381775e-001	 1.472368641067425e+000	 6.699009300539828e+000
 6.727624808989060e-001	 1.479194255111836e+000	 6.542448424978218e+000
 6.579120396801448e-001	 1.485858926045529e+000	 6.383265938392725e+000
 6.430234442854368e-001	 1.492362506286295e+000	 6.221839250750512e+000
 6.280992159428185e-001	 1.498704899240296e+000	 6.058539700204884e+000
 6.131418676715660e-001	 1.504886058872444e+000	 5.841417918004918e+000
 5.981539030693489e-001	 1.510905989242708e+000	 5.605073690674655e+000
 7.492243049402270e-001	 1.449013286147975e+000	 7.311849401334694e+000
 7.345464158261637e-001	 1.456508882755899e+000	 7.171862312472060e+000
 7.198174915441663e-001	 1.463844029062004e+000	 7.027141044565754e+000
 7.050400852801173e-001	 1.471018368581879e+000	 6.878090600767583e+000
 6.902167483520973e-001	 1.478031597380516e+000	 6.725113947481854e+000
 6.753500289017068e-001	 1.484883463786797e+000	 6.568611018391080e+000
 6.604424706012843e-001	 1.491573768070291e+000	 6.408977746913939e+000
 6.454966113782312e-001	 1.498102362081166e+000	 6.246605129046497e+000
 6.305149821576139e-001	 1.504469148854067e+000	 6.081878318414733e+000
 6.155001056241672e-001	 1.510674082176850e+000	 5.873896762818956e+000
 6.004544950047813e-001	 1.516717166125101e+000	 5.636418798791515e+000
 7.520948961482227e-001	 1.454565061189768e+000	 7.334032321353015e+000
 7.373607699104123e-001	 1.462089376559138e+000	 7.196230608017468e+000
 7.225754129677555e-001	 1.469452626874488e+000	 7.053138007879301e+000
 7.077413882884558e-001	 1.476654454285568e+000	 6.905172029180874e+000
 6.928612569657586e-001	 1.483694553692867e+000	 6.752748463875897e+000
 6.779375769042572e-001	 1.490572672461009e+000	 6.596280367816977e+000
 6.629729015221616e-001	 1.497288610094316e+000	 6.436177069439634e+000
 6.479697784707321e-001	 1.503842217875329e+000	 6.272843208947417e+000
 6.329307483720653e-001	 1.510233398467181e+000	 6.106677809862091e+000
 6.178583435763537e-001	 1.516462105480671e+000	 5.907502364570091e+000
 6.027550869397086e-001	 1.522528343006999e+000	 5.668848009362487e+000
 7.549654873557220e-001	 1.460116836231057e+000	 7.357884419195010e+000
 7.401751239942542e-001	 1.467669870361784e+000	 7.222229504380294e+000
 7.253333343910076e-001	 1.475061224686310e+000	 7.080730555988372e+000
 7.104426912965066e-001	 1.482290539988545e+000	 6.933817660581589e+000
 6.955057655791603e-001	 1.489357510004476e+000	 6.781919505474631e+000
 6.805251249065574e-001	 1.496261881134472e+000	 6.625462334992465e+000
 6.655033324427772e-001	 1.503003452117602e+000	 6.464868935297983e+000
 6.504429455629402e-001	 1.509582073668785e+000	 6.300557649840137e+000
 6.353465145861723e-001	 1.515997648079640e+000	 6.132941427335845e+000
 6.202165815281253e-001	 1.522250128783907e+000	 5.942250401994318e+000
 6.050556788741306e-001	 1.528339519888403e+000	 5.702375441981193e+000
 7.578360785627253e-001	 1.465668611271842e+000	 7.383415201062245e+000
 7.429894780776900e-001	 1.473250364163836e+000	 7.249867878376556e+000
 7.280912558139230e-001	 1.480669822497469e+000	 7.109926895276585e+000
 7.131439943042692e-001	 1.487926625690810e+000	 6.964034990669831e+000
 6.981502741923029e-001	 1.495020466315345e+000	 6.812633817855719e+000
 6.831126729086067e-001	 1.501951089807185e+000	 6.656162876761793e+000
 6.680337633631310e-001	 1.508718294140149e+000	 6.495058474829702e+000
 6.529161126548548e-001	 1.515321929461534e+000	 6.329752718649210e+000
 6.377622807999355e-001	 1.521761897691443e+000	 6.160672538297688e+000
 6.225748194794820e-001	 1.528038152086558e+000	 5.978156676241076e+000
 6.073562708080476e-001	 1.534150696769311e+000	 5.737015346994524e+000
 7.607066697692330e-001	 1.471220386312124e+000	 7.410634246792243e+000
 7.458038321607197e-001	 1.478830857965295e+000	 7.279154683137318e+000
 7.308491772365013e-001	 1.486278420307964e+000	 7.140735311754183e+000
 7.158452973117438e-001	 1.493562711392362e+000	 6.995831598712154e+000
 7.007947828051865e-001	 1.500683422625473e+000	 6.844898234726651e+000
 6.857002209104058e-001	 1.507640298479149e+000	 6.688388043280543e+000
 6.705641942832228e-001	 1.514433136161959e+000	 6.526750917482444e+000
 6.553892797464767e-001	 1.521061785253576e+000	 6.360432787807103e+000
 6.401780470133545e-001	 1.527526147302590e+000	 6.189874622718667e+000
 6.249330574304237e-001	 1.533826175388624e+000	 6.015237108564316e+000
 6.096568627414595e-001	 1.539961873649725e+000	 5.772782103034650e+000
 7.635772609752440e-001	 1.476772161351901e+000	 7.439551208474630e+000
 7.486181862433428e-001	 1.484411351766159e+000	 7.310098946673057e+000
 7.336070986587425e-001	 1.491887018117797e+000	 7.173164169560543e+000
 7.185466003189305e-001	 1.499198797093203e+000	 7.029215145970785e+000
 7.034392914178108e-001	 1.506346378934859e+000	 6.878719676268790e+000
 6.882877689119542e-001	 1.513329507150363e+000	 6.722143976262697e+000
 6.730946252030531e-001	 1.520147978183030e+000	 6.559951589947795e+000
 6.578624468378055e-001	 1.526801641044912e+000	 6.392602333270489e+000
 6.425938132264291e-001	 1.533290396913081e+000	 6.220551270964064e+000
 6.272912953809505e-001	 1.539614198690104e+000	 6.044247728362871e+000
 6.119574546743660e-001	 1.545773050529643e+000	 5.809690214608315e+000
 7.664478521807593e-001	 1.482323936391174e+000	 7.470175809097849e+000
 7.514325403255596e-001	 1.489991845566430e+000	 7.342709770472578e+000
 7.363650200806468e-001	 1.497495615926966e+000	 7.207221909501332e+000
 7.212479033258293e-001	 1.504834882793331e+000	 7.064193374167938e+000
 7.060838000301758e-001	 1.512009335243505e+000	 6.914105147517609e+000
 6.908753169132523e-001	 1.519018715820828e+000	 6.757436907266183e+000
 6.756250561226213e-001	 1.525862820203364e+000	 6.594665914339982e+000
 6.603356139288409e-001	 1.532541496835541e+000	 6.426265932582652e+000
 6.450095794391598e-001	 1.539054646522916e+000	 6.252706181726673e+000
 6.296495333310626e-001	 1.545402221990999e+000	 6.074450325581384e+000
 6.142580466067675e-001	 1.551584227409067e+000	 5.847754309739078e+000
 7.693184433857784e-001	 1.487875711429944e+000	 7.502517841226693e+000
 7.542468944073704e-001	 1.495572339366107e+000	 7.376996328131617e+000
 7.391229415022143e-001	 1.503104213735473e+000	 7.242917047618612e+000
 7.239492063324401e-001	 1.510470968492748e+000	 7.100774103984629e+000
 7.087283086422819e-001	 1.517672291551410e+000	 6.951061736779630e+000
 6.934628649142999e-001	 1.524707924490542e+000	 6.794273156016200e+000
 6.781554870419277e-001	 1.531577662222959e+000	 6.630899406416103e+000
 6.628087810195832e-001	 1.538281352625462e+000	 6.461428262977077e+000
 6.474253456515462e-001	 1.544818896132095e+000	 6.286343160005107e+000
 6.320077712807598e-001	 1.551190245291310e+000	 6.106122155604393e+000
 6.165586385386639e-001	 1.557395404287996e+000	 5.886989137663437e+000
 7.721890345903014e-001	 1.493427486468210e+000	 7.536587165708891e+000
 7.570612484887745e-001	 1.501152833165190e+000	 7.412967864012048e+000
 7.418808629234446e-001	 1.508712811543316e+000	 7.280258173791684e+000
 7.266505093387631e-001	 1.516107054191452e+000	 7.138965233593609e+000
 7.113728172541287e-001	 1.523335247858574e+000	 6.989596614085179e+000
 6.960504129150971e-001	 1.530397133159508e+000	 6.832659128766739e+000
 6.806859179609722e-001	 1.537292504241816e+000	 6.668657673834930e+000
 6.652819481100325e-001	 1.544021208414677e+000	 6.498094099525735e+000
 6.498411118635883e-001	 1.550583145740619e+000	 6.321466115128021e+000
 6.343660092300422e-001	 1.556978268591035e+000	 6.139266229708854e+000
 6.188592304700552e-001	 1.563206581166431e+000	 5.927409566577238e+000
 7.750596257943284e-001	 1.498979261505971e+000	 7.572393710410468e+000
 7.598756025697726e-001	 1.506733326963681e+000	 7.450633691932520e+000
 7.446387843443382e-001	 1.514321409350497e+000	 7.319253950370068e+000
 7.293518123447982e-001	 1.521743139889445e+000	 7.178774737223557e+000
 7.140173258657167e-001	 1.528998204164998e+000	 7.029717029673852e+000
 6.986379609156435e-001	 1.536086341827724e+000	 6.872601316697761e+000
 6.832163488797554e-001	 1.543007346259936e+000	 6.707946414455759e+000
 6.677551152001890e-001	 1.549761064203186e+000	 6.536268313325824e+000
 6.522568780752868e-001	 1.556347395348487e+000	 6.358079058822315e+000
 6.367242471789096e-001	 1.562766291890175e+000	 6.173885668482623e+000
 6.211598224009415e-001	 1.569017758044370e+000	 5.969030581433257e+000
 5.981539030693489e-001	 1.510905989242708e+000	 5.605073690674655e+000
 5.831378151212451e-001	 1.516764744008681e+000	 5.462640821914750e+000
 5.680960850304262e-001	 1.522462425897189e+000	 5.318117526906723e+000
 5.530311810720591e-001	 1.527999186144825e+000	 5.172404784149265e+000
 5.379455574723024e-001	 1.533375223907228e+000	 5.026364598865444e+000
 5.228416533120174e-001	 1.538590785639945e+000	 4.880818694750944e+000
 5.077218914563574e-001	 1.543646164451403e+000	 4.736547322266258e+000
 4.925886775109709e-001	 1.548541699429098e+000	 4.594288184010759e+000
 4.774443988055134e-001	 1.553277774940155e+000	 4.454735477370462e+000
 4.622914234050989e-001	 1.557854819907389e+000	 4.318539054294950e+000
 4.471320991502787e-001	 1.562273307062045e+000	 4.186303697728193e+000
 6.004544950047813e-001	 1.516717166125101e+000	 5.636418798791515e+000
 5.853806528728195e-001	 1.522598454562893e+000	 5.495020009764922e+000
 5.702810699744255e-001	 1.528318050612258e+000	 5.351458390113280e+000
 5.551582240781324e-001	 1.533876106091470e+000	 5.206642419120971e+000
 5.400145788494307e-001	 1.539272820922149e+000	 5.061441280049539e+000
 5.248525827502629e-001	 1.544508442507747e+000	 4.916683537213131e+000
 5.096746679644945e-001	 1.549583265084030e+000	 4.773155930771651e+000
 4.944832493501043e-001	 1.554497629042678e+000	 4.631602289785764e+000
 4.792807234187858e-001	 1.559251920229149e+000	 4.492722563735807e+000
 4.640694673435957e-001	 1.563846569215960e+000	 4.357171972356675e+000
 4.488518379952425e-001	 1.568282050552553e+000	 4.225560273317189e+000
 6.027550869397086e-001	 1.522528343006999e+000	 5.668848009362487e+000
 5.876234906237938e-001	 1.528432165116699e+000	 5.528270630931057e+000
 5.724660549177403e-001	 1.534173675326992e+000	 5.385462178528834e+000
 5.572852670834464e-001	 1.539753026037827e+000	 5.241338851297073e+000
 5.420836002257359e-001	 1.545170417936811e+000	 5.096777221935234e+000
 5.268635121876308e-001	 1.550426099375298e+000	 4.952612898915223e+000
 5.116274444717096e-001	 1.555520365716395e+000	 4.809639307598991e+000
 4.963778211882817e-001	 1.560453558655965e+000	 4.668606590820070e+000
 4.811170480310773e-001	 1.565226065517798e+000	 4.530220629130946e+000
 4.658475112810973e-001	 1.569838318524116e+000	 4.395142180573967e+000
 4.505715768392061e-001	 1.574290794042556e+000	 4.263986139498848e+000
 6.050556788741306e-001	 1.528339519888403e+000	 5.702375441981193e+000
 5.898663283741684e-001	 1.534265875670101e+000	 5.562407223553220e+000
 5.746510398603704e-001	 1.540029300041389e+000	 5.420143842765558e+000
 5.594123100880017e-001	 1.545629945983898e+000	 5.276509438126188e+000
 5.441526216012173e-001	 1.551068014951213e+000	 5.132388183600380e+000
 5.288744416241209e-001	 1.556343756242599e+000	 4.988622935770078e+000
 5.135802209780030e-001	 1.561457466348499e+000	 4.846014001104672e+000
 4.982723930255028e-001	 1.566409488268957e+000	 4.705318023909995e+000
 4.829533726423885e-001	 1.571200210806102e+000	 4.567246995162323e+000
 4.676255552176037e-001	 1.575830067831855e+000	 4.432467382092071e+000
 4.522913156821699e-001	 1.580299537532052e+000	 4.301599378032853e+000
 6.073562708080476e-001	 1.534150696769311e+000	 5.737015346994524e+000
 5.921091661239428e-001	 1.540099586223098e+000	 5.597444435093212e+000
 5.768360248023157e-001	 1.545884924755451e+000	 5.455518421628334e+000
 5.615393530917976e-001	 1.551506865929681e+000	 5.312169604431277e+000
 5.462216429758756e-001	 1.556965611965357e+000	 5.168289970994191e+000
 5.308853710597334e-001	 1.562261413109649e+000	 5.024729830384050e+000
 5.155329974833746e-001	 1.567394566980340e+000	 4.882296566491016e+000
 5.001669648617678e-001	 1.572365417881656e+000	 4.741753513185796e+000
 4.847896972527189e-001	 1.577174356094061e+000	 4.603818951601904e+000
 4.694035991531150e-001	 1.581821817139179e+000	 4.469165229403762e+000
 4.540110545241337e-001	 1.586308281021041e+000	 4.338418001560052e+000
 6.096568627414595e-001	 1.539961873649725e+000	 5.772782103034650e+000
 5.943520038731175e-001	 1.545933296775689e+000	 5.633397020272188e+000
 5.790210097435764e-001	 1.551740549469176e+000	 5.491601040451802e+000
 5.636663960948347e-001	 1.557383785875177e+000	 5.348334841138455e+000
 5.482906643497104e-001	 1.562863208979243e+000	 5.204498436053975e+000
 5.328963004944685e-001	 1.568179069976448e+000	 5.060949791553478e+000
 5.174857739878243e-001	 1.573331667611918e+000	 4.918503565675653e+000
 5.020615366970768e-001	 1.578321347494062e+000	 4.777929970351180e+000
 4.866260218620689e-001	 1.583148501381675e+000	 4.639953756988601e+000
 4.711816430876311e-001	 1.587813566446086e+000	 4.505253325303855e+000
 4.557307933650974e-001	 1.592317024509525e+000	 4.374459954908295e+000
 6.119574546743660e-001	 1.545773050529643e+000	 5.809690214608315e+000
 5.965948416216919e-001	 1.551767007327874e+000	 5.670279839054613e+000
 5.812059946841525e-001	 1.557596174182566e+000	 5.528406909473233e+000
 5.657934390971126e-001	 1.563260705820385e+000	 5.385020704034277e+000
 5.503596857227220e-001	 1.568760805992869e+000	 5.241029475839831e+000
 5.349072299283257e-001	 1.574096726842998e+000	 5.097299053771660e+000
 5.194385504913521e-001	 1.579268768243235e+000	 4.954651567166668e+000
 5.039561085314293e-001	 1.584277277106173e+000	 4.813864294916107e+000
 4.884623464704381e-001	 1.589122646668943e+000	 4.675668639214798e+000
 4.729596870211520e-001	 1.593805315752578e+000	 4.540749223824085e+000
 4.574505322050610e-001	 1.598325767997502e+000	 4.409743116366492e+000
 6.142580466067675e-001	 1.551584227409067e+000	 5.847754309739078e+000
 5.988376793696664e-001	 1.557600717879655e+000	 5.708107854677040e+000
 5.833909796240440e-001	 1.563451798895619e+000	 5.565951322243009e+000
 5.679204820986316e-001	 1.569137625765307e+000	 5.422242812550931e+000
 5.524287070949101e-001	 1.574658403006237e+000	 5.277899031690099e+000
 5.369181593613053e-001	 1.580014383709296e+000	 5.133793876748360e+000
 5.213913269939580e-001	 1.585205868874289e+000	 4.990757145938090e+000
 5.058506803648258e-001	 1.590233206717991e+000	 4.849573374425877e+000
 4.902986710778272e-001	 1.595096791955867e+000	 4.710980796100589e+000
 4.747377309536778e-001	 1.599797065058654e+000	 4.575670431146057e+000
 4.591702710440248e-001	 1.604334511484973e+000	 4.444285298930506e+000
 6.165586385386639e-001	 1.557395404287996e+000	 5.886989137663437e+000
 6.010805171170408e-001	 1.563434428431031e+000	 5.746896131722101e+000
 5.855759645632508e-001	 1.569307423608336e+000	 5.604249654069879e+000
 5.700475250993913e-001	 1.575014545709941e+000	 5.460016848579389e+000
 5.544977284662748e-001	 1.580556000019346e+000	 5.315123088394845e+000
 5.389290887934074e-001	 1.585932040575345e+000	 5.170450544938830e+000
 5.233441034956421e-001	 1.591142969505082e+000	 5.026836883309934e+000
 5.077452521972663e-001	 1.596189136329514e+000	 4.885074084683375e+000
 4.921349956842354e-001	 1.601070937242446e+000	 4.745907395954613e+000
 4.765157748852085e-001	 1.605788814364313e+000	 4.610034406493659e+000
 4.608900098819885e-001	 1.610343254971937e+000	 4.478104251521587e+000
 6.188592304700552e-001	 1.563206581166431e+000	 5.927409566577238e+000
 6.033233548638154e-001	 1.569268138982001e+000	 5.786659834233570e+000
 5.877609495017733e-001	 1.575163048320718e+000	 5.643317360501521e+000
 5.721745680993920e-001	 1.580891465654287e+000	 5.498358555307947e+000
 5.565667498368161e-001	 1.586453597032196e+000	 5.352717673388837e+000
 5.409400182246319e-001	 1.591849697441143e+000	 5.207285367084527e+000
 5.252968799964042e-001	 1.597080070135612e+000	 5.062907366830262e+000
 5.096398240287505e-001	 1.602145065940744e+000	 4.920383289968416e+000
 4.939713202896630e-001	 1.607045082528679e+000	 4.780465578122671e+000
 4.782938188157442e-001	 1.611780563669557e+000	 4.643858563006701e+000
 4.626097487189523e-001	 1.616351998458396e+000	 4.511217660177255e+000
 6.211598224009415e-001	 1.569017758044370e+000	 5.969030581433257e+000
 6.055661926099898e-001	 1.575101849532566e+000	 5.827414223875871e+000
 5.899459344396110e-001	 1.581018673032763e+000	 5.683169975838851e+000
 5.743016110986338e-001	 1.586768385598347e+000	 5.537283736087590e+000
 5.586357712065342e-001	 1.592351194044788e+000	 5.390698855961725e+000
 5.429509476549788e-001	 1.597767354306690e+000	 5.244314675762340e+000
 5.272496564962449e-001	 1.603017170765881e+000	 5.098985190159186e+000
 5.115343958592787e-001	 1.608100995551681e+000	 4.955517843250459e+000
 4.958076448941103e-001	 1.613019227814568e+000	 4.814672453523862e+000
 4.800718627452845e-001	 1.617772312974385e+000	 4.677160268593491e+000
 4.643294875549160e-001	 1.622360741944348e+000	 4.543643149215903e+000
 4.471320991502787e-001	 1.562273307062045e+000	 4.186303697728193e+000
 4.319687527256053e-001	 1.566533752175201e+000	 4.049788502609882e+000
 4.168036887586087e-001	 1.570636713266596e+000	 3.916057747116723e+000
 4.016391889488980e-001	 1.574582789793657e+000	 3.785543653885731e+000
 3.864775112266635e-001	 1.578372621823568e+000	 3.658633974571826e+000
 3.713208889423077e-001	 1.582006889187144e+000	 3.535671825465855e+000
 3.561715300870582e-001	 1.585486310616522e+000	 3.416955627901645e+000
 3.410316165447962e-001	 1.588811642867847e+000	 3.302739151080389e+000
 3.259033033752860e-001	 1.591983679830145e+000	 3.193231654720280e+000
 3.107887181289495e-001	 1.595003251621570e+000	 3.088598128725415e+000
 2.956899601932739e-001	 1.597871223674181e+000	 2.988959626881321e+000
 4.488518379952425e-001	 1.568282050552553e+000	 4.225560273317189e+000
 4.336301710071113e-001	 1.572558881993601e+000	 4.088946445611938e+000
 4.184067798707300e-001	 1.576677623704932e+000	 3.955104714220479e+000
 4.031839550614752e-001	 1.580638877449581e+000	 3.824478652038927e+000
 3.879639631938843e-001	 1.584443285756530e+000	 3.697466827592881e+000
 3.727490462081688e-001	 1.588091531071329e+000	 3.574422632301888e+000
 3.575414205878307e-001	 1.591584334890471e+000	 3.455654213898650e+000
 3.423432766086117e-001	 1.594922456880703e+000	 3.341424513611064e+000
 3.271567776189679e-001	 1.598106693984472e+000	 3.231951404488196e+000
 3.119840593522074e-001	 1.601137879512695e+000	 3.127407928041813e+000
 2.968272292703844e-001	 1.604016882226020e+000	 3.027922626177976e+000
 4.505715768392061e-001	 1.574290794042556e+000	 4.263986139498848e+000
 4.352915892876224e-001	 1.578584011811409e+000	 4.127216830433637e+000
 4.200098709818720e-001	 1.582718534142623e+000	 3.993213016831472e+000
 4.047287211730989e-001	 1.586694965104838e+000	 3.862429714455599e+000
 3.894504151601876e-001	 1.590513949688832e+000	 3.735276393165465e+000
 3.741772034731588e-001	 1.594176172954892e+000	 3.612116795825774e+000
 3.589113110877878e-001	 1.597682359163866e+000	 3.493268864749172e+000
 3.436549366716780e-001	 1.601033270893104e+000	 3.379004773258390e+000
 3.284102518619764e-001	 1.604229708138472e+000	 3.269551059728433e+000
 3.131794005748773e-001	 1.607272507403650e+000	 3.165088861250665e+000
 2.979644983470022e-001	 1.610162540777873e+000	 3.065754243864572e+000
 4.522913156821699e-001	 1.580299537532052e+000	 4.301599378032853e+000
 4.369530075671388e-001	 1.584609141628628e+000	 4.164616913614808e+000
 4.216129620920348e-001	 1.588759444579671e+000	 4.030399086779478e+000
 4.062734872837692e-001	 1.592751052759428e+000	 3.899412449553396e+000
 3.909368671255735e-001	 1.596584613620476e+000	 3.772077458359578e+000
 3.756053607372772e-001	 1.600260814837835e+000	 3.648768284566685e+000
 3.602812015869298e-001	 1.603780383436710e+000	 3.529812733963468e+000
 3.449665967339951e-001	 1.607144084905050e+000	 3.415492272727707e+000
 3.296637261043116e-001	 1.610352722292144e+000	 3.306042157221262e+000
 3.143747417969595e-001	 1.613407135294434e+000	 3.201651664726729e+000
 2.991017674231273e-001	 1.616308199329740e+000	 3.102464422042846e+000
 4.540110545241337e-001	 1.586308281021041e+000	 4.338418001560052e+000
 4.386144258456604e-001	 1.590634271445256e+000	 4.201163882674927e+000
 4.232160532012181e-001	 1.594800355016075e+000	 4.066679287291931e+000
 4.078182533934862e-001	 1.598807140413352e+000	 3.935442397886269e+000
 3.924233190900420e-001	 1.602655277551460e+000	 3.807884743438149e+000
 3.770335180005244e-001	 1.606345456720157e+000	 3.684391001615798e+000
 3.616510920852563e-001	 1.609878407709001e+000	 3.565298911295296e+000
 3.462782567955628e-001	 1.613254898916541e+000	 3.450899292957436e+000
 3.309172003459731e-001	 1.616475736445488e+000	 3.341436174273593e+000
 3.155700830184537e-001	 1.619541763185047e+000	 3.237107017965975e+000
 3.002390364987599e-001	 1.622453857881623e+000	 3.138063048827905e+000
 4.557307933650974e-001	 1.592317024509525e+000	 4.374459954908295e+000
 4.402758441231872e-001	 1.596659401261293e+000	 4.236874857412811e+000
 4.248191443094224e-001	 1.600841265451834e+000	 4.102069914286843e+000
 4.093630195022496e-001	 1.604863228066608e+000	 3.970535033424409e+000
 3.939097710535931e-001	 1.608725941481787e+000	 3.842712903115442e+000
 3.784616752629001e-001	 1.612430098601858e+000	 3.718998785860948e+000
 3.630209825827679e-001	 1.615976431980738e+000	 3.599740423944440e+000
 3.475899168563814e-001	 1.619365712927577e+000	 3.485238054283534e+000
 3.321706745869614e-001	 1.622598750598505e+000	 3.375744529840786e+000
 3.167654242393601e-001	 1.625676391075489e+000	 3.271465544657989e+000
 3.013763055738997e-001	 1.628599516433520e+000	 3.172559959366866e+000
 4.574505322050610e-001	 1.598325767997502e+000	 4.409743116366492e+000
 4.419372623997191e-001	 1.602684531076739e+000	 4.271766891181418e+000
 4.264222354166473e-001	 1.606882175886949e+000	 4.136587197639416e+000
 4.109077856100596e-001	 1.610919315719198e+000	 4.004705764805360e+000
 3.953962230162266e-001	 1.614796605411453e+000	 3.876576527790381e+000
 3.798898325244046e-001	 1.618514740482938e+000	 3.752605413193098e+000
 3.643908730794639e-001	 1.622074456251923e+000	 3.633150237733484e+000
 3.489015769164507e-001	 1.625476526938159e+000	 3.518520717579672e+000
 3.334241488272762e-001	 1.628721764751194e+000	 3.408978585623398e+000
 3.179607654596787e-001	 1.631811018965760e+000	 3.304737813736715e+000
 3.025135746485468e-001	 1.634745174985431e+000	 3.205964936833990e+000
 4.591702710440248e-001	 1.604334511484973e+000	 4.444285298930506e+000
 4.435986806752562e-001	 1.608709660891595e+000	 4.305856972130886e+000
 4.280253265228931e-001	 1.612923086321420e+000	 4.170247302417590e+000
 4.124525517169161e-001	 1.616975403371121e+000	 4.037969936558002e+000
 3.968826749779427e-001	 1.620867269340460e+000	 3.909490144750722e+000
 3.813179897850377e-001	 1.624599382363398e+000	 3.785224597686752e+000
 3.657607635753448e-001	 1.628172480522555e+000	 3.665541258255811e+000
 3.502132369757708e-001	 1.631587340948285e+000	 3.550759385370040e+000
 3.346776230669177e-001	 1.634844778903556e+000	 3.441149647140024e+000
 3.191561066794093e-001	 1.637945646855860e+000	 3.336934340404255e+000
 3.036508437227013e-001	 1.640890833537358e+000	 3.238287713404483e+000
 4.608900098819885e-001	 1.610343254971937e+000	 4.478104251521587e+000
 4.452600989497988e-001	 1.614734790705860e+000	 4.339162024426359e+000
 4.296284176281596e-001	 1.618963996755248e+000	 4.203066330092327e+000
 4.139973178228193e-001	 1.623031491022377e+000	 4.070342830298707e+000
 3.983691269387413e-001	 1.626937933268809e+000	 3.941468219350110e+000
 3.827461470447994e-001	 1.630684024243236e+000	 3.816869992753140e+000
 3.671306540704104e-001	 1.634270504792634e+000	 3.696926332000913e+000
 3.515248970343415e-001	 1.637698154957957e+000	 3.581966102918436e+000
 3.359310973058856e-001	 1.640967793055591e+000	 3.472268964774978e+000
 3.203514478985522e-001	 1.644080274745790e+000	 3.368065587134258e+000
 3.047881127963631e-001	 1.647036492089299e+000	 3.269537971205844e+000
 4.626097487189523e-001	 1.616351998458396e+000	 4.511217660177255e+000
 4.469215172233463e-001	 1.620759920519534e+000	 4.371698909435860e+000
 4.312315087324468e-001	 1.625004907188430e+000	 4.235060319718546e+000
 4.155420839277690e-001	 1.629087578672966e+000	 4.101839665900180e+000
 3.998555788986225e-001	 1.633008597196499e+000	 3.972525156160079e+000
 3.841743043036897e-001	 1.636768666122454e+000	 3.847555192266944e+000
 3.685005445646607e-001	 1.640368529062161e+000	 3.727318247451067e+000
 3.528365570921629e-001	 1.643808968967174e+000	 3.612152859292219e+000
 3.371845715441801e-001	 1.647090807207297e+000	 3.502347734802809e+000
 3.215467891171071e-001	 1.650214902635548e+000	 3.398141964651246e+000
 3.059253818695323e-001	 1.653182150641255e+000	 3.299725343247636e+000
 4.643294875549160e-001	 1.622360741944348e+000	 4.543643149215903e+000
 4.485829354958992e-001	 1.626785050332617e+000	 4.403484426894591e+000
 4.328345998357548e-001	 1.631045817620970e+000	 4.266245249091957e+000
 4.170868500317653e-001	 1.635143666322889e+000	 4.132475602635235e+000
 4.013420308575864e-001	 1.639079261123530e+000	 4.002675300094580e+000
 3.856024615617088e-001	 1.642853308001051e+000	 3.877293731669808e+000
 3.698704350580959e-001	 1.646466553331135e+000	 3.756729736157533e+000
 3.541482171492353e-001	 1.649919782975936e+000	 3.641331588403187e+000
 3.384380457818014e-001	 1.653213821358677e+000	 3.531397100391618e+000
 3.227421303350742e-001	 1.656349530525136e+000	 3.427173832889638e+000
 3.070626509422089e-001	 1.659327809193225e+000	 3.328859414332178e+000
 2.956899601932739e-001	 1.597871223674181e+000	 2.988959626881321e+000
 2.806091001712200e-001	 1.600588495807814e+000	 2.887731742845877e+000
 2.655481792907504e-001	 1.603156001296034e+000	 2.791120935492280e+000
 2.505092088459142e-001	 1.605574705924090e+000	 2.699164871424614e+000
 2.354941696701328e-001	 1.607845607038732e+000	 2.611858982917033e+000
 2.205050116406457e-001	 1.609969732592858e+000	 2.529157189329389e+000
 2.055436532142455e-001	 1.611948140185452e+000	 2.450972692771859e+000
 1.906119809940987e-001	 1.613781916097899e+000	 2.377178844121962e+000
 1.757118493274184e-001	 1.615472174327686e+000	 2.307610075427677e+000
 1.608450799337191e-001	 1.617020055620544e+000	 2.242062894668943e+000
 1.460134615633451e-001	 1.618426726502008e+000	 2.180296938812276e+000
 2.968272292703844e-001	 1.604016882226020e+000	 3.027922626177976e+000
 2.816883659403354e-001	 1.606744605405299e+000	 2.927317960385814e+000
 2.665695184409174e-001	 1.609321985913786e+000	 2.831103735836721e+000
 2.514727058019255e-001	 1.611749993251287e+000	 2.739322086927330e+000
 2.363999164753710e-001	 1.614029628600499e+000	 2.651972642580625e+000
 2.213531078380207e-001	 1.616161923867983e+000	 2.569013246967252e+000
 2.063342057253469e-001	 1.618147940720412e+000	 2.490360755286759e+000
 1.913451039966818e-001	 1.619988769617171e+000	 2.415891900682458e+000
 1.763876641313427e-001	 1.621685528840354e+000	 2.345444228290690e+000
 1.614637148554572e-001	 1.623239363523173e+000	 2.278817092367570e+000
 1.465750517991785e-001	 1.624651444677798e+000	 2.215772712390787e+000
 2.979644983470022e-001	 1.610162540777873e+000	 3.065754243864572e+000
 2.827676317090530e-001	 1.612900715002983e+000	 2.965713748248454e+000
 2.675908575907711e-001	 1.615487970531891e+000	 2.869845843757337e+000
 2.524362027576977e-001	 1.617925280578959e+000	 2.778197147731937e+000
 2.373056632804340e-001	 1.620213650162833e+000	 2.690771491856222e+000
 2.222012040352745e-001	 1.622354115143737e+000	 2.607530642328645e+000
 2.071247582363709e-001	 1.624347741256031e+000	 2.528395095914864e+000
 1.920782269992215e-001	 1.626195623137105e+000	 2.453244947924578e+000
 1.770634789352478e-001	 1.627898883353656e+000	 2.381920828081491e+000
 1.620823497771906e-001	 1.629458671426379e+000	 2.314224900198874e+000
 1.471366420350118e-001	 1.630876162854080e+000	 2.249921921521842e+000
 2.991017674231273e-001	 1.616308199329740e+000	 3.102464422042846e+000
 2.838468974773725e-001	 1.619056824600867e+000	 3.002928977526084e+000
 2.686121967403112e-001	 1.621653955150348e+000	 2.907357038319888e+000
 2.533996997132306e-001	 1.624100567907106e+000	 2.815799720366720e+000
 2.382114100853217e-001	 1.626397671725733e+000	 2.728265064719818e+000
 2.230493002324069e-001	 1.628546306420119e+000	 2.644718757308123e+000
 2.079153107473176e-001	 1.630547541792309e+000	 2.565084925414994e+000
 1.928113500017178e-001	 1.632402476657700e+000	 2.489247006880882e+000
 1.777392937391336e-001	 1.634112237867593e+000	 2.417048687970572e+000
 1.627009846989192e-001	 1.635677979330163e+000	 2.348294905777938e+000
 1.476982322708451e-001	 1.637100881030853e+000	 2.282752911002644e+000
 3.002390364987599e-001	 1.622453857881623e+000	 3.138063048827905e+000
 2.849261632452943e-001	 1.625212934198949e+000	 3.038973457652295e+000
 2.696335358895378e-001	 1.627819939769157e+000	 2.943647029979162e+000
 2.543631966685242e-001	 1.630275855235727e+000	 2.852139396511162e+000
 2.391171568900344e-001	 1.632581693289201e+000	 2.764462814771565e+000
 2.238973964294180e-001	 1.634738497697129e+000	 2.680586888603652e+000
 2.087058632581869e-001	 1.636747342329249e+000	 2.600439365230144e+000
 1.935444730041707e-001	 1.638609330178958e+000	 2.523907005847432e+000
 1.784151085430002e-001	 1.640325592382163e+000	 2.450836525661717e+000
 1.633196196206430e-001	 1.641897287234524e+000	 2.381035599209041e+000
 1.482598225066784e-001	 1.643325599208118e+000	 2.314273926756187e+000
 3.013763055738997e-001	 1.628599516433520e+000	 3.172559959366866e+000
 2.860054290128181e-001	 1.631369043797230e+000	 3.073856937566792e+000
 2.706548750384511e-001	 1.633985924388319e+000	 2.978725461873022e+000
 2.553266936235786e-001	 1.636451142564824e+000	 2.887225694408141e+000
 2.400229036945716e-001	 1.638765714853234e+000	 2.799374116752130e+000
 2.247454926263078e-001	 1.640930688974768e+000	 2.715144249323917e+000
 2.094964157689788e-001	 1.642947142866847e+000	 2.634467449173695e+000
 1.942775960065803e-001	 1.644816183700877e+000	 2.557233782132539e+000
 1.790909233468477e-001	 1.646538946897367e+000	 2.483292965192902e+000
 1.639382545423619e-001	 1.648116595139462e+000	 2.412455374925500e+000
 1.488214127425117e-001	 1.649550317385875e+000	 2.344493117697592e+000
 3.025135746485468e-001	 1.634745174985431e+000	 3.205964936833990e+000
 2.870846947799441e-001	 1.637525153395711e+000	 3.107589106851197e+000
 2.716762141870510e-001	 1.640151909007833e+000	 3.012601911089654e+000
 2.562901905783938e-001	 1.642626429894394e+000	 2.921068060244404e+000
 2.409286504989336e-001	 1.644949736417835e+000	 2.833008268024962e+000
 2.255935888230763e-001	 1.647122880253035e+000	 2.748399970559836e+000
 2.102869682796933e-001	 1.649146943405106e+000	 2.667178125075891e+000
 1.950107190089464e-001	 1.651023037223458e+000	 2.589236083768229e+000
 1.797667381506758e-001	 1.652752301413206e+000	 2.514426538697309e+000
 1.645568894640762e-001	 1.654335903044979e+000	 2.442562533488233e+000
 1.493830029783450e-001	 1.655775035564124e+000	 2.373418537556209e+000
 3.036508437227013e-001	 1.640890833537358e+000	 3.238287713404483e+000
 2.881639605466722e-001	 1.643681262994390e+000	 3.140179596841604e+000
 2.726975533353374e-001	 1.646317893627699e+000	 3.045285889902293e+000
 2.572536875329696e-001	 1.648801717224440e+000	 2.953675869499768e+000
 2.418343973031205e-001	 1.651133757983001e+000	 2.865374490025506e+000
 2.264416850197235e-001	 1.653315071531930e+000	 2.780363102920372e+000
 2.110775207903304e-001	 1.655346743944024e+000	 2.698580256394539e+000
 1.957438420112691e-001	 1.657229890746699e+000	 2.619922571180762e+000
 1.804425529544848e-001	 1.658965655929678e+000	 2.544245688124271e+000
 1.651755243857855e-001	 1.660555210951072e+000	 2.471365283344000e+000
 1.499445932141783e-001	 1.661999753742864e+000	 2.401058146659172e+000
 3.047881127963631e-001	 1.647036492089299e+000	 3.269537971205844e+000
 2.892432263130023e-001	 1.649837372593268e+000	 3.171637981714484e+000
 2.737188924833102e-001	 1.652483878247917e+000	 3.076786846979966e+000
 2.582171844873063e-001	 1.654977004554960e+000	 2.985058428266272e+000
 2.427401441071320e-001	 1.657317779548735e+000	 2.896481929677523e+000
 2.272897812162494e-001	 1.659507262811453e+000	 2.811042618033777e+000
 2.118680733008901e-001	 1.661546544483602e+000	 2.728682623788159e+000
 1.964769650135485e-001	 1.663436744270604e+000	 2.649301818826417e+000
 1.811183677582745e-001	 1.665179010446785e+000	 2.572758766921434e+000
 1.657941593074902e-001	 1.666774518857742e+000	 2.498871742542884e+000
 1.505061834500116e-001	 1.668224471922096e+000	 2.427419813673265e+000
 3.059253818695323e-001	 1.653182150641255e+000	 3.299725343247636e+000
 2.903224920789346e-001	 1.655993482192346e+000	 3.201973779550106e+000
 2.747402316309698e-001	 1.658649862868488e+000	 3.107114168568704e+000
 2.591806814414037e-001	 1.661152291885955e+000	 3.015224974538747e+000
 2.436458909109684e-001	 1.663501801115035e+000	 2.926339660778075e+000
 2.281378774126539e-001	 1.665699454091604e+000	 2.840447410016075e+000
 2.126586258113724e-001	 1.667746345023840e+000	 2.757493926656520e+000
 1.972100880157844e-001	 1.669643597795169e+000	 2.677382316788556e+000
 1.817941825620450e-001	 1.671392364964527e+000	 2.599974041680695e+000
 1.664127942291900e-001	 1.672993826764990e+000	 2.525089940419548e+000
 1.510677736858450e-001	 1.674449190101820e+000	 2.452511317309354e+000
 3.070626509422089e-001	 1.659327809193225e+000	 3.328859414332178e+000
 2.914017578444691e-001	 1.662149591791622e+000	 3.231196453369683e+000
 2.757615707783158e-001	 1.664815847489411e+000	 3.136277179648150e+000
 2.601441783952619e-001	 1.667327579217425e+000	 3.044184679473997e+000
 2.445516377146296e-001	 1.669685822681902e+000	 2.954956685352220e+000
 2.289859736089372e-001	 1.671891645372384e+000	 2.868586296906692e+000
 2.134491783217773e-001	 1.673946145564738e+000	 2.785022784643997e+000
 1.979432110179770e-001	 1.675850451320397e+000	 2.704172472340197e+000
 1.824699973657963e-001	 1.677605719482902e+000	 2.625899693745378e+000
 1.670314291508851e-001	 1.679213134672815e+000	 2.550027819235929e+000
 1.516293639216783e-001	 1.680673908282036e+000	 2.476340347987533e+000
 1.460134615633451e-001	 1.618426726502008e+000	 2.180296938812276e+000
 1.312187496865896e-001	 1.619693378309656e+000	 2.115915898995448e+000
 1.164626662110772e-001	 1.620821226226131e+000	 2.060745623997965e+000
 1.017468992283349e-001	 1.621811508314437e+000	 2.014385969194533e+000
 8.707310279041000e-002	 1.622665484556957e+000	 1.976400488210826e+000
 7.244289671413061e-002	 1.623384435898214e+000	 1.946317867604428e+000
 5.785786641319150e-002	 1.623969663292503e+000	 1.923633396096165e+000
 4.331956275756132e-002	 1.624422486757203e+000	 1.907810464106098e+000
 2.882950195969237e-002	 1.624744244432538e+000	 1.898282089412319e+000
 1.438916548699310e-002	 1.624936291648551e+000	 1.894452464825671e+000
 0.000000000000000e+000	 1.625000000000000e+000	 1.895698523850974e+000
 1.465750517991785e-001	 1.624651444677798e+000	 2.215772712390787e+000
 1.317234371845831e-001	 1.625922968223758e+000	 2.150222595890106e+000
 1.169105995419929e-001	 1.627055154017361e+000	 2.093948318896529e+000
 1.021382334555947e-001	 1.628049244883391e+000	 2.046552531554821e+000
 8.740799933917434e-002	 1.628906505650319e+000	 2.007601085839123e+000
 7.272152323962491e-002	 1.629628222189377e+000	 1.976624481242724e+000
 5.808039666838621e-002	 1.630215700458532e+000	 1.953119345653536e+000
 4.348617646031151e-002	 1.630670265552154e+000	 1.936549947119172e+000
 2.894038465943958e-002	 1.630993260757160e+000	 1.926349732272784e+000
 1.444450843113054e-002	 1.631186046616400e+000	 1.921922887267003e+000
 0.000000000000000e+000	 1.631250000000000e+000	 1.922645917140537e+000
 1.471366420350118e-001	 1.630876162854080e+000	 2.249921921521842e+000
 1.322281246825767e-001	 1.632152558138257e+000	 2.183289483430631e+000
 1.173585328729087e-001	 1.633289081808903e+000	 2.126004337370140e+000
 1.025295676828545e-001	 1.634286981452584e+000	 2.077671860713159e+000
 8.774289588793870e-002	 1.635147526743855e+000	 2.037860130243966e+000
 7.300014976511919e-002	 1.635872008480661e+000	 2.006101379061022e+000
 5.830292692358092e-002	 1.636461737624639e+000	 1.981893489300199e+000
 4.365279016306169e-002	 1.636918044347148e+000	 1.964701516339019e+000
 2.905126735918678e-002	 1.637242277081800e+000	 1.953959240204009e+000
 1.449985137526798e-002	 1.637435801584254e+000	 1.949070739978517e+000
 0.000000000000000e+000	 1.637500000000000e+000	 1.949411987091092e+000
 1.476982322708451e-001	 1.637100881030853e+000	 2.282752911002644e+000
 1.327328121805702e-001	 1.638382148053153e+000	 2.215123981507894e+000
 1.178064662038244e-001	 1.639523009600758e+000	 2.156920182742872e+000
 1.029209019101142e-001	 1.640524718022015e+000	 2.107749552162809e+000
 8.807779243670305e-002	 1.641388547837566e+000	 2.067182318198523e+000
 7.327877629061350e-002	 1.642115794772066e+000	 2.034752368570333e+000
 5.852545717877562e-002	 1.642707774790822e+000	 2.009958755067712e+000
 4.381940386581186e-002	 1.643165823142185e+000	 1.992267230401939e+000
 2.916215005893398e-002	 1.643491293406459e+000	 1.981111812807222e+000
 1.455519431940543e-002	 1.643685556552113e+000	 1.975896374140677e+000
 0.000000000000000e+000	 1.643750000000000e+000	 1.975996247310108e+000
 1.482598225066784e-001	 1.643325599208118e+000	 2.314273926756187e+000
 1.332374996785637e-001	 1.644611737968446e+000	 2.245733420528799e+000
 1.182543995347402e-001	 1.645756937392925e+000	 2.186702278536302e+000
 1.033122361373740e-001	 1.646762454591684e+000	 2.136791131563720e+000
 8.841268898546739e-002	 1.647629568931452e+000	 2.095572286889363e+000
 7.355740281610779e-002	 1.648359581063591e+000	 2.062581208214709e+000
 5.874798743397032e-002	 1.648953811957083e+000	 2.037318032705637e+000
 4.398601756856205e-002	 1.649413601937265e+000	 2.019249120703950e+000
 2.927303275868119e-002	 1.649740309731139e+000	 2.007808633737749e+000
 1.461053726354286e-002	 1.649935311519976e+000	 2.002400136527394e+000
 0.000000000000000e+000	 1.650000000000000e+000	 2.002398218774284e+000
 1.488214127425117e-001	 1.649550317385875e+000	 2.344493117697592e+000
 1.337421871765573e-001	 1.650841327884136e+000	 2.275125043103897e+000
 1.187023328656560e-001	 1.651990865185406e+000	 2.215356969976549e+000
 1.037035703646338e-001	 1.653000191161592e+000	 2.164802056060149e+000
 8.874758553423173e-002	 1.653870590025512e+000	 2.123034615041328e+000
 7.383602934160208e-002	 1.654603367355238e+000	 2.089591608296881e+000
 5.897051768916503e-002	 1.655199849123421e+000	 2.063974174402563e+000
 4.415263127131223e-002	 1.655661380732389e+000	 2.045649191915696e+000
 2.938391545842838e-002	 1.655989326055836e+000	 2.034050871006290e+000
 1.466588020768031e-002	 1.656185066487845e+000	 2.028582369589011e+000
 0.000000000000000e+000	 1.656250000000000e+000	 2.028617429691257e+000
 1.493830029783450e-001	 1.655775035564124e+000	 2.373418537556209e+000
 1.342468746745508e-001	 1.657070917800223e+000	 2.303306005699638e+000
 1.191502661965717e-001	 1.658224792978198e+000	 2.242890525466070e+000
 1.040949045918936e-001	 1.659237927731739e+000	 2.191787715568397e+000
 8.908248208299610e-002	 1.660111611119747e+000	 2.149573824015911e+000
 7.411465586709637e-002	 1.660847153647006e+000	 2.115787231882697e+000
 5.919304794435973e-002	 1.661445886289835e+000	 2.089929995493172e+000
 4.431924497406243e-002	 1.661909159527556e+000	 2.071469422483572e+000
 2.949479815817559e-002	 1.662238342380553e+000	 2.059839677272570e+000
 1.472122315181775e-002	 1.662434821455718e+000	 2.054443411533598e+000
 0.000000000000000e+000	 1.662500000000000e+000	 2.054653415363139e+000
 1.499445932141783e-001	 1.661999753742864e+000	 2.401058146659172e+000
 1.347515621725444e-001	 1.663300507716708e+000	 2.330283380249481e+000
 1.195981995274875e-001	 1.664458720771303e+000	 2.269309138021554e+000
 1.044862388191534e-001	 1.665475664302124e+000	 2.217753434035906e+000
 8.941737863176044e-002	 1.666352632214157e+000	 2.175194378885761e+000
 7.439328239259067e-002	 1.667090939938893e+000	 2.141171695686985e+000
 5.941557819955441e-002	 1.667691923456327e+000	 2.115188275147024e+000
 4.448585867681262e-002	 1.668156938322766e+000	 2.096711765121534e+000
 2.960568085792279e-002	 1.668487358705289e+000	 2.085176190133014e+000
 1.477656609595519e-002	 1.668684576423596e+000	 2.079983596405866e+000
 0.000000000000000e+000	 1.668750000000000e+000	 2.080505718053693e+000
 1.505061834500116e-001	 1.668224471922096e+000	 2.427419813673265e+000
 1.352562496705380e-001	 1.669530097633588e+000	 2.356064155732306e+000
 1.200461328584032e-001	 1.670692648564721e+000	 2.294618926680560e+000
 1.048775730464131e-001	 1.671713400872748e+000	 2.242704470672202e+000
 8.975227518052478e-002	 1.672593653308741e+000	 2.199900689484843e+000
 7.467190891808495e-002	 1.673334726230903e+000	 2.165748570936383e+000
 5.963810845474912e-002	 1.673937960622896e+000	 2.139751757045541e+000
 4.465247237956280e-002	 1.674404717118019e+000	 2.121378147291443e+000
 2.971656355767000e-002	 1.674736375030044e+000	 2.110061532401783e+000
 1.483190904009263e-002	 1.674934331391479e+000	 2.105203254165196e+000
 0.000000000000000e+000	 1.675000000000000e+000	 2.106173886858778e+000
 1.510677736858450e-001	 1.674449190101820e+000	 2.452511317309354e+000
 1.357609371685315e-001	 1.675759687550866e+000	 2.380655239713940e+000
 1.204940661893190e-001	 1.676926576358451e+000	 2.318825937877122e+000
 1.052689072736729e-001	 1.677951137443610e+000	 2.266646021151733e+000
 9.008717172928912e-002	 1.678834674403499e+000	 2.223697111435173e+000
 7.495053544357926e-002	 1.679578512523033e+000	 2.189521384216922e+000
 5.986063870994381e-002	 1.680183997789542e+000	 2.163623150038612e+000
 4.481908608231297e-002	 1.680652495913316e+000	 2.145470471671610e+000
 2.982744625741720e-002	 1.680985391354819e+000	 2.134496812385916e+000
 1.488725198423007e-002	 1.681184086359366e+000	 2.130102710761704e+000
 0.000000000000000e+000	 1.681250000000000e+000	 2.131657477578969e+000
 1.516293639216783e-001	 1.680673908282036e+000	 2.476340347987533e+000
 1.362656246665251e-001	 1.681989277468541e+000	 2.404063459854199e+000
 1.209419995202348e-001	 1.683160504152495e+000	 2.341936146785784e+000
 1.056602415009327e-001	 1.684188874014710e+000	 2.289583218791034e+000
 9.042206827805349e-002	 1.685075695498433e+000	 2.246587947150385e+000
 7.522916196907355e-002	 1.685822298815284e+000	 2.212493618299078e+000
 6.008316896513854e-002	 1.686430034956265e+000	 2.186805128792781e+000
 4.498569978506317e-002	 1.686900274708655e+000	 2.168990616616477e+000
 2.993832895716441e-002	 1.687234407679613e+000	 2.158483124152922e+000
 1.494259492836752e-002	 1.687433841327259e+000	 2.154682288210370e+000
 0.000000000000000e+000	 1.687500000000000e+000	 2.156956052595626e+000
 1.687500000000000e+000	 0.000000000000000e+000	 1.339318152015890e+001
 1.687433841327259e+000	 1.494259492836757e-002	 1.343343940873355e+001
 1.687234407679612e+000	 2.993832895716451e-002	 1.346681336035145e+001
 1.686900274708655e+000	 4.498569978506306e-002	 1.349329073411734e+001
 1.686430034956265e+000	 6.008316896513850e-002	 1.351287357753060e+001
 1.685822298815284e+000	 7.522916196907355e-002	 1.352557888029254e+001
 1.685075695498433e+000	 9.042206827805353e-002	 1.353143880423695e+001
 1.684188874014711e+000	 1.056602415009328e-001	 1.353050088808677e+001
 1.683160504152495e+000	 1.209419995202347e-001	 1.352282822575978e+001
 1.681989277468541e+000	 1.362656246665250e-001	 1.350849961697176e+001
 1.680673908282036e+000	 1.516293639216783e-001	 1.348760968891463e+001
 1.693750000000000e+000	 0.000000000000000e+000	 1.335780383988252e+001
 1.693683596295153e+000	 1.499793787259615e-002	 1.339796976248550e+001
 1.693483424004416e+000	 3.004921165707982e-002	 1.343130779138345e+001
 1.693148053504017e+000	 4.515231348804397e-002	 1.345781205206029e+001
 1.692676072123027e+000	 6.030569922061205e-002	 1.347749157820525e+001
 1.692066085107595e+000	 7.550778849488016e-002	 1.349037056349109e+001
 1.691316716593454e+000	 9.075696482714883e-002	 1.349648858901756e+001
 1.690426610585930e+000	 1.060515757285272e-001	 1.349590082510911e+001
 1.689394431946694e+000	 1.213899328514736e-001	 1.348867820617809e+001
 1.688218867386415e+000	 1.367703121648149e-001	 1.347490757738938e+001
 1.686898626462497e+000	 1.521909541577658e-001	 1.345469181189434e+001
 1.700000000000000e+000	 0.000000000000000e+000	 1.332307070563130e+001
 1.699933351263048e+000	 1.505328081700700e-002	 1.336318804684128e+001
 1.699732440329219e+000	 3.016009435733133e-002	 1.339653154445709e+001
 1.699395832299378e+000	 4.531892719148635e-002	 1.342310207372371e+001
 1.698922109289788e+000	 6.052822947664331e-002	 1.344291563981429e+001
 1.698309871399906e+000	 7.578641502131139e-002	 1.345600362762734e+001
 1.697557737688474e+000	 9.109186137690604e-002	 1.346241302678750e+001
 1.696664347157151e+000	 1.064429099567908e-001	 1.346220663052764e+001
 1.695628359740893e+000	 1.218378661833588e-001	 1.345546320714947e+001
 1.694448457304288e+000	 1.372749996636976e-001	 1.344227764278823e+001
 1.693123344642959e+000	 1.527525443943615e-001	 1.342276105423668e+001
 1.706250000000000e+000	 0.000000000000000e+000	 1.328896552373707e+001
 1.706183106230943e+000	 1.510862376160014e-002	 1.332907665124852e+001
 1.705981456654021e+000	 3.027097705791905e-002	 1.336246599043352e+001
 1.705643611094739e+000	 4.548554089539018e-002	 1.338914115012153e+001
 1.705168146456550e+000	 6.075075973323230e-002	 1.340912509271809e+001
 1.704553657692218e+000	 7.606504154836730e-002	 1.342245638206743e+001
 1.703798758783495e+000	 9.142675792732519e-002	 1.342918940605621e+001
 1.702902083728370e+000	 1.068342441857237e-001	 1.342939457262223e+001
 1.701862287535092e+000	 1.222857995158902e-001	 1.342315847785312e+001
 1.700678047222161e+000	 1.377796871631729e-001	 1.341058404488808e+001
 1.699348062823420e+000	 1.533141346314655e-001	 1.339179063236747e+001
 1.712500000000000e+000	 0.000000000000000e+000	 1.325547194277480e+001
 1.712432861198837e+000	 1.516396670637554e-002	 1.329561821786153e+001
 1.712230472978825e+000	 3.038185975884298e-002	 1.332909276324010e+001
 1.711891389890101e+000	 4.565215459975548e-002	 1.335590990558494e+001
 1.711414183623311e+000	 6.097328999037899e-002	 1.337609955073117e+001
 1.710797443984529e+000	 7.634366807604781e-002	 1.338970742964996e+001
 1.710039779878516e+000	 9.176165447840622e-002	 1.339679531869990e+001
 1.709139820299590e+000	 1.072255784153258e-001	 1.339744123280500e+001
 1.708096215329292e+000	 1.227337328490679e-001	 1.339173959023142e+001
 1.706907637140035e+000	 1.382843746632410e-001	 1.337980134766375e+001
 1.705572781003882e+000	 1.538757248690779e-001	 1.336175410431483e+001
 1.718750000000000e+000	 0.000000000000000e+000	 1.322257384915829e+001
 1.718682616166732e+000	 1.521930965133323e-002	 1.326279563694636e+001
 1.718479489303628e+000	 3.049274246010312e-002	 1.329639375508728e+001
 1.718139168685461e+000	 4.581876830458224e-002	 1.332338923279270e+001
 1.717660220790073e+000	 6.119582024808341e-002	 1.334381890596862e+001
 1.717041230276840e+000	 7.662229460435295e-002	 1.335773566135025e+001
 1.716280800973537e+000	 9.209655103014917e-002	 1.336520865444600e+001
 1.715377556870810e+000	 1.076169126455971e-001	 1.336632349992692e+001
 1.714330143123491e+000	 1.231816661828918e-001	 1.336118243312146e+001
 1.713137227057908e+000	 1.387890621639017e-001	 1.334990444130386e+001
 1.711797499184343e+000	 1.544373151071985e-001	 1.333262536349806e+001
 1.725000000000000e+000	 0.000000000000000e+000	 1.319025536283148e+001
 1.724932371134627e+000	 1.527465259647320e-002	 1.323059204238622e+001
 1.724728505628431e+000	 3.060362516169946e-002	 1.326435111178961e+001
 1.724386947480822e+000	 4.598538200987046e-002	 1.329156028790995e+001
 1.723906257956835e+000	 6.141835050634553e-002	 1.331226332380442e+001
 1.723285016569152e+000	 7.690092113328274e-002	 1.332652025106044e+001
 1.722521822068557e+000	 9.243144758255403e-002	 1.333440759547711e+001
 1.721615293442030e+000	 1.080082468765376e-001	 1.333601856470812e+001
 1.720564070917691e+000	 1.236295995173621e-001	 1.333146320651441e+001
 1.719366816975782e+000	 1.392937496651553e-001	 1.332086853630140e+001
 1.718022217364804e+000	 1.549989053458275e-001	 1.330437863265177e+001
 1.731250000000000e+000	 0.000000000000000e+000	 1.315850083305309e+001
 1.731182126102521e+000	 1.532999554179544e-002	 1.319899080728394e+001
 1.730977521953234e+000	 3.071450786363201e-002	 1.323294722818815e+001
 1.730634726276184e+000	 4.615199571562014e-002	 1.326040448583206e+001
 1.730152295123596e+000	 6.164088076516536e-002	 1.328141323793880e+001
 1.729528802861463e+000	 7.717954766283716e-002	 1.329604065048266e+001
 1.728762843163578e+000	 9.276634413562084e-002	 1.330437061115219e+001
 1.727853030013250e+000	 1.083995811081474e-001	 1.330650391428927e+001
 1.726797998711890e+000	 1.240775328524786e-001	 1.330255841593877e+001
 1.725596406893654e+000	 1.397984371670015e-001	 1.329266915767186e+001
 1.724246935545265e+000	 1.555604955849647e-001	 1.327698845788155e+001
 1.737500000000000e+000	 0.000000000000000e+000	 1.312729483427224e+001
 1.737431881070416e+000	 1.538533848729995e-002	 1.316797553965957e+001
 1.737226538278037e+000	 3.082539056590077e-002	 1.320216474367134e+001
 1.736882505071545e+000	 4.631860942183129e-002	 1.322990349553127e+001
 1.736398332290358e+000	 6.186341102454290e-002	 1.325124934557248e+001
 1.735772589153774e+000	 7.745817419301625e-002	 1.326627658413242e+001
 1.735003864258598e+000	 9.310124068934951e-002	 1.327507645284142e+001
 1.734090766584470e+000	 1.087909153404263e-001	 1.327775732689998e+001
 1.733031926506090e+000	 1.245254661882413e-001	 1.327444486696520e+001
 1.731825996811528e+000	 1.403031246694405e-001	 1.326528213929650e+001
 1.730471653725727e+000	 1.561220858246102e-001	 1.325042970284795e+001
 1.743750000000000e+000	 0.000000000000000e+000	 1.309662216209279e+001
 1.743681636038310e+000	 1.544068143298674e-002	 1.313753007824026e+001
 1.743475554602840e+000	 3.093627326850572e-002	 1.317198653779270e+001
 1.743130283866907e+000	 4.648522312850389e-002	 1.320003923550319e+001
 1.742644369457120e+000	 6.208594128447816e-002	 1.322175260268436e+001
 1.742016375446085e+000	 7.773680072381993e-002	 1.323720804444964e+001
 1.741244885353620e+000	 9.343613724374013e-002	 1.324650414887226e+001
 1.740328503155689e+000	 1.091822495733746e-001	 1.324975686664239e+001
 1.739265854300289e+000	 1.249733995246504e-001	 1.324709965982947e+001
 1.738055586729401e+000	 1.408078121724722e-001	 1.323868361838709e+001
 1.736696371906188e+000	 1.566836760647640e-001	 1.322467754307555e+001
 1.750000000000000e+000	 0.000000000000000e+000	 1.306646782932418e+001
 1.749931391006205e+000	 1.549602437885581e-002	 1.310763848834068e+001
 1.749724570927643e+000	 3.104715597144690e-002	 1.314239572598198e+001
 1.749378062662268e+000	 4.665183683563797e-002	 1.317079386931124e+001
 1.748890406623881e+000	 6.230847154497113e-002	 1.319290421941028e+001
 1.748260161738397e+000	 7.801542725524827e-002	 1.320881528701397e+001
 1.747485906448641e+000	 9.377103379879266e-002	 1.321863299958372e+001
 1.746566239726910e+000	 1.095735838069920e-001	 1.322248087838615e+001
 1.745499782094488e+000	 1.254213328617057e-001	 1.322050018417049e+001
 1.744285176647274e+000	 1.413124996760966e-001	 1.321285003006915e+001
 1.742921090086650e+000	 1.572452663054261e-001	 1.319970746038387e+001
 1.680673908282036e+000	 1.516293639216783e-001	 1.348760968891463e+001
 1.679213134672815e+000	 1.670314291508851e-001	 1.352087619155881e+001
 1.677605719482902e+000	 1.824699973657963e-001	 1.354952776280901e+001
 1.675850451320397e+000	 1.979432110179769e-001	 1.357363032409773e+001
 1.673946145564738e+000	 2.134491783217772e-001	 1.359326288650991e+001
 1.671891645372384e+000	 2.289859736089372e-001	 1.360851752000922e+001
 1.669685822681902e+000	 2.445516377146296e-001	 1.361949929099253e+001
 1.667327579217426e+000	 2.601441783952620e-001	 1.362632616738566e+001
 1.664815847489411e+000	 2.757615707783158e-001	 1.362912889055874e+001
 1.662149591791622e+000	 2.914017578444691e-001	 1.362805081341248e+001
 1.659327809193226e+000	 3.070626509422089e-001	 1.362324770406097e+001
 1.686898626462497e+000	 1.521909541577658e-001	 1.345469181189434e+001
 1.685432442580931e+000	 1.676500640727867e-001	 1.348756745029372e+001
 1.683819074001603e+000	 1.831458121697113e-001	 1.351601210889627e+001
 1.682057304845977e+000	 1.986763340202952e-001	 1.354009879246289e+001
 1.680145946106004e+000	 2.142397308322748e-001	 1.355991368921723e+001
 1.678083836653538e+000	 2.298340698052850e-001	 1.357555613289514e+001
 1.675869844249140e+000	 2.454573845183322e-001	 1.358713853267189e+001
 1.673502866549252e+000	 2.611076753491435e-001	 1.359478627017834e+001
 1.670981832110667e+000	 2.767829099256722e-001	 1.359863756288523e+001
 1.668305701391196e+000	 2.924810236100061e-001	 1.359884329320726e+001
 1.665473467745449e+000	 3.081999200148853e-001	 1.359556680275644e+001
 1.693123344642959e+000	 1.527525443943615e-001	 1.342276105423668e+001
 1.691651750489053e+000	 1.682686989951062e-001	 1.345523932926800e+001
 1.690032428520324e+000	 1.838216269739730e-001	 1.348346800322971e+001
 1.688264158371600e+000	 1.994094570229084e-001	 1.350752717553118e+001
 1.686345746647349e+000	 2.150302833430352e-001	 1.352751022551323e+001
 1.684276027934815e+000	 2.306821660018833e-001	 1.354352376734164e+001
 1.682053865816553e+000	 2.463631313222929e-001	 1.355568757232371e+001
 1.679678153881318e+000	 2.620711723033111e-001	 1.356413445785783e+001
 1.677147816732236e+000	 2.778042490733631e-001	 1.356901014229514e+001
 1.674461810991170e+000	 2.935602893759463e-001	 1.357047306506609e+001
 1.671619126298166e+000	 3.093371890880544e-001	 1.356869417150342e+001
 1.699348062823420e+000	 1.533141346314655e-001	 1.339179063236747e+001
 1.697871058397178e+000	 1.688873339178435e-001	 1.342386435586768e+001
 1.696245783039064e+000	 1.844974417785814e-001	 1.345186729294866e+001
 1.694471011897267e+000	 2.001425800258165e-001	 1.347588664946789e+001
 1.692545547188770e+000	 2.158208358540583e-001	 1.349602301034707e+001
 1.690468219216211e+000	 2.315302621987320e-001	 1.351239028733039e+001
 1.688237887384141e+000	 2.472688781265117e-001	 1.352511563370683e+001
 1.685853441213623e+000	 2.630346692577647e-001	 1.353433932520560e+001
 1.683313801354118e+000	 2.788255882213882e-001	 1.354021460634314e+001
 1.680617920591540e+000	 2.946395551422895e-001	 1.354290750157613e+001
 1.677764784851376e+000	 3.104744581617163e-001	 1.354259659069388e+001
 1.705572781003882e+000	 1.538757248690779e-001	 1.336175410431483e+001
 1.704090366305308e+000	 1.695059688409986e-001	 1.339341540355515e+001
 1.702459137557823e+000	 1.851732565835364e-001	 1.342118217550734e+001
 1.700677865422977e+000	 2.008757030290196e-001	 1.344514874475184e+001
 1.698745347730268e+000	 2.166113883653442e-001	 1.346542291673644e+001
 1.696660410497730e+000	 2.323783583958312e-001	 1.348212591841915e+001
 1.694421908951905e+000	 2.481746249309888e-001	 1.349539230541249e+001
 1.692028728546168e+000	 2.639981662125043e-001	 1.350536983483661e+001
 1.689479785976315e+000	 2.798469273697475e-001	 1.351221930315989e+001
 1.686774030192308e+000	 2.957188209090359e-001	 1.351611434838137e+001
 1.683910443405078e+000	 3.116117272358708e-001	 1.351724121599170e+001
 1.711797499184343e+000	 1.544373151071985e-001	 1.333262536349806e+001
 1.710309674213444e+000	 1.701246037645717e-001	 1.336386568557690e+001
 1.708672492076602e+000	 1.858490713888380e-001	 1.339138519230533e+001
 1.706884718948731e+000	 2.016088260325175e-001	 1.341528533973330e+001
 1.704945148271845e+000	 2.174019408768929e-001	 1.343568116925726e+001
 1.702852601779369e+000	 2.332264545931808e-001	 1.345270124116762e+001
 1.700605930519843e+000	 2.490803717357239e-001	 1.346648753423073e+001
 1.698204015878952e+000	 2.649616631675300e-001	 1.347719531051147e+001
 1.695645770598824e+000	 2.808682665184413e-001	 1.348499294471452e+001
 1.692930139793474e+000	 2.967980866761855e-001	 1.349006171739967e+001
 1.690056101959272e+000	 3.127489963105180e-001	 1.349259557150952e+001
 1.718022217364804e+000	 1.549989053458275e-001	 1.330437863265177e+001
 1.716528982121584e+000	 1.707432386885626e-001	 1.333518874880793e+001
 1.714885846595400e+000	 1.865248861944864e-001	 1.336244922245686e+001
 1.713091572474528e+000	 2.023419490363103e-001	 1.338626865433200e+001
 1.711144948813498e+000	 2.181924933887043e-001	 1.340676933767483e+001
 1.709044793061131e+000	 2.340745507907809e-001	 1.342408718470620e+001
 1.706789952087957e+000	 2.499861185407172e-001	 1.343837161866148e+001
 1.704379303211975e+000	 2.659251601228416e-001	 1.344978543059384e+001
 1.701811755221647e+000	 2.818896056674691e-001	 1.345850460022327e+001
 1.699086249395039e+000	 2.978773524437381e-001	 1.346471808018737e+001
 1.696201760513960e+000	 3.138862653856577e-001	 1.346862754313390e+001
 1.724246935545265e+000	 1.555604955849647e-001	 1.327698845788155e+001
 1.722748290029729e+000	 1.713618736129714e-001	 1.330735846772966e+001
 1.721099201114217e+000	 1.872007010004815e-001	 1.333434747669471e+001
 1.719298426000368e+000	 2.030750720403980e-001	 1.335807124387155e+001
 1.717344749355229e+000	 2.189830459007786e-001	 1.337865933071302e+001
 1.715236984343012e+000	 2.349226469886313e-001	 1.339625502044421e+001
 1.712973973656246e+000	 2.508918653459686e-001	 1.341101520256597e+001
 1.710554590545237e+000	 2.668886570784393e-001	 1.342311022164972e+001
 1.707977739844784e+000	 2.829109448168314e-001	 1.343272368970099e+001
 1.705242358997001e+000	 2.989566182116937e-001	 1.344005226144761e+001
 1.702347419069140e+000	 3.150235344612903e-001	 1.344530537199523e+001
 1.730471653725727e+000	 1.561220858246102e-001	 1.325042970284795e+001
 1.728967597937879e+000	 1.719805085377981e-001	 1.328034903853764e+001
 1.727312555633053e+000	 1.878765158068232e-001	 1.330705349140597e+001
 1.725505279526252e+000	 2.038081950447808e-001	 1.333066599304711e+001
 1.723544549897037e+000	 2.197735984131155e-001	 1.335132338995785e+001
 1.721429175625016e+000	 2.357707431867323e-001	 1.336917635591372e+001
 1.719157995224710e+000	 2.517976121514781e-001	 1.338438926895512e+001
 1.716729877878739e+000	 2.678521540343231e-001	 1.339714005218486e+001
 1.714143724468233e+000	 2.839322839665279e-001	 1.340761997765180e+001
 1.711398468599361e+000	 3.000358839800525e-001	 1.341603343267886e+001
 1.708493077624812e+000	 3.161608035374154e-001	 1.342259764807831e+001
 1.736696371906188e+000	 1.566836760647640e-001	 1.322467754307555e+001
 1.735186905846034e+000	 1.725991434630426e-001	 1.325413497337614e+001
 1.733525910151909e+000	 1.885523306135116e-001	 1.328054112279582e+001
 1.731712133052179e+000	 2.045413180494584e-001	 1.330402611002249e+001
 1.729744350438923e+000	 2.205641509257153e-001	 1.332473408389231e+001
 1.727621366907142e+000	 2.366188393850837e-001	 1.334282312874579e+001
 1.725342016793350e+000	 2.527033589572459e-001	 1.335846513391172e+001
 1.722905165212479e+000	 2.688156509904928e-001	 1.337184562651670e+001
 1.720309709091997e+000	 2.849536231165588e-001	 1.338316356689547e+001
 1.717554578202118e+000	 3.011151497488145e-001	 1.339263110595980e+001
 1.714638736180978e+000	 3.172980726140332e-001	 1.340047330397060e+001
 1.742921090086650e+000	 1.572452663054261e-001	 1.319970746038387e+001
 1.741406213754194e+000	 1.732177783887051e-001	 1.322869109469621e+001
 1.739739264670784e+000	 1.892281454205466e-001	 1.325478454117662e+001
 1.737918986578149e+000	 2.052744410544308e-001	 1.327812512065410e+001
 1.735944150980886e+000	 2.213547034385778e-001	 1.329886430205868e+001
 1.733813558189388e+000	 2.374669355836857e-001	 1.331716760077596e+001
 1.731526038362165e+000	 2.536091057632717e-001	 1.333321444064257e+001
 1.729080452546460e+000	 2.697791479469486e-001	 1.334719797877780e+001
 1.726475693716074e+000	 2.859749622669239e-001	 1.335932489252608e+001
 1.723710687805274e+000	 3.021944155179795e-001	 1.336981512786766e+001
 1.720784394737636e+000	 3.184353416911437e-001	 1.337890160874420e+001
 1.659327809193226e+000	 3.070626509422089e-001	 1.362324770406097e+001
 1.656349530525136e+000	 3.227421303350743e-001	 1.365161812177102e+001
 1.653213821358677e+000	 3.384380457818015e-001	 1.367492462341662e+001
 1.649919782975936e+000	 3.541482171492352e-001	 1.369321295198055e+001
 1.646466553331135e+000	 3.698704350580958e-001	 1.370653920196705e+001
 1.642853308001051e+000	 3.856024615617087e-001	 1.371496957060305e+001
 1.639079261123530e+000	 4.013420308575864e-001	 1.371858007668831e+001
 1.635143666322889e+000	 4.170868500317654e-001	 1.371745624706059e+001
 1.631045817620969e+000	 4.328345998357547e-001	 1.371169277073951e+001
 1.626785050332617e+000	 4.485829354958991e-001	 1.370139312091433e+001
 1.622360741944348e+000	 4.643294875549160e-001	 1.368666914504447e+001
 1.665473467745449e+000	 3.081999200148853e-001	 1.359556680275644e+001
 1.662484158414929e+000	 3.239374715530414e-001	 1.362391613238481e+001
 1.659336835510220e+000	 3.396915200194227e-001	 1.364733980090696e+001
 1.656030596984823e+000	 3.554598772063074e-001	 1.366588892012650e+001
 1.652564577600201e+000	 3.712403255515308e-001	 1.367962502300922e+001
 1.648937949879711e+000	 3.870306188197278e-001	 1.368861980691325e+001
 1.645149925050602e+000	 4.028284828165502e-001	 1.369295484405412e+001
 1.641199753972835e+000	 4.186316161357618e-001	 1.369272125917645e+001
 1.637086728053518e+000	 4.344376909390625e-001	 1.368801937450353e+001
 1.632810180145704e+000	 4.502443537684518e-001	 1.367895832213953e+001
 1.628369485430300e+000	 4.660492263908797e-001	 1.366565562420273e+001
 1.671619126298166e+000	 3.093371890880544e-001	 1.356869417150342e+001
 1.668618786305306e+000	 3.251328127715963e-001	 1.359697592512423e+001
 1.665459849662416e+000	 3.409449942577172e-001	 1.362046872805196e+001
 1.662141410994416e+000	 3.567715372641289e-001	 1.363922911211445e+001
 1.658662601870004e+000	 3.726102160457810e-001	 1.365332410231639e+001
 1.655022591759122e+000	 3.884587760786181e-001	 1.366283095205987e+001
 1.651220588978416e+000	 4.043149347764313e-001	 1.366783684518045e+001
 1.647255841623494e+000	 4.201763822407114e-001	 1.366843856477652e+001
 1.643127638486733e+000	 4.360407820433497e-001	 1.366474212891130e+001
 1.638835309959386e+000	 4.519057720419995e-001	 1.365686239337058e+001
 1.634378228916758e+000	 4.677689652278433e-001	 1.364492262176599e+001
 1.677764784851376e+000	 3.104744581617163e-001	 1.354259659069388e+001
 1.674753414196266e+000	 3.263281539907392e-001	 1.357076386731860e+001
 1.671582863815267e+000	 3.421984684966852e-001	 1.359427736420066e+001
 1.668252225004714e+000	 3.580831973226997e-001	 1.361319908477430e+001
 1.664760626140546e+000	 3.739801065408468e-001	 1.362760160004440e+001
 1.661107233639282e+000	 3.898869333383797e-001	 1.363756777575816e+001
 1.657291252906970e+000	 4.058013867372299e-001	 1.364319046596775e+001
 1.653311929274867e+000	 4.217211483466145e-001	 1.364457217296856e+001
 1.649168548920611e+000	 4.376438731486163e-001	 1.364182467369930e+001
 1.644860439773664e+000	 4.535671903165419e-001	 1.363506861279690e+001
 1.640386972403723e+000	 4.694887040658071e-001	 1.362443306260535e+001
 1.683910443405078e+000	 3.116117272358708e-001	 1.351724121599170e+001
 1.680888042087809e+000	 3.275234952104698e-001	 1.354524670109451e+001
 1.677705877968773e+000	 3.434519427363266e-001	 1.356873204288007e+001
 1.674363039015718e+000	 3.593948573820197e-001	 1.358776476834919e+001
 1.670858650411824e+000	 3.753499970367276e-001	 1.360242304885119e+001
 1.667191875520192e+000	 3.913150905990129e-001	 1.361279541916690e+001
 1.663361916836267e+000	 4.072878386989462e-001	 1.361898046255349e+001
 1.659368016926952e+000	 4.232659144534710e-001	 1.362108646174190e+001
 1.655209459355155e+000	 4.392469642548620e-001	 1.361923101598113e+001
 1.650885569588537e+000	 4.552286085920790e-001	 1.361354062433026e+001
 1.646395715891194e+000	 4.712084429047709e-001	 1.360415023550937e+001
 1.690056101959272e+000	 3.127489963105180e-001	 1.349259557150952e+001
 1.687022669979934e+000	 3.287188364307884e-001	 1.352039153656125e+001
 1.683828892122931e+000	 3.447054169766415e-001	 1.354379946499201e+001
 1.680473853027428e+000	 3.607065174420890e-001	 1.356289245970631e+001
 1.676956674683841e+000	 3.767198875334237e-001	 1.357775434712410e+001
 1.673276517401851e+000	 3.927432478605173e-001	 1.358847938813501e+001
 1.669432580766305e+000	 4.087742906615797e-001	 1.359517195458053e+001
 1.665424104579752e+000	 4.248106805612812e-001	 1.359794617126075e+001
 1.661250369790364e+000	 4.408500553620870e-001	 1.359692552356768e+001
 1.656910699404007e+000	 4.568900268686111e-001	 1.359224243095526e+001
 1.652404459379171e+000	 4.729281817447346e-001	 1.358403778656718e+001
 1.696201760513960e+000	 3.138862653856577e-001	 1.346862754313390e+001
 1.693157297872643e+000	 3.299141776516946e-001	 1.349616584514455e+001
 1.689951906277744e+000	 3.459588912176297e-001	 1.351944669215779e+001
 1.686584667039844e+000	 3.620181775029076e-001	 1.353854881569506e+001
 1.683054698956594e+000	 3.780897780309351e-001	 1.355356175235420e+001
 1.679361159284259e+000	 3.941714051228930e-001	 1.356458554659476e+001
 1.675503244697085e+000	 4.102607426251307e-001	 1.357173041861202e+001
 1.671480192233264e+000	 4.263554466700445e-001	 1.357511639730284e+001
 1.667291280226237e+000	 4.424531464702912e-001	 1.357487291843290e+001
 1.662935829220073e+000	 4.585514451461377e-001	 1.357113838822443e+001
 1.658413202867654e+000	 4.746479205856983e-001	 1.356405971269583e+001
 1.702347419069140e+000	 3.150235344612903e-001	 1.344530537199523e+001
 1.699291925765935e+000	 3.311095188731890e-001	 1.347253745306452e+001
 1.696074920433211e+000	 3.472123654592913e-001	 1.349564114020700e+001
 1.692695481052964e+000	 3.633298375644753e-001	 1.351470084664918e+001
 1.689152723230085e+000	 3.794596685292618e-001	 1.352981187465442e+001
 1.685445801167418e+000	 3.955995623861403e-001	 1.354108011009826e+001
 1.681573908628606e+000	 4.117471945895992e-001	 1.354862168168870e+001
 1.677536279887490e+000	 4.279002127797614e-001	 1.355256258484054e+001
 1.673332190662776e+000	 4.440562375794747e-001	 1.355303827032097e+001
 1.668960959036734e+000	 4.602128634246594e-001	 1.355019319789417e+001
 1.664421946356644e+000	 4.763676594276620e-001	 1.354418035530756e+001
 1.708493077624812e+000	 3.161608035374154e-001	 1.342259764807831e+001
 1.705426553659810e+000	 3.323048600952711e-001	 1.344947453495457e+001
 1.702197934589333e+000	 3.484658397016265e-001	 1.347235057280683e+001
 1.698806295066791e+000	 3.646414976267923e-001	 1.349131591002916e+001
 1.695250747504314e+000	 3.808295590284037e-001	 1.350647167041735e+001
 1.691530443051325e+000	 3.970277196502587e-001	 1.351792963949326e+001
 1.687644572560869e+000	 4.132336465549851e-001	 1.352581191502534e+001
 1.683592367542429e+000	 4.294449788904317e-001	 1.353025052176038e+001
 1.679373101099979e+000	 4.456593286896374e-001	 1.353138699049135e+001
 1.674986088853992e+000	 4.618742817041758e-001	 1.352937190169804e+001
 1.670430689846139e+000	 4.780873982706256e-001	 1.352436439411384e+001
 1.714638736180978e+000	 3.172980726140332e-001	 1.340047330397060e+001
 1.711561181554268e+000	 3.335002013179411e-001	 1.342694560761735e+001
 1.708320948746108e+000	 3.497193139446349e-001	 1.344954309522846e+001
 1.704917109081324e+000	 3.659531576898586e-001	 1.346836170420130e+001
 1.701348771779280e+000	 3.821994495283608e-001	 1.348350843610952e+001
 1.697615084935982e+000	 3.984558769152486e-001	 1.349510103473513e+001
 1.693715236493873e+000	 4.147200985212884e-001	 1.350326762784280e+001
 1.689648455198082e+000	 4.309897450020555e-001	 1.350814633271758e+001
 1.685414011537847e+000	 4.472624198007794e-001	 1.350988482559851e+001
 1.681011218671845e+000	 4.635356999846870e-001	 1.350863987525404e+001
 1.676439433336142e+000	 4.798071371145894e-001	 1.350457684106272e+001
 1.720784394737636e+000	 3.184353416911437e-001	 1.337890160874420e+001
 1.717695809449309e+000	 3.346955425411989e-001	 1.340491952391459e+001
 1.714443962903538e+000	 3.509727881883170e-001	 1.342718714824700e+001
 1.711027923096562e+000	 3.672648177536743e-001	 1.344580626235011e+001
 1.707446796054984e+000	 3.835693400291333e-001	 1.346088980219866e+001
 1.703699726821389e+000	 3.998840341811098e-001	 1.347256152883135e+001
 1.699785900427620e+000	 4.162065504885092e-001	 1.348095566133215e+001
 1.695704542854449e+000	 4.325345111146328e-001	 1.348621647312229e+001
 1.691454921976381e+000	 4.488655109129007e-001	 1.348849785170268e+001
 1.687036348490294e+000	 4.651971182661930e-001	 1.348796282210229e+001
 1.682448176826651e+000	 4.815268759595532e-001	 1.348478303440597e+001
 1.622360741944348e+000	 4.643294875549160e-001	 1.368666914504447e+001
 1.617772312974385e+000	 4.800718627452847e-001	 1.370080022785953e+001
 1.613019227814568e+000	 4.958076448941104e-001	 1.370877462461169e+001
 1.608100995551681e+000	 5.115343958592786e-001	 1.371057804507952e+001
 1.603017170765880e+000	 5.272496564962447e-001	 1.370620237117297e+001
 1.597767354306690e+000	 5.429509476549786e-001	 1.369564524032416e+001
 1.592351194044788e+000	 5.586357712065342e-001	 1.367890960361882e+001
 1.586768385598347e+000	 5.743016110986338e-001	 1.365600325952420e+001
 1.581018673032763e+000	 5.899459344396107e-001	 1.362693836417193e+001
 1.575101849532566e+000	 6.055661926099898e-001	 1.359173091925523e+001
 1.569017758044370e+000	 6.211598224009413e-001	 1.355040023870039e+001
 1.628369485430300e+000	 4.660492263908797e-001	 1.366565562420273e+001
 1.623764062279213e+000	 4.818499066748250e-001	 1.367986015084651e+001
 1.618993373100456e+000	 4.976439694985576e-001	 1.368831492180881e+001
 1.614056925162618e+000	 5.134289676898066e-001	 1.369102019664795e+001
 1.608954271396148e+000	 5.292024329960851e-001	 1.368798231065133e+001
 1.603685011172237e+000	 5.449618770853255e-001	 1.367921323658502e+001
 1.598248791057379e+000	 5.607047925762522e-001	 1.366473012081572e+001
 1.592645305542406e+000	 5.764286540978756e-001	 1.364455479469607e+001
 1.586874297744808e+000	 5.921309193774483e-001	 1.361871326220855e+001
 1.580935560083132e+000	 6.078090303561644e-001	 1.358723516496618e+001
 1.574828934922310e+000	 6.234604143318276e-001	 1.355015322576920e+001
 1.634378228916758e+000	 4.677689652278433e-001	 1.364492262176599e+001
 1.629755811584457e+000	 4.836279506053606e-001	 1.365924020602476e+001
 1.624967518386690e+000	 4.994802941039855e-001	 1.366821270126771e+001
 1.620012854773848e+000	 5.153235395212910e-001	 1.367185493690943e+001
 1.614891372026678e+000	 5.311552094968471e-001	 1.367018772369714e+001
 1.609602668038035e+000	 5.469728065165500e-001	 1.366323739377950e+001
 1.604146388070229e+000	 5.627738139467937e-001	 1.365103531477563e+001
 1.598522225486754e+000	 5.785556970978764e-001	 1.363361737877056e+001
 1.592729922457190e+000	 5.943159043159707e-001	 1.361102346726887e+001
 1.586769270634102e+000	 6.100518681029389e-001	 1.358329689324308e+001
 1.580640111800744e+000	 6.257610062632188e-001	 1.354220694326535e+001
 1.640386972403723e+000	 4.694887040658071e-001	 1.362443306260535e+001
 1.635747560890116e+000	 4.854059945368912e-001	 1.363890188602656e+001
 1.630941663673268e+000	 5.013166187103937e-001	 1.364842804706702e+001
 1.625968784385372e+000	 5.172181113537313e-001	 1.365304096606074e+001
 1.620828472657470e+000	 5.331079859985314e-001	 1.365277595228156e+001
 1.615520324904083e+000	 5.489837359486520e-001	 1.364767372229068e+001
 1.610043985083338e+000	 5.648428353181582e-001	 1.363777989190840e+001
 1.604399145431387e+000	 5.806827400986361e-001	 1.362314444277095e+001
 1.598585547169907e+000	 5.965008892551775e-001	 1.360382116454145e+001
 1.592602981185477e+000	 6.122947058503131e-001	 1.357986707394992e+001
 1.586451288679673e+000	 6.280615981951153e-001	 1.351755363195975e+001
 1.646395715891194e+000	 4.712084429047709e-001	 1.360415023550937e+001
 1.641739310196192e+000	 4.871840384694171e-001	 1.361880706132267e+001
 1.636915808960192e+000	 5.031529433177825e-001	 1.362892143468006e+001
 1.631924713997190e+000	 5.191126831871278e-001	 1.363453738887618e+001
 1.626765573288525e+000	 5.350607625011373e-001	 1.363570475575434e+001
 1.621437981770382e+000	 5.509946653816317e-001	 1.363247866229128e+001
 1.615941582096706e+000	 5.669118566903463e-001	 1.362491900042600e+001
 1.610276065376308e+000	 5.828097831001549e-001	 1.361308987112858e+001
 1.604441171882961e+000	 5.986858741950691e-001	 1.359705900381468e+001
 1.598436691737258e+000	 6.145375435982876e-001	 1.357689715231994e+001
 1.592262465559097e+000	 6.303621901275167e-001	 1.349269411164944e+001
 1.652404459379171e+000	 4.729281817447346e-001	 1.358403778656718e+001
 1.647731059502684e+000	 4.889620824029380e-001	 1.359891797335238e+001
 1.642889954247461e+000	 5.049892679261518e-001	 1.360965372385856e+001
 1.637880643609301e+000	 5.210072550214805e-001	 1.361630370735178e+001
 1.632702673919841e+000	 5.370135390046651e-001	 1.361893230325531e+001
 1.627355638636931e+000	 5.530055948154891e-001	 1.361760907592922e+001
 1.621839179110332e+000	 5.689808780633577e-001	 1.361240822230971e+001
 1.616152985321517e+000	 5.849368261024329e-001	 1.360340799343907e+001
 1.610296796596350e+000	 6.008708591356452e-001	 1.359069009102941e+001
 1.604270402289444e+000	 6.167803813468622e-001	 1.357433904031265e+001
 1.598073642439015e+000	 6.326627820604235e-001	 1.346764584967958e+001
 1.658413202867654e+000	 4.746479205856983e-001	 1.356405971269583e+001
 1.653722808809591e+000	 4.907401263374542e-001	 1.357919722780316e+001
 1.648864099535075e+000	 5.068255925355019e-001	 1.359058615167112e+001
 1.643836573221706e+000	 5.229018268567893e-001	 1.359829981350913e+001
 1.638639774551420e+000	 5.389663155091147e-001	 1.360241716629050e+001
 1.633273295503731e+000	 5.550165242502241e-001	 1.360302223968320e+001
 1.627736776124217e+000	 5.710498994371926e-001	 1.360020356545190e+001
 1.622029905267013e+000	 5.870638691054700e-001	 1.359405357639775e+001
 1.616152421310076e+000	 6.030558440769062e-001	 1.358466798001530e+001
 1.610104112842035e+000	 6.190232190960369e-001	 1.357214510815862e+001
 1.603884819319429e+000	 6.349633739938352e-001	 1.344242678163462e+001
 1.664421946356644e+000	 4.763676594276620e-001	 1.354418035530756e+001
 1.659714558116915e+000	 4.925181702729655e-001	 1.355960778803580e+001
 1.654838244823034e+000	 5.086619171458323e-001	 1.357168032569237e+001
 1.649792502834405e+000	 5.247963986930544e-001	 1.358048598235529e+001
 1.644576875183261e+000	 5.409190920144862e-001	 1.358611831146934e+001
 1.639190952370781e+000	 5.570274536858365e-001	 1.358867583688371e+001
 1.633634373138361e+000	 5.731189208118509e-001	 1.358826145596821e+001
 1.627906825212796e+000	 5.891909121092660e-001	 1.358498181590980e+001
 1.622008046024137e+000	 6.052408290188515e-001	 1.357894666440619e+001
 1.615937823395031e+000	 6.212660568458113e-001	 1.357026817608742e+001
 1.609695996200338e+000	 6.372639659277521e-001	 1.341705530288608e+001
 1.670430689846139e+000	 4.780873982706256e-001	 1.352436439411384e+001
 1.665706307424654e+000	 4.942962142094719e-001	 1.354011296865132e+001
 1.660812390111337e+000	 5.104982417571433e-001	 1.355289821733929e+001
 1.655748432447397e+000	 5.266909705302755e-001	 1.356282286499449e+001
 1.650513975815364e+000	 5.428718685207796e-001	 1.356999509339835e+001
 1.645108609238081e+000	 5.590383831223267e-001	 1.357452795039569e+001
 1.639531970152764e+000	 5.751879421873325e-001	 1.357653873067552e+001
 1.633783745158866e+000	 5.913179551138210e-001	 1.357614832937063e+001
 1.627863670738534e+000	 6.074258139614813e-001	 1.357348056973001e+001
 1.621771533948432e+000	 6.235088945961856e-001	 1.356866150623413e+001
 1.615507173081741e+000	 6.395645578621741e-001	 1.339155026032326e+001
 1.676439433336142e+000	 4.798071371145894e-001	 1.350457684106272e+001
 1.671698056732810e+000	 4.960742581469734e-001	 1.352067642919645e+001
 1.666786535399987e+000	 5.123345663694351e-001	 1.353420215535062e+001
 1.661704362060684e+000	 5.285855423684528e-001	 1.354527148188812e+001
 1.656451076447729e+000	 5.448246450279949e-001	 1.355400724772788e+001
 1.651026266105633e+000	 5.610493125596946e-001	 1.356053705545828e+001
 1.645429567167426e+000	 5.772569635636374e-001	 1.356499262973167e+001
 1.639660665105224e+000	 5.934449981191353e-001	 1.356750914811228e+001
 1.633719295453268e+000	 6.096107989047962e-001	 1.356822454566869e+001
 1.627605244502239e+000	 6.257517323471601e-001	 1.355839120629028e+001
 1.621318349963639e+000	 6.418651497971015e-001	 1.336593094426132e+001
 1.682448176826651e+000	 4.815268759595532e-001	 1.348478303440597e+001
 1.677689806041381e+000	 4.978523020854703e-001	 1.350126216800387e+001
 1.672760680688981e+000	 5.141708909827074e-001	 1.351555481940622e+001
 1.667660291674264e+000	 5.304801142075862e-001	 1.352779321625899e+001
 1.662388177080357e+000	 5.467774215361321e-001	 1.353811488434774e+001
 1.656943922973434e+000	 5.630602419979399e-001	 1.354666201267822e+001
 1.651327164182347e+000	 5.793259849407660e-001	 1.355358078943296e+001
 1.645537585051869e+000	 5.955720411252086e-001	 1.355902071001169e+001
 1.639574920168338e+000	 6.117957838487953e-001	 1.356313385848395e+001
 1.633438955056451e+000	 6.279945700987346e-001	 1.353041004112765e+001
 1.627129526846032e+000	 6.441657417325339e-001	 1.334021708052301e+001
 1.569017758044370e+000	 6.211598224009413e-001	 1.355040023870039e+001
 1.562766291890175e+000	 6.367242471789095e-001	 1.354676380412618e+001
 1.556347395348487e+000	 6.522568780752869e-001	 1.350317334272374e+001
 1.549761064203185e+000	 6.677551152001887e-001	 1.346058174232039e+001
 1.543007346259935e+000	 6.832163488797551e-001	 1.341954369180347e+001
 1.536086341827724e+000	 6.986379609156435e-001	 1.338064354351951e+001
 1.528998204164998e+000	 7.140173258657167e-001	 1.334449588694690e+001
 1.521743139889445e+000	 7.293518123447982e-001	 1.331174605365763e+001
 1.514321409350497e+000	 7.446387843443381e-001	 1.328307054969551e+001
 1.506733326963681e+000	 7.598756025697726e-001	 1.325917741163142e+001
 1.498979261505972e+000	 7.750596257943284e-001	 1.324080648270711e+001
 1.574828934922310e+000	 6.234604143318276e-001	 1.355015322576920e+001
 1.568554315189317e+000	 6.390824851277744e-001	 1.352580343803629e+001
 1.562111644956365e+000	 6.546726442869751e-001	 1.348516338796663e+001
 1.555500919991716e+000	 6.702282822903231e-001	 1.344522458565046e+001
 1.548722188278094e+000	 6.857467797984987e-001	 1.340652426333274e+001
 1.541775550496002e+000	 7.012255089161287e-001	 1.336962987848437e+001
 1.534661160471510e+000	 7.166618344772157e-001	 1.333513972216428e+001
 1.527379225587559e+000	 7.320531153507122e-001	 1.330368345792371e+001
 1.519930007157836e+000	 7.473967057650732e-001	 1.327592258728990e+001
 1.512313820762371e+000	 7.626899566505702e-001	 1.325255083799984e+001
 1.504531036543981e+000	 7.779302169981074e-001	 1.323429447130705e+001
 1.580640111800744e+000	 6.257610062632188e-001	 1.354220694326535e+001
 1.574342338489050e+000	 6.414407230770496e-001	 1.350448633728851e+001
 1.567875894564918e+000	 6.570884104989880e-001	 1.346667818263024e+001
 1.561240775780996e+000	 6.727014493807062e-001	 1.342927217477728e+001
 1.554437030297069e+000	 6.882772107174253e-001	 1.339278809177167e+001
 1.547464759165152e+000	 7.038130569167413e-001	 1.335777650344221e+001
 1.540324116778941e+000	 7.193063430887966e-001	 1.332481941459393e+001
 1.533015311286626e+000	 7.347544183566723e-001	 1.329453083798506e+001
 1.525538604966154e+000	 7.501546271858289e-001	 1.326755729303785e+001
 1.517894314562057e+000	 7.655043107313726e-001	 1.324457822636382e+001
 1.510082811582991e+000	 7.808008082018864e-001	 1.322630635033731e+001
 1.586451288679673e+000	 6.280615981951153e-001	 1.351755363195975e+001
 1.580130361789372e+000	 6.437989610267343e-001	 1.348283187253714e+001
 1.573640144174146e+000	 6.595041767113254e-001	 1.344773991488710e+001
 1.566980631571029e+000	 6.751746164713381e-001	 1.341274946527252e+001
 1.560151872316860e+000	 6.908076416365355e-001	 1.337836284825990e+001
 1.553153967835174e+000	 7.064006049174815e-001	 1.334511375158864e+001
 1.545987073087290e+000	 7.219508517004588e-001	 1.331356790432768e+001
 1.538651396986647e+000	 7.374557213626783e-001	 1.328432368405736e+001
 1.531147202775452e+000	 7.529125486066051e-001	 1.325801264893128e+001
 1.523474808362737e+000	 7.683186648121800e-001	 1.323529999060811e+001
 1.515634586623001e+000	 7.836713994056653e-001	 1.321688490419748e+001
 1.592262465559097e+000	 6.303621901275167e-001	 1.349269411164944e+001
 1.585918385090285e+000	 6.461571989768296e-001	 1.346085987150953e+001
 1.579404393784050e+000	 6.619199429239876e-001	 1.342837120162817e+001
 1.572720487361812e+000	 6.776477835622196e-001	 1.339568181336765e+001
 1.565866714337469e+000	 6.933380725558287e-001	 1.336327657684897e+001
 1.558843176506069e+000	 7.089881529183493e-001	 1.333167230160828e+001
 1.551650029396556e+000	 7.245953603122033e-001	 1.330141844986279e+001
 1.544287482687622e+000	 7.401570243687305e-001	 1.327309777803187e+001
 1.536755800585729e+000	 7.556704700274020e-001	 1.324732690227570e+001
 1.529055302164412e+000	 7.711330188929931e-001	 1.322475678395080e+001
 1.521186361664010e+000	 7.865419906094440e-001	 1.320607313103618e+001
 1.598073642439015e+000	 6.326627820604235e-001	 1.346764584967958e+001
 1.591706408391787e+000	 6.485154369273344e-001	 1.343859061069570e+001
 1.585168643394630e+000	 6.643357091369746e-001	 1.340859508066795e+001
 1.578460343153346e+000	 6.801209506533494e-001	 1.337809496866929e+001
 1.571581556358894e+000	 6.958685034753054e-001	 1.334755768772210e+001
 1.564532385177836e+000	 7.115757009193443e-001	 1.331748317139309e+001
 1.557312985706742e+000	 7.272398689240294e-001	 1.328840462231279e+001
 1.549923568389551e+000	 7.428583273748287e-001	 1.326088918817215e+001
 1.542364398396986e+000	 7.584283914482193e-001	 1.323553856086611e+001
 1.534635795967082e+000	 7.739473729738109e-001	 1.321298949459177e+001
 1.526738136706020e+000	 7.894125818132231e-001	 1.319391423886455e+001
 1.603884819319429e+000	 6.349633739938352e-001	 1.344242678163462e+001
 1.597494431693880e+000	 6.508736748782493e-001	 1.341604480721865e+001
 1.590932893005884e+000	 6.667514753502857e-001	 1.338843500311899e+001
 1.584200198945631e+000	 6.825941177447288e-001	 1.336001506703278e+001
 1.577296398381135e+000	 6.983989343949653e-001	 1.333123495056131e+001
 1.570221593850476e+000	 7.141632489204668e-001	 1.330257771189725e+001
 1.562975942017846e+000	 7.298843775359371e-001	 1.327456029974406e+001
 1.555559654092434e+000	 7.455596303809732e-001	 1.324773426392625e+001
 1.547972996209222e+000	 7.611863128690569e-001	 1.322268638826819e+001
 1.540216289770747e+000	 7.767617270546340e-001	 1.320003924145583e+001
 1.532289911749030e+000	 7.922831730170018e-001	 1.318045164175453e+001
 1.609695996200338e+000	 6.372639659277521e-001	 1.341705530288608e+001
 1.603282454996562e+000	 6.532319128295744e-001	 1.339324361088056e+001
 1.596697142617814e+000	 6.691672415639216e-001	 1.336791482593176e+001
 1.589940054738666e+000	 6.850672848363569e-001	 1.334146862359026e+001
 1.583011240404194e+000	 7.009293653148084e-001	 1.331433748805831e+001
 1.575910802523989e+000	 7.167507969217170e-001	 1.328698760112530e+001
 1.568638898329867e+000	 7.325288861479264e-001	 1.325991966163516e+001
 1.561195739796271e+000	 7.482609333871635e-001	 1.323366963085114e+001
 1.553581594022437e+000	 7.639442342899152e-001	 1.320880939920143e+001
 1.545796783575406e+000	 7.795760811354622e-001	 1.318594737002794e+001
 1.537841686793040e+000	 7.951537642207808e-001	 1.316572895611926e+001
 1.615507173081741e+000	 6.395645578621741e-001	 1.339155026032326e+001
 1.609070478299835e+000	 6.555901507813091e-001	 1.337020859638094e+001
 1.602461392230419e+000	 6.715830077778821e-001	 1.334705880459534e+001
 1.595679910532454e+000	 6.875404519282341e-001	 1.332248252592905e+001
 1.588726082428069e+000	 7.034597962348349e-001	 1.329689476956546e+001
 1.581600011198374e+000	 7.193383449230948e-001	 1.327074483824992e+001
 1.574301854642807e+000	 7.351733947599978e-001	 1.324451718345591e+001
 1.566831825501063e+000	 7.509622363934001e-001	 1.321873218564670e+001
 1.559190191836633e+000	 7.667021557107940e-001	 1.319394685502192e+001
 1.551377277381061e+000	 7.823904352162955e-001	 1.317075544827839e+001
 1.543393461838049e+000	 7.980243554245597e-001	 1.314978999707388e+001
 1.621318349963639e+000	 6.418651497971015e-001	 1.336593094426132e+001
 1.614858501603697e+000	 6.579483887334542e-001	 1.334696175570183e+001
 1.608225641843700e+000	 6.739987739921670e-001	 1.332589158599508e+001
 1.601419766326992e+000	 6.900136190203604e-001	 1.330308402741691e+001
 1.594440924452761e+000	 7.059902271550445e-001	 1.327893660488309e+001
 1.587289219873631e+000	 7.219258929245999e-001	 1.325388173785612e+001
 1.579964810956665e+000	 7.378179033721508e-001	 1.322838763136267e+001
 1.572467911206807e+000	 7.536635393996826e-001	 1.320295909129656e+001
 1.564798789651807e+000	 7.694600771316932e-001	 1.317813825930244e+001
 1.556957771187710e+000	 7.852047892971338e-001	 1.315450526267573e+001
 1.548945236884059e+000	 8.008949466283387e-001	 1.313267877487456e+001
 1.627129526846032e+000	 6.441657417325339e-001	 1.334021708052301e+001
 1.620646524908150e+000	 6.603066266860092e-001	 1.332352549065644e+001
 1.613989891457657e+000	 6.764145402067768e-001	 1.330443820142348e+001
 1.607159622122281e+000	 6.924867861127354e-001	 1.328330074067021e+001
 1.600155766478270e+000	 7.085206580754376e-001	 1.326049313818017e+001
 1.592978428549761e+000	 7.245134409262326e-001	 1.323643092430906e+001
 1.585627767271442e+000	 7.404624119843858e-001	 1.321156605700766e+001
 1.578103996913506e+000	 7.563648424060113e-001	 1.318638777231298e+001
 1.570407387467961e+000	 7.722179985526132e-001	 1.316142335350709e+001
 1.562538264995355e+000	 7.880191433779774e-001	 1.313723881428485e+001
 1.554497011931069e+000	 8.037655378321177e-001	 1.311443949143385e+001
 1.498979261505972e+000	 7.750596257943284e-001	 1.324080648270711e+001
 1.491059636371622e+000	 7.901882122276567e-001	 1.318190398394390e+001
 1.482974929786992e+000	 8.052587208988491e-001	 1.312114901172882e+001
 1.474725674984115e+000	 8.202685130520029e-001	 1.305914911069417e+001
 1.466312460332897e+000	 8.352149535521846e-001	 1.299655063328796e+001
 1.457735929430652e+000	 8.500954123012681e-001	 1.293403887427708e+001
 1.448996781148650e+000	 8.649072656618985e-001	 1.287233810190153e+001
 1.440095769635220e+000	 8.796478978880713e-001	 1.281221148304696e+001
 1.431033704274998e+000	 8.943147025608081e-001	 1.275446090009080e+001
 1.421811449603946e+000	 9.089050840273738e-001	 1.269992665737633e+001
 1.412429925179876e+000	 9.234164588424588e-001	 1.264948707558449e+001
 1.504531036543981e+000	 7.779302169981074e-001	 1.323429447130705e+001
 1.496582079465020e+000	 7.931148352329430e-001	 1.317310754901121e+001
 1.488467429523033e+000	 8.082411606028104e-001	 1.311035221716439e+001
 1.480187621924985e+000	 8.233065445786368e-001	 1.304664873011928e+001
 1.471743247219933e+000	 8.383083422657295e-001	 1.298265652712799e+001
 1.463134951388881e+000	 8.532439138248584e-001	 1.291907436258877e+001
 1.454363435891512e+000	 8.681106259014928e-001	 1.285664033176643e+001
 1.445429457669300e+000	 8.829058530616801e-001	 1.279613178933466e+001
 1.436333829104598e+000	 8.976269792330391e-001	 1.273836515837654e+001
 1.427077417935356e+000	 9.122713991493050e-001	 1.268419562778361e+001
 1.417661147125154e+000	 9.268365197968526e-001	 1.263451673631430e+001
 1.510082811582991e+000	 7.808008082018864e-001	 1.322630635033731e+001
 1.502104522559409e+000	 7.960414582382346e-001	 1.316296096220768e+001
 1.493959929260035e+000	 8.112236003067915e-001	 1.309832510140007e+001
 1.485649568866767e+000	 8.263445761053151e-001	 1.303303164222830e+001
 1.477174034107810e+000	 8.414017309793533e-001	 1.296775302888335e+001
 1.468533973347862e+000	 8.563924153485721e-001	 1.290320140161301e+001
 1.459730090635018e+000	 8.713139861412651e-001	 1.284012861718624e+001
 1.450763145703893e+000	 8.861638082355321e-001	 1.277932616096767e+001
 1.441633953934564e+000	 9.009392559055877e-001	 1.272162494822099e+001
 1.432343386266961e+000	 9.156377142716384e-001	 1.266789501256834e+001
 1.422892369070439e+000	 9.302565807517438e-001	 1.261904507985345e+001
 1.515634586623001e+000	 7.836713994056653e-001	 1.321688490419748e+001
 1.507626965654788e+000	 7.989680812435307e-001	 1.315150648753065e+001
 1.499452428997997e+000	 8.142060400107923e-001	 1.308510939703108e+001
 1.491111515809460e+000	 8.293826076320376e-001	 1.301833903738979e+001
 1.482604820996529e+000	 8.444951196930562e-001	 1.295188077607149e+001
 1.473932995307596e+000	 8.595409168724094e-001	 1.288646006561756e+001
 1.465096745379168e+000	 8.745173463812159e-001	 1.282284245903085e+001
 1.456096833739001e+000	 8.894217634096270e-001	 1.276183351554574e+001
 1.446934078764893e+000	 9.042515325784538e-001	 1.270427859438415e+001
 1.437609354598762e+000	 9.190040293943744e-001	 1.265106253440814e+001
 1.428123591015728e+000	 9.336766417071323e-001	 1.260310921790754e+001
 1.521186361664010e+000	 7.865419906094440e-001	 1.320607313103618e+001
 1.513149408751157e+000	 8.018947042488318e-001	 1.313878661883739e+001
 1.504944928736920e+000	 8.171884797148129e-001	 1.307074708226975e+001
 1.496573462753064e+000	 8.324206391588046e-001	 1.300261236698378e+001
 1.488035607886089e+000	 8.475885084068380e-001	 1.293508068224415e+001
 1.479332017268082e+000	 8.626894183963704e-001	 1.286889071954652e+001
 1.470463400123961e+000	 8.777207066213447e-001	 1.280482166309976e+001
 1.461430521774624e+000	 8.926797185839647e-001	 1.274369308945538e+001
 1.452234203595588e+000	 9.075638092516372e-001	 1.268636475386424e+001
 1.442875322930758e+000	 9.223703445175128e-001	 1.263373626125771e+001
 1.433354812961023e+000	 9.370967026630180e-001	 1.258674662007801e+001
 1.526738136706020e+000	 7.894125818132231e-001	 1.319391423886455e+001
 1.518671851848516e+000	 8.048213272541377e-001	 1.312484407566604e+001
 1.510437428476803e+000	 8.201709194188529e-001	 1.305528037647997e+001
 1.502035409697580e+000	 8.354586706856162e-001	 1.298589333865613e+001
 1.493466394776493e+000	 8.506818971206991e-001	 1.291739393196824e+001
 1.484731039229321e+000	 8.658379199204548e-001	 1.285053401373518e+001
 1.475830054869397e+000	 8.809240668616519e-001	 1.278610633457831e+001
 1.466764209810760e+000	 8.959376737585451e-001	 1.272494443207314e+001
 1.457534328426648e+000	 9.108760859251386e-001	 1.266792240985675e+001
 1.448141291262948e+000	 9.257366596410536e-001	 1.261595460007094e+001
 1.438586034906323e+000	 9.405167636194014e-001	 1.256999510735468e+001
 1.532289911749030e+000	 7.922831730170018e-001	 1.318045164175453e+001
 1.524194294946866e+000	 8.077479502594488e-001	 1.310972179914715e+001
 1.515929928217648e+000	 8.231533591229129e-001	 1.303875173580840e+001
 1.507497356643007e+000	 8.384967022124722e-001	 1.296822391167599e+001
 1.498897181667738e+000	 8.537752858346388e-001	 1.289886197591611e+001
 1.490130061191314e+000	 8.689864214446632e-001	 1.283143087874000e+001
 1.481196709615478e+000	 8.841274271021371e-001	 1.276673687261374e+001
 1.472097897847411e+000	 8.991956289333686e-001	 1.270562740009612e+001
 1.462834453258072e+000	 9.141883625989573e-001	 1.264899086584556e+001
 1.453407259595335e+000	 9.291029747649967e-001	 1.259775629065995e+001
 1.443817256851628e+000	 9.439368245762818e-001	 1.255289284575014e+001
 1.537841686793040e+000	 7.951537642207808e-001	 1.316572895611926e+001
 1.529716738046205e+000	 8.106745732647647e-001	 1.309346294800369e+001
 1.521422427959452e+000	 8.261357988269923e-001	 1.302120384891037e+001
 1.512959303589345e+000	 8.415347337393723e-001	 1.294964629239387e+001
 1.504327968559824e+000	 8.568686745486575e-001	 1.287952652606241e+001
 1.495529083154059e+000	 8.721349229689946e-001	 1.281162252028049e+001
 1.486563364362201e+000	 8.873307873428006e-001	 1.274675396500927e+001
 1.477431585884576e+000	 9.024535841084350e-001	 1.268578215199413e+001
 1.468134578089861e+000	 9.175006392730938e-001	 1.262960973982091e+001
 1.458673227927916e+000	 9.324692898893423e-001	 1.257918039968647e+001
 1.449048478796939e+000	 9.473568855336596e-001	 1.253547834007190e+001
 1.543393461838049e+000	 7.980243554245597e-001	 1.314978999707388e+001
 1.535239181146535e+000	 8.136011962700855e-001	 1.307611089463772e+001
 1.526914927702217e+000	 8.291182385310916e-001	 1.300267963276817e+001
 1.518421250536594e+000	 8.445727652663168e-001	 1.293020292979789e+001
 1.509758755452753e+000	 8.599620632627555e-001	 1.285942955098430e+001
 1.500928105117557e+000	 8.752834244934499e-001	 1.279115041429015e+001
 1.491930019109569e+000	 8.905341475836424e-001	 1.272619858303214e+001
 1.482765273922255e+000	 9.057115392837439e-001	 1.266544914258250e+001
 1.473434702922016e+000	 9.208129159475481e-001	 1.260981895862343e+001
 1.463939196260693e+000	 9.358356050140905e-001	 1.256026631478342e+001
 1.454279700742255e+000	 9.507769464915348e-001	 1.251779042782897e+001
 1.548945236884059e+000	 8.008949466283387e-001	 1.313267877487456e+001
 1.540761624247855e+000	 8.165278192754111e-001	 1.305770922130085e+001
 1.532407427445944e+000	 8.321006782352106e-001	 1.298322222859914e+001
 1.523883197484755e+000	 8.476107967933054e-001	 1.290993651116516e+001
 1.515189542346524e+000	 8.630554519769325e-001	 1.283861327126274e+001
 1.506327127081808e+000	 8.784319260180290e-001	 1.277005630207396e+001
 1.497296673857580e+000	 8.937375078246623e-001	 1.270511197633394e+001
 1.488098961960449e+000	 9.089694944592958e-001	 1.264466911771097e+001
 1.478734827754535e+000	 9.241251926223195e-001	 1.258965875240882e+001
 1.469205164593664e+000	 9.392019201392408e-001	 1.254105373880278e+001
 1.459510922687576e+000	 9.541970074499075e-001	 1.249986827326941e+001
 1.554497011931069e+000	 8.037655378321177e-001	 1.311443949143385e+001
 1.546284067350165e+000	 8.194544422807419e-001	 1.303830171634701e+001
 1.537899927190630e+000	 8.350831179393493e-001	 1.296287499785142e+001
 1.529345144433827e+000	 8.506488283203388e-001	 1.288888995780681e+001
 1.520620329241138e+000	 8.661488406911885e-001	 1.281712015498266e+001
 1.511726149046811e+000	 8.815804275427316e-001	 1.274838218556953e+001
 1.502663328606235e+000	 8.969408680658607e-001	 1.268353566797921e+001
 1.493432649999157e+000	 9.122274496350907e-001	 1.262348310906696e+001
 1.484034952587419e+000	 9.274374692974089e-001	 1.256916964923165e+001
 1.474471132926831e+000	 9.425682352647938e-001	 1.252158268418656e+001
 1.464742144632903e+000	 9.576170684087774e-001	 1.248175136154573e+001
 1.412429925179876e+000	 9.234164588424588e-001	 1.264948707558449e+001
 1.402890105407243e+000	 9.378462572101717e-001	 1.252159505445934e+001
 1.393193019319020e+000	 9.521919244239487e-001	 1.241546358162023e+001
 1.383339750313575e+000	 9.664509223036143e-001	 1.233247632208857e+001
 1.373331435844554e+000	 9.806207306288224e-001	 1.227403954243336e+001
 1.363169267066746e+000	 9.946988485659613e-001	 1.224158065044072e+001
 1.352854488437064e+000	 1.008682796087312e+000	 1.223654663361593e+001
 1.342388397270810e+000	 1.022570115380820e+000	 1.226040239815924e+001
 1.331772343253448e+000	 1.036358372248844e+000	 1.231462901041413e+001
 1.321007727908218e+000	 1.050045157494259e+000	 1.240072184314160e+001
 1.310096004019939e+000	 1.063628088292278e+000	 1.252018862932569e+001
 1.417661147125154e+000	 9.268365197968526e-001	 1.263451673631430e+001
 1.408085994687293e+000	 9.413197618620898e-001	 1.251103391701043e+001
 1.398352993465913e+000	 9.557185611766381e-001	 1.240846582378646e+001
 1.388463230871971e+000	 9.700303701596551e-001	 1.232816715226905e+001
 1.378417848571904e+000	 9.842526592566460e-001	 1.227151643470825e+001
 1.368218042132184e+000	 9.983829183716521e-001	 1.223991461593828e+001
 1.357865060618825e+000	 1.012418658291667e+000	 1.223478352598240e+001
 1.347360206151996e+000	 1.026357412101629e+000	 1.225756425086453e+001
 1.336704833416001e+000	 1.040196736588351e+000	 1.230971540355755e+001
 1.325900349124905e+000	 1.053934213631753e+000	 1.239271129735475e+001
 1.314948211444210e+000	 1.067567451581774e+000	 1.250804002431432e+001
 1.422892369070439e+000	 9.302565807517438e-001	 1.261904507985345e+001
 1.413281883967162e+000	 9.447932665145902e-001	 1.249953366541845e+001
 1.403512967612471e+000	 9.592451979299654e-001	 1.240009328833559e+001
 1.393586711429907e+000	 9.736098180163595e-001	 1.232204993031938e+001
 1.383504261298697e+000	 9.878845878851288e-001	 1.226675464931398e+001
 1.373266817196999e+000	 1.002066988177968e+000	 1.223558219153230e+001
 1.362875632799925e+000	 1.016154520496584e+000	 1.222992949793558e+001
 1.352332015032518e+000	 1.030144708822905e+000	 1.225121410664226e+001
 1.341637323577915e+000	 1.044035100928199e+000	 1.230087245312361e+001
 1.330792970341006e+000	 1.057823269769434e+000	 1.238035807041002e+001
 1.319800418867981e+000	 1.071506814871272e+000	 1.249113969189670e+001
 1.428123591015728e+000	 9.336766417071323e-001	 1.260310921790754e+001
 1.418477773246852e+000	 9.482667711676734e-001	 1.248713628013435e+001
 1.408672941758693e+000	 9.627718346839305e-001	 1.239039271984065e+001
 1.398710191987381e+000	 9.771892658737279e-001	 1.231417605788957e+001
 1.388590674024933e+000	 9.915165165142712e-001	 1.225981013558680e+001
 1.378315592261191e+000	 1.005751057984910e+000	 1.222864376258576e+001
 1.367886204980367e+000	 1.019890382702061e+000	 1.222204925701817e+001
 1.357303823912376e+000	 1.033932005544648e+000	 1.224142087926258e+001
 1.346569813739187e+000	 1.047873465268390e+000	 1.228817316113801e+001
 1.335685591556522e+000	 1.061712325907304e+000	 1.236373913268280e+001
 1.324652626291251e+000	 1.075446178160773e+000	 1.246956844904833e+001
 1.433354812961023e+000	 9.370967026630180e-001	 1.258674662007801e+001
 1.423673662526362e+000	 9.517402758213387e-001	 1.247388403157539e+001
 1.413832915904580e+000	 9.662984714385340e-001	 1.237941108588599e+001
 1.403833672544393e+000	 9.807687137317596e-001	 1.230459709369524e+001
 1.393677086750611e+000	 9.951484451440730e-001	 1.225073893502541e+001
 1.383364367324758e+000	 1.009435127792477e+000	 1.221915974279813e+001
 1.372896777160149e+000	 1.023626244908099e+000	 1.221120747639334e+001
 1.362275632791567e+000	 1.037719302266857e+000	 1.222825338654305e+001
 1.351502303899819e+000	 1.051711829608923e+000	 1.227169037327513e+001
 1.340578212771451e+000	 1.065601382045360e+000	 1.234293123900456e+001
 1.329504833714019e+000	 1.079385541450276e+000	 1.244340683924455e+001
 1.438586034906323e+000	 9.405167636194014e-001	 1.256999510735468e+001
 1.428869551805692e+000	 9.552137804755869e-001	 1.245981947485341e+001
 1.418992890050131e+000	 9.698251081937751e-001	 1.236719557301299e+001
 1.408957153100945e+000	 9.843481615904552e-001	 1.229336475066180e+001
 1.398763499475732e+000	 9.987803737745346e-001	 1.223959717961559e+001
 1.388413142387704e+000	 1.013119197600668e+000	 1.220719057369025e+001
 1.377907349339272e+000	 1.027362107114699e+000	 1.219746879547008e+001
 1.367247441670094e+000	 1.041506598989534e+000	 1.221178035209320e+001
 1.356434794059810e+000	 1.055550193949798e+000	 1.225149678170060e+001
 1.345470833985793e+000	 1.069490438183604e+000	 1.231801093258194e+001
 1.334357041136285e+000	 1.083324904739783e+000	 1.241273513743323e+001
 1.443817256851628e+000	 9.439368245762818e-001	 1.255289284575014e+001
 1.434065441084842e+000	 9.586872851304175e-001	 1.244498544461695e+001
 1.424152864195347e+000	 9.733517449496546e-001	 1.235379358275299e+001
 1.414080633657035e+000	 9.879276094498142e-001	 1.228053089313066e+001
 1.403849912200296e+000	 1.002412302405655e+000	 1.222644109019050e+001
 1.393461917450026e+000	 1.016803267409485e+000	 1.219279672410025e+001
 1.382917921517736e+000	 1.031097969321859e+000	 1.218089782051444e+001
 1.372219250547955e+000	 1.045293895712676e+000	 1.219207040702104e+001
 1.361367284219160e+000	 1.059388558291015e+000	 1.222766492785256e+001
 1.350363455199550e+000	 1.073379494322036e+000	 1.228905454883002e+001
 1.339209248558051e+000	 1.087264268029292e+000	 1.237763335489979e+001
 1.449048478796939e+000	 9.473568855336596e-001	 1.253547834007190e+001
 1.439261330363811e+000	 9.621607897858304e-001	 1.242942505000582e+001
 1.429312838340227e+000	 9.768783817061719e-001	 1.233925272774701e+001
 1.419204114212664e+000	 9.915070573098374e-001	 1.226614753412626e+001
 1.408936324924302e+000	 1.006044231037436e+000	 1.221132697482734e+001
 1.398510692511725e+000	 1.020487337218928e+000	 1.217603868969057e+001
 1.387928493695541e+000	 1.034833831529581e+000	 1.216155912524795e+001
 1.377191059425152e+000	 1.049081192436286e+000	 1.216919209160313e+001
 1.366299774377870e+000	 1.063226922632575e+000	 1.220026720516241e+001
 1.355256076412721e+000	 1.077268550460655e+000	 1.225613821912376e+001
 1.344061455979315e+000	 1.091203631318804e+000	 1.233818124402606e+001
 1.454279700742255e+000	 9.507769464915348e-001	 1.251779042782897e+001
 1.444457219642602e+000	 9.656342944418263e-001	 1.241318166971407e+001
 1.434472812484773e+000	 9.804050184633271e-001	 1.232362082794846e+001
 1.424327594767831e+000	 9.950865051705240e-001	 1.225026683268166e+001
 1.414022737647751e+000	 1.009676159669875e+000	 1.219431122727813e+001
 1.403559467572799e+000	 1.024171407028996e+000	 1.215697699246546e+001
 1.392939065872686e+000	 1.038569693737863e+000	 1.213951725143295e+001
 1.382162868301684e+000	 1.052868489160362e+000	 1.214321385691768e+001
 1.371232264535938e+000	 1.067065286974477e+000	 1.216937586171641e+001
 1.360148697625305e+000	 1.081157606599462e+000	 1.221933787446722e+001
 1.348913663400077e+000	 1.095142994608318e+000	 1.229445830294685e+001
 1.459510922687576e+000	 9.541970074499075e-001	 1.249986827326941e+001
 1.449653108921212e+000	 9.691077990984042e-001	 1.239629894715912e+001
 1.439632786628982e+000	 9.839316552211205e-001	 1.230694590690827e+001
 1.429451075322537e+000	 9.986659530318740e-001	 1.223294109122229e+001
 1.419109150370644e+000	 1.013308088302974e+000	 1.217545032543403e+001
 1.408608242633252e+000	 1.027855476839688e+000	 1.213567218029879e+001
 1.397949638049173e+000	 1.042305555946706e+000	 1.211483670944526e+001
 1.387134677177550e+000	 1.056655785884905e+000	 1.211420406644361e+001
 1.376164754693366e+000	 1.070903651316721e+000	 1.213506300286084e+001
 1.365041318837303e+000	 1.085046662738457e+000	 1.217872924908474e+001
 1.353765870820339e+000	 1.099082357897835e+000	 1.224654378010665e+001
 1.464742144632903e+000	 9.576170684087774e-001	 1.248175136154573e+001
 1.454848998199642e+000	 9.725813037555648e-001	 1.237882078575488e+001
 1.444792760772856e+000	 9.874582919795520e-001	 1.228927618813879e+001
 1.434574555876782e+000	 1.002245400893888e+000	 1.221422275300505e+001
 1.424195563092979e+000	 1.016940016936733e+000	 1.215480082982324e+001
 1.413657017693081e+000	 1.031539546651007e+000	 1.211218482647229e+001
 1.402960210224999e+000	 1.046041418156111e+000	 1.208758197883478e+001
 1.392106486052751e+000	 1.060443082609914e+000	 1.208223099762456e+001
 1.381097244850154e+000	 1.074742015659307e+000	 1.209740059375065e+001
 1.369933940048715e+000	 1.088935718877639e+000	 1.213438788393479e+001
 1.358618078240099e+000	 1.103021721187355e+000	 1.219451667871812e+001
 1.310096004019939e+000	 1.063628088292278e+000	 1.252018862932569e+001
 1.299038675016562e+000	 1.077104809546124e+000	 1.225061847579243e+001
 1.287837294305645e+000	 1.090472995225815e+000	 1.199852553513929e+001
 1.276493464568590e+000	 1.103730349687863e+000	 1.176528276657432e+001
 1.265008837015460e+000	 1.116874608973804e+000	 1.155228688766360e+001
 1.253385110597755e+000	 1.129903542086910e+000	 1.136095626388990e+001
 1.241624031181043e+000	 1.142814952245264e+000	 1.125622339151973e+001
 1.229727390678271e+000	 1.155606678109761e+000	 1.118910665461020e+001
 1.217697026144643e+000	 1.168276594985559e+000	 1.113173397491210e+001
 1.205534818835045e+000	 1.180822615995628e+000	 1.108403299230884e+001
 1.193242693225000e+000	 1.193242693225000e+000	 1.104591058573045e+001
 1.314948211444210e+000	 1.067567451581774e+000	 1.250804002431432e+001
 1.303849929370200e+000	 1.081094086618931e+000	 1.223302131201412e+001
 1.292607062063873e+000	 1.094511784098193e+000	 1.197803613018144e+001
 1.281221218142488e+000	 1.107818239873688e+000	 1.174454206908903e+001
 1.269694054931700e+000	 1.121011181601920e+000	 1.153401871745862e+001
 1.258027277675423e+000	 1.134088370023210e+000	 1.134796545091969e+001
 1.246222638705396e+000	 1.147047600219413e+000	 1.121711947493466e+001
 1.234281936571276e+000	 1.159886702846462e+000	 1.116639458413750e+001
 1.222207015132179e+000	 1.172603545340277e+000	 1.112859240459936e+001
 1.209999762610600e+000	 1.185196033094652e+000	 1.110369347544111e+001
 1.197662110609750e+000	 1.197662110609750e+000	 1.109165450359731e+001
 1.319800418867981e+000	 1.071506814871272e+000	 1.249113969189670e+001
 1.308661183723427e+000	 1.085083363691555e+000	 1.221139527869618e+001
 1.297376829821760e+000	 1.098550572970233e+000	 1.195421964653994e+001
 1.285948971716095e+000	 1.111906130059049e+000	 1.172115474095905e+001
 1.274379272847680e+000	 1.125147754229477e+000	 1.151376276377048e+001
 1.262669444752842e+000	 1.138273197958886e+000	 1.133362386063782e+001
 1.250821246229488e+000	 1.151280248192903e+000	 1.118233371548645e+001
 1.238836482463992e+000	 1.164166727582499e+000	 1.114218009401823e+001
 1.226717004119375e+000	 1.176930495694355e+000	 1.112459598202860e+001
 1.214464706385745e+000	 1.189569450193092e+000	 1.112312943658704e+001
 1.202081527994000e+000	 1.202081527994000e+000	 1.113778667260925e+001
 1.324652626291251e+000	 1.075446178160773e+000	 1.246956844904833e+001
 1.313472438076244e+000	 1.089072640763997e+000	 1.218581252769419e+001
 1.302146597579306e+000	 1.102589361841935e+000	 1.192713973074018e+001
 1.290676725289411e+000	 1.115994020243947e+000	 1.169517608781556e+001
 1.279064490763398e+000	 1.129284326856476e+000	 1.149156616033932e+001
 1.267311611830010e+000	 1.142458025893939e+000	 1.131797062837836e+001
 1.255419853753320e+000	 1.155512896165733e+000	 1.117606378579176e+001
 1.243391028356417e+000	 1.168446752317872e+000	 1.111640619959984e+001
 1.231226993106231e+000	 1.181257446047794e+000	 1.111968070122411e+001
 1.218929650160481e+000	 1.193942867290946e+000	 1.114227008288380e+001
 1.206500945377750e+000	 1.206500945377750e+000	 1.118422975074059e+001
 1.329504833714019e+000	 1.079385541450276e+000	 1.244340683924455e+001
 1.318283692428648e+000	 1.093061917836256e+000	 1.215634506152433e+001
 1.306916365336510e+000	 1.106628150713299e+000	 1.189686000126439e+001
 1.295404478862436e+000	 1.120081910428383e+000	 1.166666150561625e+001
 1.283749708678856e+000	 1.133420899482916e+000	 1.146747624661396e+001
 1.271953778906928e+000	 1.146642853828368e+000	 1.130104520752149e+001
 1.260018461276891e+000	 1.159745544137904e+000	 1.116912107887048e+001
 1.247945574248552e+000	 1.172726777052579e+000	 1.108901644958714e+001
 1.235736982092747e+000	 1.185584396400593e+000	 1.111378319243432e+001
 1.223394593934806e+000	 1.198316284388216e+000	 1.116104535729783e+001
 1.210920362761000e+000	 1.210920362761000e+000	 1.123090722808937e+001
 1.334357041136285e+000	 1.083324904739783e+000	 1.241273513743323e+001
 1.323094946780642e+000	 1.097051194908334e+000	 1.212306473607813e+001
 1.311686133093374e+000	 1.110666939584326e+000	 1.186344404906127e+001
 1.300132232435169e+000	 1.124169800612355e+000	 1.163566647900306e+001
 1.288434926594054e+000	 1.137557472108798e+000	 1.144154056401249e+001
 1.276595945983595e+000	 1.150827681762172e+000	 1.128288736371060e+001
 1.264617068800203e+000	 1.163978192109416e+000	 1.116153775632322e+001
 1.252500120140397e+000	 1.177006801786623e+000	 1.107932965227840e+001
 1.240246971078924e+000	 1.189911346752752e+000	 1.110684071056378e+001
 1.227859537708721e+000	 1.202689701484900e+000	 1.117938592524571e+001
 1.215339780143750e+000	 1.215339780143750e+000	 1.127774341174840e+001
 1.339209248558051e+000	 1.087264268029292e+000	 1.237763335489979e+001
 1.327906201132224e+000	 1.101040471980228e+000	 1.208604326327933e+001
 1.316455900849896e+000	 1.114705728455015e+000	 1.182695543804475e+001
 1.304859986007612e+000	 1.128257690795864e+000	 1.160224657969519e+001
 1.293120144508991e+000	 1.141694044734122e+000	 1.141380685226275e+001
 1.281238113060011e+000	 1.155012509695353e+000	 1.126353716919602e+001
 1.269215676323254e+000	 1.168210840080269e+000	 1.115334639166202e+001
 1.257054666031951e+000	 1.181286826520001e+000	 1.108514844488873e+001
 1.244756960064759e+000	 1.194238297104271e+000	 1.109879112385701e+001
 1.232324481482227e+000	 1.207063118581000e+000	 1.119722316150680e+001
 1.219759197526000e+000	 1.219759197526000e+000	 1.132466341100422e+001
 1.344061455979315e+000	 1.091203631318804e+000	 1.233818124402606e+001
 1.332717455483395e+000	 1.105029749051940e+000	 1.204535221368191e+001
 1.321225668606078e+000	 1.118744517325367e+000	 1.178745770558210e+001
 1.309587739579765e+000	 1.132345580978910e+000	 1.156645746491778e+001
 1.297805362423667e+000	 1.145830617358886e+000	 1.138432304582356e+001
 1.285880280136177e+000	 1.159197337627910e+000	 1.124303499729973e+001
 1.273814283846044e+000	 1.172443488050462e+000	 1.114457996287592e+001
 1.261609211923216e+000	 1.185566851252716e+000	 1.109094769982235e+001
 1.249266949050255e+000	 1.198565247455150e+000	 1.108957290282768e+001
 1.236789425255322e+000	 1.211436535676514e+000	 1.121448913741838e+001
 1.224178614907750e+000	 1.224178614907750e+000	 1.137159312285705e+001
 1.348913663400077e+000	 1.095142994608318e+000	 1.229445830294685e+001
 1.337528709834155e+000	 1.109019026123470e+000	 1.200106301901339e+001
 1.325995436361918e+000	 1.122783306195380e+000	 1.174501436297134e+001
 1.314315493151626e+000	 1.136433471161492e+000	 1.152835487586351e+001
 1.302490580338082e+000	 1.149967189983092e+000	 1.135313727038153e+001
 1.290522447212092e+000	 1.163382165559843e+000	 1.122142151700126e+001
 1.278412891368574e+000	 1.176676136019996e+000	 1.113527184515605e+001
 1.266163757814190e+000	 1.189846875984765e+000	 1.109675366543732e+001
 1.253776938035411e+000	 1.202892197805389e+000	 1.110793041913913e+001
 1.241254369028007e+000	 1.215809952771444e+000	 1.123111660834795e+001
 1.228598032289000e+000	 1.228598032289000e+000	 1.141845921785343e+001
 1.353765870820339e+000	 1.099082357897835e+000	 1.224654378010665e+001
 1.342339964184503e+000	 1.113008303194817e+000	 1.195324697466216e+001
 1.330765204117417e+000	 1.126822095065056e+000	 1.169968889590855e+001
 1.319043246723196e+000	 1.140521361343612e+000	 1.148799463618830e+001
 1.307175798252237e+000	 1.154103762606740e+000	 1.132029783942449e+001
 1.295164614287757e+000	 1.167566993491152e+000	 1.119873768763853e+001
 1.283011498890844e+000	 1.180908783988870e+000	 1.112545580377689e+001
 1.270718303704874e+000	 1.194126900716150e+000	 1.110259307701804e+001
 1.258286927020226e+000	 1.207219148154989e+000	 1.113228641705686e+001
 1.245719312800282e+000	 1.220183369865789e+000	 1.124703900143446e+001
 1.233017449669750e+000	 1.233017449669750e+000	 1.146518912622352e+001
 1.358618078240099e+000	 1.103021721187355e+000	 1.219451667871812e+001
 1.347151218534440e+000	 1.116997580265982e+000	 1.190197524211282e+001
 1.335534971872575e+000	 1.130860883934394e+000	 1.165154476494481e+001
 1.323771000294476e+000	 1.144609251525269e+000	 1.144543265053852e+001
 1.311861016166131e+000	 1.158240335229829e+000	 1.128585325088782e+001
 1.299806781363172e+000	 1.171751821421837e+000	 1.117502475372312e+001
 1.287610106412854e+000	 1.185141431957086e+000	 1.111516598713109e+001
 1.275272849595268e+000	 1.198406925446870e+000	 1.110849314807961e+001
 1.262796916004702e+000	 1.211546098503949e+000	 1.115721646152924e+001
 1.250184256572148e+000	 1.224556786959549e+000	 1.126353677711850e+001
 1.237436867050000e+000	 1.237436867050000e+000	 1.151171102431496e+001
 1.193242693225000e+000	 1.193242693225000e+000	 1.104591058573045e+001
 1.180822615995628e+000	 1.205534818835045e+000	 1.103993361316731e+001
 1.168276594985559e+000	 1.217697026144643e+000	 1.111987484973912e+001
 1.155606678109760e+000	 1.229727390678270e+000	 1.128702390555631e+001
 1.142814952245264e+000	 1.241624031181043e+000	 1.154257485947343e+001
 1.129903542086909e+000	 1.253385110597755e+000	 1.163913449369671e+001
 1.116874608973804e+000	 1.265008837015459e+000	 1.118788727952640e+001
 1.103730349687863e+000	 1.276493464568590e+000	 1.078688895483455e+001
 1.090472995225815e+000	 1.287837294305645e+000	 1.043799606497140e+001
 1.077104809546124e+000	 1.299038675016561e+000	 1.014302572191381e+001
 1.063628088292278e+000	 1.310096004019939e+000	 9.903753117423596e+000
 1.197662110609750e+000	 1.197662110609750e+000	 1.109165450359731e+001
 1.185196033094652e+000	 1.209999762610600e+000	 1.112970951345387e+001
 1.172603545340277e+000	 1.222207015132179e+000	 1.125178964487174e+001
 1.159886702846462e+000	 1.234281936571276e+000	 1.145912122819135e+001
 1.147047600219413e+000	 1.246222638705396e+000	 1.175283681754203e+001
 1.134088370023210e+000	 1.258027277675424e+000	 1.155087219565949e+001
 1.121011181601920e+000	 1.269694054931700e+000	 1.112857433854788e+001
 1.107818239873688e+000	 1.281221218142488e+000	 1.075369058125426e+001
 1.094511784098193e+000	 1.292607062063873e+000	 1.042803752439656e+001
 1.081094086618931e+000	 1.303849929370200e+000	 1.015339511335549e+001
 1.067567451581774e+000	 1.314948211444210e+000	 9.931504174503788e+000
 1.202081527994000e+000	 1.202081527994000e+000	 1.113778667260925e+001
 1.189569450193092e+000	 1.214464706385745e+000	 1.121918833197002e+001
 1.176930495694355e+000	 1.226717004119375e+000	 1.138274238681024e+001
 1.164166727582499e+000	 1.238836482463992e+000	 1.162961218786259e+001
 1.151280248192903e+000	 1.250821246229488e+000	 1.190370560932973e+001
 1.138273197958886e+000	 1.262669444752842e+000	 1.146693861990432e+001
 1.125147754229477e+000	 1.274379272847680e+000	 1.107295863760523e+001
 1.111906130059049e+000	 1.285948971716094e+000	 1.072357408050550e+001
 1.098550572970233e+000	 1.297376829821760e+000	 1.042056195591425e+001
 1.085083363691555e+000	 1.308661183723427e+000	 1.016566538410639e+001
 1.071506814871272e+000	 1.319800418867981e+000	 9.960591157271745e+000
 1.206500945377750e+000	 1.206500945377750e+000	 1.118422975074059e+001
 1.193942867290946e+000	 1.218929650160481e+000	 1.130830048693824e+001
 1.181257446047794e+000	 1.231226993106231e+000	 1.151267107445946e+001
 1.168446752317871e+000	 1.243391028356417e+000	 1.179844218091913e+001
 1.155512896165733e+000	 1.255419853753320e+000	 1.179365121440487e+001
 1.142458025893939e+000	 1.267311611830010e+000	 1.138733782539223e+001
 1.129284326856476e+000	 1.279064490763398e+000	 1.102105064194886e+001
 1.115994020243947e+000	 1.290676725289411e+000	 1.069655610561383e+001
 1.102589361841935e+000	 1.302146597579306e+000	 1.041559197932711e+001
 1.089072640763997e+000	 1.313472438076244e+000	 1.017986489741463e+001
 1.075446178160773e+000	 1.324652626291251e+000	 9.991047946907216e+000
 1.210920362761000e+000	 1.210920362761000e+000	 1.123090722808937e+001
 1.198316284388216e+000	 1.223394593934806e+000	 1.139697711626282e+001
 1.185584396400593e+000	 1.235736982092747e+000	 1.164151431674301e+001
 1.172726777052580e+000	 1.247945574248552e+000	 1.196555710689746e+001
 1.159745544137904e+000	 1.260018461276891e+000	 1.168856805087678e+001
 1.146642853828368e+000	 1.271953778906928e+000	 1.131207416930388e+001
 1.133420899482916e+000	 1.283749708678856e+000	 1.097286101700674e+001
 1.120081910428383e+000	 1.295404478862436e+000	 1.067265341476282e+001
 1.106628150713300e+000	 1.306916365336511e+000	 1.041315022764077e+001
 1.093061917836256e+000	 1.318283692428648e+000	 1.019602194088015e+001
 1.079385541450276e+000	 1.329504833714019e+000	 1.002290826323427e+001
 1.215339780143750e+000	 1.215339780143750e+000	 1.127774341174840e+001
 1.202689701484900e+000	 1.227859537708721e+000	 1.148515006444481e+001
 1.189911346752752e+000	 1.240246971078923e+000	 1.176921132151191e+001
 1.177006801786623e+000	 1.252500120140397e+000	 1.196860238194160e+001
 1.163978192109416e+000	 1.264617068800203e+000	 1.158845434675576e+001
 1.150827681762172e+000	 1.276595945983594e+000	 1.124115230161800e+001
 1.137557472108798e+000	 1.288434926594054e+000	 1.092840062474544e+001
 1.124169800612355e+000	 1.300132232435169e+000	 1.065188286938219e+001
 1.110666939584326e+000	 1.311686133093374e+000	 1.041325934682242e+001
 1.097051194908334e+000	 1.323094946780642e+000	 1.021416472782911e+001
 1.083324904739783e+000	 1.334357041136285e+000	 1.005620566765396e+001
 1.219759197526000e+000	 1.219759197526000e+000	 1.132466341100422e+001
 1.207063118581000e+000	 1.232324481482227e+000	 1.157275186978102e+001
 1.194238297104271e+000	 1.244756960064759e+000	 1.189570188469501e+001
 1.181286826520001e+000	 1.257054666031951e+000	 1.184221439982877e+001
 1.168210840080269e+000	 1.269215676323254e+000	 1.149330871493034e+001
 1.155012509695353e+000	 1.281238113060011e+000	 1.117457715980569e+001
 1.141694044734121e+000	 1.293120144508991e+000	 1.088768052010935e+001
 1.128257690795864e+000	 1.304859986007612e+000	 1.063426143227732e+001
 1.114705728455015e+000	 1.316455900849897e+000	 1.041594199556717e+001
 1.101040471980228e+000	 1.327906201132224e+000	 1.023432139866040e+001
 1.087264268029292e+000	 1.339209248558051e+000	 1.009097356601484e+001
 1.224178614907750e+000	 1.224178614907750e+000	 1.137159312285705e+001
 1.211436535676514e+000	 1.236789425255322e+000	 1.165971575184077e+001
 1.198565247455150e+000	 1.249266949050255e+000	 1.202092637968339e+001
 1.185566851252715e+000	 1.261609211923215e+000	 1.172142294543300e+001
 1.172443488050462e+000	 1.273814283846044e+000	 1.140313014622048e+001
 1.159197337627910e+000	 1.285880280136177e+000	 1.111235396364226e+001
 1.145830617358886e+000	 1.297805362423667e+000	 1.085071194753770e+001
 1.132345580978909e+000	 1.309587739579764e+000	 1.061980616579932e+001
 1.118744517325366e+000	 1.321225668606078e+000	 1.042122084506736e+001
 1.105029749051940e+000	 1.332717455483395e+000	 1.025652002216140e+001
 1.091203631318804e+000	 1.344061455979315e+000	 1.012724521142062e+001
 1.228598032289000e+000	 1.228598032289000e+000	 1.141845921785343e+001
 1.215809952771444e+000	 1.241254369028007e+000	 1.174597559921302e+001
 1.202892197805390e+000	 1.253776938035411e+000	 1.191781218401954e+001
 1.189846875984765e+000	 1.266163757814190e+000	 1.160622104669241e+001
 1.176676136019996e+000	 1.278412891368574e+000	 1.131791800257985e+001
 1.163382165559843e+000	 1.290522447212092e+000	 1.105448821012937e+001
 1.149967189983092e+000	 1.302490580338082e+000	 1.081750633755570e+001
 1.136433471161492e+000	 1.314315493151625e+000	 1.060853423005461e+001
 1.122783306195380e+000	 1.325995436361918e+000	 1.042911857878863e+001
 1.109019026123470e+000	 1.337528709834155e+000	 1.028078859679621e+001
 1.095142994608318e+000	 1.348913663400077e+000	 1.016505370697735e+001
 1.233017449669750e+000	 1.233017449669750e+000	 1.146518912622352e+001
 1.220183369865789e+000	 1.245719312800282e+000	 1.183146595751653e+001
 1.207219148154989e+000	 1.258286927020226e+000	 1.177623620048177e+001
 1.194126900716150e+000	 1.270718303704874e+000	 1.149660219092767e+001
 1.180908783988870e+000	 1.283011498890844e+000	 1.123767201044460e+001
 1.167566993491152e+000	 1.295164614287757e+000	 1.100098566852670e+001
 1.154103762606740e+000	 1.307175798252237e+000	 1.078807530344054e+001
 1.140521361343612e+000	 1.319043246723196e+000	 1.060046288115316e+001
 1.126822095065056e+000	 1.330765204117417e+000	 1.043965789224940e+001
 1.113008303194817e+000	 1.342339964184503e+000	 1.030715505196569e+001
 1.099082357897835e+000	 1.353765870820339e+000	 1.020443200848175e+001
 1.237436867050000e+000	 1.237436867050000e+000	 1.151171102431496e+001
 1.224556786959549e+000	 1.250184256572148e+000	 1.190579712164603e+001
 1.211546098503949e+000	 1.262796916004702e+000	 1.164086134527901e+001
 1.198406925446870e+000	 1.275272849595268e+000	 1.139256031663847e+001
 1.185141431957086e+000	 1.287610106412854e+000	 1.116239225422517e+001
 1.171751821421837e+000	 1.299806781363171e+000	 1.095185237549031e+001
 1.158240335229829e+000	 1.311861016166131e+000	 1.076243063795717e+001
 1.144609251525269e+000	 1.323771000294475e+000	 1.059560946949431e+001
 1.130860883934394e+000	 1.335534971872575e+000	 1.045286149280584e+001
 1.116997580265982e+000	 1.347151218534440e+000	 1.033564724924093e+001
 1.103021721187355e+000	 1.358618078240099e+000	 1.024541292705142e+001
 1.063628088292278e+000	 1.310096004019939e+000	 9.903753117423596e+000
 1.050045157494259e+000	 1.321007727908218e+000	 9.986891104096147e+000
 1.036358372248845e+000	 1.331772343253447e+000	 1.003943493350999e+001
 1.022570115380820e+000	 1.342388397270810e+000	 1.006145392899647e+001
 1.008682796087312e+000	 1.352854488437064e+000	 1.005305633256556e+001
 9.946988485659610e-001	 1.363169267066746e+000	 1.001438828101501e+001
 9.806207306288222e-001	 1.373331435844554e+000	 9.945632727885961e+000
 9.664509223036144e-001	 1.383339750313575e+000	 9.847008314693577e+000
 9.521919244239487e-001	 1.393193019319020e+000	 9.718768194950870e+000
 9.378462572101719e-001	 1.402890105407243e+000	 9.561198814582861e+000
 9.234164588424588e-001	 1.412429925179876e+000	 9.374618652388136e+000
 1.067567451581774e+000	 1.314948211444210e+000	 9.931504174503788e+000
 1.053934213631753e+000	 1.325900349124905e+000	 1.001030693874263e+001
 1.040196736588351e+000	 1.336704833416002e+000	 1.005873376814748e+001
 1.026357412101629e+000	 1.347360206151996e+000	 1.007688282199732e+001
 1.012418658291667e+000	 1.357865060618825e+000	 1.006489090630905e+001
 9.983829183716519e-001	 1.368218042132184e+000	 1.002293241294266e+001
 9.842526592566460e-001	 1.378417848571904e+000	 9.951218205058792e+000
 9.700303701596552e-001	 1.388463230871971e+000	 9.849994452433283e+000
 9.557185611766380e-001	 1.398352993465913e+000	 9.719541420215576e+000
 9.413197618620899e-001	 1.408085994687293e+000	 9.560172214799540e+000
 9.268365197968526e-001	 1.417661147125154e+000	 9.372231490526977e+000
 1.071506814871272e+000	 1.319800418867981e+000	 9.960591157271745e+000
 1.057823269769434e+000	 1.330792970341006e+000	 1.003527642783419e+001
 1.044035100928199e+000	 1.341637323577915e+000	 1.007979780538902e+001
 1.030144708822905e+000	 1.352332015032518e+000	 1.009428227239442e+001
 1.016154520496584e+000	 1.362875632799925e+000	 1.007889519099014e+001
 1.002066988177968e+000	 1.373266817196999e+000	 1.003383920500763e+001
 9.878845878851287e-001	 1.383504261298697e+000	 9.959353088838338e+000
 9.736098180163596e-001	 1.393586711429907e+000	 9.855710546732370e+000
 9.592451979299652e-001	 1.403512967612471e+000	 9.723218966188037e+000
 9.447932665145903e-001	 1.413281883967162e+000	 9.562218129167654e+000
 9.302565807517438e-001	 1.422892369070439e+000	 9.373078884929765e+000
 1.075446178160773e+000	 1.324652626291251e+000	 9.991047946907216e+000
 1.061712325907304e+000	 1.335685591556522e+000	 1.006183033389988e+001
 1.047873465268390e+000	 1.346569813739187e+000	 1.010265472288305e+001
 1.033932005544648e+000	 1.357303823912376e+000	 1.011367690842956e+001
 1.019890382702061e+000	 1.367886204980367e+000	 1.009509080259243e+001
 1.005751057984910e+000	 1.378315592261190e+000	 1.004712729973529e+001
 9.915165165142714e-001	 1.388590674024933e+000	 9.970053088713996e+000
 9.771892658737281e-001	 1.398710191987381e+000	 9.864169416060381e+000
 9.627718346839306e-001	 1.408672941758693e+000	 9.729810803895260e+000
 9.482667711676734e-001	 1.418477773246852e+000	 9.567343726379569e+000
 9.336766417071323e-001	 1.428123591015728e+000	 9.377165248558537e+000
 1.079385541450276e+000	 1.329504833714019e+000	 1.002290826323427e+001
 1.065601382045360e+000	 1.340578212771451e+000	 1.008999929834361e+001
 1.051711829608923e+000	 1.351502303899819e+000	 1.012733211675767e+001
 1.037719302266857e+000	 1.362275632791567e+000	 1.013509131578054e+001
 1.023626244908099e+000	 1.372896777160149e+000	 1.011349935282972e+001
 1.009435127792477e+000	 1.383364367324758e+000	 1.006281537299466e+001
 9.951484451440732e-001	 1.393677086750611e+000	 9.983333984436339e+000
 9.807687137317599e-001	 1.403833672544393e+000	 9.875383985351974e+000
 9.662984714385338e-001	 1.413832915904580e+000	 9.739327046306334e+000
 9.517402758213387e-001	 1.423673662526362e+000	 9.575556351803741e+000
 9.370967026630179e-001	 1.433354812961022e+000	 9.384495205027461e+000
 1.083324904739783e+000	 1.334357041136285e+000	 1.005620566765396e+001
 1.069490438183604e+000	 1.345470833985793e+000	 1.011981384364733e+001
 1.055550193949798e+000	 1.356434794059810e+000	 1.015385750310151e+001
 1.041506598989533e+000	 1.367247441670094e+000	 1.015855003833537e+001
 1.027362107114699e+000	 1.377907349339272e+000	 1.013414244922385e+001
 1.013119197600668e+000	 1.388413142387704e+000	 1.008092213339304e+001
 9.987803737745346e-001	 1.398763499475732e+000	 9.999211624738905e+000
 9.843481615904555e-001	 1.408957153100945e+000	 9.889367284071122e+000
 9.698251081937752e-001	 1.418992890050131e+000	 9.751777945750909e+000
 9.552137804755868e-001	 1.428869551805691e+000	 9.586863524271404e+000
 9.405167636194014e-001	 1.438586034906323e+000	 9.395073584772288e+000
 1.087264268029292e+000	 1.339209248558051e+000	 1.009097356601484e+001
 1.073379494322036e+000	 1.350363455199550e+000	 1.015130437552474e+001
 1.059388558291016e+000	 1.361367284219160e+000	 1.018225831941462e+001
 1.045293895712676e+000	 1.372219250547955e+000	 1.018407757894932e+001
 1.031097969321859e+000	 1.382917921517736e+000	 1.015704169518062e+001
 1.016803267409485e+000	 1.393461917450026e+000	 1.010146632168190e+001
 1.002412302405655e+000	 1.403849912200296e+000	 1.001770192608965e+001
 9.879276094498145e-001	 1.414080633657034e+000	 9.906132444318068e+000
 9.733517449496544e-001	 1.424152864195347e+000	 9.767173891395228e+000
 9.586872851304173e-001	 1.434065441084842e+000	 9.601272932934311e+000
 9.439368245762818e-001	 1.443817256851628e+000	 9.408905421304592e+000
 1.091203631318804e+000	 1.344061455979315e+000	 1.012724521142062e+001
 1.077268550460655e+000	 1.355256076412721e+000	 1.018450118502955e+001
 1.063226922632575e+000	 1.366299774377870e+000	 1.021256192602633e+001
 1.049081192436286e+000	 1.377191059425152e+000	 1.021169840018589e+001
 1.034833831529581e+000	 1.387928493695541e+000	 1.018221869006353e+001
 1.020487337218928e+000	 1.398510692511724e+000	 1.012446671017714e+001
 1.006044231037436e+000	 1.408936324924302e+000	 1.003882087146709e+001
 9.915070573098375e-001	 1.419204114212663e+000	 9.925692698976370e+000
 9.768783817061717e-001	 1.429312838340228e+000	 9.785525406772010e+000
 9.621607897858303e-001	 1.439261330363811e+000	 9.618792434191130e+000
 9.473568855336596e-001	 1.449048478796939e+000	 9.425995947545376e+000
 1.095142994608318e+000	 1.348913663400077e+000	 1.016505370697735e+001
 1.081157606599462e+000	 1.360148697625305e+000	 1.021943445061746e+001
 1.067065286974477e+000	 1.371232264535938e+000	 1.024479560748396e+001
 1.052868489160362e+000	 1.382162868301684e+000	 1.024143692504076e+001
 1.038569693737863e+000	 1.392939065872686e+000	 1.020969502926750e+001
 1.024171407028995e+000	 1.403559467572799e+000	 1.014994210219165e+001
 1.009676159669875e+000	 1.414022737647751e+000	 1.006258450916468e+001
 9.950865051705241e-001	 1.424327594767831e+000	 9.948061379899743e+000
 9.804050184633271e-001	 1.434472812484773e+000	 9.806843147363361e+000
 9.656342944418261e-001	 1.444457219642602e+000	 9.639430048678307e+000
 9.507769464915348e-001	 1.454279700742255e+000	 9.446350592238565e+000
 1.099082357897835e+000	 1.353765870820339e+000	 1.020443200848175e+001
 1.085046662738457e+000	 1.365041318837303e+000	 1.025613424016407e+001
 1.070903651316721e+000	 1.376164754693366e+000	 1.027898657391043e+001
 1.056655785884904e+000	 1.387134677177550e+000	 1.027331753765149e+001
 1.042305555946707e+000	 1.397949638049172e+000	 1.023949230428893e+001
 1.027855476839688e+000	 1.408608242633252e+000	 1.017791133147915e+001
 1.013308088302974e+000	 1.419109150370644e+000	 1.008900895162062e+001
 9.986659530318742e-001	 1.429451075322537e+000	 9.973251916139398e+000
 9.839316552211204e-001	 1.439632786628982e+000	 9.831137898236674e+000
 9.691077990984042e-001	 1.449653108921212e+000	 9.663193958327783e+000
 9.541970074499075e-001	 1.459510922687576e+000	 9.469974976442284e+000
 1.103021721187355e+000	 1.358618078240099e+000	 1.024541292705142e+001
 1.088935718877639e+000	 1.369933940048715e+000	 1.029463051293922e+001
 1.074742015659307e+000	 1.381097244850154e+000	 1.031516196233339e+001
 1.060443082609914e+000	 1.392106486052751e+000	 1.030736458399118e+001
 1.046041418156111e+000	 1.402960210224999e+000	 1.027163210279634e+001
 1.031539546651006e+000	 1.413657017693081e+000	 1.020839326169116e+001
 1.016940016936733e+000	 1.424195563092979e+000	 1.011811037427160e+001
 1.002245400893888e+000	 1.434574555876782e+000	 1.000127783220762e+001
 9.874582919795517e-001	 1.444792760772856e+000	 9.858420571730381e+000
 9.725813037555651e-001	 1.454848998199642e+000	 9.690092503485394e+000
 9.576170684087774e-001	 1.464742144632903e+000	 9.496874910093933e+000
 9.234164588424588e-001	 1.412429925179876e+000	 9.374618652388136e+000
 9.089050840273738e-001	 1.421811449603946e+000	 9.181900859113041e+000
 8.943147025608084e-001	 1.431033704274998e+000	 8.989605145175288e+000
 8.796478978880710e-001	 1.440095769635220e+000	 8.798624839495181e+000
 8.649072656618984e-001	 1.448996781148650e+000	 8.609849319060498e+000
 8.500954123012681e-001	 1.457735929430653e+000	 8.424162358541857e+000
 8.352149535521845e-001	 1.466312460332897e+000	 8.242440505251068e+000
 8.202685130520029e-001	 1.474725674984115e+000	 8.065551483081146e+000
 8.052587208988490e-001	 1.482974929786992e+000	 7.894352628941213e+000
 7.901882122276566e-001	 1.491059636371622e+000	 7.729689365062662e+000
 7.750596257943284e-001	 1.498979261505971e+000	 7.572393710410468e+000
 9.268365197968526e-001	 1.417661147125154e+000	 9.372231490526977e+000
 9.122713991493050e-001	 1.427077417935356e+000	 9.185269494094257e+000
 8.976269792330394e-001	 1.436333829104598e+000	 8.998248403643189e+000
 8.829058530616802e-001	 1.445429457669300e+000	 8.812057485250806e+000
 8.681106259014928e-001	 1.454363435891512e+000	 8.627582508070901e+000
 8.532439138248584e-001	 1.463134951388880e+000	 8.445704085567201e+000
 8.383083422657296e-001	 1.471743247219932e+000	 8.267296041634637e+000
 8.233065445786368e-001	 1.480187621924985e+000	 8.093223805277111e+000
 8.082411606028103e-001	 1.488467429523033e+000	 7.924342837391795e+000
 7.931148352329429e-001	 1.496582079465020e+000	 7.761497093063746e+000
 7.779302169981074e-001	 1.504531036543981e+000	 7.605517522644558e+000
 9.302565807517438e-001	 1.422892369070439e+000	 9.373078884929765e+000
 9.156377142716384e-001	 1.432343386266961e+000	 9.191632331939546e+000
 9.009392559055877e-001	 1.441633953934563e+000	 9.009646867145166e+000
 8.861638082355320e-001	 1.450763145703893e+000	 8.828007883304533e+000
 8.713139861412651e-001	 1.459730090635019e+000	 8.647597729367540e+000
 8.563924153485721e-001	 1.468533973347862e+000	 8.469294043099476e+000
 8.414017309793533e-001	 1.477174034107809e+000	 8.293968108140962e+000
 8.263445761053153e-001	 1.485649568866768e+000	 8.122483239206748e+000
 8.112236003067914e-001	 1.493959929260035e+000	 7.955693199004939e+000
 7.960414582382346e-001	 1.502104522559409e+000	 7.794440650316153e+000
 7.808008082018862e-001	 1.510082811582991e+000	 7.639555646538045e+000
 9.336766417071323e-001	 1.428123591015728e+000	 9.377165248558537e+000
 9.190040293943744e-001	 1.437609354598762e+000	 9.200995432535567e+000
 9.042515325784538e-001	 1.446934078764893e+000	 9.023808210048166e+000
 8.894217634096270e-001	 1.456096833739002e+000	 8.846485289709246e+000
 8.745173463812160e-001	 1.465096745379168e+000	 8.669905787566602e+000
 8.595409168724095e-001	 1.473932995307596e+000	 8.494944550890276e+000
 8.444951196930564e-001	 1.482604820996529e+000	 8.322470505946706e+000
 8.293826076320378e-001	 1.491111515809460e+000	 8.153345033501459e+000
 8.142060400107922e-001	 1.499452428997997e+000	 7.988420375658964e+000
 7.989680812435307e-001	 1.507626965654788e+000	 7.828538077521717e+000
 7.836713994056653e-001	 1.515634586623001e+000	 7.674527466998694e+000
 9.370967026630179e-001	 1.433354812961022e+000	 9.384495205027461e+000
 9.223703445175128e-001	 1.442875322930758e+000	 9.213365036055686e+000
 9.075638092516374e-001	 1.452234203595588e+000	 9.040740257054230e+000
 8.926797185839646e-001	 1.461430521774624e+000	 8.867499081324928e+000
 8.777207066213449e-001	 1.470463400123961e+000	 8.694517579000770e+000
 8.626894183963704e-001	 1.479332017268082e+000	 8.522667991766040e+000
 8.475885084068381e-001	 1.488035607886090e+000	 8.352817071123182e+000
 8.324206391588052e-001	 1.496573462753065e+000	 8.185824443978770e+000
 8.171884797148126e-001	 1.504944928736920e+000	 8.022541009193766e+000
 8.018947042488318e-001	 1.513149408751157e+000	 7.863807368612402e+000
 7.865419906094441e-001	 1.521186361664010e+000	 7.710452295937569e+000
 9.405167636194014e-001	 1.438586034906323e+000	 9.395073584772288e+000
 9.257366596410536e-001	 1.448141291262948e+000	 9.228747559682930e+000
 9.108760859251388e-001	 1.457534328426648e+000	 9.060450980465960e+000
 8.959376737585449e-001	 1.466764209810760e+000	 8.891058753621396e+000
 8.809240668616519e-001	 1.475830054869397e+000	 8.721444090050442e+000
 8.658379199204548e-001	 1.484731039229321e+000	 8.552476810480536e+000
 8.506818971206991e-001	 1.493466394776493e+000	 8.385021674000694e+000
 8.354586706856162e-001	 1.502035409697580e+000	 8.219936733511776e+000
 8.201709194188529e-001	 1.510437428476803e+000	 8.058071721774018e+000
 8.048213272541377e-001	 1.518671851848516e+000	 7.900266471600338e+000
 7.894125818132231e-001	 1.526738136706020e+000	 7.747349373595063e+000
 9.439368245762818e-001	 1.443817256851628e+000	 9.408905421304592e+000
 9.291029747649968e-001	 1.453407259595335e+000	 9.247149594403000e+000
 9.141883625989576e-001	 1.462834453258072e+000	 9.082948497513627e+000
 8.991956289333684e-001	 1.472097897847411e+000	 8.917173918530031e+000
 8.841274271021371e-001	 1.481196709615478e+000	 8.750696395513508e+000
 8.689864214446632e-001	 1.490130061191314e+000	 8.584383512593986e+000
 8.537752858346388e-001	 1.498897181667738e+000	 8.419098218548932e+000
 8.384967022124720e-001	 1.507497356643007e+000	 8.255697171900389e+000
 8.231533591229127e-001	 1.515929928217648e+000	 8.095029116246383e+000
 8.077479502594486e-001	 1.524194294946866e+000	 7.937933289409521e+000
 7.922831730170018e-001	 1.532289911749030e+000	 7.785237869840329e+000
 9.473568855336596e-001	 1.449048478796939e+000	 9.425995947545376e+000
 9.324692898893423e-001	 1.458673227927916e+000	 9.268577901866957e+000
 9.175006392730939e-001	 1.468134578089861e+000	 9.108241067738542e+000
 9.024535841084345e-001	 1.477431585884576e+000	 8.945854302341642e+000
 8.873307873428004e-001	 1.486563364362201e+000	 8.782285657009259e+000
 8.721349229689948e-001	 1.495529083154059e+000	 8.618400663374544e+000
 8.568686745486576e-001	 1.504327968559824e+000	 8.455060641769105e+000
 8.415347337393723e-001	 1.512959303589345e+000	 8.293121035747314e+000
 8.261357988269922e-001	 1.521422427959452e+000	 8.133429776487713e+000
 8.106745732647646e-001	 1.529716738046205e+000	 7.976825680690123e+000
 7.951537642207809e-001	 1.537841686793040e+000	 7.824136885440927e+000
 9.507769464915348e-001	 1.454279700742255e+000	 9.446350592238565e+000
 9.358356050140902e-001	 1.463939196260693e+000	 9.293039411321569e+000
 9.208129159475480e-001	 1.473434702922016e+000	 9.136337090433750e+000
 9.057115392837436e-001	 1.482765273922255e+000	 8.977109743649066e+000
 8.905341475836424e-001	 1.491930019109569e+000	 8.816223121416099e+000
 8.752834244934499e-001	 1.500928105117557e+000	 8.654540886724726e+000
 8.599620632627556e-001	 1.509758755452753e+000	 8.492922913100522e+000
 8.445727652663168e-001	 1.518421250536594e+000	 8.332223608335314e+000
 8.291182385310915e-001	 1.526914927702218e+000	 8.173290267746708e+000
 8.136011962700855e-001	 1.535239181146535e+000	 8.016961460614137e+000
 7.980243554245597e-001	 1.543393461838049e+000	 7.864065453305804e+000
 9.541970074499075e-001	 1.459510922687576e+000	 9.469974976442284e+000
 9.392019201392408e-001	 1.469205164593664e+000	 9.320541216606124e+000
 9.241251926223195e-001	 1.478734827754534e+000	 9.167245102139736e+000
 9.089694944592957e-001	 1.488098961960449e+000	 9.010950191335553e+000
 8.937375078246626e-001	 1.497296673857580e+000	 8.852520119344172e+000
 8.784319260180290e-001	 1.506327127081807e+000	 8.692816864130839e+000
 8.630554519769325e-001	 1.515189542346524e+000	 8.532699033838247e+000
 8.476107967933055e-001	 1.523883197484754e+000	 8.373020179507575e+000
 8.321006782352105e-001	 1.532407427445944e+000	 8.214627136977455e+000
 8.165278192754111e-001	 1.540761624247855e+000	 8.058358401655358e+000
 8.008949466283386e-001	 1.548945236884059e+000	 7.905042539701569e+000
 9.576170684087774e-001	 1.464742144632903e+000	 9.496874910093933e+000
 9.425682352647939e-001	 1.474471132926832e+000	 9.351090573213240e+000
 9.274374692974090e-001	 1.484034952587418e+000	 9.200973774193017e+000
 9.122274496350906e-001	 1.493432649999157e+000	 9.047385702604080e+000
 8.969408680658605e-001	 1.502663328606234e+000	 8.891188063640460e+000
 8.815804275427316e-001	 1.511726149046811e+000	 8.733241333634537e+000
 8.661488406911884e-001	 1.520620329241138e+000	 8.574403036565750e+000
 8.506488283203391e-001	 1.529345144433827e+000	 8.415526045549882e+000
 8.350831179393492e-001	 1.537899927190630e+000	 8.257456913166093e+000
 8.194544422807419e-001	 1.546284067350166e+000	 8.101034234351378e+000
 8.037655378321177e-001	 1.554497011931069e+000	 7.947087045442051e+000
 7.750596257943284e-001	 1.498979261505971e+000	 7.572393710410468e+000
 7.598756025697726e-001	 1.506733326963681e+000	 7.450633691932520e+000
 7.446387843443382e-001	 1.514321409350497e+000	 7.319253950370068e+000
 7.293518123447982e-001	 1.521743139889445e+000	 7.178774737223557e+000
 7.140173258657167e-001	 1.528998204164998e+000	 7.029717029673852e+000
 6.986379609156435e-001	 1.536086341827724e+000	 6.872601316697761e+000
 6.832163488797554e-001	 1.543007346259936e+000	 6.707946414455759e+000
 6.677551152001890e-001	 1.549761064203186e+000	 6.536268313325824e+000
 6.522568780752868e-001	 1.556347395348487e+000	 6.358079058822315e+000
 6.367242471789096e-001	 1.562766291890175e+000	 6.173885668482623e+000
 6.211598224009415e-001	 1.569017758044370e+000	 5.969030581433257e+000
 7.779302169981074e-001	 1.504531036543981e+000	 7.605517522644558e+000
 7.626899566505700e-001	 1.512313820762371e+000	 7.480612046346859e+000
 7.473967057650733e-001	 1.519930007157836e+000	 7.346362570052054e+000
 7.320531153507119e-001	 1.527379225587559e+000	 7.203310837488438e+000
 7.166618344772155e-001	 1.534661160471510e+000	 7.051998764834320e+000
 7.012255089161288e-001	 1.541775550496002e+000	 6.892967204173308e+000
 6.857467797984986e-001	 1.548722188278094e+000	 6.726754737405051e+000
 6.702282822903232e-001	 1.555500919991715e+000	 6.553896503018824e+000
 6.546726442869753e-001	 1.562111644956365e+000	 6.374923057989525e+000
 6.390824851277746e-001	 1.568554315189317e+000	 6.190359276900392e+000
 6.234604143318276e-001	 1.574828934922310e+000	 5.994726256776317e+000
 7.808008082018862e-001	 1.510082811582991e+000	 7.639555646538045e+000
 7.655043107313726e-001	 1.517894314562057e+000	 7.511606546700389e+000
 7.501546271858290e-001	 1.525538604966154e+000	 7.374586174535977e+000
 7.347544183566720e-001	 1.533015311286626e+000	 7.229057812396005e+000
 7.193063430887965e-001	 1.540324116778941e+000	 7.075584362709162e+000
 7.038130569167412e-001	 1.547464759165151e+000	 6.914727088659155e+000
 6.882772107174254e-001	 1.554437030297069e+000	 6.747044386506405e+000
 6.727014493807063e-001	 1.561240775780996e+000	 6.573090591989828e+000
 6.570884104989879e-001	 1.567875894564918e+000	 6.393414823090188e+000
 6.414407230770497e-001	 1.574342338489050e+000	 6.208559861283500e+000
 6.257610062632188e-001	 1.580640111800744e+000	 6.019061073247798e+000
 7.836713994056653e-001	 1.515634586623001e+000	 7.674527466998694e+000
 7.683186648121800e-001	 1.523474808362737e+000	 7.543634366687638e+000
 7.529125486066053e-001	 1.531147202775452e+000	 7.403939758776360e+000
 7.374557213626782e-001	 1.538651396986647e+000	 7.256028511763453e+000
 7.219508517004588e-001	 1.545987073087289e+000	 7.100484562677413e+000
 7.064006049174814e-001	 1.553153967835174e+000	 6.937889634859922e+000
 6.908076416365353e-001	 1.560151872316860e+000	 6.768821988584629e+000
 6.751746164713384e-001	 1.566980631571029e+000	 6.593855206973743e+000
 6.595041767113253e-001	 1.573640144174146e+000	 6.413557019521392e+000
 6.437989610267343e-001	 1.580130361789372e+000	 6.228488165368733e+000
 6.280615981951152e-001	 1.586451288679672e+000	 6.039201298315112e+000
 7.865419906094441e-001	 1.521186361664010e+000	 7.710452295937569e+000
 7.711330188929930e-001	 1.529055302164412e+000	 7.576712632688621e+000
 7.556704700274020e-001	 1.536755800585729e+000	 7.434438295635188e+000
 7.401570243687304e-001	 1.544287482687622e+000	 7.284235788067131e+000
 7.245953603122033e-001	 1.551650029396557e+000	 7.126710131050055e+000
 7.089881529183492e-001	 1.558843176506069e+000	 6.962463558197159e+000
 6.933380725558287e-001	 1.565866714337469e+000	 6.792094244469451e+000
 6.776477835622194e-001	 1.572720487361812e+000	 6.616195071495689e+000
 6.619199429239876e-001	 1.579404393784050e+000	 6.435352431743623e+000
 6.461571989768296e-001	 1.585918385090285e+000	 6.250145073710033e+000
 6.303621901275167e-001	 1.592262465559097e+000	 6.061142990131848e+000
 7.894125818132231e-001	 1.526738136706020e+000	 7.747349373595063e+000
 7.739473729738109e-001	 1.534635795967082e+000	 7.610858424629162e+000
 7.584283914482192e-001	 1.542364398396985e+000	 7.466096736283700e+000
 7.428583273748288e-001	 1.549923568389552e+000	 7.313692496394268e+000
 7.272398689240293e-001	 1.557312985706742e+000	 7.154271860580226e+000
 7.115757009193443e-001	 1.564532385177836e+000	 6.988457623886411e+000
 6.958685034753054e-001	 1.571581556358894e+000	 6.816867927650175e+000
 6.801209506533497e-001	 1.578460343153345e+000	 6.640115004110329e+000
 6.643357091369744e-001	 1.585168643394629e+000	 6.458803961114910e+000
 6.485154369273344e-001	 1.591706408391787e+000	 6.273531609118648e+000
 6.326627820604233e-001	 1.598073642439015e+000	 6.084885332487539e+000
 7.922831730170018e-001	 1.532289911749030e+000	 7.785237869840329e+000
 7.767617270546340e-001	 1.540216289770747e+000	 7.646088776822317e+000
 7.611863128690569e-001	 1.547972996209222e+000	 7.498930010595350e+000
 7.455596303809728e-001	 1.555559654092434e+000	 7.344411494395935e+000
 7.298843775359371e-001	 1.562975942017845e+000	 7.183180569983845e+000
 7.141632489204668e-001	 1.570221593850476e+000	 7.015880646035404e+000
 6.983989343949653e-001	 1.577296398381135e+000	 6.843149882959307e+000
 6.825941177447289e-001	 1.584200198945631e+000	 6.665619916680636e+000
 6.667514753502855e-001	 1.590932893005884e+000	 6.483914623774005e+000
 6.508736748782492e-001	 1.597494431693880e+000	 6.298648930158437e+000
 6.349633739938352e-001	 1.603884819319429e+000	 6.110427665390258e+000
 7.951537642207809e-001	 1.537841686793040e+000	 7.824136885440927e+000
 7.795760811354622e-001	 1.545796783575406e+000	 7.682420678792040e+000
 7.639442342899151e-001	 1.553581594022437e+000	 7.532953027529885e+000
 7.482609333871633e-001	 1.561195739796271e+000	 7.376405642240146e+000
 7.325288861479266e-001	 1.568638898329867e+000	 7.213447103471495e+000
 7.167507969217171e-001	 1.575910802523989e+000	 7.044741486761708e+000
 7.009293653148083e-001	 1.583011240404194e+000	 6.870947025284730e+000
 6.850672848363570e-001	 1.589940054738667e+000	 6.692714812693924e+000
 6.691672415639214e-001	 1.596697142617814e+000	 6.510687548568178e+000
 6.532319128295742e-001	 1.603282454996562e+000	 6.325498328695350e+000
 6.372639659277521e-001	 1.609695996200337e+000	 6.137769482246166e+000
 7.980243554245597e-001	 1.543393461838049e+000	 7.864065453305804e+000
 7.823904352162955e-001	 1.551377277381061e+000	 7.719871076078643e+000
 7.667021557107940e-001	 1.559190191836633e+000	 7.568180675510231e+000
 7.509622363934000e-001	 1.566831825501062e+000	 7.409687802567012e+000
 7.351733947599978e-001	 1.574301854642807e+000	 7.245082330289391e+000
 7.193383449230947e-001	 1.581600011198374e+000	 7.075049055329140e+000
 7.034597962348349e-001	 1.588726082428069e+000	 6.900266338309817e+000
 6.875404519282342e-001	 1.595679910532454e+000	 6.721404785613107e+000
 6.715830077778819e-001	 1.602461392230419e+000	 6.539125975026021e+000
 6.555901507813093e-001	 1.609070478299835e+000	 6.354081227500215e+000
 6.395645578621741e-001	 1.615507173081741e+000	 6.166910427101442e+000
 8.008949466283386e-001	 1.548945236884059e+000	 7.905042539701569e+000
 7.852047892971339e-001	 1.556957771187710e+000	 7.758456871026495e+000
 7.694600771316934e-001	 1.564798789651807e+000	 7.604627822789629e+000
 7.536635393996826e-001	 1.572467911206807e+000	 7.444270840444536e+000
 7.378179033721508e-001	 1.579964810956664e+000	 7.278097144271226e+000
 7.219258929246000e-001	 1.587289219873631e+000	 7.106812307302953e+000
 7.059902271550445e-001	 1.594440924452761e+000	 6.931114873280281e+000
 6.900136190203603e-001	 1.601419766326991e+000	 6.751695017265546e+000
 6.739987739921669e-001	 1.608225641843700e+000	 6.569233251373940e+000
 6.579483887334542e-001	 1.614858501603697e+000	 6.384399177901975e+000
 6.418651497971015e-001	 1.621318349963639e+000	 6.197850291941792e+000
 8.037655378321177e-001	 1.554497011931069e+000	 7.947087045442051e+000
 7.880191433779775e-001	 1.562538264995355e+000	 7.798194923556477e+000
 7.722179985526133e-001	 1.570407387467961e+000	 7.642309317812527e+000
 7.563648424060112e-001	 1.578103996913506e+000	 7.480167623324867e+000
 7.404624119843858e-001	 1.585627767271441e+000	 7.312502463398636e+000
 7.245134409262326e-001	 1.592978428549761e+000	 7.140040243722473e+000
 7.085206580754377e-001	 1.600155766478270e+000	 6.963499747798159e+000
 6.924867861127357e-001	 1.607159622122281e+000	 6.783590776263426e+000
 6.764145402067767e-001	 1.613989891457657e+000	 6.601012832595532e+000
 6.603066266860092e-001	 1.620646524908150e+000	 6.416453857493504e+000
 6.441657417325339e-001	 1.627129526846033e+000	 6.230589014051409e+000
 6.211598224009415e-001	 1.569017758044370e+000	 5.969030581433257e+000
 6.055661926099898e-001	 1.575101849532566e+000	 5.827414223875871e+000
 5.899459344396110e-001	 1.581018673032763e+000	 5.683169975838851e+000
 5.743016110986338e-001	 1.586768385598347e+000	 5.537283736087590e+000
 5.586357712065342e-001	 1.592351194044788e+000	 5.390698855961725e+000
 5.429509476549788e-001	 1.597767354306690e+000	 5.244314675762340e+000
 5.272496564962449e-001	 1.603017170765881e+000	 5.098985190159186e+000
 5.115343958592787e-001	 1.608100995551681e+000	 4.955517843250459e+000
 4.958076448941103e-001	 1.613019227814568e+000	 4.814672453523862e+000
 4.800718627452845e-001	 1.617772312974385e+000	 4.677160268593491e+000
 4.643294875549160e-001	 1.622360741944348e+000	 4.543643149215903e+000
 6.234604143318276e-001	 1.574828934922310e+000	 5.994726256776317e+000
 6.078090303561643e-001	 1.580935560083131e+000	 5.854810788648291e+000
 5.921309193774487e-001	 1.586874297744808e+000	 5.712080357501383e+000
 5.764286540978756e-001	 1.592645305542407e+000	 5.567530024202525e+000
 5.607047925762519e-001	 1.598248791057379e+000	 5.422112053309332e+000
 5.449618770853256e-001	 1.603685011172237e+000	 5.276734430887634e+000
 5.292024329960851e-001	 1.608954271396148e+000	 5.132259512535445e+000
 5.134289676898067e-001	 1.614056925162618e+000	 4.989502802259697e+000
 4.976439694985576e-001	 1.618993373100456e+000	 4.849231862468126e+000
 4.818499066748250e-001	 1.623764062279213e+000	 4.712165354957216e+000
 4.660492263908797e-001	 1.628369485430300e+000	 4.578972212406825e+000
 6.257610062632188e-001	 1.580640111800744e+000	 6.019061073247798e+000
 6.100518681029389e-001	 1.586769270634102e+000	 5.883547633214008e+000
 5.943159043159708e-001	 1.592729922457190e+000	 5.742111443292585e+000
 5.785556970978764e-001	 1.598522225486754e+000	 5.598682986742824e+000
 5.627738139467935e-001	 1.604146388070229e+000	 5.454223655277939e+000
 5.469728065165500e-001	 1.609602668038035e+000	 5.309650285961485e+000
 5.311552094968474e-001	 1.614891372026678e+000	 5.165833791677128e+000
 5.153235395212911e-001	 1.620012854773848e+000	 5.023597923673233e+000
 4.994802941039853e-001	 1.624967518386690e+000	 4.883718166451698e+000
 4.836279506053606e-001	 1.629755811584457e+000	 4.746920764892208e+000
 4.677689652278433e-001	 1.634378228916758e+000	 4.613881883126664e+000
 6.280615981951152e-001	 1.586451288679672e+000	 6.039201298315112e+000
 6.122947058503134e-001	 1.592602981185477e+000	 5.913636798332398e+000
 5.965008892551779e-001	 1.598585547169908e+000	 5.773275649070467e+000
 5.806827400986360e-001	 1.604399145431387e+000	 5.630755398591449e+000
 5.648428353181582e-001	 1.610043985083338e+000	 5.487046780219716e+000
 5.489837359486520e-001	 1.615520324904083e+000	 5.343075687757146e+000
 5.331079859985315e-001	 1.620828472657470e+000	 5.199721788232652e+000
 5.172181113537314e-001	 1.625968784385372e+000	 5.057817267960856e+000
 5.013166187103936e-001	 1.630941663673269e+000	 4.918145712195813e+000
 4.854059945368910e-001	 1.635747560890116e+000	 4.781441118274991e+000
 4.694887040658072e-001	 1.640386972403723e+000	 4.648387041775121e+000
 6.303621901275167e-001	 1.592262465559097e+000	 6.061142990131848e+000
 6.145375435982877e-001	 1.598436691737258e+000	 5.945090466553206e+000
 5.986858741950694e-001	 1.604441171882960e+000	 5.805585512670789e+000
 5.828097831001549e-001	 1.610276065376309e+000	 5.663760137248325e+000
 5.669118566903464e-001	 1.615941582096706e+000	 5.520594630198262e+000
 5.509946653816317e-001	 1.621437981770382e+000	 5.377024148316635e+000
 5.350607625011374e-001	 1.626765573288524e+000	 5.233937310142303e+000
 5.191126831871280e-001	 1.631924713997189e+000	 5.092174925379088e+000
 5.031529433177824e-001	 1.636915808960192e+000	 4.952528859178780e+000
 4.871840384694170e-001	 1.641739310196192e+000	 4.815741031189078e+000
 4.712084429047709e-001	 1.646395715891194e+000	 4.682502548891017e+000
 6.326627820604233e-001	 1.598073642439015e+000	 6.084885332487539e+000
 6.167803813468622e-001	 1.604270402289444e+000	 5.977920959638485e+000
 6.008708591356453e-001	 1.610296796596350e+000	 5.839053691690064e+000
 5.849368261024328e-001	 1.616152985321517e+000	 5.697710180965064e+000
 5.689808780633577e-001	 1.621839179110332e+000	 5.554880489467831e+000
 5.530055948154891e-001	 1.627355638636931e+000	 5.411509243763885e+000
 5.370135390046652e-001	 1.632702673919841e+000	 5.268494211778469e+000
 5.210072550214807e-001	 1.637880643609301e+000	 5.126685015429201e+000
 5.049892679261517e-001	 1.642889954247461e+000	 4.986881979403655e+000
 4.889620824029380e-001	 1.647731059502684e+000	 4.849835115993466e+000
 4.729281817447346e-001	 1.652404459379171e+000	 4.716243245514647e+000
 6.349633739938352e-001	 1.603884819319429e+000	 6.110427665390258e+000
 6.190232190960366e-001	 1.610104112842035e+000	 6.012140736040734e+000
 6.030558440769063e-001	 1.616152421310076e+000	 5.873692961315948e+000
 5.870638691054697e-001	 1.622029905267013e+000	 5.732618606919274e+000
 5.710498994371926e-001	 1.627736776124218e+000	 5.589917722983460e+000
 5.550165242502241e-001	 1.633273295503731e+000	 5.446544613143892e+000
 5.389663155091149e-001	 1.638639774551420e+000	 5.303406393104646e+000
 5.229018268567895e-001	 1.643836573221706e+000	 5.161361686327918e+000
 5.068255925355018e-001	 1.648864099535075e+000	 5.021219457171409e+000
 4.907401263374541e-001	 1.653722808809591e+000	 4.883737981390672e+000
 4.746479205856983e-001	 1.658413202867654e+000	 4.749623953540985e+000
 6.372639659277521e-001	 1.609695996200337e+000	 6.137769482246166e+000
 6.212660568458113e-001	 1.615937823395031e+000	 6.047762388435638e+000
 6.052408290188516e-001	 1.622008046024137e+000	 5.909516212204667e+000
 5.891909121092658e-001	 1.627906825212796e+000	 5.768498589428828e+000
 5.731189208118509e-001	 1.633634373138361e+000	 5.625719774944576e+000
 5.570274536858364e-001	 1.639190952370780e+000	 5.482143957287041e+000
 5.409190920144864e-001	 1.644576875183261e+000	 5.338687798851998e+000
 5.247963986930544e-001	 1.649792502834405e+000	 5.196219114488613e+000
 5.086619171458323e-001	 1.654838244823034e+000	 5.055555688859006e+000
 4.925181702729654e-001	 1.659714558116915e+000	 4.917464232491970e+000
 4.763676594276620e-001	 1.664421946356644e+000	 4.782659476064522e+000
 6.395645578621741e-001	 1.615507173081741e+000	 6.166910427101442e+000
 6.235088945961858e-001	 1.621771533948432e+000	 6.084798641307812e+000
 6.074258139614815e-001	 1.627863670738535e+000	 5.946536448404132e+000
 5.913179551138209e-001	 1.633783745158866e+000	 5.805363398205095e+000
 5.751879421873325e-001	 1.639531970152765e+000	 5.662300167369724e+000
 5.590383831223267e-001	 1.645108609238082e+000	 5.518321037697617e+000
 5.428718685207796e-001	 1.650513975815364e+000	 5.374352417714602e+000
 5.266909705302757e-001	 1.655748432447398e+000	 5.231271504014069e+000
 5.104982417571433e-001	 1.660812390111338e+000	 5.089905082702348e+000
 4.942962142094717e-001	 1.665706307424654e+000	 4.951028470882720e+000
 4.780873982706256e-001	 1.670430689846139e+000	 4.815364597718188e+000
 6.418651497971015e-001	 1.621318349963639e+000	 6.197850291941792e+000
 6.257517323471603e-001	 1.627605244502239e+000	 6.120552638253137e+000
 6.096107989047962e-001	 1.633719295453268e+000	 5.984766785321748e+000
 5.934449981191351e-001	 1.639660665105224e+000	 5.843226396643557e+000
 5.772569635636374e-001	 1.645429567167426e+000	 5.699672498702058e+000
 5.610493125596946e-001	 1.651026266105633e+000	 5.555089675466860e+000
 5.448246450279949e-001	 1.656451076447729e+000	 5.410414281561777e+000
 5.285855423684529e-001	 1.661704362060684e+000	 5.266533086201216e+000
 5.123345663694349e-001	 1.666786535399986e+000	 5.124282058583352e+000
 4.960742581469735e-001	 1.671698056732810e+000	 4.984445294685339e+000
 4.798071371145894e-001	 1.676439433336142e+000	 4.847754085003768e+000
 6.441657417325339e-001	 1.627129526846033e+000	 6.230589014051409e+000
 6.279945700987348e-001	 1.633438955056451e+000	 6.152493468971337e+000
 6.117957838487955e-001	 1.639574920168338e+000	 6.024220447736036e+000
 5.955720411252083e-001	 1.645537585051869e+000	 5.882101040149884e+000
 5.793259849407659e-001	 1.651327164182347e+000	 5.737850442444948e+000
 5.630602419979398e-001	 1.656943922973434e+000	 5.592463750208585e+000
 5.467774215361323e-001	 1.662388177080357e+000	 5.446887464666285e+000
 5.304801142075866e-001	 1.667660291674265e+000	 5.302018119054215e+000
 5.141708909827072e-001	 1.672760680688981e+000	 5.158701047822216e+000
 4.978523020854702e-001	 1.677689806041381e+000	 5.017729298620671e+000
 4.815268759595532e-001	 1.682448176826651e+000	 4.879842686615957e+000
 4.643294875549160e-001	 1.622360741944348e+000	 4.543643149215903e+000
 4.485829354958992e-001	 1.626785050332617e+000	 4.403484426894591e+000
 4.328345998357548e-001	 1.631045817620970e+000	 4.266245249091957e+000
 4.170868500317653e-001	 1.635143666322889e+000	 4.132475602635235e+000
 4.013420308575864e-001	 1.639079261123530e+000	 4.002675300094580e+000
 3.856024615617088e-001	 1.642853308001051e+000	 3.877293731669808e+000
 3.698704350580959e-001	 1.646466553331135e+000	 3.756729736157533e+000
 3.541482171492353e-001	 1.649919782975936e+000	 3.641331588403187e+000
 3.384380457818014e-001	 1.653213821358677e+000	 3.531397100391618e+000
 3.227421303350742e-001	 1.656349530525136e+000	 3.427173832889638e+000
 3.070626509422089e-001	 1.659327809193225e+000	 3.328859414332178e+000
 4.660492263908797e-001	 1.628369485430300e+000	 4.578972212406825e+000
 4.502443537684520e-001	 1.632810180145704e+000	 4.439358715884821e+000
 4.344376909390627e-001	 1.637086728053518e+000	 4.302651093206075e+000
 4.186316161357615e-001	 1.641199753972835e+000	 4.169410295450378e+000
 4.028284828165502e-001	 1.645149925050602e+000	 4.040146557945914e+000
 3.870306188197278e-001	 1.648937949879712e+000	 3.915319143638489e+000
 3.712403255515309e-001	 1.652564577600201e+000	 3.795336206961982e+000
 3.554598772063075e-001	 1.656030596984823e+000	 3.680554775589811e+000
 3.396915200194225e-001	 1.659336835510220e+000	 3.571280847199572e+000
 3.239374715530414e-001	 1.662484158414930e+000	 3.467769598131153e+000
 3.081999200148853e-001	 1.665473467745450e+000	 3.370225700605512e+000
 4.677689652278433e-001	 1.634378228916758e+000	 4.613881883126664e+000
 4.519057720419994e-001	 1.638835309959385e+000	 4.474726699949112e+000
 4.360407820433499e-001	 1.643127638486732e+000	 4.338469982526594e+000
 4.201763822407112e-001	 1.647255841623493e+000	 4.205683751866832e+000
 4.043149347764313e-001	 1.651220588978416e+000	 4.076888762977426e+000
 3.884587760786181e-001	 1.655022591759122e+000	 3.952554239713512e+000
 3.726102160457811e-001	 1.658662601870004e+000	 3.833097731558286e+000
 3.567715372641291e-001	 1.662141410994416e+000	 3.718885089698670e+000
 3.409449942577170e-001	 1.665459849662416e+000	 3.610230559498868e+000
 3.251328127715962e-001	 1.668618786305306e+000	 3.507396986228698e+000
 3.093371890880544e-001	 1.671619126298166e+000	 3.410596130677202e+000
 4.694887040658072e-001	 1.640386972403723e+000	 4.648387041775121e+000
 4.535671903165419e-001	 1.644860439773664e+000	 4.509602674883150e+000
 4.376438731486164e-001	 1.649168548920612e+000	 4.373715626215747e+000
 4.217211483466143e-001	 1.653311929274866e+000	 4.241309093090080e+000
 4.058013867372300e-001	 1.657291252906970e+000	 4.112914447801414e+000
 3.898869333383798e-001	 1.661107233639282e+000	 3.989010963941059e+000
 3.739801065408468e-001	 1.664760626140546e+000	 3.870025666095486e+000
 3.580831973226998e-001	 1.668252225004714e+000	 3.756333300268674e+000
 3.421984684966851e-001	 1.671582863815267e+000	 3.648256422103399e+000
 3.263281539907390e-001	 1.674753414196265e+000	 3.546065599727962e+000
 3.104744581617163e-001	 1.677764784851376e+000	 3.449979727830287e+000
 4.712084429047709e-001	 1.646395715891194e+000	 4.682502548891017e+000
 4.552286085920790e-001	 1.650885569588537e+000	 4.544000913203662e+000
 4.392469642548621e-001	 1.655209459355155e+000	 4.408401707084569e+000
 4.232659144534709e-001	 1.659368016926952e+000	 4.276299411248962e+000
 4.072878386989461e-001	 1.663361916836267e+000	 4.148236113572746e+000
 3.913150905990129e-001	 1.667191875520191e+000	 4.024701226872169e+000
 3.753499970367277e-001	 1.670858650411824e+000	 3.906131331531266e+000
 3.593948573820199e-001	 1.674363039015719e+000	 3.792910140292439e+000
 3.434519427363265e-001	 1.677705877968772e+000	 3.685368582261094e+000
 3.275234952104696e-001	 1.680888042087809e+000	 3.583785002923670e+000
 3.116117272358708e-001	 1.683910443405078e+000	 3.488385476744771e+000
 4.729281817447346e-001	 1.652404459379171e+000	 4.716243245514647e+000
 4.568900268686111e-001	 1.656910699404007e+000	 4.577935664569607e+000
 4.408500553620871e-001	 1.661250369790364e+000	 4.442541882070039e+000
 4.248106805612809e-001	 1.665424104579751e+000	 4.310667769922724e+000
 4.087742906615797e-001	 1.669432580766306e+000	 4.182866230559355e+000
 3.927432478605173e-001	 1.673276517401851e+000	 4.059636906171655e+000
 3.767198875334238e-001	 1.676956674683841e+000	 3.941426014272745e+000
 3.607065174420892e-001	 1.680473853027428e+000	 3.828626306879505e+000
 3.447054169766413e-001	 1.683828892122931e+000	 3.721577150336594e+000
 3.287188364307884e-001	 1.687022669979935e+000	 3.620564722555117e+000
 3.127489963105180e-001	 1.690056101959272e+000	 3.525822324199776e+000
 4.746479205856983e-001	 1.658413202867654e+000	 4.749623953540985e+000
 4.585514451461377e-001	 1.662935829220072e+000	 4.611421156197662e+000
 4.424531464702913e-001	 1.667291280226237e+000	 4.476149782705153e+000
 4.263554466700444e-001	 1.671480192233264e+000	 4.344427204658785e+000
 4.102607426251307e-001	 1.675503244697085e+000	 4.216817238702991e+000
 3.941714051228930e-001	 1.679361159284259e+000	 4.093829847213903e+000
 3.780897780309352e-001	 1.683054698956594e+000	 3.975920966802066e+000
 3.620181775029077e-001	 1.686584667039844e+000	 3.863492461907130e+000
 3.459588912176295e-001	 1.689951906277744e+000	 3.756892200479230e+000
 3.299141776516947e-001	 1.693157297872643e+000	 3.656414248487464e+000
 3.138862653856577e-001	 1.696201760513960e+000	 3.562299179759449e+000
 4.763676594276620e-001	 1.664421946356644e+000	 4.782659476064522e+000
 4.602128634246595e-001	 1.668960959036734e+000	 4.644471593266505e+000
 4.440562375794747e-001	 1.673332190662776e+000	 4.509239015576879e+000
 4.279002127797613e-001	 1.677536279887490e+000	 4.377590723478516e+000
 4.117471945895991e-001	 1.681573908628606e+000	 4.250101548165823e+000
 3.955995623861402e-001	 1.685445801167417e+000	 4.127291863665454e+000
 3.794596685292618e-001	 1.689152723230085e+000	 4.009627408288083e+000
 3.633298375644755e-001	 1.692695481052965e+000	 3.897519232655997e+000
 3.472123654592912e-001	 1.696074920433212e+000	 3.791323771277460e+000
 3.311095188731889e-001	 1.699291925765935e+000	 3.691343034376101e+000
 3.150235344612903e-001	 1.702347419069140e+000	 3.597824916445534e+000
 4.780873982706256e-001	 1.670430689846139e+000	 4.815364597718188e+000
 4.618742817041759e-001	 1.674986088853992e+000	 4.677101159314027e+000
 4.456593286896376e-001	 1.679373101099979e+000	 4.541823162775271e+000
 4.294449788904317e-001	 1.683592367542430e+000	 4.410171307372765e+000
 4.132336465549850e-001	 1.687644572560869e+000	 4.282731539866535e+000
 3.970277196502587e-001	 1.691530443051325e+000	 4.160034738056135e+000
 3.808295590284037e-001	 1.695250747504314e+000	 4.042556525186773e+000
 3.646414976267925e-001	 1.698806295066792e+000	 3.930717212432445e+000
 3.484658397016263e-001	 1.702197934589333e+000	 3.824881866397855e+000
 3.323048600952711e-001	 1.705426553659810e+000	 3.725360498318450e+000
 3.161608035374153e-001	 1.708493077624812e+000	 3.632408371393990e+000
 4.798071371145894e-001	 1.676439433336142e+000	 4.847754085003768e+000
 4.635356999846870e-001	 1.681011218671845e+000	 4.709324016624017e+000
 4.472624198007795e-001	 1.685414011537847e+000	 4.573915782331930e+000
 4.309897450020553e-001	 1.689648455198082e+000	 4.442181910785889e+000
 4.147200985212883e-001	 1.693715236493873e+000	 4.314719566004048e+000
 3.984558769152486e-001	 1.697615084935982e+000	 4.192070222335413e+000
 3.821994495283609e-001	 1.701348771779280e+000	 4.074719471826099e+000
 3.659531576898588e-001	 1.704917109081324e+000	 3.963096961177234e+000
 3.497193139446348e-001	 1.708320948746108e+000	 3.857576455211047e+000
 3.335002013179410e-001	 1.711561181554268e+000	 3.758476023491514e+000
 3.172980726140333e-001	 1.714638736180978e+000	 3.666058346498225e+000
 4.815268759595532e-001	 1.682448176826651e+000	 4.879842686615957e+000
 4.651971182661930e-001	 1.687036348490294e+000	 4.741154306607089e+000
 4.488655109129008e-001	 1.691454921976380e+000	 4.605530408650112e+000
 4.325345111146327e-001	 1.695704542854449e+000	 4.473635462089470e+000
 4.162065504885091e-001	 1.699785900427619e+000	 4.346077950570437e+000
 3.998840341811098e-001	 1.703699726821389e+000	 4.223410038420658e+000
 3.835693400291334e-001	 1.707446796054984e+000	 4.106127370981172e+000
 3.672648177536744e-001	 1.711027923096562e+000	 3.994669006061548e+000
 3.509727881883168e-001	 1.714443962903538e+000	 3.889417473404446e+000
 3.346955425411988e-001	 1.717695809449309e+000	 3.790698958774663e+000
 3.184353416911437e-001	 1.720784394737636e+000	 3.698783609038980e+000
 3.070626509422089e-001	 1.659327809193225e+000	 3.328859414332178e+000
 2.914017578444691e-001	 1.662149591791622e+000	 3.231196453369683e+000
 2.757615707783158e-001	 1.664815847489411e+000	 3.136277179648150e+000
 2.601441783952619e-001	 1.667327579217425e+000	 3.044184679473997e+000
 2.445516377146296e-001	 1.669685822681902e+000	 2.954956685352220e+000
 2.289859736089372e-001	 1.671891645372384e+000	 2.868586296906692e+000
 2.134491783217773e-001	 1.673946145564738e+000	 2.785022784643997e+000
 1.979432110179770e-001	 1.675850451320397e+000	 2.704172472340197e+000
 1.824699973657963e-001	 1.677605719482902e+000	 2.625899693745378e+000
 1.670314291508851e-001	 1.679213134672815e+000	 2.550027819235929e+000
 1.516293639216783e-001	 1.680673908282036e+000	 2.476340347987533e+000
 3.081999200148853e-001	 1.665473467745450e+000	 3.370225700605512e+000
 2.924810236100061e-001	 1.668305701391197e+000	 3.273165438373908e+000
 2.767829099256723e-001	 1.670981832110667e+000	 3.178562939409702e+000
 2.611076753491434e-001	 1.673502866549252e+000	 3.086506582076840e+000
 2.454573845183321e-001	 1.675869844249140e+000	 2.997039142386585e+000
 2.298340698052849e-001	 1.678083836653538e+000	 2.910158512639080e+000
 2.142397308322749e-001	 1.680145946106004e+000	 2.825818503761377e+000
 1.986763340202953e-001	 1.682057304845977e+000	 2.743929727095949e+000
 1.831458121697112e-001	 1.683819074001603e+000	 2.664360551304125e+000
 1.676500640727866e-001	 1.685432442580932e+000	 2.586938129979918e+000
 1.521909541577658e-001	 1.686898626462497e+000	 2.511449495518032e+000
 3.093371890880544e-001	 1.671619126298166e+000	 3.410596130677202e+000
 2.935602893759464e-001	 1.674461810991169e+000	 3.314069120089446e+000
 2.778042490733632e-001	 1.677147816732236e+000	 3.219723641732359e+000
 2.620711723033110e-001	 1.679678153881318e+000	 3.127653379750532e+000
 2.463631313222928e-001	 1.682053865816553e+000	 3.037906157704927e+000
 2.306821660018833e-001	 1.684276027934815e+000	 2.950484655088878e+000
 2.150302833430353e-001	 1.686345746647349e+000	 2.865347208409676e+000
 1.994094570229085e-001	 1.688264158371600e+000	 2.782408692557212e+000
 1.838216269739730e-001	 1.690032428520324e+000	 2.701541478094238e+000
 1.682686989951061e-001	 1.691651750489052e+000	 2.622576460030791e+000
 1.527525443943615e-001	 1.693123344642959e+000	 2.545304153593701e+000
 3.104744581617163e-001	 1.677764784851376e+000	 3.449979727830287e+000
 2.946395551422896e-001	 1.680617920591540e+000	 3.353916483078279e+000
 2.788255882213884e-001	 1.683313801354119e+000	 3.259768206103427e+000
 2.630346692577645e-001	 1.685853441213624e+000	 3.167633901097682e+000
 2.472688781265117e-001	 1.688237887384141e+000	 3.077566443749110e+000
 2.315302621987320e-001	 1.690468219216211e+000	 2.989573295788702e+000
 2.158208358540583e-001	 1.692545547188770e+000	 2.903617304982796e+000
 2.001425800258166e-001	 1.694471011897267e+000	 2.819617586260319e+000
 1.844974417785813e-001	 1.696245783039064e+000	 2.737450479578061e+000
 1.688873339178434e-001	 1.697871058397178e+000	 2.656950580053384e+000
 1.533141346314656e-001	 1.699348062823420e+000	 2.577911835842293e+000
 3.116117272358708e-001	 1.683910443405078e+000	 3.488385476744771e+000
 2.957188209090360e-001	 1.686774030192309e+000	 3.392716465436676e+000
 2.798469273697476e-001	 1.689479785976315e+000	 3.298705498452303e+000
 2.639981662125042e-001	 1.692028728546168e+000	 3.206456914836001e+000
 2.481746249309887e-001	 1.694421908951904e+000	 3.116028647511275e+000
 2.323783583958311e-001	 1.696660410497730e+000	 3.027432936013601e+000
 2.166113883653443e-001	 1.698745347730269e+000	 2.940637125561453e+000
 2.008757030290196e-001	 1.700677865422977e+000	 2.855564548119312e+000
 1.851732565835363e-001	 1.702459137557824e+000	 2.772095481026386e+000
 1.695059688409986e-001	 1.704090366305309e+000	 2.690068178686795e+000
 1.538757248690779e-001	 1.705572781003881e+000	 2.609279972760082e+000
 3.127489963105180e-001	 1.690056101959272e+000	 3.525822324199776e+000
 2.967980866761855e-001	 1.692930139793474e+000	 3.430477959639826e+000
 2.808682665184413e-001	 1.695645770598824e+000	 3.336544332123427e+000
 2.649616631675299e-001	 1.698204015878952e+000	 3.244131130887362e+000
 2.490803717357239e-001	 1.700605930519843e+000	 3.153301351724233e+000
 2.332264545931808e-001	 1.702852601779369e+000	 3.064072008059352e+000
 2.174019408768929e-001	 1.704945148271844e+000	 2.976414929264518e+000
 2.016088260325176e-001	 1.706884718948730e+000	 2.890257641836529e+000
 1.858490713888380e-001	 1.708672492076602e+000	 2.805484328977018e+000
 1.701246037645716e-001	 1.710309674213444e+000	 2.721936864035756e+000
 1.544373151071985e-001	 1.711797499184343e+000	 2.639415913223294e+000
 3.138862653856577e-001	 1.696201760513960e+000	 3.562299179759449e+000
 2.978773524437381e-001	 1.699086249395039e+000	 3.467209813368795e+000
 2.818896056674692e-001	 1.701811755221647e+000	 3.373293468830351e+000
 2.659251601228416e-001	 1.704379303211975e+000	 3.280665201443180e+000
 2.499861185407171e-001	 1.706789952087957e+000	 3.189393076026009e+000
 2.340745507907808e-001	 1.709044793061131e+000	 3.099498876491318e+000
 2.181924933887044e-001	 1.711144948813498e+000	 3.010958903570647e+000
 2.023419490363104e-001	 1.713091572474527e+000	 2.923704856284402e+000
 1.865248861944863e-001	 1.714885846595400e+000	 2.837624792660522e+000
 1.707432386885626e-001	 1.716528982121585e+000	 2.752564165129557e+000
 1.549989053458275e-001	 1.718022217364804e+000	 2.668326925965928e+000
 3.150235344612903e-001	 1.702347419069140e+000	 3.597824916445534e+000
 2.989566182116938e-001	 1.705242358997001e+000	 3.502920830318797e+000
 2.829109448168315e-001	 1.707977739844784e+000	 3.408961619585963e+000
 2.668886570784392e-001	 1.710554590545237e+000	 3.316067722006119e+000
 2.508918653459686e-001	 1.712973973656246e+000	 3.224312278097821e+000
 2.349226469886313e-001	 1.715236984343013e+000	 3.133721839367711e+000
 2.189830459007786e-001	 1.717344749355229e+000	 3.044277165611841e+000
 2.030750720403982e-001	 1.719298426000368e+000	 2.955914106854889e+000
 1.872007010004814e-001	 1.721099201114217e+000	 2.868524565395810e+000
 1.713618736129713e-001	 1.722748290029729e+000	 2.781957533350520e+000
 1.555604955849647e-001	 1.724246935545265e+000	 2.696020201027697e+000
 3.161608035374153e-001	 1.708493077624812e+000	 3.632408371393990e+000
 3.000358839800526e-001	 1.711398468599361e+000	 3.537619770990274e+000
 2.839322839665280e-001	 1.714143724468233e+000	 3.443557445616263e+000
 2.678521540343229e-001	 1.716729877878739e+000	 3.350347232409729e+000
 2.517976121514781e-001	 1.719157995224710e+000	 3.258067354778882e+000
 2.357707431867323e-001	 1.721429175625016e+000	 3.166749129434777e+000
 2.197735984131156e-001	 1.723544549897037e+000	 3.076377763437857e+000
 2.038081950447809e-001	 1.725505279526252e+000	 2.986893236782325e+000
 1.878765158068231e-001	 1.727312555633053e+000	 2.898191265955918e+000
 1.719805085377980e-001	 1.728967597937879e+000	 2.810124343828610e+000
 1.561220858246102e-001	 1.730471653725727e+000	 2.722502851168154e+000
 3.172980726140333e-001	 1.714638736180978e+000	 3.666058346498225e+000
 3.011151497488146e-001	 1.717554578202118e+000	 3.571315353463785e+000
 2.849536231165589e-001	 1.720309709091997e+000	 3.477089559250516e+000
 2.688156509904927e-001	 1.722905165212480e+000	 3.383512217816743e+000
 2.527033589572458e-001	 1.725342016793350e+000	 3.290666643157020e+000
 2.366188393850837e-001	 1.727621366907142e+000	 3.198588915298354e+000
 2.205641509257154e-001	 1.729744350438923e+000	 3.107268677255183e+000
 2.045413180494585e-001	 1.731712133052179e+000	 3.016650018435727e+000
 1.885523306135115e-001	 1.733525910151909e+000	 2.926632439903585e+000
 1.725991434630426e-001	 1.735186905846034e+000	 2.837071896809359e+000
 1.566836760647640e-001	 1.736696371906188e+000	 2.747781913252258e+000
 3.184353416911437e-001	 1.720784394737636e+000	 3.698783609038980e+000
 3.021944155179797e-001	 1.723710687805274e+000	 3.604016254155850e+000
 2.859749622669240e-001	 1.726475693716074e+000	 3.509566524796372e+000
 2.697791479469485e-001	 1.729080452546460e+000	 3.415571109694134e+000
 2.536091057632717e-001	 1.731526038362165e+000	 3.322118421635035e+000
 2.374669355836857e-001	 1.733813558189388e+000	 3.229249302569003e+000
 2.213547034385780e-001	 1.735944150980886e+000	 3.136957820637909e+000
 2.052744410544310e-001	 1.737918986578150e+000	 3.045192154584131e+000
 1.892281454205466e-001	 1.739739264670784e+000	 2.953855560898363e+000
 1.732177783887050e-001	 1.741406213754194e+000	 2.862807418990968e+000
 1.572452663054261e-001	 1.742921090086650e+000	 2.771864349605774e+000
 1.516293639216783e-001	 1.680673908282036e+000	 2.476340347987533e+000
 1.362656246665251e-001	 1.681989277468541e+000	 2.404063459854199e+000
 1.209419995202348e-001	 1.683160504152495e+000	 2.341936146785784e+000
 1.056602415009327e-001	 1.684188874014710e+000	 2.289583218791034e+000
 9.042206827805349e-002	 1.685075695498433e+000	 2.246587947150385e+000
 7.522916196907355e-002	 1.685822298815284e+000	 2.212493618299078e+000
 6.008316896513854e-002	 1.686430034956265e+000	 2.186805128792781e+000
 4.498569978506317e-002	 1.686900274708655e+000	 2.168990616616477e+000
 2.993832895716441e-002	 1.687234407679613e+000	 2.158483124152922e+000
 1.494259492836752e-002	 1.687433841327259e+000	 2.154682288210370e+000
 0.000000000000000e+000	 1.687500000000000e+000	 2.156956052595626e+000
 1.521909541577658e-001	 1.686898626462497e+000	 2.511449495518032e+000
 1.367703121648149e-001	 1.688218867386415e+000	 2.437971747291014e+000
 1.213899328514737e-001	 1.689394431946694e+000	 2.374626637997263e+000
 1.060515757285271e-001	 1.690426610585930e+000	 2.321041948957258e+000
 9.075696482714878e-002	 1.691316716593454e+000	 2.276803472548983e+000
 7.550778849488014e-002	 1.692066085107595e+000	 2.241456575893170e+000
 6.030569922061210e-002	 1.692676072123027e+000	 2.214507806263021e+000
 4.515231348804408e-002	 1.693148053504017e+000	 2.195426533424671e+000
 3.004921165707971e-002	 1.693483424004416e+000	 2.183646624185287e+000
 1.499793787259610e-002	 1.693683596295153e+000	 2.178568144497231e+000
 0.000000000000000e+000	 1.693750000000000e+000	 2.179559084561866e+000
 1.527525443943615e-001	 1.693123344642959e+000	 2.545304153593701e+000
 1.372749996636976e-001	 1.694448457304288e+000	 2.470690796996055e+000
 1.218378661833589e-001	 1.695628359740893e+000	 2.406200745039068e+000
 1.064429099567907e-001	 1.696664347157150e+000	 2.351464679626339e+000
 9.109186137690600e-002	 1.697557737688474e+000	 2.306070836752880e+000
 7.578641502131139e-002	 1.698309871399906e+000	 2.269566580213699e+000
 6.052822947664337e-002	 1.698922109289788e+000	 2.241460017679791e+000
 4.531892719148647e-002	 1.699395832299378e+000	 2.221221654304066e+000
 3.016009435733123e-002	 1.699732440329219e+000	 2.208286079078023e+000
 1.505328081700695e-002	 1.699933351263048e+000	 2.202053679252302e+000
 0.000000000000000e+000	 1.700000000000000e+000	 2.201892378206181e+000
 1.533141346314656e-001	 1.699348062823420e+000	 2.577911835842293e+000
 1.377796871631729e-001	 1.700678047222161e+000	 2.502227423159090e+000
 1.222857995158903e-001	 1.701862287535093e+000	 2.436664581294602e+000
 1.068342441857236e-001	 1.702902083728370e+000	 2.380856822419744e+000
 9.142675792732512e-002	 1.703798758783495e+000	 2.334394749057536e+000
 7.606504154836728e-002	 1.704553657692218e+000	 2.296827638037609e+000
 6.075075973323235e-002	 1.705168146456550e+000	 2.267665067464542e+000
 4.548554089539030e-002	 1.705643611094739e+000	 2.246378581815403e+000
 3.027097705791895e-002	 1.705981456654022e+000	 2.232403390343481e+000
 1.510862376160009e-002	 1.706183106230943e+000	 2.225140094046677e+000
 0.000000000000000e+000	 1.706250000000000e+000	 2.223956436545806e+000
 1.538757248690779e-001	 1.705572781003881e+000	 2.609279972760082e+000
 1.382843746632410e-001	 1.706907637140035e+000	 2.532588362593330e+000
 1.227337328490680e-001	 1.708096215329292e+000	 2.466024188950847e+000
 1.072255784153257e-001	 1.709139820299590e+000	 2.409223724358144e+000
 9.176165447840617e-002	 1.710039779878516e+000	 2.361779861163687e+000
 7.634366807604781e-002	 1.710797443984529e+000	 2.323243705957533e+000
 6.097328999037904e-002	 1.711414183623311e+000	 2.293126217658262e+000
 4.565215459975559e-002	 1.711891389890100e+000	 2.270899884333391e+000
 3.038185975884288e-002	 1.712230472978825e+000	 2.256000433882347e+000
 1.516396670637549e-002	 1.712432861198837e+000	 2.247828573790383e+000
 0.000000000000000e+000	 1.712500000000000e+000	 2.245751755254880e+000
 1.544373151071985e-001	 1.711797499184343e+000	 2.639415913223294e+000
 1.387890621639018e-001	 1.713137227057908e+000	 2.561780276143360e+000
 1.231816661828920e-001	 1.714330143123491e+000	 2.494285540292483e+000
 1.076169126455970e-001	 1.715377556870810e+000	 2.436570669036859e+000
 9.209655103014913e-002	 1.716280800973536e+000	 2.388230768225138e+000
 7.662229460435295e-002	 1.717041230276840e+000	 2.348818691292359e+000
 6.119582024808347e-002	 1.717660220790073e+000	 2.317846688692062e+000
 4.581876830458236e-002	 1.718139168685461e+000	 2.294788096668204e+000
 3.049274246010301e-002	 1.718479489303628e+000	 2.279079060451250e+000
 1.521930965133318e-002	 1.718682616166732e+000	 2.270120287036697e+000
 0.000000000000000e+000	 1.718750000000000e+000	 2.267278822797533e+000
 1.549989053458275e-001	 1.718022217364804e+000	 2.668326925965928e+000
 1.392937496651553e-001	 1.719366816975781e+000	 2.589809750061584e+000
 1.236295995173622e-001	 1.720564070917690e+000	 2.521454538969045e+000
 1.080082468765375e-001	 1.721615293442030e+000	 2.462902877774000e+000
 9.243144758255401e-002	 1.722521822068557e+000	 2.413752009872261e+000
 7.690092113328274e-002	 1.723285016569152e+000	 2.373556452981123e+000
 6.141835050634558e-002	 1.723906257956835e+000	 2.341829660141475e+000
 4.598538200987058e-002	 1.724386947480823e+000	 2.318045720672729e+000
 3.060362516169935e-002	 1.724728505628431e+000	 2.301641096116895e+000
 1.527465259647314e-002	 1.724932371134626e+000	 2.292016386277299e+000
 0.000000000000000e+000	 1.725000000000000e+000	 2.288538120558750e+000
 1.555604955849647e-001	 1.724246935545265e+000	 2.696020201027697e+000
 1.397984371670016e-001	 1.725596406893654e+000	 2.616683297353454e+000
 1.240775328524787e-001	 1.726797998711890e+000	 2.547537021232960e+000
 1.083995811081473e-001	 1.727853030013250e+000	 2.488225510735054e+000
 9.276634413562078e-002	 1.728762843163578e+000	 2.438348071215469e+000
 7.717954766283716e-002	 1.729528802861463e+000	 2.397460802455864e+000
 6.164088076516541e-002	 1.730152295123596e+000	 2.365078271462935e+000
 4.615199571562027e-002	 1.730634726276184e+000	 2.340675225838290e+000
 3.071450786363189e-002	 1.730977521953234e+000	 2.323688342702090e+000
 1.532999554179538e-002	 1.731182126102521e+000	 2.313518008232444e+000
 0.000000000000000e+000	 1.731250000000000e+000	 2.309530122972094e+000
 1.561220858246102e-001	 1.730471653725727e+000	 2.722502851168154e+000
 1.403031246694406e-001	 1.731825996811528e+000	 2.642407359095973e+000
 1.245254661882414e-001	 1.733031926506089e+000	 2.572538757152227e+000
 1.087909153404262e-001	 1.734090766584470e+000	 2.512543668032873e+000
 9.310124068934948e-002	 1.735003864258599e+000	 2.462023383824581e+000
 7.745817419301623e-002	 1.735772589153774e+000	 2.420535504495523e+000
 6.186341102454294e-002	 1.736398332290357e+000	 2.387595622716813e+000
 4.631860942183140e-002	 1.736882505071545e+000	 2.362679049876854e+000
 3.082539056590066e-002	 1.737226538278037e+000	 2.345222578222388e+000
 1.538533848729990e-002	 1.737431881070416e+000	 2.334626274134783e+000
 0.000000000000000e+000	 1.737500000000000e+000	 2.330255297644840e+000
 1.566836760647640e-001	 1.736696371906188e+000	 2.747781913252258e+000
 1.408078121724723e-001	 1.738055586729401e+000	 2.666988305726026e+000
 1.249733995246504e-001	 1.739265854300289e+000	 2.596465451796528e+000
 1.091822495733745e-001	 1.740328503155689e+000	 2.535862390803284e+000
 9.343613724374009e-002	 1.741244885353620e+000	 2.484782326689211e+000
 7.773680072381993e-002	 1.742016375446085e+000	 2.442784278063250e+000
 6.208594128447820e-002	 1.742644369457119e+000	 2.409384775271710e+000
 4.648522312850401e-002	 1.743130283866907e+000	 2.384059599289524e+000
 3.093627326850561e-002	 1.743475554602840e+000	 2.366245557311960e+000
 1.544068143298669e-002	 1.743681636038310e+000	 2.355342290006974e+000
 0.000000000000000e+000	 1.743750000000000e+000	 2.350714105480170e+000
 1.572452663054261e-001	 1.742921090086650e+000	 2.771864349605774e+000
 1.413124996760967e-001	 1.744285176647274e+000	 2.690432438302069e+000
 1.254213328617058e-001	 1.745499782094488e+000	 2.619322746397568e+000
 1.095735838069919e-001	 1.746566239726909e+000	 2.558186662259109e+000
 9.377103379879261e-002	 1.747485906448641e+000	 2.506629227157205e+000
 7.801542725524828e-002	 1.748260161738397e+000	 2.464210797123441e+000
 6.230847154497118e-002	 1.748890406623881e+000	 2.430448752496861e+000
 4.665183683563809e-002	 1.749378062662268e+000	 2.404819249924863e+000
 3.104715597144679e-002	 1.749724570927643e+000	 2.386759011641264e+000
 1.549602437885576e-002	 1.749931391006205e+000	 2.375667146933147e+000
 0.000000000000000e+000	 1.750000000000000e+000	 2.370907000796938e+000
 1.750000000000000e+000	 0.000000000000000e+000	 1.306646782932418e+001
 1.749931391006205e+000	 1.549602437885581e-002	 1.310763848834068e+001
 1.749724570927643e+000	 3.104715597144690e-002	 1.314239572598198e+001
 1.749378062662268e+000	 4.665183683563797e-002	 1.317079386931124e+001
 1.748890406623881e+000	 6.230847154497113e-002	 1.319290421941028e+001
 1.748260161738397e+000	 7.801542725524827e-002	 1.320881528701397e+001
 1.747485906448641e+000	 9.377103379879266e-002	 1.321863299958372e+001
 1.746566239726910e+000	 1.095735838069920e-001	 1.322248087838615e+001
 1.745499782094488e+000	 1.254213328617057e-001	 1.322050018417049e+001
 1.744285176647274e+000	 1.413124996760966e-001	 1.321285003006915e+001
 1.742921090086650e+000	 1.572452663054261e-001	 1.319970746038387e+001
 1.756250000000000e+000	 0.000000000000000e+000	 1.303798773265610e+001
 1.756181145974097e+000	 1.555136732472726e-002	 1.307870166199525e+001
 1.755973587252437e+000	 3.115803867439764e-002	 1.311313015492918e+001
 1.755625841457608e+000	 4.681845054279364e-002	 1.314133718298336e+001
 1.755136443790604e+000	 6.253100180550264e-002	 1.316340391499653e+001
 1.754503948030648e+000	 7.829405378673703e-002	 1.317942894800228e+001
 1.753726927543574e+000	 9.410593035393250e-002	 1.318952850900595e+001
 1.752803976298010e+000	 1.099649180407287e-001	 1.319383662621100e+001
 1.751733709888532e+000	 1.258692661989173e-001	 1.319250526827810e+001
 1.750514766564950e+000	 1.418171871799196e-001	 1.318570445023107e+001
 1.749145808266865e+000	 1.578068565463341e-001	 1.317362230466407e+001
 1.762500000000000e+000	 0.000000000000000e+000	 1.300987113971271e+001
 1.762430900941985e+000	 1.560671027042120e-002	 1.305019128170731e+001
 1.762222603577211e+000	 3.126892137703129e-002	 1.308435137693863e+001
 1.761873620252904e+000	 4.698506424953104e-002	 1.311242501183323e+001
 1.761382480957250e+000	 6.275353206555349e-002	 1.313450319549556e+001
 1.760747734322778e+000	 7.857268031772201e-002	 1.315069458589712e+001
 1.759967948638332e+000	 9.444082690858503e-002	 1.316112568641461e+001
 1.759041712868873e+000	 1.103562522740347e-001	 1.316594101126055e+001
 1.757967637682262e+000	 1.263171995357952e-001	 1.316530321837707e+001
 1.756744356482227e+000	 1.423218746835467e-001	 1.315939320839899e+001
 1.755370526446589e+000	 1.583684467872255e-001	 1.314841018832983e+001
 1.768750000000000e+000	 0.000000000000000e+000	 1.298210502241446e+001
 1.768680655909867e+000	 1.566205321593764e-002	 1.302209308869674e+001
 1.768471619901966e+000	 3.137980407934788e-002	 1.305604390602659e+001
 1.768121399048157e+000	 4.715167795585018e-002	 1.308404064674755e+001
 1.767628518123819e+000	 6.297606232512372e-002	 1.310618413332732e+001
 1.766991520614787e+000	 7.885130684820321e-002	 1.312259305991433e+001
 1.766208969732917e+000	 9.477572346275033e-002	 1.313340418369536e+001
 1.765279449439496e+000	 1.107475865069100e-001	 1.313877248458570e+001
 1.764201565475680e+000	 1.267651328723394e-001	 1.313887129181170e+001
 1.762973946399108e+000	 1.428265621869780e-001	 1.313389237598097e+001
 1.761595244625821e+000	 1.589300370281002e-001	 1.312404600527583e+001
 1.775000000000000e+000	 0.000000000000000e+000	 1.295467653617608e+001
 1.774930410877745e+000	 1.571739616127656e-002	 1.299439302078406e+001
 1.774720636226703e+000	 3.149068678134740e-002	 1.302819246574297e+001
 1.774369177843367e+000	 4.731829166175106e-002	 1.305616760089976e+001
 1.773874555290311e+000	 6.319859258421331e-002	 1.307842903576473e+001
 1.773235306906675e+000	 7.912993337818060e-002	 1.309510547649545e+001
 1.772449990827326e+000	 9.511062001642832e-002	 1.310634391213169e+001
 1.771517186009881e+000	 1.111389207393545e-001	 1.311230976860052e+001
 1.770435493268785e+000	 1.272130662085499e-001	 1.311318702904046e+001
 1.769203536315592e+000	 1.433312496902136e-001	 1.310917831902968e+001
 1.767819962804562e+000	 1.594916272689585e-001	 1.310050495534420e+001
 1.781250000000000e+000	 0.000000000000000e+000	 1.292757301668718e+001
 1.781180165845618e+000	 1.577273910643796e-002	 1.296707720894107e+001
 1.780969652551419e+000	 3.160156948302983e-002	 1.300078198549532e+001
 1.780616956638534e+000	 4.748490536723368e-002	 1.302878960585027e+001
 1.780120592456726e+000	 6.342112284282227e-002	 1.305122044081345e+001
 1.779479093198442e+000	 7.940855990765421e-002	 1.306821318497040e+001
 1.778691011921561e+000	 9.544551656961904e-002	 1.307992503785431e+001
 1.777754922580028e+000	 1.115302549713683e-001	 1.308653185232133e+001
 1.776669421061578e+000	 1.276609995444268e-001	 1.308822824866911e+001
 1.775433126231679e+000	 1.438359371932534e-001	 1.308522769307309e+001
 1.774044680982811e+000	 1.600532175098001e-001	 1.307776253895693e+001
 1.787500000000000e+000	 0.000000000000000e+000	 1.290078197676072e+001
 1.787429920813487e+000	 1.582808205142186e-002	 1.294013197391428e+001
 1.787218668876117e+000	 3.171245218439518e-002	 1.297379759694985e+001
 1.786864735433658e+000	 4.765151907229805e-002	 1.300189060772845e+001
 1.786366629623063e+000	 6.364365310095058e-002	 1.302454111317815e+001
 1.785722879490089e+000	 7.968718643662405e-002	 1.304189777331116e+001
 1.784932033015621e+000	 9.578041312232247e-002	 1.305412797738564e+001
 1.783992659149936e+000	 1.119215892029515e-001	 1.306141798670586e+001
 1.782903348854058e+000	 1.281089328799700e-001	 1.306397304258794e+001
 1.781662716147370e+000	 1.443406246960975e-001	 1.306201743805380e+001
 1.780269399160567e+000	 1.606148077506251e-001	 1.305579455186108e+001
 1.793750000000000e+000	 0.000000000000000e+000	 1.287429110324720e+001
 1.793679675781350e+000	 1.588342499622824e-002	 1.291354382291864e+001
 1.793467685200796e+000	 3.182333488544347e-002	 1.294722463050786e+001
 1.793112514228738e+000	 4.781813277694415e-002	 1.297545476349456e+001
 1.792612666789324e+000	 6.386618335859824e-002	 1.299837404031298e+001
 1.791966665781615e+000	 7.996581296509009e-002	 1.301614106397432e+001
 1.791173054109507e+000	 9.611530967453859e-002	 1.302893339327763e+001
 1.790230395719605e+000	 1.123129234341039e-001	 1.303694768008991e+001
 1.789137276646225e+000	 1.285568662151796e-001	 1.304039977121077e+001
 1.787892306062663e+000	 1.448453121987458e-001	 1.303952477337404e+001
 1.786494117337833e+000	 1.611763979914335e-001	 1.303457707998356e+001
 1.800000000000000e+000	 0.000000000000000e+000	 1.284808825401317e+001
 1.799929430749210e+000	 1.593876794085712e-002	 1.288729944640025e+001
 1.799716701525456e+000	 3.193421758617468e-002	 1.292104861185532e+001
 1.799360293023775e+000	 4.798474648117199e-002	 1.294946643727946e+001
 1.798858703955507e+000	 6.408871361576526e-002	 1.297270242855440e+001
 1.798210452073020e+000	 8.024443949305236e-002	 1.299092510983001e+001
 1.797414075203218e+000	 9.645020622626745e-002	 1.300432218984042e+001
 1.796468132289036e+000	 1.127042576648255e-001	 1.301310069371883e+001
 1.795371204438080e+000	 1.290047995500554e-001	 1.301748705881307e+001
 1.794121895977559e+000	 1.453499997011984e-001	 1.301772719304391e+001
 1.792718835514606e+000	 1.617379882322254e-001	 1.301408649439356e+001
 1.806250000000000e+000	 0.000000000000000e+000	 1.282216145498248e+001
 1.806179185717063e+000	 1.599411088530848e-002	 1.286138571486621e+001
 1.805965717850096e+000	 3.204510028658880e-002	 1.289525525858446e+001
 1.805608071818769e+000	 4.815136018498157e-002	 1.292391019680031e+001
 1.805104741121614e+000	 6.431124387245167e-002	 1.294750969933440e+001
 1.804454238364304e+000	 8.052306602051083e-002	 1.296623219017567e+001
 1.803655096296754e+000	 9.678510277750906e-002	 1.298027550895965e+001
 1.802705868858229e+000	 1.130955918951165e-001	 1.298985703737205e+001
 1.801605132229622e+000	 1.294527328845976e-001	 1.299521378896685e+001
 1.800351485892058e+000	 1.458546872034551e-001	 1.299660246093055e+001
 1.798943553690888e+000	 1.622995784730007e-001	 1.299429944636904e+001
 1.812500000000000e+000	 0.000000000000000e+000	 1.279649889723875e+001
 1.812428940684913e+000	 1.604945382958234e-002	 1.283578967578030e+001
 1.812214734174718e+000	 3.215598298668587e-002	 1.286983047688480e+001
 1.811855850613720e+000	 4.831797388837290e-002	 1.289877080985047e+001
 1.811350778287644e+000	 6.453377412865742e-002	 1.292277948547183e+001
 1.810698024655467e+000	 8.080169254746553e-002	 1.294204480683205e+001
 1.809896117390116e+000	 9.711999932826335e-002	 1.295677472600037e+001
 1.808943605427183e+000	 1.134869261249768e-001	 1.296719696507791e+001
 1.807839060020853e+000	 1.299006662188061e-001	 1.297355910007010e+001
 1.806581075806160e+000	 1.463593747055161e-001	 1.297612860610517e+001
 1.805168271866678e+000	 1.628611687137593e-001	 1.297519286256570e+001
 1.742921090086650e+000	 1.572452663054261e-001	 1.319970746038387e+001
 1.741406213754194e+000	 1.732177783887051e-001	 1.322869109469621e+001
 1.739739264670784e+000	 1.892281454205466e-001	 1.325478454117662e+001
 1.737918986578149e+000	 2.052744410544308e-001	 1.327812512065410e+001
 1.735944150980886e+000	 2.213547034385778e-001	 1.329886430205868e+001
 1.733813558189388e+000	 2.374669355836857e-001	 1.331716760077596e+001
 1.731526038362165e+000	 2.536091057632717e-001	 1.333321444064257e+001
 1.729080452546460e+000	 2.697791479469486e-001	 1.334719797877780e+001
 1.726475693716074e+000	 2.859749622669239e-001	 1.335932489252608e+001
 1.723710687805274e+000	 3.021944155179795e-001	 1.336981512786766e+001
 1.720784394737636e+000	 3.184353416911437e-001	 1.337890160874420e+001
 1.749145808266865e+000	 1.578068565463341e-001	 1.317362230466407e+001
 1.747625521662062e+000	 1.738364133146609e-001	 1.320234031282614e+001
 1.745952619189332e+000	 1.899039602279180e-001	 1.322831383430724e+001
 1.744125840103767e+000	 2.060075640597776e-001	 1.325168716005745e+001
 1.742143951522480e+000	 2.221452559518476e-001	 1.327261885861200e+001
 1.740005749471260e+000	 2.383150317827229e-001	 1.329128166789514e+001
 1.737710059930609e+000	 2.545148525697561e-001	 1.330786235017286e+001
 1.735255739880082e+000	 2.707426449038810e-001	 1.332256150934661e+001
 1.732641678339818e+000	 2.869963014177787e-001	 1.333559336986093e+001
 1.729866797408131e+000	 3.032736812876420e-001	 1.334718551658118e+001
 1.726930053294041e+000	 3.195726107687542e-001	 1.335757859508943e+001
 1.755370526446589e+000	 1.583684467872255e-001	 1.314841018832983e+001
 1.753844829569343e+000	 1.744550482407858e-001	 1.317684799444951e+001
 1.752165973707207e+000	 1.905797750356152e-001	 1.320268463640358e+001
 1.750332693628637e+000	 2.067406870655779e-001	 1.322607139285349e+001
 1.748343752063260e+000	 2.229358084656694e-001	 1.324717395220847e+001
 1.746197940752260e+000	 2.391631279823807e-001	 1.326617229789414e+001
 1.743894081498136e+000	 2.554205993768995e-001	 1.328326055627374e+001
 1.741431027212752e+000	 2.717061418614806e-001	 1.329864680641141e+001
 1.738807662962582e+000	 2.880176405692781e-001	 1.331255285094707e+001
 1.736022907009994e+000	 3.043529470578961e-001	 1.332521394744001e+001
 1.733075711849444e+000	 3.207098798468721e-001	 1.333687849962844e+001
 1.761595244625821e+000	 1.589300370281002e-001	 1.312404600527583e+001
 1.760064137476038e+000	 1.750736831670798e-001	 1.315218840031615e+001
 1.758379328224410e+000	 1.912555898436383e-001	 1.317787058045452e+001
 1.756539547152758e+000	 2.074738100718318e-001	 1.320125083007910e+001
 1.754543552603225e+000	 2.237263609800429e-001	 1.322250197817380e+001
 1.752390132032390e+000	 2.400112241826588e-001	 1.324181127706704e+001
 1.750078103064745e+000	 2.563263461847017e-001	 1.325938024333251e+001
 1.747606314544469e+000	 2.726696388197473e-001	 1.327542446002846e+001
 1.744973647584368e+000	 2.890389797214226e-001	 1.329017333954267e+001
 1.742179016610862e+000	 3.054322128287419e-001	 1.330386984639946e+001
 1.739221370403849e+000	 3.218471489254972e-001	 1.331677017947626e+001
 1.767819962804562e+000	 1.594916272689585e-001	 1.310050495534420e+001
 1.766283445382145e+000	 1.756923180935428e-001	 1.312833610065273e+001
 1.764592682740940e+000	 1.919314046519873e-001	 1.315384561227581e+001
 1.762746400676130e+000	 2.082069330785392e-001	 1.317719879876544e+001
 1.760743353142376e+000	 2.245169134949684e-001	 1.319857565080997e+001
 1.758582323311649e+000	 2.408593203835573e-001	 1.321817071347764e+001
 1.756262124630438e+000	 2.572320929931631e-001	 1.323619292010801e+001
 1.753781601875232e+000	 2.736331357786813e-001	 1.325286538703319e+001
 1.751139632205174e+000	 2.900603188742118e-001	 1.326842516839554e+001
 1.748335126210734e+000	 3.065114786001792e-001	 1.328312297041514e+001
 1.745367028957254e+000	 3.229844180046296e-001	 1.329722282455651e+001
 1.774044680982811e+000	 1.600532175098001e-001	 1.307776253895693e+001
 1.772502753287666e+000	 1.763109530201749e-001	 1.310526596973332e+001
 1.770806037256798e+000	 1.926072194606622e-001	 1.313058398502176e+001
 1.768953254198755e+000	 2.089400560857003e-001	 1.315388893639421e+001
 1.766943153680711e+000	 2.253074660104455e-001	 1.317536799779905e+001
 1.764774514590037e+000	 2.417074165850763e-001	 1.319522303131434e+001
 1.762446146195213e+000	 2.581378398022832e-001	 1.321367041403985e+001
 1.759956889205043e+000	 2.745966327382824e-001	 1.323094082530729e+001
 1.757305616825002e+000	 2.910816580276460e-001	 1.324727899347148e+001
 1.754491235809613e+000	 3.075907443722084e-001	 1.326294340163609e+001
 1.751512687509658e+000	 3.241216870842695e-001	 1.327820595176273e+001
 1.780269399160567e+000	 1.606148077506251e-001	 1.305579455186108e+001
 1.778722061192599e+000	 1.769295879469760e-001	 1.308295318056385e+001
 1.777019391771983e+000	 1.932830342696628e-001	 1.310806025381231e+001
 1.775160107720630e+000	 2.096731790933149e-001	 1.313129518547025e+001
 1.773142954218233e+000	 2.260980185264747e-001	 1.315285235472471e+001
 1.770966705867554e+000	 2.425555127872156e-001	 1.317294096536326e+001
 1.768630167759072e+000	 2.590435866120624e-001	 1.319178486567719e+001
 1.766132176533900e+000	 2.755601296985509e-001	 1.320962232816590e+001
 1.763471601443849e+000	 2.921029971817249e-001	 1.322670578830350e+001
 1.760647345407496e+000	 3.086700101448291e-001	 1.324330154171944e+001
 1.757658346061062e+000	 3.252589561644167e-001	 1.325968939924209e+001
 1.786494117337833e+000	 1.611763979914335e-001	 1.303457707998356e+001
 1.784941369096946e+000	 1.775482228739461e-001	 1.306137319967777e+001
 1.783232746286496e+000	 1.939588490789895e-001	 1.308624927047225e+001
 1.781366961241757e+000	 2.104063021013831e-001	 1.310939178820746e+001
 1.779342754754940e+000	 2.268885710430556e-001	 1.313100235970787e+001
 1.777158897144200e+000	 2.434036089899754e-001	 1.315129755559746e+001
 1.774814189322014e+000	 2.599493334225005e-001	 1.317050872322379e+001
 1.772307463861803e+000	 2.765236266594864e-001	 1.318888175886231e+001
 1.769637586061718e+000	 2.931243363364487e-001	 1.320667683845941e+001
 1.766803455004385e+000	 3.097492759180415e-001	 1.322416810626417e+001
 1.763804004611467e+000	 3.263962252450711e-001	 1.324164332079860e+001
 1.792718835514606e+000	 1.617379882322254e-001	 1.301408649439356e+001
 1.791160677000706e+000	 1.781668578010854e-001	 1.304050178204000e+001
 1.789446100800336e+000	 1.946346638886419e-001	 1.306512617838010e+001
 1.787573814762136e+000	 2.111394251099049e-001	 1.308815328132557e+001
 1.785542555290832e+000	 2.276791235601885e-001	 1.310979194815447e+001
 1.783351088419976e+000	 2.442517051933555e-001	 1.313026614187836e+001
 1.780998210884037e+000	 2.608550802335975e-001	 1.314981473719677e+001
 1.778482751188754e+000	 2.774871236210891e-001	 1.316869128520714e+001
 1.775803570678608e+000	 2.941456754918174e-001	 1.318716373612440e+001
 1.772959564600278e+000	 3.108285416918456e-001	 1.320551411936070e+001
 1.769949663160871e+000	 3.275334943262329e-001	 1.322403818041300e+001
 1.798943553690888e+000	 1.622995784730007e-001	 1.299429944636904e+001
 1.797379984903879e+000	 1.787854927283937e-001	 1.302031496605695e+001
 1.795659455313504e+000	 1.953104786986203e-001	 1.304466640742387e+001
 1.793780668281766e+000	 2.118725481188802e-001	 1.306755449095491e+001
 1.791742355825909e+000	 2.284696760778732e-001	 1.308919534761214e+001
 1.789543279694881e+000	 2.450998013973561e-001	 1.310982035876733e+001
 1.787182232445145e+000	 2.617608270453535e-001	 1.312967595519639e+001
 1.784658038514751e+000	 2.784506205833590e-001	 1.314902337429907e+001
 1.781969555294519e+000	 2.951670146478310e-001	 1.316813837479642e+001
 1.779115674195177e+000	 3.119078074662413e-001	 1.318731090825359e+001
 1.776095321709276e+000	 3.286707634079022e-001	 1.320684474687642e+001
 1.805168271866678e+000	 1.628611687137593e-001	 1.297519286256570e+001
 1.803599292806465e+000	 1.794041276558710e-001	 1.300078906868942e+001
 1.801872809825999e+000	 1.959862935089245e-001	 1.302484566906138e+001
 1.799987521800647e+000	 2.126056711283091e-001	 1.304757052764645e+001
 1.797942156360172e+000	 2.292602285961097e-001	 1.306918707273308e+001
 1.795735470968915e+000	 2.459478976019772e-001	 1.308993413044485e+001
 1.793366254005335e+000	 2.626665738577685e-001	 1.311006571678374e+001
 1.790833325839795e+000	 2.794141175462963e-001	 1.312985078736479e+001
 1.788135539909451e+000	 2.961883538044893e-001	 1.314957294409098e+001
 1.785271783789082e+000	 3.129870732412287e-001	 1.316953009811486e+001
 1.782240980256681e+000	 3.298080324900787e-001	 1.319003408853485e+001
 1.720784394737636e+000	 3.184353416911437e-001	 1.337890160874420e+001
 1.717695809449309e+000	 3.346955425411989e-001	 1.340491952391459e+001
 1.714443962903538e+000	 3.509727881883170e-001	 1.342718714824700e+001
 1.711027923096562e+000	 3.672648177536743e-001	 1.344580626235011e+001
 1.707446796054984e+000	 3.835693400291333e-001	 1.346088980219866e+001
 1.703699726821389e+000	 3.998840341811098e-001	 1.347256152883135e+001
 1.699785900427620e+000	 4.162065504885092e-001	 1.348095566133215e+001
 1.695704542854449e+000	 4.325345111146328e-001	 1.348621647312229e+001
 1.691454921976381e+000	 4.488655109129007e-001	 1.348849785170268e+001
 1.687036348490294e+000	 4.651971182661930e-001	 1.348796282210229e+001
 1.682448176826651e+000	 4.815268759595532e-001	 1.348478303440597e+001
 1.726930053294041e+000	 3.195726107687542e-001	 1.335757859508943e+001
 1.723830437344144e+000	 3.358908837649544e-001	 1.338320175936881e+001
 1.720566977060805e+000	 3.522262624324893e-001	 1.340524530644600e+001
 1.717138737111675e+000	 3.685764778179681e-001	 1.342381675632205e+001
 1.713544820330596e+000	 3.849392305303669e-001	 1.343903483486371e+001
 1.709784368706732e+000	 4.013121914474102e-001	 1.345102913450781e+001
 1.705856564361324e+000	 4.176930024561421e-001	 1.345993973782614e+001
 1.701760630510792e+000	 4.340792772275901e-001	 1.346591680398609e+001
 1.697495832414903e+000	 4.504686020253647e-001	 1.346912011825589e+001
 1.693061478308741e+000	 4.668585365479995e-001	 1.346971860482098e+001
 1.688456920317159e+000	 4.832466148047700e-001	 1.346788980329714e+001
 1.733075711849444e+000	 3.207098798468721e-001	 1.333687849962844e+001
 1.729965065237984e+000	 3.370862249891171e-001	 1.336204945656067e+001
 1.726689991217090e+000	 3.534797366769687e-001	 1.338380963703145e+001
 1.723249551125831e+000	 3.698881378824689e-001	 1.340227235549865e+001
 1.719642844605285e+000	 3.863091210317074e-001	 1.341756218540761e+001
 1.715869010591196e+000	 4.027403487137173e-001	 1.342981461086281e+001
 1.711927228294204e+000	 4.191794544236815e-001	 1.343917564073172e+001
 1.707816718166375e+000	 4.356240433403536e-001	 1.344580138522406e+001
 1.703536742852740e+000	 4.520716931375352e-001	 1.344985759510474e+001
 1.699086608126587e+000	 4.685199548294125e-001	 1.345151916381784e+001
 1.694465663807161e+000	 4.849663536494932e-001	 1.345096959291958e+001
 1.739221370403849e+000	 3.218471489254972e-001	 1.331677017947626e+001
 1.736099693130828e+000	 3.382815662136872e-001	 1.334143112743336e+001
 1.732813005372395e+000	 3.547332109217555e-001	 1.336284831405306e+001
 1.729360365139031e+000	 3.711997979471769e-001	 1.338114090368281e+001
 1.725740868879051e+000	 3.876790115331550e-001	 1.339643937540526e+001
 1.721953652474782e+000	 4.041685059800311e-001	 1.340888516563725e+001
 1.717997892226261e+000	 4.206659063911277e-001	 1.341863027272758e+001
 1.713872805821198e+000	 4.371688094529239e-001	 1.342583682360451e+001
 1.709577653289892e+000	 4.536747842494119e-001	 1.343067660264093e+001
 1.705111737943831e+000	 4.701813731104315e-001	 1.343333054302515e+001
 1.700474407296657e+000	 4.866860924937227e-001	 1.343398818104763e+001
 1.745367028957254e+000	 3.229844180046296e-001	 1.329722282455651e+001
 1.742234321022678e+000	 3.394769074386645e-001	 1.332131561532460e+001
 1.738936019526719e+000	 3.559866851668496e-001	 1.334232984137043e+001
 1.735471179151274e+000	 3.725114580120920e-001	 1.336039057273158e+001
 1.731838893151896e+000	 3.890489020347095e-001	 1.337563425255813e+001
 1.728038294357490e+000	 4.055966632463520e-001	 1.338820833059845e+001
 1.724068556157494e+000	 4.221523583584805e-001	 1.339827085824550e+001
 1.719928893475260e+000	 4.387135755653004e-001	 1.340599004520199e+001
 1.715618563726358e+000	 4.552778753609952e-001	 1.341154377794180e+001
 1.711136867760474e+000	 4.718427913910568e-001	 1.341511910026609e+001
 1.706483150785647e+000	 4.884058313374584e-001	 1.341691165637751e+001
 1.751512687509658e+000	 3.241216870842695e-001	 1.327820595176273e+001
 1.748368948913532e+000	 3.406722486640493e-001	 1.330167208915263e+001
 1.745059033680062e+000	 3.572401594122508e-001	 1.332222304686688e+001
 1.741581993162561e+000	 3.738231180772143e-001	 1.333998985680094e+001
 1.737936917423819e+000	 3.904187925363711e-001	 1.335511498497279e+001
 1.734122936239320e+000	 4.070248205126795e-001	 1.336775195585539e+001
 1.730139220087902e+000	 4.236388103257400e-001	 1.337806493782555e+001
 1.725984981128564e+000	 4.402583416774837e-001	 1.338622828979557e+001
 1.721659474162138e+000	 4.568809664722847e-001	 1.339242606921441e+001
 1.717161997576516e+000	 4.735042096712887e-001	 1.339685150174774e+001
 1.712491894274130e+000	 4.901255701807003e-001	 1.339970641307243e+001
 1.757658346061062e+000	 3.252589561644167e-001	 1.325968939924209e+001
 1.754503576803391e+000	 3.418675898898412e-001	 1.328247003772429e+001
 1.751182047832425e+000	 3.584936336579593e-001	 1.330249707678497e+001
 1.747692807172892e+000	 3.751347781425437e-001	 1.331990756671116e+001
 1.744034941694818e+000	 3.917886830381394e-001	 1.333485005555932e+001
 1.740207578120271e+000	 4.084529777790139e-001	 1.334748420429338e+001
 1.736209884017486e+000	 4.251252622929060e-001	 1.335798036258979e+001
 1.732041068781107e+000	 4.418031077894733e-001	 1.336651910538435e+001
 1.727700384597233e+000	 4.584840575832806e-001	 1.337329073035625e+001
 1.723187127391958e+000	 4.751656279511266e-001	 1.337849471666990e+001
 1.718500637762108e+000	 4.918453090234486e-001	 1.338233914542230e+001
 1.763804004611467e+000	 3.263962252450711e-001	 1.324164332079860e+001
 1.760638204692255e+000	 3.430629311160406e-001	 1.326367926416202e+001
 1.757305061983807e+000	 3.597471079039750e-001	 1.328312139017988e+001
 1.753803621182266e+000	 3.764464382080802e-001	 1.330011282442998e+001
 1.750132965964896e+000	 3.931585735400149e-001	 1.331480825654706e+001
 1.746292220000345e+000	 4.098811350453552e-001	 1.332737354612493e+001
 1.742280547946246e+000	 4.266117142599788e-001	 1.333798528883136e+001
 1.738097156432890e+000	 4.433478739012696e-001	 1.334683034281786e+001
 1.733741295031641e+000	 4.600871486939830e-001	 1.335410531562960e+001
 1.729212257206798e+000	 4.768270462305711e-001	 1.336001601194639e+001
 1.724509381249578e+000	 4.935650478657032e-001	 1.336477684261504e+001
 1.769949663160871e+000	 3.275334943262329e-001	 1.322403818041300e+001
 1.766772832580124e+000	 3.442582723426473e-001	 1.324526988044701e+001
 1.763428076134209e+000	 3.610005821502981e-001	 1.326406575348878e+001
 1.759914435190684e+000	 3.777580982738238e-001	 1.328057505767078e+001
 1.756230990234052e+000	 3.945284640419974e-001	 1.329495868411437e+001
 1.752376861879540e+000	 4.113092923117032e-001	 1.330738875355428e+001
 1.748351211874182e+000	 4.280981662269582e-001	 1.331804817271639e+001
 1.744153244083913e+000	 4.448926400128722e-001	 1.332713015053819e+001
 1.739782205465364e+000	 4.616902398043917e-001	 1.333483767444687e+001
 1.735237387021037e+000	 4.784884645096216e-001	 1.334138294703639e+001
 1.730518124736543e+000	 4.952847867074639e-001	 1.334698678361681e+001
 1.776095321709276e+000	 3.286707634079022e-001	 1.320684474687642e+001
 1.772907460466997e+000	 3.454536135696612e-001	 1.322721230207558e+001
 1.769551090283629e+000	 3.622540563969283e-001	 1.324530023521274e+001
 1.766025249198145e+000	 3.790697583397747e-001	 1.326126399460285e+001
 1.762329014502285e+000	 3.958983545440869e-001	 1.327527073313003e+001
 1.758461503757857e+000	 4.127374495780580e-001	 1.328749889555258e+001
 1.754421875801294e+000	 4.295846181938443e-001	 1.329813776509593e+001
 1.750209331734177e+000	 4.464374061242813e-001	 1.330738696943142e+001
 1.745823115898402e+000	 4.632933309145066e-001	 1.331545594626415e+001
 1.741262516834674e+000	 4.801498827882785e-001	 1.332256336888315e+001
 1.736526868223001e+000	 4.970045255487311e-001	 1.332893653215854e+001
 1.782240980256681e+000	 3.298080324900787e-001	 1.319003408853485e+001
 1.779042088352876e+000	 3.466489547970826e-001	 1.320947724282621e+001
 1.775674104432070e+000	 3.635075306438659e-001	 1.322679520070881e+001
 1.772136063204651e+000	 3.803814184059327e-001	 1.324214965867111e+001
 1.768427038769597e+000	 3.972682450462834e-001	 1.325571409200346e+001
 1.764546145635296e+000	 4.141656068444197e-001	 1.326767333274118e+001
 1.760492539727581e+000	 4.310710701606371e-001	 1.327822310642510e+001
 1.756265419383680e+000	 4.479821722354971e-001	 1.328756952778529e+001
 1.751864026330754e+000	 4.648964220243282e-001	 1.329592855558053e+001
 1.747287646647711e+000	 4.818113010665418e-001	 1.330352540695736e+001
 1.742535611708953e+000	 4.987242643895046e-001	 1.331059393182622e+001
 1.682448176826651e+000	 4.815268759595532e-001	 1.348478303440597e+001
 1.677689806041381e+000	 4.978523020854703e-001	 1.350126216800387e+001
 1.672760680688981e+000	 5.141708909827074e-001	 1.351555481940622e+001
 1.667660291674264e+000	 5.304801142075862e-001	 1.352779321625899e+001
 1.662388177080357e+000	 5.467774215361321e-001	 1.353811488434774e+001
 1.656943922973434e+000	 5.630602419979399e-001	 1.354666201267822e+001
 1.651327164182347e+000	 5.793259849407660e-001	 1.355358078943296e+001
 1.645537585051869e+000	 5.955720411252086e-001	 1.355902071001169e+001
 1.639574920168338e+000	 6.117957838487953e-001	 1.356313385848395e+001
 1.633438955056451e+000	 6.279945700987346e-001	 1.353041004112765e+001
 1.627129526846032e+000	 6.441657417325339e-001	 1.334021708052301e+001
 1.688456920317159e+000	 4.832466148047700e-001	 1.346788980329714e+001
 1.683681555349956e+000	 4.996303460241725e-001	 1.348535613793190e+001
 1.678734825977985e+000	 5.160072155961424e-001	 1.350104028149399e+001
 1.673616221287867e+000	 5.323746860468447e-001	 1.351509170807173e+001
 1.668325277713024e+000	 5.487301980443613e-001	 1.352766513249630e+001
 1.662861579841297e+000	 5.650711714362495e-001	 1.353891985110496e+001
 1.657224761197355e+000	 5.813950063179355e-001	 1.354901905290839e+001
 1.651414504998634e+000	 5.976990841313049e-001	 1.355812910240763e+001
 1.645430544883565e+000	 6.139807687928049e-001	 1.356641879542931e+001
 1.639272665610863e+000	 6.302374078503118e-001	 1.351127946986171e+001
 1.632940703728673e+000	 6.464663336679664e-001	 1.332432607804813e+001
 1.694465663807161e+000	 4.849663536494932e-001	 1.345096959291958e+001
 1.689673304658118e+000	 5.014083899622909e-001	 1.346947883948967e+001
 1.684708971266663e+000	 5.178435402089225e-001	 1.348660810529842e+001
 1.679572150901219e+000	 5.342692578853969e-001	 1.350252412713601e+001
 1.674262378345506e+000	 5.506829745518524e-001	 1.351739882700888e+001
 1.668779236709032e+000	 5.670821008738094e-001	 1.353140862854584e+001
 1.663122358212283e+000	 5.834640276943637e-001	 1.354473374333234e+001
 1.657291424945353e+000	 5.998261271366885e-001	 1.355755742845640e+001
 1.651286169598772e+000	 6.161657537361504e-001	 1.357006521667505e+001
 1.645106376165270e+000	 6.324802456012940e-001	 1.349227685235629e+001
 1.638751880611314e+000	 6.487669256028935e-001	 1.330872377649232e+001
 1.700474407296657e+000	 4.866860924937227e-001	 1.343398818104763e+001
 1.695665053965870e+000	 5.031864338998250e-001	 1.345359443052838e+001
 1.690683116555015e+000	 5.196798648210474e-001	 1.347222084947321e+001
 1.685528080514321e+000	 5.361638297232428e-001	 1.349005145468191e+001
 1.680199478977805e+000	 5.526357510586059e-001	 1.350727539451446e+001
 1.674696893576638e+000	 5.690930303106200e-001	 1.352408624089902e+001
 1.669019955227127e+000	 5.855330490700507e-001	 1.354068125078848e+001
 1.663168344892026e+000	 6.019531701413596e-001	 1.355726059838669e+001
 1.657141794313957e+000	 6.183507386788320e-001	 1.357402657959336e+001
 1.650940086719670e+000	 6.347230833516813e-001	 1.347341953170393e+001
 1.644563057493954e+000	 6.510675175373156e-001	 1.329342753139895e+001
 1.706483150785647e+000	 4.884058313374584e-001	 1.341691165637751e+001
 1.701656803273210e+000	 5.049644778367752e-001	 1.343766739589534e+001
 1.696657261843042e+000	 5.215161894325178e-001	 1.345784141543216e+001
 1.691484010127174e+000	 5.380584015603825e-001	 1.347763503014429e+001
 1.686136579609919e+000	 5.545885275646217e-001	 1.349725463496291e+001
 1.680614550444117e+000	 5.711039597466807e-001	 1.351691097216227e+001
 1.674917552241889e+000	 5.876020704449966e-001	 1.353681836789247e+001
 1.669045264838653e+000	 6.040802131453177e-001	 1.355719393903625e+001
 1.662997419029122e+000	 6.205357236208496e-001	 1.357825677187879e+001
 1.656773797274067e+000	 6.369659211014740e-001	 1.345472529466057e+001
 1.650374234376595e+000	 6.533681094712327e-001	 1.327845515493515e+001
 1.712491894274130e+000	 4.901255701807003e-001	 1.339970641307243e+001
 1.707648552580140e+000	 5.067425217731413e-001	 1.342166254169708e+001
 1.702631407130744e+000	 5.233525140433331e-001	 1.344343304133587e+001
 1.697439939739777e+000	 5.399529733968158e-001	 1.346523654487848e+001
 1.692073680241849e+000	 5.565413040698994e-001	 1.348729671507559e+001
 1.686532207311467e+000	 5.731148891819922e-001	 1.350984148762423e+001
 1.680815149256569e+000	 5.896710918192011e-001	 1.353310228272992e+001
 1.674922184785233e+000	 6.062072561485633e-001	 1.355731318654302e+001
 1.668853043744267e+000	 6.227207085622033e-001	 1.358271010399881e+001
 1.662607507828458e+000	 6.392087588506717e-001	 1.343621236386194e+001
 1.656185411259235e+000	 6.556687014046444e-001	 1.326382490788083e+001
 1.718500637762108e+000	 4.918453090234486e-001	 1.338233914542230e+001
 1.713640301886658e+000	 5.085205657089235e-001	 1.340554498968308e+001
 1.708605552418120e+000	 5.251888386534935e-001	 1.342895929620453e+001
 1.703395869352129e+000	 5.418475452325430e-001	 1.345281803600784e+001
 1.698010780873596e+000	 5.584940805744394e-001	 1.347736216193321e+001
 1.692449864178690e+000	 5.751258186165541e-001	 1.350283682719848e+001
 1.686712746271167e+000	 5.917401131926645e-001	 1.352949057194253e+001
 1.680799104731767e+000	 6.083342991510959e-001	 1.355757447918940e+001
 1.674708668459392e+000	 6.249056935028929e-001	 1.358734130180265e+001
 1.668441218382844e+000	 6.414515965992746e-001	 1.341789939020339e+001
 1.661996588141876e+000	 6.579692933375511e-001	 1.324955549178581e+001
 1.724509381249578e+000	 4.935650478657032e-001	 1.336477684261504e+001
 1.719632051192765e+000	 5.102986096441216e-001	 1.338928017174665e+001
 1.714579697705169e+000	 5.270251632629988e-001	 1.341438407415385e+001
 1.709351798964232e+000	 5.437421170675639e-001	 1.344034188039994e+001
 1.703947881505158e+000	 5.604468570782417e-001	 1.346741185669781e+001
 1.698367521045784e+000	 5.771367480503663e-001	 1.349585639889692e+001
 1.692610343285683e+000	 5.938091345653868e-001	 1.352594119395891e+001
 1.686676024678254e+000	 6.104613421529159e-001	 1.355793435039640e+001
 1.680564293174495e+000	 6.270906784429186e-001	 1.356653626310674e+001
 1.674274928937225e+000	 6.436944343472827e-001	 1.339980544537881e+001
 1.667807765024516e+000	 6.602698852699526e-001	 1.323566604129096e+001
 1.730518124736543e+000	 4.952847867074639e-001	 1.334698678361681e+001
 1.725623800498461e+000	 5.120766535787356e-001	 1.337283382454050e+001
 1.720553842991894e+000	 5.288614878718492e-001	 1.339967158875101e+001
 1.715307728576084e+000	 5.456366889018784e-001	 1.342777078876817e+001
 1.709884982136536e+000	 5.623996335813060e-001	 1.345740702846552e+001
 1.704285177912750e+000	 5.791476774834291e-001	 1.348885997243928e+001
 1.698507940300116e+000	 5.958781559373677e-001	 1.352241248236632e+001
 1.692552944624695e+000	 6.125883851540231e-001	 1.355834972186347e+001
 1.686419917889577e+000	 6.292756633822801e-001	 1.354465073677010e+001
 1.680108639491601e+000	 6.459372720946960e-001	 1.338195001457519e+001
 1.673618941907156e+000	 6.625704772018490e-001	 1.322217611660919e+001
 1.736526868223001e+000	 4.970045255487311e-001	 1.332893653215854e+001
 1.731615549803746e+000	 5.138546975127655e-001	 1.335617198420414e+001
 1.726527988278293e+000	 5.306978124800448e-001	 1.338478636748781e+001
 1.721263658187688e+000	 5.475312607354871e-001	 1.341506779989595e+001
 1.715822082767731e+000	 5.643524100836325e-001	 1.344730924824690e+001
 1.710202834779588e+000	 5.811586069157423e-001	 1.348180767299508e+001
 1.704405537314468e+000	 5.979471773086075e-001	 1.351886313941999e+001
 1.698429864571090e+000	 6.147154281544176e-001	 1.355877789685096e+001
 1.692275542604639e+000	 6.314606483209778e-001	 1.352285663999158e+001
 1.685942350045971e+000	 6.481801098415143e-001	 1.336435298931869e+001
 1.679430118789797e+000	 6.648710691332403e-001	 1.320910569616263e+001
 1.742535611708953e+000	 4.987242643895046e-001	 1.331059393182622e+001
 1.737607299108620e+000	 5.156327414462114e-001	 1.333926098120027e+001
 1.732502133564366e+000	 5.325341370875854e-001	 1.336969324636820e+001
 1.727219587799041e+000	 5.494258325683893e-001	 1.340219627498024e+001
 1.721759183398741e+000	 5.663051865852213e-001	 1.343708042307192e+001
 1.716120491646298e+000	 5.831695363473061e-001	 1.347465997505528e+001
 1.710303134328737e+000	 6.000161986791063e-001	 1.351525222968681e+001
 1.704306784517438e+000	 6.168424711540994e-001	 1.355917655360147e+001
 1.698131167319681e+000	 6.336456332590116e-001	 1.350117416203829e+001
 1.691776060600336e+000	 6.504229475877380e-001	 1.334703466046885e+001
 1.685241295672437e+000	 6.671716610641264e-001	 1.319647516937218e+001
 1.627129526846032e+000	 6.441657417325339e-001	 1.334021708052301e+001
 1.620646524908150e+000	 6.603066266860092e-001	 1.332352549065644e+001
 1.613989891457657e+000	 6.764145402067768e-001	 1.330443820142348e+001
 1.607159622122281e+000	 6.924867861127354e-001	 1.328330074067021e+001
 1.600155766478270e+000	 7.085206580754376e-001	 1.326049313818017e+001
 1.592978428549761e+000	 7.245134409262326e-001	 1.323643092430906e+001
 1.585627767271442e+000	 7.404624119843858e-001	 1.321156605700766e+001
 1.578103996913506e+000	 7.563648424060113e-001	 1.318638777231298e+001
 1.570407387467961e+000	 7.722179985526132e-001	 1.316142335350709e+001
 1.562538264995355e+000	 7.880191433779774e-001	 1.313723881428485e+001
 1.554497011931069e+000	 8.037655378321177e-001	 1.311443949143385e+001
 1.632940703728673e+000	 6.464663336679664e-001	 1.332432607804813e+001
 1.626434548212895e+000	 6.626648646385666e-001	 1.331058779271516e+001
 1.619754141071941e+000	 6.788303064213963e-001	 1.329405905632524e+001
 1.612899477917923e+000	 6.949599532051328e-001	 1.327506141517639e+001
 1.605870608504148e+000	 7.110510889958701e-001	 1.325395152331663e+001
 1.598667637226266e+000	 7.271009889279270e-001	 1.323112218456100e+001
 1.591290723586588e+000	 7.431069205967095e-001	 1.320700332221063e+001
 1.583740082620561e+000	 7.590661454124608e-001	 1.318206287144752e+001
 1.576015985284447e+000	 7.749759199736912e-001	 1.315680758949863e+001
 1.568118758803296e+000	 7.908334974590220e-001	 1.313178377880484e+001
 1.560048786978331e+000	 8.066361290361446e-001	 1.310757791859401e+001
 1.638751880611314e+000	 6.487669256028935e-001	 1.330872377649232e+001
 1.632222571517635e+000	 6.650231025907188e-001	 1.329778677335355e+001
 1.625518390686205e+000	 6.812460726357108e-001	 1.328366323991109e+001
 1.618639333713521e+000	 6.974331202973247e-001	 1.326665075371111e+001
 1.611585450529947e+000	 7.135815199161976e-001	 1.324708261068067e+001
 1.604356845902648e+000	 7.296885369296166e-001	 1.322532891066431e+001
 1.596953679901557e+000	 7.457514292091284e-001	 1.320179756996909e+001
 1.589376168327374e+000	 7.617674484191063e-001	 1.317693525578448e+001
 1.581624583100616e+000	 7.777338413950650e-001	 1.315122823746444e+001
 1.573699252610836e+000	 7.936478515404619e-001	 1.312520314980130e+001
 1.565600562025096e+000	 8.095067202406676e-001	 1.309942766358591e+001
 1.644563057493954e+000	 6.510675175373156e-001	 1.329342753139895e+001
 1.638010594822370e+000	 6.673813405424659e-001	 1.328514305150014e+001
 1.631282640300450e+000	 6.836618388497202e-001	 1.327327458203972e+001
 1.624379189509076e+000	 6.999062873893125e-001	 1.325809574266484e+001
 1.617300292555668e+000	 7.161119508364205e-001	 1.323991648688207e+001
 1.610046054578906e+000	 7.322760849313018e-001	 1.321908423125372e+001
 1.602616636216349e+000	 7.483959378216433e-001	 1.319598491090064e+001
 1.595012254033945e+000	 7.644687514259474e-001	 1.317104395607117e+001
 1.587233180916469e+000	 7.804917628167348e-001	 1.314472718465611e+001
 1.579279746417974e+000	 7.964622056222982e-001	 1.311754160567355e+001
 1.571152337071366e+000	 8.123773114456869e-001	 1.309003612891202e+001
 1.650374234376595e+000	 6.533681094712327e-001	 1.327845515493515e+001
 1.643798618127101e+000	 6.697395784938078e-001	 1.327267766948081e+001
 1.637046889914676e+000	 6.860776050634246e-001	 1.326291730307004e+001
 1.630119045304586e+000	 7.023794544810947e-001	 1.324942372637686e+001
 1.623015134581310e+000	 7.186423817565386e-001	 1.323248356429093e+001
 1.615735263255042e+000	 7.348636329329823e-001	 1.321242156891529e+001
 1.608279592530964e+000	 7.510404464342537e-001	 1.318960171816150e+001
 1.600648339740274e+000	 7.671700544329845e-001	 1.316442823459350e+001
 1.592841778732006e+000	 7.832496842387009e-001	 1.313734651929308e+001
 1.584860240224712e+000	 7.992765597045307e-001	 1.310884399566339e+001
 1.576704112117140e+000	 8.152479026512017e-001	 1.307945085825366e+001
 1.656185411259235e+000	 6.556687014046444e-001	 1.326382490788083e+001
 1.649586641431826e+000	 6.720978164447449e-001	 1.326041208559085e+001
 1.642811139528882e+000	 6.884933712768239e-001	 1.325261600701013e+001
 1.635858901100052e+000	 7.048526215726725e-001	 1.324066240085547e+001
 1.628729976606874e+000	 7.211728126765519e-001	 1.322481457532254e+001
 1.621424471931055e+000	 7.374511809346583e-001	 1.320537463502938e+001
 1.613942548845401e+000	 7.536849550469599e-001	 1.318268462284041e+001
 1.606284425446361e+000	 7.698713574402172e-001	 1.315712758111378e+001
 1.598450376547225e+000	 7.860076056609625e-001	 1.312912852703664e+001
 1.590440734031049e+000	 8.020909137871590e-001	 1.309915533685773e+001
 1.582255887162417e+000	 8.181184938572133e-001	 1.306771953399404e+001
 1.661996588141876e+000	 6.579692933375511e-001	 1.324955549178581e+001
 1.655374664736547e+000	 6.744560543952767e-001	 1.324836816682275e+001
 1.648575389143069e+000	 6.909091374899181e-001	 1.324239567481021e+001
 1.641598756895474e+000	 7.073257886640453e-001	 1.323183980762995e+001
 1.634444818632358e+000	 7.237032435964607e-001	 1.321694056684224e+001
 1.627113680606944e+000	 7.400387289363296e-001	 1.319797742472174e+001
 1.619605505159661e+000	 7.563294636597615e-001	 1.317527050944946e+001
 1.611920511152207e+000	 7.725726604476458e-001	 1.314918170889394e+001
 1.604058974362128e+000	 7.887655270835206e-001	 1.312011568753834e+001
 1.596021227836984e+000	 8.049052678701832e-001	 1.308852081125438e+001
 1.587807662207198e+000	 8.209890850637206e-001	 1.305488997479360e+001
 1.667807765024516e+000	 6.602698852699526e-001	 1.323566604129096e+001
 1.661162688041263e+000	 6.768142923454034e-001	 1.323656818174601e+001
 1.654339638757235e+000	 6.933249037027075e-001	 1.323228165779568e+001
 1.647338612690852e+000	 7.097989557552131e-001	 1.322298432773106e+001
 1.640159660657765e+000	 7.262336745162645e-001	 1.320889289468713e+001
 1.632802889282711e+000	 7.426262769379969e-001	 1.319026421192028e+001
 1.625268461473743e+000	 7.589739722726588e-001	 1.316739651150895e+001
 1.617556596857810e+000	 7.752739634552702e-001	 1.314063055080179e+001
 1.609667572176715e+000	 7.915234485063742e-001	 1.311035067106031e+001
 1.601601721642517e+000	 8.077196219536037e-001	 1.307698576288897e+001
 1.593359437251483e+000	 8.238596762707238e-001	 1.304101013321567e+001
 1.673618941907156e+000	 6.625704772018490e-001	 1.322217611660919e+001
 1.666950711345974e+000	 6.791725302951249e-001	 1.322503479353537e+001
 1.660103888371382e+000	 6.957406699151917e-001	 1.322229967123698e+001
 1.653078468486186e+000	 7.122721228461761e-001	 1.321412467579678e+001
 1.645874502683092e+000	 7.287641054359637e-001	 1.320070321830205e+001
 1.638492097958355e+000	 7.452138249396592e-001	 1.318226954451473e+001
 1.630931417787648e+000	 7.616184808856519e-001	 1.315910000722442e+001
 1.623192682563172e+000	 7.779752664630905e-001	 1.313151425549838e+001
 1.615276169990986e+000	 7.942813699295240e-001	 1.309987633516600e+001
 1.607182215447651e+000	 8.105339760374203e-001	 1.306459569502177e+001
 1.598911212295273e+000	 8.267302674782234e-001	 1.302612809340183e+001
 1.679430118789797e+000	 6.648710691332403e-001	 1.320910569616263e+001
 1.672738734650680e+000	 6.815307682444414e-001	 1.321379105314368e+001
 1.665868137985510e+000	 6.981564361273708e-001	 1.321247578805300e+001
 1.658818324281476e+000	 7.147452899369342e-001	 1.320528989430074e+001
 1.651589344708342e+000	 7.312945363555582e-001	 1.319240349548677e+001
 1.644181306633876e+000	 7.478013729413171e-001	 1.317402823961680e+001
 1.636594374101376e+000	 7.642629894987406e-001	 1.315041861525326e+001
 1.628828768268292e+000	 7.806765694711064e-001	 1.312187318370460e+001
 1.620884767804940e+000	 7.970392913529695e-001	 1.308873572147975e+001
 1.612762709252382e+000	 8.133483301216327e-001	 1.305139626738302e+001
 1.604462987338566e+000	 8.296008586862188e-001	 1.301029206879549e+001
 1.685241295672437e+000	 6.671716610641264e-001	 1.319647516937218e+001
 1.678526757955381e+000	 6.838890061933527e-001	 1.320286039261612e+001
 1.671632387599618e+000	 7.005722023392451e-001	 1.320283643264464e+001
 1.664558180076721e+000	 7.172184570274874e-001	 1.319650934789977e+001
 1.657304186733513e+000	 7.338249672750482e-001	 1.318402597725203e+001
 1.649870515309274e+000	 7.503889209429703e-001	 1.316557537891842e+001
 1.642257330414927e+000	 7.669074981119249e-001	 1.314139019055905e+001
 1.634464853973170e+000	 7.833778724793185e-001	 1.311174790454495e+001
 1.626493365618577e+000	 7.997972127767112e-001	 1.307697205251331e+001
 1.618343203056713e+000	 8.161626842062414e-001	 1.303743329347505e+001
 1.610014762381363e+000	 8.324714498947106e-001	 1.299355039991251e+001
 1.554497011931069e+000	 8.037655378321177e-001	 1.311443949143385e+001
 1.546284067350165e+000	 8.194544422807419e-001	 1.303830171634701e+001
 1.537899927190630e+000	 8.350831179393493e-001	 1.296287499785142e+001
 1.529345144433827e+000	 8.506488283203388e-001	 1.288888995780681e+001
 1.520620329241138e+000	 8.661488406911885e-001	 1.281712015498266e+001
 1.511726149046811e+000	 8.815804275427316e-001	 1.274838218556953e+001
 1.502663328606235e+000	 8.969408680658607e-001	 1.268353566797921e+001
 1.493432649999157e+000	 9.122274496350907e-001	 1.262348310906696e+001
 1.484034952587419e+000	 9.274374692974089e-001	 1.256916964923165e+001
 1.474471132926831e+000	 9.425682352647938e-001	 1.252158268418656e+001
 1.464742144632903e+000	 9.576170684087774e-001	 1.248175136154573e+001
 1.560048786978331e+000	 8.066361290361446e-001	 1.310757791859401e+001
 1.551806510452681e+000	 8.223810652863682e-001	 1.303002361574616e+001
 1.543392426935479e+000	 8.380655576438261e-001	 1.295341586790462e+001
 1.534807091383023e+000	 8.536868598477483e-001	 1.287849600182348e+001
 1.526051116135843e+000	 8.692422294058529e-001	 1.280604871067698e+001
 1.517125171011878e+000	 8.847289290678708e-001	 1.273690215316046e+001
 1.508029983354930e+000	 9.001442283075181e-001	 1.267192793561665e+001
 1.498766338037887e+000	 9.154854048113629e-001	 1.261204097429364e+001
 1.489335077420313e+000	 9.307497459729882e-001	 1.255819923516642e+001
 1.479737101260001e+000	 9.459345503908442e-001	 1.251140334909336e+001
 1.469973366578229e+000	 9.610371293681473e-001	 1.247269610043787e+001
 1.565600562025096e+000	 8.095067202406676e-001	 1.309942766358591e+001
 1.557328953554614e+000	 8.253076882925808e-001	 1.302056436131290e+001
 1.548884926679690e+000	 8.410479973489599e-001	 1.294287667798809e+001
 1.540269038331555e+000	 8.567248913758648e-001	 1.286711656262725e+001
 1.531481903029887e+000	 8.723356181212563e-001	 1.279407976847835e+001
 1.522524192976319e+000	 8.878774305937595e-001	 1.272460595090057e+001
 1.513396638103063e+000	 9.033475885499160e-001	 1.265957864699171e+001
 1.504100026076150e+000	 9.187433599883461e-001	 1.259992513404269e+001
 1.494635202252862e+000	 9.340620226492291e-001	 1.254661616422504e+001
 1.485003069592980e+000	 9.493008655174871e-001	 1.250066557326421e+001
 1.475204588523551e+000	 9.644571903280200e-001	 1.246312976120963e+001
 1.571152337071366e+000	 8.123773114456869e-001	 1.309003612891202e+001
 1.562851396655965e+000	 8.282343112993794e-001	 1.300997113133092e+001
 1.554377426423264e+000	 8.440304370547503e-001	 1.293130436983295e+001
 1.545730985279425e+000	 8.597629229046895e-001	 1.285479833309449e+001
 1.536912689923272e+000	 8.754290068373979e-001	 1.278125976016274e+001
 1.527923214940134e+000	 8.910259321203973e-001	 1.271153973730172e+001
 1.518763292850633e+000	 9.065509487930547e-001	 1.264653367529615e+001
 1.509433714113943e+000	 9.220013151660408e-001	 1.258718116426246e+001
 1.499935327085067e+000	 9.373742993261323e-001	 1.253446570334894e+001
 1.490269037925770e+000	 9.526671806447222e-001	 1.248941430305521e+001
 1.480435810468867e+000	 9.678772512883952e-001	 1.245309695826562e+001
 1.576704112117140e+000	 8.152479026512017e-001	 1.307945085825366e+001
 1.568373839756736e+000	 8.311609343067644e-001	 1.299829125663494e+001
 1.559869926166201e+000	 8.470128767611977e-001	 1.291874604877084e+001
 1.551192932226631e+000	 8.628009544342213e-001	 1.284158818042232e+001
 1.542343476815998e+000	 8.785223955542778e-001	 1.276763530221142e+001
 1.533322236903323e+000	 8.941744336477849e-001	 1.269774986562370e+001
 1.524129947597642e+000	 9.097543090369334e-001	 1.263283909816359e+001
 1.514767402151269e+000	 9.252592703444469e-001	 1.257385485468356e+001
 1.505235451916928e+000	 9.406865760036972e-001	 1.252179334224217e+001
 1.495535006258369e+000	 9.560334957725500e-001	 1.247769471620036e+001
 1.485667032414177e+000	 9.712973122492729e-001	 1.244264254563262e+001
 1.582255887162417e+000	 8.181184938572133e-001	 1.306771953399404e+001
 1.573896282856925e+000	 8.340875573147359e-001	 1.298557221793445e+001
 1.565362425908501e+000	 8.499953164683018e-001	 1.290524898086382e+001
 1.556654879173173e+000	 8.658389859644612e-001	 1.282753314307043e+001
 1.547774263708064e+000	 8.816157842718969e-001	 1.275325319257055e+001
 1.538721258865886e+000	 8.973229351759221e-001	 1.268328288045718e+001
 1.529496602344088e+000	 9.129576692815529e-001	 1.261854119408296e+001
 1.520101090188125e+000	 9.285172255235639e-001	 1.255999220506813e+001
 1.510535576748444e+000	 9.439988526819245e-001	 1.250864478946311e+001
 1.500800974590778e+000	 9.593998109009702e-001	 1.246555221775197e+001
 1.490898254359483e+000	 9.747173732106538e-001	 1.243181161275562e+001
 1.587807662207198e+000	 8.209890850637206e-001	 1.305488997479360e+001
 1.579418725956532e+000	 8.370141803232934e-001	 1.297186164319343e+001
 1.570854925650164e+000	 8.529777561760629e-001	 1.289086059009447e+001
 1.562116826119054e+000	 8.688770174954086e-001	 1.281268042776697e+001
 1.553205050599471e+000	 8.847091729902539e-001	 1.273816040747851e+001
 1.544120280827824e+000	 9.004714367048088e-001	 1.266818551437894e+001
 1.534863257089972e+000	 9.161610295269126e-001	 1.260368643888686e+001
 1.525434778224514e+000	 9.317751807033926e-001	 1.254563942153803e+001
 1.515835701579615e+000	 9.473111293608136e-001	 1.249506596859863e+001
 1.506066942922997e+000	 9.627661260299830e-001	 1.245303243610671e+001
 1.496129476304783e+000	 9.781374341725371e-001	 1.242064948038224e+001
 1.593359437251483e+000	 8.238596762707238e-001	 1.304101013321567e+001
 1.584941169055559e+000	 8.399408033324373e-001	 1.295720730506499e+001
 1.576347425391189e+000	 8.559601958844807e-001	 1.287562845561445e+001
 1.567578773064270e+000	 8.719150490270633e-001	 1.279707740657699e+001
 1.558635837490217e+000	 8.878025617093495e-001	 1.272240409836001e+001
 1.549519302789135e+000	 9.036199382344448e-001	 1.265250468467690e+001
 1.540229911835293e+000	 9.193643897730129e-001	 1.258832150231376e+001
 1.530768466260434e+000	 9.350331358839326e-001	 1.253084291297968e+001
 1.521135826410443e+000	 9.506234060403649e-001	 1.248110301451762e+001
 1.511332911255026e+000	 9.661324411595881e-001	 1.244018121911454e+001
 1.501360698250078e+000	 9.815574951349226e-001	 1.240920169653280e+001
 1.598911212295273e+000	 8.267302674782234e-001	 1.302612809340183e+001
 1.590463612154004e+000	 8.428674263421673e-001	 1.294165711837943e+001
 1.581839925131578e+000	 8.589426355935550e-001	 1.285960030905083e+001
 1.573040720008824e+000	 8.749530805594256e-001	 1.278077161403214e+001
 1.564066624380305e+000	 8.908959504291841e-001	 1.270603158878449e+001
 1.554918324749820e+000	 9.067684397648304e-001	 1.263628749014326e+001
 1.545596566580052e+000	 9.225677500198538e-001	 1.257249324464132e+001
 1.536102154295885e+000	 9.382910910651837e-001	 1.251564928752391e+001
 1.526435951240926e+000	 9.539356827205783e-001	 1.246680226970322e+001
 1.516598879586865e+000	 9.694987562897857e-001	 1.242704463026878e+001
 1.506591920195367e+000	 9.849775560978110e-001	 1.239751403255505e+001
 1.604462987338566e+000	 8.296008586862188e-001	 1.301029206879549e+001
 1.595986055251867e+000	 8.457940493524836e-001	 1.292525913768437e+001
 1.587332424871329e+000	 8.619250753032867e-001	 1.284282403186796e+001
 1.578502666952713e+000	 8.779911120924954e-001	 1.276381074431966e+001
 1.569497411269734e+000	 8.939893391497565e-001	 1.268909037148793e+001
 1.560317346709880e+000	 9.099169412959656e-001	 1.261958120793424e+001
 1.550963221324250e+000	 9.257711102674352e-001	 1.255624871339011e+001
 1.541435842330868e+000	 9.415490462471464e-001	 1.250010534909877e+001
 1.531736076071064e+000	 9.572479594014532e-001	 1.245221028066064e+001
 1.521864847918514e+000	 9.728650714205759e-001	 1.241366894497528e+001
 1.511823142140651e+000	 9.883976170612022e-001	 1.238563247925985e+001
 1.610014762381363e+000	 8.324714498947106e-001	 1.299355039991251e+001
 1.601508498349150e+000	 8.487206723633864e-001	 1.290806155483586e+001
 1.592824924610444e+000	 8.649075150136748e-001	 1.282534765278409e+001
 1.583964613895941e+000	 8.810291436262732e-001	 1.274624264852981e+001
 1.574928198158502e+000	 8.970827278710679e-001	 1.267162810545614e+001
 1.565716368669314e+000	 9.130654428278503e-001	 1.260243329049489e+001
 1.556329876067885e+000	 9.289744705157570e-001	 1.253963514009512e+001
 1.546769530365383e+000	 9.448070014298204e-001	 1.248425809405373e+001
 1.537036200900858e+000	 9.605602360829907e-001	 1.243737379439969e+001
 1.527130816249972e+000	 9.762313865519586e-001	 1.240010064689862e+001
 1.517054364085930e+000	 9.918176780250960e-001	 1.237360324313778e+001
 1.464742144632903e+000	 9.576170684087774e-001	 1.248175136154573e+001
 1.454848998199642e+000	 9.725813037555648e-001	 1.237882078575488e+001
 1.444792760772856e+000	 9.874582919795520e-001	 1.228927618813879e+001
 1.434574555876782e+000	 1.002245400893888e+000	 1.221422275300505e+001
 1.424195563092979e+000	 1.016940016936733e+000	 1.215480082982324e+001
 1.413657017693081e+000	 1.031539546651007e+000	 1.211218482647229e+001
 1.402960210224999e+000	 1.046041418156111e+000	 1.208758197883478e+001
 1.392106486052751e+000	 1.060443082609914e+000	 1.208223099762456e+001
 1.381097244850154e+000	 1.074742015659307e+000	 1.209740059375065e+001
 1.369933940048715e+000	 1.088935718877639e+000	 1.213438788393479e+001
 1.358618078240099e+000	 1.103021721187355e+000	 1.219451667871812e+001
 1.469973366578229e+000	 9.610371293681473e-001	 1.247269610043787e+001
 1.460044887478073e+000	 9.760548084132232e-001	 1.236992387672029e+001
 1.449952734916730e+000	 9.909849287384733e-001	 1.227993345408780e+001
 1.439698036431027e+000	 1.005824848756380e+000	 1.220382050530663e+001
 1.429281975815314e+000	 1.020571945570952e+000	 1.214271701665326e+001
 1.418705792752909e+000	 1.035223616462762e+000	 1.209779019655037e+001
 1.407970782400826e+000	 1.049777280365926e+000	 1.207024125830396e+001
 1.397078294927953e+000	 1.064230379335302e+000	 1.206130407778548e+001
 1.386029735006941e+000	 1.078580380002234e+000	 1.207224372732596e+001
 1.374826561260127e+000	 1.092824775017119e+000	 1.210435488750984e+001
 1.363470285659859e+000	 1.106961084477125e+000	 1.215896013898130e+001
 1.475204588523551e+000	 9.644571903280200e-001	 1.246312976120963e+001
 1.465240776756683e+000	 9.795283130712940e-001	 1.236030848151574e+001
 1.455112709060940e+000	 9.945115654977367e-001	 1.226966449391748e+001
 1.444821516985733e+000	 1.009404296619163e+000	 1.219228410091364e+001
 1.434368388538206e+000	 1.024203874205432e+000	 1.212929107270905e+001
 1.423754567813361e+000	 1.038907686274769e+000	 1.208184557113279e+001
 1.412981354577312e+000	 1.053513142576001e+000	 1.205114294539681e+001
 1.402050103803819e+000	 1.068017676060979e+000	 1.203841240049737e+001
 1.390962225164369e+000	 1.082418744345500e+000	 1.204491553949041e+001
 1.379719182472125e+000	 1.096713831157008e+000	 1.207194478129952e+001
 1.368322493080121e+000	 1.110900447767394e+000	 1.212082165614425e+001
 1.480435810468867e+000	 9.678772512883952e-001	 1.245309695826562e+001
 1.470436666035473e+000	 9.830018177297772e-001	 1.235002149944085e+001
 1.460272683205484e+000	 9.980382022573423e-001	 1.225851841167498e+001
 1.449944997540900e+000	 1.012983744482238e+000	 1.217966476734193e+001
 1.439454801261655e+000	 1.027835802840173e+000	 1.211457626663002e+001
 1.428803342874437e+000	 1.042591756087026e+000	 1.206440617663678e+001
 1.417991926754458e+000	 1.057249004786335e+000	 1.203034414002941e+001
 1.407021912680351e+000	 1.071804972786945e+000	 1.201361485403186e+001
 1.395894715322438e+000	 1.086257108689105e+000	 1.201547662093322e+001
 1.384611803684709e+000	 1.100602887297306e+000	 1.203721977174757e+001
 1.373174700500884e+000	 1.114839811058162e+000	 1.208016496508871e+001
 1.485667032414177e+000	 9.712973122492729e-001	 1.244264254563262e+001
 1.475632555314443e+000	 9.864753223886731e-001	 1.233911004027203e+001
 1.465432657350365e+000	 1.001564839017290e+000	 1.224654449333442e+001
 1.455068478096529e+000	 1.016563192345604e+000	 1.216601388609505e+001
 1.444541213985662e+000	 1.031467731475175e+000	 1.209862599372923e+001
 1.433852117936135e+000	 1.046275825899534e+000	 1.204552733947939e+001
 1.423002498932263e+000	 1.060984866996930e+000	 1.200790201609871e+001
 1.411993721557547e+000	 1.075592269513201e+000	 1.198697037529111e+001
 1.400827205481147e+000	 1.090095473033049e+000	 1.198398758630552e+001
 1.389504424897880e+000	 1.104491943438012e+000	 1.200024206528610e+001
 1.378026907922148e+000	 1.118779174349428e+000	 1.203705377741970e+001
 1.490898254359483e+000	 9.747173732106538e-001	 1.243181161275562e+001
 1.480828444593593e+000	 9.899488270479814e-001	 1.232762142057032e+001
 1.470592631495580e+000	 1.005091475777580e+000	 1.223379220360553e+001
 1.460191958652620e+000	 1.020142640209263e+000	 1.215138298996284e+001
 1.449627626710226e+000	 1.035099660110438e+000	 1.208149377377131e+001
 1.438900892998457e+000	 1.049959895712292e+000	 1.202526448432340e+001
 1.428013071110727e+000	 1.064720729207785e+000	 1.198387382018460e+001
 1.416965530435409e+000	 1.079379566239746e+000	 1.195853794895412e+001
 1.405759695640497e+000	 1.093933837377331e+000	 1.195050907379934e+001
 1.394397046111636e+000	 1.108380999579128e+000	 1.196107386833601e+001
 1.382879115343912e+000	 1.122718537641193e+000	 1.199155178187369e+001
 1.496129476304783e+000	 9.781374341725371e-001	 1.242064948038224e+001
 1.486024333872922e+000	 9.934223317077022e-001	 1.231560316006614e+001
 1.475752605641132e+000	 1.008618112538213e+000	 1.222031118280852e+001
 1.465315439209171e+000	 1.023722088073212e+000	 1.213582376037627e+001
 1.454714039435346e+000	 1.038731588745962e+000	 1.206323324879645e+001
 1.443949668061402e+000	 1.053643965525300e+000	 1.200367313235968e+001
 1.433023643289850e+000	 1.068456591418900e+000	 1.195831687027927e+001
 1.421937339313935e+000	 1.083166862966581e+000	 1.192837660664182e+001
 1.410692185800488e+000	 1.097772201721953e+000	 1.191510174473676e+001
 1.399289667325979e+000	 1.112270055720651e+000	 1.191977738730700e+001
 1.387731322766180e+000	 1.126657900933457e+000	 1.194372264471876e+001
 1.501360698250078e+000	 9.815574951349226e-001	 1.240920169653280e+001
 1.491220223152433e+000	 9.968958363678354e-001	 1.230310297811962e+001
 1.480912579787019e+000	 1.012144749299187e+000	 1.220615124381500e+001
 1.470438919766183e+000	 1.027301535937454e+000	 1.211938802481817e+001
 1.459800452161025e+000	 1.042363517381748e+000	 1.204389818099041e+001
 1.448998443124971e+000	 1.057328035338559e+000	 1.198080889962556e+001
 1.438034215469632e+000	 1.072192453630274e+000	 1.193128855454309e+001
 1.426909148193127e+000	 1.086954159693705e+000	 1.189654542609920e+001
 1.415624675961120e+000	 1.101610566066914e+000	 1.187782628316660e+001
 1.404182288540908e+000	 1.116159111862584e+000	 1.187641482859767e+001
 1.392583530188948e+000	 1.130597264226219e+000	 1.189363001014582e+001
 1.506591920195367e+000	 9.849775560978110e-001	 1.239751403255505e+001
 1.496416112432122e+000	 1.000369341028381e+000	 1.229016879025508e+001
 1.486072553933241e+000	 1.015671386060504e+000	 1.219136236905211e+001
 1.475562400323657e+000	 1.030880983801987e+000	 1.210212775428728e+001
 1.464886864887260e+000	 1.045995446017794e+000	 1.202354245059853e+001
 1.454047218189162e+000	 1.061012105152069e+000	 1.195672749535807e+001
 1.443044787650073e+000	 1.075928315841908e+000	 1.190284633008643e+001
 1.431880957072984e+000	 1.090741456421118e+000	 1.186310353039426e+001
 1.420557166122393e+000	 1.105448930412214e+000	 1.183874339546973e+001
 1.409074909756423e+000	 1.120048168004926e+000	 1.183104839859595e+001
 1.397435737612217e+000	 1.134536627519480e+000	 1.184133750065179e+001
 1.511823142140651e+000	 9.883976170612022e-001	 1.238563247925985e+001
 1.501612001711991e+000	 1.003842845689340e+000	 1.227684870476686e+001
 1.491232528079799e+000	 1.019198022822163e+000	 1.217599470756908e+001
 1.480685880881592e+000	 1.034460431666813e+000	 1.208409506081569e+001
 1.469973277614053e+000	 1.049627374654102e+000	 1.200222005388304e+001
 1.459095993253977e+000	 1.064696174965829e+000	 1.193148472038164e+001
 1.448055359831174e+000	 1.079664178053803e+000	 1.187304772177672e+001
 1.436852765953506e+000	 1.094528753148821e+000	 1.182811008713429e+001
 1.425489656284306e+000	 1.109287294757853e+000	 1.179791380997302e+001
 1.413967530972524e+000	 1.123937224147676e+000	 1.178374030367914e+001
 1.402287945035988e+000	 1.138475990813240e+000	 1.178690871741532e+001
 1.517054364085930e+000	 9.918176780250960e-001	 1.237360324313778e+001
 1.506807890992041e+000	 1.007316350350711e+000	 1.226319101939605e+001
 1.496392502226693e+000	 1.022724659584164e+000	 1.216009857216440e+001
 1.485809361439989e+000	 1.038039879531929e+000	 1.206534219503672e+001
 1.475059690341403e+000	 1.053259303290671e+000	 1.197998510112315e+001
 1.464144768319415e+000	 1.068380244779839e+000	 1.190513646552881e+001
 1.453065932012934e+000	 1.083400040265957e+000	 1.184195032107023e+001
 1.441824574834693e+000	 1.098316049876814e+000	 1.179162430769769e+001
 1.430422146446860e+000	 1.113125659103831e+000	 1.175539827657069e+001
 1.418860152189212e+000	 1.127826280290835e+000	 1.173455275021406e+001
 1.407140152460260e+000	 1.142415354107499e+000	 1.173040724066389e+001
 1.358618078240099e+000	 1.103021721187355e+000	 1.219451667871812e+001
 1.347151218534440e+000	 1.116997580265982e+000	 1.190197524211282e+001
 1.335534971872575e+000	 1.130860883934394e+000	 1.165154476494481e+001
 1.323771000294476e+000	 1.144609251525269e+000	 1.144543265053852e+001
 1.311861016166131e+000	 1.158240335229829e+000	 1.128585325088782e+001
 1.299806781363172e+000	 1.171751821421837e+000	 1.117502475372312e+001
 1.287610106412854e+000	 1.185141431957086e+000	 1.111516598713109e+001
 1.275272849595268e+000	 1.198406925446870e+000	 1.110849314807961e+001
 1.262796916004702e+000	 1.211546098503949e+000	 1.115721646152924e+001
 1.250184256572148e+000	 1.224556786959549e+000	 1.126353677711850e+001
 1.237436867050000e+000	 1.237436867050000e+000	 1.151171102431496e+001
 1.363470285659859e+000	 1.106961084477125e+000	 1.215896013898130e+001
 1.351962472884378e+000	 1.120986857337350e+000	 1.187028432826278e+001
 1.340304739627733e+000	 1.134899672803894e+000	 1.162590193432201e+001
 1.328498753865755e+000	 1.148697141707049e+000	 1.142808446255301e+001
 1.316546234080025e+000	 1.162376907853009e+000	 1.127910893496818e+001
 1.304448948438586e+000	 1.175936649352585e+000	 1.118125469733051e+001
 1.292208713934864e+000	 1.189374079925341e+000	 1.113680014487429e+001
 1.279827395485662e+000	 1.202686950177613e+000	 1.114801937311387e+001
 1.267306904989177e+000	 1.215873048852919e+000	 1.121717876057392e+001
 1.254649200344013e+000	 1.228930204053311e+000	 1.134653349057489e+001
 1.241856284430250e+000	 1.241856284430250e+000	 1.159329744058132e+001
 1.368322493080121e+000	 1.110900447767394e+000	 1.212082165614425e+001
 1.356773727234726e+000	 1.124976134409307e+000	 1.183645985905478e+001
 1.345074507383233e+000	 1.138938461674051e+000	 1.159855570154810e+001
 1.333226507437325e+000	 1.152785031889537e+000	 1.140944465322939e+001
 1.321231451994179e+000	 1.166513480476928e+000	 1.127146628455265e+001
 1.309091115514251e+000	 1.180121477284083e+000	 1.118696099409276e+001
 1.296807321457133e+000	 1.193606727894337e+000	 1.115826665541169e+001
 1.284381941376346e+000	 1.206966974909066e+000	 1.118771519017435e+001
 1.271816893973994e+000	 1.220199999202549e+000	 1.127762907449201e+001
 1.259114144116288e+000	 1.233303621147664e+000	 1.143031778577819e+001
 1.246275701811000e+000	 1.246275701811000e+000	 1.167404848603018e+001
 1.373174700500884e+000	 1.114839811058162e+000	 1.208016496508871e+001
 1.361584981585486e+000	 1.128965411481853e+000	 1.180056009738097e+001
 1.349844275139073e+000	 1.142977250544868e+000	 1.156955897649690e+001
 1.337954261009186e+000	 1.156872922072735e+000	 1.138956090146743e+001
 1.325916669908595e+000	 1.170650053101586e+000	 1.126296787263039e+001
 1.313733282590166e+000	 1.184306305216330e+000	 1.119218123911013e+001
 1.301405928979664e+000	 1.197839375864072e+000	 1.117959826687542e+001
 1.288936487267320e+000	 1.211246999641229e+000	 1.122760863417915e+001
 1.276326882959149e+000	 1.224526949552838e+000	 1.133859086150796e+001
 1.263579087888974e+000	 1.237677038242606e+000	 1.151490868347495e+001
 1.250695119192250e+000	 1.250695119192250e+000	 1.172345396763238e+001
 1.378026907922148e+000	 1.118779174349428e+000	 1.203705377741970e+001
 1.366396235936657e+000	 1.132954688554987e+000	 1.176264335767175e+001
 1.354614042895254e+000	 1.147016039416343e+000	 1.153896479320669e+001
 1.342682014581339e+000	 1.160960812256642e+000	 1.136848108073185e+001
 1.330601887823270e+000	 1.174786625726983e+000	 1.125365653489202e+001
 1.318375449666332e+000	 1.188491133149326e+000	 1.119695335602366e+001
 1.306004536502454e+000	 1.202072023834546e+000	 1.120082811944535e+001
 1.293491033158585e+000	 1.215527024374101e+000	 1.126772819323697e+001
 1.280836871944645e+000	 1.228853899903788e+000	 1.140008809178459e+001
 1.268044031662069e+000	 1.242050455338138e+000	 1.160032577267391e+001
 1.255114536574000e+000	 1.255114536574000e+000	 1.161451185433129e+001
 1.382879115343912e+000	 1.122718537641193e+000	 1.199155178187369e+001
 1.371207490288239e+000	 1.136943965628710e+000	 1.172276800499134e+001
 1.359383810651777e+000	 1.151054828288477e+000	 1.150682630770213e+001
 1.347409768153781e+000	 1.165048702441258e+000	 1.134625325563863e+001
 1.335287105738207e+000	 1.178923198353120e+000	 1.124357536512126e+001
 1.323017616742749e+000	 1.192675961083072e+000	 1.120131559125111e+001
 1.310603144025505e+000	 1.206304671805761e+000	 1.122198973847133e+001
 1.298045579050140e+000	 1.219807049107683e+000	 1.130810280069666e+001
 1.285346860930481e+000	 1.233180850255397e+000	 1.146214523844184e+001
 1.272508975435574e+000	 1.246423872434260e+000	 1.168658920067614e+001
 1.259533953956250e+000	 1.259533953956250e+000	 1.151444536780671e+001
 1.387731322766180e+000	 1.126657900933457e+000	 1.194372264471876e+001
 1.376018744640232e+000	 1.140933242703022e+000	 1.168099245415274e+001
 1.364153578408640e+000	 1.155093617161271e+000	 1.147319679586143e+001
 1.352137521726515e+000	 1.169136592626583e+000	 1.132292567861299e+001
 1.339972323653405e+000	 1.183059770979996e+000	 1.123276771068252e+001
 1.327659783819416e+000	 1.196860789017568e+000	 1.120530650834459e+001
 1.315201751548817e+000	 1.210537319777715e+000	 1.124311702773909e+001
 1.302600124941985e+000	 1.224087073841975e+000	 1.134876182736293e+001
 1.289856849916657e+000	 1.237507800607667e+000	 1.152478726876396e+001
 1.276973919209489e+000	 1.250797289530973e+000	 1.173702245891854e+001
 1.263953371339000e+000	 1.263953371339000e+000	 1.142317399762402e+001
 1.392583530188948e+000	 1.130597264226219e+000	 1.189363001014582e+001
 1.380829998992637e+000	 1.144922519777922e+000	 1.163737516885091e+001
 1.368923346165845e+000	 1.159132406034723e+000	 1.143812965132829e+001
 1.356865275299541e+000	 1.173224482812618e+000	 1.129854678661767e+001
 1.344657541568863e+000	 1.187196343607612e+000	 1.122127716810357e+001
 1.332301950896333e+000	 1.201045616952813e+000	 1.120896498246469e+001
 1.319800359072388e+000	 1.214769967750408e+000	 1.126424426287757e+001
 1.307154670834119e+000	 1.228367098576977e+000	 1.138973507387569e+001
 1.294366838903173e+000	 1.241834750960597e+000	 1.158803963559006e+001
 1.281438862983815e+000	 1.255170706628275e+000	 1.162814943804476e+001
 1.268372788722250e+000	 1.268372788722250e+000	 1.134061782341906e+001
 1.397435737612217e+000	 1.134536627519480e+000	 1.184133750065179e+001
 1.385641253345453e+000	 1.148911796853411e+000	 1.159197466081432e+001
 1.373693113923391e+000	 1.163171194908833e+000	 1.140167838346753e+001
 1.361593028872856e+000	 1.177312372999361e+000	 1.127316519794916e+001
 1.349342759484582e+000	 1.191332916235967e+000	 1.120914757874925e+001
 1.336944117973501e+000	 1.205230444888807e+000	 1.121233019497137e+001
 1.324398966596220e+000	 1.219002615723842e+000	 1.128540608490324e+001
 1.311709216726544e+000	 1.232647123312689e+000	 1.143105276324697e+001
 1.298876827890029e+000	 1.246161701314186e+000	 1.165192826888472e+001
 1.285903806758550e+000	 1.259544123726167e+000	 1.152756760772670e+001
 1.272792206106000e+000	 1.272792206106000e+000	 1.126669750465440e+001
 1.402287945035988e+000	 1.138475990813240e+000	 1.178690871741532e+001
 1.390452507698680e+000	 1.152901073929488e+000	 1.154484948897369e+001
 1.378462881681278e+000	 1.167209983783603e+000	 1.136389661536280e+001
 1.366320782446463e+000	 1.181400263186813e+000	 1.124682970910023e+001
 1.354027977400562e+000	 1.195469488865060e+000	 1.119642302458579e+001
 1.341586285050920e+000	 1.209415272825551e+000	 1.121544162812604e+001
 1.328997574120312e+000	 1.223235263698014e+000	 1.130663749389847e+001
 1.316263762619260e+000	 1.236927148049110e+000	 1.147274553355411e+001
 1.303386816877225e+000	 1.250488651668435e+000	 1.169631224622358e+001
 1.290368750533695e+000	 1.263917540824649e+000	 1.143520134691732e+001
 1.277211623490250e+000	 1.277211623490250e+000	 1.120133427058734e+001
 1.407140152460260e+000	 1.142415354107499e+000	 1.173040724066389e+001
 1.395263762052319e+000	 1.156890351006155e+000	 1.149605825864839e+001
 1.383232649439506e+000	 1.171248772659032e+000	 1.132483808185604e+001
 1.371048536020361e+000	 1.185488153374974e+000	 1.121958929168801e+001
 1.358713195316802e+000	 1.199606061494894e+000	 1.118314782403268e+001
 1.346228452128589e+000	 1.213600100763045e+000	 1.121833905990366e+001
 1.333596181644664e+000	 1.227467911672928e+000	 1.132797384282083e+001
 1.320818308512266e+000	 1.241207172786242e+000	 1.151484443078299e+001
 1.307896805864762e+000	 1.254815602023345e+000	 1.158690799681126e+001
 1.294833694309251e+000	 1.268290957923721e+000	 1.135097554605175e+001
 1.281631040875000e+000	 1.281631040875000e+000	 1.114444991044579e+001
 1.237436867050000e+000	 1.237436867050000e+000	 1.151171102431496e+001
 1.224556786959549e+000	 1.250184256572148e+000	 1.190579712164603e+001
 1.211546098503949e+000	 1.262796916004702e+000	 1.164086134527901e+001
 1.198406925446870e+000	 1.275272849595268e+000	 1.139256031663847e+001
 1.185141431957086e+000	 1.287610106412854e+000	 1.116239225422517e+001
 1.171751821421837e+000	 1.299806781363171e+000	 1.095185237549031e+001
 1.158240335229829e+000	 1.311861016166131e+000	 1.076243063795717e+001
 1.144609251525269e+000	 1.323771000294475e+000	 1.059560946949431e+001
 1.130860883934394e+000	 1.335534971872575e+000	 1.045286149280584e+001
 1.116997580265982e+000	 1.347151218534440e+000	 1.033564724924093e+001
 1.103021721187355e+000	 1.358618078240099e+000	 1.024541292705142e+001
 1.241856284430250e+000	 1.241856284430250e+000	 1.159329744058132e+001
 1.228930204053311e+000	 1.254649200344013e+000	 1.177847169071805e+001
 1.215873048852919e+000	 1.267306904989177e+000	 1.154565198567580e+001
 1.202686950177613e+000	 1.279827395485662e+000	 1.132609417978876e+001
 1.189374079925341e+000	 1.292208713934864e+000	 1.112124000970360e+001
 1.175936649352585e+000	 1.304448948438586e+000	 1.093253161245175e+001
 1.162376907853009e+000	 1.316546234080025e+000	 1.076140930975793e+001
 1.148697141707049e+000	 1.328498753865755e+000	 1.060930937663272e+001
 1.134899672803893e+000	 1.340304739627733e+000	 1.047766179927166e+001
 1.120986857337350e+000	 1.351962472884377e+000	 1.036788802733372e+001
 1.106961084477125e+000	 1.363470285659859e+000	 1.028139872570981e+001
 1.246275701811000e+000	 1.246275701811000e+000	 1.167404848603018e+001
 1.233303621147663e+000	 1.259114144116288e+000	 1.165733924711223e+001
 1.220199999202549e+000	 1.271816893973993e+000	 1.145589361398234e+001
 1.206966974909065e+000	 1.284381941376346e+000	 1.126435564530359e+001
 1.193606727894337e+000	 1.296807321457134e+000	 1.108411100621930e+001
 1.180121477284083e+000	 1.309091115514251e+000	 1.091654915272153e+001
 1.166513480476928e+000	 1.321231451994179e+000	 1.076306115873826e+001
 1.152785031889537e+000	 1.333226507437325e+000	 1.062503752264708e+001
 1.138938461674051e+000	 1.345074507383233e+000	 1.050386595819814e+001
 1.124976134409307e+000	 1.356773727234726e+000	 1.040092917489203e+001
 1.110900447767394e+000	 1.368322493080121e+000	 1.031760265290293e+001
 1.250695119192250e+000	 1.250695119192250e+000	 1.172345396763238e+001
 1.237677038242606e+000	 1.263579087888973e+000	 1.154238919475942e+001
 1.224526949552838e+000	 1.276326882959149e+000	 1.137158312120149e+001
 1.211246999641229e+000	 1.288936487267321e+000	 1.120734884724963e+001
 1.197839375864072e+000	 1.301405928979664e+000	 1.105101637374486e+001
 1.184306305216330e+000	 1.313733282590166e+000	 1.090392287203841e+001
 1.170650053101586e+000	 1.325916669908595e+000	 1.076741055344940e+001
 1.156872922072735e+000	 1.337954261009186e+000	 1.064282451330410e+001
 1.142977250544868e+000	 1.349844275139073e+000	 1.053151055450139e+001
 1.128965411481853e+000	 1.361584981585486e+000	 1.043481299562078e+001
 1.114839811058162e+000	 1.373174700500883e+000	 1.035407246864400e+001
 1.255114536574000e+000	 1.255114536574000e+000	 1.161451185433129e+001
 1.242050455338138e+000	 1.268044031662069e+000	 1.143361144741958e+001
 1.228853899903788e+000	 1.280836871944645e+000	 1.129271779905976e+001
 1.215527024374101e+000	 1.293491033158585e+000	 1.115507821456384e+001
 1.202072023834546e+000	 1.306004536502454e+000	 1.102196743457207e+001
 1.188491133149326e+000	 1.318375449666333e+000	 1.089467073925759e+001
 1.174786625726983e+000	 1.330601887823270e+000	 1.077448185975043e+001
 1.160960812256642e+000	 1.342682014581339e+000	 1.066270085930823e+001
 1.147016039416343e+000	 1.354614042895254e+000	 1.056063198914398e+001
 1.132954688554987e+000	 1.366396235936657e+000	 1.046958152389573e+001
 1.118779174349428e+000	 1.378026907922148e+000	 1.039085558179539e+001
 1.259533953956250e+000	 1.259533953956250e+000	 1.151444536780671e+001
 1.246423872434260e+000	 1.272508975435574e+000	 1.133099641973661e+001
 1.233180850255397e+000	 1.285346860930481e+000	 1.121929533297700e+001
 1.219807049107683e+000	 1.298045579050140e+000	 1.110754846588104e+001
 1.206304671805760e+000	 1.310603144025505e+000	 1.099697569993777e+001
 1.192675961083072e+000	 1.323017616742749e+000	 1.088881081471738e+001
 1.178923198353121e+000	 1.335287105738207e+000	 1.078429944085625e+001
 1.165048702441259e+000	 1.347409768153782e+000	 1.068469697796953e+001
 1.151054828288477e+000	 1.359383810651776e+000	 1.059126648236071e+001
 1.136943965628710e+000	 1.371207490288239e+000	 1.050527652948818e+001
 1.122718537641193e+000	 1.382879115343913e+000	 1.042799905622872e+001
 1.263953371339000e+000	 1.263953371339000e+000	 1.142317399762402e+001
 1.250797289530973e+000	 1.276973919209489e+000	 1.124018599431007e+001
 1.237507800607667e+000	 1.289856849916657e+000	 1.115131379518408e+001
 1.224087073841975e+000	 1.302600124941985e+000	 1.106476460446852e+001
 1.210537319777715e+000	 1.315201751548817e+000	 1.097605286672053e+001
 1.196860789017568e+000	 1.327659783819416e+000	 1.088636124863927e+001
 1.183059770979996e+000	 1.339972323653404e+000	 1.079688765738366e+001
 1.169136592626583e+000	 1.352137521726516e+000	 1.070884319483655e+001
 1.155093617161271e+000	 1.364153578408640e+000	 1.062345007681941e+001
 1.140933242703021e+000	 1.376018744640233e+000	 1.054193952219140e+001
 1.126657900933457e+000	 1.387731322766179e+000	 1.046554961685637e+001
 1.268372788722250e+000	 1.268372788722250e+000	 1.134061782341906e+001
 1.255170706628275e+000	 1.281438862983815e+000	 1.118195876895773e+001
 1.241834750960597e+000	 1.294366838903173e+000	 1.108877163798375e+001
 1.228367098576977e+000	 1.307154670834119e+000	 1.102673191326801e+001
 1.214769967750409e+000	 1.319800359072388e+000	 1.095921081420661e+001
 1.201045616952813e+000	 1.332301950896333e+000	 1.088734027956252e+001
 1.187196343607612e+000	 1.344657541568862e+000	 1.081227086739642e+001
 1.173224482812617e+000	 1.356865275299540e+000	 1.073516974529469e+001
 1.159132406034722e+000	 1.368923346165845e+000	 1.065721864071396e+001
 1.144922519777922e+000	 1.380829998992637e+000	 1.057961175634956e+001
 1.130597264226219e+000	 1.392583530188948e+000	 1.050355365553676e+001
 1.272792206106000e+000	 1.272792206106000e+000	 1.126669750465440e+001
 1.259544123726167e+000	 1.285903806758550e+000	 1.113166878430657e+001
 1.246161701314186e+000	 1.298876827890029e+000	 1.103166768715207e+001
 1.232647123312689e+000	 1.311709216726545e+000	 1.099345595003972e+001
 1.219002615723841e+000	 1.324398966596220e+000	 1.094646160092318e+001
 1.205230444888807e+000	 1.336944117973501e+000	 1.089176623281085e+001
 1.191332916235967e+000	 1.349342759484582e+000	 1.083047342644969e+001
 1.177312372999361e+000	 1.361593028872856e+000	 1.076370677613170e+001
 1.163171194908833e+000	 1.373693113923391e+000	 1.069260787079330e+001
 1.148911796853411e+000	 1.385641253345453e+000	 1.061833423529254e+001
 1.134536627519480e+000	 1.397435737612217e+000	 1.054205723685635e+001
 1.277211623490250e+000	 1.277211623490250e+000	 1.120133427058734e+001
 1.263917540824649e+000	 1.290368750533695e+000	 1.108924498434623e+001
 1.250488651668435e+000	 1.303386816877225e+000	 1.098339396033343e+001
 1.236927148049110e+000	 1.316263762619260e+000	 1.096494254260786e+001
 1.223235263698015e+000	 1.328997574120312e+000	 1.093781746153687e+001
 1.209415272825551e+000	 1.341586285050920e+000	 1.089965751899051e+001
 1.195469488865060e+000	 1.354027977400561e+000	 1.085151968763366e+001
 1.181400263186813e+000	 1.366320782446463e+000	 1.079448434707052e+001
 1.167209983783603e+000	 1.378462881681278e+000	 1.072965329532770e+001
 1.152901073929488e+000	 1.390452507698681e+000	 1.065814771567905e+001
 1.138475990813240e+000	 1.402287945035988e+000	 1.058110610379202e+001
 1.281631040875000e+000	 1.281631040875000e+000	 1.114444991044579e+001
 1.268290957923721e+000	 1.294833694309251e+000	 1.105461677195344e+001
 1.254815602023345e+000	 1.307896805864761e+000	 1.096814104014313e+001
 1.241207172786241e+000	 1.320818308512266e+000	 1.094119778420434e+001
 1.227467911672928e+000	 1.333596181644665e+000	 1.093329080381751e+001
 1.213600100763044e+000	 1.346228452128588e+000	 1.091103263252053e+001
 1.199606061494894e+000	 1.358713195316802e+000	 1.087543400161563e+001
 1.185488153374974e+000	 1.371048536020361e+000	 1.082753243227052e+001
 1.171248772659032e+000	 1.383232649439506e+000	 1.076839027701366e+001
 1.156890351006155e+000	 1.395263762052319e+000	 1.069909271174899e+001
 1.142415354107499e+000	 1.407140152460260e+000	 1.062074568325585e+001
 1.103021721187355e+000	 1.358618078240099e+000	 1.024541292705142e+001
 1.088935718877639e+000	 1.369933940048715e+000	 1.029463051293922e+001
 1.074742015659307e+000	 1.381097244850154e+000	 1.031516196233339e+001
 1.060443082609914e+000	 1.392106486052751e+000	 1.030736458399118e+001
 1.046041418156111e+000	 1.402960210224999e+000	 1.027163210279634e+001
 1.031539546651006e+000	 1.413657017693081e+000	 1.020839326169116e+001
 1.016940016936733e+000	 1.424195563092979e+000	 1.011811037427160e+001
 1.002245400893888e+000	 1.434574555876782e+000	 1.000127783220762e+001
 9.874582919795517e-001	 1.444792760772856e+000	 9.858420571730381e+000
 9.725813037555651e-001	 1.454848998199642e+000	 9.690092503485394e+000
 9.576170684087774e-001	 1.464742144632903e+000	 9.496874910093933e+000
 1.106961084477125e+000	 1.363470285659859e+000	 1.028139872570981e+001
 1.092824775017119e+000	 1.374826561260127e+000	 1.032032403690568e+001
 1.078580380002234e+000	 1.386029735006941e+000	 1.033183953079330e+001
 1.064230379335302e+000	 1.397078294927953e+000	 1.031634649445427e+001
 1.049777280365926e+000	 1.407970782400826e+000	 1.027428124417414e+001
 1.035223616462762e+000	 1.418705792752909e+000	 1.020611368016270e+001
 1.020571945570952e+000	 1.429281975815314e+000	 1.011234579399224e+001
 1.005824848756380e+000	 1.439698036431027e+000	 9.993510132999255e+000
 9.909849287384731e-001	 1.449952734916730e+000	 9.850168225963179e+000
 9.760548084132232e-001	 1.460044887478073e+000	 9.682908974430674e+000
 9.610371293681475e-001	 1.469973366578229e+000	 9.492347014087477e+000
 1.110900447767394e+000	 1.368322493080121e+000	 1.031760265290293e+001
 1.096713831157008e+000	 1.379719182472125e+000	 1.034661141272664e+001
 1.082418744345500e+000	 1.390962225164369e+000	 1.034947253596449e+001
 1.068017676060979e+000	 1.402050103803819e+000	 1.032663122085606e+001
 1.053513142576001e+000	 1.412981354577312e+000	 1.027856631812479e+001
 1.038907686274769e+000	 1.423754567813361e+000	 1.020578883841594e+001
 1.024203874205432e+000	 1.434368388538206e+000	 1.010884041450055e+001
 1.009404296619163e+000	 1.444821516985733e+000	 9.988291722566071e+000
 9.945115654977365e-001	 1.455112709060939e+000	 9.844740866983226e+000
 9.795283130712940e-001	 1.465240776756683e+000	 9.678811732984126e+000
 9.644571903280199e-001	 1.475204588523551e+000	 9.491152311720425e+000
 1.114839811058162e+000	 1.373174700500883e+000	 1.035407246864400e+001
 1.100602887297306e+000	 1.384611803684709e+000	 1.037353566583558e+001
 1.086257108689105e+000	 1.395894715322437e+000	 1.036809938432755e+001
 1.071804972786945e+000	 1.407021912680351e+000	 1.033825266863829e+001
 1.057249004786336e+000	 1.417991926754458e+000	 1.028451684917012e+001
 1.042591756087026e+000	 1.428803342874437e+000	 1.020744400229866e+001
 1.027835802840173e+000	 1.439454801261655e+000	 1.010761536725889e+001
 1.012983744482238e+000	 1.449944997540901e+000	 9.985639724232591e+000
 9.980382022573424e-001	 1.460272683205484e+000	 9.842151738096311e+000
 9.830018177297772e-001	 1.470436666035473e+000	 9.677810272338213e+000
 9.678772512883952e-001	 1.480435810468866e+000	 9.493296677672845e+000
 1.118779174349428e+000	 1.378026907922148e+000	 1.039085558179539e+001
 1.104491943438012e+000	 1.389504424897880e+000	 1.040113953208928e+001
 1.090095473033049e+000	 1.400827205481147e+000	 1.038775825260255e+001
 1.075592269513201e+000	 1.411993721557547e+000	 1.035124457151250e+001
 1.060984866996930e+000	 1.423002498932263e+000	 1.029216224632478e+001
 1.046275825899534e+000	 1.433852117936135e+000	 1.021110437654225e+001
 1.031467731475175e+000	 1.444541213985662e+000	 1.010869177515108e+001
 1.016563192345605e+000	 1.455068478096529e+000	 9.985571303407875e+000
 1.001564839017290e+000	 1.465432657350365e+000	 9.842414173464018e+000
 9.864753223886729e-001	 1.475632555314443e+000	 9.679914223400697e+000
 9.712973122492727e-001	 1.485667032414177e+000	 9.498786169272105e+000
 1.122718537641193e+000	 1.382879115343913e+000	 1.042799905622872e+001
 1.108380999579127e+000	 1.394397046111636e+000	 1.042946546284851e+001
 1.093933837377332e+000	 1.405759695640498e+000	 1.040848709177951e+001
 1.079379566239746e+000	 1.416965530435408e+000	 1.036564049447357e+001
 1.064720729207785e+000	 1.428013071110727e+000	 1.030153180512258e+001
 1.049959895712292e+000	 1.438900892998457e+000	 1.021679510583410e+001
 1.035099660110438e+000	 1.449627626710226e+000	 1.011209075263195e+001
 1.020142640209263e+000	 1.460191958652619e+000	 9.988103666847445e+000
 1.005091475777580e+000	 1.470592631495581e+000	 9.845541596509253e+000
 9.899488270479814e-001	 1.480828444593593e+000	 9.685133352378463e+000
 9.747173732106537e-001	 1.490898254359483e+000	 9.507627023288309e+000
 1.126657900933457e+000	 1.387731322766179e+000	 1.046554961685637e+001
 1.112270055720651e+000	 1.399289667325979e+000	 1.045855562995139e+001
 1.097772201721953e+000	 1.410692185800488e+000	 1.043032363106473e+001
 1.083166862966581e+000	 1.421937339313935e+000	 1.038147383674886e+001
 1.068456591418899e+000	 1.433023643289850e+000	 1.031265470960063e+001
 1.053643965525300e+000	 1.443949668061402e+000	 1.022454127586708e+001
 1.038731588745962e+000	 1.454714039435346e+000	 1.011783340587599e+001
 1.023722088073213e+000	 1.465315439209170e+000	 9.993254061930449e+000
 1.008618112538213e+000	 1.475752605641132e+000	 9.851547518355789e+000
 9.934223317077020e-001	 1.486024333872922e+000	 9.693477558411818e+000
 9.781374341725369e-001	 1.496129476304783e+000	 9.519825652797923e+000
 1.130597264226219e+000	 1.392583530188948e+000	 1.050355365553676e+001
 1.116159111862584e+000	 1.404182288540908e+000	 1.048845193058337e+001
 1.101610566066914e+000	 1.415624675961120e+000	 1.045330538174461e+001
 1.086954159693705e+000	 1.426909148193127e+000	 1.039877783468678e+001
 1.072192453630274e+000	 1.438034215469632e+000	 1.032556003424138e+001
 1.057328035338559e+000	 1.448998443124971e+000	 1.023436791436737e+001
 1.042363517381748e+000	 1.459800452161025e+000	 1.012594083292051e+001
 1.027301535937454e+000	 1.470438919766183e+000	 1.000103977595209e+001
 1.012144749299187e+000	 1.480912579787019e+000	 9.860445536300734e+000
 9.968958363678353e-001	 1.491220223152432e+000	 9.704956871259311e+000
 9.815574951349226e-001	 1.501360698250077e+000	 9.535388644111336e+000
 1.134536627519480e+000	 1.397435737612217e+000	 1.054205723685635e+001
 1.120048168004926e+000	 1.409074909756423e+000	 1.051919599204551e+001
 1.105448930412214e+000	 1.420557166122393e+000	 1.047746964096933e+001
 1.090741456421118e+000	 1.431880957072984e+000	 1.041758556458363e+001
 1.075928315841908e+000	 1.443044787650074e+000	 1.034027674587520e+001
 1.061012105152069e+000	 1.454047218189162e+000	 1.024629999210116e+001
 1.045995446017794e+000	 1.464886864887260e+000	 1.013643412380743e+001
 1.030880983801988e+000	 1.475562400323657e+000	 1.001147813543026e+001
 1.015671386060504e+000	 1.486072553933241e+000	 9.872249332317942e+000
 1.000369341028381e+000	 1.496416112432122e+000	 9.719581449029185e+000
 9.849775560978110e-001	 1.506591920195367e+000	 9.554322753765819e+000
 1.138475990813240e+000	 1.402287945035988e+000	 1.058110610379202e+001
 1.123937224147676e+000	 1.413967530972524e+000	 1.055082917642366e+001
 1.109287294757853e+000	 1.425489656284306e+000	 1.050285349545727e+001
 1.094528753148821e+000	 1.436852765953506e+000	 1.043792994545341e+001
 1.079664178053803e+000	 1.448055359831174e+000	 1.035683370554226e+001
 1.064696174965829e+000	 1.459095993253977e+000	 1.026036242385945e+001
 1.049627374654102e+000	 1.469973277614053e+000	 1.014933436072169e+001
 1.034460431666813e+000	 1.480685880881592e+000	 1.002458650542735e+001
 1.019198022822162e+000	 1.491232528079799e+000	 9.886972671593423e+000
 1.003842845689340e+000	 1.501612001711991e+000	 9.737361575959788e+000
 9.883976170612022e-001	 1.511823142140651e+000	 9.576634905580562e+000
 1.142415354107499e+000	 1.407140152460260e+000	 1.062074568325585e+001
 1.127826280290835e+000	 1.418860152189212e+000	 1.058339258516099e+001
 1.113125659103831e+000	 1.430422146446860e+000	 1.052949382512310e+001
 1.098316049876814e+000	 1.441824574834693e+000	 1.045984374173940e+001
 1.083400040265957e+000	 1.453065932012934e+000	 1.037525967031707e+001
 1.068380244779839e+000	 1.464144768319415e+000	 1.027658006942373e+001
 1.053259303290671e+000	 1.475059690341403e+000	 1.016466261812648e+001
 1.038039879531929e+000	 1.485809361439989e+000	 1.004038228888537e+001
 1.022724659584163e+000	 1.496392502226693e+000	 9.904629401090551e+000
 1.007316350350711e+000	 1.506807890992041e+000	 9.758307660243560e+000
 9.918176780250960e-001	 1.517054364085930e+000	 9.602332187772024e+000
 9.576170684087774e-001	 1.464742144632903e+000	 9.496874910093933e+000
 9.425682352647939e-001	 1.474471132926832e+000	 9.351090573213240e+000
 9.274374692974090e-001	 1.484034952587418e+000	 9.200973774193017e+000
 9.122274496350906e-001	 1.493432649999157e+000	 9.047385702604080e+000
 8.969408680658605e-001	 1.502663328606234e+000	 8.891188063640460e+000
 8.815804275427316e-001	 1.511726149046811e+000	 8.733241333634537e+000
 8.661488406911884e-001	 1.520620329241138e+000	 8.574403036565750e+000
 8.506488283203391e-001	 1.529345144433827e+000	 8.415526045549882e+000
 8.350831179393492e-001	 1.537899927190630e+000	 8.257456913166093e+000
 8.194544422807419e-001	 1.546284067350166e+000	 8.101034234351378e+000
 8.037655378321177e-001	 1.554497011931069e+000	 7.947087045442051e+000
 9.610371293681475e-001	 1.469973366578229e+000	 9.492347014087477e+000
 9.459345503908443e-001	 1.479737101260001e+000	 9.352917105723522e+000
 9.307497459729883e-001	 1.489335077420312e+000	 9.208368265890918e+000
 9.154854048113627e-001	 1.498766338037888e+000	 9.059564736948520e+000
 9.001442283075181e-001	 1.508029983354930e+000	 8.907371976148397e+000
 8.847289290678709e-001	 1.517125171011878e+000	 8.752654892413663e+000
 8.692422294058532e-001	 1.526051116135842e+000	 8.596276103440362e+000
 8.536868598477482e-001	 1.534807091383022e+000	 8.439094217161449e+000
 8.380655576438260e-001	 1.543392426935479e+000	 8.281962141489531e+000
 8.223810652863681e-001	 1.551806510452680e+000	 8.125725426115928e+000
 8.066361290361446e-001	 1.560048786978331e+000	 7.971220640003638e+000
 9.644571903280199e-001	 1.475204588523551e+000	 9.491152311720425e+000
 9.493008655174869e-001	 1.485003069592980e+000	 9.357901026988957e+000
 9.340620226492290e-001	 1.494635202252862e+000	 9.218747607184556e+000
 9.187433599883460e-001	 1.504100026076150e+000	 9.074559502104073e+000
 9.033475885499160e-001	 1.513396638103062e+000	 8.926206072822378e+000
 8.878774305937595e-001	 1.522524192976319e+000	 8.774556809538847e+000
 8.723356181212563e-001	 1.531481903029887e+000	 8.620479569085466e+000
 8.567248913758652e-001	 1.540269038331555e+000	 8.464838836185789e+000
 8.410479973489599e-001	 1.548884926679690e+000	 8.308494012437507e+000
 8.253076882925808e-001	 1.557328953554614e+000	 8.152297736849587e+000
 8.095067202406676e-001	 1.565600562025096e+000	 7.997094241624947e+000
 9.678772512883952e-001	 1.480435810468866e+000	 9.493296677672845e+000
 9.526671806447223e-001	 1.490269037925770e+000	 9.366049054947936e+000
 9.373742993261324e-001	 1.499935327085067e+000	 9.232119307127910e+000
 9.220013151660408e-001	 1.509433714113943e+000	 9.092378246203657e+000
 9.065509487930548e-001	 1.518763292850633e+000	 8.947699288973723e+000
 8.910259321203976e-001	 1.527923214940134e+000	 8.798956655769105e+000
 8.754290068373979e-001	 1.536912689923272e+000	 8.647023588177989e+000
 8.597629229046896e-001	 1.545730985279425e+000	 8.492770589919971e+000
 8.440304370547501e-001	 1.554377426423264e+000	 8.337063694891212e+000
 8.282343112993795e-001	 1.562851396655965e+000	 8.180762766272112e+000
 8.123773114456867e-001	 1.571152337071366e+000	 8.024719830438668e+000
 9.712973122492727e-001	 1.485667032414177e+000	 9.498786169272105e+000
 9.560334957725499e-001	 1.495535006258369e+000	 9.377368072209659e+000
 9.406865760036977e-001	 1.505235451916928e+000	 9.248491022145329e+000
 9.252592703444466e-001	 1.514767402151269e+000	 9.113029348129263e+000
 9.097543090369337e-001	 1.524129947597642e+000	 8.971860674728804e+000
 8.941744336477850e-001	 1.533322236903323e+000	 8.825864101435505e+000
 8.785223955542779e-001	 1.542343476815998e+000	 8.675918400420150e+000
 8.628009544342218e-001	 1.551192932226631e+000	 8.522900236838547e+000
 8.470128767611975e-001	 1.559869926166202e+000	 8.367682415764579e+000
 8.311609343067644e-001	 1.568373839756736e+000	 8.211132159697916e+000
 8.152479026512018e-001	 1.576704112117140e+000	 8.054109420443020e+000
 9.747173732106537e-001	 1.490898254359483e+000	 9.507627023288309e+000
 9.593998109009702e-001	 1.500800974590778e+000	 9.391865123165324e+000
 9.439988526819246e-001	 1.510535576748443e+000	 9.267870553444848e+000
 9.285172255235641e-001	 1.520101090188126e+000	 9.136521315218200e+000
 9.129576692815529e-001	 1.529496602344088e+000	 8.998699393014290e+000
 8.973229351759222e-001	 1.538721258865886e+000	 8.855288914693926e+000
 8.816157842718968e-001	 1.547774263708064e+000	 8.707174329046715e+000
 8.658389859644610e-001	 1.556654879173173e+000	 8.555238605344322e+000
 8.499953164683018e-001	 1.565362425908501e+000	 8.400361458986065e+000
 8.340875573147357e-001	 1.573896282856925e+000	 8.243417607236468e+000
 8.181184938572133e-001	 1.582255887162417e+000	 8.085275058907863e+000
 9.781374341725369e-001	 1.496129476304783e+000	 9.519825652797923e+000
 9.627661260299831e-001	 1.506066942922997e+000	 9.409547411159762e+000
 9.473111293608137e-001	 1.515835701579615e+000	 9.290265844487319e+000
 9.317751807033925e-001	 1.525434778224514e+000	 9.162862781017063e+000
 9.161610295269125e-001	 1.534863257089972e+000	 9.028224717585216e+000
 9.004714367048087e-001	 1.544120280827824e+000	 8.887240959815193e+000
 8.847091729902539e-001	 1.553205050599471e+000	 8.740801779364787e+000
 8.688770174954085e-001	 1.562116826119054e+000	 8.589796592545529e+000
 8.529777561760628e-001	 1.570854925650164e+000	 8.435112164501998e+000
 8.370141803232933e-001	 1.579418725956532e+000	 8.277630843008694e+000
 8.209890850637204e-001	 1.587807662207198e+000	 8.118228825792764e+000
 9.815574951349226e-001	 1.501360698250077e+000	 9.535388644111336e+000
 9.661324411595879e-001	 1.511332911255026e+000	 9.430422295722252e+000
 9.506234060403650e-001	 1.521135826410442e+000	 9.315684978508358e+000
 9.350331358839324e-001	 1.530768466260434e+000	 9.192062503083255e+000
 9.193643897730129e-001	 1.540229911835293e+000	 9.060446031094816e+000
 9.036199382344449e-001	 1.549519302789135e+000	 8.921730195510262e+000
 8.878025617093496e-001	 1.558635837490217e+000	 8.776811237324415e+000
 8.719150490270632e-001	 1.567578773064270e+000	 8.626585163059390e+000
 8.559601958844805e-001	 1.576347425391189e+000	 8.471945927300487e+000
 8.399408033324372e-001	 1.584941169055559e+000	 8.313783644380459e+000
 8.238596762707239e-001	 1.593359437251484e+000	 8.152982833177685e+000
 9.849775560978110e-001	 1.506591920195367e+000	 9.554322753765819e+000
 9.694987562897857e-001	 1.516598879586865e+000	 9.454497289854578e+000
 9.539356827205781e-001	 1.526435951240926e+000	 9.344136176091542e+000
 9.382910910651836e-001	 1.536102154295885e+000	 9.224129360831743e+000
 9.225677500198538e-001	 1.545596566580053e+000	 9.095372823202885e+000
 9.067684397648304e-001	 1.554918324749820e+000	 8.958766673290828e+000
 8.908959504291841e-001	 1.564066624380306e+000	 8.815213268118360e+000
 8.749530805594257e-001	 1.573040720008823e+000	 8.665615347840067e+000
 8.589426355935549e-001	 1.581839925131578e+000	 8.510874196456175e+000
 8.428674263421673e-001	 1.590463612154004e+000	 8.351887831211723e+000
 8.267302674782234e-001	 1.598911212295272e+000	 8.189549224705370e+000
 9.883976170612022e-001	 1.511823142140651e+000	 9.576634905580562e+000
 9.728650714205759e-001	 1.521864847918514e+000	 9.481780057376552e+000
 9.572479594014535e-001	 1.531736076071063e+000	 9.375627792792285e+000
 9.415490462471462e-001	 1.541435842330869e+000	 9.259072353427257e+000
 9.257711102674350e-001	 1.550963221324250e+000	 9.133014688725195e+000
 9.099169412959657e-001	 1.560317346709880e+000	 8.998360535863700e+000
 8.939893391497567e-001	 1.569497411269733e+000	 8.856018514810877e+000
 8.779911120924956e-001	 1.578502666952713e+000	 8.706898243030693e+000
 8.619250753032864e-001	 1.587332424871329e+000	 8.551908474194063e+000
 8.457940493524835e-001	 1.595986055251867e+000	 8.391955265121524e+000
 8.296008586862190e-001	 1.604462987338566e+000	 8.227940175035108e+000
 9.918176780250960e-001	 1.517054364085930e+000	 9.602332187772024e+000
 9.762313865519589e-001	 1.527130816249973e+000	 9.512278410325013e+000
 9.605602360829908e-001	 1.537036200900858e+000	 9.410168316810504e+000
 9.448070014298204e-001	 1.546769530365383e+000	 9.296900597719102e+000
 9.289744705157568e-001	 1.556329876067885e+000	 9.173381325820460e+000
 9.130654428278503e-001	 1.565716368669313e+000	 9.040522015558663e+000
 8.970827278710680e-001	 1.574928198158502e+000	 8.899237696995499e+000
 8.810291436262734e-001	 1.583964613895941e+000	 8.750445008839328e+000
 8.649075150136747e-001	 1.592824924610444e+000	 8.595060314973424e+000
 8.487206723633864e-001	 1.601508498349150e+000	 8.433997848767769e+000
 8.324714498947107e-001	 1.610014762381363e+000	 8.268167889307962e+000
 8.037655378321177e-001	 1.554497011931069e+000	 7.947087045442051e+000
 7.880191433779775e-001	 1.562538264995355e+000	 7.798194923556477e+000
 7.722179985526133e-001	 1.570407387467961e+000	 7.642309317812527e+000
 7.563648424060112e-001	 1.578103996913506e+000	 7.480167623324867e+000
 7.404624119843858e-001	 1.585627767271441e+000	 7.312502463398636e+000
 7.245134409262326e-001	 1.592978428549761e+000	 7.140040243722473e+000
 7.085206580754377e-001	 1.600155766478270e+000	 6.963499747798159e+000
 6.924867861127357e-001	 1.607159622122281e+000	 6.783590776263426e+000
 6.764145402067767e-001	 1.613989891457657e+000	 6.601012832595532e+000
 6.603066266860092e-001	 1.620646524908150e+000	 6.416453857493504e+000
 6.441657417325339e-001	 1.627129526846033e+000	 6.230589014051409e+000
 8.066361290361446e-001	 1.560048786978331e+000	 7.971220640003638e+000
 7.908334974590218e-001	 1.568118758803296e+000	 7.820238146191596e+000
 7.749759199736914e-001	 1.576015985284447e+000	 7.662620518684773e+000
 7.590661454124608e-001	 1.583740082620561e+000	 7.499119289775786e+000
 7.431069205967094e-001	 1.591290723586588e+000	 7.330480664527928e+000
 7.271009889279270e-001	 1.598667637226266e+000	 7.157444059314842e+000
 7.110510889958701e-001	 1.605870608504148e+000	 6.980740682696755e+000
 6.949599532051329e-001	 1.612899477917923e+000	 6.801092161314317e+000
 6.788303064213964e-001	 1.619754141071941e+000	 6.619209213299031e+000
 6.626648646385666e-001	 1.626434548212895e+000	 6.435790371511501e+000
 6.464663336679664e-001	 1.632940703728673e+000	 6.251520758728214e+000
 8.095067202406676e-001	 1.565600562025096e+000	 7.997094241624947e+000
 7.936478515404619e-001	 1.573699252610836e+000	 7.844018049493965e+000
 7.777338413950653e-001	 1.581624583100616e+000	 7.684661856024968e+000
 7.617674484191060e-001	 1.589376168327374e+000	 7.519791429581650e+000
 7.457514292091284e-001	 1.596953679901558e+000	 7.350166656412551e+000
 7.296885369296164e-001	 1.604356845902647e+000	 7.176540063375553e+000
 7.135815199161976e-001	 1.611585450529947e+000	 6.999655384104656e+000
 6.974331202973251e-001	 1.618639333713522e+000	 6.820246171321574e+000
 6.812460726357107e-001	 1.625518390686205e+000	 6.639034457802757e+000
 6.650231025907190e-001	 1.632222571517635e+000	 6.456729468327213e+000
 6.487669256028935e-001	 1.638751880611314e+000	 6.274026384734549e+000
 8.123773114456867e-001	 1.571152337071366e+000	 8.024719830438668e+000
 7.964622056222982e-001	 1.579279746417974e+000	 7.869545531416467e+000
 7.804917628167353e-001	 1.587233180916469e+000	 7.708443179417278e+000
 7.644687514259473e-001	 1.595012254033945e+000	 7.542192878371378e+000
 7.483959378216433e-001	 1.602616636216350e+000	 7.371568295712078e+000
 7.322760849313017e-001	 1.610046054578906e+000	 7.197335169124712e+000
 7.161119508364204e-001	 1.617300292555668e+000	 7.020249857848391e+000
 6.999062873893127e-001	 1.624379189509076e+000	 6.841057941249258e+000
 6.836618388497200e-001	 1.631282640300451e+000	 6.660492867195059e+000
 6.673813405424659e-001	 1.638010594822370e+000	 6.479274652565949e+000
 6.510675175373156e-001	 1.644563057493954e+000	 6.298108638040668e+000
 8.152479026512018e-001	 1.576704112117140e+000	 8.054109420443020e+000
 7.992765597045307e-001	 1.584860240224712e+000	 7.896831532654106e+000
 7.832496842387011e-001	 1.592841778732005e+000	 7.733974389601689e+000
 7.671700544329844e-001	 1.600648339740274e+000	 7.566332530877499e+000
 7.510404464342539e-001	 1.608279592530964e+000	 7.394693505671017e+000
 7.348636329329822e-001	 1.615735263255042e+000	 7.219836363382240e+000
 7.186423817565386e-001	 1.623015134581310e+000	 7.042530189900072e+000
 7.023794544810953e-001	 1.630119045304586e+000	 6.863532692284589e+000
 6.860776050634244e-001	 1.637046889914676e+000	 6.683588834397009e+000
 6.697395784938081e-001	 1.643798618127101e+000	 6.503429525826586e+000
 6.533681094712327e-001	 1.650374234376595e+000	 6.323770366262874e+000
 8.181184938572133e-001	 1.582255887162417e+000	 8.085275058907863e+000
 8.020909137871588e-001	 1.590440734031049e+000	 7.925887035894590e+000
 7.860076056609627e-001	 1.598450376547225e+000	 7.761265437576126e+000
 7.698713574402171e-001	 1.606284425446361e+000	 7.592219339898982e+000
 7.536849550469599e-001	 1.613942548845402e+000	 7.419550274950864e+000
 7.374511809346583e-001	 1.621424471931055e+000	 7.244050705275637e+000
 7.211728126765519e-001	 1.628729976606873e+000	 7.066502544971443e+000
 7.048526215726728e-001	 1.635858901100052e+000	 6.887675730325739e+000
 6.884933712768236e-001	 1.642811139528882e+000	 6.708326842550966e+000
 6.720978164447449e-001	 1.649586641431826e+000	 6.529197784979933e+000
 6.556687014046444e-001	 1.656185411259235e+000	 6.351014516880577e+000
 8.209890850637204e-001	 1.587807662207198e+000	 8.118228825792764e+000
 8.049052678701835e-001	 1.596021227836984e+000	 7.956723065083640e+000
 7.887655270835206e-001	 1.604058974362128e+000	 7.790326323717794e+000
 7.725726604476457e-001	 1.611920511152207e+000	 7.619862315286285e+000
 7.563294636597616e-001	 1.619605505159661e+000	 7.446146656486304e+000
 7.400387289363296e-001	 1.627113680606944e+000	 7.269985324976966e+000
 7.237032435964607e-001	 1.634444818632358e+000	 7.092173165137194e+000
 7.073257886640455e-001	 1.641598756895474e+000	 6.913492444500459e+000
 6.909091374899179e-001	 1.648575389143068e+000	 6.734711463443475e+000
 6.744560543952766e-001	 1.655374664736547e+000	 6.556583220503100e+000
 6.579692933375511e-001	 1.661996588141876e+000	 6.379844135490131e+000
 8.238596762707239e-001	 1.593359437251484e+000	 8.152982833177685e+000
 8.077196219536037e-001	 1.601601721642518e+000	 7.989350684706503e+000
 7.915234485063741e-001	 1.609667572176715e+000	 7.821167096922478e+000
 7.752739634552701e-001	 1.617556596857810e+000	 7.649270522947102e+000
 7.589739722726588e-001	 1.625268461473743e+000	 7.474490766365875e+000
 7.426262769379970e-001	 1.632802889282712e+000	 7.297647422464248e+000
 7.262336745162646e-001	 1.640159660657765e+000	 7.119548368487091e+000
 7.097989557552134e-001	 1.647338612690852e+000	 6.940988305716391e+000
 6.933249037027072e-001	 1.654339638757235e+000	 6.762747355961189e+000
 6.768142923454033e-001	 1.661162688041263e+000	 6.585589714849084e+000
 6.602698852699526e-001	 1.667807765024516e+000	 6.410262364095538e+000
 8.267302674782234e-001	 1.598911212295272e+000	 8.189549224705370e+000
 8.105339760374201e-001	 1.607182215447650e+000	 8.023780999084307e+000
 7.942813699295239e-001	 1.615276169990986e+000	 7.853797853763515e+000
 7.779752664630903e-001	 1.623192682563172e+000	 7.680453083873504e+000
 7.616184808856519e-001	 1.630931417787648e+000	 7.504590782734801e+000
 7.452138249396592e-001	 1.638492097958355e+000	 7.327044266310278e+000
 7.287641054359637e-001	 1.645874502683092e+000	 7.148634547806880e+000
 7.122721228461763e-001	 1.653078468486186e+000	 6.970168865240873e+000
 6.957406699151915e-001	 1.660103888371382e+000	 6.792439264578125e+000
 6.791725302951249e-001	 1.666950711345974e+000	 6.616221240849968e+000
 6.625704772018489e-001	 1.673618941907156e+000	 6.442272439434957e+000
 8.296008586862190e-001	 1.604462987338566e+000	 8.227940175035108e+000
 8.133483301216326e-001	 1.612762709252382e+000	 8.060025151684208e+000
 7.970392913529695e-001	 1.620884767804940e+000	 7.888228737665308e+000
 7.806765694711063e-001	 1.628828768268292e+000	 7.713419173188905e+000
 7.642629894987404e-001	 1.636594374101376e+000	 7.536454944722241e+000
 7.478013729413171e-001	 1.644181306633876e+000	 7.358183192495230e+000
 7.312945363555583e-001	 1.651589344708342e+000	 7.179438169284947e+000
 7.147452899369342e-001	 1.658818324281475e+000	 7.001039753311358e+000
 6.981564361273706e-001	 1.665868137985510e+000	 6.823792017875427e+000
 6.815307682444414e-001	 1.672738734650680e+000	 6.648481860152548e+000
 6.648710691332402e-001	 1.679430118789797e+000	 6.475877691341235e+000
 8.324714498947107e-001	 1.610014762381363e+000	 8.268167889307962e+000
 8.161626842062413e-001	 1.618343203056713e+000	 8.098094324445420e+000
 7.997972127767113e-001	 1.626493365618577e+000	 7.924469938096653e+000
 7.833778724793183e-001	 1.634464853973170e+000	 7.748178019214300e+000
 7.669074981119249e-001	 1.642257330414927e+000	 7.570091551388925e+000
 7.503889209429704e-001	 1.649870515309274e+000	 7.391071603245067e+000
 7.338249672750482e-001	 1.657304186733513e+000	 7.211965771247635e+000
 7.172184570274875e-001	 1.664558180076721e+000	 7.033606677772903e+000
 7.005722023392451e-001	 1.671632387599618e+000	 6.856810527091097e+000
 6.838890061933528e-001	 1.678526757955381e+000	 6.682375721687998e+000
 6.671716610641265e-001	 1.685241295672438e+000	 6.511081541137457e+000
 6.441657417325339e-001	 1.627129526846033e+000	 6.230589014051409e+000
 6.279945700987348e-001	 1.633438955056451e+000	 6.152493468971337e+000
 6.117957838487955e-001	 1.639574920168338e+000	 6.024220447736036e+000
 5.955720411252083e-001	 1.645537585051869e+000	 5.882101040149884e+000
 5.793259849407659e-001	 1.651327164182347e+000	 5.737850442444948e+000
 5.630602419979398e-001	 1.656943922973434e+000	 5.592463750208585e+000
 5.467774215361323e-001	 1.662388177080357e+000	 5.446887464666285e+000
 5.304801142075866e-001	 1.667660291674265e+000	 5.302018119054215e+000
 5.141708909827072e-001	 1.672760680688981e+000	 5.158701047822216e+000
 4.978523020854702e-001	 1.677689806041381e+000	 5.017729298620671e+000
 4.815268759595532e-001	 1.682448176826651e+000	 4.879842686615957e+000
 6.464663336679664e-001	 1.632940703728673e+000	 6.251520758728214e+000
 6.302374078503119e-001	 1.639272665610863e+000	 6.173421956984198e+000
 6.139807687928052e-001	 1.645430544883565e+000	 6.053270703001316e+000
 5.976990841313048e-001	 1.651414504998635e+000	 5.911394769489465e+000
 5.813950063179354e-001	 1.657224761197355e+000	 5.767317396510498e+000
 5.650711714362495e-001	 1.662861579841297e+000	 5.622050087300770e+000
 5.487301980443613e-001	 1.668325277713024e+000	 5.476555257023941e+000
 5.323746860468448e-001	 1.673616221287867e+000	 5.331744837506835e+000
 5.160072155961424e-001	 1.678734825977985e+000	 5.188479026421043e+000
 4.996303460241724e-001	 1.683681555349956e+000	 5.047565180870882e+000
 4.832466148047700e-001	 1.688456920317159e+000	 4.909756854940516e+000
 6.487669256028935e-001	 1.638751880611314e+000	 6.274026384734549e+000
 6.324802456012940e-001	 1.645106376165270e+000	 6.195827882516809e+000
 6.161657537361507e-001	 1.651286169598771e+000	 6.083497388866847e+000
 5.998261271366886e-001	 1.657291424945354e+000	 5.941728821703782e+000
 5.834640276943637e-001	 1.663122358212283e+000	 5.797693719792297e+000
 5.670821008738094e-001	 1.668779236709032e+000	 5.652420174602934e+000
 5.506829745518524e-001	 1.674262378345506e+000	 5.506886687467427e+000
 5.342692578853970e-001	 1.679572150901219e+000	 5.362020752537959e+000
 5.178435402089223e-001	 1.684708971266663e+000	 5.218697585823516e+000
 5.014083899622908e-001	 1.689673304658118e+000	 5.077739000272900e+000
 4.849663536494933e-001	 1.694465663807161e+000	 4.939912426460485e+000
 6.510675175373156e-001	 1.644563057493954e+000	 6.298108638040668e+000
 6.347230833516816e-001	 1.650940086719671e+000	 6.219713964562775e+000
 6.183507386788322e-001	 1.657141794313957e+000	 6.114914827612199e+000
 6.019531701413594e-001	 1.663168344892027e+000	 5.973116902673471e+000
 5.855330490700507e-001	 1.669019955227127e+000	 5.828992495407197e+000
 5.690930303106199e-001	 1.674696893576638e+000	 5.683586466977971e+000
 5.526357510586060e-001	 1.680199478977805e+000	 5.537893577974724e+000
 5.361638297232428e-001	 1.685528080514321e+000	 5.392857049450869e+000
 5.196798648210474e-001	 1.690683116555015e+000	 5.249367271689276e+000
 5.031864338998249e-001	 1.695665053965870e+000	 5.108260660674057e+000
 4.866860924937227e-001	 1.700474407296657e+000	 4.970318661825319e+000
 6.533681094712327e-001	 1.650374234376595e+000	 6.323770366262874e+000
 6.369659211014740e-001	 1.656773797274067e+000	 6.245083018199771e+000
 6.205357236208497e-001	 1.662997419029123e+000	 6.147537432348766e+000
 6.040802131453175e-001	 1.669045264838653e+000	 6.005572804170456e+000
 5.876020704449966e-001	 1.674917552241889e+000	 5.861226887732078e+000
 5.711039597466807e-001	 1.680614550444117e+000	 5.715561496229674e+000
 5.545885275646219e-001	 1.686136579609919e+000	 5.569587823456546e+000
 5.380584015603825e-001	 1.691484010127174e+000	 5.424264982781989e+000
 5.215161894325177e-001	 1.696657261843042e+000	 5.280498695521231e+000
 5.049644778367752e-001	 1.701656803273210e+000	 5.139140128685390e+000
 4.884058313374584e-001	 1.706483150785647e+000	 5.000984881674444e+000
 6.556687014046444e-001	 1.656185411259235e+000	 6.351014516880577e+000
 6.392087588506716e-001	 1.662607507828458e+000	 6.271937952903637e+000
 6.227207085622036e-001	 1.668853043744267e+000	 6.181379705427008e+000
 6.062072561485630e-001	 1.674922184785233e+000	 6.039110402350601e+000
 5.896710918192011e-001	 1.680815149256569e+000	 5.894410140979326e+000
 5.731148891819922e-001	 1.686532207311468e+000	 5.748357869753140e+000
 5.565413040698996e-001	 1.692073680241850e+000	 5.601981390475285e+000
 5.399529733968160e-001	 1.697439939739776e+000	 5.456255875086153e+000
 5.233525140433329e-001	 1.702631407130744e+000	 5.312102533510873e+000
 5.067425217731413e-001	 1.707648552580140e+000	 5.170387432579718e+000
 4.901255701807004e-001	 1.712491894274131e+000	 5.031920465586273e+000
 6.579692933375511e-001	 1.661996588141876e+000	 6.379844135490131e+000
 6.414515965992745e-001	 1.668441218382844e+000	 6.300281770898856e+000
 6.249056935028930e-001	 1.674708668459392e+000	 6.216456236875987e+000
 6.083342991510957e-001	 1.680799104731766e+000	 6.073743656279099e+000
 5.917401131926645e-001	 1.686712746271167e+000	 5.928555577800550e+000
 5.751258186165540e-001	 1.692449864178690e+000	 5.781988269213059e+000
 5.584940805744396e-001	 1.698010780873596e+000	 5.635086315993500e+000
 5.418475452325431e-001	 1.703395869352129e+000	 5.488841115747440e+000
 5.251888386534932e-001	 1.708605552418119e+000	 5.344189525407574e+000
 5.085205657089233e-001	 1.713640301886658e+000	 5.202012661214369e+000
 4.918453090234485e-001	 1.718500637762107e+000	 5.063134851046812e+000
 6.602698852699526e-001	 1.667807765024516e+000	 6.410262364095538e+000
 6.436944343472827e-001	 1.674274928937225e+000	 6.330117565541840e+000
 6.270906784429187e-001	 1.680564293174494e+000	 6.245806491865267e+000
 6.104613421529157e-001	 1.686676024678254e+000	 6.109486606485340e+000
 5.938091345653865e-001	 1.692610343285683e+000	 5.963676597920043e+000
 5.771367480503661e-001	 1.698367521045783e+000	 5.816465449249797e+000
 5.604468570782417e-001	 1.703947881505158e+000	 5.668914706146802e+000
 5.437421170675640e-001	 1.709351798964231e+000	 5.522032159814708e+000
 5.270251632629986e-001	 1.714579697705170e+000	 5.376770473410629e+000
 5.102986096441213e-001	 1.719632051192765e+000	 5.234025962974755e+000
 4.935650478657031e-001	 1.724509381249578e+000	 5.094637532440959e+000
 6.625704772018489e-001	 1.673618941907156e+000	 6.442272439434957e+000
 6.459372720946960e-001	 1.680108639491600e+000	 6.361448519739351e+000
 6.292756633822805e-001	 1.686419917889577e+000	 6.276240327652790e+000
 6.125883851540230e-001	 1.692552944624695e+000	 6.146353373549376e+000
 5.958781559373678e-001	 1.698507940300116e+000	 5.999786676796784e+000
 5.791476774834290e-001	 1.704285177912750e+000	 5.851802236212466e+000
 5.623996335813061e-001	 1.709884982136537e+000	 5.703478735043111e+000
 5.456366889018787e-001	 1.715307728576085e+000	 5.555840526861888e+000
 5.288614878718491e-001	 1.720553842991894e+000	 5.409856241085581e+000
 5.120766535787353e-001	 1.725623800498461e+000	 5.266437544741863e+000
 4.952847867074639e-001	 1.730518124736543e+000	 5.126438060064961e+000
 6.648710691332402e-001	 1.679430118789797e+000	 6.475877691341235e+000
 6.481801098415145e-001	 1.685942350045971e+000	 6.394277904398860e+000
 6.314606483209780e-001	 1.692275542604640e+000	 6.308078714482219e+000
 6.147154281544174e-001	 1.698429864571090e+000	 6.184358156716408e+000
 5.979471773086075e-001	 1.704405537314468e+000	 6.036899364314263e+000
 5.811586069157423e-001	 1.710202834779588e+000	 5.888011526918711e+000
 5.643524100836326e-001	 1.715822082767731e+000	 5.738790643586669e+000
 5.475312607354871e-001	 1.721263658187687e+000	 5.590277799871402e+000
 5.306978124800444e-001	 1.726527988278293e+000	 5.443457752302587e+000
 5.138546975127654e-001	 1.731615549803746e+000	 5.299257670879779e+000
 4.970045255487311e-001	 1.736526868223001e+000	 5.158546039159140e+000
 6.671716610641265e-001	 1.685241295672438e+000	 6.511081541137457e+000
 6.504229475877382e-001	 1.691776060600336e+000	 6.428609076911629e+000
 6.336456332590117e-001	 1.698131167319681e+000	 6.341324931256216e+000
 6.168424711540992e-001	 1.704306784517438e+000	 6.223515232540678e+000
 6.000161986791063e-001	 1.710303134328737e+000	 6.075028283497473e+000
 5.831695363473060e-001	 1.716120491646298e+000	 5.925106287438709e+000
 5.663051865852216e-001	 1.721759183398742e+000	 5.774862738326432e+000
 5.494258325683895e-001	 1.727219587799041e+000	 5.625355624140941e+000
 5.325341370875852e-001	 1.732502133564366e+000	 5.477585990196011e+000
 5.156327414462113e-001	 1.737607299108620e+000	 5.332496662244339e+000
 4.987242643895045e-001	 1.742535611708954e+000	 5.190971128960071e+000
 4.815268759595532e-001	 1.682448176826651e+000	 4.879842686615957e+000
 4.651971182661930e-001	 1.687036348490294e+000	 4.741154306607089e+000
 4.488655109129008e-001	 1.691454921976380e+000	 4.605530408650112e+000
 4.325345111146327e-001	 1.695704542854449e+000	 4.473635462089470e+000
 4.162065504885091e-001	 1.699785900427619e+000	 4.346077950570437e+000
 3.998840341811098e-001	 1.703699726821389e+000	 4.223410038420658e+000
 3.835693400291334e-001	 1.707446796054984e+000	 4.106127370981172e+000
 3.672648177536744e-001	 1.711027923096562e+000	 3.994669006061548e+000
 3.509727881883168e-001	 1.714443962903538e+000	 3.889417473404446e+000
 3.346955425411988e-001	 1.717695809449309e+000	 3.790698958774663e+000
 3.184353416911437e-001	 1.720784394737636e+000	 3.698783609038980e+000
 4.832466148047700e-001	 1.688456920317159e+000	 4.909756854940516e+000
 4.668585365479996e-001	 1.693061478308741e+000	 4.772032184634978e+000
 4.504686020253649e-001	 1.697495832414904e+000	 4.637236890067701e+000
 4.340792772275899e-001	 1.701760630510792e+000	 4.506042672374283e+000
 4.176930024561421e-001	 1.705856564361324e+000	 4.379064863279631e+000
 4.013121914474102e-001	 1.709784368706732e+000	 4.256862083046716e+000
 3.849392305303670e-001	 1.713544820330596e+000	 4.139936033640254e+000
 3.685764778179682e-001	 1.717138737111674e+000	 4.028731424258883e+000
 3.522262624324891e-001	 1.720566977060804e+000	 3.923636026101560e+000
 3.358908837649543e-001	 1.723830437344144e+000	 3.824980852958573e+000
 3.195726107687542e-001	 1.726930053294041e+000	 3.733040463966990e+000
 4.849663536494933e-001	 1.694465663807161e+000	 4.939912426460485e+000
 4.685199548294124e-001	 1.699086608126586e+000	 4.802980077159273e+000
 4.520716931375352e-001	 1.703536742852740e+000	 4.668849818253246e+000
 4.356240433403534e-001	 1.707816718166374e+000	 4.538200716304862e+000
 4.191794544236815e-001	 1.711927228294205e+000	 4.411655074592482e+000
 4.027403487137172e-001	 1.715869010591196e+000	 4.289778082619208e+000
 3.863091210317076e-001	 1.719642844605285e+000	 4.173077602115388e+000
 3.698881378824690e-001	 1.723249551125831e+000	 4.062004086672215e+000
 3.534797366769686e-001	 1.726689991217089e+000	 3.956950631850082e+000
 3.370862249891170e-001	 1.729965065237984e+000	 3.858253152327542e+000
 3.207098798468721e-001	 1.733075711849445e+000	 3.766190682401912e+000
 4.866860924937227e-001	 1.700474407296657e+000	 4.970318661825319e+000
 4.701813731104315e-001	 1.705111737943831e+000	 4.834007460647508e+000
 4.536747842494120e-001	 1.709577653289892e+000	 4.700378870096423e+000
 4.371688094529237e-001	 1.713872805821198e+000	 4.570119456269270e+000
 4.206659063911276e-001	 1.717997892226261e+000	 4.443858617934855e+000
 4.041685059800311e-001	 1.721953652474782e+000	 4.322168227591838e+000
 3.876790115331551e-001	 1.725740868879051e+000	 4.205562410317487e+000
 3.711997979471770e-001	 1.729360365139031e+000	 4.094497457526985e+000
 3.547332109217554e-001	 1.732813005372395e+000	 3.989371872464053e+000
 3.382815662136870e-001	 1.736099693130828e+000	 3.890526543960399e+000
 3.218471489254973e-001	 1.739221370403849e+000	 3.798245044754519e+000
 4.884058313374584e-001	 1.706483150785647e+000	 5.000984881674444e+000
 4.718427913910570e-001	 1.711136867760474e+000	 4.865123856985075e+000
 4.552778753609952e-001	 1.715618563726358e+000	 4.731833753855437e+000
 4.387135755653003e-001	 1.719928893475261e+000	 4.601808772501030e+000
 4.221523583584805e-001	 1.724068556157494e+000	 4.475685531582108e+000
 4.055966632463520e-001	 1.728038294357490e+000	 4.354042700800440e+000
 3.890489020347095e-001	 1.731838893151896e+000	 4.237400772603059e+000
 3.725114580120922e-001	 1.735471179151274e+000	 4.126221970089353e+000
 3.559866851668493e-001	 1.738936019526719e+000	 4.020910287922452e+000
 3.394769074386645e-001	 1.742234321022678e+000	 3.921811662757338e+000
 3.229844180046296e-001	 1.745367028957254e+000	 3.829214269443801e+000
 4.901255701807004e-001	 1.712491894274131e+000	 5.031920465586273e+000
 4.735042096712887e-001	 1.717161997576516e+000	 4.896338832677492e+000
 4.568809664722849e-001	 1.721659474162138e+000	 4.763224208605825e+000
 4.402583416774834e-001	 1.725984981128564e+000	 4.633278562765274e+000
 4.236388103257400e-001	 1.730139220087902e+000	 4.507145858573450e+000
 4.070248205126795e-001	 1.734122936239319e+000	 4.385411677597611e+000
 3.904187925363711e-001	 1.737936917423819e+000	 4.268602984117843e+000
 3.738231180772144e-001	 1.741581993162561e+000	 4.157188027207754e+000
 3.572401594122507e-001	 1.745059033680062e+000	 4.051576377103328e+000
 3.406722486640492e-001	 1.748368948913532e+000	 3.952119092354398e+000
 3.241216870842695e-001	 1.751512687509658e+000	 3.859109013984323e+000
 4.918453090234485e-001	 1.718500637762107e+000	 5.063134851046812e+000
 4.751656279511267e-001	 1.723187127391958e+000	 4.927661998071240e+000
 4.584840575832808e-001	 1.727700384597232e+000	 4.794560003702504e+000
 4.418031077894733e-001	 1.732041068781107e+000	 4.664538742052484e+000
 4.251252622929059e-001	 1.736209884017486e+000	 4.538249646629294e+000
 4.084529777790139e-001	 1.740207578120271e+000	 4.416285325982461e+000
 3.917886830381395e-001	 1.744034941694819e+000	 4.299179321132687e+000
 3.751347781425438e-001	 1.747692807172892e+000	 4.187406001845988e+000
 3.584936336579592e-001	 1.751182047832425e+000	 4.081380598501906e+000
 3.418675898898412e-001	 1.754503576803391e+000	 3.981459366021192e+000
 3.252589561644167e-001	 1.757658346061062e+000	 3.887939876050608e+000
 4.935650478657031e-001	 1.724509381249578e+000	 5.094637532440959e+000
 4.768270462305710e-001	 1.729212257206798e+000	 4.959103006589334e+000
 4.600871486939830e-001	 1.733741295031642e+000	 4.825850938252007e+000
 4.433478739012693e-001	 1.738097156432890e+000	 4.695599242278236e+000
 4.266117142599786e-001	 1.742280547946246e+000	 4.569006948069136e+000
 4.098811350453552e-001	 1.746292220000344e+000	 4.446673806729771e+000
 3.931585735400150e-001	 1.750132965964896e+000	 4.329140041371690e+000
 3.764464382080803e-001	 1.753803621182266e+000	 4.216886237603274e+000
 3.597471079039750e-001	 1.757305061983807e+000	 4.110333370934729e+000
 3.430629311160406e-001	 1.760638204692255e+000	 4.009842967536912e+000
 3.263962252450711e-001	 1.763804004611467e+000	 3.915717394520305e+000
 4.952847867074639e-001	 1.730518124736543e+000	 5.126438060064961e+000
 4.784884645096217e-001	 1.735237387021037e+000	 4.990671553983979e+000
 4.616902398043918e-001	 1.739782205465365e+000	 4.857106840595901e+000
 4.448926400128721e-001	 1.744153244083914e+000	 4.726470011989744e+000
 4.280981662269581e-001	 1.748351211874181e+000	 4.599427819732202e+000
 4.113092923117032e-001	 1.752376861879540e+000	 4.476587273514905e+000
 3.945284640419974e-001	 1.756230990234052e+000	 4.358495384335230e+000
 3.777580982738240e-001	 1.759914435190684e+000	 4.245639049224194e+000
 3.610005821502979e-001	 1.763428076134209e+000	 4.138445074228035e+000
 3.442582723426473e-001	 1.766772832580124e+000	 4.037280332050137e+000
 3.275334943262330e-001	 1.769949663160871e+000	 3.942452050494446e+000
 4.970045255487311e-001	 1.736526868223001e+000	 5.158546039159140e+000
 4.801498827882786e-001	 1.741262516834674e+000	 5.022377377603866e+000
 4.632933309145068e-001	 1.745823115898402e+000	 4.888337567804863e+000
 4.464374061242812e-001	 1.750209331734177e+000	 4.757161016077874e+000
 4.295846181938443e-001	 1.754421875801293e+000	 4.629522322899065e+000
 4.127374495780580e-001	 1.758461503757857e+000	 4.506035873036552e+000
 3.958983545440869e-001	 1.762329014502285e+000	 4.387255571613954e+000
 3.790697583397748e-001	 1.766025249198145e+000	 4.273674723097968e+000
 3.622540563969283e-001	 1.769551090283630e+000	 4.165726049892656e+000
 3.454536135696611e-001	 1.772907460466997e+000	 4.063781846920529e+000
 3.286707634079022e-001	 1.776095321709276e+000	 3.968154268297097e+000
 4.987242643895045e-001	 1.742535611708954e+000	 5.190971128960071e+000
 4.818113010665419e-001	 1.747287646647711e+000	 5.054230255677173e+000
 4.648964220243284e-001	 1.751864026330754e+000	 4.919553005183740e+000
 4.479821722354970e-001	 1.756265419383680e+000	 4.787682235495096e+000
 4.310710701606370e-001	 1.760492539727581e+000	 4.659300523214823e+000
 4.141656068444197e-001	 1.764546145635296e+000	 4.535029745137362e+000
 3.972682450462834e-001	 1.768427038769597e+000	 4.415430807199074e+000
 3.803814184059328e-001	 1.772136063204651e+000	 4.301003517747108e+000
 3.635075306438658e-001	 1.775674104432070e+000	 4.192186601784440e+000
 3.466489547970826e-001	 1.779042088352876e+000	 4.089357852541918e+000
 3.298080324900787e-001	 1.782240980256680e+000	 3.992834416454772e+000
 3.184353416911437e-001	 1.720784394737636e+000	 3.698783609038980e+000
 3.021944155179797e-001	 1.723710687805274e+000	 3.604016254155850e+000
 2.859749622669240e-001	 1.726475693716074e+000	 3.509566524796372e+000
 2.697791479469485e-001	 1.729080452546460e+000	 3.415571109694134e+000
 2.536091057632717e-001	 1.731526038362165e+000	 3.322118421635035e+000
 2.374669355836857e-001	 1.733813558189388e+000	 3.229249302569003e+000
 2.213547034385780e-001	 1.735944150980886e+000	 3.136957820637909e+000
 2.052744410544310e-001	 1.737918986578150e+000	 3.045192154584131e+000
 1.892281454205466e-001	 1.739739264670784e+000	 2.953855560898363e+000
 1.732177783887050e-001	 1.741406213754194e+000	 2.862807418990968e+000
 1.572452663054261e-001	 1.742921090086650e+000	 2.771864349605774e+000
 3.195726107687542e-001	 1.726930053294041e+000	 3.733040463966990e+000
 3.032736812876422e-001	 1.729866797408131e+000	 3.637712489663457e+000
 2.869963014177788e-001	 1.732641678339818e+000	 3.542709821646748e+000
 2.707426449038808e-001	 1.735255739880082e+000	 3.448173665363468e+000
 2.545148525697560e-001	 1.737710059930609e+000	 3.354196448533407e+000
 2.383150317827229e-001	 1.740005749471259e+000	 3.260822529731729e+000
 2.221452559518477e-001	 1.742143951522480e+000	 3.168048999945812e+000
 2.060075640597777e-001	 1.744125840103767e+000	 3.075826572525278e+000
 1.899039602279179e-001	 1.745952619189331e+000	 2.984060556842563e+000
 1.738364133146608e-001	 1.747625521662062e+000	 2.892611910897539e+000
 1.578068565463341e-001	 1.749145808266865e+000	 2.801298368040636e+000
 3.207098798468721e-001	 1.733075711849445e+000	 3.766190682401912e+000
 3.043529470578962e-001	 1.736022907009994e+000	 3.670244007686645e+000
 2.880176405692782e-001	 1.738807662962582e+000	 3.574638319130484e+000
 2.717061418614805e-001	 1.741431027212753e+000	 3.479519366603208e+000
 2.554205993768994e-001	 1.743894081498135e+000	 3.384983611403358e+000
 2.391631279823807e-001	 1.746197940752260e+000	 3.291078938443952e+000
 2.229358084656695e-001	 1.748343752063260e+000	 3.197805462483152e+000
 2.067406870655780e-001	 1.750332693628637e+000	 3.105116423773378e+000
 1.905797750356152e-001	 1.752165973707207e+000	 3.012919168397997e+000
 1.744550482407857e-001	 1.753844829569343e+000	 2.921076208486367e+000
 1.583684467872255e-001	 1.755370526446589e+000	 2.829406357430258e+000
 3.218471489254973e-001	 1.739221370403849e+000	 3.798245044754519e+000
 3.054322128287419e-001	 1.742179016610862e+000	 3.701621349196176e+000
 2.890389797214227e-001	 1.744973647584368e+000	 3.605362315043173e+000
 2.726696388197472e-001	 1.747606314544469e+000	 3.509618264711548e+000
 2.563263461847017e-001	 1.750078103064745e+000	 3.414489712117733e+000
 2.400112241826588e-001	 1.752390132032390e+000	 3.320028078601938e+000
 2.237263609800430e-001	 1.754543552603225e+000	 3.226236503976799e+000
 2.074738100718319e-001	 1.756539547152758e+000	 3.133070748030769e+000
 1.912555898436383e-001	 1.758379328224410e+000	 3.040440177709010e+000
 1.750736831670797e-001	 1.760064137476038e+000	 2.948208835112741e+000
 1.589300370281002e-001	 1.761595244625821e+000	 2.856196581394172e+000
 3.229844180046296e-001	 1.745367028957254e+000	 3.829214269443801e+000
 3.065114786001794e-001	 1.748335126210735e+000	 3.731854988412017e+000
 2.900603188742119e-001	 1.751139632205174e+000	 3.634892036094864e+000
 2.736331357786811e-001	 1.753781601875233e+000	 3.538480335988813e+000
 2.572320929931630e-001	 1.756262124630438e+000	 3.442724474060397e+000
 2.408593203835573e-001	 1.758582323311648e+000	 3.347679418539127e+000
 2.245169134949684e-001	 1.760743353142376e+000	 3.253351335930685e+000
 2.082069330785394e-001	 1.762746400676130e+000	 3.159698498530470e+000
 1.919314046519872e-001	 1.764592682740941e+000	 3.066632278613013e+000
 1.756923180935427e-001	 1.766283445382145e+000	 2.974018224393463e+000
 1.594916272689584e-001	 1.767819962804562e+000	 2.881677212784475e+000
 3.241216870842695e-001	 1.751512687509658e+000	 3.859109013984323e+000
 3.075907443722084e-001	 1.754491235809613e+000	 3.760955333974512e+000
 2.910816580276460e-001	 1.757305616825002e+000	 3.663237639157655e+000
 2.745966327382823e-001	 1.759956889205043e+000	 3.566115483054677e+000
 2.581378398022832e-001	 1.762446146195213e+000	 3.469697543503136e+000
 2.417074165850763e-001	 1.764774514590037e+000	 3.374042346456600e+000
 2.253074660104456e-001	 1.766943153680712e+000	 3.279159087104818e+000
 2.089400560857004e-001	 1.768953254198755e+000	 3.185008543553447e+000
 1.926072194606621e-001	 1.770806037256798e+000	 3.091504078189808e+000
 1.763109530201748e-001	 1.772502753287665e+000	 2.998512721780800e+000
 1.600532175098001e-001	 1.774044680982810e+000	 2.905856335277942e+000
 3.252589561644167e-001	 1.757658346061062e+000	 3.887939876050608e+000
 3.086700101448293e-001	 1.760647345407496e+000	 3.788932730090584e+000
 2.921029971817251e-001	 1.763471601443849e+000	 3.690409212486892e+000
 2.755601296985507e-001	 1.766132176533900e+000	 3.592533536135000e+000
 2.590435866120623e-001	 1.768630167759072e+000	 3.495418490954290e+000
 2.425555127872156e-001	 1.770966705867554e+000	 3.399126171824635e+000
 2.260980185264747e-001	 1.773142954218233e+000	 3.303668804960918e+000
 2.096731790933150e-001	 1.775160107720630e+000	 3.209009667913891e+000
 1.932830342696628e-001	 1.777019391771984e+000	 3.115064098278395e+000
 1.769295879469759e-001	 1.778722061192599e+000	 3.021700586104103e+000
 1.606148077506251e-001	 1.780269399160567e+000	 2.928741944934724e+000
 3.263962252450711e-001	 1.763804004611467e+000	 3.915717394520305e+000
 3.097492759180416e-001	 1.766803455004385e+000	 3.815797457656793e+000
 2.931243363364489e-001	 1.769637586061719e+000	 3.716416776915919e+000
 2.765236266594862e-001	 1.772307463861803e+000	 3.617744254324180e+000
 2.599493334225004e-001	 1.774814189322014e+000	 3.519896812478091e+000
 2.434036089899754e-001	 1.777158897144200e+000	 3.422940126753837e+000
 2.268885710430557e-001	 1.779342754754940e+000	 3.326889457079220e+000
 2.104063021013832e-001	 1.781366961241757e+000	 3.231710574412917e+000
 1.939588490789894e-001	 1.783232746286496e+000	 3.137320776961759e+000
 1.775482228739461e-001	 1.784941369096946e+000	 3.043589991079643e+000
 1.611763979914335e-001	 1.786494117337832e+000	 2.950341951725395e+000
 3.275334943262330e-001	 1.769949663160871e+000	 3.942452050494446e+000
 3.108285416918457e-001	 1.772959564600278e+000	 3.841559735357921e+000
 2.941456754918175e-001	 1.775803570678608e+000	 3.741270287027573e+000
 2.774871236210891e-001	 1.778482751188754e+000	 3.641757326819325e+000
 2.608550802335974e-001	 1.780998210884037e+000	 3.543141930987513e+000
 2.442517051933555e-001	 1.783351088419976e+000	 3.445493367337796e+000
 2.276791235601886e-001	 1.785542555290831e+000	 3.348829932544589e+000
 2.111394251099050e-001	 1.787573814762135e+000	 3.253119885263053e+000
 1.946346638886418e-001	 1.789446100800336e+000	 3.158282470021599e+000
 1.781668578010853e-001	 1.791160677000706e+000	 3.064189026786725e+000
 1.617379882322254e-001	 1.792718835514606e+000	 2.970664181025058e+000
 3.286707634079022e-001	 1.776095321709276e+000	 3.968154268297097e+000
 3.119078074662414e-001	 1.779115674195178e+000	 3.866229720743788e+000
 2.951670146478311e-001	 1.781969555294519e+000	 3.764979632299091e+000
 2.784506205833590e-001	 1.784658038514751e+000	 3.664582374129881e+000
 2.617608270453535e-001	 1.787182232445145e+000	 3.565163197509348e+000
 2.450998013973561e-001	 1.789543279694881e+000	 3.466794974969255e+000
 2.284696760778733e-001	 1.791742355825909e+000	 3.369499043305817e+000
 2.118725481188803e-001	 1.793780668281766e+000	 3.273246143482081e+000
 1.953104786986202e-001	 1.795659455313504e+000	 3.177957452361607e+000
 1.787854927283936e-001	 1.797379984903879e+000	 3.083505701116207e+000
 1.622995784730006e-001	 1.798943553690888e+000	 2.989716375077098e+000
 3.298080324900787e-001	 1.782240980256680e+000	 3.992834416454772e+000
 3.129870732412288e-001	 1.785271783789082e+000	 3.889817511282564e+000
 2.961883538044894e-001	 1.788135539909451e+000	 3.787554638225694e+000
 2.794141175462961e-001	 1.790833325839796e+000	 3.686228949261803e+000
 2.626665738577685e-001	 1.793366254005335e+000	 3.585969892424473e+000
 2.459478976019772e-001	 1.795735470968915e+000	 3.486853957627540e+000
 2.292602285961098e-001	 1.797942156360172e+000	 3.388905525504498e+000
 2.126056711283093e-001	 1.799987521800647e+000	 3.292097814258181e+000
 1.959862935089244e-001	 1.801872809826000e+000	 3.196353919402152e+000
 1.794041276558709e-001	 1.803599292806465e+000	 3.101547941186594e+000
 1.628611687137593e-001	 1.805168271866678e+000	 3.007506194426660e+000
 1.572452663054261e-001	 1.742921090086650e+000	 2.771864349605774e+000
 1.413124996760967e-001	 1.744285176647274e+000	 2.690432438302069e+000
 1.254213328617058e-001	 1.745499782094488e+000	 2.619322746397568e+000
 1.095735838069919e-001	 1.746566239726909e+000	 2.558186662259109e+000
 9.377103379879261e-002	 1.747485906448641e+000	 2.506629227157205e+000
 7.801542725524828e-002	 1.748260161738397e+000	 2.464210797123441e+000
 6.230847154497118e-002	 1.748890406623881e+000	 2.430448752496861e+000
 4.665183683563809e-002	 1.749378062662268e+000	 2.404819249924863e+000
 3.104715597144679e-002	 1.749724570927643e+000	 2.386759011641264e+000
 1.549602437885576e-002	 1.749931391006205e+000	 2.375667146933147e+000
 0.000000000000000e+000	 1.750000000000000e+000	 2.370907000796938e+000
 1.578068565463341e-001	 1.749145808266865e+000	 2.801298368040636e+000
 1.418171871799196e-001	 1.750514766564949e+000	 2.720352172095579e+000
 1.258692661989174e-001	 1.751733709888532e+000	 2.649182408516468e+000
 1.099649180407286e-001	 1.752803976298010e+000	 2.587450486979741e+000
 9.410593035393246e-002	 1.753726927543574e+000	 2.534771295082344e+000
 7.829405378673704e-002	 1.754503948030648e+000	 2.490714857001513e+000
 6.253100180550268e-002	 1.755136443790604e+000	 2.454808040539222e+000
 4.681845054279375e-002	 1.755625841457608e+000	 2.426536307279454e+000
 3.115803867439753e-002	 1.755973587252437e+000	 2.405345500656213e+000
 1.555136732472721e-002	 1.756181145974098e+000	 2.390643666809530e+000
 0.000000000000000e+000	 1.756250000000000e+000	 2.381802903199710e+000
 1.583684467872255e-001	 1.755370526446589e+000	 2.829406357430258e+000
 1.423218746835468e-001	 1.756744356482228e+000	 2.749024776230505e+000
 1.263171995357953e-001	 1.757967637682262e+000	 2.677885617991649e+000
 1.103562522740346e-001	 1.759041712868873e+000	 2.615660195287701e+000
 9.444082690858500e-002	 1.759967948638333e+000	 2.561973115221391e+000
 7.857268031772201e-002	 1.760747734322778e+000	 2.516403935179947e+000
 6.275353206555355e-002	 1.761382480957250e+000	 2.478488867670519e+000
 4.698506424953115e-002	 1.761873620252904e+000	 2.447722528938401e+000
 3.126892137703119e-002	 1.762222603577211e+000	 2.423559726128470e+000
 1.560671027042115e-002	 1.762430900941985e+000	 2.405417277837663e+000
 0.000000000000000e+000	 1.762500000000000e+000	 2.392675862995567e+000
 1.589300370281002e-001	 1.761595244625821e+000	 2.856196581394172e+000
 1.428265621869781e-001	 1.762973946399108e+000	 2.776457651797144e+000
 1.267651328723395e-001	 1.764201565475680e+000	 2.705438871704448e+000
 1.107475865069098e-001	 1.765279449439496e+000	 2.642821339071463e+000
 9.477572346275028e-002	 1.766208969732917e+000	 2.588239254577991e+000
 7.885130684820321e-002	 1.766991520614787e+000	 2.541281574768287e+000
 6.297606232512377e-002	 1.767628518123819e+000	 2.501493714977779e+000
 4.715167795585030e-002	 1.768121399048157e+000	 2.468379296709226e+000
 3.137980407934778e-002	 1.768471619901966e+000	 2.441401934193118e+000
 1.566205321593758e-002	 1.768680655909868e+000	 2.419987054944340e+000
 0.000000000000000e+000	 1.768750000000000e+000	 2.403523749218117e+000
 1.594916272689584e-001	 1.767819962804562e+000	 2.881677212784475e+000
 1.433312496902137e-001	 1.769203536315592e+000	 2.802658116968525e+000
 1.272130662085501e-001	 1.770435493268785e+000	 2.731848592445115e+000
 1.111389207393544e-001	 1.771517186009881e+000	 2.668939405918514e+000
 9.511062001642828e-002	 1.772449990827326e+000	 2.613574226592843e+000
 7.912993337818060e-002	 1.773235306906675e+000	 2.565351276989054e+000
 6.319859258421337e-002	 1.773874555290311e+000	 2.523825034256575e+000
 4.731829166175118e-002	 1.774369177843367e+000	 2.488507976610071e+000
 3.149068678134728e-002	 1.774720636226703e+000	 2.458872369591180e+000
 1.571739616127650e-002	 1.774930410877745e+000	 2.434352086935361e+000
 0.000000000000000e+000	 1.775000000000000e+000	 2.414344460914294e+000
 1.600532175098001e-001	 1.774044680982810e+000	 2.905856335277942e+000
 1.438359371932535e-001	 1.775433126231679e+000	 2.827633408454410e+000
 1.276609995444270e-001	 1.776669421061577e+000	 2.757121130212800e+000
 1.115302549713682e-001	 1.777754922580027e+000	 2.694019820242954e+000
 9.544551656961897e-002	 1.778691011921561e+000	 2.637982492084225e+000
 7.940855990765421e-002	 1.779479093198442e+000	 2.588616501911145e+000
 6.342112284282231e-002	 1.780120592456726e+000	 2.545485248524586e+000
 4.748490536723381e-002	 1.780616956638534e+000	 2.508109919147899e+000
 3.160156948302971e-002	 1.780969652551419e+000	 2.475971275694595e+000
 1.577273910643791e-002	 1.781180165845618e+000	 2.448511476251960e+000
 0.000000000000000e+000	 1.781250000000000e+000	 2.425135926618371e+000
 1.606148077506251e-001	 1.780269399160567e+000	 2.928741944934724e+000
 1.443406246960975e-001	 1.781662716147369e+000	 2.851390682926854e+000
 1.281089328799701e-001	 1.782903348854057e+000	 2.781262763488784e+000
 1.119215892029514e-001	 1.783992659149936e+000	 2.718067944389905e+000
 9.578041312232241e-002	 1.784932033015622e+000	 2.661468460167767e+000
 7.968718643662405e-002	 1.785722879490090e+000	 2.611080669170646e+000
 6.364365310095062e-002	 1.786366629623063e+000	 2.566476752524706e+000
 4.765151907229817e-002	 1.786864735433658e+000	 2.527186459588479e+000
 3.171245218439507e-002	 1.787218668876117e+000	 2.492698894530057e+000
 1.582808205142180e-002	 1.787429920813487e+000	 2.462464338732826e+000
 0.000000000000000e+000	 1.787500000000000e+000	 2.435896103836136e+000
 1.611763979914335e-001	 1.786494117337832e+000	 2.950341951725395e+000
 1.448453121987459e-001	 1.787892306062662e+000	 2.873937018412884e+000
 1.285568662151797e-001	 1.789137276646225e+000	 2.804279700481037e+000
 1.123129234341038e-001	 1.790230395719606e+000	 2.741089079717324e+000
 9.611530967453856e-002	 1.791173054109507e+000	 2.684036489157265e+000
 7.996581296509009e-002	 1.791966665781615e+000	 2.632747158674547e+000
 6.386618335859828e-002	 1.792612666789324e+000	 2.586801913217319e+000
 4.781813277694427e-002	 1.793112514228738e+000	 2.545738918222661e+000
 3.182333488544335e-002	 1.793467685200796e+000	 2.509055466802389e+000
 1.588342499622819e-002	 1.793679675781351e+000	 2.476209803379615e+000
 0.000000000000000e+000	 1.793750000000000e+000	 2.446622978540185e+000
 1.617379882322254e-001	 1.792718835514606e+000	 2.970664181025058e+000
 1.453499997011984e-001	 1.794121895977559e+000	 2.895279415661267e+000
 1.290047995500555e-001	 1.795371204438080e+000	 2.826178080345617e+000
 1.127042576648254e-001	 1.796468132289036e+000	 2.763088467654309e+000
 9.645020622626742e-002	 1.797414075203218e+000	 2.705690887446421e+000
 8.024443949305236e-002	 1.798210452073020e+000	 2.653619311290082e+000
 6.408871361576531e-002	 1.798858703955507e+000	 2.606463070263789e+000
 4.798474648117212e-002	 1.799360293023775e+000	 2.563768600626184e+000
 3.193421758617457e-002	 1.799716701525456e+000	 2.525041231917608e+000
 1.593876794085707e-002	 1.799929430749210e+000	 2.489747012129654e+000
 0.000000000000000e+000	 1.800000000000000e+000	 2.457314564675704e+000
 1.622995784730006e-001	 1.798943553690888e+000	 2.989716375077098e+000
 1.458546872034552e-001	 1.800351485892058e+000	 2.915424799478731e+000
 1.294527328845977e-001	 1.801605132229622e+000	 2.846963974380636e+000
 1.130955918951164e-001	 1.802705868858229e+000	 2.784071290738367e+000
 9.678510277750900e-002	 1.803655096296754e+000	 2.726435914372740e+000
 8.052306602051083e-002	 1.804454238364304e+000	 2.673700429521210e+000
 6.431124387245170e-002	 1.805104741121614e+000	 2.625462536496663e+000
 4.815136018498167e-002	 1.805608071818769e+000	 2.581276797913896e+000
 3.204510028658869e-002	 1.805965717850096e+000	 2.540656428005224e+000
 1.599411088530843e-002	 1.806179185717063e+000	 2.503075119630783e+000
 0.000000000000000e+000	 1.806250000000000e+000	 2.467968903676574e+000
 1.628611687137593e-001	 1.805168271866678e+000	 3.007506194426660e+000
 1.463593747055162e-001	 1.806581075806160e+000	 2.934380020039401e+000
 1.299006662188062e-001	 1.807839060020853e+000	 2.866643387195907e+000
 1.134869261249766e-001	 1.808943605427183e+000	 2.804042673630382e+000
 9.711999932826329e-002	 1.809896117390116e+000	 2.746275781063350e+000
 8.080169254746554e-002	 1.810698024655467e+000	 2.692993778169127e+000
 6.453377412865748e-002	 1.811350778287644e+000	 2.643802598384749e+000
 4.831797388837301e-002	 1.811855850613720e+000	 2.598264786989780e+000
 3.215598298668575e-002	 1.812214734174718e+000	 2.555901291940240e+000
 1.604945382958228e-002	 1.812428940684913e+000	 2.516193293023793e+000
 0.000000000000000e+000	 1.812500000000000e+000	 2.478584063991344e+000
 1.812500000000000e+000	 0.000000000000000e+000	 1.279649889723875e+001
 1.812428940684913e+000	 1.604945382958234e-002	 1.283578967578030e+001
 1.812214734174718e+000	 3.215598298668587e-002	 1.286983047688480e+001
 1.811855850613720e+000	 4.831797388837290e-002	 1.289877080985047e+001
 1.811350778287644e+000	 6.453377412865742e-002	 1.292277948547183e+001
 1.810698024655467e+000	 8.080169254746553e-002	 1.294204480683205e+001
 1.809896117390116e+000	 9.711999932826335e-002	 1.295677472600037e+001
 1.808943605427183e+000	 1.134869261249768e-001	 1.296719696507791e+001
 1.807839060020853e+000	 1.299006662188061e-001	 1.297355910007010e+001
 1.806581075806160e+000	 1.463593747055161e-001	 1.297612860610517e+001
 1.805168271866678e+000	 1.628611687137593e-001	 1.297519286256570e+001
 1.818750000000000e+000	 0.000000000000000e+000	 1.277374607345615e+001
 1.818678695652762e+000	 1.610479677376505e-002	 1.281210533992424e+001
 1.818463750499339e+000	 3.226686568661482e-002	 1.284535548631022e+001
 1.818103629408671e+000	 4.848458759153348e-002	 1.287365768324356e+001
 1.817596815453673e+000	 6.475630438458432e-002	 1.289719266426178e+001
 1.816941810946630e+000	 8.108031907410790e-002	 1.291616091078001e+001
 1.816137138483478e+000	 9.745489587868668e-002	 1.293078280233848e+001
 1.815181341996137e+000	 1.138782603545024e-001	 1.294129873055806e+001
 1.814072987812082e+000	 1.303485995526914e-001	 1.294796917527126e+001
 1.812810665720263e+000	 1.468640622072807e-001	 1.295107474133727e+001
 1.811392990042468e+000	 1.634227589542639e-001	 1.295091615469838e+001
 1.825000000000000e+000	 0.000000000000000e+000	 1.275155577629693e+001
 1.824928450620616e+000	 1.616013971794300e-002	 1.278905963781642e+001
 1.824712766823979e+000	 3.237774838652464e-002	 1.282159252223297e+001
 1.824351408203665e+000	 4.865120129465086e-002	 1.284932722649453e+001
 1.823842852619779e+000	 6.497883464043412e-002	 1.287245637395565e+001
 1.823185597237914e+000	 8.135894560062942e-002	 1.289119259358881e+001
 1.822378159577014e+000	 9.778979242893540e-002	 1.290576866384440e+001
 1.821419078565330e+000	 1.142695945837896e-001	 1.291643761957674e+001
 1.820306915603624e+000	 1.307965328862642e-001	 1.292347282049160e+001
 1.819040255634762e+000	 1.473687497086484e-001	 1.292716797961338e+001
 1.817617708218750e+000	 1.639843491942767e-001	 1.292783715031940e+001
 1.831250000000000e+000	 0.000000000000000e+000	 1.272991338455219e+001
 1.831178205588475e+000	 1.621548266211619e-002	 1.276663658378124e+001
 1.830961783148638e+000	 3.248863108641532e-002	 1.279852423790513e+001
 1.830599186998702e+000	 4.881781499772505e-002	 1.282576073580421e+001
 1.830088889785963e+000	 6.520136489620690e-002	 1.284855055836287e+001
 1.829429383529319e+000	 8.163757212703009e-002	 1.286711845198742e+001
 1.828619180670725e+000	 9.812468897900947e-002	 1.288170956614049e+001
 1.827656815134761e+000	 1.146609288128382e-001	 1.289258955329802e+001
 1.826540843395479e+000	 1.312444662195244e-001	 1.290004462977100e+001
 1.825269845549658e+000	 1.478734372096191e-001	 1.290438159587997e+001
 1.823842426395524e+000	 1.645459394337978e-001	 1.290592781401984e+001
 1.837500000000000e+000	 0.000000000000000e+000	 1.270880447594101e+001
 1.837427960556339e+000	 1.627082560628461e-002	 1.274482040555158e+001
 1.837210799473317e+000	 3.259951378628688e-002	 1.277613351430194e+001
 1.836846965793783e+000	 4.898442870075603e-002	 1.280293974923790e+001
 1.836334926952223e+000	 6.542389515190258e-002	 1.282545541711842e+001
 1.835673169820845e+000	 8.191619865330990e-002	 1.284391735230359e+001
 1.834860201764611e+000	 9.845958552890892e-002	 1.285858304802624e+001
 1.833894551704430e+000	 1.150522630416483e-001	 1.286973074943925e+001
 1.832774771187647e+000	 1.316923995524720e-001	 1.287765950686934e+001
 1.831499435464951e+000	 1.483781247101929e-001	 1.288268918775350e+001
 1.830067144572789e+000	 1.651075296728272e-001	 1.288516044578664e+001
 1.843750000000000e+000	 0.000000000000000e+000	 1.268821482373885e+001
 1.843677715524207e+000	 1.632616855044826e-002	 1.272359554065180e+001
 1.843459815798015e+000	 3.271039648613931e-002	 1.275440345626199e+001
 1.843094744588906e+000	 4.915104240374382e-002	 1.278084604262606e+001
 1.842580964118561e+000	 6.564642540752119e-002	 1.280315140134663e+001
 1.841916956112492e+000	 8.219482517946888e-002	 1.282156842589442e+001
 1.841101222858671e+000	 9.879448207863374e-002	 1.283636692667875e+001
 1.840132288274338e+000	 1.154435972702199e-001	 1.284783771724496e+001
 1.839008698980127e+000	 1.321403328851070e-001	 1.285629266001707e+001
 1.837729025380641e+000	 1.488828122103697e-001	 1.286206467005125e+001
 1.836291862750546e+000	 1.656691199113649e-001	 1.286550767531770e+001
 1.850000000000000e+000	 0.000000000000000e+000	 1.266813039347422e+001
 1.849927470492081e+000	 1.638151149460715e-002	 1.270294663285392e+001
 1.849708832122732e+000	 3.282127918597260e-002	 1.273331738870579e+001
 1.849342523384073e+000	 4.931765610668840e-002	 1.275946162554790e+001
 1.848827001284976e+000	 6.586895566306271e-002	 1.278161920941321e+001
 1.848160742404259e+000	 8.247345170550699e-002	 1.280005106466946e+001
 1.847342243952906e+000	 9.912937862818391e-002	 1.281503929295038e+001
 1.846370024844484e+000	 1.158349314985529e-001	 1.282688725256212e+001
 1.845242626772920e+000	 1.325882662174294e-001	 1.283591959677213e+001
 1.843958615296728e+000	 1.493874997101496e-001	 1.284248226943342e+001
 1.842516580928795e+000	 1.662307101494109e-001	 1.284694245645261e+001
 1.856250000000000e+000	 0.000000000000000e+000	 1.264853733969204e+001
 1.856177225459958e+000	 1.643685443876126e-002	 1.268285852870550e+001
 1.855957848447469e+000	 3.293216188578677e-002	 1.271285885293072e+001
 1.855590302179283e+000	 4.948426980958978e-002	 1.273876873739629e+001
 1.855073038451468e+000	 6.609148591852719e-002	 1.276083978276281e+001
 1.854404528696147e+000	 8.275207823142426e-002	 1.277934491670439e+001
 1.853583265047315e+000	 9.946427517755947e-002	 1.279457850676135e+001
 1.852607761414870e+000	 1.162262657266475e-001	 1.280685643301541e+001
 1.851476554566025e+000	 1.330361995494392e-001	 1.281651611898066e+001
 1.850188205213212e+000	 1.498921872095325e-001	 1.282391651915311e+001
 1.848741299107535e+000	 1.667923003869652e-001	 1.282943806171558e+001
 1.862500000000000e+000	 0.000000000000000e+000	 1.262942200278230e+001
 1.862426980427841e+000	 1.649219738291062e-002	 1.266331627412724e+001
 1.862206864772223e+000	 3.304304458558181e-002	 1.269301160298049e+001
 1.861838080974537e+000	 4.965088351244797e-002	 1.271874984352181e+001
 1.861319075618036e+000	 6.631401617391455e-002	 1.274079430184066e+001
 1.860648314988157e+000	 8.303070475722070e-002	 1.275942988194278e+001
 1.859824286141899e+000	 9.979917172676041e-002	 1.277496319258534e+001
 1.858845497985493e+000	 1.166175999545036e-001	 1.278772261327930e+001
 1.857710482359443e+000	 1.334841328811364e-001	 1.279805831783942e+001
 1.856417795130093e+000	 1.503968747085184e-001	 1.280634225391215e+001
 1.854966017286767e+000	 1.673538906240278e-001	 1.281296807696853e+001
 1.868750000000000e+000	 0.000000000000000e+000	 1.261077090587222e+001
 1.868676735395729e+000	 1.654754032705521e-002	 1.264430511107912e+001
 1.868455881096998e+000	 3.315392728535770e-002	 1.267375960208754e+001
 1.868085859769833e+000	 4.981749721526296e-002	 1.269938763145406e+001
 1.867565112784682e+000	 6.653654642922488e-002	 1.272146418209579e+001
 1.866892101280286e+000	 8.330933128289625e-002	 1.274028610798447e+001
 1.866065307236658e+000	 1.001340682757867e-001	 1.275617223502531e+001
 1.865083234556355e+000	 1.170089341821211e-001	 1.276946342044515e+001
 1.863944410153173e+000	 1.339320662125211e-001	 1.278052256905707e+001
 1.862647385047371e+000	 1.509015622071074e-001	 1.278973460482025e+001
 1.861190735466491e+000	 1.679154808605987e-001	 1.279750639617116e+001
 1.875000000000000e+000	 0.000000000000000e+000	 1.259257075178065e+001
 1.874926490363621e+000	 1.660288327119504e-002	 1.262581047429303e+001
 1.874704897421792e+000	 3.326480998511448e-002	 1.265508701918653e+001
 1.874333638565173e+000	 4.998411091803475e-002	 1.268066500719893e+001
 1.873811149951406e+000	 6.675907668445812e-002	 1.270283107006433e+001
 1.873135887572537e+000	 8.358795780845098e-002	 1.272189398595770e+001
 1.872306328331592e+000	 1.004689648246384e-001	 1.273818477447816e+001
 1.871320971127456e+000	 1.174002684095002e-001	 1.275205674948090e+001
 1.870178337947216e+000	 1.343799995435931e-001	 1.276388552811227e+001
 1.868876974965046e+000	 1.514062497052994e-001	 1.277406899445472e+001
 1.867415453646707e+000	 1.684770710966778e-001	 1.278302721624614e+001
 1.805168271866678e+000	 1.628611687137593e-001	 1.297519286256570e+001
 1.803599292806465e+000	 1.794041276558710e-001	 1.300078906868942e+001
 1.801872809825999e+000	 1.959862935089245e-001	 1.302484566906138e+001
 1.799987521800647e+000	 2.126056711283091e-001	 1.304757052764645e+001
 1.797942156360172e+000	 2.292602285961097e-001	 1.306918707273308e+001
 1.795735470968915e+000	 2.459478976019772e-001	 1.308993413044485e+001
 1.793366254005335e+000	 2.626665738577685e-001	 1.311006571678374e+001
 1.790833325839795e+000	 2.794141175462963e-001	 1.312985078736479e+001
 1.788135539909451e+000	 2.961883538044893e-001	 1.314957294409098e+001
 1.785271783789082e+000	 3.129870732412287e-001	 1.316953009811486e+001
 1.782240980256681e+000	 3.298080324900787e-001	 1.319003408853485e+001
 1.811392990042468e+000	 1.634227589542639e-001	 1.295091615469838e+001
 1.809818600709051e+000	 1.800227625831418e-001	 1.297549965615443e+001
 1.808086164338495e+000	 1.966621083190650e-001	 1.299883727972852e+001
 1.806194375319529e+000	 2.133387941376123e-001	 1.302113663684994e+001
 1.804141956894434e+000	 2.300507811142535e-001	 1.304262077517060e+001
 1.801927662242949e+000	 2.467959938065335e-001	 1.306352800696732e+001
 1.799550275565525e+000	 2.635723206701420e-001	 1.308411169591671e+001
 1.797008613164839e+000	 2.803776145092099e-001	 1.310464000140476e+001
 1.794301524524382e+000	 2.972096929611373e-001	 1.312539557962459e+001
 1.791427893382986e+000	 3.140663390162135e-001	 1.314667524081316e+001
 1.788386638804085e+000	 3.309453015722552e-001	 1.316878956208062e+001
 1.817617708218750e+000	 1.639843491942767e-001	 1.292783715031940e+001
 1.816037908612224e+000	 1.806413975098305e-001	 1.295126588491844e+001
 1.814299518851662e+000	 1.973379231285522e-001	 1.297373862877256e+001
 1.812401228839159e+000	 2.140719171462104e-001	 1.299546279660678e+001
 1.810341757429512e+000	 2.308413336316601e-001	 1.301666111536923e+001
 1.808119853517854e+000	 2.476440900103405e-001	 1.303757144753447e+001
 1.805734297126632e+000	 2.644780674817736e-001	 1.305844657261401e+001
 1.803183900490836e+000	 2.813411114714098e-001	 1.307955392603948e+001
 1.800467509140293e+000	 2.982310321171197e-001	 1.310117529467498e+001
 1.797584002977885e+000	 3.151456047906013e-001	 1.312360646831498e+001
 1.794532297352489e+000	 3.320825706539243e-001	 1.314715684662598e+001
 1.823842426395524e+000	 1.645459394337978e-001	 1.290592781401984e+001
 1.822257216515984e+000	 1.812600324359371e-001	 1.292806036113132e+001
 1.820512873365503e+000	 1.980137379373861e-001	 1.294952298306866e+001
 1.818608082359538e+000	 2.148050401541034e-001	 1.297052295373077e+001
 1.816541557965404e+000	 2.316318861483295e-001	 1.299128273933531e+001
 1.814312044793629e+000	 2.484921862133978e-001	 1.301203981663314e+001
 1.811918318688656e+000	 2.653838142926634e-001	 1.303304644915838e+001
 1.809359187817787e+000	 2.823046084328956e-001	 1.305456942068309e+001
 1.806633493757183e+000	 2.992523712724362e-001	 1.307688972513640e+001
 1.803740112573779e+000	 3.162248705643924e-001	 1.310030221234892e+001
 1.800677955901894e+000	 3.332198397350862e-001	 1.312511518908611e+001
 1.830067144572789e+000	 1.651075296728272e-001	 1.288516044578664e+001
 1.828476524420330e+000	 1.818786673614614e-001	 1.290585601240515e+001
 1.826726227880015e+000	 1.986895527455666e-001	 1.292616391665973e+001
 1.824814935880665e+000	 2.155381631612913e-001	 1.294629134755032e+001
 1.822741358502111e+000	 2.324224386642617e-001	 1.296646057058050e+001
 1.820504236070275e+000	 2.493402824157056e-001	 1.298690874089249e+001
 1.818102340251598e+000	 2.662895611028114e-001	 1.300788767426095e+001
 1.815534475145690e+000	 2.832681053936674e-001	 1.302966357511652e+001
 1.812799478375052e+000	 3.002737104270870e-001	 1.305251672086391e+001
 1.809896222170668e+000	 3.173041363375864e-001	 1.307674110185774e+001
 1.806823614452298e+000	 3.343571088157407e-001	 1.310264401650681e+001
 1.836291862750546e+000	 1.656691199113649e-001	 1.286550767531770e+001
 1.834695832325265e+000	 1.824973022864037e-001	 1.288462608236569e+001
 1.832939582395200e+000	 1.993653675530938e-001	 1.290363530555023e+001
 1.831021789402540e+000	 2.162712861677741e-001	 1.292274250495069e+001
 1.828941159039632e+000	 2.332129911794565e-001	 1.294216980541822e+001
 1.826696427347792e+000	 2.501883786172638e-001	 1.296215410464086e+001
 1.824286361815456e+000	 2.671953079122175e-001	 1.298294683888442e+001
 1.821709762474548e+000	 2.842316023537252e-001	 1.300481370558310e+001
 1.818965462993900e+000	 3.012950495810721e-001	 1.302803434204710e+001
 1.816052331768551e+000	 3.183834021101836e-001	 1.305290195965592e+001
 1.812969273003702e+000	 3.354943778958878e-001	 1.307972293301151e+001
 1.842516580928795e+000	 1.662307101494109e-001	 1.284694245645261e+001
 1.840915140230785e+000	 1.831159372107638e-001	 1.286434412531421e+001
 1.839152936911058e+000	 2.000411823599676e-001	 1.288191132260541e+001
 1.837228642925164e+000	 2.170044091735518e-001	 1.289985123551655e+001
 1.835140959577968e+000	 2.340035436939143e-001	 1.291838590835562e+001
 1.832888618626181e+000	 2.510364748180725e-001	 1.293775204555263e+001
 1.830470383380232e+000	 2.681010547208817e-001	 1.295820077215113e+001
 1.827885049804358e+000	 2.851950993130691e-001	 1.297999735096295e+001
 1.825131447613727e+000	 3.023163887343915e-001	 1.300342085565705e+001
 1.822208441367429e+000	 3.194626678821840e-001	 1.302876379915462e+001
 1.819114931556106e+000	 3.366316469755276e-001	 1.305633171681006e+001
 1.848741299107535e+000	 1.667923003869652e-001	 1.282943806171558e+001
 1.847134448136892e+000	 1.837345721345418e-001	 1.284498400099738e+001
 1.845366291427589e+000	 2.007169971661882e-001	 1.286096643255371e+001
 1.843435496448537e+000	 2.177375321786244e-001	 1.287759262677273e+001
 1.841340760117119e+000	 2.347940962076347e-001	 1.289508460757845e+001
 1.839080809905439e+000	 2.518845710181316e-001	 1.291367895038328e+001
 1.836654404945925e+000	 2.690068015288041e-001	 1.293362653733349e+001
 1.834060337135121e+000	 2.861585962716991e-001	 1.295519226902514e+001
 1.831297432234534e+000	 3.033377278870453e-001	 1.297865473196519e+001
 1.828364550967302e+000	 3.205419336535874e-001	 1.300430582115312e+001
 1.825260590109511e+000	 3.377689160546601e-001	 1.303245031726797e+001
 1.854966017286767e+000	 1.673538906240278e-001	 1.281296807696853e+001
 1.853353756043587e+000	 1.843532070577377e-001	 1.282651986948228e+001
 1.851579645944792e+000	 2.013928119717554e-001	 1.284077538708965e+001
 1.849642349972658e+000	 2.184706551829920e-001	 1.285594203952081e+001
 1.847540560657084e+000	 2.355846487206179e-001	 1.287224189052696e+001
 1.845273001185569e+000	 2.527326672174412e-001	 1.288991145079017e+001
 1.842838426512534e+000	 2.699125483359846e-001	 1.290920142792536e+001
 1.840235624466838e+000	 2.871220932296150e-001	 1.293037643275490e+001
 1.837463416856319e+000	 3.043590670390333e-001	 1.295371464113218e+001
 1.834520660568170e+000	 3.216211994243939e-001	 1.297950741069468e+001
 1.831406248663915e+000	 3.389061851332852e-001	 1.300805885203470e+001
 1.861190735466491e+000	 1.679154808605987e-001	 1.279750639617116e+001
 1.859573063950868e+000	 1.849718419803514e-001	 1.280892618613434e+001
 1.857793000462667e+000	 2.020686267766693e-001	 1.282131322007520e+001
 1.855849203497527e+000	 2.192037781866544e-001	 1.283487510326927e+001
 1.853740361197864e+000	 2.363752012328640e-001	 1.284983399956056e+001
 1.851465192466570e+000	 2.535807634160012e-001	 1.286642641923702e+001
 1.849022448080061e+000	 2.708182951424231e-001	 1.288490296379220e+001
 1.846410911799507e+000	 2.880855901868169e-001	 1.290552802675470e+001
 1.843629401479084e+000	 3.053804061903556e-001	 1.292857944986537e+001
 1.840676770170032e+000	 3.227004651946036e-001	 1.295434813398551e+001
 1.837551907219320e+000	 3.400434542114031e-001	 1.298313760422954e+001
 1.867415453646707e+000	 1.684770710966778e-001	 1.278302721624614e+001
 1.865792371858737e+000	 1.855904769023831e-001	 1.279217769669574e+001
 1.864006354981215e+000	 2.027444415809299e-001	 1.280255524283683e+001
 1.862056057023145e+000	 2.199369011896118e-001	 1.281436771175503e+001
 1.859940161739458e+000	 2.371657537443727e-001	 1.282783742770908e+001
 1.857657383748441e+000	 2.544288596138117e-001	 1.284320096498071e+001
 1.855206469648505e+000	 2.717240419481200e-001	 1.286070888739816e+001
 1.852586199133131e+000	 2.890490871433050e-001	 1.288062544371739e+001
 1.849795386102828e+000	 3.064017453410121e-001	 1.290322821814291e+001
 1.846832879772890e+000	 3.237797309642164e-001	 1.292880773537544e+001
 1.843697565775724e+000	 3.411807232890136e-001	 1.295766701968376e+001
 1.782240980256681e+000	 3.298080324900787e-001	 1.319003408853485e+001
 1.779042088352876e+000	 3.466489547970826e-001	 1.320947724282621e+001
 1.775674104432070e+000	 3.635075306438659e-001	 1.322679520070881e+001
 1.772136063204651e+000	 3.803814184059327e-001	 1.324214965867111e+001
 1.768427038769597e+000	 3.972682450462834e-001	 1.325571409200346e+001
 1.764546145635296e+000	 4.141656068444197e-001	 1.326767333274118e+001
 1.760492539727581e+000	 4.310710701606371e-001	 1.327822310642510e+001
 1.756265419383680e+000	 4.479821722354971e-001	 1.328756952778529e+001
 1.751864026330754e+000	 4.648964220243282e-001	 1.329592855558053e+001
 1.747287646647711e+000	 4.818113010665418e-001	 1.330352540695736e+001
 1.742535611708953e+000	 4.987242643895046e-001	 1.331059393182622e+001
 1.788386638804085e+000	 3.309453015722552e-001	 1.316878956208062e+001
 1.785176716238754e+000	 3.478442960245038e-001	 1.318807926506970e+001
 1.781797118580510e+000	 3.647610048908035e-001	 1.320539295434408e+001
 1.778246877211156e+000	 3.816930784720906e-001	 1.322090453910305e+001
 1.774525063036908e+000	 3.986381355484797e-001	 1.323479987802704e+001
 1.770630787512735e+000	 4.155937641107814e-001	 1.324727634352492e+001
 1.766563203653869e+000	 4.325575221274297e-001	 1.325854234412025e+001
 1.762321507033184e+000	 4.495269383467129e-001	 1.326881680509191e+001
 1.757904936763106e+000	 4.664995131341496e-001	 1.327832860761370e+001
 1.753312776460748e+000	 4.834727193448050e-001	 1.328731598677084e+001
 1.748544355194905e+000	 5.004440032302778e-001	 1.329602588896692e+001
 1.794532297352489e+000	 3.320825706539243e-001	 1.314715684662598e+001
 1.791311344125627e+000	 3.490396372515179e-001	 1.316630840100504e+001
 1.787920132729931e+000	 3.660144791374337e-001	 1.318363150546849e+001
 1.784357691218617e+000	 3.830047385380413e-001	 1.319931230990687e+001
 1.780623087305141e+000	 4.000080260505691e-001	 1.321354908655273e+001
 1.776715429391052e+000	 4.170219213771362e-001	 1.322655178050686e+001
 1.772633867580981e+000	 4.340439740943158e-001	 1.323854151772040e+001
 1.768377594683447e+000	 4.510717044581220e-001	 1.324975007055783e+001
 1.763945847196144e+000	 4.681026042442648e-001	 1.326041928119765e+001
 1.759337906274386e+000	 4.851341376234621e-001	 1.327080044326279e+001
 1.754553098681364e+000	 5.021637420715449e-001	 1.328115364221039e+001
 1.800677955901894e+000	 3.332198397350862e-001	 1.312511518908611e+001
 1.797445972013496e+000	 3.502349784781246e-001	 1.314414275835269e+001
 1.794043146880332e+000	 3.672679533837567e-001	 1.316148782678867e+001
 1.790468505227035e+000	 3.843163986037851e-001	 1.317734881363191e+001
 1.786721111574297e+000	 4.013779165525517e-001	 1.319193643551405e+001
 1.782800071270247e+000	 4.184500786434843e-001	 1.320547324323992e+001
 1.778704531508917e+000	 4.355304260612952e-001	 1.321819311533472e+001
 1.774433682334470e+000	 4.526164705697248e-001	 1.323034070849446e+001
 1.769986757629867e+000	 4.697056953546734e-001	 1.324217086520815e+001
 1.765363036088624e+000	 4.867955559025126e-001	 1.325394797895789e+001
 1.760561842168328e+000	 5.038834809133058e-001	 1.326594531754254e+001
 1.806823614452298e+000	 3.343571088157407e-001	 1.310264401650681e+001
 1.803580599902360e+000	 3.514303197043240e-001	 1.312156063440081e+001
 1.800166161031715e+000	 3.685214276297725e-001	 1.313893908989344e+001
 1.796579319236410e+000	 3.856280586693215e-001	 1.315499010089675e+001
 1.792819135844375e+000	 4.027478070544271e-001	 1.316993685996861e+001
 1.788884713150320e+000	 4.198782359098255e-001	 1.318401455731853e+001
 1.784775195437677e+000	 4.370168780283680e-001	 1.319746985988905e+001
 1.780489769986254e+000	 4.541612366815209e-001	 1.321056034665798e+001
 1.776027668064276e+000	 4.713087864653758e-001	 1.322355390044187e+001
 1.771388165903464e+000	 4.884569741819569e-001	 1.323672805662082e+001
 1.766570585655799e+000	 5.056032197555603e-001	 1.325036930934683e+001
 1.812969273003702e+000	 3.354943778958878e-001	 1.307972293301151e+001
 1.809715227792219e+000	 3.526256609301160e-001	 1.309854051279216e+001
 1.806289175184077e+000	 3.697749018754810e-001	 1.311596266188283e+001
 1.802690133246741e+000	 3.869397187346511e-001	 1.313221242686269e+001
 1.798917160115375e+000	 4.041176975561956e-001	 1.314752550841796e+001
 1.794969355031272e+000	 4.213063931761599e-001	 1.316214977054734e+001
 1.790845859367261e+000	 4.385033299955342e-001	 1.317634470514597e+001
 1.786545857638797e+000	 4.557060027935106e-001	 1.319038085212318e+001
 1.782068578499371e+000	 4.729118775763717e-001	 1.320453917534640e+001
 1.777413295718906e+000	 4.901183924617950e-001	 1.321911039484545e+001
 1.772579329143776e+000	 5.073229585983086e-001	 1.323439427585513e+001
 1.819114931556106e+000	 3.366316469755276e-001	 1.305633171681006e+001
 1.815849855683072e+000	 3.538210021555007e-001	 1.307506106037623e+001
 1.812412189337421e+000	 3.710283761208823e-001	 1.309253610206569e+001
 1.808800947258027e+000	 3.882513787997733e-001	 1.310899224777860e+001
 1.805015184387297e+000	 4.054875880578571e-001	 1.312467773920215e+001
 1.801053996913101e+000	 4.227345504424875e-001	 1.313985314918776e+001
 1.796916523297669e+000	 4.399897819627935e-001	 1.315479083180555e+001
 1.792601945292100e+000	 4.572507689056937e-001	 1.316977432724083e+001
 1.788109488935151e+000	 4.745149686876612e-001	 1.318509772183708e+001
 1.783438425534948e+000	 4.917798107420267e-001	 1.320106496373341e+001
 1.778588072632260e+000	 5.090426974415506e-001	 1.321798913469091e+001
 1.825260590109511e+000	 3.377689160546601e-001	 1.303245031726797e+001
 1.821984483574922e+000	 3.550163433804782e-001	 1.305110112412500e+001
 1.818535203491744e+000	 3.722818503659762e-001	 1.306863715872368e+001
 1.814911761270271e+000	 3.895630388646883e-001	 1.308530621759562e+001
 1.811113208660142e+000	 4.068574785594116e-001	 1.310136911696711e+001
 1.807138638795809e+000	 4.241627077088083e-001	 1.311709917428019e+001
 1.802987187228901e+000	 4.414762339301463e-001	 1.313278164368486e+001
 1.798658032946163e+000	 4.587955350180705e-001	 1.314871310567695e+001
 1.794150399371617e+000	 4.761180597992445e-001	 1.316520081119815e+001
 1.789463555351591e+000	 4.934412290226522e-001	 1.318256198065993e+001
 1.784596816121249e+000	 5.107624362852863e-001	 1.320112305850227e+001
 1.831406248663915e+000	 3.389061851332852e-001	 1.300805885203470e+001
 1.828119111467767e+000	 3.562116846050481e-001	 1.302663972811070e+001
 1.824658217647050e+000	 3.735353246107631e-001	 1.304424376594072e+001
 1.821022575283470e+000	 3.908746989293963e-001	 1.306113118464998e+001
 1.817211232933909e+000	 4.082273690608591e-001	 1.307757540920311e+001
 1.813223280679396e+000	 4.255908649751222e-001	 1.309386253804036e+001
 1.809057851160958e+000	 4.429626858975926e-001	 1.311029076397437e+001
 1.804714120600985e+000	 4.603403011306406e-001	 1.312716974853156e+001
 1.800191309808768e+000	 4.777211509111213e-001	 1.314481995006649e+001
 1.795488685168836e+000	 4.951026473036713e-001	 1.316357190612497e+001
 1.790605559610745e+000	 5.124821751295157e-001	 1.318376547068312e+001
 1.837551907219320e+000	 3.400434542114031e-001	 1.298313760422954e+001
 1.834253739361606e+000	 3.574070258292109e-001	 1.300165607054431e+001
 1.830781231803335e+000	 3.747887988552426e-001	 1.301933404049585e+001
 1.827133389297627e+000	 3.921863589938972e-001	 1.303644418841248e+001
 1.823309257208598e+000	 4.095972595621997e-001	 1.305327258285275e+001
 1.819307922563859e+000	 4.270190222414293e-001	 1.307011814032795e+001
 1.815128515093838e+000	 4.444491378651320e-001	 1.308729203156952e+001
 1.810770208256569e+000	 4.618850672434043e-001	 1.310511704053550e+001
 1.806232220246606e+000	 4.793242420232917e-001	 1.312392687649599e+001
 1.801513814986681e+000	 4.967640655850840e-001	 1.314406543968759e+001
 1.796614303100747e+000	 5.142019139742389e-001	 1.316588604118003e+001
 1.843697565775724e+000	 3.411807232890136e-001	 1.295766701968376e+001
 1.840388367256442e+000	 3.586023670529664e-001	 1.297612952087319e+001
 1.836904245960602e+000	 3.760422730994149e-001	 1.299388627881836e+001
 1.833244203312740e+000	 3.934980190581910e-001	 1.301122245630281e+001
 1.829407281484210e+000	 4.109671500634333e-001	 1.302843680098671e+001
 1.825392564449202e+000	 4.284471795077297e-001	 1.304584108518588e+001
 1.821199179027543e+000	 4.459355898327649e-001	 1.306375949747563e+001
 1.816826295912912e+000	 4.634298333563615e-001	 1.308252798632323e+001
 1.812273130685128e+000	 4.809273331357558e-001	 1.310249355610060e+001
 1.807538944805128e+000	 4.984254838668907e-001	 1.312401351598163e+001
 1.802623046591256e+000	 5.159216528194558e-001	 1.314745468238303e+001
 1.742535611708953e+000	 4.987242643895046e-001	 1.331059393182622e+001
 1.737607299108620e+000	 5.156327414462114e-001	 1.333926098120027e+001
 1.732502133564366e+000	 5.325341370875854e-001	 1.336969324636820e+001
 1.727219587799041e+000	 5.494258325683893e-001	 1.340219627498024e+001
 1.721759183398741e+000	 5.663051865852213e-001	 1.343708042307192e+001
 1.716120491646298e+000	 5.831695363473061e-001	 1.347465997505528e+001
 1.710303134328737e+000	 6.000161986791063e-001	 1.351525222968681e+001
 1.704306784517438e+000	 6.168424711540994e-001	 1.355917655360147e+001
 1.698131167319681e+000	 6.336456332590116e-001	 1.350117416203829e+001
 1.691776060600336e+000	 6.504229475877380e-001	 1.334703466046885e+001
 1.685241295672437e+000	 6.671716610641264e-001	 1.319647516937218e+001
 1.748544355194905e+000	 5.004440032302778e-001	 1.329602588896692e+001
 1.743599048413494e+000	 5.174107853796598e-001	 1.332711697158223e+001
 1.738476278850440e+000	 5.343704616951357e-001	 1.336022120996458e+001
 1.733175517410394e+000	 5.513204044013134e-001	 1.339566263561659e+001
 1.727696284029752e+000	 5.682579630868492e-001	 1.343377019184073e+001
 1.722038148513008e+000	 5.851804657789311e-001	 1.347487683004047e+001
 1.716200731343006e+000	 6.020852200496931e-001	 1.351931857132154e+001
 1.710183704463787e+000	 6.189695141539016e-001	 1.356743353501613e+001
 1.703986792034722e+000	 6.358306181972029e-001	 1.348757595048991e+001
 1.697609771154702e+000	 6.526657853341616e-001	 1.333786384739003e+001
 1.691052472555078e+000	 6.694722529952600e-001	 1.319192534077665e+001
 1.754553098681364e+000	 5.021637420715449e-001	 1.328115364221039e+001
 1.749590797718780e+000	 5.191888293136970e-001	 1.331473375159206e+001
 1.744450424136838e+000	 5.362067863033605e-001	 1.335057409301727e+001
 1.739131447021997e+000	 5.532149762349877e-001	 1.338901720442914e+001
 1.733633384660946e+000	 5.702107395892928e-001	 1.343041064020480e+001
 1.727955805379846e+000	 5.871913952114281e-001	 1.347510604371103e+001
 1.722098328357358e+000	 6.041542414211978e-001	 1.352345818447960e+001
 1.716060624410182e+000	 6.210965571546574e-001	 1.357582396165944e+001
 1.709842416749785e+000	 6.380156031363737e-001	 1.347440923077379e+001
 1.703443481709072e+000	 6.549086230815800e-001	 1.332932467633456e+001
 1.696863649437719e+000	 6.717728449273936e-001	 1.318820239143751e+001
 1.760561842168328e+000	 5.038834809133058e-001	 1.326594531754254e+001
 1.755582547024475e+000	 5.209668732483231e-001	 1.330207772219081e+001
 1.750424569423562e+000	 5.380431109122594e-001	 1.334071657884141e+001
 1.745087376633850e+000	 5.551095480694120e-001	 1.338222295546783e+001
 1.739570485292324e+000	 5.721635160925526e-001	 1.342696304233932e+001
 1.733873462246811e+000	 5.892023246447968e-001	 1.347530720077430e+001
 1.727995925371792e+000	 6.062232627936205e-001	 1.352762897583014e+001
 1.721937544356623e+000	 6.232236001563671e-001	 1.358430407461960e+001
 1.715698041464868e+000	 6.402005880765238e-001	 1.346169246465382e+001
 1.709277192263447e+000	 6.571514608299932e-001	 1.332143540927472e+001
 1.702674826320359e+000	 6.740734368605270e-001	 1.318532436953397e+001
 1.766570585655799e+000	 5.056032197555603e-001	 1.325036930934683e+001
 1.761574296330583e+000	 5.227449171835382e-001	 1.328911556969461e+001
 1.756398714710613e+000	 5.398794355218329e-001	 1.333061365294662e+001
 1.751043306245952e+000	 5.570041199045863e-001	 1.337524318169022e+001
 1.745507585923887e+000	 5.741162925966284e-001	 1.342338900790553e+001
 1.739791119113906e+000	 5.912132540790372e-001	 1.347544023785946e+001
 1.733893522386307e+000	 6.082922841669607e-001	 1.353178922024874e+001
 1.727814464303110e+000	 6.253506431590303e-001	 1.358862335698040e+001
 1.721553666179971e+000	 6.423855730176532e-001	 1.344944451418326e+001
 1.715110902817828e+000	 6.593942985794014e-001	 1.331421472425390e+001
 1.708486003203000e+000	 6.763740287946606e-001	 1.318330975491415e+001
 1.772579329143776e+000	 5.073229585983086e-001	 1.323439427585513e+001
 1.767566045637101e+000	 5.245229611193419e-001	 1.327581426093807e+001
 1.762372859997988e+000	 5.417157601320807e-001	 1.332023059791504e+001
 1.756999235858305e+000	 5.588986917405109e-001	 1.336804148955619e+001
 1.751444686555633e+000	 5.760690691015199e-001	 1.341965047636463e+001
 1.745708775981128e+000	 5.932241835141499e-001	 1.347546543755274e+001
 1.739791119400905e+000	 6.103613055412189e-001	 1.353589755457668e+001
 1.733691384249644e+000	 6.274776861626473e-001	 1.357180549381557e+001
 1.727409290895095e+000	 6.445705579597622e-001	 1.343768463492021e+001
 1.720944613372214e+000	 6.616371363298045e-001	 1.330768170833459e+001
 1.714297180085640e+000	 6.786746207297942e-001	 1.318217745177859e+001
 1.778588072632260e+000	 5.090426974415506e-001	 1.321798913469091e+001
 1.773557794944030e+000	 5.263010050557347e-001	 1.326214103853586e+001
 1.768347005285690e+000	 5.435520847430030e-001	 1.330953298838325e+001
 1.762955165470908e+000	 5.607932635771854e-001	 1.336058179373237e+001
 1.757381787187563e+000	 5.780218456072276e-001	 1.341570971140679e+001
 1.751626432848479e+000	 5.952351129501344e-001	 1.347534342255359e+001
 1.745688716415585e+000	 6.124303269163950e-001	 1.353991297150662e+001
 1.739568304196224e+000	 6.296047291672179e-001	 1.355529111199608e+001
 1.733264915610240e+000	 6.467555429028503e-001	 1.342643246928057e+001
 1.726778323926606e+000	 6.638799740812021e-001	 1.330185585068933e+001
 1.720108356968281e+000	 6.809752126659278e-001	 1.318194678151215e+001
 1.784596816121249e+000	 5.107624362852863e-001	 1.320112305850227e+001
 1.779549544251371e+000	 5.280790489927166e-001	 1.324806341623993e+001
 1.774321150573717e+000	 5.453884093545994e-001	 1.329848668612548e+001
 1.768911095083760e+000	 5.626878354146102e-001	 1.335282831190346e+001
 1.763318887819678e+000	 5.799746221137511e-001	 1.341152929549275e+001
 1.757544089715957e+000	 5.972460423869906e-001	 1.347503514994879e+001
 1.751586313430348e+000	 6.144993482924888e-001	 1.354379481359181e+001
 1.745445224142850e+000	 6.317317721727422e-001	 1.353910035805310e+001
 1.739120540325405e+000	 6.489405278469178e-001	 1.341570804002522e+001
 1.732612034481001e+000	 6.661228118335947e-001	 1.329675703583108e+001
 1.725919533850922e+000	 6.832758046030613e-001	 1.318263747566072e+001
 1.790605559610745e+000	 5.124821751295157e-001	 1.318376547068312e+001
 1.785541293559122e+000	 5.298570929302870e-001	 1.323354917439024e+001
 1.780295295862069e+000	 5.472247339668703e-001	 1.328705783523590e+001
 1.774867024696862e+000	 5.645824072527849e-001	 1.334474555968798e+001
 1.769255988451976e+000	 5.819273986210904e-001	 1.340707212450533e+001
 1.763461746583563e+000	 5.992569718247188e-001	 1.347450190560204e+001
 1.757483910445192e+000	 6.165683696695006e-001	 1.354750276737599e+001
 1.751322144089523e+000	 6.338588151792202e-001	 1.352325373757304e+001
 1.744976165040590e+000	 6.511255127919648e-001	 1.340553174387851e+001
 1.738445745035403e+000	 6.683656495869821e-001	 1.329240553698009e+001
 1.731730710733562e+000	 6.855763965411947e-001	 1.318426966904928e+001
 1.796614303100747e+000	 5.142019139742389e-001	 1.316588604118003e+001
 1.791533042867285e+000	 5.316351368684467e-001	 1.321856635545671e+001
 1.786269441150747e+000	 5.490610585798159e-001	 1.327521285740757e+001
 1.780822954310214e+000	 5.664769790917099e-001	 1.333629834565618e+001
 1.775193089084459e+000	 5.838801751292462e-001	 1.340230140250827e+001
 1.769379403451298e+000	 6.012679012633191e-001	 1.347370529865593e+001
 1.763381507460119e+000	 6.186373910474302e-001	 1.355099685764101e+001
 1.757199064036242e+000	 6.359858581866519e-001	 1.350777210919333e+001
 1.750831789755798e+000	 6.533104977379911e-001	 1.339592434527459e+001
 1.744279455589809e+000	 6.706084873413643e-001	 1.328882200956373e+001
 1.737541887616202e+000	 6.878769884803283e-001	 1.318686389303819e+001
 1.802623046591256e+000	 5.159216528194558e-001	 1.314745468238303e+001
 1.797524792175859e+000	 5.334131808071950e-001	 1.320308325967048e+001
 1.792243586439751e+000	 5.508973831934355e-001	 1.326291844730571e+001
 1.786778883923817e+000	 5.683715509313848e-001	 1.332745176644747e+001
 1.781130189717125e+000	 5.858329516382177e-001	 1.339718063660986e+001
 1.775297060319161e+000	 6.032788307027912e-001	 1.347260725614398e+001
 1.769279104475128e+000	 6.207064124262776e-001	 1.355423744176958e+001
 1.763075983983007e+000	 6.381129011950372e-001	 1.349267667871821e+001
 1.756687414471025e+000	 6.554954826849969e-001	 1.338690697022895e+001
 1.750113166144221e+000	 6.728513250967415e-001	 1.328602748484635e+001
 1.743353064498843e+000	 6.901775804204618e-001	 1.319044106891418e+001
 1.685241295672437e+000	 6.671716610641264e-001	 1.319647516937218e+001
 1.678526757955381e+000	 6.838890061933527e-001	 1.320286039261612e+001
 1.671632387599618e+000	 7.005722023392451e-001	 1.320283643264464e+001
 1.664558180076721e+000	 7.172184570274874e-001	 1.319650934789977e+001
 1.657304186733513e+000	 7.338249672750482e-001	 1.318402597725203e+001
 1.649870515309274e+000	 7.503889209429703e-001	 1.316557537891842e+001
 1.642257330414927e+000	 7.669074981119249e-001	 1.314139019055905e+001
 1.634464853973170e+000	 7.833778724793185e-001	 1.311174790454495e+001
 1.626493365618577e+000	 7.997972127767112e-001	 1.307697205251331e+001
 1.618343203056713e+000	 8.161626842062414e-001	 1.303743329347505e+001
 1.610014762381363e+000	 8.324714498947106e-001	 1.299355039991251e+001
 1.691052472555078e+000	 6.694722529952600e-001	 1.319192534077665e+001
 1.684314781260082e+000	 6.862472441425567e-001	 1.319966217675615e+001
 1.677396637213726e+000	 7.029879685514473e-001	 1.320074266586369e+001
 1.670298035871967e+000	 7.196916241183941e-001	 1.319524996428692e+001
 1.663019028758684e+000	 7.363553981949070e-001	 1.318330852828753e+001
 1.655559723984672e+000	 7.529764689449986e-001	 1.316508559530648e+001
 1.647920286728477e+000	 7.695520067254796e-001	 1.314079258562441e+001
 1.640100939678048e+000	 7.860791754878863e-001	 1.311068641846396e+001
 1.632101963432215e+000	 8.025551342007842e-001	 1.307507073654564e+001
 1.623923696861044e+000	 8.189770382911470e-001	 1.303429703325716e+001
 1.615566537424160e+000	 8.353420411034542e-001	 1.298876567677070e+001
 1.696863649437719e+000	 6.717728449273936e-001	 1.318820239143751e+001
 1.690102804564788e+000	 6.886054820927509e-001	 1.319717168022090e+001
 1.683160886827854e+000	 7.054037347646104e-001	 1.319923456705158e+001
 1.676037891667256e+000	 7.221647912102124e-001	 1.319445129338297e+001
 1.668733870783933e+000	 7.388858291156087e-001	 1.318292392609514e+001
 1.661248932660193e+000	 7.555640169477808e-001	 1.316479788095941e+001
 1.653583243042205e+000	 7.721965153396796e-001	 1.314026336602597e+001
 1.645737025383167e+000	 7.887804784969706e-001	 1.310955673871550e+001
 1.637710561246169e+000	 8.053130556252245e-001	 1.307296177052043e+001
 1.629504190665775e+000	 8.217913923762501e-001	 1.303081081337100e+001
 1.621118312467453e+000	 8.382126323122057e-001	 1.298348586189610e+001
 1.702674826320359e+000	 6.740734368605270e-001	 1.318532436953397e+001
 1.695890827869499e+000	 6.909637200439351e-001	 1.319540989017687e+001
 1.688925136442001e+000	 7.078195009787339e-001	 1.319833602373820e+001
 1.681777747462590e+000	 7.246379583029428e-001	 1.319414008273729e+001
 1.674448712809261e+000	 7.414162600371534e-001	 1.318290173620273e+001
 1.666938141335837e+000	 7.581515649513168e-001	 1.316474457567055e+001
 1.659246199356109e+000	 7.748410239545246e-001	 1.313983760046469e+001
 1.651373111088529e+000	 7.914817815065708e-001	 1.310839661593451e+001
 1.643319159060439e+000	 8.080709770500315e-001	 1.307068553844846e+001
 1.635084684470908e+000	 8.246057464615505e-001	 1.302701760109363e+001
 1.626670087511243e+000	 8.410832235209650e-001	 1.297775645420634e+001
 1.708486003203000e+000	 6.763740287946606e-001	 1.318330975491415e+001
 1.701678851174215e+000	 6.933219579961100e-001	 1.319439819777677e+001
 1.694689386056168e+000	 7.102352671938189e-001	 1.319807129988680e+001
 1.687517603257968e+000	 7.271111253965846e-001	 1.319434342892267e+001
 1.680163554834667e+000	 7.439466909595407e-001	 1.318327184590794e+001
 1.672627350011604e+000	 7.607391129556071e-001	 1.316495831391896e+001
 1.664909155670192e+000	 7.774855325700151e-001	 1.313955062542612e+001
 1.657009196794133e+000	 7.941830845166876e-001	 1.310724404183567e+001
 1.648927756875027e+000	 8.108288984752061e-001	 1.306828263892500e+001
 1.640665178276442e+000	 8.274201005470491e-001	 1.302296055201433e+001
 1.632221862555527e+000	 8.439538147297320e-001	 1.297162311489507e+001
 1.714297180085640e+000	 6.786746207297942e-001	 1.318217745177859e+001
 1.707466874478935e+000	 6.956801959492748e-001	 1.319415839131240e+001
 1.700453635670355e+000	 7.126510334098647e-001	 1.319846502951373e+001
 1.693257459053390e+000	 7.295842924911383e-001	 1.319508877161968e+001
 1.685878396860152e+000	 7.464771218827713e-001	 1.318406445882442e+001
 1.678316558687493e+000	 7.633266609606515e-001	 1.316547201987475e+001
 1.670572111984452e+000	 7.801300411861507e-001	 1.313943804064164e+001
 1.662645282499978e+000	 7.968843875273202e-001	 1.310613724512729e+001
 1.654536354689929e+000	 8.135868199007476e-001	 1.306579388149279e+001
 1.646245672082377e+000	 8.302344546327449e-001	 1.301868300684279e+001
 1.637773637600309e+000	 8.468244059385072e-001	 1.296513166468162e+001
 1.720108356968281e+000	 6.809752126659278e-001	 1.318194678151215e+001
 1.713254897783661e+000	 6.980384339034297e-001	 1.319471264950614e+001
 1.706217885284560e+000	 7.150667996268710e-001	 1.319954221043758e+001
 1.698997314848856e+000	 7.320574595866040e-001	 1.319640388782088e+001
 1.691593238885715e+000	 7.490075528068444e-001	 1.318531008953867e+001
 1.684005767363505e+000	 7.659142089664497e-001	 1.316631890250555e+001
 1.676235068298889e+000	 7.827745498029314e-001	 1.313953570464176e+001
 1.668281368206065e+000	 7.995856905384694e-001	 1.310511468750804e+001
 1.660144952505149e+000	 8.163447413266559e-001	 1.306326028307874e+001
 1.651826165888713e+000	 8.330488087186386e-001	 1.301422848828217e+001
 1.643325412645586e+000	 8.496949971472900e-001	 1.295832808111617e+001
 1.725919533850922e+000	 6.832758046030613e-001	 1.318263747566072e+001
 1.719042921088391e+000	 7.003966718585749e-001	 1.319608353493805e+001
 1.711982134898786e+000	 7.174825658448385e-001	 1.320132819815457e+001
 1.704737170644366e+000	 7.345306266829813e-001	 1.319831688615223e+001
 1.697308080911357e+000	 7.515379837317605e-001	 1.318703955837481e+001
 1.689694976039641e+000	 7.685017569730022e-001	 1.316753245078206e+001
 1.681898024613503e+000	 7.854190584203572e-001	 1.313987973039926e+001
 1.673917453912394e+000	 8.022869935501347e-001	 1.310421505974460e+001
 1.665753550320686e+000	 8.191026627529315e-001	 1.306072306450270e+001
 1.657406659695451e+000	 8.358631628047297e-001	 1.300964069796516e+001
 1.648877187691360e+000	 8.525655883560805e-001	 1.295125849593964e+001
 1.731730710733562e+000	 6.855763965411947e-001	 1.318426966904928e+001
 1.724830944393127e+000	 7.027549098147107e-001	 1.319829398760535e+001
 1.717746384513031e+000	 7.198983320637666e-001	 1.320384869983720e+001
 1.710477026439921e+000	 7.370037937802707e-001	 1.320085620130875e+001
 1.703022922937078e+000	 7.540684146575197e-001	 1.318928398626478e+001
 1.695384184715900e+000	 7.710893049803087e-001	 1.316914642897995e+001
 1.687560980928295e+000	 7.880635670384283e-001	 1.314050648105996e+001
 1.679553539618966e+000	 8.049882965623162e-001	 1.310347727782816e+001
 1.671362148136539e+000	 8.218605841795743e-001	 1.305822364705624e+001
 1.662987153502590e+000	 8.386775168910187e-001	 1.300496351345184e+001
 1.654428962737629e+000	 8.554361795648792e-001	 1.294396919249644e+001
 1.737541887616202e+000	 6.878769884803283e-001	 1.318686389303819e+001
 1.730618967697867e+000	 7.051131477718363e-001	 1.320136731861106e+001
 1.723510634127295e+000	 7.223140982836556e-001	 1.320712976845344e+001
 1.716216882235519e+000	 7.394769608784715e-001	 1.320405058860180e+001
 1.708737764962877e+000	 7.565988455841215e-001	 1.319207478972139e+001
 1.701073393392282e+000	 7.736768529883692e-001	 1.317119487207610e+001
 1.693223937243265e+000	 7.907080756571446e-001	 1.314145256575931e+001
 1.685189625325778e+000	 8.076895995750140e-001	 1.310294047920817e+001
 1.676970745952708e+000	 8.246185056065838e-001	 1.305580364915049e+001
 1.668567647310130e+000	 8.414918709775052e-001	 1.300024098528775e+001
 1.659980737784395e+000	 8.583067707736856e-001	 1.293650660319949e+001
 1.743353064498843e+000	 6.901775804204618e-001	 1.319044106891418e+001
 1.736406991002612e+000	 7.074713857299524e-001	 1.320532720397892e+001
 1.729274883741580e+000	 7.247298645045056e-001	 1.321119779700339e+001
 1.721956738031161e+000	 7.419501279775843e-001	 1.320792911861560e+001
 1.714452606988756e+000	 7.591292765115665e-001	 1.319544367591201e+001
 1.706762602068787e+000	 7.762644009971839e-001	 1.317371208123690e+001
 1.698886893558412e+000	 7.933525842765065e-001	 1.314275483552245e+001
 1.690825711032833e+000	 8.103909025882282e-001	 1.310264401910135e+001
 1.682579343769194e+000	 8.273764270339608e-001	 1.305350488303071e+001
 1.674148141118071e+000	 8.443062250641894e-001	 1.299551733412080e+001
 1.665532512831657e+000	 8.611773619824999e-001	 1.292891730704551e+001
 1.610014762381363e+000	 8.324714498947106e-001	 1.299355039991251e+001
 1.601508498349150e+000	 8.487206723633864e-001	 1.290806155483586e+001
 1.592824924610444e+000	 8.649075150136748e-001	 1.282534765278409e+001
 1.583964613895941e+000	 8.810291436262732e-001	 1.274624264852981e+001
 1.574928198158502e+000	 8.970827278710679e-001	 1.267162810545614e+001
 1.565716368669314e+000	 9.130654428278503e-001	 1.260243329049489e+001
 1.556329876067885e+000	 9.289744705157570e-001	 1.253963514009512e+001
 1.546769530365383e+000	 9.448070014298204e-001	 1.248425809405373e+001
 1.537036200900858e+000	 9.605602360829907e-001	 1.243737379439969e+001
 1.527130816249972e+000	 9.762313865519586e-001	 1.240010064689862e+001
 1.517054364085930e+000	 9.918176780250960e-001	 1.237360324313778e+001
 1.615566537424160e+000	 8.353420411034542e-001	 1.298876567677070e+001
 1.607030941446433e+000	 8.516472953744909e-001	 1.290399606244247e+001
 1.598317424349558e+000	 8.678899547242149e-001	 1.282176864806039e+001
 1.589426560839168e+000	 8.840671751601528e-001	 1.274290897635635e+001
 1.580358985047271e+000	 9.001761165924311e-001	 1.266829094967156e+001
 1.571115390628747e+000	 9.162139443597365e-001	 1.259883694671391e+001
 1.561696530811520e+000	 9.321778307640302e-001	 1.253551780882865e+001
 1.552103218399897e+000	 9.480649566123960e-001	 1.247935269254612e+001
 1.542336325730653e+000	 9.638725127643795e-001	 1.243140878553081e+001
 1.532396784581431e+000	 9.795977016831426e-001	 1.239280088343590e+001
 1.522285586031209e+000	 9.952377389887409e-001	 1.236469082556660e+001
 1.621118312467453e+000	 8.382126323122057e-001	 1.298348586189610e+001
 1.612553384544297e+000	 8.545739183854135e-001	 1.289935747172274e+001
 1.603809924089309e+000	 8.708723944344021e-001	 1.281753447763230e+001
 1.594888507783058e+000	 8.871052066935280e-001	 1.273883402357924e+001
 1.585789771936699e+000	 9.032695053131590e-001	 1.266412237170123e+001
 1.576514412588807e+000	 9.193624458908767e-001	 1.259431504099576e+001
 1.567063185555717e+000	 9.353811910114659e-001	 1.253037681398054e+001
 1.557436906434881e+000	 9.513229117940629e-001	 1.247332160803070e+001
 1.547636450560791e+000	 9.671847894448089e-001	 1.242421220845001e+001
 1.537662752913080e+000	 9.829640168133369e-001	 1.238415986071879e+001
 1.527516807976493e+000	 9.986577999513862e-001	 1.235432371976190e+001
 1.626670087511243e+000	 8.410832235209650e-001	 1.297775645420634e+001
 1.618075827642741e+000	 8.575005413961532e-001	 1.289419304432492e+001
 1.609302423829698e+000	 8.738548341442362e-001	 1.281269412484997e+001
 1.600350454727611e+000	 8.901432382263997e-001	 1.273406845321091e+001
 1.591220558826787e+000	 9.063628940332521e-001	 1.265917467120550e+001
 1.581913434549492e+000	 9.225109474212706e-001	 1.258892146569784e+001
 1.572429840300476e+000	 9.385845512580645e-001	 1.252426759575691e+001
 1.562770594470332e+000	 9.545808669748216e-001	 1.246622178285650e+001
 1.552936575391273e+000	 9.704970661242792e-001	 1.241584246112824e+001
 1.542928721244919e+000	 9.863303319425412e-001	 1.237423738504598e+001
 1.532748029921782e+000	 1.002077860913031e+000	 1.234256309232712e+001
 1.632221862555527e+000	 8.439538147297320e-001	 1.297162311489507e+001
 1.623598270741768e+000	 8.604271644067107e-001	 1.288855018812539e+001
 1.614794923570723e+000	 8.768372738537171e-001	 1.280729670332251e+001
 1.605812401672827e+000	 8.931812697587672e-001	 1.272866304263993e+001
 1.596651345717534e+000	 9.094562827527100e-001	 1.265350024643240e+001
 1.587312456510804e+000	 9.256594489509182e-001	 1.258271019607894e+001
 1.577796495045798e+000	 9.417879115038259e-001	 1.251724566168852e+001
 1.568104282506252e+000	 9.578388221546719e-001	 1.245811021123845e+001
 1.558236700222101e+000	 9.738093428027899e-001	 1.240635797806862e+001
 1.548194689576948e+000	 9.896966470707559e-001	 1.236309328404777e+001
 1.537979251867077e+000	 1.005497921873677e+000	 1.232947011613725e+001
 1.637773637600309e+000	 8.468244059385072e-001	 1.296513166468162e+001
 1.629120713841376e+000	 8.633537874170857e-001	 1.288247645475024e+001
 1.620287423312386e+000	 8.798197135628454e-001	 1.280139145471004e+001
 1.611274348618707e+000	 8.962193012906309e-001	 1.272266868169234e+001
 1.602082132608941e+000	 9.125496714715330e-001	 1.264715159254665e+001
 1.592711478472741e+000	 9.288079504798196e-001	 1.257573528889382e+001
 1.583163149791682e+000	 9.449912717487496e-001	 1.250936658548970e+001
 1.573437970542640e+000	 9.610967773336133e-001	 1.244904393837787e+001
 1.563536825053272e+000	 9.771216194803418e-001	 1.239581722968701e+001
 1.553460657909167e+000	 9.930629621979807e-001	 1.235078740632435e+001
 1.543210473812377e+000	 1.008917982833322e+000	 1.231510597023264e+001
 1.643325412645586e+000	 8.496949971472900e-001	 1.295832808111617e+001
 1.634643156941565e+000	 8.662804104272787e-001	 1.287601953714704e+001
 1.625779923054686e+000	 8.828021532716203e-001	 1.279502774656093e+001
 1.616736295565250e+000	 8.992573328219909e-001	 1.271613637073251e+001
 1.607512919501007e+000	 9.156430601897209e-001	 1.264018129999250e+001
 1.598110500435305e+000	 9.319564520079748e-001	 1.256805088101680e+001
 1.588529804538128e+000	 9.481946319928362e-001	 1.250068600594032e+001
 1.578771658579497e+000	 9.643547325116469e-001	 1.243908005960167e+001
 1.568836949884788e+000	 9.804338961569340e-001	 1.238427872170565e+001
 1.558726626241576e+000	 9.964292773242156e-001	 1.233737962109163e+001
 1.548441695757683e+000	 1.012338043791967e+000	 1.229953183971481e+001
 1.648877187691360e+000	 8.525655883560805e-001	 1.295125849593964e+001
 1.640165600042335e+000	 8.692070334372890e-001	 1.286922726720573e+001
 1.631272422797623e+000	 8.857845929800421e-001	 1.278825507019219e+001
 1.622198242512456e+000	 9.022953643528469e-001	 1.270911721880216e+001
 1.612943706393732e+000	 9.187364489072734e-001	 1.263264205288975e+001
 1.603509522398493e+000	 9.351049535353837e-001	 1.255971118809286e+001
 1.593896459285136e+000	 9.513979922360850e-001	 1.249125962579053e+001
 1.584105346616823e+000	 9.676126876887721e-001	 1.242827571951799e+001
 1.574137074716649e+000	 9.837461728325671e-001	 1.237180099455848e+001
 1.563992594574175e+000	 9.997955924494609e-001	 1.232292981783422e+001
 1.553672917702993e+000	 1.015758104749612e+000	 1.228280891564435e+001
 1.654428962737629e+000	 8.554361795648792e-001	 1.294396919249644e+001
 1.645688043143687e+000	 8.721336564471167e-001	 1.286214761342734e+001
 1.636764922541196e+000	 8.887670326881112e-001	 1.278112303861306e+001
 1.627660189460326e+000	 9.053333958831986e-001	 1.270166244179694e+001
 1.618374493287118e+000	 9.218298376241915e-001	 1.262458662746199e+001
 1.608908544362309e+000	 9.382534550620466e-001	 1.255077050321603e+001
 1.599263114032707e+000	 9.546013524784969e-001	 1.248114321068727e+001
 1.589439034654616e+000	 9.708706428649885e-001	 1.241668811118981e+001
 1.579437199548854e+000	 9.870584495072415e-001	 1.235844262280910e+001
 1.569258562906965e+000	 1.003161907573716e+000	 1.230749790596525e+001
 1.558904139648309e+000	 1.019178165706257e+000	 1.226499839494106e+001
 1.659980737784395e+000	 8.583067707736856e-001	 1.293650660319949e+001
 1.651210486245620e+000	 8.750602794567624e-001	 1.285482867863953e+001
 1.642257422285408e+000	 8.917494723958274e-001	 1.277368138448982e+001
 1.633122136408858e+000	 9.083714274130463e-001	 1.269382336067955e+001
 1.623805280181162e+000	 9.249232263404742e-001	 1.261606789049633e+001
 1.614307566326750e+000	 9.414019565879631e-001	 1.254128319563418e+001
 1.604629768780840e+000	 9.578047127200712e-001	 1.247039258812265e+001
 1.594772722692878e+000	 9.741285980402967e-001	 1.240437447532433e+001
 1.584737324381404e+000	 9.903707261809560e-001	 1.234426221457973e+001
 1.574524531239944e+000	 1.006528222696982e+000	 1.229114381449323e+001
 1.564135361593630e+000	 1.022598226661902e+000	 1.224616148028584e+001
 1.665532512831657e+000	 8.611773619824999e-001	 1.292891730704551e+001
 1.656732929348135e+000	 8.779869024662258e-001	 1.284731869775780e+001
 1.647749922030257e+000	 8.947319121031905e-001	 1.276597995815162e+001
 1.638584083358054e+000	 9.114094589423906e-001	 1.268565139972859e+001
 1.629236067075867e+000	 9.280166150561219e-001	 1.260713879783420e+001
 1.619706588291817e+000	 9.445504581131335e-001	 1.253130370947985e+001
 1.609996423529535e+000	 9.610080729608083e-001	 1.245906364640315e+001
 1.600106410731609e+000	 9.773865532146967e-001	 1.239139209947908e+001
 1.590037449214298e+000	 9.936830028537118e-001	 1.232931841099194e+001
 1.579790499573113e+000	 1.009894537819258e+000	 1.227392749169532e+001
 1.569366583538957e+000	 1.026018287616547e+000	 1.222635938002482e+001
 1.517054364085930e+000	 9.918176780250960e-001	 1.237360324313778e+001
 1.506807890992041e+000	 1.007316350350711e+000	 1.226319101939605e+001
 1.496392502226693e+000	 1.022724659584164e+000	 1.216009857216440e+001
 1.485809361439989e+000	 1.038039879531929e+000	 1.206534219503672e+001
 1.475059690341403e+000	 1.053259303290671e+000	 1.197998510112315e+001
 1.464144768319415e+000	 1.068380244779839e+000	 1.190513646552881e+001
 1.453065932012934e+000	 1.083400040265957e+000	 1.184195032107023e+001
 1.441824574834693e+000	 1.098316049876814e+000	 1.179162430769769e+001
 1.430422146446860e+000	 1.113125659103831e+000	 1.175539827657069e+001
 1.418860152189212e+000	 1.127826280290835e+000	 1.173455275021406e+001
 1.407140152460260e+000	 1.142415354107499e+000	 1.173040724066389e+001
 1.522285586031209e+000	 9.952377389887409e-001	 1.236469082556660e+001
 1.512003780272091e+000	 1.010789855011788e+000	 1.224971186161357e+001
 1.501552476373586e+000	 1.026251296345836e+000	 1.214236632570815e+001
 1.490932841998385e+000	 1.041619327396692e+000	 1.204370017591995e+001
 1.480146103068753e+000	 1.056891231926870e+000	 1.195480677898981e+001
 1.469193543384853e+000	 1.072064314593475e+000	 1.187682592317640e+001
 1.458076504194694e+000	 1.087135902477741e+000	 1.181094268267162e+001
 1.446796383715880e+000	 1.102103346604451e+000	 1.175838613408842e+001
 1.435354636609414e+000	 1.116964023449479e+000	 1.172042792601155e+001
 1.423752773405900e+000	 1.131715336433698e+000	 1.169838070308540e+001
 1.411992359884532e+000	 1.146354717401506e+000	 1.169359638660177e+001
 1.527516807976493e+000	 9.986577999513862e-001	 1.235432371976190e+001
 1.517199669551960e+000	 1.014263359671865e+000	 1.223497441639202e+001
 1.506712450520144e+000	 1.029777933106507e+000	 1.212356490233286e+001
 1.496056322556321e+000	 1.045198775260454e+000	 1.202117073353139e+001
 1.485232515795546e+000	 1.060523160562070e+000	 1.192891537343396e+001
 1.474242318449668e+000	 1.075748384406111e+000	 1.184796917629612e+001
 1.463087076375795e+000	 1.090871764688525e+000	 1.177954822037322e+001
 1.451768192596402e+000	 1.105890643331088e+000	 1.172491299153307e+001
 1.440287126771327e+000	 1.120802387794126e+000	 1.168536691832169e+001
 1.428645394622001e+000	 1.135604392575562e+000	 1.166225476000515e+001
 1.416844567308302e+000	 1.150294080694514e+000	 1.165696084960181e+001
 1.532748029921782e+000	 1.002077860913031e+000	 1.234256309232712e+001
 1.522395558831650e+000	 1.017736864330942e+000	 1.221903795211599e+001
 1.511872424666366e+000	 1.033304569866179e+000	 1.210375166086556e+001
 1.501179803113794e+000	 1.048778223123217e+000	 1.199780930683168e+001
 1.490318928521782e+000	 1.064155089196269e+000	 1.190236439430023e+001
 1.479291093513860e+000	 1.079432454217747e+000	 1.181861779745414e+001
 1.468097648556237e+000	 1.094607626898310e+000	 1.174781656241561e+001
 1.456740001476259e+000	 1.109677940056725e+000	 1.169125255804110e+001
 1.445219616932600e+000	 1.124640752137774e+000	 1.165026097654195e+001
 1.433538015837516e+000	 1.139493448716425e+000	 1.162621868550019e+001
 1.421696774731572e+000	 1.154233443986522e+000	 1.162054243334699e+001
 1.537979251867077e+000	 1.005497921873677e+000	 1.232947011613725e+001
 1.527591448111160e+000	 1.021210368989019e+000	 1.220196177220097e+001
 1.517032398812253e+000	 1.036831206624852e+000	 1.208298402356246e+001
 1.506303283670807e+000	 1.052357670984979e+000	 1.197367142623296e+001
 1.495405341247460e+000	 1.067787017829468e+000	 1.187520747051651e+001
 1.484339868577428e+000	 1.083116524028382e+000	 1.178882350552739e+001
 1.473108220736019e+000	 1.098343489107093e+000	 1.171579751015904e+001
 1.461711810355450e+000	 1.113465236781362e+000	 1.165745271111874e+001
 1.450152107093232e+000	 1.128479116480421e+000	 1.161515604914082e+001
 1.438430637052445e+000	 1.143382504856288e+000	 1.159031649499638e+001
 1.426548982154340e+000	 1.158172807277529e+000	 1.158438321741891e+001
 1.543210473812377e+000	 1.008917982833322e+000	 1.231510597023264e+001
 1.532787337390489e+000	 1.024683873646096e+000	 1.218380521449979e+001
 1.522192372957804e+000	 1.040357843382523e+000	 1.206131947503379e+001
 1.511426764227358e+000	 1.055937118845742e+000	 1.194881271204871e+001
 1.500491753972582e+000	 1.071418946461668e+000	 1.184749834807580e+001
 1.489388643640373e+000	 1.086800593838018e+000	 1.175863816322384e+001
 1.478118792915143e+000	 1.102079351314878e+000	 1.168354103514956e+001
 1.466683619233977e+000	 1.117252533504999e+000	 1.162356152438747e+001
 1.455084597253222e+000	 1.132317480822068e+000	 1.158009830619340e+001
 1.443323258266788e+000	 1.147271560995152e+000	 1.155459245056645e+001
 1.431401189576607e+000	 1.162112170567537e+000	 1.154852555262136e+001
 1.548441695757683e+000	 1.012338043791967e+000	 1.229953183971481e+001
 1.537983226669640e+000	 1.028157378302174e+000	 1.216462765072066e+001
 1.527352347103020e+000	 1.043884480139196e+000	 1.203881556119040e+001
 1.516550244783449e+000	 1.059516566705504e+000	 1.192328887297500e+001
 1.505578166697145e+000	 1.075050875092867e+000	 1.181929088805843e+001
 1.494437418702695e+000	 1.090484663646654e+000	 1.172811377465289e+001
 1.483129365093606e+000	 1.105815213521662e+000	 1.165109727624408e+001
 1.471655428111839e+000	 1.121039830227635e+000	 1.158962726427134e+001
 1.460017087412572e+000	 1.136155845162716e+000	 1.154513413563816e+001
 1.448215879480544e+000	 1.151160617133015e+000	 1.151909105676347e+001
 1.436253396998372e+000	 1.166051533856545e+000	 1.151301205639936e+001
 1.553672917702993e+000	 1.015758104749612e+000	 1.228280891564435e+001
 1.543179115948609e+000	 1.031630882957251e+000	 1.214448848585749e+001
 1.532512321247900e+000	 1.047411116894867e+000	 1.201552988821205e+001
 1.521673725339078e+000	 1.063096014564267e+000	 1.189715570460279e+001
 1.510664579421152e+000	 1.078682803723066e+000	 1.179063906469484e+001
 1.499486193764394e+000	 1.094168733454290e+000	 1.169730248294487e+001
 1.488139937271411e+000	 1.109551075727446e+000	 1.161851653679370e+001
 1.476627236989035e+000	 1.124827126949273e+000	 1.155569838675130e+001
 1.464949577571282e+000	 1.139994209502363e+000	 1.151031013960924e+001
 1.453108500693715e+000	 1.155049673269878e+000	 1.148385705653849e+001
 1.441105604419636e+000	 1.169990897144552e+000	 1.147788560834964e+001
 1.558904139648309e+000	 1.019178165706257e+000	 1.226499839494106e+001
 1.548375005227400e+000	 1.035104387611328e+000	 1.212344715763120e+001
 1.537672295392446e+000	 1.050937753649540e+000	 1.199152012153582e+001
 1.526797205894245e+000	 1.066675462422029e+000	 1.187046908795969e+001
 1.515750992144601e+000	 1.082314732352265e+000	 1.176159696346706e+001
 1.504534968825469e+000	 1.097852803260926e+000	 1.166625656791850e+001
 1.493150509448556e+000	 1.113286937932230e+000	 1.158584928188379e+001
 1.481599045865567e+000	 1.128614423669910e+000	 1.152182353418432e+001
 1.469882067729351e+000	 1.143832573841011e+000	 1.147567313084243e+001
 1.458001121906299e+000	 1.158938729405742e+000	 1.144893542724097e+001
 1.445957811840399e+000	 1.173930260431560e+000	 1.144318934582249e+001
 1.564135361593630e+000	 1.022598226661902e+000	 1.224616148028584e+001
 1.553570894506009e+000	 1.038577892264405e+000	 1.210156313594244e+001
 1.542832269536655e+000	 1.054464390403212e+000	 1.196684398486548e+001
 1.531920686448951e+000	 1.070254910278792e+000	 1.184328498808166e+001
 1.520837404867493e+000	 1.085946660980465e+000	 1.173221877924807e+001
 1.509583743885921e+000	 1.101536873066561e+000	 1.163502844379507e+001
 1.498161081625042e+000	 1.117022800136014e+000	 1.155314613562934e+001
 1.486570854741433e+000	 1.132401720389547e+000	 1.148805153218708e+001
 1.474814557886779e+000	 1.147670938178659e+000	 1.144127012915354e+001
 1.462893743118297e+000	 1.162827785540605e+000	 1.141437137669879e+001
 1.450810019260661e+000	 1.177869623717568e+000	 1.140896665961148e+001
 1.569366583538957e+000	 1.026018287616547e+000	 1.222635938002482e+001
 1.558766783784440e+000	 1.042051396916482e+000	 1.207889592233552e+001
 1.547992243680529e+000	 1.057991027155884e+000	 1.194155925920025e+001
 1.537044167003196e+000	 1.073834358134555e+000	 1.181565945261233e+001
 1.525923817589828e+000	 1.089578589607664e+000	 1.170255881447897e+001
 1.514632518945750e+000	 1.105220942871197e+000	 1.160367065695841e+001
 1.503171653800870e+000	 1.120758662338799e+000	 1.152045787852451e+001
 1.491542663616635e+000	 1.136189017108184e+000	 1.145443138658155e+001
 1.479747048043566e+000	 1.151509302515306e+000	 1.140714835798693e+001
 1.467786364329710e+000	 1.166716841674468e+000	 1.138021033937706e+001
 1.455662226680420e+000	 1.181808987002575e+000	 1.137526118972926e+001
 1.407140152460260e+000	 1.142415354107499e+000	 1.173040724066389e+001
 1.395263762052319e+000	 1.156890351006155e+000	 1.149605825864839e+001
 1.383232649439506e+000	 1.171248772659032e+000	 1.132483808185604e+001
 1.371048536020361e+000	 1.185488153374974e+000	 1.121958929168801e+001
 1.358713195316802e+000	 1.199606061494894e+000	 1.118314782403268e+001
 1.346228452128589e+000	 1.213600100763045e+000	 1.121833905990366e+001
 1.333596181644664e+000	 1.227467911672928e+000	 1.132797384282083e+001
 1.320818308512266e+000	 1.241207172786242e+000	 1.151484443078299e+001
 1.307896805864762e+000	 1.254815602023345e+000	 1.158690799681126e+001
 1.294833694309251e+000	 1.268290957923721e+000	 1.135097554605175e+001
 1.281631040875000e+000	 1.281631040875000e+000	 1.114444991044579e+001
 1.411992359884532e+000	 1.146354717401506e+000	 1.169359638660177e+001
 1.400075016405958e+000	 1.160879628082619e+000	 1.147347786141868e+001
 1.388002417197734e+000	 1.175287561534300e+000	 1.131665348768265e+001
 1.375776289594259e+000	 1.189576043563013e+000	 1.122597103981940e+001
 1.363398413233042e+000	 1.203742634124636e+000	 1.120427207747540e+001
 1.350870619206257e+000	 1.217784928700475e+000	 1.125438802117801e+001
 1.338194789169017e+000	 1.231700559647800e+000	 1.137913615332748e+001
 1.325372854405271e+000	 1.245487197523350e+000	 1.158131555240865e+001
 1.312406794852298e+000	 1.259142552378244e+000	 1.150124573941660e+001
 1.299298638084806e+000	 1.272664375022791e+000	 1.128072518793563e+001
 1.286050458259750e+000	 1.286050458259750e+000	 1.108951095623218e+001
 1.416844567308302e+000	 1.150294080694514e+000	 1.165696084960181e+001
 1.404886270759185e+000	 1.164868905158087e+000	 1.145087629768445e+001
 1.392772184955621e+000	 1.179326350408588e+000	 1.130824674873151e+001
 1.380504043167866e+000	 1.193663933750096e+000	 1.123192535819277e+001
 1.368083631149022e+000	 1.207879206753460e+000	 1.122475950553561e+001
 1.355512786283676e+000	 1.221969756637031e+000	 1.128958685469462e+001
 1.342793396693109e+000	 1.235933207621852e+000	 1.142923133842545e+001
 1.329927400297986e+000	 1.249767222259704e+000	 1.164649907449019e+001
 1.316916783839494e+000	 1.263469502732463e+000	 1.142097370644236e+001
 1.303763581859952e+000	 1.277037792121265e+000	 1.121572629559922e+001
 1.290469875644000e+000	 1.290469875644000e+000	 1.103968625342876e+001
 1.421696774731572e+000	 1.154233443986522e+000	 1.162054243334699e+001
 1.409697525112002e+000	 1.168858182232560e+000	 1.142829666681475e+001
 1.397541952713167e+000	 1.183365139281896e+000	 1.129966222931737e+001
 1.385231796741181e+000	 1.197751823936224e+000	 1.123749784501196e+001
 1.372768849064741e+000	 1.212015779381362e+000	 1.124465690896999e+001
 1.360154953360844e+000	 1.226154584572711e+000	 1.132398353218306e+001
 1.347392004216941e+000	 1.240165855595085e+000	 1.147830850903026e+001
 1.334481946190412e+000	 1.254047246995303e+000	 1.156491180385686e+001
 1.321426772826350e+000	 1.267796453086002e+000	 1.134604450199005e+001
 1.308228525634687e+000	 1.281411209219145e+000	 1.115593329932950e+001
 1.294889293027750e+000	 1.294889293027750e+000	 1.099493207951418e+001
 1.426548982154340e+000	 1.158172807277529e+000	 1.158438321741891e+001
 1.414508779464406e+000	 1.172847459306039e+000	 1.140578232427030e+001
 1.402311720470371e+000	 1.187403928154224e+000	 1.129094452996231e+001
 1.389959550314207e+000	 1.201839714121397e+000	 1.124273431473636e+001
 1.377454066980199e+000	 1.216152352008345e+000	 1.126401128478064e+001
 1.364797120437761e+000	 1.230339412507517e+000	 1.135762620156010e+001
 1.351990611740512e+000	 1.244398503567497e+000	 1.152641693214712e+001
 1.339036492082546e+000	 1.258327271730146e+000	 1.148020470896893e+001
 1.325936761812866e+000	 1.272123403438861e+000	 1.127641084597816e+001
 1.312693469409012e+000	 1.285784626316430e+000	 1.110130072507499e+001
 1.299308710411000e+000	 1.299308710411000e+000	 1.095520478747248e+001
 1.431401189576607e+000	 1.162112170567537e+000	 1.154852555262136e+001
 1.419320033816400e+000	 1.176836736378522e+000	 1.138337687726271e+001
 1.407081488227236e+000	 1.191442717025572e+000	 1.128213848339237e+001
 1.394687303886940e+000	 1.205927604305615e+000	 1.124768079441565e+001
 1.382139284895396e+000	 1.220288924634407e+000	 1.128286982288936e+001
 1.369439287514429e+000	 1.234524240441447e+000	 1.139056318394331e+001
 1.356589219263823e+000	 1.248631151539089e+000	 1.157360602822580e+001
 1.343591037974391e+000	 1.262607296464235e+000	 1.140088098156759e+001
 1.330446750799042e+000	 1.276450353791040e+000	 1.121202557217966e+001
 1.317158413182928e+000	 1.290158043413119e+000	 1.105178319282418e+001
 1.303728127793750e+000	 1.303728127793750e+000	 1.092046080451334e+001
 1.436253396998372e+000	 1.166051533856545e+000	 1.151301205639936e+001
 1.424131288167982e+000	 1.180826013450011e+000	 1.136112418050204e+001
 1.411851255983758e+000	 1.195481505895939e+000	 1.127328915061487e+001
 1.399415057459383e+000	 1.210015494488878e+000	 1.125238352009843e+001
 1.386824502810333e+000	 1.224425497259550e+000	 1.130127990287838e+001
 1.374081454590845e+000	 1.238709068374503e+000	 1.142284297072592e+001
 1.361187826786874e+000	 1.252863799509862e+000	 1.152916543540240e+001
 1.348145583865946e+000	 1.266887321197568e+000	 1.132689182282208e+001
 1.334956739784878e+000	 1.280777304142539e+000	 1.115284162629854e+001
 1.321623356956433e+000	 1.294531460509214e+000	 1.100733541501726e+001
 1.308147545176000e+000	 1.308147545176000e+000	 1.089065663081817e+001
 1.441105604419636e+000	 1.169990897144552e+000	 1.147788560834964e+001
 1.428942542519153e+000	 1.184815290520504e+000	 1.133906833203017e+001
 1.416621023739939e+000	 1.199520294765327e+000	 1.126444181707562e+001
 1.404142811031536e+000	 1.214103384671186e+000	 1.125688893331424e+001
 1.391509720725009e+000	 1.228562069883772e+000	 1.131928909079790e+001
 1.378723621667011e+000	 1.242893896306683e+000	 1.145451422070946e+001
 1.365786434309665e+000	 1.257096447479814e+000	 1.144574431895484e+001
 1.352700129757210e+000	 1.271167345930147e+000	 1.125818856309082e+001
 1.339466728770374e+000	 1.285104254493358e+000	 1.109881206408566e+001
 1.326088300729528e+000	 1.298904877604714e+000	 1.096791219498923e+001
 1.312566962557750e+000	 1.312566962557750e+000	 1.086574883831192e+001
 1.445957811840399e+000	 1.173930260431560e+000	 1.144318934582249e+001
 1.433753796869913e+000	 1.188804567590002e+000	 1.131725366913805e+001
 1.421390791495780e+000	 1.203559083633735e+000	 1.125564198889297e+001
 1.408870564603397e+000	 1.218191274852539e+000	 1.126124367762535e+001
 1.396194938639424e+000	 1.232698642507074e+000	 1.133694513603706e+001
 1.383365788742926e+000	 1.247078724237988e+000	 1.148562575729569e+001
 1.370385041832195e+000	 1.261329095448945e+000	 1.136769211660823e+001
 1.357254675648185e+000	 1.275447370661970e+000	 1.119472265975344e+001
 1.343976717755529e+000	 1.289431204843497e+000	 1.104989004949207e+001
 1.330553244502213e+000	 1.303278294699618e+000	 1.093346842544533e+001
 1.316986379939000e+000	 1.316986379939000e+000	 1.084569406945901e+001
 1.450810019260661e+000	 1.177869623717568e+000	 1.140896665961148e+001
 1.438565051220261e+000	 1.192793844658505e+000	 1.129572476436480e+001
 1.426160559251278e+000	 1.207597872501163e+000	 1.124693538916785e+001
 1.413598318174967e+000	 1.222279165032937e+000	 1.126549459524866e+001
 1.400880156553579e+000	 1.236835215129457e+000	 1.135429596825822e+001
 1.388007955818591e+000	 1.251263552168418e+000	 1.148127814912037e+001
 1.374983649354465e+000	 1.265561743417257e+000	 1.129495874589220e+001
 1.361809221538869e+000	 1.279727395393038e+000	 1.113644569508724e+001
 1.348486706740345e+000	 1.293758155192956e+000	 1.100602885285992e+001
 1.335018188274489e+000	 1.307651711793928e+000	 1.090395908696622e+001
 1.321405797319750e+000	 1.321405797319750e+000	 1.083044903608394e+001
 1.455662226680420e+000	 1.181808987002575e+000	 1.137526118972926e+001
 1.443376305570198e+000	 1.196783121726014e+000	 1.127452642157717e+001
 1.430930327006436e+000	 1.211636661367611e+000	 1.123836795436700e+001
 1.418326071746247e+000	 1.226367055212380e+000	 1.126968872374468e+001
 1.405565374467473e+000	 1.240971787750919e+000	 1.137138969439240e+001
 1.392650122894006e+000	 1.255448380097973e+000	 1.139946956862565e+001
 1.379582256876475e+000	 1.269794391384749e+000	 1.122749426533258e+001
 1.366363767429263e+000	 1.284007420123351e+000	 1.108330937418491e+001
 1.352996695724821e+000	 1.298085105541735e+000	 1.096718184914902e+001
 1.339483132046354e+000	 1.312025128887643e+000	 1.087933924654362e+001
 1.325825214700000e+000	 1.325825214700000e+000	 1.081997051821520e+001
 1.281631040875000e+000	 1.281631040875000e+000	 1.114444991044579e+001
 1.268290957923721e+000	 1.294833694309251e+000	 1.105461677195344e+001
 1.254815602023345e+000	 1.307896805864761e+000	 1.096814104014313e+001
 1.241207172786241e+000	 1.320818308512266e+000	 1.094119778420434e+001
 1.227467911672928e+000	 1.333596181644665e+000	 1.093329080381751e+001
 1.213600100763044e+000	 1.346228452128588e+000	 1.091103263252053e+001
 1.199606061494894e+000	 1.358713195316802e+000	 1.087543400161563e+001
 1.185488153374974e+000	 1.371048536020361e+000	 1.082753243227052e+001
 1.171248772659032e+000	 1.383232649439506e+000	 1.076839027701366e+001
 1.156890351006155e+000	 1.395263762052319e+000	 1.069909271174899e+001
 1.142415354107499e+000	 1.407140152460260e+000	 1.062074568325585e+001
 1.286050458259750e+000	 1.286050458259750e+000	 1.108951095623218e+001
 1.272664375022791e+000	 1.299298638084806e+000	 1.100915460911047e+001
 1.259142552378244e+000	 1.312406794852298e+000	 1.093112674476642e+001
 1.245487197523350e+000	 1.325372854405271e+000	 1.088500466760789e+001
 1.231700559647800e+000	 1.338194789169017e+000	 1.088920819989945e+001
 1.217784928700475e+000	 1.350870619206257e+000	 1.087773635618713e+001
 1.203742634124636e+000	 1.363398413233042e+000	 1.085159799371655e+001
 1.189576043563013e+000	 1.375776289594259e+000	 1.081183010424271e+001
 1.175287561534300e+000	 1.388002417197734e+000	 1.075949584444768e+001
 1.160879628082619e+000	 1.400075016405958e+000	 1.069568251492945e+001
 1.146354717401506e+000	 1.411992359884532e+000	 1.062149949277397e+001
 1.290469875644000e+000	 1.290469875644000e+000	 1.103968625342876e+001
 1.277037792121265e+000	 1.303763581859952e+000	 1.096866818451887e+001
 1.263469502732463e+000	 1.316916783839494e+000	 1.089895716727576e+001
 1.249767222259704e+000	 1.329927400297986e+000	 1.083193321159347e+001
 1.235933207621852e+000	 1.342793396693109e+000	 1.084809816933052e+001
 1.221969756637031e+000	 1.355512786283676e+000	 1.084726678983227e+001
 1.207879206753459e+000	 1.368083631149022e+000	 1.083044619878862e+001
 1.193663933750096e+000	 1.380504043167865e+000	 1.079867300018900e+001
 1.179326350408588e+000	 1.392772184955621e+000	 1.075301129546409e+001
 1.164868905158087e+000	 1.404886270759185e+000	 1.069455064925421e+001
 1.150294080694514e+000	 1.416844567308302e+000	 1.062440400685657e+001
 1.294889293027750e+000	 1.294889293027750e+000	 1.099493207951418e+001
 1.281411209219145e+000	 1.308228525634687e+000	 1.093311567132837e+001
 1.267796453086002e+000	 1.321426772826350e+000	 1.087159233326087e+001
 1.254047246995303e+000	 1.334481946190412e+000	 1.081014090018872e+001
 1.240165855595085e+000	 1.347392004216941e+000	 1.080998560347737e+001
 1.226154584572712e+000	 1.360154953360844e+000	 1.081964978019544e+001
 1.212015779381362e+000	 1.372768849064741e+000	 1.081200534137405e+001
 1.197751823936224e+000	 1.385231796741181e+000	 1.078808864479018e+001
 1.183365139281896e+000	 1.397541952713167e+000	 1.074896487718030e+001
 1.168858182232560e+000	 1.409697525112002e+000	 1.069572600659187e+001
 1.154233443986522e+000	 1.421696774731572e+000	 1.062948868450815e+001
 1.299308710411000e+000	 1.299308710411000e+000	 1.095520478747248e+001
 1.285784626316430e+000	 1.312693469409012e+000	 1.090245529765720e+001
 1.272123403438861e+000	 1.325936761812866e+000	 1.084899230360146e+001
 1.258327271730146e+000	 1.339036492082547e+000	 1.079457030630178e+001
 1.244398503567497e+000	 1.351990611740512e+000	 1.077489539225439e+001
 1.230339412507517e+000	 1.364797120437761e+000	 1.079491115551631e+001
 1.216152352008345e+000	 1.377454066980199e+000	 1.079630211136027e+001
 1.201839714121397e+000	 1.389959550314206e+000	 1.078010451281748e+001
 1.187403928154224e+000	 1.402311720470372e+000	 1.074738477245611e+001
 1.172847459306039e+000	 1.414508779464406e+000	 1.069923740111656e+001
 1.158172807277529e+000	 1.426548982154340e+000	 1.063678289451931e+001
 1.303728127793750e+000	 1.303728127793750e+000	 1.092046080451334e+001
 1.290158043413119e+000	 1.317158413182927e+000	 1.087664534566015e+001
 1.276450353791040e+000	 1.330446750799042e+000	 1.083111717386931e+001
 1.262607296464235e+000	 1.343591037974391e+000	 1.078360640442411e+001
 1.248631151539089e+000	 1.356589219263823e+000	 1.074285242414816e+001
 1.234524240441447e+000	 1.369439287514428e+000	 1.077307672584875e+001
 1.220288924634407e+000	 1.382139284895396e+000	 1.078336316456773e+001
 1.205927604305616e+000	 1.394687303886940e+000	 1.077474802997903e+001
 1.191442717025572e+000	 1.407081488227236e+000	 1.074829910098199e+001
 1.176836736378522e+000	 1.419320033816400e+000	 1.070511357062447e+001
 1.162112170567537e+000	 1.431401189576607e+000	 1.064631591699557e+001
 1.308147545176000e+000	 1.308147545176000e+000	 1.089065663081817e+001
 1.294531460509214e+000	 1.321623356956433e+000	 1.085564415061567e+001
 1.280777304142539e+000	 1.334956739784878e+000	 1.081792707374223e+001
 1.266887321197568e+000	 1.348145583865946e+000	 1.077721107670279e+001
 1.252863799509862e+000	 1.361187826786874e+000	 1.073319853638535e+001
 1.238709068374502e+000	 1.374081454590845e+000	 1.075417228336704e+001
 1.224425497259549e+000	 1.386824502810333e+000	 1.077321512332521e+001
 1.210015494488878e+000	 1.399415057459383e+000	 1.077204657374819e+001
 1.195481505895940e+000	 1.411851255983758e+000	 1.075173592034694e+001
 1.180826013450011e+000	 1.424131288167982e+000	 1.071338317782428e+001
 1.166051533856545e+000	 1.436253396998372e+000	 1.065811694485541e+001
 1.312566962557750e+000	 1.312566962557750e+000	 1.086574883831192e+001
 1.298904877604713e+000	 1.326088300729528e+000	 1.083941010003185e+001
 1.285104254493358e+000	 1.339466728770373e+000	 1.080938216642986e+001
 1.271167345930146e+000	 1.352700129757210e+000	 1.077534622094434e+001
 1.257096447479814e+000	 1.365786434309665e+000	 1.073698080988667e+001
 1.242893896306683e+000	 1.378723621667011e+000	 1.073822360266764e+001
 1.228562069883772e+000	 1.391509720725009e+000	 1.076588457703375e+001
 1.214103384671186e+000	 1.404142811031535e+000	 1.077202747417578e+001
 1.199520294765327e+000	 1.416621023739940e+000	 1.075772322708349e+001
 1.184815290520503e+000	 1.428942542519153e+000	 1.072407481160130e+001
 1.169990897144552e+000	 1.441105604419636e+000	 1.067221508529828e+001
 1.316986379939000e+000	 1.316986379939000e+000	 1.084569406945901e+001
 1.303278294699618e+000	 1.330553244502214e+000	 1.082790163276975e+001
 1.289431204843497e+000	 1.343976717755529e+000	 1.080544264811091e+001
 1.275447370661970e+000	 1.357254675648185e+000	 1.077797375035169e+001
 1.261329095448945e+000	 1.370385041832195e+000	 1.074514959259195e+001
 1.247078724237988e+000	 1.383365788742926e+000	 1.072525644106405e+001
 1.232698642507074e+000	 1.396194938639424e+000	 1.076139808271904e+001
 1.218191274852539e+000	 1.408870564603396e+000	 1.077471801468572e+001
 1.203559083633735e+000	 1.421390791495780e+000	 1.076628895769229e+001
 1.188804567590002e+000	 1.433753796869913e+000	 1.073721698825570e+001
 1.173930260431560e+000	 1.445957811840399e+000	 1.068863936124256e+001
 1.321405797319750e+000	 1.321405797319750e+000	 1.083044903608394e+001
 1.307651711793928e+000	 1.335018188274489e+000	 1.082107723818491e+001
 1.293758155192956e+000	 1.348486706740345e+000	 1.080606874738209e+001
 1.279727395393038e+000	 1.361809221538869e+000	 1.078505559326695e+001
 1.265561743417257e+000	 1.374983649354465e+000	 1.075766847190400e+001
 1.251263552168418e+000	 1.388007955818591e+000	 1.072353839189157e+001
 1.236835215129456e+000	 1.400880156553579e+000	 1.075978216557293e+001
 1.222279165032937e+000	 1.413598318174967e+000	 1.078014543285478e+001
 1.207597872501163e+000	 1.426160559251279e+000	 1.077746098964603e+001
 1.192793844658505e+000	 1.438565051220261e+000	 1.075283815271685e+001
 1.177869623717568e+000	 1.450810019260660e+000	 1.070741871273528e+001
 1.325825214700000e+000	 1.325825214700000e+000	 1.081997051821520e+001
 1.312025128887643e+000	 1.339483132046354e+000	 1.081889545528563e+001
 1.298085105541735e+000	 1.352996695724821e+000	 1.081122072471765e+001
 1.284007420123351e+000	 1.366363767429263e+000	 1.079655369291887e+001
 1.269794391384749e+000	 1.379582256876475e+000	 1.077450103391404e+001
 1.255448380097973e+000	 1.392650122894005e+000	 1.074467041269742e+001
 1.240971787750919e+000	 1.405565374467473e+000	 1.076106331948390e+001
 1.226367055212380e+000	 1.418326071746246e+000	 1.078833692117662e+001
 1.211636661367610e+000	 1.430930327006436e+000	 1.079126714237318e+001
 1.196783121726014e+000	 1.443376305570198e+000	 1.077096667973228e+001
 1.181808987002575e+000	 1.455662226680420e+000	 1.072858199833305e+001
 1.142415354107499e+000	 1.407140152460260e+000	 1.062074568325585e+001
 1.127826280290835e+000	 1.418860152189212e+000	 1.058339258516099e+001
 1.113125659103831e+000	 1.430422146446860e+000	 1.052949382512310e+001
 1.098316049876814e+000	 1.441824574834693e+000	 1.045984374173940e+001
 1.083400040265957e+000	 1.453065932012934e+000	 1.037525967031707e+001
 1.068380244779839e+000	 1.464144768319415e+000	 1.027658006942373e+001
 1.053259303290671e+000	 1.475059690341403e+000	 1.016466261812648e+001
 1.038039879531929e+000	 1.485809361439989e+000	 1.004038228888537e+001
 1.022724659584163e+000	 1.496392502226693e+000	 9.904629401090551e+000
 1.007316350350711e+000	 1.506807890992041e+000	 9.758307660243560e+000
 9.918176780250960e-001	 1.517054364085930e+000	 9.602332187772024e+000
 1.146354717401506e+000	 1.411992359884532e+000	 1.062149949277397e+001
 1.131715336433698e+000	 1.423752773405899e+000	 1.058370127622847e+001
 1.116964023449479e+000	 1.435354636609414e+000	 1.052951177368903e+001
 1.102103346604450e+000	 1.446796383715880e+000	 1.045974788118310e+001
 1.087135902477741e+000	 1.458076504194694e+000	 1.037524926857512e+001
 1.072064314593475e+000	 1.469193543384853e+000	 1.027687647408790e+001
 1.056891231926870e+000	 1.480146103068753e+000	 1.016550896992415e+001
 1.041619327396692e+000	 1.490932841998385e+000	 1.004204320402074e+001
 1.026251296345836e+000	 1.501552476373586e+000	 9.907390622991768e+000
 1.010789855011788e+000	 1.512003780272091e+000	 9.762475681325032e+000
 9.952377389887410e-001	 1.522285586031209e+000	 9.608233841881697e+000
 1.150294080694514e+000	 1.416844567308302e+000	 1.062440400685657e+001
 1.135604392575561e+000	 1.428645394622001e+000	 1.058625083810069e+001
 1.120802387794126e+000	 1.440287126771327e+000	 1.053185485575039e+001
 1.105890643331088e+000	 1.451768192596401e+000	 1.046205556668368e+001
 1.090871764688525e+000	 1.463087076375795e+000	 1.037771503327381e+001
 1.075748384406111e+000	 1.474242318449668e+000	 1.027971593573010e+001
 1.060523160562069e+000	 1.485232515795546e+000	 1.016895960594730e+001
 1.045198775260455e+000	 1.496056322556321e+000	 1.004636403796051e+001
 1.029777933106507e+000	 1.506712450520144e+000	 9.912861880130141e+000
 1.014263359671865e+000	 1.517199669551960e+000	 9.769398414183337e+000
 9.986577999513864e-001	 1.527516807976493e+000	 9.616929526227377e+000
 1.154233443986522e+000	 1.421696774731572e+000	 1.062948868450815e+001
 1.139493448716425e+000	 1.433538015837516e+000	 1.059106903105677e+001
 1.124640752137774e+000	 1.445219616932599e+000	 1.053654915896046e+001
 1.109677940056725e+000	 1.456740001476259e+000	 1.046679124040784e+001
 1.094607626898309e+000	 1.468097648556237e+000	 1.038267978925292e+001
 1.079432454217747e+000	 1.479291093513860e+000	 1.028511969102619e+001
 1.064155089196269e+000	 1.490318928521782e+000	 1.017503420485412e+001
 1.048778223123217e+000	 1.501179803113794e+000	 1.005336294245512e+001
 1.033304569866179e+000	 1.511872424666366e+000	 9.921059829398871e+000
 1.017736864330942e+000	 1.522395558831650e+000	 9.779091053825093e+000
 1.002077860913031e+000	 1.532748029921782e+000	 9.628433007795101e+000
 1.158172807277529e+000	 1.426548982154340e+000	 1.063678289451931e+001
 1.143382504856288e+000	 1.438430637052445e+000	 1.059818354333769e+001
 1.128479116480421e+000	 1.450152107093231e+000	 1.054362071662995e+001
 1.113465236781362e+000	 1.461711810355451e+000	 1.047397930738559e+001
 1.098343489107094e+000	 1.473108220736019e+000	 1.039016634092584e+001
 1.083116524028382e+000	 1.484339868577428e+000	 1.029310897243268e+001
 1.067787017829468e+000	 1.495405341247460e+000	 1.018375245678172e+001
 1.052357670984979e+000	 1.506303283670807e+000	 1.006305809591566e+001
 1.036831206624852e+000	 1.517032398812253e+000	 9.932001169013184e+000
 1.021210368989019e+000	 1.527591448111159e+000	 9.791568850712288e+000
 1.005497921873676e+000	 1.537979251867077e+000	 9.642758122627374e+000
 1.162112170567537e+000	 1.431401189576607e+000	 1.064631591699557e+001
 1.147271560995151e+000	 1.443323258266788e+000	 1.060762199236774e+001
 1.132317480822069e+000	 1.455084597253222e+000	 1.055309550864772e+001
 1.117252533504998e+000	 1.466683619233977e+000	 1.048364413613988e+001
 1.102079351314878e+000	 1.478118792915142e+000	 1.040019747262598e+001
 1.086800593838018e+000	 1.489388643640373e+000	 1.030370500825916e+001
 1.071418946461668e+000	 1.500491753972582e+000	 1.019513406315144e+001
 1.055937118845742e+000	 1.511426764227359e+000	 1.007546770296257e+001
 1.040357843382523e+000	 1.522192372957805e+000	 9.945702637809278e+000
 1.024683873646096e+000	 1.532787337390489e+000	 9.806847109822051e+000
 1.008917982833322e+000	 1.543210473812377e+000	 9.659918774652191e+000
 1.166051533856545e+000	 1.436253396998372e+000	 1.065811694485541e+001
 1.151160617133015e+000	 1.448215879480544e+000	 1.061941192595027e+001
 1.136155845162716e+000	 1.460017087412572e+000	 1.056499946238318e+001
 1.121039830227635e+000	 1.471655428111839e+000	 1.049581005930302e+001
 1.105815213521662e+000	 1.483129365093606e+000	 1.041279594894570e+001
 1.090484663646654e+000	 1.494437418702695e+000	 1.031692902273737e+001
 1.075050875092867e+000	 1.505578166697145e+000	 1.020919873647865e+001
 1.059516566705504e+000	 1.516550244783448e+000	 1.009060999398290e+001
 1.043884480139196e+000	 1.527352347103020e+000	 9.962181014558544e+000
 1.028157378302174e+000	 1.537983226669640e+000	 9.824941189725831e+000
 1.012338043791967e+000	 1.548441695757683e+000	 9.679928934537353e+000
 1.169990897144552e+000	 1.441105604419636e+000	 1.067221508529828e+001
 1.155049673269878e+000	 1.453108500693715e+000	 1.063358082344012e+001
 1.139994209502363e+000	 1.464949577571282e+000	 1.057935845357031e+001
 1.124827126949272e+000	 1.476627236989035e+000	 1.051050137422130e+001
 1.109551075727446e+000	 1.488139937271411e+000	 1.042798451506881e+001
 1.094168733454290e+000	 1.499486193764393e+000	 1.033280223609056e+001
 1.078682803723066e+000	 1.510664579421151e+000	 1.022596620018544e+001
 1.063096014564267e+000	 1.521673725339077e+000	 1.010850322469625e+001
 1.047411116894867e+000	 1.532512321247901e+000	 9.981453117295327e+000
 1.031630882957251e+000	 1.543179115948609e+000	 9.845866501687338e+000
 1.015758104749612e+000	 1.553672917702993e+000	 9.702802638565983e+000
 1.173930260431560e+000	 1.445957811840399e+000	 1.068863936124256e+001
 1.158938729405742e+000	 1.458001121906299e+000	 1.065015609689201e+001
 1.143832573841011e+000	 1.469882067729351e+000	 1.059619830717447e+001
 1.128614423669910e+000	 1.481599045865567e+000	 1.052774234354645e+001
 1.113286937932230e+000	 1.493150509448556e+000	 1.044578589709615e+001
 1.097852803260925e+000	 1.504534968825468e+000	 1.035134586460039e+001
 1.082314732352265e+000	 1.515750992144601e+000	 1.024545618841775e+001
 1.066675462422030e+000	 1.526797205894245e+000	 1.012916567572981e+001
 1.050937753649540e+000	 1.537672295392446e+000	 1.000353580265781e+001
 1.035104387611328e+000	 1.548375005227400e+000	 9.869638508778005e+000
 1.019178165706257e+000	 1.558904139648309e+000	 9.728553987535891e+000
 1.177869623717568e+000	 1.450810019260660e+000	 1.070741871273528e+001
 1.162827785540605e+000	 1.462893743118297e+000	 1.066916509218594e+001
 1.147670938178659e+000	 1.474814557886779e+000	 1.061554479824087e+001
 1.132401720389547e+000	 1.486570854741433e+000	 1.054755719581633e+001
 1.117022800136014e+000	 1.498161081625042e+000	 1.046622280236465e+001
 1.101536873066561e+000	 1.509583743885921e+000	 1.037258112067296e+001
 1.085946660980464e+000	 1.520837404867493e+000	 1.026768844586663e+001
 1.070254910278792e+000	 1.531920686448951e+000	 1.015261565220208e+001
 1.054464390403212e+000	 1.542832269536655e+000	 1.002844596524283e+001
 1.038577892264405e+000	 1.553570894506009e+000	 9.896272725011416e+000
 1.022598226661902e+000	 1.564135361593630e+000	 9.757197145680925e+000
 1.181808987002575e+000	 1.455662226680420e+000	 1.072858199833305e+001
 1.166716841674468e+000	 1.467786364329709e+000	 1.069063509012989e+001
 1.151509302515306e+000	 1.479747048043566e+000	 1.063742365272704e+001
 1.136189017108183e+000	 1.491542663616635e+000	 1.056997012602333e+001
 1.120758662338799e+000	 1.503171653800870e+000	 1.048931791976036e+001
 1.105220942871197e+000	 1.514632518945750e+000	 1.039652921290328e+001
 1.089578589607664e+000	 1.525923817589828e+000	 1.029268272759166e+001
 1.073834358134554e+000	 1.537044167003196e+000	 1.017887148331430e+001
 1.057991027155884e+000	 1.547992243680529e+000	 1.005620053697301e+001
 1.042051396916482e+000	 1.558766783784440e+000	 9.925784714492986e+000
 1.026018287616547e+000	 1.569366583538957e+000	 9.788746339613505e+000
 9.918176780250960e-001	 1.517054364085930e+000	 9.602332187772024e+000
 9.762313865519589e-001	 1.527130816249973e+000	 9.512278410325013e+000
 9.605602360829908e-001	 1.537036200900858e+000	 9.410168316810504e+000
 9.448070014298204e-001	 1.546769530365383e+000	 9.296900597719102e+000
 9.289744705157568e-001	 1.556329876067885e+000	 9.173381325820460e+000
 9.130654428278503e-001	 1.565716368669313e+000	 9.040522015558663e+000
 8.970827278710680e-001	 1.574928198158502e+000	 8.899237696995499e+000
 8.810291436262734e-001	 1.583964613895941e+000	 8.750445008839328e+000
 8.649075150136747e-001	 1.592824924610444e+000	 8.595060314973424e+000
 8.487206723633864e-001	 1.601508498349150e+000	 8.433997848767769e+000
 8.324714498947107e-001	 1.610014762381363e+000	 8.268167889307962e+000
 9.952377389887410e-001	 1.522285586031209e+000	 9.608233841881697e+000
 9.795977016831426e-001	 1.532396784581431e+000	 9.519504776633884e+000
 9.638725127643796e-001	 1.542336325730652e+000	 9.418620728143951e+000
 9.480649566123960e-001	 1.552103218399898e+000	 9.306497297701716e+000
 9.321778307640303e-001	 1.561696530811520e+000	 9.184057417387484e+000
 9.162139443597366e-001	 1.571115390628747e+000	 9.052229382455154e+000
 9.001761165924311e-001	 1.580358985047271e+000	 8.911944898666480e+000
 8.840671751601527e-001	 1.589426560839167e+000	 8.764137149166393e+000
 8.678899547242149e-001	 1.598317424349558e+000	 8.609738885371591e+000
 8.516472953744909e-001	 1.607030941446433e+000	 8.449680546201886e+000
 8.353420411034542e-001	 1.615566537424160e+000	 8.284888409842141e+000
 9.986577999513864e-001	 1.527516807976493e+000	 9.616929526227377e+000
 9.829640168133369e-001	 1.537662752913080e+000	 9.529515914404961e+000
 9.671847894448089e-001	 1.547636450560790e+000	 9.429846695961784e+000
 9.513229117940627e-001	 1.557436906434881e+000	 9.318854482316604e+000
 9.353811910114660e-001	 1.567063185555717e+000	 9.197479164941989e+000
 9.193624458908768e-001	 1.576514412588807e+000	 9.066665920560967e+000
 9.032695053131591e-001	 1.585789771936699e+000	 8.927363231697109e+000
 8.871052066935282e-001	 1.594888507783058e+000	 8.780520927225881e+000
 8.708723944344020e-001	 1.603809924089309e+000	 8.627088247450583e+000
 8.545739183854136e-001	 1.612553384544297e+000	 8.468011938086962e+000
 8.382126323122057e-001	 1.621118312467453e+000	 8.304234377391877e+000
 1.002077860913031e+000	 1.532748029921782e+000	 9.628433007795101e+000
 9.863303319425413e-001	 1.542928721244919e+000	 9.542324640731041e+000
 9.704970661242791e-001	 1.552936575391273e+000	 9.443858089992734e+000
 9.545808669748215e-001	 1.562770594470332e+000	 9.333983077195736e+000
 9.385845512580646e-001	 1.572429840300476e+000	 9.213656554019705e+000
 9.225109474212707e-001	 1.581913434549493e+000	 9.083840680042419e+000
 9.063628940332521e-001	 1.591220558826787e+000	 8.945500816330782e+000
 8.901432382264000e-001	 1.600350454727610e+000	 8.799603539494695e+000
 8.738548341442362e-001	 1.609302423829698e+000	 8.647114680779129e+000
 8.575005413961532e-001	 1.618075827642741e+000	 8.488997394633946e+000
 8.410832235209650e-001	 1.626670087511243e+000	 8.326210261041938e+000
 1.005497921873676e+000	 1.537979251867077e+000	 9.642758122627374e+000
 9.896966470707561e-001	 1.548194689576948e+000	 9.557943848793270e+000
 9.738093428027902e-001	 1.558236700222101e+000	 9.460666862993641e+000
 9.578388221546715e-001	 1.568104282506252e+000	 9.351894097844332e+000
 9.417879115038260e-001	 1.577796495045798e+000	 9.232599666777364e+000
 9.256594489509181e-001	 1.587312456510804e+000	 9.103762814334205e+000
 9.094562827527101e-001	 1.596651345717534e+000	 8.966365882622979e+000
 8.931812697587676e-001	 1.605812401672828e+000	 8.821392298699909e+000
 8.768372738537171e-001	 1.614794923570724e+000	 8.669824587506520e+000
 8.604271644067107e-001	 1.623598270741768e+000	 8.512642414853152e+000
 8.439538147297320e-001	 1.632221862555527e+000	 8.350820664782019e+000
 1.008917982833322e+000	 1.543210473812377e+000	 9.659918774652191e+000
 9.930629621979807e-001	 1.553460657909167e+000	 9.576386506571028e+000
 9.771216194803420e-001	 1.563536825053272e+000	 9.480285049341864e+000
 9.610967773336134e-001	 1.573437970542641e+000	 9.372598648117487e+000
 9.449912717487495e-001	 1.583163149791682e+000	 9.254318680354544e+000
 9.288079504798195e-001	 1.592711478472741e+000	 9.126441578388370e+000
 9.125496714715330e-001	 1.602082132608941e+000	 8.989966768579743e+000
 8.962193012906309e-001	 1.611274348618707e+000	 8.845894631848742e+000
 8.798197135628453e-001	 1.620287423312386e+000	 8.695224490284154e+000
 8.633537874170858e-001	 1.629120713841375e+000	 8.538952624371120e+000
 8.468244059385072e-001	 1.637773637600309e+000	 8.378070325220156e+000
 1.012338043791967e+000	 1.548441695757683e+000	 9.679928934537353e+000
 9.964292773242158e-001	 1.558726626241576e+000	 9.597665655578707e+000
 9.804338961569342e-001	 1.568836949884789e+000	 9.502724763656849e+000
 9.643547325116468e-001	 1.578771658579497e+000	 9.396107918727758e+000
 9.481946319928362e-001	 1.588529804538128e+000	 9.278823865269565e+000
 9.319564520079748e-001	 1.598110500435305e+000	 9.151886326959984e+000
 9.156430601897208e-001	 1.607512919501007e+000	 9.016311918334427e+000
 8.992573328219908e-001	 1.616736295565250e+000	 8.873118078297434e+000
 8.828021532716202e-001	 1.625779923054686e+000	 8.723321030230549e+000
 8.662804104272786e-001	 1.634643156941565e+000	 8.567933773291641e+000
 8.496949971472900e-001	 1.643325412645586e+000	 8.407964109342625e+000
 1.015758104749612e+000	 1.553672917702993e+000	 9.702802638565983e+000
 9.997955924494609e-001	 1.563992594574175e+000	 9.621794409627773e+000
 9.837461728325674e-001	 1.574137074716649e+000	 9.527998199449076e+000
 9.676126876887717e-001	 1.584105346616823e+000	 9.422433185783092e+000
 9.513979922360850e-001	 1.593896459285136e+000	 9.306125583847608e+000
 9.351049535353839e-001	 1.603509522398494e+000	 9.180106512926537e+000
 9.187364489072735e-001	 1.612943706393732e+000	 9.045409880360749e+000
 9.022953643528469e-001	 1.622198242512456e+000	 8.903070287860521e+000
 8.857845929800421e-001	 1.631272422797623e+000	 8.754120964936567e+000
 8.692070334372890e-001	 1.640165600042335e+000	 8.599591734100063e+000
 8.525655883560807e-001	 1.648877187691360e+000	 8.440507012319099e+000
 1.019178165706257e+000	 1.558904139648309e+000	 9.728553987535891e+000
 1.003161907573716e+000	 1.569258562906965e+000	 9.648785953613334e+000
 9.870584495072415e-001	 1.579437199548854e+000	 9.556117627796510e+000
 9.708706428649884e-001	 1.589439034654616e+000	 9.451585809353622e+000
 9.546013524784969e-001	 1.599263114032707e+000	 9.336234288679785e+000
 9.382534550620466e-001	 1.608908544362309e+000	 9.211111685641777e+000
 9.218298376241915e-001	 1.618374493287118e+000	 9.077269305722782e+000
 9.053333958831986e-001	 1.627660189460326e+000	 8.935759018957304e+000
 8.887670326881112e-001	 1.636764922541197e+000	 8.787631166511520e+000
 8.721336564471169e-001	 1.645688043143687e+000	 8.633932499610200e+000
 8.554361795648792e-001	 1.654428962737629e+000	 8.475704155351922e+000
 1.022598226661902e+000	 1.564135361593630e+000	 9.757197145680925e+000
 1.006528222696982e+000	 1.574524531239944e+000	 9.678653542326019e+000
 9.903707261809560e-001	 1.584737324381403e+000	 9.587095396047506e+000
 9.741285980402964e-001	 1.594772722692878e+000	 9.483577232068017e+000
 9.578047127200712e-001	 1.604629768780840e+000	 9.369160521114143e+000
 9.414019565879633e-001	 1.614307566326750e+000	 9.244911489322648e+000
 9.249232263404742e-001	 1.623805280181162e+000	 9.111898946358471e+000
 9.083714274130466e-001	 1.633122136408858e+000	 8.971192136795686e+000
 8.917494723958273e-001	 1.642257422285409e+000	 8.823858619668195e+000
 8.750602794567625e-001	 1.651210486245620e+000	 8.670962180952225e+000
 8.583067707736855e-001	 1.659980737784395e+000	 8.513560783568442e+000
 1.026018287616547e+000	 1.569366583538957e+000	 9.788746339613505e+000
 1.009894537819258e+000	 1.579790499573114e+000	 9.711410499286675e+000
 9.936830028537118e-001	 1.590037449214298e+000	 9.620943926549424e+000
 9.773865532146965e-001	 1.600106410731609e+000	 9.518418977737387e+000
 9.610080729608083e-001	 1.609996423529535e+000	 9.404914909776327e+000
 9.445504581131337e-001	 1.619706588291817e+000	 9.281515661467706e+000
 9.280166150561219e-001	 1.629236067075867e+000	 9.149307653399411e+000
 9.114094589423907e-001	 1.638584083358054e+000	 9.009377611592035e+000
 8.947319121031903e-001	 1.647749922030257e+000	 8.862810419845550e+000
 8.779869024662259e-001	 1.656732929348135e+000	 8.710687005600262e+000
 8.611773619824999e-001	 1.665532512831657e+000	 8.554082263955571e+000
 8.324714498947107e-001	 1.610014762381363e+000	 8.268167889307962e+000
 8.161626842062413e-001	 1.618343203056713e+000	 8.098094324445420e+000
 7.997972127767113e-001	 1.626493365618577e+000	 7.924469938096653e+000
 7.833778724793183e-001	 1.634464853973170e+000	 7.748178019214300e+000
 7.669074981119249e-001	 1.642257330414927e+000	 7.570091551388925e+000
 7.503889209429704e-001	 1.649870515309274e+000	 7.391071603245067e+000
 7.338249672750482e-001	 1.657304186733513e+000	 7.211965771247635e+000
 7.172184570274875e-001	 1.664558180076721e+000	 7.033606677772903e+000
 7.005722023392451e-001	 1.671632387599618e+000	 6.856810527091097e+000
 6.838890061933528e-001	 1.678526757955381e+000	 6.682375721687998e+000
 6.671716610641265e-001	 1.685241295672438e+000	 6.511081541137457e+000
 8.353420411034542e-001	 1.615566537424160e+000	 8.284888409842141e+000
 8.189770382911469e-001	 1.623923696861044e+000	 8.115652138288718e+000
 8.025551342007843e-001	 1.632101963432215e+000	 7.942719934329827e+000
 7.860791754878862e-001	 1.640100939678048e+000	 7.766981624930018e+000
 7.695520067254796e-001	 1.647920286728476e+000	 7.589316723759467e+000
 7.529764689449986e-001	 1.655559723984672e+000	 7.410592806376251e+000
 7.363553981949070e-001	 1.663019028758684e+000	 7.231663938221694e+000
 7.196916241183942e-001	 1.670298035871967e+000	 7.053369158312367e+000
 7.029879685514472e-001	 1.677396637213727e+000	 6.876531021303904e+000
 6.862472441425566e-001	 1.684314781260082e+000	 6.701954200379554e+000
 6.694722529952600e-001	 1.691052472555078e+000	 6.530424153198221e+000
 8.382126323122057e-001	 1.621118312467453e+000	 8.304234377391877e+000
 8.217913923762501e-001	 1.629504190665775e+000	 8.135699665716819e+000
 8.053130556252246e-001	 1.637710561246169e+000	 7.963324560385450e+000
 7.887804784969704e-001	 1.645737025383168e+000	 7.788005568301707e+000
 7.721965153396796e-001	 1.653583243042204e+000	 7.610628872891439e+000
 7.555640169477806e-001	 1.661248932660192e+000	 7.432068693901554e+000
 7.388858291156089e-001	 1.668733870783933e+000	 7.253185700420035e+000
 7.221647912102127e-001	 1.676037891667256e+000	 7.074825480034027e+000
 7.054037347646102e-001	 1.683160886827854e+000	 6.897817066824000e+000
 6.886054820927510e-001	 1.690102804564788e+000	 6.722971530677032e+000
 6.717728449273936e-001	 1.696863649437719e+000	 6.551080630175170e+000
 8.410832235209650e-001	 1.626670087511243e+000	 8.326210261041938e+000
 8.246057464615505e-001	 1.635084684470908e+000	 8.158241624574336e+000
 8.080709770500318e-001	 1.643319159060439e+000	 7.986288776050085e+000
 7.914817815065708e-001	 1.651373111088530e+000	 7.811255044446829e+000
 7.748410239545245e-001	 1.659246199356109e+000	 7.634033422829563e+000
 7.581515649513169e-001	 1.666938141335837e+000	 7.455504912595410e+000
 7.414162600371534e-001	 1.674448712809260e+000	 7.276536921356965e+000
 7.246379583029430e-001	 1.681777747462590e+000	 7.097981717406550e+000
 7.078195009787339e-001	 1.688925136442001e+000	 6.920674943493350e+000
 6.909637200439351e-001	 1.695890827869499e+000	 6.745434192416741e+000
 6.740734368605271e-001	 1.702674826320359e+000	 6.573057646719461e+000
 8.439538147297320e-001	 1.632221862555527e+000	 8.350820664782019e+000
 8.274201005470491e-001	 1.640665178276442e+000	 8.183282858077341e+000
 8.108288984752061e-001	 1.648927756875026e+000	 8.011617657053352e+000
 7.941830845166872e-001	 1.657009196794132e+000	 7.836735355106778e+000
 7.774855325700152e-001	 1.664909155670192e+000	 7.659535895035332e+000
 7.607391129556070e-001	 1.672627350011603e+000	 7.480907197559501e+000
 7.439466909595408e-001	 1.680163554834667e+000	 7.301723543902624e+000
 7.271111253965849e-001	 1.687517603257968e+000	 7.122844015407142e+000
 7.102352671938187e-001	 1.694689386056168e+000	 6.945110992941328e+000
 6.933219579961100e-001	 1.701678851174215e+000	 6.769348718630817e+000
 6.763740287946606e-001	 1.708486003203000e+000	 6.596361922219814e+000
 8.468244059385072e-001	 1.637773637600309e+000	 8.378070325220156e+000
 8.302344546327449e-001	 1.646245672082377e+000	 8.210828332688784e+000
 8.135868199007473e-001	 1.654536354689929e+000	 8.039316393103428e+000
 7.968843875273199e-001	 1.662645282499978e+000	 7.864451906839586e+000
 7.801300411861508e-001	 1.670572111984452e+000	 7.687141906736546e+000
 7.633266609606516e-001	 1.678316558687493e+000	 7.508281370724492e+000
 7.464771218827713e-001	 1.685878396860152e+000	 7.328751588938198e+000
 7.295842924911385e-001	 1.693257459053390e+000	 7.149418588326202e+000
 7.126510334098642e-001	 1.700453635670355e+000	 6.971131617537260e+000
 6.956801959492747e-001	 1.707466874478935e+000	 6.794721694645659e+000
 6.786746207297942e-001	 1.714297180085640e+000	 6.621000220044286e+000
 8.496949971472900e-001	 1.643325412645586e+000	 8.407964109342625e+000
 8.330488087186386e-001	 1.651826165888713e+000	 8.240883136036135e+000
 8.163447413266560e-001	 1.660144952505149e+000	 8.069390285961230e+000
 7.995856905384692e-001	 1.668281368206065e+000	 7.894410209249668e+000
 7.827745498029313e-001	 1.676235068298889e+000	 7.716857169309285e+000
 7.659142089664497e-001	 1.684005767363505e+000	 7.537633339384143e+000
 7.490075528068444e-001	 1.691593238885715e+000	 7.357627154037849e+000
 7.320574595866043e-001	 1.698997314848856e+000	 7.177711718596473e+000
 7.150667996268707e-001	 1.706217885284560e+000	 6.998743279364437e+000
 6.980384339034296e-001	 1.713254897783661e+000	 6.821559757198743e+000
 6.809752126659278e-001	 1.720108356968281e+000	 6.646979346797017e+000
 8.525655883560807e-001	 1.648877187691360e+000	 8.440507012319099e+000
 8.358631628047297e-001	 1.657406659695451e+000	 8.273452474872176e+000
 8.191026627529314e-001	 1.665753550320685e+000	 8.101844747553987e+000
 8.022869935501347e-001	 1.673917453912394e+000	 7.926615873252702e+000
 7.854190584203570e-001	 1.681898024613503e+000	 7.748687486692917e+000
 7.685017569730022e-001	 1.689694976039642e+000	 7.568969094757982e+000
 7.515379837317605e-001	 1.697308080911358e+000	 7.388356412177605e+000
 7.345306266829815e-001	 1.704737170644366e+000	 7.207729755646064e+000
 7.174825658448381e-001	 1.711982134898785e+000	 7.027952499214983e+000
 7.003966718585748e-001	 1.719042921088391e+000	 6.849869593572900e+000
 6.832758046030611e-001	 1.725919533850922e+000	 6.674306151590644e+000
 8.554361795648792e-001	 1.654428962737629e+000	 8.475704155351922e+000
 8.386775168910187e-001	 1.662987153502590e+000	 8.308541673075878e+000
 8.218605841795743e-001	 1.671362148136538e+000	 8.136685298127231e+000
 8.049882965623161e-001	 1.679553539618966e+000	 7.961074609376048e+000
 7.880635670384282e-001	 1.687560980928295e+000	 7.782638753837084e+000
 7.710893049803087e-001	 1.695384184715900e+000	 7.602294710583146e+000
 7.540684146575197e-001	 1.703022922937078e+000	 7.420945610470586e+000
 7.370037937802707e-001	 1.710477026439920e+000	 7.239479114774030e+000
 7.198983320637665e-001	 1.717746384513031e+000	 7.058765855604438e+000
 7.027549098147107e-001	 1.724830944393127e+000	 6.879657940748462e+000
 6.855763965411947e-001	 1.731730710733562e+000	 6.702987525333065e+000
 8.583067707736855e-001	 1.659980737784395e+000	 8.513560783568442e+000
 8.414918709775050e-001	 1.668567647310130e+000	 8.346156169693588e+000
 8.246185056065839e-001	 1.676970745952707e+000	 8.173917564433285e+000
 8.076895995750140e-001	 1.685189625325779e+000	 7.997792226092867e+000
 7.907080756571446e-001	 1.693223937243265e+000	 7.818716955179874e+000
 7.736768529883692e-001	 1.701073393392282e+000	 7.637616341734611e+000
 7.565988455841216e-001	 1.708737764962877e+000	 7.455401068926814e+000
 7.394769608784716e-001	 1.716216882235518e+000	 7.272966276049321e+000
 7.223140982836553e-001	 1.723510634127295e+000	 7.091189983807156e+000
 7.051131477718364e-001	 1.730618967697867e+000	 6.910931584571875e+000
 6.878769884803283e-001	 1.737541887616202e+000	 6.733030400028340e+000
 8.611773619824999e-001	 1.665532512831657e+000	 8.554082263955571e+000
 8.443062250641894e-001	 1.674148141118071e+000	 8.386301517020234e+000
 8.273764270339610e-001	 1.682579343769193e+000	 8.213547277955767e+000
 8.103909025882281e-001	 1.690825711032834e+000	 8.036774628189638e+000
 7.933525842765065e-001	 1.698886893558412e+000	 7.856928163156415e+000
 7.762644009971839e-001	 1.706762602068787e+000	 7.674940222872458e+000
 7.591292765115666e-001	 1.714452606988756e+000	 7.491729179238613e+000
 7.419501279775844e-001	 1.721956738031161e+000	 7.308197783230868e+000
 7.247298645045055e-001	 1.729274883741580e+000	 7.125231574909424e+000
 7.074713857299525e-001	 1.736406991002612e+000	 6.943697358941674e+000
 6.901775804204618e-001	 1.743353064498843e+000	 6.764441748091826e+000
 6.671716610641265e-001	 1.685241295672438e+000	 6.511081541137457e+000
 6.504229475877382e-001	 1.691776060600336e+000	 6.428609076911629e+000
 6.336456332590117e-001	 1.698131167319681e+000	 6.341324931256216e+000
 6.168424711540992e-001	 1.704306784517438e+000	 6.223515232540678e+000
 6.000161986791063e-001	 1.710303134328737e+000	 6.075028283497473e+000
 5.831695363473060e-001	 1.716120491646298e+000	 5.925106287438709e+000
 5.663051865852216e-001	 1.721759183398742e+000	 5.774862738326432e+000
 5.494258325683895e-001	 1.727219587799041e+000	 5.625355624140941e+000
 5.325341370875852e-001	 1.732502133564366e+000	 5.477585990196011e+000
 5.156327414462113e-001	 1.737607299108620e+000	 5.332496662244339e+000
 4.987242643895045e-001	 1.742535611708954e+000	 5.190971128960071e+000
 6.694722529952600e-001	 1.691052472555078e+000	 6.530424153198221e+000
 6.526657853341615e-001	 1.697609771154701e+000	 6.445563633862768e+000
 6.358306181972029e-001	 1.703986792034723e+000	 6.356247406931651e+000
 6.189695141539016e-001	 1.710183704463787e+000	 6.243817595881133e+000
 6.020852200496929e-001	 1.716200731343006e+000	 6.094446707953652e+000
 5.851804657789311e-001	 1.722038148513008e+000	 5.944207608374654e+000
 5.682579630868493e-001	 1.727696284029752e+000	 5.794231122181902e+000
 5.513204044013135e-001	 1.733175517410394e+000	 5.645591453978905e+000
 5.343704616951357e-001	 1.738476278850440e+000	 5.499304738577838e+000
 5.174107853796597e-001	 1.743599048413494e+000	 5.356327753714075e+000
 5.004440032302778e-001	 1.748544355194905e+000	 5.217556794400392e+000
 6.717728449273936e-001	 1.696863649437719e+000	 6.551080630175170e+000
 6.549086230815802e-001	 1.703443481709072e+000	 6.463794047832722e+000
 6.380156031363740e-001	 1.709842416749785e+000	 6.372406546074737e+000
 6.210965571546574e-001	 1.716060624410182e+000	 6.265173994363265e+000
 6.041542414211977e-001	 1.722098328357358e+000	 6.114828708879445e+000
 5.871913952114281e-001	 1.727955805379846e+000	 5.964183340919447e+000
 5.702107395892929e-001	 1.733633384660945e+000	 5.814386235551723e+000
 5.532149762349878e-001	 1.739131447021997e+000	 5.666527996587299e+000
 5.362067863033604e-001	 1.744450424136839e+000	 5.521640024377910e+000
 5.191888293136969e-001	 1.749590797718780e+000	 5.380693217983818e+000
 5.021637420715449e-001	 1.754553098681363e+000	 5.244596841258921e+000
 6.740734368605271e-001	 1.702674826320359e+000	 6.573057646719461e+000
 6.571514608299933e-001	 1.709277192263447e+000	 6.483306311501966e+000
 6.402005880765241e-001	 1.715698041464868e+000	 6.389807686700306e+000
 6.232236001563671e-001	 1.721937544356623e+000	 6.287600229328786e+000
 6.062232627936204e-001	 1.727995925371792e+000	 6.136188941581224e+000
 5.892023246447967e-001	 1.733873462246811e+000	 5.985047032678323e+000
 5.721635160925527e-001	 1.739570485292324e+000	 5.835340557447905e+000
 5.551095480694120e-001	 1.745087376633850e+000	 5.688176702222615e+000
 5.380431109122594e-001	 1.750424569423563e+000	 5.544602309620066e+000
 5.209668732483230e-001	 1.755582547024475e+000	 5.405602570009216e+000
 5.038834809133057e-001	 1.760561842168328e+000	 5.272099879184958e+000
 6.763740287946606e-001	 1.708486003203000e+000	 6.596361922219814e+000
 6.593942985794015e-001	 1.715110902817828e+000	 6.504106465826858e+000
 6.423855730176533e-001	 1.721553666179971e+000	 6.408456218339457e+000
 6.253506431590300e-001	 1.727814464303110e+000	 6.310023285499064e+000
 6.082922841669607e-001	 1.733893522386308e+000	 6.158542118471538e+000
 5.912132540790371e-001	 1.739791119113906e+000	 6.006812290713174e+000
 5.741162925966283e-001	 1.745507585923887e+000	 5.857106628394590e+000
 5.570041199045864e-001	 1.751043306245952e+000	 5.710549084414303e+000
 5.398794355218328e-001	 1.756398714710612e+000	 5.568202121070151e+000
 5.227449171835382e-001	 1.761574296330582e+000	 5.431065390665654e+000
 5.056032197555603e-001	 1.766570585655799e+000	 5.300074584634730e+000
 6.786746207297942e-001	 1.714297180085640e+000	 6.621000220044286e+000
 6.616371363298044e-001	 1.720944613372214e+000	 6.526200599221422e+000
 6.445705579597624e-001	 1.727409290895095e+000	 6.428357581167245e+000
 6.274776861626472e-001	 1.733691384249644e+000	 6.328093322532173e+000
 6.103613055412189e-001	 1.739791119400906e+000	 6.181903008101614e+000
 5.932241835141499e-001	 1.745708775981128e+000	 6.029492780535090e+000
 5.760690691015200e-001	 1.751444686555633e+000	 5.879697049385179e+000
 5.588986917405111e-001	 1.756999235858305e+000	 5.733656718892968e+000
 5.417157601320806e-001	 1.762372859997989e+000	 5.592450049138499e+000
 5.245229611193421e-001	 1.767566045637101e+000	 5.457091325630535e+000
 5.073229585983086e-001	 1.772579329143776e+000	 5.328529699739754e+000
 6.809752126659278e-001	 1.720108356968281e+000	 6.646979346797017e+000
 6.638799740812020e-001	 1.726778323926605e+000	 6.549594846756262e+000
 6.467555429028505e-001	 1.733264915610239e+000	 6.449517265146906e+000
 6.296047291672176e-001	 1.739568304196224e+000	 6.347378906910904e+000
 6.124303269163950e-001	 1.745688716415586e+000	 6.206286434212926e+000
 5.952351129501345e-001	 1.751626432848479e+000	 6.053102225116759e+000
 5.780218456072276e-001	 1.757381787187563e+000	 5.903124480861284e+000
 5.607932635771856e-001	 1.762955165470907e+000	 5.757511242539497e+000
 5.435520847430028e-001	 1.768347005285690e+000	 5.617356746805321e+000
 5.263010050557347e-001	 1.773557794944029e+000	 5.483690084289025e+000
 5.090426974415505e-001	 1.778588072632259e+000	 5.357474031197249e+000
 6.832758046030611e-001	 1.725919533850922e+000	 6.674306151590644e+000
 6.661228118335946e-001	 1.732612034481001e+000	 6.574295389372380e+000
 6.489405278469181e-001	 1.739120540325405e+000	 6.471940809191318e+000
 6.317317721727421e-001	 1.745445224142850e+000	 6.367884962027581e+000
 6.144993482924890e-001	 1.751586313430348e+000	 6.231707274807962e+000
 5.972460423869906e-001	 1.757544089715957e+000	 6.077654403925290e+000
 5.799746221137513e-001	 1.763318887819678e+000	 5.927401641711369e+000
 5.626878354146103e-001	 1.768911095083760e+000	 5.782124352355286e+000
 5.453884093545993e-001	 1.774321150573717e+000	 5.642932928566816e+000
 5.280790489927165e-001	 1.779549544251371e+000	 5.510871438661035e+000
 5.107624362852863e-001	 1.784596816121249e+000	 5.386916449183062e+000
 6.855763965411947e-001	 1.731730710733562e+000	 6.702987525333065e+000
 6.683656495869822e-001	 1.738445745035403e+000	 6.600308453112084e+000
 6.511255127919651e-001	 1.744976165040591e+000	 6.495633800342393e+000
 6.338588151792199e-001	 1.751322144089523e+000	 6.389616462152986e+000
 6.165683696695005e-001	 1.757483910445192e+000	 6.258180461239884e+000
 5.992569718247189e-001	 1.763461746583563e+000	 6.103163151974183e+000
 5.819273986210908e-001	 1.769255988451976e+000	 5.952541308290686e+000
 5.645824072527851e-001	 1.774867024696862e+000	 5.807507804453802e+000
 5.472247339668703e-001	 1.780295295862069e+000	 5.669189369403499e+000
 5.298570929302869e-001	 1.785541293559122e+000	 5.538645222350869e+000
 5.124821751295157e-001	 1.790605559610745e+000	 5.416865886286649e+000
 6.878769884803283e-001	 1.737541887616202e+000	 6.733030400028340e+000
 6.706084873413645e-001	 1.744279455589810e+000	 6.627640308364404e+000
 6.533104977379913e-001	 1.750831789755797e+000	 6.520601872965703e+000
 6.359858581866517e-001	 1.757199064036242e+000	 6.412578431585464e+000
 6.186373910474301e-001	 1.763381507460119e+000	 6.285720977320427e+000
 6.012679012633191e-001	 1.769379403451298e+000	 6.129642358894477e+000
 5.838801751292462e-001	 1.775193089084459e+000	 5.978556313460096e+000
 5.664769790917098e-001	 1.780822954310214e+000	 5.833673413072188e+000
 5.490610585798156e-001	 1.786269441150747e+000	 5.696136903768415e+000
 5.316351368684464e-001	 1.791533042867285e+000	 5.567021329517182e+000
 5.142019139742389e-001	 1.796614303100748e+000	 5.447331336467532e+000
 6.901775804204618e-001	 1.743353064498843e+000	 6.764441748091826e+000
 6.728513250967415e-001	 1.750113166144221e+000	 6.656297269126292e+000
 6.554954826849970e-001	 1.756687414471024e+000	 6.546850707961915e+000
 6.381129011950371e-001	 1.763075983983008e+000	 6.436775943816874e+000
 6.207064124262774e-001	 1.769279104475128e+000	 6.314343858445769e+000
 6.032788307027911e-001	 1.775297060319161e+000	 6.157105968024607e+000
 5.858329516382178e-001	 1.781130189717126e+000	 6.005459545644114e+000
 5.683715509313850e-001	 1.786778883923817e+000	 5.860633049602169e+000
 5.508973831934354e-001	 1.792243586439751e+000	 5.723786424595905e+000
 5.334131808071949e-001	 1.797524792175859e+000	 5.596009713863321e+000
 5.159216528194558e-001	 1.802623046591256e+000	 5.478321854032271e+000
 4.987242643895045e-001	 1.742535611708954e+000	 5.190971128960071e+000
 4.818113010665419e-001	 1.747287646647711e+000	 5.054230255677173e+000
 4.648964220243284e-001	 1.751864026330754e+000	 4.919553005183740e+000
 4.479821722354970e-001	 1.756265419383680e+000	 4.787682235495096e+000
 4.310710701606370e-001	 1.760492539727581e+000	 4.659300523214823e+000
 4.141656068444197e-001	 1.764546145635296e+000	 4.535029745137362e+000
 3.972682450462834e-001	 1.768427038769597e+000	 4.415430807199074e+000
 3.803814184059328e-001	 1.772136063204651e+000	 4.301003517747108e+000
 3.635075306438658e-001	 1.775674104432070e+000	 4.192186601784440e+000
 3.466489547970826e-001	 1.779042088352876e+000	 4.089357852541918e+000
 3.298080324900787e-001	 1.782240980256680e+000	 3.992834416454772e+000
 5.004440032302778e-001	 1.748544355194905e+000	 5.217556794400392e+000
 4.834727193448051e-001	 1.753312776460748e+000	 5.084120805679111e+000
 4.664995131341498e-001	 1.757904936763106e+000	 4.952835609205432e+000
 4.495269383467127e-001	 1.762321507033184e+000	 4.824456660633063e+000
 4.325575221274297e-001	 1.766563203653869e+000	 4.699678447814889e+000
 4.155937641107815e-001	 1.770630787512735e+000	 4.579134063297302e+000
 3.986381355484798e-001	 1.774525063036908e+000	 4.463394925858371e+000
 3.816930784720907e-001	 1.778246877211156e+000	 4.352970648035241e+000
 3.647610048908033e-001	 1.781797118580510e+000	 4.248309046264219e+000
 3.478442960245038e-001	 1.785176716238754e+000	 4.149796289952787e+000
 3.309453015722552e-001	 1.788386638804085e+000	 4.057757185521645e+000
 5.021637420715449e-001	 1.754553098681363e+000	 5.244596841258921e+000
 4.851341376234621e-001	 1.759337906274385e+000	 5.114367465598781e+000
 4.681026042442649e-001	 1.763945847196144e+000	 4.986382533530522e+000
 4.510717044581218e-001	 1.768377594683447e+000	 4.861410215916176e+000
 4.340439740943157e-001	 1.772633867580981e+000	 4.740157020120162e+000
 4.170219213771362e-001	 1.776715429391051e+000	 4.623267353383940e+000
 4.000080260505692e-001	 1.780623087305141e+000	 4.511323236956921e+000
 3.830047385380415e-001	 1.784357691218617e+000	 4.404844167900307e+000
 3.660144791374336e-001	 1.787920132729931e+000	 4.304287125159121e+000
 3.490396372515179e-001	 1.791311344125627e+000	 4.210046716184040e+000
 3.320825706539243e-001	 1.794532297352489e+000	 4.122455460102998e+000
 5.038834809133057e-001	 1.760561842168328e+000	 5.272099879184958e+000
 4.867955559025127e-001	 1.765363036088624e+000	 5.144978193104313e+000
 4.697056953546737e-001	 1.769986757629867e+000	 5.020201085663706e+000
 4.526164705697245e-001	 1.774433682334470e+000	 4.898549561207724e+000
 4.355304260612952e-001	 1.778704531508917e+000	 4.780742255556222e+000
 4.184500786434844e-001	 1.782800071270247e+000	 4.667434990246974e+000
 4.013779165525517e-001	 1.786721111574297e+000	 4.559220479261559e+000
 3.843163986037851e-001	 1.790468505227035e+000	 4.456628185128173e+000
 3.672679533837566e-001	 1.794043146880332e+000	 4.360124320959062e+000
 3.502349784781245e-001	 1.797445972013496e+000	 4.270111994671409e+000
 3.332198397350862e-001	 1.800677955901893e+000	 4.186931491354803e+000
 5.056032197555603e-001	 1.766570585655799e+000	 5.300074584634730e+000
 4.884569741819570e-001	 1.771388165903464e+000	 5.175961010400913e+000
 4.713087864653759e-001	 1.776027668064276e+000	 5.054298635647828e+000
 4.541612366815206e-001	 1.780489769986254e+000	 4.935881417181109e+000
 4.370168780283680e-001	 1.784775195437677e+000	 4.821440228900434e+000
 4.198782359098255e-001	 1.788884713150320e+000	 4.711642406895787e+000
 4.027478070544272e-001	 1.792819135844375e+000	 4.607091448774535e+000
 3.856280586693217e-001	 1.796579319236410e+000	 4.508326864080128e+000
 3.685214276297723e-001	 1.800166161031714e+000	 4.415824172330793e+000
 3.514303197043238e-001	 1.803580599902360e+000	 4.329995044890652e+000
 3.343571088157407e-001	 1.806823614452298e+000	 4.251187586593878e+000
 5.073229585983086e-001	 1.772579329143776e+000	 5.328529699739754e+000
 4.901183924617950e-001	 1.777413295718906e+000	 5.207324003136118e+000
 4.729118775763719e-001	 1.782068578499371e+000	 5.088682615002920e+000
 4.557060027935103e-001	 1.786545857638797e+000	 4.973412564288574e+000
 4.385033299955342e-001	 1.790845859367261e+000	 4.862257073274620e+000
 4.213063931761599e-001	 1.794969355031272e+000	 4.755895093514595e+000
 4.041176975561958e-001	 1.798917160115375e+000	 4.654940997763438e+000
 3.869397187346511e-001	 1.802690133246740e+000	 4.559944424733391e+000
 3.697749018754808e-001	 1.806289175184077e+000	 4.471390273166952e+000
 3.526256609301159e-001	 1.809715227792219e+000	 4.389698841407327e+000
 3.354943778958878e-001	 1.812969273003702e+000	 4.315226108345946e+000
 5.090426974415505e-001	 1.778588072632259e+000	 5.357474031197249e+000
 4.917798107420267e-001	 1.783438425534948e+000	 5.239075319328753e+000
 4.745149686876614e-001	 1.788109488935151e+000	 5.123360515688729e+000
 4.572507689056936e-001	 1.792601945292100e+000	 5.011149841751539e+000
 4.399897819627935e-001	 1.796916523297669e+000	 4.903198979160423e+000
 4.227345504424875e-001	 1.801053996913101e+000	 4.800198596495891e+000
 4.054875880578571e-001	 1.805015184387297e+000	 4.702774033811084e+000
 3.882513787997734e-001	 1.808800947258027e+000	 4.611485141742298e+000
 3.710283761208821e-001	 1.812412189337421e+000	 4.526826271651878e+000
 3.538210021555006e-001	 1.815849855683073e+000	 4.449226412946940e+000
 3.366316469755276e-001	 1.819114931556106e+000	 4.379049473413017e+000
 5.107624362852863e-001	 1.784596816121249e+000	 5.386916449183062e+000
 4.934412290226522e-001	 1.789463555351591e+000	 5.271223168318457e+000
 4.761180597992447e-001	 1.794150399371616e+000	 5.158339889086866e+000
 4.587955350180702e-001	 1.798658032946163e+000	 5.049100146571305e+000
 4.414762339301462e-001	 1.802987187228901e+000	 4.944272193433152e+000
 4.241627077088083e-001	 1.807138638795809e+000	 4.844558517494542e+000
 4.068574785594116e-001	 1.811113208660142e+000	 4.750595518883656e+000
 3.895630388646885e-001	 1.814911761270271e+000	 4.662953343517325e+000
 3.722818503659762e-001	 1.818535203491745e+000	 4.582135869348731e+000
 3.550163433804780e-001	 1.821984483574922e+000	 4.508580841482620e+000
 3.377689160546601e-001	 1.825260590109511e+000	 4.442660151959693e+000
 5.124821751295157e-001	 1.790605559610745e+000	 5.416865886286649e+000
 4.951026473036714e-001	 1.795488685168836e+000	 5.303775819737335e+000
 4.777211509111215e-001	 1.800191309808769e+000	 5.193628345003410e+000
 4.603403011306404e-001	 1.804714120600986e+000	 5.087270432559605e+000
 4.429626858975924e-001	 1.809057851160957e+000	 4.985483018415783e+000
 4.255908649751223e-001	 1.813223280679396e+000	 4.888980512500745e+000
 4.082273690608592e-001	 1.817211232933909e+000	 4.798410468418847e+000
 3.908746989293965e-001	 1.821022575283471e+000	 4.714353411323621e+000
 3.735353246107629e-001	 1.824658217647050e+000	 4.637322820303112e+000
 3.562116846050481e-001	 1.828119111467767e+000	 4.567765261341695e+000
 3.389061851332852e-001	 1.831406248663915e+000	 4.506060666617866e+000
 5.142019139742389e-001	 1.796614303100748e+000	 5.447331336467532e+000
 4.967640655850842e-001	 1.801513814986681e+000	 5.336741602501212e+000
 4.793242420232918e-001	 1.806232220246605e+000	 5.229233550692661e+000
 4.618850672434041e-001	 1.810770208256569e+000	 5.125667709388628e+000
 4.444491378651319e-001	 1.815128515093838e+000	 5.026837810951718e+000
 4.270190222414293e-001	 1.819307922563859e+000	 4.933470290930963e+000
 4.095972595621996e-001	 1.823309257208598e+000	 4.846223950431272e+000
 3.921863589938974e-001	 1.827133389297627e+000	 4.765689778396570e+000
 3.747887988552424e-001	 1.830781231803335e+000	 4.692390930165892e+000
 3.574070258292108e-001	 1.834253739361607e+000	 4.626782858330667e+000
 3.400434542114031e-001	 1.837551907219320e+000	 4.569253591609077e+000
 5.159216528194558e-001	 1.802623046591256e+000	 5.478321854032271e+000
 4.984254838668907e-001	 1.807538944805128e+000	 5.370128903821982e+000
 4.809273331357559e-001	 1.812273130685128e+000	 5.265163229899050e+000
 4.634298333563613e-001	 1.816826295912912e+000	 5.164299041659843e+000
 4.459355898327648e-001	 1.821199179027543e+000	 5.068342981496105e+000
 4.284471795077297e-001	 1.825392564449202e+000	 4.978033614737734e+000
 4.109671500634334e-001	 1.829407281484210e+000	 4.894041084636446e+000
 3.934980190581912e-001	 1.833244203312739e+000	 4.816966929076119e+000
 3.760422730994147e-001	 1.836904245960602e+000	 4.747344055333039e+000
 3.586023670529663e-001	 1.840388367256442e+000	 4.685636868876632e+000
 3.411807232890136e-001	 1.843697565775724e+000	 4.632241551885185e+000
 3.298080324900787e-001	 1.782240980256680e+000	 3.992834416454772e+000
 3.129870732412288e-001	 1.785271783789082e+000	 3.889817511282564e+000
 2.961883538044894e-001	 1.788135539909451e+000	 3.787554638225694e+000
 2.794141175462961e-001	 1.790833325839796e+000	 3.686228949261803e+000
 2.626665738577685e-001	 1.793366254005335e+000	 3.585969892424473e+000
 2.459478976019772e-001	 1.795735470968915e+000	 3.486853957627540e+000
 2.292602285961098e-001	 1.797942156360172e+000	 3.388905525504498e+000
 2.126056711283093e-001	 1.799987521800647e+000	 3.292097814258181e+000
 1.959862935089244e-001	 1.801872809826000e+000	 3.196353919402152e+000
 1.794041276558709e-001	 1.803599292806465e+000	 3.101547941186594e+000
 1.628611687137593e-001	 1.805168271866678e+000	 3.007506194426660e+000
 3.309453015722552e-001	 1.788386638804085e+000	 4.057757185521645e+000
 3.140663390162136e-001	 1.791427893382986e+000	 3.958463594326850e+000
 2.972096929611374e-001	 1.794301524524382e+000	 3.858832688372021e+000
 2.803776145092098e-001	 1.797008613164839e+000	 3.759053019914861e+000
 2.635723206701419e-001	 1.799550275565525e+000	 3.659259853264471e+000
 2.467959938065335e-001	 1.801927662242948e+000	 3.559535893509947e+000
 2.300507811142536e-001	 1.804141956894434e+000	 3.459912118753517e+000
 2.133387941376124e-001	 1.806194375319529e+000	 3.360368710842467e+000
 1.966621083190649e-001	 1.808086164338494e+000	 3.260836079485712e+000
 1.800227625831418e-001	 1.809818600709051e+000	 3.161195974540942e+000
 1.634227589542639e-001	 1.811392990042468e+000	 3.061282681191801e+000
 3.320825706539243e-001	 1.794532297352489e+000	 4.122455460102998e+000
 3.151456047906014e-001	 1.797584002977885e+000	 4.026694137358962e+000
 2.982310321171198e-001	 1.800467509140293e+000	 3.929520582893311e+000
 2.813411114714097e-001	 1.803183900490837e+000	 3.831128755358850e+000
 2.644780674817736e-001	 1.805734297126632e+000	 3.731659727754667e+000
 2.476440900103404e-001	 1.808119853517853e+000	 3.631202399293821e+000
 2.308413336316602e-001	 1.810341757429512e+000	 3.529794311279245e+000
 2.140719171462105e-001	 1.812401228839159e+000	 3.427422561982241e+000
 1.973379231285521e-001	 1.814299518851662e+000	 3.324024815407847e+000
 1.806413975098304e-001	 1.816037908612224e+000	 3.219490398732867e+000
 1.639843491942767e-001	 1.817617708218751e+000	 3.113661483128649e+000
 3.332198397350862e-001	 1.800677955901893e+000	 4.186931491354803e+000
 3.162248705643924e-001	 1.803740112573779e+000	 4.094512442865738e+000
 2.992523712724363e-001	 1.806633493757183e+000	 3.999622589280401e+000
 2.823046084328955e-001	 1.809359187817787e+000	 3.902461302419268e+000
 2.653838142926634e-001	 1.811918318688656e+000	 3.803175457067602e+000
 2.484921862133978e-001	 1.814312044793629e+000	 3.701860126217063e+000
 2.316318861483295e-001	 1.816541557965404e+000	 3.598559380832577e+000
 2.148050401541035e-001	 1.818608082359537e+000	 3.493267189139146e+000
 1.980137379373860e-001	 1.820512873365503e+000	 3.385928410311697e+000
 1.812600324359369e-001	 1.822257216515984e+000	 3.276439877349124e+000
 1.645459394337978e-001	 1.823842426395524e+000	 3.164651563841964e+000
 3.343571088157407e-001	 1.806823614452298e+000	 4.251187586593878e+000
 3.173041363375865e-001	 1.809896222170668e+000	 4.161921847336125e+000
 3.002737104270871e-001	 1.812799478375051e+000	 4.069142988401909e+000
 2.832681053936673e-001	 1.815534475145691e+000	 3.973055802202922e+000
 2.662895611028113e-001	 1.818102340251598e+000	 3.873812959082948e+000
 2.493402824157055e-001	 1.820504236070275e+000	 3.771515686165983e+000
 2.324224386642617e-001	 1.822741358502111e+000	 3.666214551261503e+000
 2.155381631612914e-001	 1.824814935880665e+000	 3.557910346821324e+000
 1.986895527455665e-001	 1.826726227880015e+000	 3.446555068826065e+000
 1.818786673614614e-001	 1.828476524420331e+000	 3.332052985382612e+000
 1.651075296728272e-001	 1.830067144572789e+000	 3.214261789732155e+000
 3.354943778958878e-001	 1.812969273003702e+000	 4.315226108345946e+000
 3.183834021101837e-001	 1.816052331768551e+000	 4.228925720685457e+000
 3.012950495810722e-001	 1.818965462993900e+000	 4.138086074277119e+000
 2.842316023537252e-001	 1.821709762474548e+000	 4.042917390194782e+000
 2.671953079122174e-001	 1.824286361815457e+000	 3.943578128782478e+000
 2.501883786172638e-001	 1.826696427347792e+000	 3.840175652342777e+000
 2.332129911794566e-001	 1.828941159039632e+000	 3.732766993426326e+000
 2.162712861677742e-001	 1.831021789402540e+000	 3.621359723718402e+000
 1.993653675530937e-001	 1.832939582395201e+000	 3.505912918396267e+000
 1.824973022864036e-001	 1.834695832325264e+000	 3.386338210733277e+000
 1.656691199113649e-001	 1.836291862750546e+000	 3.262500931643498e+000
 3.366316469755276e-001	 1.819114931556106e+000	 4.379049473413017e+000
 3.194626678821841e-001	 1.822208441367429e+000	 4.295527465690390e+000
 3.023163887343917e-001	 1.825131447613728e+000	 4.206456153854660e+000
 2.851950993130691e-001	 1.827885049804358e+000	 4.112051196353254e+000
 2.681010547208816e-001	 1.830470383380232e+000	 4.012476838637038e+000
 2.510364748180725e-001	 1.832888618626180e+000	 3.907846559918775e+000
 2.340035436939144e-001	 1.835140959577968e+000	 3.798223826093484e+000
 2.170044091735519e-001	 1.837228642925165e+000	 3.683622943813556e+000
 2.000411823599675e-001	 1.839152936911058e+000	 3.564010010588545e+000
 1.831159372107638e-001	 1.840915140230785e+000	 3.439303955679633e+000
 1.662307101494109e-001	 1.842516580928795e+000	 3.309377666477336e+000
 3.377689160546601e-001	 1.825260590109511e+000	 4.442660151959693e+000
 3.205419336535875e-001	 1.828364550967302e+000	 4.361730517435877e+000
 3.033377278870454e-001	 1.831297432234534e+000	 4.274257546793859e+000
 2.861585962716989e-001	 1.834060337135121e+000	 4.180462345203101e+000
 2.690068015288040e-001	 1.836654404945924e+000	 4.080514938985296e+000
 2.518845710181316e-001	 1.839080809905439e+000	 3.974534906674740e+000
 2.347940962076348e-001	 1.841340760117119e+000	 3.862592116813370e+000
 2.177375321786245e-001	 1.843435496448537e+000	 3.744707567472397e+000
 2.007169971661881e-001	 1.845366291427589e+000	 3.620854322366311e+000
 1.837345721345418e-001	 1.847134448136893e+000	 3.490958538320583e+000
 1.667923003869652e-001	 1.848741299107535e+000	 3.354900578774561e+000
 3.389061851332852e-001	 1.831406248663915e+000	 4.506060666617866e+000
 3.216211994243939e-001	 1.834520660568170e+000	 4.427538342773084e+000
 3.043590670390334e-001	 1.837463416856319e+000	 4.341494585252387e+000
 2.871220932296149e-001	 1.840235624466838e+000	 4.248155955926194e+000
 2.699125483359845e-001	 1.842838426512534e+000	 4.147698258404952e+000
 2.527326672174412e-001	 1.845273001185569e+000	 4.040247153627970e+000
 2.355846487206180e-001	 1.847540560657084e+000	 3.925878882778858e+000
 2.184706551829921e-001	 1.849642349972658e+000	 3.804621092510752e+000
 2.013928119717553e-001	 1.851579645944792e+000	 3.676453757343231e+000
 1.843532070577376e-001	 1.853353756043586e+000	 3.541310193986907e+000
 1.673538906240278e-001	 1.854966017286767e+000	 3.399078162264577e+000
 3.400434542114031e-001	 1.837551907219320e+000	 4.569253591609077e+000
 3.227004651946037e-001	 1.840676770170032e+000	 4.492954439788171e+000
 3.053804061903556e-001	 1.843629401479084e+000	 4.408171613676379e+000
 2.880855901868168e-001	 1.846410911799508e+000	 4.315137142451784e+000
 2.708182951424231e-001	 1.849022448080061e+000	 4.214032604076964e+000
 2.535807634160012e-001	 1.851465192466570e+000	 4.104989725647467e+000
 2.363752012328640e-001	 1.853740361197864e+000	 3.988091091668431e+000
 2.192037781866545e-001	 1.855849203497528e+000	 3.863370955240251e+000
 2.020686267766692e-001	 1.857793000462667e+000	 3.730816147008821e+000
 1.849718419803514e-001	 1.859573063950869e+000	 3.590367076626095e+000
 1.679154808605986e-001	 1.861190735466491e+000	 3.441918821384156e+000
 3.411807232890136e-001	 1.843697565775724e+000	 4.632241551885185e+000
 3.237797309642165e-001	 1.846832879772890e+000	 4.557982337281526e+000
 3.064017453410122e-001	 1.849795386102828e+000	 4.474292988596375e+000
 2.890490871433049e-001	 1.852586199133131e+000	 4.381411013542905e+000
 2.717240419481199e-001	 1.855206469648505e+000	 4.279523762141992e+000
 2.544288596138117e-001	 1.857657383748441e+000	 4.168769012056361e+000
 2.371657537443729e-001	 1.859940161739458e+000	 4.049235662470577e+000
 2.199369011896119e-001	 1.862056057023146e+000	 3.920964531493989e+000
 2.027444415809298e-001	 1.864006354981215e+000	 3.783949251930824e+000
 1.855904769023830e-001	 1.865792371858737e+000	 3.638137260158799e+000
 1.684770710966778e-001	 1.867415453646706e+000	 3.483430872765774e+000
 1.628611687137593e-001	 1.805168271866678e+000	 3.007506194426660e+000
 1.463593747055162e-001	 1.806581075806160e+000	 2.934380020039401e+000
 1.299006662188062e-001	 1.807839060020853e+000	 2.866643387195907e+000
 1.134869261249766e-001	 1.808943605427183e+000	 2.804042673630382e+000
 9.711999932826329e-002	 1.809896117390116e+000	 2.746275781063350e+000
 8.080169254746554e-002	 1.810698024655467e+000	 2.692993778169127e+000
 6.453377412865748e-002	 1.811350778287644e+000	 2.643802598384749e+000
 4.831797388837301e-002	 1.811855850613720e+000	 2.598264786989780e+000
 3.215598298668575e-002	 1.812214734174718e+000	 2.555901291940240e+000
 1.604945382958228e-002	 1.812428940684913e+000	 2.516193293023793e+000
 0.000000000000000e+000	 1.812500000000000e+000	 2.478584063991344e+000
 1.634227589542639e-001	 1.811392990042468e+000	 3.061282681191801e+000
 1.468640622072808e-001	 1.812810665720263e+000	 2.983382162875634e+000
 1.303485995526915e-001	 1.814072987812082e+000	 2.910794637391573e+000
 1.138782603545023e-001	 1.815181341996137e+000	 2.843270429942480e+000
 9.745489587868662e-002	 1.816137138483478e+000	 2.780510947985669e+000
 8.108031907410790e-002	 1.816941810946630e+000	 2.722170332976991e+000
 6.475630438458438e-002	 1.817596815453673e+000	 2.667857167670574e+000
 4.848458759153360e-002	 1.818103629408671e+000	 2.617136233343620e+000
 3.226686568661470e-002	 1.818463750499339e+000	 2.569530311386415e+000
 1.610479677376500e-002	 1.818678695652763e+000	 2.524522023772825e+000
 0.000000000000000e+000	 1.818750000000000e+000	 2.481555707019961e+000
 1.639843491942767e-001	 1.817617708218751e+000	 3.113661483128649e+000
 1.473687497086485e-001	 1.819040255634762e+000	 3.031029492231320e+000
 1.307965328862643e-001	 1.820306915603624e+000	 2.953643112033957e+000
 1.142695945837894e-001	 1.821419078565330e+000	 2.881256539331242e+000
 9.778979242893536e-002	 1.822378159577015e+000	 2.813574603636538e+000
 8.135894560062942e-002	 1.823185597237914e+000	 2.750254427955673e+000
 6.497883464043421e-002	 1.823842852619779e+000	 2.690907145825662e+000
 4.865120129465099e-002	 1.824351408203665e+000	 2.635099668945926e+000
 3.237774838652453e-002	 1.824712766823979e+000	 2.582356499785146e+000
 1.616013971794295e-002	 1.824928450620616e+000	 2.532161583634697e+000
 0.000000000000000e+000	 1.825000000000000e+000	 2.483960194662640e+000
 1.645459394337978e-001	 1.823842426395524e+000	 3.164651563841964e+000
 1.478734372096192e-001	 1.825269845549658e+000	 3.077330465846851e+000
 1.312444662195245e-001	 1.826540843395479e+000	 2.995196753249569e+000
 1.146609288128381e-001	 1.827656815134760e+000	 2.918008418982210e+000
 9.812468897900942e-002	 1.828619180670725e+000	 2.845473631344252e+000
 8.163757212703010e-002	 1.829429383529319e+000	 2.777252404051031e+000
 6.520136489620695e-002	 1.830088889785963e+000	 2.712958323268555e+000
 4.881781499772516e-002	 1.830599186998702e+000	 2.652160325906066e+000
 3.248863108641521e-002	 1.830961783148639e+000	 2.594384523504190e+000
 1.621548266211613e-002	 1.831178205588475e+000	 2.539116066136074e+000
 0.000000000000000e+000	 1.831250000000000e+000	 2.485801040826723e+000
 1.651075296728272e-001	 1.830067144572789e+000	 3.214261789732155e+000
 1.483781247101929e-001	 1.831499435464951e+000	 3.122293446989671e+000
 1.316923995524721e-001	 1.832774771187647e+000	 3.035463411930626e+000
 1.150522630416482e-001	 1.833894551704430e+000	 2.953533398588760e+000
 9.845958552890888e-002	 1.834860201764611e+000	 2.876214831181062e+000
 8.191619865330990e-002	 1.835673169820845e+000	 2.803170523680250e+000
 6.542389515190263e-002	 1.836334926952223e+000	 2.734016417097475e+000
 4.898442870075615e-002	 1.836846965793783e+000	 2.668323368696435e+000
 3.259951378628678e-002	 1.837210799473318e+000	 2.605618987425249e+000
 1.627082560628455e-002	 1.837427960556339e+000	 2.545389509930191e+000
 0.000000000000000e+000	 1.837500000000000e+000	 2.487081711611494e+000
 1.656691199113649e-001	 1.836291862750546e+000	 3.262500931643498e+000
 1.488828122103697e-001	 1.837729025380641e+000	 3.165926706054463e+000
 1.321403328851071e-001	 1.839008698980127e+000	 3.074450849281544e+000
 1.154435972702197e-001	 1.840132288274338e+000	 2.987838721834855e+000
 9.879448207863367e-002	 1.841101222858671e+000	 2.905804921375928e+000
 8.219482517946888e-002	 1.841916956112492e+000	 2.828014972062477e+000
 6.564642540752125e-002	 1.842580964118561e+000	 2.754087072332731e+000
 4.915104240374393e-002	 1.843094744588906e+000	 2.683593895299412e+000
 3.271039648613919e-002	 1.843459815798015e+000	 2.616064435986997e+000
 1.632616855044820e-002	 1.843677715524207e+000	 2.550985899727026e+000
 0.000000000000000e+000	 1.843750000000000e+000	 2.487805626118123e+000
 1.662307101494109e-001	 1.842516580928795e+000	 3.309377666477336e+000
 1.493874997101496e-001	 1.843958615296728e+000	 3.208238422133318e+000
 1.325882662174295e-001	 1.845242626772919e+000	 3.112166738334480e+000
 1.158349314985529e-001	 1.846370024844485e+000	 3.020931547847618e+000
 9.912937862818387e-002	 1.847342243952906e+000	 2.934250539695800e+000
 8.247345170550699e-002	 1.848160742404259e+000	 2.851791858523245e+000
 6.586895566306278e-002	 1.848827001284976e+000	 2.773175863134959e+000
 4.931765610668853e-002	 1.849342523384073e+000	 2.697976938329477e+000
 3.282127918597249e-002	 1.849708832122732e+000	 2.625725354205564e+000
 1.638151149460709e-002	 1.849927470492081e+000	 2.555909167204371e+000
 0.000000000000000e+000	 1.850000000000000e+000	 2.487976157243674e+000
 1.667923003869652e-001	 1.848741299107535e+000	 3.354900578774561e+000
 1.498921872095325e-001	 1.850188205213212e+000	 3.249236684551457e+000
 1.330361995494393e-001	 1.851476554566025e+000	 3.148618665432811e+000
 1.162262657266474e-001	 1.852607761414870e+000	 3.052818952621230e+000
 9.946427517755944e-002	 1.853583265047315e+000	 2.961558244801088e+000
 8.275207823142428e-002	 1.854404528696147e+000	 2.874507217771883e+000
 6.609148591852722e-002	 1.855073038451467e+000	 2.791288293997003e+000
 4.948426980958992e-002	 1.855590302179283e+000	 2.711477466134472e+000
 3.293216188578665e-002	 1.855957848447468e+000	 2.634606168675407e+000
 1.643685443876121e-002	 1.856177225459958e+000	 2.560163191900420e+000
 0.000000000000000e+000	 1.856250000000000e+000	 2.487596632459055e+000
 1.673538906240278e-001	 1.854966017286767e+000	 3.399078162264577e+000
 1.503968747085185e-001	 1.856417795130093e+000	 3.288929494374425e+000
 1.334841328811365e-001	 1.857710482359443e+000	 3.183814131686364e+000
 1.166175999545035e-001	 1.858845497985493e+000	 3.083507930411373e+000
 9.979917172676035e-002	 1.859824286141899e+000	 2.987734517572327e+000
 8.303070475722069e-002	 1.860648314988156e+000	 2.896167011153556e+000
 6.631401617391461e-002	 1.861319075618036e+000	 2.808429800914057e+000
 4.965088351244810e-002	 1.861838080974536e+000	 2.724100383873942e+000
 3.304304458558170e-002	 1.862206864772224e+000	 2.642711248548901e+000
 1.649219738291056e-002	 1.862426980427841e+000	 2.563751802089219e+000
 0.000000000000000e+000	 1.862500000000000e+000	 2.486670334571166e+000
 1.679154808605986e-001	 1.861190735466491e+000	 3.441918821384156e+000
 1.509015622071074e-001	 1.862647385047371e+000	 3.327324765883441e+000
 1.339320662125212e-001	 1.863944410153173e+000	 3.217760554396406e+000
 1.170089341821210e-001	 1.865083234556356e+000	 3.113005395102551e+000
 1.001340682757867e-001	 1.866065307236659e+000	 3.012785762411121e+000
 8.330933128289625e-002	 1.866892101280286e+000	 2.916777127876075e+000
 6.653654642922492e-002	 1.867565112784682e+000	 2.824605752527670e+000
 4.981749721526308e-002	 1.868085859769833e+000	 2.735850534574660e+000
 3.315392728535758e-002	 1.868455881096998e+000	 2.650044906497616e+000
 1.654754032705515e-002	 1.868676735395728e+000	 2.566678775636736e+000
 0.000000000000000e+000	 1.868750000000000e+000	 2.485200502469712e+000
 1.684770710966778e-001	 1.867415453646706e+000	 3.483430872765774e+000
 1.514062497052995e-001	 1.868876974965046e+000	 3.364430328021677e+000
 1.343799995435933e-001	 1.870178337947217e+000	 3.250465268452476e+000
 1.174002684095001e-001	 1.871320971127456e+000	 3.141318181547451e+000
 1.004689648246383e-001	 1.872306328331592e+000	 3.036718308514671e+000
 8.358795780845098e-002	 1.873135887572538e+000	 2.936343386212196e+000
 6.675907668445817e-002	 1.873811149951406e+000	 2.839821451249981e+000
 4.998411091803487e-002	 1.874333638565173e+000	 2.746732700167911e+000
 3.326480998511436e-002	 1.874704897421792e+000	 2.656611399652870e+000
 1.660288327119498e-002	 1.874926490363621e+000	 2.568947840842505e+000
 0.000000000000000e+000	 1.875000000000000e+000	 2.483190331859265e+000
 1.875000000000000e+000	 0.000000000000000e+000	 1.259257075178065e+001
 1.874926490363621e+000	 1.660288327119504e-002	 1.262581047429303e+001
 1.874704897421792e+000	 3.326480998511448e-002	 1.265508701918653e+001
 1.874333638565173e+000	 4.998411091803475e-002	 1.268066500719893e+001
 1.873811149951406e+000	 6.675907668445812e-002	 1.270283107006433e+001
 1.873135887572537e+000	 8.358795780845098e-002	 1.272189398595770e+001
 1.872306328331592e+000	 1.004689648246384e-001	 1.273818477447816e+001
 1.871320971127456e+000	 1.174002684095002e-001	 1.275205674948090e+001
 1.870178337947216e+000	 1.343799995435931e-001	 1.276388552811227e+001
 1.868876974965046e+000	 1.514062497052994e-001	 1.277406899445472e+001
 1.867415453646707e+000	 1.684770710966778e-001	 1.278302721624614e+001
 1.881250000000000e+000	 0.000000000000000e+000	 1.258246518758272e+001
 1.881176245331515e+000	 1.665822621533248e-002	 1.261253757552833e+001
 1.880953913746595e+000	 3.337569268486168e-002	 1.263948753983942e+001
 1.880581417360534e+000	 5.015072462078494e-002	 1.266384444177191e+001
 1.880057187118167e+000	 6.698160693965281e-002	 1.268614357711205e+001
 1.879379673864849e+000	 8.386658433394527e-002	 1.270692605652031e+001
 1.878547349426612e+000	 1.008038613734027e-001	 1.272673868774223e+001
 1.877558707698676e+000	 1.177916026367600e-001	 1.274613385985511e+001
 1.876412265741416e+000	 1.348279328745089e-001	 1.276566942969724e+001
 1.875106564882920e+000	 1.519109372032929e-001	 1.278590861060234e+001
 1.873640171827168e+000	 1.690386613325111e-001	 1.279967238171928e+001
 1.887500000000000e+000	 0.000000000000000e+000	 1.257363462447373e+001
 1.887426000299410e+000	 1.671356915946992e-002	 1.260037716303810e+001
 1.887202930071398e+000	 3.348657538460888e-002	 1.262451526497667e+001
 1.886829196155895e+000	 5.031733832353513e-002	 1.264657669949333e+001
 1.886303224284929e+000	 6.720413719484751e-002	 1.266709465800243e+001
 1.885623460157160e+000	 8.414521085943956e-002	 1.268660762700577e+001
 1.884788370521634e+000	 1.011387579221671e-001	 1.270565926336368e+001
 1.883796444269896e+000	 1.181829368640198e-001	 1.272479827215462e+001
 1.882646193535615e+000	 1.352758662054247e-001	 1.274457828729471e+001
 1.881336154800792e+000	 1.524156247012865e-001	 1.276555775506454e+001
 1.879864890007629e+000	 1.696002515683444e-001	 1.278829982066322e+001
 1.893750000000000e+000	 0.000000000000000e+000	 1.256606086035995e+001
 1.893675755267305e+000	 1.676891210360736e-002	 1.258937971234814e+001
 1.893451946396200e+000	 3.359745808435608e-002	 1.261060913703279e+001
 1.893076974951256e+000	 5.048395202628530e-002	 1.263027528862993e+001
 1.892549261451690e+000	 6.742666745004222e-002	 1.264890923203316e+001
 1.891867246449472e+000	 8.442383738493386e-002	 1.266704680827725e+001
 1.891029391616654e+000	 1.014736544709314e-001	 1.268522850292435e+001
 1.890034180841116e+000	 1.185742710912795e-001	 1.270399931759259e+001
 1.888880121329814e+000	 1.357237995363405e-001	 1.272390864482345e+001
 1.887565744718666e+000	 1.529203121992800e-001	 1.274551014645955e+001
 1.886089608188091e+000	 1.701618418041777e-001	 1.276936163567672e+001
 1.900000000000000e+000	 0.000000000000000e+000	 1.255972593264883e+001
 1.899925510235199e+000	 1.682425504774480e-002	 1.257952865410066e+001
 1.899700962721004e+000	 3.370834078410329e-002	 1.259775401814854e+001
 1.899324753746618e+000	 5.065056572903549e-002	 1.261492654087250e+001
 1.898795298618452e+000	 6.764919770523693e-002	 1.263157513825858e+001
 1.898111032741782e+000	 8.470246391042814e-002	 1.264823298430219e+001
 1.897270412711675e+000	 1.018085510196958e-001	 1.266543737256399e+001
 1.896271917412336e+000	 1.189656053185393e-001	 1.268372958142335e+001
 1.895114049124014e+000	 1.361717328672562e-001	 1.270365474325101e+001
 1.893795334636539e+000	 1.534249996972736e-001	 1.272576171769622e+001
 1.892314326368553e+000	 1.707234320400111e-001	 1.275060296925660e+001
 1.906250000000000e+000	 0.000000000000000e+000	 1.255461211432282e+001
 1.906175265203094e+000	 1.687959799188225e-002	 1.257080764106584e+001
 1.905949979045807e+000	 3.381922348385049e-002	 1.258593497869194e+001
 1.905572532541979e+000	 5.081717943178567e-002	 1.260051698178509e+001
 1.905041335785213e+000	 6.787172796043164e-002	 1.261508039479962e+001
 1.904354819034094e+000	 8.498109043592245e-002	 1.263015570285606e+001
 1.903511433806695e+000	 1.021434475684601e-001	 1.264627698652088e+001
 1.902509653983556e+000	 1.193569395457991e-001	 1.266398178084089e+001
 1.901347976918213e+000	 1.366196661981720e-001	 1.268381093887772e+001
 1.900024924554412e+000	 1.539296871952672e-001	 1.270630849996311e+001
 1.898539044549014e+000	 1.712850222758444e-001	 1.273202156286600e+001
 1.912500000000000e+000	 0.000000000000000e+000	 1.255070191009008e+001
 1.912425020170989e+000	 1.693494093601968e-002	 1.256320054451217e+001
 1.912198995370610e+000	 3.393010618359769e-002	 1.257513729385579e+001
 1.911820311337340e+000	 5.098379313453585e-002	 1.258703332763723e+001
 1.911287372951975e+000	 6.809425821562634e-002	 1.259941319591804e+001
 1.910598605326405e+000	 8.525971696141671e-002	 1.261280467284576e+001
 1.909752454901716e+000	 1.024783441172245e-001	 1.262773860471207e+001
 1.908747390554775e+000	 1.197482737730588e-001	 1.264474876282289e+001
 1.907581904712412e+000	 1.370675995290877e-001	 1.266437170145209e+001
 1.906254514472286e+000	 1.544343746932607e-001	 1.268714662112276e+001
 1.904763762729475e+000	 1.718466125116777e-001	 1.271361523743113e+001
 1.918750000000000e+000	 0.000000000000000e+000	 1.254797805261045e+001
 1.918674775138883e+000	 1.699028388015713e-002	 1.255669145064799e+001
 1.918448011695413e+000	 3.404098888334491e-002	 1.256534644032190e+001
 1.918068090132701e+000	 5.115040683728604e-002	 1.257446248229792e+001
 1.917533410118737e+000	 6.831678847082104e-002	 1.258456190914737e+001
 1.916842391618716e+000	 8.553834348691101e-002	 1.259616976168536e+001
 1.915993475996737e+000	 1.028132406659888e-001	 1.260981363036063e+001
 1.914985127125995e+000	 1.201396080003187e-001	 1.262602350201708e+001
 1.913815832506612e+000	 1.375155328600035e-001	 1.264533161232319e+001
 1.912484104390159e+000	 1.549390621912542e-001	 1.266827230413714e+001
 1.910988480909936e+000	 1.724082027475110e-001	 1.269538189204698e+001
 1.925000000000000e+000	 0.000000000000000e+000	 1.254642349879498e+001
 1.924924530106778e+000	 1.704562682429457e-002	 1.255126465713196e+001
 1.924697028020216e+000	 3.415187158309211e-002	 1.255654809298997e+001
 1.924315868928062e+000	 5.131702054003622e-002	 1.256279153419020e+001
 1.923779447285498e+000	 6.853931872601574e-002	 1.257051507248041e+001
 1.923086177911028e+000	 8.581697001240532e-002	 1.258024099272287e+001
 1.922234497091758e+000	 1.031481372147531e-001	 1.259249360766923e+001
 1.921222863697215e+000	 1.205309422275784e-001	 1.260779909866861e+001
 1.920049760300811e+000	 1.379634661909193e-001	 1.262668536262889e+001
 1.918713694308033e+000	 1.554437496892478e-001	 1.264968186552381e+001
 1.917213199090397e+000	 1.729697929833443e-001	 1.267731950270843e+001
 1.931250000000000e+000	 0.000000000000000e+000	 1.254602142617718e+001
 1.931174285074672e+000	 1.710096976843201e-002	 1.254690466965180e+001
 1.930946044345019e+000	 3.426275428283931e-002	 1.254872812177039e+001
 1.930563647723424e+000	 5.148363424278640e-002	 1.255200775330478e+001
 1.930025484452260e+000	 6.876184898121046e-002	 1.255726139161076e+001
 1.929329964203339e+000	 8.609559653789961e-002	 1.256500854271712e+001
 1.928475518186779e+000	 1.034830337635175e-001	 1.257577021953911e+001
 1.927460600268435e+000	 1.209222764548382e-001	 1.259006877658779e+001
 1.926283688095011e+000	 1.384113995218350e-001	 1.260842775151938e+001
 1.924943284225906e+000	 1.559484371872413e-001	 1.263137171384214e+001
 1.923437917270859e+000	 1.735313832191777e-001	 1.265942612106584e+001
 1.937500000000000e+000	 0.000000000000000e+000	 1.254675522935469e+001
 1.937424040042567e+000	 1.715631271256945e-002	 1.254359619856886e+001
 1.937195060669823e+000	 3.437363698258651e-002	 1.254187258843875e+001
 1.936811426518786e+000	 5.165024794553660e-002	 1.254209858827163e+001
 1.936271521619021e+000	 6.898437923640516e-002	 1.254478973722802e+001
 1.935573750495650e+000	 8.637422306339389e-002	 1.255046273936325e+001
 1.934716539281800e+000	 1.038179303122819e-001	 1.255963528533277e+001
 1.933698336839655e+000	 1.213136106820980e-001	 1.257282588115697e+001
 1.932517615889210e+000	 1.388593328527508e-001	 1.259055368441504e+001
 1.931172874143779e+000	 1.564531246852349e-001	 1.261333834820868e+001
 1.929662635451320e+000	 1.740929734550110e-001	 1.264169987320484e+001
 1.867415453646707e+000	 1.684770710966778e-001	 1.278302721624614e+001
 1.865792371858737e+000	 1.855904769023831e-001	 1.279217769669574e+001
 1.864006354981215e+000	 2.027444415809299e-001	 1.280255524283683e+001
 1.862056057023145e+000	 2.199369011896118e-001	 1.281436771175503e+001
 1.859940161739458e+000	 2.371657537443727e-001	 1.282783742770908e+001
 1.857657383748441e+000	 2.544288596138117e-001	 1.284320096498071e+001
 1.855206469648505e+000	 2.717240419481200e-001	 1.286070888739816e+001
 1.852586199133131e+000	 2.890490871433050e-001	 1.288062544371739e+001
 1.849795386102828e+000	 3.064017453410121e-001	 1.290322821814291e+001
 1.846832879772890e+000	 3.237797309642164e-001	 1.292880773537544e+001
 1.843697565775724e+000	 3.411807232890136e-001	 1.295766701968376e+001
 1.873640171827168e+000	 1.690386613325111e-001	 1.279967238171928e+001
 1.872011679766896e+000	 1.862091118241236e-001	 1.280934734079401e+001
 1.870219709500090e+000	 2.034202563848638e-001	 1.281969721537053e+001
 1.868262910549116e+000	 2.206700241922166e-001	 1.283094233697628e+001
 1.866139962281421e+000	 2.379563062555129e-001	 1.284331833635205e+001
 1.863849575030688e+000	 2.552769558112474e-001	 1.285707592843331e+001
 1.861390491217320e+000	 2.726297887534459e-001	 1.287248065283946e+001
 1.858761486467111e+000	 2.900125840994360e-001	 1.288981256902112e+001
 1.855961370726905e+000	 3.074230844913358e-001	 1.290936590531573e+001
 1.852988989376046e+000	 3.248589967335306e-001	 1.293144866126825e+001
 1.849843224332382e+000	 3.423179923663703e-001	 1.295638216268679e+001
 1.879864890007629e+000	 1.696002515683444e-001	 1.278829982066322e+001
 1.878230987675051e+000	 1.868277467458642e-001	 1.280645751121343e+001
 1.876433064018946e+000	 2.040960711887978e-001	 1.282721649793551e+001
 1.874469764075043e+000	 2.214031471948214e-001	 1.284727787548214e+001
 1.872339762823306e+000	 2.387468587666531e-001	 1.285868966932132e+001
 1.870041766312813e+000	 2.561250520086832e-001	 1.287097322291305e+001
 1.867574512785959e+000	 2.735355355587716e-001	 1.288440906166673e+001
 1.864936773800852e+000	 2.909760810555671e-001	 1.289929306559782e+001
 1.862127355350668e+000	 3.084444236416596e-001	 1.291593611688205e+001
 1.859145098978803e+000	 3.259382625028450e-001	 1.293466369941123e+001
 1.855988882888548e+000	 3.434552614437272e-001	 1.295581544979175e+001
 1.886089608188091e+000	 1.701618418041777e-001	 1.276936163567672e+001
 1.884450295583200e+000	 1.874463816676047e-001	 1.278562451863181e+001
 1.882646418537782e+000	 2.047718859927317e-001	 1.280405063960682e+001
 1.880676617600927e+000	 2.221362701974262e-001	 1.282497653292254e+001
 1.878539563365115e+000	 2.395374112777932e-001	 1.284873877777911e+001
 1.876233957594816e+000	 2.569731482061189e-001	 1.287567404538198e+001
 1.873758534354423e+000	 2.744412823640975e-001	 1.289647155058811e+001
 1.871112061134353e+000	 2.919395780116981e-001	 1.290904206705070e+001
 1.868293339974118e+000	 3.094657627919834e-001	 1.292291164315111e+001
 1.865301208581163e+000	 3.270175282721594e-001	 1.293842325737418e+001
 1.862134541444221e+000	 3.445925305210840e-001	 1.295593486716409e+001
 1.892314326368553e+000	 1.707234320400111e-001	 1.275060296925660e+001
 1.890669603491345e+000	 1.880650165893452e-001	 1.276515044367890e+001
 1.888859773056599e+000	 2.054477007966655e-001	 1.278142694114717e+001
 1.886883471126767e+000	 2.228693932000310e-001	 1.279977678030908e+001
 1.884739363906846e+000	 2.403279637889334e-001	 1.282054482851815e+001
 1.882426148876699e+000	 2.578212444035545e-001	 1.284407655605658e+001
 1.879942555922713e+000	 2.753470291694234e-001	 1.287071810173155e+001
 1.877287348467615e+000	 2.929030749678290e-001	 1.290081634970832e+001
 1.874459324597255e+000	 3.104871019423070e-001	 1.293026554511251e+001
 1.871457318183124e+000	 3.280967940414736e-001	 1.294269803903486e+001
 1.868280199999401e+000	 3.457297995984408e-001	 1.295670872334236e+001
 1.898539044549014e+000	 1.712850222758444e-001	 1.273202156286600e+001
 1.896888911399486e+000	 1.886836515110858e-001	 1.274503180083269e+001
 1.895073127575397e+000	 2.061235156005994e-001	 1.275934065597486e+001
 1.893090324652564e+000	 2.236025162026358e-001	 1.277530016368665e+001
 1.890939164448499e+000	 2.411185163000735e-001	 1.279326340852494e+001
 1.888618340158460e+000	 2.586693406009903e-001	 1.281358458555190e+001
 1.886126577490827e+000	 2.762527759747492e-001	 1.283661907271704e+001
 1.883462635800639e+000	 2.938665719239600e-001	 1.286272351411890e+001
 1.880625309220078e+000	 3.115084410926308e-001	 1.289225591393001e+001
 1.877613427784689e+000	 3.291760598107879e-001	 1.292557574071115e+001
 1.874425858554088e+000	 3.468670686757977e-001	 1.295810564395344e+001
 1.904763762729475e+000	 1.718466125116777e-001	 1.271361523743113e+001
 1.903108219307621e+000	 1.893022864328264e-001	 1.272526520524168e+001
 1.901286482094175e+000	 2.067993304045334e-001	 1.273778715985113e+001
 1.899297178178318e+000	 2.243356392052407e-001	 1.275154078587633e+001
 1.897138964990075e+000	 2.419090688112137e-001	 1.276688731420317e+001
 1.894810531440100e+000	 2.595174367984260e-001	 1.278418959047220e+001
 1.892310599058765e+000	 2.771585227800751e-001	 1.280381215427467e+001
 1.889637923133423e+000	 2.948300688800911e-001	 1.282612132887612e+001
 1.886791293842587e+000	 3.125297802429545e-001	 1.285148532122803e+001
 1.883769537385855e+000	 3.302553255801022e-001	 1.288027433196949e+001
 1.880571517108283e+000	 3.480043377531544e-001	 1.291286067506272e+001
 1.910988480909936e+000	 1.724082027475110e-001	 1.269538189204698e+001
 1.909327527215751e+000	 1.899209213545669e-001	 1.270584737108517e+001
 1.907499836612934e+000	 2.074751452084673e-001	 1.271676194888756e+001
 1.905504031704028e+000	 2.250687622078454e-001	 1.272849289182247e+001
 1.903338765531574e+000	 2.426996213223539e-001	 1.274140950630188e+001
 1.901002722721617e+000	 2.603655329958617e-001	 1.275588321443366e+001
 1.898494620626529e+000	 2.780642695854010e-001	 1.277228764006021e+001
 1.895813210465967e+000	 2.957935658362220e-001	 1.279099870497787e+001
 1.892957278464783e+000	 3.135511193932782e-001	 1.281239473507375e+001
 1.889925646986624e+000	 3.313345913494166e-001	 1.283685657605901e+001
 1.886717175661985e+000	 3.491416068305113e-001	 1.286476771841798e+001
 1.917213199090397e+000	 1.729697929833443e-001	 1.267731950270843e+001
 1.915546835123878e+000	 1.905395562763075e-001	 1.268677510996572e+001
 1.913713191131674e+000	 2.081509600124012e-001	 1.269626063759229e+001
 1.911710885229695e+000	 2.258018852104503e-001	 1.270615086628547e+001
 1.909538566072995e+000	 2.434901738334941e-001	 1.271682310724750e+001
 1.907194914003015e+000	 2.612136291932974e-001	 1.272865728502841e+001
 1.904678642194117e+000	 2.789700163907267e-001	 1.274203603043644e+001
 1.901988497798272e+000	 2.967570627923530e-001	 1.275734478328719e+001
 1.899123263086666e+000	 3.145724585436019e-001	 1.277497190470491e+001
 1.896081756586994e+000	 3.324138571187308e-001	 1.279530879863163e+001
 1.892862834215194e+000	 3.502788759078681e-001	 1.281875004213925e+001
 1.923437917270859e+000	 1.735313832191777e-001	 1.265942612106584e+001
 1.921766143031998e+000	 1.911581911980480e-001	 1.266804532933266e+001
 1.919926545650396e+000	 2.088267748163351e-001	 1.267627895695429e+001
 1.917917738755318e+000	 2.265350082130551e-001	 1.268450923157946e+001
 1.915738366614339e+000	 2.442807263446342e-001	 1.269312139852771e+001
 1.913387105284291e+000	 2.620617253907331e-001	 1.270250381084762e+001
 1.910862663761530e+000	 2.798757631960526e-001	 1.271304802912834e+001
 1.908163785130338e+000	 2.977205597484839e-001	 1.272514893081283e+001
 1.905289247708235e+000	 3.155937976939257e-001	 1.273920482870333e+001
 1.902237866186967e+000	 3.334931228880452e-001	 1.275561759829077e+001
 1.899008492767911e+000	 3.514161449852249e-001	 1.277479281347984e+001
 1.929662635451320e+000	 1.740929734550110e-001	 1.264169987320484e+001
 1.927985450940115e+000	 1.917768261197886e-001	 1.264965503093619e+001
 1.926139900169097e+000	 2.095025896202690e-001	 1.265681275256462e+001
 1.924124592280898e+000	 2.272681312156599e-001	 1.266356264535359e+001
 1.921938167155606e+000	 2.450712788557743e-001	 1.267029781812594e+001
 1.919579296565446e+000	 2.629098215881689e-001	 1.267741497856219e+001
 1.917046685328768e+000	 2.807815100013785e-001	 1.268531453994305e+001
 1.914339072462165e+000	 2.986840567046151e-001	 1.269440073706168e+001
 1.911455232329490e+000	 3.166151368442494e-001	 1.270508175097309e+001
 1.908393975786542e+000	 3.345723886573595e-001	 1.271776984218889e+001
 1.905154151320135e+000	 3.525534140625818e-001	 1.273288149186534e+001
 1.843697565775724e+000	 3.411807232890136e-001	 1.295766701968376e+001
 1.840388367256442e+000	 3.586023670529664e-001	 1.297612952087319e+001
 1.836904245960602e+000	 3.760422730994149e-001	 1.299388627881836e+001
 1.833244203312740e+000	 3.934980190581910e-001	 1.301122245630281e+001
 1.829407281484210e+000	 4.109671500634333e-001	 1.302843680098671e+001
 1.825392564449202e+000	 4.284471795077297e-001	 1.304584108518588e+001
 1.821199179027543e+000	 4.459355898327649e-001	 1.306375949747563e+001
 1.816826295912912e+000	 4.634298333563615e-001	 1.308252798632323e+001
 1.812273130685128e+000	 4.809273331357558e-001	 1.310249355610060e+001
 1.807538944805128e+000	 4.984254838668907e-001	 1.312401351598163e+001
 1.802623046591256e+000	 5.159216528194558e-001	 1.314745468238303e+001
 1.849843224332382e+000	 3.423179923663703e-001	 1.295638216268679e+001
 1.846522995151483e+000	 3.597977082765181e-001	 1.297070868995660e+001
 1.843027260118031e+000	 3.772957473434335e-001	 1.298495646359152e+001
 1.839355017327978e+000	 3.948096791223813e-001	 1.299942606118358e+001
 1.835505305759913e+000	 4.123370405646133e-001	 1.301443145414579e+001
 1.831477206334609e+000	 4.298753367740266e-001	 1.303029942403016e+001
 1.827269842961289e+000	 4.474220418004443e-001	 1.304736893023505e+001
 1.822882383569279e+000	 4.649745994694156e-001	 1.306599042933643e+001
 1.818314041123661e+000	 4.825304242483666e-001	 1.308652514642769e+001
 1.813564074623577e+000	 5.000869021488940e-001	 1.310934429900723e+001
 1.808631790081764e+000	 5.176413916649195e-001	 1.313482827410991e+001
 1.855988882888548e+000	 3.434552614437272e-001	 1.295581544979175e+001
 1.852657623045941e+000	 3.609930495000699e-001	 1.296599017590338e+001
 1.849150274274807e+000	 3.785492215874520e-001	 1.297670836836839e+001
 1.845465831342510e+000	 3.961213391865714e-001	 1.298828603630086e+001
 1.841603330034879e+000	 4.137069310657933e-001	 1.300105239549261e+001
 1.837561848219266e+000	 4.313034940403235e-001	 1.301534926128016e+001
 1.833340506894293e+000	 4.489084937681239e-001	 1.303153039235973e+001
 1.828938471224931e+000	 4.665193655824693e-001	 1.304996078581536e+001
 1.824354951561529e+000	 4.841335153609775e-001	 1.307101592377792e+001
 1.819589204441430e+000	 5.017483204308975e-001	 1.309508097228894e+001
 1.814640533571767e+000	 5.193611305103831e-001	 1.312254993310253e+001
 1.862134541444221e+000	 3.445925305210840e-001	 1.295593486716409e+001
 1.858792250939816e+000	 3.621883907236216e-001	 1.296194111267645e+001
 1.855273288430928e+000	 3.798026958314708e-001	 1.296910830951123e+001
 1.851576645356337e+000	 3.974329992507616e-001	 1.297776791582419e+001
 1.847701354309108e+000	 4.150768215669735e-001	 1.298826441321102e+001
 1.843646490103174e+000	 4.327316513066203e-001	 1.300095467613243e+001
 1.839411170826556e+000	 4.503949457358033e-001	 1.301620729183971e+001
 1.834994558879871e+000	 4.680641316955235e-001	 1.303440183109717e+001
 1.830395861998732e+000	 4.857366064735883e-001	 1.305592807015133e+001
 1.825614334258688e+000	 5.034097387129007e-001	 1.308118516455608e+001
 1.820649277061263e+000	 5.210808693558470e-001	 1.311058077562387e+001
 1.868280199999401e+000	 3.457297995984408e-001	 1.295670872334236e+001
 1.864926878833108e+000	 3.633837319471733e-001	 1.295852896196217e+001
 1.861396302586395e+000	 3.810561700754896e-001	 1.296212293593740e+001
 1.857687459369458e+000	 3.987446593149517e-001	 1.296783757078461e+001
 1.853799378582599e+000	 4.164467120681535e-001	 1.297603263612137e+001
 1.849731131986332e+000	 4.341598085729174e-001	 1.298708009165731e+001
 1.845481834758077e+000	 4.518813977034829e-001	 1.300136338323281e+001
 1.841050646534096e+000	 4.696088978085772e-001	 1.301927668923178e+001
 1.836436772435272e+000	 4.873396975861993e-001	 1.304122411785144e+001
 1.831639464075349e+000	 5.050711569949041e-001	 1.306761885587281e+001
 1.826658020550252e+000	 5.228006082013107e-001	 1.309888226973893e+001
 1.874425858554088e+000	 3.468670686757977e-001	 1.295810564395344e+001
 1.871061506725817e+000	 3.645790731707252e-001	 1.295572150779787e+001
 1.867519316741208e+000	 3.823096443195082e-001	 1.295571922366761e+001
 1.863798273381873e+000	 4.000563193791419e-001	 1.295846120355243e+001
 1.859897402855353e+000	 4.178166025693336e-001	 1.296432252809627e+001
 1.855815773868741e+000	 4.355879658392141e-001	 1.297369026916175e+001
 1.851552498688857e+000	 4.533678496711624e-001	 1.298696276198324e+001
 1.847106734187609e+000	 4.711536639216311e-001	 1.300454882726534e+001
 1.842477682871145e+000	 4.889427886988100e-001	 1.302686694374262e+001
 1.837664593891415e+000	 5.067325752769076e-001	 1.305434437187850e+001
 1.832666764038736e+000	 5.245203470467744e-001	 1.308741622954748e+001
 1.880571517108283e+000	 3.480043377531544e-001	 1.291286067506272e+001
 1.877196134617942e+000	 3.657744143942768e-001	 1.293442271098324e+001
 1.873642330895367e+000	 3.835631185635268e-001	 1.294986447048120e+001
 1.869909087393583e+000	 4.013679794433321e-001	 1.294960534242312e+001
 1.865995427127369e+000	 4.191864930705136e-001	 1.295309988258588e+001
 1.861900415750400e+000	 4.370161231055110e-001	 1.296075030266252e+001
 1.857623162618895e+000	 4.548543016388419e-001	 1.297296985885152e+001
 1.853162821840408e+000	 4.726984300346851e-001	 1.299018204963568e+001
 1.848518593306353e+000	 4.905458798114210e-001	 1.301281976361996e+001
 1.843689723706885e+000	 5.083939935589109e-001	 1.304132437814114e+001
 1.838675507526713e+000	 5.262400858922381e-001	 1.307614480952989e+001
 1.886717175661985e+000	 3.491416068305113e-001	 1.286476771841798e+001
 1.883330762509485e+000	 3.669697556178287e-001	 1.288056775879515e+001
 1.879765345048872e+000	 3.848165928075452e-001	 1.290293476966973e+001
 1.876019901404587e+000	 4.026796395075222e-001	 1.293217162936897e+001
 1.872093451398648e+000	 4.205563835716938e-001	 1.294233081725026e+001
 1.867985057631309e+000	 4.384442803718079e-001	 1.294822561346746e+001
 1.863693826548192e+000	 4.563407536065214e-001	 1.295934943445334e+001
 1.859218909492494e+000	 4.742431961477391e-001	 1.297614049267733e+001
 1.854559503740897e+000	 4.921489709240318e-001	 1.299904612668926e+001
 1.849714853521759e+000	 5.100554118409144e-001	 1.302852187462102e+001
 1.844684251014184e+000	 5.279598247377019e-001	 1.306503049900352e+001
 1.892862834215194e+000	 3.502788759078681e-001	 1.281875004213925e+001
 1.889465390400445e+000	 3.681650968413804e-001	 1.282884339495899e+001
 1.885888359201723e+000	 3.860700670515641e-001	 1.284615034716769e+001
 1.882130715414885e+000	 4.039912995717124e-001	 1.287098120443453e+001
 1.878191475669189e+000	 4.219262740728738e-001	 1.290364557199586e+001
 1.874069699511469e+000	 4.398724376381049e-001	 1.293608194486237e+001
 1.869764490476747e+000	 4.578272055742009e-001	 1.294606657390475e+001
 1.865274997143866e+000	 4.757879622607928e-001	 1.296238861923360e+001
 1.860600414174776e+000	 4.937520620366426e-001	 1.298550991015451e+001
 1.855739983336036e+000	 5.117168301229178e-001	 1.301590019024226e+001
 1.850692994501148e+000	 5.296795635831655e-001	 1.305403611668699e+001
 1.899008492767911e+000	 3.514161449852249e-001	 1.277479281347984e+001
 1.895600018290821e+000	 3.693604380649322e-001	 1.277923480944994e+001
 1.892011373353919e+000	 3.873235412955827e-001	 1.279153314370058e+001
 1.888241529424479e+000	 4.053029596359026e-001	 1.281200545850712e+001
 1.884289499938993e+000	 4.232961645740540e-001	 1.284096828334074e+001
 1.880154341390880e+000	 4.413005949044017e-001	 1.287873720614546e+001
 1.875835154404560e+000	 4.593136575418804e-001	 1.292562705596615e+001
 1.871331084794526e+000	 4.773327283738469e-001	 1.294889121337328e+001
 1.866641324607990e+000	 4.953551531492535e-001	 1.297217531391044e+001
 1.861765113149718e+000	 5.133782484049211e-001	 1.300342297756980e+001
 1.856701737987607e+000	 5.313993024286292e-001	 1.304312480537011e+001
 1.905154151320135e+000	 3.525534140625818e-001	 1.273288149186534e+001
 1.901734646180615e+000	 3.705557792884839e-001	 1.273172748926459e+001
 1.898134387505463e+000	 3.885770155396014e-001	 1.273906870858540e+001
 1.894352343433366e+000	 4.066146197000928e-001	 1.275523003813289e+001
 1.890387524208059e+000	 4.246660550752341e-001	 1.278053484224787e+001
 1.886238983269541e+000	 4.427287521706986e-001	 1.281530512355288e+001
 1.881905818331633e+000	 4.608001095095600e-001	 1.285986169694328e+001
 1.877387172444471e+000	 4.788774944869008e-001	 1.291452437463057e+001
 1.872682235040539e+000	 4.969582442618644e-001	 1.295900685533786e+001
 1.867790242962805e+000	 5.150396666869246e-001	 1.299105420758937e+001
 1.862710481473559e+000	 5.331190412740930e-001	 1.303226002668688e+001
 1.802623046591256e+000	 5.159216528194558e-001	 1.314745468238303e+001
 1.797524792175859e+000	 5.334131808071950e-001	 1.320308325967048e+001
 1.792243586439751e+000	 5.508973831934355e-001	 1.326291844730571e+001
 1.786778883923817e+000	 5.683715509313848e-001	 1.332745176644747e+001
 1.781130189717125e+000	 5.858329516382177e-001	 1.339718063660986e+001
 1.775297060319161e+000	 6.032788307027912e-001	 1.347260725614398e+001
 1.769279104475128e+000	 6.207064124262776e-001	 1.355423744176958e+001
 1.763075983983007e+000	 6.381129011950372e-001	 1.349267667871821e+001
 1.756687414471025e+000	 6.554954826849969e-001	 1.338690697022895e+001
 1.750113166144221e+000	 6.728513250967415e-001	 1.328602748484635e+001
 1.743353064498843e+000	 6.901775804204618e-001	 1.319044106891418e+001
 1.808631790081764e+000	 5.176413916649195e-001	 1.313482827410991e+001
 1.803516541484430e+000	 5.351912247462354e-001	 1.319403506054911e+001
 1.798217731728745e+000	 5.527337078073827e-001	 1.325760796733814e+001
 1.792734813537397e+000	 5.702661227714129e-001	 1.332604053827193e+001
 1.787067290349753e+000	 5.877857281475579e-001	 1.339983218545570e+001
 1.781214717186963e+000	 6.052897601426380e-001	 1.347948706038305e+001
 1.775176701490048e+000	 6.227754338054956e-001	 1.356551288378546e+001
 1.768952903929652e+000	 6.402399442037787e-001	 1.348616223332729e+001
 1.762543039186094e+000	 6.576804676323345e-001	 1.338633751604900e+001
 1.755946876698433e+000	 6.750941628524161e-001	 1.329134319488561e+001
 1.749164241381237e+000	 6.924781723608480e-001	 1.320156856169684e+001
 1.814640533571767e+000	 5.193611305103831e-001	 1.312254993310253e+001
 1.809508290792586e+000	 5.369692686852710e-001	 1.318519728236864e+001
 1.804191877017395e+000	 5.545700324213105e-001	 1.325236968998833e+001
 1.798690743150684e+000	 5.721606946113973e-001	 1.332456283762425e+001
 1.793004390982118e+000	 5.897385046568202e-001	 1.340227824725832e+001
 1.787132374054514e+000	 6.073006895823624e-001	 1.348602214274195e+001
 1.781074298504710e+000	 6.248444551845370e-001	 1.357630426983301e+001
 1.774829823876010e+000	 6.423669872122795e-001	 1.347974165307305e+001
 1.768398663900827e+000	 6.598654525793567e-001	 1.338588284383644e+001
 1.761780587252239e+000	 6.773370006076904e-001	 1.329679054439193e+001
 1.754975418263134e+000	 6.947787643007393e-001	 1.321284039507864e+001
 1.820649277061263e+000	 5.210808693558470e-001	 1.311058077562387e+001
 1.815500040100325e+000	 5.387473126243016e-001	 1.317653131644648e+001
 1.810166022305699e+000	 5.564063570352187e-001	 1.324716528570400e+001
 1.804646672763676e+000	 5.740552664513375e-001	 1.332298061826203e+001
 1.798941491614221e+000	 5.916912811660043e-001	 1.340448106336891e+001
 1.793050030921814e+000	 6.093116190219645e-001	 1.349217503655301e+001
 1.786971895519113e+000	 6.269134765634016e-001	 1.356568281435796e+001
 1.780706743822080e+000	 6.444940302205392e-001	 1.347344047550235e+001
 1.774254288615225e+000	 6.620504375260636e-001	 1.338557026299356e+001
 1.767614297805641e+000	 6.795798383625650e-001	 1.330239859110499e+001
 1.760786595144538e+000	 6.970793562401356e-001	 1.322428735047203e+001
 1.826658020550252e+000	 5.228006082013107e-001	 1.309888226973893e+001
 1.821491789407649e+000	 5.405253565633275e-001	 1.316799889598493e+001
 1.816140167593657e+000	 5.582426816491075e-001	 1.324195675682984e+001
 1.810602602376375e+000	 5.759498382912341e-001	 1.332125615578514e+001
 1.804878592246063e+000	 5.936440576751103e-001	 1.340640318686317e+001
 1.798967687788864e+000	 6.113225484614442e-001	 1.349790857669647e+001
 1.792869492533257e+000	 6.289824979420897e-001	 1.355345596834397e+001
 1.786583663767863e+000	 6.466210732285582e-001	 1.346728451919631e+001
 1.780109913329286e+000	 6.642354224724550e-001	 1.338542735362829e+001
 1.773448008358637e+000	 6.818226761170395e-001	 1.330819665309947e+001
 1.766597772025446e+000	 6.993799481790373e-001	 1.323594045921607e+001
 1.832666764038736e+000	 5.245203470467744e-001	 1.308741622954748e+001
 1.827483538714556e+000	 5.423034005023484e-001	 1.315956209046651e+001
 1.822114312881271e+000	 5.600790062629770e-001	 1.323670643216664e+001
 1.816558531988780e+000	 5.778444101310868e-001	 1.331935204235958e+001
 1.810815692877641e+000	 5.955968341841381e-001	 1.340800747743109e+001
 1.804885344655664e+000	 6.133334779008014e-001	 1.350318589465702e+001
 1.798767089547142e+000	 6.310515193206012e-001	 1.354137021265551e+001
 1.792460583713360e+000	 6.487481162363362e-001	 1.346129987916314e+001
 1.785965538043012e+000	 6.664204074185314e-001	 1.338548196211650e+001
 1.779281718911228e+000	 6.840655138711139e-001	 1.331421430451727e+001
 1.772408948905860e+000	 7.016805401174439e-001	 1.324783099847934e+001
 1.838675507526713e+000	 5.262400858922381e-001	 1.307614480952989e+001
 1.833475288021048e+000	 5.440814444413645e-001	 1.315118330015913e+001
 1.828088458168540e+000	 5.619153308768271e-001	 1.323137696163698e+001
 1.822514461600892e+000	 5.797389819708957e-001	 1.331723118154482e+001
 1.816752793508958e+000	 5.975496106930878e-001	 1.340925709636692e+001
 1.810803001522213e+000	 6.153444073400365e-001	 1.350797041367739e+001
 1.804664686560769e+000	 6.331205406989361e-001	 1.352945015034327e+001
 1.798337503658568e+000	 6.508751592438732e-001	 1.345551292232145e+001
 1.791821162756401e+000	 6.686053923642923e-001	 1.338576219675114e+001
 1.785115429463414e+000	 6.863083516247884e-001	 1.332048137138345e+001
 1.778220125785779e+000	 7.039811320553557e-001	 1.325999048724309e+001
 1.844684251014184e+000	 5.279598247377019e-001	 1.306503049900352e+001
 1.839467037327124e+000	 5.458594883803759e-001	 1.314282525072878e+001
 1.834062603455464e+000	 5.637516554906574e-001	 1.322593131105523e+001
 1.828470391212709e+000	 5.816335538106606e-001	 1.331485678322225e+001
 1.822689894140012e+000	 5.995023872019594e-001	 1.341011550165704e+001
 1.816720658388512e+000	 6.173553367791491e-001	 1.351222584400651e+001
 1.810562283574136e+000	 6.351895620770944e-001	 1.351772066172613e+001
 1.804214423603489e+000	 6.530022022511693e-001	 1.344995028307164e+001
 1.797676787469455e+000	 6.707903773097376e-001	 1.338629642347651e+001
 1.790949140015195e+000	 6.885511893780628e-001	 1.332702792750387e+001
 1.784031302665203e+000	 7.062817239927727e-001	 1.327245068236292e+001
 1.850692994501148e+000	 5.296795635831655e-001	 1.305403611668699e+001
 1.845458786632783e+000	 5.476375323193824e-001	 1.313445098795703e+001
 1.840036748742042e+000	 5.655879801044685e-001	 1.322033275699949e+001
 1.834426320824233e+000	 5.835281256503817e-001	 1.331219235862245e+001
 1.828626994770804e+000	 6.014551637107526e-001	 1.341054644316350e+001
 1.822638315254560e+000	 6.193662662181392e-001	 1.351591617824039e+001
 1.816459880587245e+000	 6.372585834550759e-001	 1.350620689988998e+001
 1.810091343548123e+000	 6.551292452582245e-001	 1.344463885895376e+001
 1.803532412182172e+000	 6.729753622548674e-001	 1.338711326170562e+001
 1.796782850566570e+000	 6.907940271309374e-001	 1.333388429044275e+001
 1.789842479544131e+000	 7.085823159296947e-001	 1.328524357470717e+001
 1.856701737987607e+000	 5.313993024286292e-001	 1.304312480537011e+001
 1.851450535938027e+000	 5.494155762583839e-001	 1.312602387256118e+001
 1.846010894028276e+000	 5.674243047182601e-001	 1.321454488178297e+001
 1.840382250435464e+000	 5.854226974900592e-001	 1.330920171544893e+001
 1.834564095401335e+000	 6.034079402194681e-001	 1.341051395790116e+001
 1.828555972120358e+000	 6.213771956570071e-001	 1.351900568675335e+001
 1.822357477600096e+000	 6.393276048328810e-001	 1.349493428627402e+001
 1.815968263492470e+000	 6.572562882650386e-001	 1.343960580638949e+001
 1.809388036894553e+000	 6.751603471996822e-001	 1.338824158021875e+001
 1.802616561117540e+000	 6.930368648834118e-001	 1.334108101757842e+001
 1.795653656422566e+000	 7.108829078661220e-001	 1.329840138537032e+001
 1.862710481473559e+000	 5.331190412740930e-001	 1.303226002668688e+001
 1.857442285242855e+000	 5.511936201973806e-001	 1.311750757511469e+001
 1.851985039314165e+000	 5.692606293320325e-001	 1.320853156852287e+001
 1.846338180046400e+000	 5.873172693296925e-001	 1.330584895309636e+001
 1.840501196031602e+000	 6.053607167281051e-001	 1.340998236540618e+001
 1.834473628985905e+000	 6.233881250957524e-001	 1.352145891321774e+001
 1.828255074612687e+000	 6.413966262105093e-001	 1.348392850634256e+001
 1.821845183436530e+000	 6.593833312716118e-001	 1.343487853650671e+001
 1.815243661606599e+000	 6.773453321441814e-001	 1.338971049314138e+001
 1.808450271668106e+000	 6.952797026354863e-001	 1.334864890223525e+001
 1.801464833300505e+000	 7.131834998020543e-001	 1.331195656195969e+001
 1.743353064498843e+000	 6.901775804204618e-001	 1.319044106891418e+001
 1.736406991002612e+000	 7.074713857299524e-001	 1.320532720397892e+001
 1.729274883741580e+000	 7.247298645045056e-001	 1.321119779700339e+001
 1.721956738031161e+000	 7.419501279775843e-001	 1.320792911861560e+001
 1.714452606988756e+000	 7.591292765115665e-001	 1.319544367591201e+001
 1.706762602068787e+000	 7.762644009971839e-001	 1.317371208123690e+001
 1.698886893558412e+000	 7.933525842765065e-001	 1.314275483552245e+001
 1.690825711032833e+000	 8.103909025882282e-001	 1.310264401910135e+001
 1.682579343769194e+000	 8.273764270339608e-001	 1.305350488303071e+001
 1.674148141118071e+000	 8.443062250641894e-001	 1.299551733412080e+001
 1.665532512831657e+000	 8.611773619824999e-001	 1.292891730704551e+001
 1.749164241381237e+000	 6.924781723608480e-001	 1.320156856169684e+001
 1.742195014307065e+000	 7.098296236882712e-001	 1.321612476121900e+001
 1.735039133355536e+000	 7.271456307255082e-001	 1.322152750439464e+001
 1.727696593826450e+000	 7.444232950767995e-001	 1.321764768251465e+001
 1.720167449014264e+000	 7.616597074390636e-001	 1.320440305319156e+001
 1.712451810744917e+000	 7.788519490060009e-001	 1.318176013530169e+001
 1.704549849873188e+000	 7.959970928958200e-001	 1.314973601747871e+001
 1.696461796739532e+000	 8.130922056013444e-001	 1.310840007298391e+001
 1.688187941585347e+000	 8.301343484611895e-001	 1.305787557390647e+001
 1.679728634925716e+000	 8.471205791506760e-001	 1.299834119780449e+001
 1.671084287878667e+000	 8.640479531910661e-001	 1.293003242008163e+001
 1.754975418263134e+000	 6.947787643007393e-001	 1.321284039507864e+001
 1.747983037610927e+000	 7.121878616460046e-001	 1.322716264096884e+001
 1.740803382968817e+000	 7.295613969458548e-001	 1.323218954319383e+001
 1.733436449620988e+000	 7.468964621753076e-001	 1.322778649593306e+001
 1.725882291038956e+000	 7.641901383658226e-001	 1.321386639515355e+001
 1.718141019420174e+000	 7.814394970140681e-001	 1.319039155998045e+001
 1.710212806187047e+000	 7.986416015143932e-001	 1.315737556660220e+001
 1.702097882445277e+000	 8.157935086137483e-001	 1.311488498744842e+001
 1.693796539400522e+000	 8.328922698877554e-001	 1.306304102850807e+001
 1.685309128732365e+000	 8.499349332365682e-001	 1.300202105781447e+001
 1.676636062924676e+000	 8.669185443991284e-001	 1.293206001830988e+001
 1.760786595144538e+000	 6.970793562401356e-001	 1.322428735047203e+001
 1.753771060914199e+000	 7.145460996031527e-001	 1.323847245589597e+001
 1.746567632581422e+000	 7.319771631655455e-001	 1.324321632684282e+001
 1.739176305414775e+000	 7.493696292731094e-001	 1.323837874188718e+001
 1.731597133062832e+000	 7.667205692918437e-001	 1.322386762249645e+001
 1.723830228094559e+000	 7.840270450213861e-001	 1.319964098109661e+001
 1.715875762499987e+000	 8.012861101322251e-001	 1.316570878064832e+001
 1.707733968150068e+000	 8.184948116254407e-001	 1.312213469838370e+001
 1.699405137214717e+000	 8.356501913136581e-001	 1.306903778648492e+001
 1.690889622538019e+000	 8.527492873218669e-001	 1.300659402264605e+001
 1.682187837969686e+000	 8.697891356066868e-001	 1.293503774364851e+001
 1.766597772025446e+000	 6.993799481790373e-001	 1.323594045921607e+001
 1.759559084216882e+000	 7.169043375597161e-001	 1.325008606955588e+001
 1.752331882193353e+000	 7.343929293845806e-001	 1.325464052065107e+001
 1.744916161207811e+000	 7.518427963702036e-001	 1.324945785625848e+001
 1.737311975085890e+000	 7.692510002171262e-001	 1.323444090979896e+001
 1.729519436768072e+000	 7.866145930279543e-001	 1.320954327938617e+001
 1.721538718812008e+000	 8.039306187493162e-001	 1.317477121333429e+001
 1.713370053853905e+000	 8.211961146364205e-001	 1.313018539870613e+001
 1.705013735027933e+000	 8.384081127388980e-001	 1.307590264559576e+001
 1.696470116342679e+000	 8.555636414065722e-001	 1.301209746000129e+001
 1.687739613013696e+000	 8.726597268137412e-001	 1.293900349833510e+001
 1.772408948905860e+000	 7.016805401174439e-001	 1.324783099847934e+001
 1.765347107518974e+000	 7.192625755156944e-001	 1.326203559227907e+001
 1.758096131804608e+000	 7.368086956029598e-001	 1.326649503766650e+001
 1.750656017000096e+000	 7.543159634665912e-001	 1.326105752364811e+001
 1.743026817108132e+000	 7.717814311416710e-001	 1.324562068135798e+001
 1.735208645440712e+000	 7.892021410337732e-001	 1.322013358631883e+001
 1.727201675123111e+000	 8.065751273656667e-001	 1.318459867014307e+001
 1.719006139556788e+000	 8.238974176466883e-001	 1.313907353414605e+001
 1.710622332840169e+000	 8.411660341634746e-001	 1.308367265747730e+001
 1.702050610146344e+000	 8.583779954906836e-001	 1.301856899253970e+001
 1.693291388056706e+000	 8.755303180202917e-001	 1.294399544065910e+001
 1.778220125785779e+000	 7.039811320553557e-001	 1.325999048724309e+001
 1.771135130820477e+000	 7.216208134710872e-001	 1.327435337713883e+001
 1.763860381415186e+000	 7.392244618206830e-001	 1.327881303462761e+001
 1.756395872791630e+000	 7.567891305622718e-001	 1.327321167331294e+001
 1.748741659129557e+000	 7.743118620654771e-001	 1.325744160710830e+001
 1.740897854112478e+000	 7.917896890388421e-001	 1.323144728000097e+001
 1.732864631433297e+000	 8.092196359812761e-001	 1.319522720420950e+001
 1.724642225258717e+000	 8.265987206562444e-001	 1.314883579911675e+001
 1.716230930651426e+000	 8.439239555873884e-001	 1.309238512349594e+001
 1.707631103949014e+000	 8.611923495742012e-001	 1.302604649371224e+001
 1.698843163098715e+000	 8.784009092263384e-001	 1.295005198077798e+001
 1.784031302665203e+000	 7.062817239927727e-001	 1.327245068236292e+001
 1.776923154121389e+000	 7.239790514258950e-001	 1.328707201599769e+001
 1.769624631025091e+000	 7.416402280377504e-001	 1.329162790799452e+001
 1.762135728582413e+000	 7.592622976572456e-001	 1.328595447518087e+001
 1.754456501150165e+000	 7.768422929885454e-001	 1.326993859862191e+001
 1.746587062783374e+000	 7.943772370431621e-001	 1.324351998115884e+001
 1.738527587742563e+000	 8.118641445961448e-001	 1.320669311228690e+001
 1.730278310959692e+000	 8.293000236650882e-001	 1.315950913266440e+001
 1.721839528461703e+000	 8.466818770106389e-001	 1.310207759068049e+001
 1.713211597750689e+000	 8.640067036571254e-001	 1.303456808367681e+001
 1.704394938139725e+000	 8.812715004318809e-001	 1.295721177661511e+001
 1.789842479544131e+000	 7.085823159296947e-001	 1.328524357470717e+001
 1.782711177421712e+000	 7.263372893801178e-001	 1.330022433563104e+001
 1.775388880634319e+000	 7.440559942541619e-001	 1.330497329005739e+001
 1.767875584372446e+000	 7.617354647515126e-001	 1.329932033594387e+001
 1.760171343169956e+000	 7.793727239108754e-001	 1.328314680518540e+001
 1.752276271453396e+000	 7.969647850467323e-001	 1.325638754919987e+001
 1.744190544050912e+000	 8.145086532102724e-001	 1.321903293079222e+001
 1.735914396659714e+000	 8.320013266732200e-001	 1.317113071449658e+001
 1.727448126271001e+000	 8.494397984332268e-001	 1.311278784773416e+001
 1.718792091551369e+000	 8.668210577394558e-001	 1.304417212529324e+001
 1.709946713179735e+000	 8.841420916369196e-001	 1.296551372983762e+001
 1.795653656422566e+000	 7.108829078661220e-001	 1.329840138537032e+001
 1.788499200721444e+000	 7.286955273337553e-001	 1.331384339392594e+001
 1.781153130242871e+000	 7.464717604699175e-001	 1.331888304512039e+001
 1.773615440161727e+000	 7.642086318450727e-001	 1.331334389522682e+001
 1.765886185188932e+000	 7.819031548324674e-001	 1.329710160995337e+001
 1.757965480122546e+000	 7.995523330495530e-001	 1.327008607835054e+001
 1.749853500358342e+000	 8.171531618236594e-001	 1.323228343192797e+001
 1.741550482358781e+000	 8.347026296806397e-001	 1.318373796108821e+001
 1.733056724079319e+000	 8.521977198551510e-001	 1.312455392112392e+001
 1.724372585351054e+000	 8.696354118211923e-001	 1.305489722019609e+001
 1.715498488218744e+000	 8.870126828414544e-001	 1.297499698191229e+001
 1.801464833300505e+000	 7.131834998020543e-001	 1.331195656195969e+001
 1.794287224020587e+000	 7.310537652868080e-001	 1.332796247615346e+001
 1.786917379850749e+000	 7.488875266850175e-001	 1.333339126575957e+001
 1.779355295950257e+000	 7.666817989379257e-001	 1.332806002183055e+001
 1.771601027207090e+000	 7.844335857533211e-001	 1.331183862617641e+001
 1.763654688790824e+000	 8.021398810516242e-001	 1.328465189386895e+001
 1.755516456664855e+000	 8.197976704363059e-001	 1.324648161987930e+001
 1.747186568056895e+000	 8.374039326873475e-001	 1.319736852186266e+001
 1.738665321886658e+000	 8.549556412764128e-001	 1.313741407124566e+001
 1.729953079149745e+000	 8.724497659023354e-001	 1.306678220494340e+001
 1.721050263256754e+000	 8.898832740454855e-001	 1.298570091023784e+001
 1.665532512831657e+000	 8.611773619824999e-001	 1.292891730704551e+001
 1.656732929348135e+000	 8.779869024662258e-001	 1.284731869775780e+001
 1.647749922030257e+000	 8.947319121031905e-001	 1.276597995815162e+001
 1.638584083358054e+000	 9.114094589423906e-001	 1.268565139972859e+001
 1.629236067075867e+000	 9.280166150561219e-001	 1.260713879783420e+001
 1.619706588291817e+000	 9.445504581131335e-001	 1.253130370947985e+001
 1.609996423529535e+000	 9.610080729608083e-001	 1.245906364640315e+001
 1.600106410731609e+000	 9.773865532146967e-001	 1.239139209947908e+001
 1.590037449214298e+000	 9.936830028537118e-001	 1.232931841099194e+001
 1.579790499573113e+000	 1.009894537819258e+000	 1.227392749169532e+001
 1.569366583538957e+000	 1.026018287616547e+000	 1.222635938002482e+001
 1.671084287878667e+000	 8.640479531910661e-001	 1.293003242008163e+001
 1.662255372450445e+000	 8.809135254753958e-001	 1.284958657555319e+001
 1.653242421774943e+000	 8.977143518102251e-001	 1.276891721235996e+001
 1.644046030307126e+000	 9.144474904713807e-001	 1.268874597398357e+001
 1.634666853970480e+000	 9.311100037714006e-001	 1.260985084381632e+001
 1.625105610256820e+000	 9.476989596379293e-001	 1.253306650774672e+001
 1.615363078278190e+000	 9.642114332011751e-001	 1.245928457046541e+001
 1.605440098770317e+000	 9.806445083887407e-001	 1.238945362149590e+001
 1.595337574047182e+000	 9.969952795261363e-001	 1.232457914735314e+001
 1.585056467906280e+000	 1.013260852941238e+000	 1.226572328665481e+001
 1.574597805484284e+000	 1.029438348570941e+000	 1.221400442545222e+001
 1.676636062924676e+000	 8.669185443991284e-001	 1.293206001830988e+001
 1.667777815551765e+000	 8.838401484841623e-001	 1.285249844673905e+001
 1.658734921518669e+000	 9.006967915169558e-001	 1.277222672064555e+001
 1.649507977255287e+000	 9.174855220001673e-001	 1.269193792067137e+001
 1.640097640864250e+000	 9.342033924865755e-001	 1.261238235124246e+001
 1.630504632221071e+000	 9.508474611627216e-001	 1.253436794794075e+001
 1.620729733026200e+000	 9.674147934416386e-001	 1.245876053706515e+001
 1.610773786808511e+000	 9.839024635629818e-001	 1.238648394327469e+001
 1.600637698879700e+000	 1.000307556198858e+000	 1.231851994161135e+001
 1.590322436239252e+000	 1.016627168063614e+000	 1.225590805062442e+001
 1.579829027429605e+000	 1.032858409525832e+000	 1.219974516376505e+001
 1.682187837969686e+000	 8.697891356066868e-001	 1.293503774364851e+001
 1.673300258652094e+000	 8.867667714925245e-001	 1.285609562076961e+001
 1.664227421261435e+000	 9.036792312233829e-001	 1.277595340761875e+001
 1.654969924202536e+000	 9.205235535287503e-001	 1.269527572523334e+001
 1.645528427757180e+000	 9.372967812016471e-001	 1.261478531015181e+001
 1.635903654184568e+000	 9.539959626875108e-001	 1.253526346659856e+001
 1.626096387773568e+000	 9.706181536821993e-001	 1.245755036931025e+001
 1.616107474846190e+000	 9.871604187374202e-001	 1.238254521278711e+001
 1.605937823711854e+000	 1.003619832871877e+000	 1.231120620315949e+001
 1.595588404572029e+000	 1.019993483186389e+000	 1.224455038928899e+001
 1.585060249374921e+000	 1.036278470481221e+000	 1.218365333017378e+001
 1.687739613013696e+000	 8.726597268137412e-001	 1.293900349833510e+001
 1.678822701751434e+000	 8.896933945004830e-001	 1.286041962683524e+001
 1.669719921003239e+000	 9.066616709295060e-001	 1.278014237726836e+001
 1.660431871148874e+000	 9.235615850571295e-001	 1.269880801237660e+001
 1.650959214649267e+000	 9.403901699166148e-001	 1.261711181000214e+001
 1.641302676147314e+000	 9.571444642122964e-001	 1.253580856011275e+001
 1.631463042520292e+000	 9.738215139228568e-001	 1.245571291090666e+001
 1.621441162883355e+000	 9.904183739120556e-001	 1.237769955966935e+001
 1.611237948543643e+000	 1.006932109545193e+000	 1.230270328446531e+001
 1.600854372904609e+000	 1.023359798309560e+000	 1.223171881318168e+001
 1.590291471320231e+000	 1.039698531437107e+000	 1.216580052689358e+001
 1.693291388056706e+000	 8.755303180202917e-001	 1.294399544065910e+001
 1.684345144849784e+000	 8.926200175080375e-001	 1.286551221026030e+001
 1.675212420744084e+000	 9.096441106353254e-001	 1.278483891002091e+001
 1.665893818094301e+000	 9.265996165853052e-001	 1.270258354379121e+001
 1.656390001540512e+000	 9.434835586314797e-001	 1.261941403803988e+001
 1.646701698109305e+000	 9.602929657370788e-001	 1.253605878375070e+001
 1.636829697266372e+000	 9.770248741636112e-001	 1.245330702582089e+001
 1.626774850920005e+000	 9.936763290868880e-001	 1.237200909552272e+001
 1.616538073375069e+000	 1.010244386218806e+000	 1.229307648200455e+001
 1.606120341236996e+000	 1.026726113433129e+000	 1.221748173924400e+001
 1.595522693265537e+000	 1.043118592393490e+000	 1.214625822532461e+001
 1.698843163098715e+000	 8.784009092263384e-001	 1.295005198077798e+001
 1.689867587947143e+000	 8.955466405151882e-001	 1.287141532897147e+001
 1.680704920483967e+000	 9.126265503408412e-001	 1.279008845985780e+001
 1.671355765038817e+000	 9.296376481132772e-001	 1.270665121591179e+001
 1.661820788430915e+000	 9.465769473462409e-001	 1.262174427770233e+001
 1.652100720070545e+000	 9.634414672618581e-001	 1.253606975069254e+001
 1.642196352011809e+000	 9.802282344044625e-001	 1.245039159794873e+001
 1.632108538956142e+000	 9.969342842619172e-001	 1.236553591420837e+001
 1.621838198206127e+000	 1.013556662892717e+000	 1.228239103717591e+001
 1.611386309569187e+000	 1.030092428557095e+000	 1.220190749235500e+001
 1.600753915210837e+000	 1.046538653350370e+000	 1.212509776818953e+001
 1.704394938139725e+000	 8.812715004318809e-001	 1.295721177661511e+001
 1.695390031043512e+000	 8.984732635219348e-001	 1.287817115003520e+001
 1.686197420222890e+000	 9.156089900460528e-001	 1.279593665148856e+001
 1.676817711982421e+000	 9.326756796410455e-001	 1.271106005772299e+001
 1.667251575320476e+000	 9.496703360608980e-001	 1.262415490705100e+001
 1.657499742031031e+000	 9.665899687866338e-001	 1.253589713108797e+001
 1.647563006756601e+000	 9.834315946454103e-001	 1.244702553079086e+001
 1.637442226991764e+000	 1.000192239437144e+000	 1.235834209213615e+001
 1.627138323036822e+000	 1.016868939566924e+000	 1.227071213719795e+001
 1.616652277901183e+000	 1.033458743681458e+000	 1.218506430683067e+001
 1.605985137156131e+000	 1.049958714307748e+000	 1.210239037162913e+001
 1.709946713179735e+000	 8.841420916369196e-001	 1.296551372983762e+001
 1.700912474138892e+000	 9.013998865282776e-001	 1.288582204626260e+001
 1.691689919960852e+000	 9.185914297509606e-001	 1.280242927757937e+001
 1.682279658925114e+000	 9.357137111686101e-001	 1.271585922860773e+001
 1.672682362209195e+000	 9.527637247754521e-001	 1.262669839723551e+001
 1.662898763990766e+000	 9.697384703114064e-001	 1.253559665113138e+001
 1.652929661500751e+000	 9.866349548864556e-001	 1.244326774713446e+001
 1.642775915026872e+000	 1.003450194612568e+000	 1.235048968854796e+001
 1.632438447867153e+000	 1.020181216241430e+000	 1.225810491598879e+001
 1.621918246232983e+000	 1.036825058806219e+000	 1.216702032789417e+001
 1.611216359101421e+000	 1.053378775265623e+000	 1.207820712725735e+001
 1.715498488218744e+000	 8.870126828414544e-001	 1.297499698191229e+001
 1.706434917233280e+000	 9.043265095342165e-001	 1.289441059288019e+001
 1.697182419697854e+000	 9.215738694555650e-001	 1.280961229603527e+001
 1.687741605866895e+000	 9.387517426959708e-001	 1.272109801623716e+001
 1.678113149097072e+000	 9.558571134899028e-001	 1.262942731098732e+001
 1.668297785949747e+000	 9.728869718361758e-001	 1.253522409215502e+001
 1.658296316244257e+000	 9.898383151275975e-001	 1.243917718874127e+001
 1.648109603061466e+000	 1.006708149788188e+000	 1.234204074579552e+001
 1.637738572697118e+000	 1.023493492916232e+000	 1.224463445502846e+001
 1.627184214564589e+000	 1.040191373931377e+000	 1.214784361311739e+001
 1.616447581046705e+000	 1.056798836223996e+000	 1.205261900417622e+001
 1.721050263256754e+000	 8.898832740454855e-001	 1.298570091023784e+001
 1.711957360326679e+000	 9.072531325397517e-001	 1.290397956426519e+001
 1.702674919433895e+000	 9.245563091598654e-001	 1.281753182733503e+001
 1.693203552807766e+000	 9.417897742231283e-001	 1.272682583450154e+001
 1.683543935984107e+000	 9.589505022042499e-001	 1.263239430114259e+001
 1.673696807907975e+000	 9.760354733609418e-001	 1.253483528973967e+001
 1.663662970987119e+000	 9.930416753688364e-001	 1.243481281604141e+001
 1.653443291095546e+000	 1.009966104964006e+000	 1.233305728961283e+001
 1.643038697526718e+000	 1.026805769591331e+000	 1.223036578420474e+001
 1.632450182895999e+000	 1.043557689056933e+000	 1.212760213383476e+001
 1.621678802991984e+000	 1.060218897182866e+000	 1.202569685095182e+001
 1.569366583538957e+000	 1.026018287616547e+000	 1.222635938002482e+001
 1.558766783784440e+000	 1.042051396916482e+000	 1.207889592233552e+001
 1.547992243680529e+000	 1.057991027155884e+000	 1.194155925920025e+001
 1.537044167003196e+000	 1.073834358134555e+000	 1.181565945261233e+001
 1.525923817589828e+000	 1.089578589607664e+000	 1.170255881447897e+001
 1.514632518945750e+000	 1.105220942871197e+000	 1.160367065695841e+001
 1.503171653800870e+000	 1.120758662338799e+000	 1.152045787852451e+001
 1.491542663616635e+000	 1.136189017108184e+000	 1.145443138658155e+001
 1.479747048043566e+000	 1.151509302515306e+000	 1.140714835798693e+001
 1.467786364329710e+000	 1.166716841674468e+000	 1.138021033937706e+001
 1.455662226680420e+000	 1.181808987002575e+000	 1.137526118972926e+001
 1.574597805484284e+000	 1.029438348570941e+000	 1.221400442545222e+001
 1.563962673062870e+000	 1.045524901568356e+000	 1.206245631812305e+001
 1.553152217824403e+000	 1.061517663908395e+000	 1.192149640579941e+001
 1.542167647557441e+000	 1.077413805990193e+000	 1.179247398985234e+001
 1.531010230312162e+000	 1.093210518234772e+000	 1.167679102631736e+001
 1.519681294005578e+000	 1.108905012675770e+000	 1.157590083572167e+001
 1.508182225976696e+000	 1.124494524541543e+000	 1.149130664697105e+001
 1.496514472491836e+000	 1.139976313826798e+000	 1.142455997617309e+001
 1.484679538200353e+000	 1.155347666851943e+000	 1.137725884181543e+001
 1.472678985541121e+000	 1.170605897808329e+000	 1.135104581826035e+001
 1.460514434100181e+000	 1.185748350287583e+000	 1.134760593006028e+001
 1.579829027429605e+000	 1.032858409525832e+000	 1.219974516376505e+001
 1.569158562341481e+000	 1.048998406220821e+000	 1.204439041488102e+001
 1.558312191968613e+000	 1.065044300661583e+000	 1.190007625983704e+001
 1.547291128112147e+000	 1.080993253846585e+000	 1.176819113125046e+001
 1.536096643035054e+000	 1.096842446862699e+000	 1.165017653194107e+001
 1.524730069066031e+000	 1.112589082481216e+000	 1.154752570438568e+001
 1.513192798153183e+000	 1.128230386745205e+000	 1.146178213254391e+001
 1.501486281367702e+000	 1.143763610546367e+000	 1.139453787698776e+001
 1.489612028357781e+000	 1.159186031189561e+000	 1.134743174481295e+001
 1.477571606753119e+000	 1.174494953943185e+000	 1.132214729635985e+001
 1.465366641520441e+000	 1.189687713573591e+000	 1.132041069131964e+001
 1.585060249374921e+000	 1.036278470481221e+000	 1.218365333017378e+001
 1.574354451620271e+000	 1.052471910873880e+000	 1.202476733271915e+001
 1.563472166113157e+000	 1.068570937415449e+000	 1.187736532729947e+001
 1.552414608667314e+000	 1.084572701703730e+000	 1.174287477104824e+001
 1.541183055758504e+000	 1.100474375491444e+000	 1.162277661765018e+001
 1.529778844127106e+000	 1.116273152287536e+000	 1.151860394655797e+001
 1.518203370330328e+000	 1.131966248949787e+000	 1.143194042287356e+001
 1.506458090244234e+000	 1.147550907266890e+000	 1.136441858888008e+001
 1.494544518515850e+000	 1.163024395528157e+000	 1.131771798876295e+001
 1.482464227965704e+000	 1.178384010079035e+000	 1.129356312861289e+001
 1.470218848941205e+000	 1.193627076860598e+000	 1.129372127435825e+001
 1.590291471320231e+000	 1.039698531437107e+000	 1.216580052689358e+001
 1.579550340899241e+000	 1.055945415527531e+000	 1.200365609599793e+001
 1.568632140258038e+000	 1.072097574169993e+000	 1.185343005515826e+001
 1.557538089222943e+000	 1.088152149561628e+000	 1.171658878067678e+001
 1.546269468482511e+000	 1.104106304121008e+000	 1.159465258258908e+001
 1.534827619188804e+000	 1.119957222094730e+000	 1.148919429377778e+001
 1.523213942508133e+000	 1.135702111155288e+000	 1.140183768802367e+001
 1.511429899121430e+000	 1.151338203988368e+000	 1.133425572803584e+001
 1.499477008674560e+000	 1.166862759867734e+000	 1.128816864505675e+001
 1.487356849178874e+000	 1.182273066215881e+000	 1.126534185220254e+001
 1.475071056362469e+000	 1.197566440148606e+000	 1.126758369425580e+001
 1.595522693265537e+000	 1.043118592393490e+000	 1.214625822532461e+001
 1.584746230178391e+000	 1.059418920181774e+000	 1.198112563489816e+001
 1.573792114403253e+000	 1.075624210925214e+000	 1.182833683233783e+001
 1.562661569779034e+000	 1.091731597420279e+000	 1.168939700913059e+001
 1.551355881207075e+000	 1.107738232751390e+000	 1.156586573853617e+001
 1.539876394251126e+000	 1.123641291902798e+000	 1.145935552473026e+001
 1.528224514686597e+000	 1.139437973361709e+000	 1.137153017913991e+001
 1.516401707999292e+000	 1.155125500710800e+000	 1.130410302506475e+001
 1.504409498833909e+000	 1.170701124208290e+000	 1.125883493224068e+001
 1.492249470392630e+000	 1.186162122353722e+000	 1.123753218357025e+001
 1.479923263784234e+000	 1.201505803437614e+000	 1.124204417680855e+001
 1.600753915210837e+000	 1.046538653350370e+000	 1.212509776818953e+001
 1.589942119457720e+000	 1.062892424836609e+000	 1.195724478695994e+001
 1.578952088548805e+000	 1.079150847681114e+000	 1.180215199066374e+001
 1.567785050335584e+000	 1.095311045279683e+000	 1.166136328333418e+001
 1.556442293932195e+000	 1.111370161382590e+000	 1.153647740969715e+001
 1.544925169314071e+000	 1.127325361711740e+000	 1.142914646447635e+001
 1.533235086865720e+000	 1.143173835569048e+000	 1.134107422712496e+001
 1.521373516877818e+000	 1.158912797434186e+000	 1.127401432313098e+001
 1.509341988993901e+000	 1.174539488549826e+000	 1.122976821361178e+001
 1.497142091606973e+000	 1.190051178492557e+000	 1.121018301548643e+001
 1.484775471206500e+000	 1.205445166727621e+000	 1.121714915508663e+001
 1.605985137156131e+000	 1.049958714307748e+000	 1.210239037162913e+001
 1.595138008737230e+000	 1.066365929492037e+000	 1.193208229859151e+001
 1.584112062694692e+000	 1.082677484437690e+000	 1.177494180579284e+001
 1.572908530892597e+000	 1.098890493139840e+000	 1.163255140850154e+001
 1.561528706657874e+000	 1.115002090014609e+000	 1.150654893250285e+001
 1.549973944377640e+000	 1.131009431521555e+000	 1.139862598369722e+001
 1.538245659045502e+000	 1.146909697777307e+000	 1.131052624133955e+001
 1.526345325757010e+000	 1.162700094158527e+000	 1.124404357611993e+001
 1.514274479154533e+000	 1.178377852892342e+000	 1.120101999486011e+001
 1.502034712821902e+000	 1.193940234632388e+000	 1.118334341417901e+001
 1.489627678629269e+000	 1.209384530018629e+000	 1.119294526605792e+001
 1.611216359101421e+000	 1.053378775265623e+000	 1.207820712725735e+001
 1.600333898016920e+000	 1.069839434148057e+000	 1.190570682654856e+001
 1.589272036840915e+000	 1.086204121194945e+000	 1.174677249812502e+001
 1.578032011450071e+000	 1.102469941000750e+000	 1.160302516848850e+001
 1.566615119384109e+000	 1.118634018647445e+000	 1.147614165541066e+001
 1.555022719441831e+000	 1.134693501332243e+000	 1.136785299795390e+001
 1.543256231225944e+000	 1.150645559986484e+000	 1.127994270832889e+001
 1.531317134636868e+000	 1.166487390883823e+000	 1.121424484684073e+001
 1.519206969315805e+000	 1.182216217235838e+000	 1.117264192175737e+001
 1.506927334037417e+000	 1.197829290773213e+000	 1.115706261651725e+001
 1.494479886052538e+000	 1.213323893310637e+000	 1.116947934727820e+001
 1.616447581046705e+000	 1.056798836223996e+000	 1.205261900417622e+001
 1.605529787296789e+000	 1.073312938804670e+000	 1.187818693938497e+001
 1.594432010987472e+000	 1.089730757952877e+000	 1.171771023369728e+001
 1.583155492008006e+000	 1.106049388862412e+000	 1.157284832613850e+001
 1.571701532110902e+000	 1.122265947281101e+000	 1.144531693870986e+001
 1.560071494506646e+000	 1.138377571143806e+000	 1.133688646696087e+001
 1.548266803407044e+000	 1.154381422196581e+000	 1.124938019057358e+001
 1.536288943517389e+000	 1.170274687610073e+000	 1.118467230526389e+001
 1.524139459477718e+000	 1.186054581580313e+000	 1.114468577789004e+001
 1.511819955253519e+000	 1.201718346915033e+000	 1.113139002725082e+001
 1.499332093476309e+000	 1.217263256603645e+000	 1.114679843364531e+001
 1.621678802991984e+000	 1.060218897182866e+000	 1.202569685095182e+001
 1.610725676576839e+000	 1.076786443461875e+000	 1.184959111887546e+001
 1.599591985134366e+000	 1.093257394711487e+000	 1.168782112506060e+001
 1.588278972566403e+000	 1.109628836724828e+000	 1.154208462362131e+001
 1.576787944838252e+000	 1.125897875915574e+000	 1.141413615433104e+001
 1.565120269572084e+000	 1.142061640956243e+000	 1.130578539387401e+001
 1.553277375588805e+000	 1.158117284407598e+000	 1.121889532526506e+001
 1.541260752398576e+000	 1.174061984337278e+000	 1.115538022679284e+001
 1.529071949640272e+000	 1.189892945925769e+000	 1.111720348243661e+001
 1.516712576470207e+000	 1.205607403057849e+000	 1.110637521630190e+001
 1.504184300900581e+000	 1.221202619897652e+000	 1.112494975421630e+001
 1.455662226680420e+000	 1.181808987002575e+000	 1.137526118972926e+001
 1.443376305570198e+000	 1.196783121726014e+000	 1.127452642157717e+001
 1.430930327006436e+000	 1.211636661367611e+000	 1.123836795436700e+001
 1.418326071746247e+000	 1.226367055212380e+000	 1.126968872374468e+001
 1.405565374467473e+000	 1.240971787750919e+000	 1.137138969439240e+001
 1.392650122894006e+000	 1.255448380097973e+000	 1.139946956862565e+001
 1.379582256876475e+000	 1.269794391384749e+000	 1.122749426533258e+001
 1.366363767429263e+000	 1.284007420123351e+000	 1.108330937418491e+001
 1.352996695724821e+000	 1.298085105541735e+000	 1.096718184914902e+001
 1.339483132046354e+000	 1.312025128887643e+000	 1.087933924654362e+001
 1.325825214700000e+000	 1.325825214700000e+000	 1.081997051821520e+001
 1.460514434100181e+000	 1.185748350287583e+000	 1.134760593006028e+001
 1.448187559920135e+000	 1.200772398793522e+000	 1.125972815724770e+001
 1.435700094761595e+000	 1.215675450234059e+000	 1.123565841041113e+001
 1.423053825317526e+000	 1.230454945391823e+000	 1.127829144321659e+001
 1.410250592381367e+000	 1.245108360372381e+000	 1.139052137372958e+001
 1.397292289969420e+000	 1.259633208027527e+000	 1.132215343143677e+001
 1.384180864398484e+000	 1.274027039352241e+000	 1.116034861479559e+001
 1.370918313319657e+000	 1.288287444853664e+000	 1.102536502982666e+001
 1.357506684709296e+000	 1.302412055890513e+000	 1.091743572842063e+001
 1.343948075818219e+000	 1.316398545981357e+000	 1.083675485143684e+001
 1.330244632080250e+000	 1.330244632080250e+000	 1.078347846795493e+001
 1.465366641520441e+000	 1.189687713573591e+000	 1.132041069131964e+001
 1.452998814270484e+000	 1.204761675862025e+000	 1.124505456287756e+001
 1.440469862517094e+000	 1.219714239101486e+000	 1.123273911736475e+001
 1.427781578889096e+000	 1.234542835572220e+000	 1.128635118944546e+001
 1.414935810295521e+000	 1.249244932994763e+000	 1.140877831839360e+001
 1.401934457045085e+000	 1.263818035957957e+000	 1.124929166833685e+001
 1.388779471920754e+000	 1.278259687320553e+000	 1.109740890813469e+001
 1.375472859210341e+000	 1.292567469584733e+000	 1.097138616825028e+001
 1.362016673694112e+000	 1.306739006239972e+000	 1.087142262006566e+001
 1.348413019590495e+000	 1.320771963075667e+000	 1.079767900237411e+001
 1.334664049461000e+000	 1.334664049461000e+000	 1.075027850677666e+001
 1.470218848941205e+000	 1.193627076860598e+000	 1.129372127435825e+001
 1.457810068621244e+000	 1.208750952931524e+000	 1.123055404602548e+001
 1.445239630272934e+000	 1.223753027969894e+000	 1.122966100123339e+001
 1.432509332460957e+000	 1.238630725753573e+000	 1.129392131762480e+001
 1.419621028209937e+000	 1.253381505618066e+000	 1.134775051142328e+001
 1.406576624121000e+000	 1.268002863889262e+000	 1.118084151346342e+001
 1.393378079443284e+000	 1.282492335289685e+000	 1.103863515237420e+001
 1.380027405101315e+000	 1.296847494316556e+000	 1.092133553340775e+001
 1.366526662679268e+000	 1.311065956590112e+000	 1.082910796733567e+001
 1.352877963363180e+000	 1.325145380170571e+000	 1.076207980262178e+001
 1.339083466842250e+000	 1.339083466842250e+000	 1.072034135703549e+001
 1.475071056362469e+000	 1.197566440148606e+000	 1.126758369425580e+001
 1.462621322972415e+000	 1.212740230002017e+000	 1.121627519207309e+001
 1.450009398029115e+000	 1.227791816839282e+000	 1.122647513012188e+001
 1.437237086033110e+000	 1.242718615935881e+000	 1.130105529002444e+001
 1.424306246124612e+000	 1.257518078242288e+000	 1.127332463423229e+001
 1.411218791197166e+000	 1.272187691821443e+000	 1.111676024015560e+001
 1.397976686966075e+000	 1.286724983259637e+000	 1.098398736092265e+001
 1.384581950992579e+000	 1.301127519049135e+000	 1.087517584358657e+001
 1.371036651664764e+000	 1.315392906940930e+000	 1.079045715655330e+001
 1.357342907136275e+000	 1.329518797266071e+000	 1.072992526805318e+001
 1.343502884224000e+000	 1.343502884224000e+000	 1.069363762404412e+001
 1.479923263784234e+000	 1.201505803437614e+000	 1.124204417680855e+001
 1.467432577323997e+000	 1.216729507073505e+000	 1.120226676130975e+001
 1.454779165785638e+000	 1.231830605709650e+000	 1.122323271190507e+001
 1.441964839605552e+000	 1.246806506119145e+000	 1.130780667423512e+001
 1.428991464039549e+000	 1.261654650867430e+000	 1.120347299870065e+001
 1.415860958273583e+000	 1.276372519754498e+000	 1.105700516031140e+001
 1.402575294489126e+000	 1.290957631230409e+000	 1.093342555346835e+001
 1.389136496884134e+000	 1.305407543782468e+000	 1.083286979183065e+001
 1.375546640650600e+000	 1.319719857292429e+000	 1.075543551804601e+001
 1.361807850909780e+000	 1.333892214362165e+000	 1.070118332858139e+001
 1.347922301606250e+000	 1.347922301606250e+000	 1.067013779799133e+001
 1.484775471206500e+000	 1.205445166727621e+000	 1.121714915508663e+001
 1.472243831675990e+000	 1.220718784145989e+000	 1.118857768607457e+001
 1.459548933542501e+000	 1.235869394580998e+000	 1.121998509194372e+001
 1.446692593178286e+000	 1.250894396303363e+000	 1.129661978068105e+001
 1.433676681954747e+000	 1.265791223493492e+000	 1.113815024655801e+001
 1.420503125350250e+000	 1.280557347688428e+000	 1.100153362375810e+001
 1.407173902012437e+000	 1.295190279202001e+000	 1.088690975587661e+001
 1.393691042775979e+000	 1.309687568516556e+000	 1.079438004635257e+001
 1.380056629636776e+000	 1.324046807644608e+000	 1.072400832706069e+001
 1.366272794683696e+000	 1.338265631458855e+000	 1.067582182956381e+001
 1.352341718989000e+000	 1.352341718989000e+000	 1.064981225582332e+001
 1.489627678629269e+000	 1.209384530018629e+000	 1.119294526605792e+001
 1.477055086028395e+000	 1.224708061219467e+000	 1.117525706795440e+001
 1.464318701299706e+000	 1.239908183453326e+000	 1.121678375084567e+001
 1.451420346751311e+000	 1.254982286488536e+000	 1.122531890355429e+001
 1.438361899870205e+000	 1.269927796120475e+000	 1.107731108879631e+001
 1.425145292427167e+000	 1.284742175623234e+000	 1.095030301763377e+001
 1.411772509536009e+000	 1.299422927174414e+000	 1.084440000008911e+001
 1.398245588668114e+000	 1.313967593251400e+000	 1.075966925093830e+001
 1.384566618623291e+000	 1.328373757997468e+000	 1.069614080466092e+001
 1.370737738458021e+000	 1.342639048556140e+000	 1.065380853317914e+001
 1.356761136372250e+000	 1.356761136372250e+000	 1.063263126308782e+001
 1.494479886052538e+000	 1.213323893310637e+000	 1.116947934727820e+001
 1.481866340381212e+000	 1.228697338293940e+000	 1.116235417503627e+001
 1.469088469057252e+000	 1.243946972326634e+000	 1.121368030226992e+001
 1.456148100324627e+000	 1.259070176674664e+000	 1.115870413568454e+001
 1.443047117785924e+000	 1.274064368748378e+000	 1.102091030454480e+001
 1.429787459504335e+000	 1.288927003558914e+000	 1.090327076578245e+001
 1.416371117059841e+000	 1.303655575147646e+000	 1.080585632402553e+001
 1.402800134560539e+000	 1.318247617986998e+000	 1.072870002534341e+001
 1.389076607610147e+000	 1.332700708351006e+000	 1.067179811860654e+001
 1.375202682232756e+000	 1.347012465654019e+000	 1.063511111977781e+001
 1.361180553756000e+000	 1.361180553756000e+000	 1.061856497574276e+001
 1.499332093476309e+000	 1.217263256603645e+000	 1.114679843364531e+001
 1.486677594734439e+000	 1.232686615369408e+000	 1.114991843921317e+001
 1.473858236815139e+000	 1.247985761200922e+000	 1.121072649077396e+001
 1.460875853898234e+000	 1.263158066861747e+000	 1.109672768109170e+001
 1.447732335701904e+000	 1.278200941377200e+000	 1.096890273996787e+001
 1.434429626581754e+000	 1.293111831495470e+000	 1.086039432815944e+001
 1.420969724583933e+000	 1.307888223121698e+000	 1.077123877148644e+001
 1.407354680453254e+000	 1.322527642723352e+000	 1.070143496568220e+001
 1.393586596597344e+000	 1.337027658705226e+000	 1.065094538421623e+001
 1.379667626007902e+000	 1.351385882752494e+000	 1.061969718920611e+001
 1.365599971140250e+000	 1.365599971140250e+000	 1.060758344192939e+001
 1.504184300900581e+000	 1.221202619897652e+000	 1.112494975421630e+001
 1.491488849088077e+000	 1.236675892445872e+000	 1.113799945354213e+001
 1.478628004573367e+000	 1.252024550076190e+000	 1.117588687152917e+001
 1.465603607472132e+000	 1.267245957049786e+000	 1.103934184084072e+001
 1.452417553618144e+000	 1.282337514006943e+000	 1.092124330718368e+001
 1.439071793659423e+000	 1.297296659432901e+000	 1.082163120024933e+001
 1.425568332108285e+000	 1.312120871096571e+000	 1.074050739205879e+001
 1.411909226346260e+000	 1.326807667460461e+000	 1.067783664480872e+001
 1.398096585584880e+000	 1.341354609060125e+000	 1.063354766521313e+001
 1.384132569783457e+000	 1.355759299851564e+000	 1.060753426210455e+001
 1.370019388525000e+000	 1.370019388525000e+000	 1.059965660371130e+001
 1.325825214700000e+000	 1.325825214700000e+000	 1.081997051821520e+001
 1.312025128887643e+000	 1.339483132046354e+000	 1.081889545528563e+001
 1.298085105541735e+000	 1.352996695724821e+000	 1.081122072471765e+001
 1.284007420123351e+000	 1.366363767429263e+000	 1.079655369291887e+001
 1.269794391384749e+000	 1.379582256876475e+000	 1.077450103391404e+001
 1.255448380097973e+000	 1.392650122894005e+000	 1.074467041269742e+001
 1.240971787750919e+000	 1.405565374467473e+000	 1.076106331948390e+001
 1.226367055212380e+000	 1.418326071746246e+000	 1.078833692117662e+001
 1.211636661367610e+000	 1.430930327006436e+000	 1.079126714237318e+001
 1.196783121726014e+000	 1.443376305570198e+000	 1.077096667973228e+001
 1.181808987002575e+000	 1.455662226680420e+000	 1.072858199833305e+001
 1.330244632080250e+000	 1.330244632080250e+000	 1.078347846795493e+001
 1.316398545981357e+000	 1.343948075818219e+000	 1.078292884973272e+001
 1.302412055890514e+000	 1.357506684709296e+000	 1.077605898427738e+001
 1.288287444853664e+000	 1.370918313319657e+000	 1.076247361862979e+001
 1.274027039352241e+000	 1.384180864398484e+000	 1.074177619715020e+001
 1.259633208027528e+000	 1.397292289969420e+000	 1.071357056154400e+001
 1.245108360372381e+000	 1.410250592381367e+000	 1.070758854469387e+001
 1.230454945391823e+000	 1.423053825317526e+000	 1.074170896294706e+001
 1.215675450234059e+000	 1.435700094761595e+000	 1.075154213537531e+001
 1.200772398793522e+000	 1.448187559920135e+000	 1.073821863802272e+001
 1.185748350287583e+000	 1.460514434100181e+000	 1.070290276617574e+001
 1.334664049461000e+000	 1.334664049461000e+000	 1.075027850677666e+001
 1.320771963075667e+000	 1.348413019590495e+000	 1.075036197264786e+001
 1.306739006239973e+000	 1.362016673694112e+000	 1.074440329609603e+001
 1.292567469584733e+000	 1.375472859210341e+000	 1.073200444058107e+001
 1.278259687320553e+000	 1.388779471920754e+000	 1.071276545504731e+001
 1.263818035957957e+000	 1.401934457045085e+000	 1.068628619087882e+001
 1.249244932994763e+000	 1.414935810295521e+000	 1.065691583736632e+001
 1.234542835572220e+000	 1.427781578889096e+000	 1.069792758219702e+001
 1.219714239101486e+000	 1.440469862517094e+000	 1.071470217429111e+001
 1.204761675862025e+000	 1.452998814270484e+000	 1.070838813918900e+001
 1.189687713573591e+000	 1.465366641520442e+000	 1.068016767749368e+001
 1.339083466842250e+000	 1.339083466842250e+000	 1.072034135703549e+001
 1.325145380170571e+000	 1.352877963363180e+000	 1.072116499332226e+001
 1.311065956590111e+000	 1.366526662679268e+000	 1.071622332443628e+001
 1.296847494316556e+000	 1.380027405101315e+000	 1.070511536589767e+001
 1.282492335289685e+000	 1.393378079443284e+000	 1.068743760530008e+001
 1.268002863889262e+000	 1.406576624121000e+000	 1.066278573645203e+001
 1.253381505618065e+000	 1.419621028209937e+000	 1.063075642844903e+001
 1.238630725753574e+000	 1.432509332460957e+000	 1.065701956085420e+001
 1.223753027969894e+000	 1.445239630272935e+000	 1.068077297490853e+001
 1.208750952931524e+000	 1.457810068621244e+000	 1.068149985297953e+001
 1.193627076860599e+000	 1.470218848941205e+000	 1.066040037684506e+001
 1.343502884224000e+000	 1.343502884224000e+000	 1.069363762404412e+001
 1.329518797266071e+000	 1.357342907136275e+000	 1.069530797636329e+001
 1.315392906940931e+000	 1.371036651664763e+000	 1.069148864086537e+001
 1.301127519049135e+000	 1.384581950992580e+000	 1.068177552062179e+001
 1.286724983259637e+000	 1.397976686966075e+000	 1.066576137575243e+001
 1.272187691821443e+000	 1.411218791197166e+000	 1.064303757500769e+001
 1.257518078242288e+000	 1.424306246124612e+000	 1.061319588349200e+001
 1.242718615935881e+000	 1.437237086033109e+000	 1.061901164235186e+001
 1.227791816839282e+000	 1.450009398029116e+000	 1.064978022417884e+001
 1.212740230002017e+000	 1.462621322972415e+000	 1.065757842955835e+001
 1.197566440148606e+000	 1.475071056362469e+000	 1.064362449804775e+001
 1.347922301606250e+000	 1.347922301606250e+000	 1.067013779799133e+001
 1.333892214362165e+000	 1.361807850909780e+000	 1.067276088341052e+001
 1.319719857292430e+000	 1.375546640650599e+000	 1.067016872577460e+001
 1.305407543782468e+000	 1.389136496884134e+000	 1.066195395104248e+001
 1.290957631230409e+000	 1.402575294489126e+000	 1.064770542554197e+001
 1.276372519754498e+000	 1.415860958273583e+000	 1.062701002525155e+001
 1.261654650867430e+000	 1.428991464039549e+000	 1.059945444243457e+001
 1.246806506119145e+000	 1.441964839605553e+000	 1.058393053225997e+001
 1.231830605709650e+000	 1.454779165785638e+000	 1.062174958068852e+001
 1.216729507073505e+000	 1.467432577323997e+000	 1.063664849982581e+001
 1.201505803437614e+000	 1.479923263784234e+000	 1.062986366435504e+001
 1.352341718989000e+000	 1.352341718989000e+000	 1.064981225582332e+001
 1.338265631458855e+000	 1.366272794683696e+000	 1.065349357481812e+001
 1.324046807644608e+000	 1.380056629636775e+000	 1.065223296986947e+001
 1.309687568516556e+000	 1.393691042775979e+000	 1.064561962499825e+001
 1.295190279202002e+000	 1.407173902012438e+000	 1.063323834622321e+001
 1.280557347688428e+000	 1.420503125350249e+000	 1.061467134879876e+001
 1.265791223493492e+000	 1.433676681954746e+000	 1.058950008302292e+001
 1.250894396303363e+000	 1.446692593178286e+000	 1.055730709307787e+001
 1.235869394580998e+000	 1.459548933542502e+000	 1.059670667512319e+001
 1.220718784145988e+000	 1.472243831675991e+000	 1.061873467573351e+001
 1.205445166727622e+000	 1.484775471206500e+000	 1.061914148862851e+001
 1.356761136372250e+000	 1.356761136372250e+000	 1.063263126308782e+001
 1.342639048556139e+000	 1.370737738458021e+000	 1.063747581130481e+001
 1.328373757997468e+000	 1.384566618623291e+000	 1.063765067563006e+001
 1.313967593251400e+000	 1.398245588668114e+000	 1.063274143315526e+001
 1.299422927174414e+000	 1.411772509536009e+000	 1.062232866286799e+001
 1.284742175623234e+000	 1.425145292427167e+000	 1.060598975110412e+001
 1.269927796120475e+000	 1.438361899870205e+000	 1.058330073679250e+001
 1.254982286488535e+000	 1.451420346751311e+000	 1.055383819089541e+001
 1.239908183453325e+000	 1.464318701299706e+000	 1.057467711072206e+001
 1.224708061219467e+000	 1.477055086028395e+000	 1.060386155059312e+001
 1.209384530018629e+000	 1.489627678629269e+000	 1.061148157350702e+001
 1.361180553756000e+000	 1.361180553756000e+000	 1.061856497574276e+001
 1.347012465654019e+000	 1.375202682232756e+000	 1.062467725557072e+001
 1.332700708351007e+000	 1.389076607610148e+000	 1.062639105874337e+001
 1.318247617986999e+000	 1.402800134560539e+000	 1.062328819025990e+001
 1.303655575147646e+000	 1.416371117059841e+000	 1.061494483514477e+001
 1.288927003558914e+000	 1.429787459504335e+000	 1.060093338237361e+001
 1.274064368748378e+000	 1.443047117785924e+000	 1.058082428981799e+001
 1.259070176674664e+000	 1.456148100324627e+000	 1.055418798455355e+001
 1.243946972326633e+000	 1.469088469057252e+000	 1.055568646372318e+001
 1.228697338293940e+000	 1.481866340381212e+000	 1.059205369937853e+001
 1.213323893310637e+000	 1.494479886052538e+000	 1.060690751157294e+001
 1.365599971140250e+000	 1.365599971140250e+000	 1.060758344192939e+001
 1.351385882752494e+000	 1.379667626007902e+000	 1.061506747388403e+001
 1.337027658705226e+000	 1.393586596597344e+000	 1.061842324950783e+001
 1.322527642723352e+000	 1.407354680453254e+000	 1.061722863636722e+001
 1.307888223121698e+000	 1.420969724583933e+000	 1.061105525837686e+001
 1.293111831495470e+000	 1.434429626581753e+000	 1.059947033845844e+001
 1.278200941377200e+000	 1.447732335701904e+000	 1.058203858344920e+001
 1.263158066861747e+000	 1.460875853898234e+000	 1.055832410554644e+001
 1.247985761200922e+000	 1.473858236815139e+000	 1.053976028380065e+001
 1.232686615369409e+000	 1.486677594734438e+000	 1.058333567902298e+001
 1.217263256603645e+000	 1.499332093476309e+000	 1.060544288551477e+001
 1.370019388525000e+000	 1.370019388525000e+000	 1.059965660371130e+001
 1.355759299851564e+000	 1.384132569783457e+000	 1.060861593763603e+001
 1.341354609060125e+000	 1.398096585584880e+000	 1.061371629421035e+001
 1.326807667460461e+000	 1.411909226346261e+000	 1.061453143804570e+001
 1.312120871096571e+000	 1.425568332108285e+000	 1.061062826458048e+001
 1.297296659432900e+000	 1.439071793659422e+000	 1.060156866173163e+001
 1.282337514006944e+000	 1.452417553618144e+000	 1.058691141503214e+001
 1.267245957049786e+000	 1.465603607472132e+000	 1.056621415048019e+001
 1.252024550076190e+000	 1.478628004573367e+000	 1.053903530917930e+001
 1.236675892445872e+000	 1.491488849088077e+000	 1.057773202870965e+001
 1.221202619897652e+000	 1.504184300900581e+000	 1.060711126828656e+001
 1.181808987002575e+000	 1.455662226680420e+000	 1.072858199833305e+001
 1.166716841674468e+000	 1.467786364329709e+000	 1.069063509012989e+001
 1.151509302515306e+000	 1.479747048043566e+000	 1.063742365272704e+001
 1.136189017108183e+000	 1.491542663616635e+000	 1.056997012602333e+001
 1.120758662338799e+000	 1.503171653800870e+000	 1.048931791976036e+001
 1.105220942871197e+000	 1.514632518945750e+000	 1.039652921290328e+001
 1.089578589607664e+000	 1.525923817589828e+000	 1.029268272759166e+001
 1.073834358134554e+000	 1.537044167003196e+000	 1.017887148331430e+001
 1.057991027155884e+000	 1.547992243680529e+000	 1.005620053697301e+001
 1.042051396916482e+000	 1.558766783784440e+000	 9.925784714492986e+000
 1.026018287616547e+000	 1.569366583538957e+000	 9.788746339613505e+000
 1.185748350287583e+000	 1.460514434100181e+000	 1.070290276617574e+001
 1.170605897808329e+000	 1.472678985541121e+000	 1.066987436867562e+001
 1.155347666851944e+000	 1.484679538200353e+000	 1.062118378612801e+001
 1.139976313826798e+000	 1.496514472491836e+000	 1.055787880803254e+001
 1.124494524541542e+000	 1.508182225976696e+000	 1.048102849094740e+001
 1.108905012675770e+000	 1.519681294005578e+000	 1.039172091898963e+001
 1.093210518234772e+000	 1.531010230312162e+000	 1.029106093866425e+001
 1.077413805990193e+000	 1.542167647557441e+000	 1.018016787376101e+001
 1.061517663908395e+000	 1.553152217824403e+000	 1.006017322606764e+001
 1.045524901568356e+000	 1.563962673062870e+000	 9.932218367644039e+000
 1.029438348570941e+000	 1.574597805484284e+000	 9.797452230370851e+000
 1.189687713573591e+000	 1.465366641520442e+000	 1.068016767749368e+001
 1.174494953943185e+000	 1.477571606753120e+000	 1.065214856112968e+001
 1.159186031189561e+000	 1.489612028357781e+000	 1.060806732822509e+001
 1.143763610546366e+000	 1.501486281367702e+000	 1.054899716544320e+001
 1.128230386745205e+000	 1.513192798153183e+000	 1.047603282598600e+001
 1.112589082481216e+000	 1.524730069066030e+000	 1.039028835107676e+001
 1.096842446862699e+000	 1.536096643035055e+000	 1.029289476552875e+001
 1.080993253846585e+000	 1.547291128112147e+000	 1.018499775322156e+001
 1.065044300661583e+000	 1.558312191968613e+000	 1.006775531832116e+001
 1.048998406220822e+000	 1.569158562341481e+000	 9.942335438071416e+000
 1.032858409525832e+000	 1.579829027429605e+000	 9.809913712954275e+000
 1.193627076860599e+000	 1.470218848941205e+000	 1.066040037684506e+001
 1.178384010079036e+000	 1.482464227965704e+000	 1.063747961551645e+001
 1.163024395528157e+000	 1.494544518515850e+000	 1.059809451860445e+001
 1.147550907266890e+000	 1.506458090244234e+000	 1.054334371862501e+001
 1.131966248949788e+000	 1.518203370330328e+000	 1.047434771638311e+001
 1.116273152287536e+000	 1.529778844127106e+000	 1.039224656330104e+001
 1.100474375491444e+000	 1.541183055758504e+000	 1.029819751758471e+001
 1.084572701703730e+000	 1.552414608667314e+000	 1.019337268013782e+001
 1.068570937415449e+000	 1.563472166113158e+000	 1.007895661614297e+001
 1.052471910873880e+000	 1.574354451620271e+000	 9.956143968224067e+000
 1.036278470481221e+000	 1.585060249374921e+000	 9.826137067070278e+000
 1.197566440148606e+000	 1.475071056362469e+000	 1.064362449804775e+001
 1.182273066215881e+000	 1.487356849178874e+000	 1.062588948666909e+001
 1.166862759867734e+000	 1.499477008674559e+000	 1.059128562124546e+001
 1.151338203988367e+000	 1.511429899121430e+000	 1.054093702995111e+001
 1.135702111155289e+000	 1.523213942508133e+000	 1.047599001327758e+001
 1.119957222094731e+000	 1.534827619188804e+000	 1.039761068706786e+001
 1.104106304121008e+000	 1.546269468482511e+000	 1.030698259913919e+001
 1.088152149561628e+000	 1.557538089222943e+000	 1.020530432548973e+001
 1.072097574169993e+000	 1.568632140258038e+000	 1.009378705209547e+001
 1.055945415527530e+000	 1.579550340899241e+000	 9.973652148294686e+000
 1.039698531437106e+000	 1.590291471320231e+000	 9.846128737727224e+000
 1.201505803437614e+000	 1.479923263784234e+000	 1.062986366435504e+001
 1.186162122353721e+000	 1.492249470392630e+000	 1.061740013611820e+001
 1.170701124208290e+000	 1.504409498833910e+000	 1.058766092412051e+001
 1.155125500710799e+000	 1.516401707999292e+000	 1.054179570310949e+001
 1.139437973361709e+000	 1.528224514686597e+000	 1.048097662646210e+001
 1.123641291902798e+000	 1.539876394251126e+000	 1.040639592978517e+001
 1.107738232751390e+000	 1.551355881207075e+000	 1.031926350785069e+001
 1.091731597420279e+000	 1.562661569779033e+000	 1.022080447095054e+001
 1.075624210925214e+000	 1.573792114403254e+000	 1.011225668676037e+001
 1.059418920181773e+000	 1.584746230178390e+000	 9.994868313797529e+000
 1.043118592393490e+000	 1.595522693265537e+000	 9.869895332524973e+000
 1.205445166727622e+000	 1.484775471206500e+000	 1.061914148862851e+001
 1.190051178492557e+000	 1.497142091606974e+000	 1.061203353198195e+001
 1.174539488549827e+000	 1.509341988993900e+000	 1.058724073880329e+001
 1.158912797434186e+000	 1.521373516877819e+000	 1.054593838242793e+001
 1.143173835569048e+000	 1.533235086865720e+000	 1.048932452342522e+001
 1.127325361711739e+000	 1.544925169314071e+000	 1.041861757362130e+001
 1.111370161382590e+000	 1.556442293932195e+000	 1.033505383320417e+001
 1.095311045279683e+000	 1.567785050335584e+000	 1.023988500707821e+001
 1.079150847681113e+000	 1.578952088548805e+000	 1.013437570664694e+001
 1.062892424836609e+000	 1.589942119457721e+000	 1.001980094319386e+001
 1.046538653350370e+000	 1.600753915210837e+000	 9.897443618998802e+000
 1.209384530018629e+000	 1.489627678629269e+000	 1.061148157350702e+001
 1.193940234632388e+000	 1.502034712821902e+000	 1.060981164885945e+001
 1.178377852892342e+000	 1.514274479154532e+000	 1.059004540008399e+001
 1.162700094158527e+000	 1.526345325757011e+000	 1.055338375221230e+001
 1.146909697777307e+000	 1.538245659045502e+000	 1.050105072841126e+001
 1.131009431521554e+000	 1.549973944377640e+000	 1.043429097428755e+001
 1.115002090014609e+000	 1.561528706657874e+000	 1.035436725501511e+001
 1.098890493139840e+000	 1.572908530892597e+000	 1.026255793154182e+001
 1.082677484437690e+000	 1.584112062694692e+000	 1.016015442214133e+001
 1.066365929492037e+000	 1.595138008737230e+000	 1.004845865556418e+001
 1.049958714307748e+000	 1.605985137156131e+000	 9.928780522014172e+000
 1.213323893310637e+000	 1.494479886052538e+000	 1.060690751157294e+001
 1.197829290773213e+000	 1.506927334037417e+000	 1.061075646772485e+001
 1.182216217235838e+000	 1.519206969315805e+000	 1.059609526559291e+001
 1.166487390883823e+000	 1.531317134636868e+000	 1.056415053609713e+001
 1.150645559986485e+000	 1.543256231225944e+000	 1.051617232149940e+001
 1.134693501332243e+000	 1.555022719441831e+000	 1.045343155984438e+001
 1.118634018647445e+000	 1.566615119384109e+000	 1.037721754196321e+001
 1.102469941000750e+000	 1.578032011450071e+000	 1.028883534738292e+001
 1.086204121194945e+000	 1.589272036840915e+000	 1.018960326549503e+001
 1.069839434148057e+000	 1.600333898016920e+000	 1.008085020832477e+001
 1.053378775265623e+000	 1.611216359101421e+000	 9.963913121212705e+000
 1.217263256603645e+000	 1.499332093476309e+000	 1.060544288551477e+001
 1.201718346915033e+000	 1.511819955253519e+000	 1.061488997582467e+001
 1.186054581580313e+000	 1.524139459477718e+000	 1.060541071543055e+001
 1.170274687610073e+000	 1.536288943517389e+000	 1.057825749640968e+001
 1.154381422196581e+000	 1.548266803407044e+000	 1.053470643769979e+001
 1.138377571143806e+000	 1.560071494506646e+000	 1.047605482953052e+001
 1.122265947281101e+000	 1.571701532110902e+000	 1.040361855015468e+001
 1.106049388862413e+000	 1.583155492008006e+000	 1.031872946131048e+001
 1.089730757952877e+000	 1.594432010987472e+000	 1.022273278885344e+001
 1.073312938804670e+000	 1.605529787296789e+000	 1.011698449499006e+001
 1.056798836223996e+000	 1.616447581046705e+000	 1.000284864850797e+001
 1.221202619897652e+000	 1.504184300900581e+000	 1.060711126828656e+001
 1.205607403057849e+000	 1.516712576470207e+000	 1.062223416657634e+001
 1.189892945925769e+000	 1.529071949640272e+000	 1.061801215180511e+001
 1.174061984337278e+000	 1.541260752398576e+000	 1.059572343354567e+001
 1.158117284407598e+000	 1.553277375588804e+000	 1.055667026606795e+001
 1.142061640956243e+000	 1.565120269572084e+000	 1.050217635261491e+001
 1.125897875915574e+000	 1.576787944838252e+000	 1.043358422171191e+001
 1.109628836724828e+000	 1.588278972566403e+000	 1.035225258202869e+001
 1.093257394711487e+000	 1.599591985134366e+000	 1.025955366232199e+001
 1.076786443461876e+000	 1.610725676576839e+000	 1.015687054297662e+001
 1.060218897182866e+000	 1.621678802991984e+000	 1.004559448562916e+001
 1.026018287616547e+000	 1.569366583538957e+000	 9.788746339613505e+000
 1.009894537819258e+000	 1.579790499573114e+000	 9.711410499286675e+000
 9.936830028537118e-001	 1.590037449214298e+000	 9.620943926549424e+000
 9.773865532146965e-001	 1.600106410731609e+000	 9.518418977737387e+000
 9.610080729608083e-001	 1.609996423529535e+000	 9.404914909776327e+000
 9.445504581131337e-001	 1.619706588291817e+000	 9.281515661467706e+000
 9.280166150561219e-001	 1.629236067075867e+000	 9.149307653399411e+000
 9.114094589423907e-001	 1.638584083358054e+000	 9.009377611592035e+000
 8.947319121031903e-001	 1.647749922030257e+000	 8.862810419845550e+000
 8.779869024662259e-001	 1.656732929348135e+000	 8.710687005600262e+000
 8.611773619824999e-001	 1.665532512831657e+000	 8.554082263955571e+000
 1.029438348570941e+000	 1.574597805484284e+000	 9.797452230370851e+000
 1.013260852941238e+000	 1.585056467906280e+000	 9.721167596335668e+000
 9.969952795261364e-001	 1.595337574047182e+000	 9.631572703822796e+000
 9.806445083887407e-001	 1.605440098770318e+000	 9.529745676492473e+000
 9.642114332011751e-001	 1.615363078278190e+000	 9.416771662068406e+000
 9.476989596379294e-001	 1.625105610256820e+000	 9.293740596114423e+000
 9.311100037714006e-001	 1.634666853970480e+000	 9.161744984512295e+000
 9.144474904713809e-001	 1.644046030307126e+000	 9.021877709792060e+000
 8.977143518102249e-001	 1.653242421774943e+000	 8.875229866328262e+000
 8.809135254753959e-001	 1.662255372450445e+000	 8.722888629253307e+000
 8.640479531910661e-001	 1.671084287878667e+000	 8.565935161776402e+000
 1.032858409525832e+000	 1.579829027429605e+000	 9.809913712954275e+000
 1.016627168063614e+000	 1.590322436239252e+000	 9.734530163813387e+000
 1.000307556198858e+000	 1.600637698879700e+000	 9.645655612345889e+000
 9.839024635629816e-001	 1.610773786808511e+000	 9.544374115474879e+000
 9.674147934416386e-001	 1.620729733026200e+000	 9.431776877547529e+000
 9.508474611627218e-001	 1.630504632221071e+000	 9.308959996373238e+000
 9.342033924865755e-001	 1.640097640864250e+000	 9.177022228040460e+000
 9.174855220001674e-001	 1.649507977255287e+000	 9.037062775708709e+000
 9.006967915169556e-001	 1.658734921518669e+000	 8.890179107432914e+000
 8.838401484841623e-001	 1.667777815551765e+000	 8.737464807914403e+000
 8.669185443991284e-001	 1.676636062924676e+000	 8.580007468907894e+000
 1.036278470481221e+000	 1.585060249374921e+000	 9.826137067070278e+000
 1.019993483186389e+000	 1.595588404572029e+000	 9.751504900391410e+000
 1.003619832871877e+000	 1.605937823711855e+000	 9.663199764332504e+000
 9.871604187374202e-001	 1.616107474846190e+000	 9.562311815142227e+000
 9.706181536821995e-001	 1.626096387773568e+000	 9.449938479743235e+000
 9.539959626875111e-001	 1.635903654184569e+000	 9.327182183802696e+000
 9.372967812016472e-001	 1.645528427757180e+000	 9.195148098660315e+000
 9.205235535287505e-001	 1.654969924202536e+000	 9.054941912358377e+000
 9.036792312233829e-001	 1.664227421261435e+000	 8.907667629873009e+000
 8.867667714925245e-001	 1.673300258652095e+000	 8.754425407487233e+000
 8.697891356066869e-001	 1.682187837969686e+000	 8.596309426073340e+000
 1.039698531437106e+000	 1.590291471320231e+000	 9.846128737727224e+000
 1.023359798309560e+000	 1.600854372904609e+000	 9.772098658831757e+000
 1.006932109545193e+000	 1.611237948543644e+000	 9.684212414892583e+000
 9.904183739120553e-001	 1.621441162883355e+000	 9.583566427674207e+000
 9.738215139228568e-001	 1.631463042520292e+000	 9.471264512759316e+000
 9.571444642122964e-001	 1.641302676147314e+000	 9.348415589419318e+000
 9.403901699166150e-001	 1.650959214649267e+000	 9.216131409426604e+000
 9.235615850571298e-001	 1.660431871148874e+000	 9.075524310097718e+000
 9.066616709295061e-001	 1.669719921003239e+000	 8.927704996710906e+000
 8.896933945004830e-001	 1.678822701751434e+000	 8.773780359283801e+000
 8.726597268137412e-001	 1.687739613013696e+000	 8.614851328520468e+000
 1.043118592393490e+000	 1.595522693265537e+000	 9.869895332524973e+000
 1.026726113433129e+000	 1.606120341236996e+000	 9.796318443461280e+000
 1.010244386218806e+000	 1.616538073375068e+000	 9.708700959688779e+000
 9.936763290868880e-001	 1.626774850920006e+000	 9.608145734812773e+000
 9.770248741636112e-001	 1.636829697266372e+000	 9.495763139296919e+000
 9.602929657370789e-001	 1.646701698109305e+000	 9.372668751903067e+000
 9.434835586314797e-001	 1.656390001540512e+000	 9.239981070159496e+000
 9.265996165853052e-001	 1.665893818094300e+000	 9.098819245191647e+000
 9.096441106353255e-001	 1.675212420744084e+000	 8.950300846105481e+000
 8.926200175080375e-001	 1.684345144849784e+000	 8.795539658952430e+000
 8.755303180202917e-001	 1.693291388056706e+000	 8.635643525127913e+000
 1.046538653350370e+000	 1.600753915210837e+000	 9.897443618998802e+000
 1.030092428557095e+000	 1.611386309569187e+000	 9.824171407695001e+000
 1.013556662892717e+000	 1.621838198206127e+000	 9.736672932640436e+000
 9.969342842619171e-001	 1.632108538956142e+000	 9.636057645745241e+000
 9.802282344044625e-001	 1.642196352011809e+000	 9.523442638716796e+000
 9.634414672618581e-001	 1.652100720070546e+000	 9.399950315838311e+000
 9.465769473462409e-001	 1.661820788430915e+000	 9.266706085863360e+000
 9.296376481132772e-001	 1.671355765038816e+000	 9.124836078409532e+000
 9.126265503408410e-001	 1.680704920483967e+000	 8.975464890085647e+000
 8.955466405151881e-001	 1.689867587947143e+000	 8.819713365426173e+000
 8.784009092263384e-001	 1.698843163098715e+000	 8.658696417528638e+000
 1.049958714307748e+000	 1.605985137156131e+000	 9.928780522014172e+000
 1.033458743681458e+000	 1.616652277901183e+000	 9.855664851607784e+000
 1.016868939566925e+000	 1.627138323036822e+000	 9.768136003671652e+000
 1.000192239437144e+000	 1.637442226991764e+000	 9.667310195028556e+000
 9.834315946454103e-001	 1.647563006756601e+000	 9.554311405139476e+000
 9.665899687866340e-001	 1.657499742031032e+000	 9.430269029988764e+000
 9.496703360608980e-001	 1.667251575320476e+000	 9.296315555176593e+000
 9.326756796410455e-001	 1.676817711982420e+000	 9.153584253648956e+000
 9.156089900460527e-001	 1.686197420222890e+000	 9.003206913346805e+000
 8.984732635219348e-001	 1.695390031043512e+000	 8.846311599892253e+000
 8.812715004318810e-001	 1.704394938139725e+000	 8.684020459250853e+000
 1.053378775265623e+000	 1.611216359101421e+000	 9.963913121212705e+000
 1.036825058806219e+000	 1.621918246232983e+000	 9.890806219553754e+000
 1.020181216241430e+000	 1.632438447867152e+000	 9.803097976503580e+000
 1.003450194612567e+000	 1.642775915026872e+000	 9.701911540554145e+000
 9.866349548864556e-001	 1.652929661500751e+000	 9.588377945581863e+000
 9.697384703114064e-001	 1.662898763990765e+000	 9.463633745606474e+000
 9.527637247754521e-001	 1.672682362209195e+000	 9.328818668851859e+000
 9.357137111686101e-001	 1.682279658925114e+000	 9.185073296586422e+000
 9.185914297509608e-001	 1.691689919960852e+000	 9.033536772071763e+000
 9.013998865282776e-001	 1.700912474138892e+000	 8.875344544781388e+000
 8.841420916369196e-001	 1.709946713179735e+000	 8.711626154875452e+000
 1.056798836223996e+000	 1.616447581046705e+000	 1.000284864850797e+001
 1.040191373931378e+000	 1.627184214564589e+000	 9.929603097831571e+000
 1.023493492916232e+000	 1.637738572697117e+000	 9.841566786489162e+000
 1.006708149788188e+000	 1.648109603061466e+000	 9.739869961552291e+000
 9.898383151275974e-001	 1.658296316244257e+000	 9.625650878130799e+000
 9.728869718361758e-001	 1.668297785949747e+000	 9.500053414773086e+000
 9.558571134899028e-001	 1.678113149097072e+000	 9.364224708265013e+000
 9.387517426959708e-001	 1.687741605866895e+000	 9.219312813353922e+000
 9.215738694555651e-001	 1.697182419697854e+000	 9.066464392773291e+000
 9.043265095342166e-001	 1.706434917233280e+000	 8.906822442777111e+000
 8.870126828414544e-001	 1.715498488218744e+000	 8.741524059210160e+000
 1.060218897182866e+000	 1.621678802991984e+000	 1.004559448562916e+001
 1.043557689056933e+000	 1.632450182895999e+000	 9.972063212394943e+000
 1.026805769591331e+000	 1.643038697526718e+000	 9.883550498490223e+000
 1.009966104964006e+000	 1.653443291095545e+000	 9.781193856634889e+000
 9.930416753688363e-001	 1.663662970987120e+000	 9.666138930151615e+000
 9.760354733609418e-001	 1.673696807907975e+000	 9.539537088774251e+000
 9.589505022042499e-001	 1.683543935984107e+000	 9.402543043954083e+000
 9.417897742231285e-001	 1.693203552807766e+000	 9.256312489240901e+000
 9.245563091598654e-001	 1.702674919433895e+000	 9.101999771160406e+000
 9.072531325397517e-001	 1.711957360326679e+000	 8.940755595843372e+000
 8.898832740454854e-001	 1.721050263256754e+000	 8.773724776479071e+000
 8.611773619824999e-001	 1.665532512831657e+000	 8.554082263955571e+000
 8.443062250641894e-001	 1.674148141118071e+000	 8.386301517020234e+000
 8.273764270339610e-001	 1.682579343769193e+000	 8.213547277955767e+000
 8.103909025882281e-001	 1.690825711032834e+000	 8.036774628189638e+000
 7.933525842765065e-001	 1.698886893558412e+000	 7.856928163156415e+000
 7.762644009971839e-001	 1.706762602068787e+000	 7.674940222872458e+000
 7.591292765115666e-001	 1.714452606988756e+000	 7.491729179238613e+000
 7.419501279775844e-001	 1.721956738031161e+000	 7.308197783230868e+000
 7.247298645045055e-001	 1.729274883741580e+000	 7.125231574909424e+000
 7.074713857299525e-001	 1.736406991002612e+000	 6.943697358941674e+000
 6.901775804204618e-001	 1.743353064498843e+000	 6.764441748091826e+000
 8.640479531910661e-001	 1.671084287878667e+000	 8.565935161776402e+000
 8.471205791506757e-001	 1.679728634925715e+000	 8.396944509648563e+000
 8.301343484611896e-001	 1.688187941585347e+000	 8.223558882571526e+000
 8.130922056013443e-001	 1.696461796739532e+000	 8.046751313952640e+000
 7.959970928958200e-001	 1.704549849873188e+000	 7.867483539162964e+000
 7.788519490060007e-001	 1.712451810744917e+000	 7.686704208369376e+000
 7.616597074390636e-001	 1.720167449014264e+000	 7.505347157584724e+000
 7.444232950767996e-001	 1.727696593826450e+000	 7.324329741112612e+000
 7.271456307255080e-001	 1.735039133355537e+000	 7.144551228332531e+000
 7.098296236882712e-001	 1.742195014307065e+000	 6.966891267526330e+000
 6.924781723608480e-001	 1.749164241381237e+000	 6.792208419206038e+000
 8.669185443991284e-001	 1.676636062924676e+000	 8.580007468907894e+000
 8.499349332365681e-001	 1.685309128732365e+000	 8.409825073326662e+000
 8.328922698877554e-001	 1.693796539400522e+000	 8.235821775624331e+000
 8.157935086137482e-001	 1.702097882445277e+000	 8.058988662481152e+000
 7.986416015143932e-001	 1.710212806187047e+000	 7.880304711726181e+000
 7.814394970140680e-001	 1.718141019420174e+000	 7.700734987253180e+000
 7.641901383658227e-001	 1.725882291038956e+000	 7.521228893645471e+000
 7.468964621753078e-001	 1.733436449620988e+000	 7.342718493707889e+000
 7.295613969458545e-001	 1.740803382968817e+000	 7.166116891859837e+000
 7.121878616460046e-001	 1.747983037610927e+000	 6.992316686103917e+000
 6.947787643007394e-001	 1.754975418263134e+000	 6.822188491033511e+000
 8.697891356066869e-001	 1.682187837969686e+000	 8.596309426073340e+000
 8.527492873218667e-001	 1.690889622538019e+000	 8.424952105950480e+000
 8.356501913136584e-001	 1.699405137214717e+000	 8.250343556145261e+000
 8.184948116254405e-001	 1.707733968150068e+000	 8.073493018570311e+000
 8.012861101322251e-001	 1.715875762499987e+000	 7.895396816666350e+000
 7.840270450213859e-001	 1.723830228094559e+000	 7.717036532225914e+000
 7.667205692918437e-001	 1.731597133062832e+000	 7.539377243422406e+000
 7.493696292731095e-001	 1.739176305414776e+000	 7.363365827258088e+000
 7.319771631655454e-001	 1.746567632581423e+000	 7.189929329400971e+000
 7.145460996031529e-001	 1.753771060914199e+000	 7.019973404131266e+000
 6.970793562401356e-001	 1.760786595144538e+000	 6.854380826869648e+000
 8.726597268137412e-001	 1.687739613013696e+000	 8.614851328520468e+000
 8.555636414065723e-001	 1.696470116342679e+000	 8.442334571662657e+000
 8.384081127388980e-001	 1.705013735027932e+000	 8.267131900567501e+000
 8.211961146364203e-001	 1.713370053853905e+000	 8.090270815004372e+000
 8.039306187493163e-001	 1.721538718812008e+000	 7.912765087808566e+000
 7.866145930279542e-001	 1.729519436768071e+000	 7.735612923438168e+000
 7.692510002171262e-001	 1.737311975085890e+000	 7.559795179234575e+000
 7.518427963702038e-001	 1.744916161207812e+000	 7.386273652617612e+000
 7.343929293845802e-001	 1.752331882193353e+000	 7.215989437198496e+000
 7.169043375597161e-001	 1.759559084216882e+000	 7.049861350542246e+000
 6.993799481790373e-001	 1.766597772025446e+000	 6.888784436056605e+000
 8.755303180202917e-001	 1.693291388056706e+000	 8.635643525127913e+000
 8.583779954906836e-001	 1.702050610146344e+000	 8.461981499766864e+000
 8.411660341634747e-001	 1.710622332840169e+000	 8.286194561458110e+000
 8.238974176466883e-001	 1.719006139556788e+000	 8.109328571114375e+000
 8.065751273656667e-001	 1.727201675123112e+000	 7.932414855376283e+000
 7.892021410337732e-001	 1.735208645440711e+000	 7.756468346727264e+000
 7.717814311416710e-001	 1.743026817108132e+000	 7.582485787812401e+000
 7.543159634665914e-001	 1.750656017000096e+000	 7.411444003210962e+000
 7.368086956029595e-001	 1.758096131804607e+000	 7.244298241658404e+000
 7.192625755156944e-001	 1.765347107518974e+000	 7.081980591461734e+000
 7.016805401174439e-001	 1.772408948905860e+000	 6.925398471589344e+000
 8.784009092263384e-001	 1.698843163098715e+000	 8.658696417528638e+000
 8.611923495742012e-001	 1.707631103949014e+000	 8.483901983662511e+000
 8.439239555873883e-001	 1.716230930651425e+000	 8.307539366273533e+000
 8.265987206562442e-001	 1.724642225258717e+000	 8.130672891363869e+000
 8.092196359812760e-001	 1.732864631433297e+000	 7.954351544416256e+000
 7.917896890388421e-001	 1.740897854112478e+000	 7.779607091890558e+000
 7.743118620654771e-001	 1.748741659129557e+000	 7.607452268427895e+000
 7.567891305622720e-001	 1.756395872791631e+000	 7.438879033029801e+000
 7.392244618206827e-001	 1.763860381415186e+000	 7.274856897223142e+000
 7.216208134710871e-001	 1.771135130820477e+000	 7.116331327963696e+000
 7.039811320553557e-001	 1.778220125785779e+000	 6.964222227768032e+000
 8.812715004318810e-001	 1.704394938139725e+000	 8.684020459250853e+000
 8.640067036571254e-001	 1.713211597750689e+000	 8.508105179801351e+000
 8.466818770106390e-001	 1.721839528461702e+000	 8.331174216139850e+000
 8.293000236650880e-001	 1.730278310959692e+000	 8.154310463962318e+000
 8.118641445961448e-001	 1.738527587742563e+000	 7.978580673254073e+000
 7.943772370431622e-001	 1.746587062783374e+000	 7.805033550992221e+000
 7.768422929885454e-001	 1.754456501150165e+000	 7.634697931061700e+000
 7.592622976572458e-001	 1.762135728582413e+000	 7.468581014669790e+000
 7.416402280377501e-001	 1.769624631025090e+000	 7.307666684286486e+000
 7.239790514258949e-001	 1.776923154121389e+000	 7.152913893873366e+000
 7.062817239927728e-001	 1.784031302665203e+000	 7.005255137896708e+000
 8.841420916369196e-001	 1.709946713179735e+000	 8.711626154875452e+000
 8.668210577394556e-001	 1.718792091551369e+000	 8.534600306663741e+000
 8.494397984332268e-001	 1.727448126271001e+000	 8.357107084657340e+000
 8.320013266732197e-001	 1.735914396659714e+000	 8.180248059505800e+000
 8.145086532102724e-001	 1.744190544050912e+000	 8.005107851979810e+000
 7.969647850467323e-001	 1.752276271453396e+000	 7.832752216703134e+000
 7.793727239108755e-001	 1.760171343169956e+000	 7.664226194606000e+000
 7.617354647515128e-001	 1.767875584372445e+000	 7.500552337404510e+000
 7.440559942541618e-001	 1.775388880634319e+000	 7.342729007148692e+000
 7.263372893801178e-001	 1.782711177421712e+000	 7.191728753612255e+000
 7.085823159296947e-001	 1.789842479544131e+000	 7.048496772026925e+000
 8.870126828414544e-001	 1.715498488218744e+000	 8.741524059210160e+000
 8.696354118211923e-001	 1.724372585351054e+000	 8.563396643754627e+000
 8.521977198551511e-001	 1.733056724079319e+000	 8.385346016727331e+000
 8.347026296806395e-001	 1.741550482358781e+000	 8.208492529643761e+000
 8.171531618236595e-001	 1.749853500358342e+000	 8.033938780963442e+000
 7.995523330495531e-001	 1.757965480122546e+000	 7.862767680672865e+000
 7.819031548324673e-001	 1.765886185188932e+000	 7.696040585102162e+000
 7.642086318450727e-001	 1.773615440161726e+000	 7.534795505298217e+000
 7.464717604699174e-001	 1.781153130242871e+000	 7.380045392011941e+000
 7.286955273337553e-001	 1.788499200721444e+000	 7.232776500084810e+000
 7.108829078661220e-001	 1.795653656422566e+000	 7.093946834744704e+000
 8.898832740454854e-001	 1.721050263256754e+000	 8.773724776479071e+000
 8.724497659023354e-001	 1.729953079149745e+000	 8.594503530619818e+000
 8.549556412764131e-001	 1.738665321886658e+000	 8.415899127402106e+000
 8.374039326873473e-001	 1.747186568056895e+000	 8.239050805771718e+000
 8.197976704363057e-001	 1.755516456664855e+000	 8.065079249398474e+000
 8.021398810516243e-001	 1.763654688790824e+000	 7.895084631933203e+000
 7.844335857533213e-001	 1.771601027207091e+000	 7.730144734012491e+000
 7.666817989379259e-001	 1.779355295950257e+000	 7.571313135353718e+000
 7.488875266850175e-001	 1.786917379850749e+000	 7.419617485013512e+000
 7.310537652868080e-001	 1.794287224020587e+000	 7.276057852606363e+000
 7.131834998020544e-001	 1.801464833300505e+000	 7.141605163001006e+000
 6.901775804204618e-001	 1.743353064498843e+000	 6.764441748091826e+000
 6.728513250967415e-001	 1.750113166144221e+000	 6.656297269126292e+000
 6.554954826849970e-001	 1.756687414471024e+000	 6.546850707961915e+000
 6.381129011950371e-001	 1.763075983983008e+000	 6.436775943816874e+000
 6.207064124262774e-001	 1.769279104475128e+000	 6.314343858445769e+000
 6.032788307027911e-001	 1.775297060319161e+000	 6.157105968024607e+000
 5.858329516382178e-001	 1.781130189717126e+000	 6.005459545644114e+000
 5.683715509313850e-001	 1.786778883923817e+000	 5.860633049602169e+000
 5.508973831934354e-001	 1.792243586439751e+000	 5.723786424595905e+000
 5.334131808071949e-001	 1.797524792175859e+000	 5.596009713863321e+000
 5.159216528194558e-001	 1.802623046591256e+000	 5.478321854032271e+000
 6.924781723608480e-001	 1.749164241381237e+000	 6.792208419206038e+000
 6.750941628524162e-001	 1.755946876698433e+000	 6.687030793190519e+000
 6.576804676323347e-001	 1.762543039186094e+000	 6.579769451337269e+000
 6.402399442037787e-001	 1.768952903929652e+000	 6.471105715776063e+000
 6.227754338054954e-001	 1.775176701490048e+000	 6.355331700140774e+000
 6.052897601426381e-001	 1.781214717186963e+000	 6.198078084660357e+000
 5.877857281475581e-001	 1.787067290349753e+000	 6.045883339598778e+000
 5.702661227714131e-001	 1.792734813537397e+000	 5.899995030864727e+000
 5.527337078073826e-001	 1.798217731728746e+000	 5.761592034109358e+000
 5.351912247462354e-001	 1.803516541484431e+000	 5.631783117009172e+000
 5.176413916649195e-001	 1.808631790081765e+000	 5.511605705736601e+000
 6.947787643007394e-001	 1.754975418263134e+000	 6.822188491033511e+000
 6.773370006076905e-001	 1.761780587252239e+000	 6.719816345977001e+000
 6.598654525793569e-001	 1.768398663900827e+000	 6.614585694728159e+000
 6.423669872122793e-001	 1.774829823876010e+000	 6.507185401100437e+000
 6.248444551845370e-001	 1.781074298504710e+000	 6.397842810608973e+000
 6.073006895823625e-001	 1.787132374054514e+000	 6.240387683953521e+000
 5.897385046568202e-001	 1.793004390982118e+000	 6.087468428787317e+000
 5.721606946113972e-001	 1.798690743150683e+000	 5.940351889347809e+000
 5.545700324213103e-001	 1.804191877017394e+000	 5.800236031559548e+000
 5.369692686852710e-001	 1.809508290792586e+000	 5.668248495377865e+000
 5.193611305103831e-001	 1.814640533571767e+000	 5.545445332823593e+000
 6.970793562401356e-001	 1.760786595144538e+000	 6.854380826869648e+000
 6.795798383625650e-001	 1.767614297805641e+000	 6.754653297050960e+000
 6.620504375260641e-001	 1.774254288615225e+000	 6.651299261593485e+000
 6.444940302205393e-001	 1.780706743822080e+000	 6.545015225139792e+000
 6.269134765634016e-001	 1.786971895519113e+000	 6.436479061832366e+000
 6.093116190219645e-001	 1.793050030921814e+000	 6.284045646902377e+000
 5.916912811660045e-001	 1.798941491614222e+000	 6.130225416046840e+000
 5.740552664513378e-001	 1.804646672763676e+000	 5.981713910419178e+000
 5.564063570352187e-001	 1.810166022305699e+000	 5.839728346467378e+000
 5.387473126243015e-001	 1.815500040100325e+000	 5.705415385199241e+000
 5.210808693558470e-001	 1.820649277061263e+000	 5.579849841718109e+000
 6.993799481790373e-001	 1.766597772025446e+000	 6.888784436056605e+000
 6.818226761170395e-001	 1.773448008358637e+000	 6.791541149811833e+000
 6.642354224724554e-001	 1.780109913329286e+000	 6.689910097773851e+000
 6.466210732285580e-001	 1.786583663767863e+000	 6.584595524934604e+000
 6.289824979420897e-001	 1.792869492533257e+000	 6.476283516461112e+000
 6.113225484614442e-001	 1.798967687788864e+000	 6.329062947093088e+000
 5.936440576751104e-001	 1.804878592246062e+000	 6.174164988389884e+000
 5.759498382912343e-001	 1.810602602376375e+000	 6.024091455965755e+000
 5.582426816491075e-001	 1.816140167593657e+000	 5.880078977973429e+000
 5.405253565633275e-001	 1.821491789407649e+000	 5.743293386174588e+000
 5.228006082013107e-001	 1.826658020550252e+000	 5.614828396918004e+000
 7.016805401174439e-001	 1.772408948905860e+000	 6.925398471589344e+000
 6.840655138711140e-001	 1.779281718911228e+000	 6.830479539299476e+000
 6.664204074185316e-001	 1.785965538043012e+000	 6.730418269485806e+000
 6.487481162363360e-001	 1.792460583713359e+000	 6.625926747384676e+000
 6.310515193206012e-001	 1.798767089547142e+000	 6.517699362650427e+000
 6.133334779008015e-001	 1.804885344655664e+000	 6.375450649181921e+000
 5.955968341841381e-001	 1.810815692877641e+000	 6.219297915623794e+000
 5.778444101310871e-001	 1.816558531988780e+000	 6.067494963139836e+000
 5.600790062629770e-001	 1.822114312881272e+000	 5.921297993695291e+000
 5.423034005023484e-001	 1.827483538714556e+000	 5.781892160435640e+000
 5.245203470467744e-001	 1.832666764038736e+000	 5.650390220042552e+000
 7.039811320553557e-001	 1.778220125785779e+000	 6.964222227768032e+000
 6.863083516247884e-001	 1.785115429463414e+000	 6.871468230042978e+000
 6.686053923642923e-001	 1.791821162756401e+000	 6.772823961354846e+000
 6.508751592438730e-001	 1.798337503658568e+000	 6.669009447454354e+000
 6.331205406989361e-001	 1.804664686560769e+000	 6.560727476342960e+000
 6.153444073400365e-001	 1.810803001522213e+000	 6.423219907407026e+000
 5.975496106930879e-001	 1.816752793508958e+000	 6.265635048998528e+000
 5.797389819708957e-001	 1.822514461600891e+000	 6.111934943128675e+000
 5.619153308768267e-001	 1.828088458168540e+000	 5.963395528609728e+000
 5.440814444413644e-001	 1.833475288021048e+000	 5.821221431524773e+000
 5.262400858922380e-001	 1.838675507526713e+000	 5.686544588898921e+000
 7.062817239927728e-001	 1.784031302665203e+000	 7.005255137896708e+000
 6.885511893780628e-001	 1.790949140015195e+000	 6.914507113951746e+000
 6.707903773097377e-001	 1.797676787469455e+000	 6.817127474486809e+000
 6.530022022511691e-001	 1.804214423603489e+000	 6.713844286412257e+000
 6.351895620770943e-001	 1.810562283574137e+000	 6.605368830333569e+000
 6.173553367791489e-001	 1.816720658388511e+000	 6.472381964129682e+000
 5.995023872019594e-001	 1.822689894140012e+000	 6.313187319879697e+000
 5.816335538106608e-001	 1.828470391212709e+000	 6.157421979949025e+000
 5.637516554906573e-001	 1.834062603455464e+000	 6.006381783954831e+000
 5.458594883803758e-001	 1.839467037327124e+000	 5.861290983394612e+000
 5.279598247377019e-001	 1.844684251014184e+000	 5.723300836566901e+000
 7.085823159296947e-001	 1.789842479544131e+000	 7.048496772026925e+000
 6.907940271309374e-001	 1.796782850566570e+000	 6.959596208247779e+000
 6.729753622548678e-001	 1.803532412182172e+000	 6.863329224577043e+000
 6.551292452582241e-001	 1.810091343548123e+000	 6.760432030105759e+000
 6.372585834550759e-001	 1.816459880587245e+000	 6.651624492696906e+000
 6.193662662181393e-001	 1.822638315254560e+000	 6.522948148403205e+000
 6.014551637107527e-001	 1.828626994770804e+000	 6.361965738448445e+000
 5.835281256503820e-001	 1.834426320824233e+000	 6.203966729264789e+000
 5.655879801044684e-001	 1.840036748742042e+000	 6.050267026155060e+000
 5.476375323193822e-001	 1.845458786632783e+000	 5.902110659427605e+000
 5.296795635831655e-001	 1.850692994501148e+000	 5.760668350501820e+000
 7.108829078661220e-001	 1.795653656422566e+000	 7.093946834744704e+000
 6.930368648834121e-001	 1.802616561117541e+000	 7.006735653437636e+000
 6.751603471996822e-001	 1.809388036894553e+000	 6.911429740056269e+000
 6.572562882650384e-001	 1.815968263492470e+000	 6.808773547268721e+000
 6.393276048328809e-001	 1.822357477600096e+000	 6.699495625245659e+000
 6.213771956570071e-001	 1.828555972120358e+000	 6.574929874570940e+000
 6.034079402194679e-001	 1.834564095401335e+000	 6.411981392425694e+000
 5.854226974900592e-001	 1.840382250435463e+000	 6.251579917227581e+000
 5.674243047182599e-001	 1.846010894028275e+000	 6.095061585765787e+000
 5.494155762583838e-001	 1.851450535938027e+000	 5.943690361474085e+000
 5.313993024286292e-001	 1.856701737987607e+000	 5.798656571654751e+000
 7.131834998020544e-001	 1.801464833300505e+000	 7.141605163001006e+000
 6.952797026354864e-001	 1.808450271668106e+000	 7.055925711324423e+000
 6.773453321441815e-001	 1.815243661606599e+000	 6.961429660272053e+000
 6.593833312716116e-001	 1.821845183436530e+000	 6.858869807861899e+000
 6.413966262105094e-001	 1.828255074612687e+000	 6.748983482018947e+000
 6.233881250957524e-001	 1.834473628985905e+000	 6.628338640889960e+000
 6.053607167281053e-001	 1.840501196031603e+000	 6.463245445821799e+000
 5.873172693296928e-001	 1.846338180046400e+000	 6.300272339340066e+000
 5.692606293320324e-001	 1.851985039314165e+000	 6.140775856439207e+000
 5.511936201973806e-001	 1.857442285242855e+000	 5.986040048909461e+000
 5.331190412740930e-001	 1.862710481473559e+000	 5.837274993609444e+000
 5.159216528194558e-001	 1.802623046591256e+000	 5.478321854032271e+000
 4.984254838668907e-001	 1.807538944805128e+000	 5.370128903821982e+000
 4.809273331357559e-001	 1.812273130685128e+000	 5.265163229899050e+000
 4.634298333563613e-001	 1.816826295912912e+000	 5.164299041659843e+000
 4.459355898327648e-001	 1.821199179027543e+000	 5.068342981496105e+000
 4.284471795077297e-001	 1.825392564449202e+000	 4.978033614737734e+000
 4.109671500634334e-001	 1.829407281484210e+000	 4.894041084636446e+000
 3.934980190581912e-001	 1.833244203312739e+000	 4.816966929076119e+000
 3.760422730994147e-001	 1.836904245960602e+000	 4.747344055333039e+000
 3.586023670529663e-001	 1.840388367256442e+000	 4.685636868876632e+000
 3.411807232890136e-001	 1.843697565775724e+000	 4.632241551885185e+000
 5.176413916649195e-001	 1.808631790081765e+000	 5.511605705736601e+000
 5.000869021488941e-001	 1.813564074623577e+000	 5.399466710141857e+000
 4.825304242483668e-001	 1.818314041123661e+000	 5.288384910311716e+000
 4.649745994694153e-001	 1.822882383569279e+000	 5.179246548169442e+000
 4.474220418004443e-001	 1.827269842961289e+000	 5.072871636825701e+000
 4.298753367740266e-001	 1.831477206334609e+000	 4.970013404888462e+000
 4.123370405646135e-001	 1.835505305759913e+000	 4.871357905807582e+000
 3.948096791223814e-001	 1.839355017327978e+000	 4.777523789002776e+000
 3.772957473434334e-001	 1.843027260118031e+000	 4.689062229170903e+000
 3.597977082765180e-001	 1.846522995151483e+000	 4.606457009820173e+000
 3.423179923663704e-001	 1.849843224332383e+000	 4.530124756771462e+000
 5.193611305103831e-001	 1.814640533571767e+000	 5.545445332823593e+000
 5.017483204308975e-001	 1.819589204441430e+000	 5.428991440652387e+000
 4.841335153609776e-001	 1.824354951561529e+000	 5.311447289371421e+000
 4.665193655824692e-001	 1.828938471224930e+000	 5.193711260168025e+000
 4.489084937681237e-001	 1.833340506894293e+000	 5.076616824787273e+000
 4.313034940403234e-001	 1.837561848219266e+000	 4.960931944359404e+000
 4.137069310657934e-001	 1.841603330034879e+000	 4.847358633272890e+000
 3.961213391865715e-001	 1.845465831342510e+000	 4.736532684916323e+000
 3.785492215874520e-001	 1.849150274274807e+000	 4.629023555745683e+000
 3.609930495000697e-001	 1.852657623045940e+000	 4.525334403792295e+000
 3.434552614437272e-001	 1.855988882888547e+000	 4.425902277404478e+000
 5.210808693558470e-001	 1.820649277061263e+000	 5.579849841718109e+000
 5.034097387129008e-001	 1.825614334258688e+000	 5.458714142217736e+000
 4.857366064735885e-001	 1.830395861998733e+000	 5.334363199179192e+000
 4.680641316955231e-001	 1.834994558879870e+000	 5.207707640659820e+000
 4.503949457358033e-001	 1.839411170826556e+000	 5.079594485893060e+000
 4.327316513066203e-001	 1.843646490103174e+000	 4.950806498776216e+000
 4.150768215669736e-001	 1.847701354309108e+000	 4.822061706441821e+000
 3.974329992507618e-001	 1.851576645356337e+000	 4.694013079804233e+000
 3.798026958314707e-001	 1.855273288430928e+000	 4.567248372602545e+000
 3.621883907236214e-001	 1.858792250939815e+000	 4.442290115114124e+000
 3.445925305210840e-001	 1.862134541444221e+000	 4.319595758395133e+000
 5.228006082013107e-001	 1.826658020550252e+000	 5.614828396918004e+000
 5.050711569949042e-001	 1.831639464075349e+000	 5.488645883469008e+000
 4.873396975861992e-001	 1.836436772435271e+000	 5.357145459624646e+000
 4.696088978085771e-001	 1.841050646534096e+000	 5.221250108786214e+000
 4.518813977034829e-001	 1.845481834758077e+000	 5.081820487461122e+000
 4.341598085729174e-001	 1.849731131986332e+000	 4.939654233554098e+000
 4.164467120681537e-001	 1.853799378582599e+000	 4.795485439804563e+000
 3.987446593149520e-001	 1.857687459369458e+000	 4.649984289326633e+000
 3.810561700754893e-001	 1.861396302586395e+000	 4.503756849838793e+000
 3.633837319471733e-001	 1.864926878833107e+000	 4.357345022818135e+000
 3.457297995984408e-001	 1.868280199999401e+000	 4.211226643490884e+000
 5.245203470467744e-001	 1.832666764038736e+000	 5.650390220042552e+000
 5.067325752769076e-001	 1.837664593891415e+000	 5.518797754446382e+000
 4.889427886988103e-001	 1.842477682871145e+000	 5.379806878586037e+000
 4.711536639216310e-001	 1.847106734187609e+000	 5.234353040543842e+000
 4.533678496711624e-001	 1.851552498688858e+000	 5.083310624814329e+000
 4.355879658392141e-001	 1.855815773868741e+000	 4.927492215540435e+000
 4.178166025693338e-001	 1.859897402855353e+000	 4.767648024980461e+000
 4.000563193791421e-001	 1.863798273381873e+000	 4.604465484230443e+000
 3.823096443195079e-001	 1.867519316741208e+000	 4.438568992849429e+000
 3.645790731707251e-001	 1.871061506725817e+000	 4.270519823685381e+000
 3.468670686757977e-001	 1.874425858554088e+000	 4.100816178868375e+000
 5.262400858922380e-001	 1.838675507526713e+000	 5.686544588898921e+000
 5.083939935589109e-001	 1.843689723706884e+000	 5.549180866249958e+000
 4.905458798114211e-001	 1.848518593306353e+000	 5.402360252126711e+000
 4.726984300346849e-001	 1.853162821840408e+000	 5.247030769489907e+000
 4.548543016388418e-001	 1.857623162618895e+000	 5.084080622457660e+000
 4.370161231055109e-001	 1.861900415750400e+000	 4.914337414625411e+000
 4.191864930705137e-001	 1.865995427127369e+000	 4.738567532725657e+000
 4.013679794433323e-001	 1.869909087393583e+000	 4.557475692717866e+000
 3.835631185635266e-001	 1.873642330895367e+000	 4.371704645017865e+000
 3.657744143942768e-001	 1.877196134617942e+000	 4.302838773304960e+000
 3.480043377531544e-001	 1.880571517108283e+000	 4.288378074954222e+000
 5.279598247377019e-001	 1.844684251014184e+000	 5.723300836566901e+000
 5.100554118409144e-001	 1.849714853521758e+000	 5.579806350696331e+000
 4.921489709240319e-001	 1.854559503740897e+000	 5.424818364687283e+000
 4.742431961477387e-001	 1.859218909492494e+000	 5.259297587433316e+000
 4.563407536065213e-001	 1.863693826548192e+000	 5.084146135231070e+000
 4.384442803718078e-001	 1.867985057631309e+000	 4.900206705321017e+000
 4.205563835716937e-001	 1.872093451398648e+000	 4.708261914901263e+000
 4.026796395075225e-001	 1.876019901404587e+000	 4.567588719278475e+000
 3.848165928075452e-001	 1.879765345048872e+000	 4.571717169562046e+000
 3.669697556178285e-001	 1.883330762509485e+000	 4.551126168712200e+000
 3.491416068305113e-001	 1.886717175661985e+000	 4.506016938258154e+000
 5.296795635831655e-001	 1.850692994501148e+000	 5.760668350501820e+000
 5.117168301229179e-001	 1.855739983336036e+000	 5.610685359982757e+000
 4.937520620366429e-001	 1.860600414174776e+000	 5.447193989274616e+000
 4.757879622607928e-001	 1.865274997143867e+000	 5.271167745112466e+000
 4.578272055742008e-001	 1.869764490476747e+000	 5.083522749440576e+000
 4.398724376381049e-001	 1.874069699511469e+000	 4.885116868309704e+000
 4.219262740728739e-001	 1.878191475669189e+000	 4.863325044654970e+000
 4.039912995717126e-001	 1.882130715414885e+000	 4.869177909794579e+000
 3.860700670515639e-001	 1.885888359201723e+000	 4.847603741363724e+000
 3.681650968413804e-001	 1.889465390400445e+000	 4.798768954560614e+000
 3.502788759078681e-001	 1.892862834215194e+000	 4.722887804670377e+000
 5.313993024286292e-001	 1.856701737987607e+000	 5.798656571654751e+000
 5.133782484049211e-001	 1.861765113149718e+000	 5.641829066356963e+000
 4.953551531492537e-001	 1.866641324607990e+000	 5.469499887646654e+000
 4.773327283738467e-001	 1.871331084794526e+000	 5.282655452859748e+000
 4.593136575418804e-001	 1.875835154404561e+000	 5.132470348668785e+000
 4.413005949044017e-001	 1.880154341390880e+000	 5.175259739084550e+000
 4.232961645740540e-001	 1.884289499938992e+000	 5.187885388803070e+000
 4.053029596359027e-001	 1.888241529424478e+000	 5.170421123344160e+000
 3.873235412955826e-001	 1.892011373353920e+000	 5.122992821408126e+000
 3.693604380649321e-001	 1.895600018290821e+000	 5.045777504458327e+000
 3.514161449852250e-001	 1.899008492767911e+000	 4.939002356861079e+000
 5.331190412740930e-001	 1.862710481473559e+000	 5.837274993609444e+000
 5.150396666869246e-001	 1.867790242962804e+000	 5.673248661793874e+000
 4.969582442618646e-001	 1.872682235040539e+000	 5.491748810493944e+000
 4.788774944869007e-001	 1.877387172444472e+000	 5.439124465111367e+000
 4.608001095095599e-001	 1.881905818331633e+000	 5.496222827421267e+000
 4.427287521706987e-001	 1.886238983269541e+000	 5.520597097105878e+000
 4.246660550752342e-001	 1.890387524208059e+000	 5.512271465132873e+000
 4.066146197000931e-001	 1.894352343433366e+000	 5.471325478379330e+000
 3.885770155396012e-001	 1.898134387505462e+000	 5.397893154884614e+000
 3.705557792884839e-001	 1.901734646180615e+000	 5.292162024082794e+000
 3.525534140625818e-001	 1.905154151320135e+000	 5.154372095454451e+000
 3.411807232890136e-001	 1.843697565775724e+000	 4.632241551885185e+000
 3.237797309642165e-001	 1.846832879772890e+000	 4.557982337281526e+000
 3.064017453410122e-001	 1.849795386102828e+000	 4.474292988596375e+000
 2.890490871433049e-001	 1.852586199133131e+000	 4.381411013542905e+000
 2.717240419481199e-001	 1.855206469648505e+000	 4.279523762141992e+000
 2.544288596138117e-001	 1.857657383748441e+000	 4.168769012056361e+000
 2.371657537443729e-001	 1.859940161739458e+000	 4.049235662470577e+000
 2.199369011896119e-001	 1.862056057023146e+000	 3.920964531493989e+000
 2.027444415809298e-001	 1.864006354981215e+000	 3.783949251930824e+000
 1.855904769023830e-001	 1.865792371858737e+000	 3.638137260158799e+000
 1.684770710966778e-001	 1.867415453646706e+000	 3.483430872765774e+000
 3.423179923663704e-001	 1.849843224332383e+000	 4.530124756771462e+000
 3.248589967335307e-001	 1.852988989376046e+000	 4.432231123916997e+000
 3.074230844913359e-001	 1.855961370726905e+000	 4.328790869728914e+000
 2.900125840994359e-001	 1.858761486467111e+000	 4.220035625928592e+000
 2.726297887534458e-001	 1.861390491217320e+000	 4.106143220420005e+000
 2.552769558112474e-001	 1.863849575030688e+000	 3.987238341912705e+000
 2.379563062555130e-001	 1.866139962281421e+000	 3.863393316166932e+000
 2.206700241922167e-001	 1.868262910549116e+000	 3.734628988621254e+000
 2.034202563848637e-001	 1.870219709500089e+000	 3.600915708039486e+000
 1.862091118241236e-001	 1.872011679766896e+000	 3.462174405698248e+000
 1.690386613325111e-001	 1.873640171827168e+000	 3.318277764557421e+000
 3.434552614437272e-001	 1.855988882888547e+000	 4.425902277404478e+000
 3.259382625028450e-001	 1.859145098978803e+000	 4.304584434099581e+000
 3.084444236416598e-001	 1.862127355350668e+000	 4.181586411848178e+000
 2.909760810555669e-001	 1.864936773800852e+000	 4.057134124260918e+000
 2.735355355587715e-001	 1.867574512785959e+000	 3.931396038043804e+000
 2.561250520086831e-001	 1.870041766312813e+000	 3.804483916716722e+000
 2.387468587666531e-001	 1.872339762823307e+000	 3.676453679036944e+000
 2.214031471948215e-001	 1.874469764075043e+000	 3.547306366673077e+000
 2.040960711887977e-001	 1.876433064018946e+000	 3.474407753819700e+000
 1.868277467458641e-001	 1.878230987675051e+000	 3.408168650989879e+000
 1.696002515683444e-001	 1.879864890007629e+000	 3.326748754176216e+000
 3.445925305210840e-001	 1.862134541444221e+000	 4.319595758395133e+000
 3.270175282721595e-001	 1.865301208581163e+000	 4.175060880055969e+000
 3.094657627919835e-001	 1.868293339974118e+000	 4.032695446489207e+000
 2.919395780116979e-001	 1.871112061134353e+000	 3.892719810244890e+000
 2.744412823640974e-001	 1.873758534354424e+000	 3.755293236771457e+000
 2.569731482061189e-001	 1.876233957594816e+000	 3.677099625945958e+000
 2.395374112777932e-001	 1.878539563365115e+000	 3.644336332528650e+000
 2.221362701974263e-001	 1.880676617600927e+000	 3.598282501975622e+000
 2.047718859927316e-001	 1.882646418537782e+000	 3.539311154109880e+000
 1.874463816676046e-001	 1.884450295583200e+000	 3.467825314648481e+000
 1.701618418041777e-001	 1.886089608188091e+000	 3.384256920726390e+000
 3.457297995984408e-001	 1.868280199999401e+000	 4.211226643490884e+000
 3.280967940414738e-001	 1.871457318183125e+000	 4.043678905452696e+000
 3.104871019423071e-001	 1.874459324597254e+000	 3.882133665966466e+000
 2.929030749678289e-001	 1.877287348467615e+000	 3.839592210145236e+000
 2.753470291694233e-001	 1.879942555922713e+000	 3.813508800844608e+000
 2.578212444035545e-001	 1.882426148876698e+000	 3.776656035423740e+000
 2.403279637889335e-001	 1.884739363906846e+000	 3.729328495396834e+000
 2.228693932000312e-001	 1.886883471126767e+000	 3.671850689317195e+000
 2.054477007966655e-001	 1.888859773056599e+000	 3.604576084833580e+000
 1.880650165893452e-001	 1.890669603491346e+000	 3.527886108018750e+000
 1.707234320400111e-001	 1.892314326368552e+000	 3.442189112846611e+000
 3.468670686757977e-001	 1.874425858554088e+000	 4.100816178868375e+000
 3.291760598107880e-001	 1.877613427784689e+000	 4.047383416980124e+000
 3.115084410926309e-001	 1.880625309220078e+000	 4.016524561939386e+000
 2.938665719239599e-001	 1.883462635800639e+000	 3.977573859293418e+000
 2.762527759747491e-001	 1.886126577490827e+000	 3.930752651326960e+000
 2.586693406009903e-001	 1.888618340158460e+000	 3.876311751667046e+000
 2.411185163000736e-001	 1.890939164448499e+000	 3.814530611534430e+000
 2.236025162026359e-001	 1.893090324652564e+000	 3.745716448562715e+000
 2.061235156005994e-001	 1.895073127575397e+000	 3.670203340937947e+000
 1.886836515110858e-001	 1.896888911399485e+000	 3.588351289621369e+000
 1.712850222758444e-001	 1.898539044549013e+000	 3.500545251422769e+000
 3.480043377531544e-001	 1.880571517108283e+000	 4.288378074954222e+000
 3.302553255801023e-001	 1.883769537385856e+000	 4.235772723776145e+000
 3.125297802429546e-001	 1.886791293842587e+000	 4.178042488781308e+000
 2.948300688800909e-001	 1.889637923133422e+000	 4.115370258908445e+000
 2.771585227800750e-001	 1.892310599058766e+000	 4.047966860557496e+000
 2.595174367984260e-001	 1.894810531440100e+000	 3.976070322656031e+000
 2.419090688112138e-001	 1.897138964990075e+000	 3.899945102706042e+000
 2.243356392052407e-001	 1.899297178178317e+000	 3.819881276427936e+000
 2.067993304045333e-001	 1.901286482094175e+000	 3.736193693640094e+000
 1.893022864328263e-001	 1.903108219307621e+000	 3.649221103026913e+000
 1.718466125116777e-001	 1.904763762729475e+000	 3.559325248451322e+000
 3.491416068305113e-001	 1.886717175661985e+000	 4.506016938258154e+000
 3.313345913494166e-001	 1.889925646986624e+000	 4.423605678822574e+000
 3.135511193932783e-001	 1.892957278464783e+000	 4.339204337691940e+000
 2.957935658362219e-001	 1.895813210465967e+000	 4.252987711542612e+000
 2.780642695854008e-001	 1.898494620626529e+000	 4.165156220362288e+000
 2.603655329958617e-001	 1.901002722721618e+000	 4.075935230852941e+000
 2.426996213223540e-001	 1.903338765531574e+000	 3.985574341948685e+000
 2.250687622078456e-001	 1.905504031704028e+000	 3.894346634951996e+000
 2.074751452084672e-001	 1.907499836612935e+000	 3.802547890813991e+000
 1.899209213545668e-001	 1.909327527215752e+000	 3.710495777099338e+000
 1.724082027475110e-001	 1.910988480909936e+000	 3.618529007184829e+000
 3.502788759078681e-001	 1.892862834215194e+000	 4.722887804670377e+000
 3.324138571187310e-001	 1.896081756586994e+000	 4.610892057625693e+000
 3.145724585436021e-001	 1.899123263086665e+000	 4.500017994289827e+000
 2.967570627923530e-001	 1.901988497798272e+000	 4.390432414101053e+000
 2.789700163907266e-001	 1.904678642194117e+000	 4.282325438882126e+000
 2.612136291932974e-001	 1.907194914003015e+000	 4.175909894265494e+000
 2.434901738334941e-001	 1.909538566072995e+000	 4.071420654362471e+000
 2.258018852104504e-001	 1.911710885229695e+000	 3.969113952061145e+000
 2.081509600124011e-001	 1.913713191131675e+000	 3.869266657369549e+000
 1.905395562763074e-001	 1.915546835123878e+000	 3.772175526234088e+000
 1.729697929833443e-001	 1.917213199090397e+000	 3.678156422273437e+000
 3.514161449852250e-001	 1.899008492767911e+000	 4.939002356861079e+000
 3.334931228880452e-001	 1.902237866186967e+000	 4.797641480418632e+000
 3.155937976939258e-001	 1.905289247708235e+000	 4.660491215946482e+000
 2.977205597484839e-001	 1.908163785130339e+000	 4.527710459551545e+000
 2.798757631960526e-001	 1.910862663761530e+000	 4.399479141926453e+000
 2.620617253907331e-001	 1.913387105284291e+000	 4.275997667490007e+000
 2.442807263446343e-001	 1.915738366614339e+000	 4.157486317886658e+000
 2.265350082130552e-001	 1.917917738755318e+000	 4.044184622119936e+000
 2.088267748163350e-001	 1.919926545650396e+000	 3.936350695623828e+000
 1.911581911980479e-001	 1.921766143031999e+000	 3.834260550592988e+000
 1.735313832191777e-001	 1.923437917270859e+000	 3.738207379904050e+000
 3.525534140625818e-001	 1.905154151320135e+000	 5.154372095454451e+000
 3.345723886573597e-001	 1.908393975786542e+000	 4.983863414665469e+000
 3.166151368442495e-001	 1.911455232329490e+000	 4.820631633855473e+000
 2.986840567046150e-001	 1.914339072462165e+000	 4.664827838600351e+000
 2.807815100013784e-001	 1.917046685328768e+000	 4.516621874301730e+000
 2.629098215881689e-001	 1.919579296565446e+000	 4.376201842734404e+000
 2.450712788557745e-001	 1.921938167155606e+000	 4.243773564060122e+000
 2.272681312156600e-001	 1.924124592280898e+000	 4.119560006472840e+000
 2.095025896202689e-001	 1.926139900169098e+000	 4.003800685665582e+000
 1.917768261197885e-001	 1.927985450940115e+000	 3.896751036333449e+000
 1.740929734550110e-001	 1.929662635451320e+000	 3.798681757937255e+000
 1.684770710966778e-001	 1.867415453646706e+000	 3.483430872765774e+000
 1.514062497052995e-001	 1.868876974965046e+000	 3.364430328021677e+000
 1.343799995435933e-001	 1.870178337947217e+000	 3.250465268452476e+000
 1.174002684095001e-001	 1.871320971127456e+000	 3.141318181547451e+000
 1.004689648246383e-001	 1.872306328331592e+000	 3.036718308514671e+000
 8.358795780845098e-002	 1.873135887572538e+000	 2.936343386212196e+000
 6.675907668445817e-002	 1.873811149951406e+000	 2.839821451249981e+000
 4.998411091803487e-002	 1.874333638565173e+000	 2.746732700167911e+000
 3.326480998511436e-002	 1.874704897421792e+000	 2.656611399652870e+000
 1.660288327119498e-002	 1.874926490363621e+000	 2.568947840842505e+000
 0.000000000000000e+000	 1.875000000000000e+000	 2.483190331859265e+000
 1.690386613325111e-001	 1.873640171827168e+000	 3.318277764557421e+000
 1.519109372032930e-001	 1.875106564882919e+000	 3.216910697575182e+000
 1.348279328745090e-001	 1.876412265741416e+000	 3.155829001600206e+000
 1.177916026367599e-001	 1.877558707698676e+000	 3.087042523233089e+000
 1.008038613734027e-001	 1.878547349426613e+000	 3.011192302469425e+000
 8.386658433394527e-002	 1.879379673864849e+000	 2.928936340687532e+000
 6.698160693965288e-002	 1.880057187118167e+000	 2.840948443007320e+000
 5.015072462078506e-002	 1.880581417360534e+000	 2.747917056215484e+000
 3.337569268486157e-002	 1.880953913746595e+000	 2.650544104677216e+000
 1.665822621533242e-002	 1.881176245331516e+000	 2.549543826585962e+000
 0.000000000000000e+000	 1.881250000000000e+000	 2.445641612835405e+000
 1.696002515683444e-001	 1.879864890007629e+000	 3.326748754176216e+000
 1.524156247012866e-001	 1.881336154800793e+000	 3.274282090105161e+000
 1.352758662054248e-001	 1.882646193535615e+000	 3.211256405301313e+000
 1.181829368640196e-001	 1.883796444269896e+000	 3.138308595277596e+000
 1.011387579221670e-001	 1.884788370521634e+000	 3.056095460842447e+000
 8.414521085943956e-002	 1.885623460157160e+000	 2.965292501490223e+000
 6.720413719484758e-002	 1.886303224284929e+000	 2.866592701116874e+000
 5.031733832353524e-002	 1.886829196155895e+000	 2.760705308649941e+000
 3.348657538460877e-002	 1.887202930071398e+000	 2.648354616119653e+000
 1.671356915946986e-002	 1.887426000299410e+000	 2.530278736630142e+000
 0.000000000000000e+000	 1.887500000000000e+000	 2.407228384614014e+000
 1.701618418041777e-001	 1.886089608188091e+000	 3.384256920726390e+000
 1.529203121992801e-001	 1.887565744718666e+000	 3.331891861475551e+000
 1.357237995363405e-001	 1.888880121329814e+000	 3.266749555679283e+000
 1.185742710912794e-001	 1.890034180841116e+000	 3.189480788081414e+000
 1.014736544709314e-001	 1.891029391616654e+000	 3.100758037379003e+000
 8.442383738493386e-002	 1.891867246449472e+000	 3.001274213874666e+000
 6.742666745004228e-002	 1.892549261451691e+000	 2.891741388692982e+000
 5.048395202628542e-002	 1.893076974951256e+000	 2.772889517257061e+000
 3.359745808435596e-002	 1.893451946396201e+000	 2.645465159663169e+000
 1.676891210360730e-002	 1.893675755267305e+000	 2.510230200514195e+000
 0.000000000000000e+000	 1.893750000000000e+000	 2.367960570699884e+000
 1.707234320400111e-001	 1.892314326368552e+000	 3.442189112846611e+000
 1.534249996972737e-001	 1.893795334636539e+000	 3.389741605871869e+000
 1.361717328672563e-001	 1.895114049124014e+000	 3.322311557761129e+000
 1.189656053185392e-001	 1.896271917412336e+000	 3.240563565003106e+000
 1.018085510196957e-001	 1.897270412711675e+000	 3.145185702244603e+000
 8.470246391042814e-002	 1.898111032741783e+000	 3.036888204346700e+000
 6.764919770523699e-002	 1.898795298618452e+000	 2.916402139240846e+000
 5.065056572903560e-002	 1.899324753746617e+000	 2.784478074394889e+000
 3.370834078410318e-002	 1.899700962721004e+000	 2.641884739630346e+000
 1.682425504774474e-002	 1.899925510235199e+000	 2.489407688958297e+000
 0.000000000000000e+000	 1.900000000000000e+000	 2.327847964025173e+000
 1.712850222758444e-001	 1.898539044549013e+000	 3.500545251422769e+000
 1.539296871952672e-001	 1.900024924554412e+000	 3.447832888149363e+000
 1.366196661981721e-001	 1.901347976918213e+000	 3.377945468842377e+000
 1.193569395457989e-001	 1.902509653983555e+000	 3.291561325148465e+000
 1.021434475684601e-001	 1.903511433806696e+000	 3.189384046698437e+000
 8.498109043592245e-002	 1.904354819034094e+000	 3.072141107704654e+000
 6.787172796043170e-002	 1.905041335785214e+000	 2.940582483597273e+000
 5.081717943178579e-002	 1.905572532541979e+000	 2.795479260616324e+000
 3.381922348385037e-002	 1.905949979045807e+000	 2.637622241210217e+000
 1.687959799188218e-002	 1.906175265203094e+000	 2.467820548012658e+000
 0.000000000000000e+000	 1.906250000000000e+000	 2.286900229090353e+000
 1.718466125116777e-001	 1.904763762729475e+000	 3.559325248451322e+000
 1.544343746932607e-001	 1.906254514472285e+000	 3.506167244313049e+000
 1.370675995290878e-001	 1.907581904712413e+000	 3.433654299267209e+000
 1.197482737730588e-001	 1.908747390554775e+000	 3.342478404420297e+000
 1.024783441172244e-001	 1.909752454901716e+000	 3.233358584381363e+000
 8.525971696141672e-002	 1.910598605326405e+000	 3.107039468538121e+000
 6.809425821562640e-002	 1.911287372951975e+000	 2.964289851608353e+000
 5.098379313453598e-002	 1.911820311337340e+000	 2.805901246495731e+000
 3.393010618359758e-002	 1.912198995370610e+000	 2.632686432405019e+000
 1.693494093601963e-002	 1.912425020170989e+000	 2.445478001094796e+000
 0.000000000000000e+000	 1.912500000000000e+000	 2.245126904062483e+000
 1.724082027475110e-001	 1.910988480909936e+000	 3.618529007184829e+000
 1.549390621912543e-001	 1.912484104390159e+000	 3.564746181986646e+000
 1.375155328600036e-001	 1.913815832506612e+000	 3.489441013192915e+000
 1.201396080003186e-001	 1.914985127125995e+000	 3.393319076547823e+000
 1.028132406659888e-001	 1.915993475996737e+000	 3.277114752581263e+000
 8.553834348691101e-002	 1.916842391618717e+000	 3.141589742696849e+000
 6.831678847082108e-002	 1.917533410118736e+000	 2.987531573773974e+000
 5.115040683728617e-002	 1.918068090132702e+000	 2.815752094420490e+000
 3.404098888334477e-002	 1.918448011695413e+000	 2.627085965938552e+000
 1.699028388015706e-002	 1.918674775138883e+000	 2.422389150986223e+000
 0.000000000000000e+000	 1.918750000000000e+000	 2.202537402832920e+000
 1.729697929833443e-001	 1.917213199090397e+000	 3.678156422273437e+000
 1.554437496892479e-001	 1.918713694308033e+000	 3.623571180873764e+000
 1.379634661909194e-001	 1.920049760300811e+000	 3.545308529339580e+000
 1.205309422275783e-001	 1.921222863697215e+000	 3.444087554096045e+000
 1.031481372147531e-001	 1.922234497091758e+000	 3.320657913471684e+000
 8.581697001240531e-002	 1.923086177911028e+000	 3.175798298731450e+000
 6.853931872601578e-002	 1.923779447285498e+000	 3.010314882861034e+000
 5.131702054003635e-002	 1.924315868928062e+000	 2.825039760347377e+000
 3.415187158309199e-002	 1.924697028020216e+000	 2.620829381127722e+000
 1.704562682429451e-002	 1.924924530106778e+000	 2.398562981791613e+000
 0.000000000000000e+000	 1.925000000000000e+000	 2.159141017034396e+000
 1.735313832191777e-001	 1.923437917270859e+000	 3.738207379904050e+000
 1.559484371872414e-001	 1.924943284225905e+000	 3.682643693209836e+000
 1.384113995218351e-001	 1.926283688095010e+000	 3.601259721725688e+000
 1.209222764548381e-001	 1.927460600268435e+000	 3.494787989455099e+000
 1.034830337635174e-001	 1.928475518186779e+000	 3.363993355327581e+000
 8.609559653789961e-002	 1.929329964203339e+000	 3.209671419306327e+000
 6.876184898121050e-002	 1.930025484452260e+000	 3.032646915484130e+000
 5.148363424278652e-002	 1.930563647723423e+000	 2.833772095524046e+000
 3.426275428283918e-002	 1.930946044345019e+000	 2.613925105717766e+000
 1.710096976843194e-002	 1.931174285074672e+000	 2.374008360858015e+000
 0.000000000000000e+000	 1.931250000000000e+000	 2.114946918019971e+000
 1.740929734550110e-001	 1.929662635451320e+000	 3.798681757937255e+000
 1.564531246852350e-001	 1.931172874143779e+000	 3.741965144204696e+000
 1.388593328527509e-001	 1.932517615889210e+000	 3.657297420388717e+000
 1.213136106820979e-001	 1.933698336839655e+000	 3.545424475811573e+000
 1.038179303122818e-001	 1.934716539281799e+000	 3.407126293717470e+000
 8.637422306339390e-002	 1.935573750495651e+000	 3.243215302584170e+000
 6.898437923640521e-002	 1.936271521619022e+000	 3.054534713657618e+000
 5.165024794553672e-002	 1.936811426518785e+000	 2.841956848178697e+000
 3.437363698258639e-002	 1.937195060669822e+000	 2.606381457681497e+000
 1.715631271256939e-002	 1.937424040042567e+000	 2.348734040659495e+000
 0.000000000000000e+000	 1.937500000000000e+000	 2.069964158802426e+000
 1.937500000000000e+000	 0.000000000000000e+000	 1.254675522935469e+001
 1.937424040042567e+000	 1.715631271256945e-002	 1.254359619856886e+001
 1.937195060669823e+000	 3.437363698258651e-002	 1.254187258843875e+001
 1.936811426518786e+000	 5.165024794553660e-002	 1.254209858827163e+001
 1.936271521619021e+000	 6.898437923640516e-002	 1.254478973722802e+001
 1.935573750495650e+000	 8.637422306339389e-002	 1.255046273936325e+001
 1.934716539281800e+000	 1.038179303122819e-001	 1.255963528533277e+001
 1.933698336839655e+000	 1.213136106820980e-001	 1.257282588115697e+001
 1.932517615889210e+000	 1.388593328527508e-001	 1.259055368441504e+001
 1.931172874143779e+000	 1.564531246852349e-001	 1.261333834820868e+001
 1.929662635451320e+000	 1.740929734550110e-001	 1.264169987320484e+001
 1.943750000000000e+000	 0.000000000000000e+000	 1.255558671236022e+001
 1.943673795010457e+000	 1.721165565661337e-002	 1.254532268249719e+001
 1.943444076994606e+000	 3.448451968215605e-002	 1.253766472701386e+001
 1.943059205314103e+000	 5.181686164803444e-002	 1.253308975522712e+001
 1.942517558785706e+000	 6.920690949128248e-002	 1.253207423751962e+001
 1.941817536787841e+000	 8.665284958851545e-002	 1.253509401720542e+001
 1.940957560376646e+000	 1.041528268606279e-001	 1.254262413120228e+001
 1.939936073410637e+000	 1.217049449089039e-001	 1.255513863997155e+001
 1.938751543683097e+000	 1.393072661831871e-001	 1.257311046715887e+001
 1.937402464061255e+000	 1.569578121827336e-001	 1.259701124933642e+001
 1.935887353631290e+000	 1.746545636903443e-001	 1.262731119621442e+001
 1.950000000000000e+000	 0.000000000000000e+000	 1.256967382799962e+001
 1.949923549978337e+000	 1.726699860047025e-002	 1.255164892614399e+001
 1.949693093319352e+000	 3.459540238137024e-002	 1.253739216471875e+001
 1.949306984109335e+000	 5.198347535002764e-002	 1.252734330219737e+001
 1.948763595952236e+000	 6.942943974552499e-002	 1.252193987562495e+001
 1.948061323079789e+000	 8.693147611289151e-002	 1.252161700935612e+001
 1.947198581471142e+000	 1.044877234081375e-001	 1.252680723473837e+001
 1.946173809981141e+000	 1.220962791348021e-001	 1.253794032126660e+001
 1.944985471476358e+000	 1.397551995126646e-001	 1.255544311970467e+001
 1.943632053977938e+000	 1.574624996792427e-001	 1.257973941763602e+001
 1.942112071810277e+000	 1.752161539246776e-001	 1.261124980786798e+001
 1.956250000000000e+000	 0.000000000000000e+000	 1.258896080269696e+001
 1.956173304946208e+000	 1.732234154414009e-002	 1.256252593834473e+001
 1.955942109644060e+000	 3.470628508022911e-002	 1.254101278415675e+001
 1.955554762904480e+000	 5.215008905151617e-002	 1.252482407522466e+001
 1.955009633118613e+000	 6.965196999913273e-002	 1.251435854893204e+001
 1.954305109371497e+000	 8.721010263652210e-002	 1.251001075061307e+001
 1.953439602565290e+000	 1.048226199548104e-001	 1.251217085229060e+001
 1.952411546551168e+000	 1.224876133597925e-001	 1.252122448508465e+001
 1.951219399268994e+000	 1.402031328411832e-001	 1.253755258584948e+001
 1.949861643893827e+000	 1.579671871747620e-001	 1.256153125856182e+001
 1.948336789988280e+000	 1.757777441580110e-001	 1.259353165094274e+001
 1.962500000000000e+000	 0.000000000000000e+000	 1.261339257336806e+001
 1.962423059914069e+000	 1.737768448762288e-002	 1.257790535671299e+001
 1.962191125968728e+000	 3.481716777873262e-002	 1.254848501387887e+001
 1.961802541699539e+000	 5.231670275250005e-002	 1.252549738237049e+001
 1.961255670284834e+000	 6.987450025210568e-002	 1.250930253184181e+001
 1.960548895662962e+000	 8.748872915940718e-002	 1.250025456672357e+001
 1.959680623659089e+000	 1.051575165006469e-001	 1.249870144405958e+001
 1.958649283120719e+000	 1.228789475838752e-001	 1.250498480720851e+001
 1.957453327061006e+000	 1.406510661687430e-001	 1.251943983603102e+001
 1.956091233808921e+000	 1.584718746692917e-001	 1.254239511414518e+001
 1.954561508165299e+000	 1.763393343903442e-001	 1.257417251379053e+001
 1.968750000000000e+000	 0.000000000000000e+000	 1.264291477614292e+001
 1.968672814881921e+000	 1.743302743091862e-002	 1.259773943765985e+001
 1.968440142293360e+000	 3.492805047688079e-002	 1.255976781971776e+001
 1.968050320494512e+000	 5.248331645297925e-002	 1.252932898638173e+001
 1.967501707450903e+000	 7.009703050444385e-002	 1.250674446978366e+001
 1.966792681954186e+000	 8.776735568154678e-002	 1.249232806976616e+001
 1.965921644752537e+000	 1.054924130456468e-001	 1.248638567086125e+001
 1.964887019689792e+000	 1.232702818070502e-001	 1.248921507732405e+001
 1.963687254852392e+000	 1.410989994953439e-001	 1.250110586690473e+001
 1.962320823723222e+000	 1.589765621628317e-001	 1.252233926400101e+001
 1.960786226341335e+000	 1.769009246216776e-001	 1.255318803278896e+001
 1.975000000000000e+000	 0.000000000000000e+000	 1.267747373530216e+001
 1.974922569849763e+000	 1.748837037402734e-002	 1.262198104660284e+001
 1.974689158617952e+000	 3.503893317467364e-002	 1.257482069628650e+001
 1.974298099289397e+000	 5.264993015295379e-002	 1.253628509749643e+001
 1.973747744616817e+000	 7.031956075614725e-002	 1.250665737334467e+001
 1.973036468245168e+000	 8.804598220294091e-002	 1.248621115362014e+001
 1.972162665845637e+000	 1.058273095898101e-001	 1.247521039095263e+001
 1.971124756258388e+000	 1.236616160293174e-001	 1.247390919721794e+001
 1.969921182643153e+000	 1.415469328209860e-001	 1.248255170092907e+001
 1.968550413636729e+000	 1.594812496553820e-001	 1.250137192631552e+001
 1.967010944516387e+000	 1.774625148520109e-001	 1.253059369474609e+001
 1.981250000000000e+000	 0.000000000000000e+000	 1.271701645242288e+001
 1.981172324817596e+000	 1.754371331694901e-002	 1.265058364836014e+001
 1.980938174942506e+000	 3.514981587211114e-002	 1.259360365863817e+001
 1.980545878084197e+000	 5.281654385242367e-002	 1.254633236638540e+001
 1.979993781782576e+000	 7.054209100721583e-002	 1.250901461251022e+001
 1.979280254535908e+000	 8.832460872358952e-002	 1.248188398952073e+001
 1.978403686938388e+000	 1.061622061331370e-001	 1.246516265691763e+001
 1.977362492826507e+000	 1.240529502506769e-001	 1.245906117900963e+001
 1.976155110433288e+000	 1.419948661456692e-001	 1.246377838595842e+001
 1.974780003549441e+000	 1.599859371469426e-001	 1.247950125881507e+001
 1.973235662690456e+000	 1.780241050813442e-001	 1.250640483925959e+001
 1.987500000000000e+000	 0.000000000000000e+000	 1.276149059572940e+001
 1.987422079785419e+000	 1.759905625968363e-002	 1.268350129772587e+001
 1.987187191267022e+000	 3.526069856919331e-002	 1.261607723408295e+001
 1.986793656878910e+000	 5.298315755138890e-002	 1.255943787722742e+001
 1.986239818948182e+000	 7.076462125764965e-002	 1.251378991101290e+001
 1.985524040826406e+000	 8.860323524349266e-002	 1.247932702169807e+001
 1.984644708030789e+000	 1.064971026756272e-001	 1.245622971261148e+001
 1.983600229394150e+000	 1.244442844711286e-001	 1.244466514341632e+001
 1.982389038222799e+000	 1.424427994693935e-001	 1.244478699484385e+001
 1.981009593461361e+000	 1.604906246375136e-001	 1.245673535971681e+001
 1.979460380863542e+000	 1.785856953096775e-001	 1.248063666103133e+001
 1.993750000000000e+000	 0.000000000000000e+000	 1.281084448964419e+001
 1.993671834753232e+000	 1.765439920223121e-002	 1.272068863022320e+001
 1.993436207591500e+000	 3.537158126592013e-002	 1.264220245415882e+001
 1.993041435673537e+000	 5.314977124984947e-002	 1.257556914091418e+001
 1.992485856113633e+000	 7.098715150744868e-002	 1.252095734078800e+001
 1.991767827116663e+000	 8.888186176265032e-002	 1.247852096309844e+001
 1.990885729122841e+000	 1.068319992172809e-001	 1.244839899016290e+001
 1.989837965961314e+000	 1.248356186906726e-001	 1.243071531805103e+001
 1.988622966011684e+000	 1.428907327921590e-001	 1.242557862504126e+001
 1.987239183372486e+000	 1.609953121270949e-001	 1.243308226866140e+001
 1.985685099035645e+000	 1.791472855370108e-001	 1.245330421213850e+001
 2.000000000000000e+000	 0.000000000000000e+000	 1.286502710453478e+001
 1.999921589721037e+000	 1.770974214459176e-002	 1.276210085303003e+001
 1.999685223915940e+000	 3.548246396229162e-002	 1.267194084675310e+001
 1.999289214468077e+000	 5.331638494780537e-002	 1.259469408838298e+001
 1.998731893278930e+000	 7.120968175661292e-002	 1.253049131653267e+001
 1.998011613406678e+000	 8.916048828106249e-002	 1.247944679118537e+001
 1.997126750214544e+000	 1.071668957580981e-001	 1.244165810703219e+001
 1.996075702528003e+000	 1.252269529093089e-001	 1.241720603575223e+001
 1.994856893799945e+000	 1.433386661139657e-001	 1.240615439822697e+001
 1.993468773282817e+000	 1.614999996156865e-001	 1.240854996762829e+001
 1.991909817206764e+000	 1.797088757633442e-001	 1.242442240426215e+001
 1.929662635451320e+000	 1.740929734550110e-001	 1.264169987320484e+001
 1.927985450940115e+000	 1.917768261197886e-001	 1.264965503093619e+001
 1.926139900169097e+000	 2.095025896202690e-001	 1.265681275256462e+001
 1.924124592280898e+000	 2.272681312156599e-001	 1.266356264535359e+001
 1.921938167155606e+000	 2.450712788557743e-001	 1.267029781812594e+001
 1.919579296565446e+000	 2.629098215881689e-001	 1.267741497856219e+001
 1.917046685328768e+000	 2.807815100013785e-001	 1.268531453994305e+001
 1.914339072462165e+000	 2.986840567046151e-001	 1.269440073706168e+001
 1.911455232329490e+000	 3.166151368442494e-001	 1.270508175097309e+001
 1.908393975786542e+000	 3.345723886573595e-001	 1.271776984218889e+001
 1.905154151320135e+000	 3.525534140625818e-001	 1.273288149186534e+001
 1.935887353631290e+000	 1.746545636903443e-001	 1.262731119621442e+001
 1.934204758847649e+000	 1.923954610410316e-001	 1.263694736358313e+001
 1.932353254687146e+000	 2.101784044237126e-001	 1.264553756524370e+001
 1.930331445805773e+000	 2.280012542177864e-001	 1.265345910738439e+001
 1.928137967696135e+000	 2.458618313664532e-001	 1.266109274499207e+001
 1.925771487845850e+000	 2.637579177851652e-001	 1.266882279380518e+001
 1.923230706895264e+000	 2.816872568062920e-001	 1.267703725222370e+001
 1.920514359793278e+000	 2.996475536603657e-001	 1.268612793288842e+001
 1.917621216950080e+000	 3.176364759942298e-001	 1.269649060358235e+001
 1.914550085385520e+000	 3.356516544263729e-001	 1.270852513704647e+001
 1.911299809871852e+000	 3.536906831396849e-001	 1.272263566923979e+001
 1.942112071810277e+000	 1.752161539246776e-001	 1.261124980786798e+001
 1.940424066754024e+000	 1.930140959612793e-001	 1.262247775428830e+001
 1.938566609203906e+000	 2.108542192261753e-001	 1.263241259946518e+001
 1.936538299329281e+000	 2.287343772189563e-001	 1.264141936398786e+001
 1.934337768235267e+000	 2.466523838762096e-001	 1.264986646368605e+001
 1.931963679124878e+000	 2.646060139812829e-001	 1.265812583624178e+001
 1.929414728460451e+000	 2.825930036103806e-001	 1.266657307827260e+001
 1.926689647123202e+000	 3.006110506153555e-001	 1.267558759258552e+001
 1.923787201569653e+000	 3.186578151435237e-001	 1.268555274524002e+001
 1.920706194983702e+000	 3.367309201947840e-001	 1.269685603199607e+001
 1.917445468423046e+000	 3.548279522162807e-001	 1.270988925365953e+001
 1.948336789988280e+000	 1.757777441580110e-001	 1.259353165094274e+001
 1.946643374659239e+000	 1.936327308805318e-001	 1.260626356535137e+001
 1.944779963719380e+000	 2.115300340276573e-001	 1.261745662747481e+001
 1.942745152851422e+000	 2.294675002191697e-001	 1.262746358701630e+001
 1.940537568773002e+000	 2.474429363850432e-001	 1.263664053455762e+001
 1.938155870402527e+000	 2.654541101765219e-001	 1.264534704283461e+001
 1.935598750024330e+000	 2.834987504136446e-001	 1.265394631899992e+001
 1.932864934451938e+000	 3.015745475695847e-001	 1.266280536755996e+001
 1.929953186188207e+000	 3.196791542921310e-001	 1.267229516360970e+001
 1.926862304581088e+000	 3.378101859625930e-001	 1.268279083592509e+001
 1.923591126973719e+000	 3.559652212923693e-001	 1.269467185940753e+001
 1.954561508165299e+000	 1.763393343903442e-001	 1.257417251379053e+001
 1.952862682563295e+000	 1.942513657987891e-001	 1.258832199160027e+001
 1.950993318233566e+000	 2.122058488281585e-001	 1.260068824114135e+001
 1.948952006372196e+000	 2.302006232184263e-001	 1.261161175518735e+001
 1.946737369309340e+000	 2.482334888929542e-001	 1.262143631221845e+001
 1.944348061678798e+000	 2.663022063708822e-001	 1.263050913236548e+001
 1.941782771586900e+000	 2.844044972160837e-001	 1.263918104485958e+001
 1.939040221779484e+000	 3.025380445230531e-001	 1.264780666666087e+001
 1.936119170805743e+000	 3.207004934400518e-001	 1.265674459187604e+001
 1.933018414177678e+000	 3.388894517297998e-001	 1.266635759150776e+001
 1.929736785523870e+000	 3.571024903679504e-001	 1.267701282301298e+001
 1.960786226341335e+000	 1.769009246216776e-001	 1.255318803278896e+001
 1.959081990466191e+000	 1.948700007160512e-001	 1.256867006304946e+001
 1.957206672746465e+000	 2.128816636276789e-001	 1.258212585481963e+001
 1.955158859891604e+000	 2.309337462167264e-001	 1.259388365714966e+001
 1.952937169844281e+000	 2.490240413999426e-001	 1.260427494880776e+001
 1.950540252953692e+000	 2.671503025643638e-001	 1.261363460889858e+001
 1.947966793148162e+000	 2.853102440176982e-001	 1.262230109950728e+001
 1.945215509105842e+000	 3.035015414757608e-001	 1.263061666002972e+001
 1.942285155422261e+000	 3.217218325872860e-001	 1.263892751278406e+001
 1.939174523773472e+000	 3.399687174964046e-001	 1.264758407943081e+001
 1.935882444073499e+000	 3.582397594430242e-001	 1.265694120765999e+001
 1.967010944516387e+000	 1.774625148520109e-001	 1.253059369474609e+001
 1.965301298367928e+000	 1.954886356323182e-001	 1.254732464750777e+001
 1.963420027258076e+000	 2.135574784262186e-001	 1.256178770815938e+001
 1.961365713409645e+000	 2.316668692140699e-001	 1.257429889449029e+001
 1.959136970377825e+000	 2.498145939060085e-001	 1.258517739719607e+001
 1.956732444227208e+000	 2.679983987569667e-001	 1.259474576517788e+001
 1.954150814708116e+000	 2.862159908184878e-001	 1.260333010338912e+001
 1.951390796431012e+000	 3.044650384277075e-001	 1.261126028287731e+001
 1.948451140037762e+000	 3.227431717338337e-001	 1.261887016260188e+001
 1.945330633368471e+000	 3.410479832624073e-001	 1.262649782253880e+001
 1.942028102622606e+000	 3.593770285175906e-001	 1.263448580751278e+001
 1.973235662690456e+000	 1.780241050813442e-001	 1.250640483925959e+001
 1.971520606268505e+000	 1.961072705475898e-001	 1.252430245313676e+001
 1.969633381768400e+000	 2.142332932237775e-001	 1.253969186886084e+001
 1.967572566926320e+000	 2.323999922104568e-001	 1.255287688468522e+001
 1.965336770909972e+000	 2.506051464111517e-001	 1.256416441412820e+001
 1.962924635499346e+000	 2.688464949486910e-001	 1.257386468596028e+001
 1.960334836266761e+000	 2.871217376184527e-001	 1.258229145726219e+001
 1.957566083754993e+000	 3.054285353788936e-001	 1.258976223918926e+001
 1.954617124652244e+000	 3.237645108796947e-001	 1.259659853500822e+001
 1.951486742962673e+000	 3.421272490278078e-001	 1.260312608990103e+001
 1.948173761171190e+000	 3.605142975916498e-001	 1.260967515195877e+001
 1.979460380863542e+000	 1.785856953096775e-001	 1.248063666103133e+001
 1.977739914167923e+000	 1.967259054618663e-001	 1.249962003096098e+001
 1.975846736277436e+000	 2.149091080203555e-001	 1.251585623537832e+001
 1.973779420441626e+000	 2.331331152058871e-001	 1.252963686399412e+001
 1.971536571440722e+000	 2.513956989153723e-001	 1.254125656330702e+001
 1.969116826770107e+000	 2.696945911395366e-001	 1.255101325128587e+001
 1.966518857824097e+000	 2.880274844175928e-001	 1.255920834564888e+001
 1.963741371077784e+000	 3.063920323293191e-001	 1.256614700536174e+001
 1.960783109265708e+000	 3.247858500248692e-001	 1.257213838490687e+001
 1.957642852556079e+000	 3.432065147926063e-001	 1.257749590080173e+001
 1.954319419719253e+000	 3.616515666652016e-001	 1.258253750977187e+001
 1.985685099035645e+000	 1.791472855370108e-001	 1.245330421213850e+001
 1.983959222066181e+000	 1.973445403751476e-001	 1.247329377733092e+001
 1.982060090785186e+000	 2.155849228159529e-001	 1.249029853957297e+001
 1.979986273955568e+000	 2.338662382003608e-001	 1.250459789030085e+001
 1.977736371970075e+000	 2.521862514186704e-001	 1.251647421841914e+001
 1.975309018039490e+000	 2.705426873295034e-001	 1.252621313968659e+001
 1.972702879380125e+000	 2.889332312159081e-001	 1.253410374022604e+001
 1.969916658399387e+000	 3.073555292789836e-001	 1.254043883376860e+001
 1.966949093878154e+000	 3.258071891693571e-001	 1.254551523216909e+001
 1.963798962148690e+000	 3.442857805568026e-001	 1.254963402865518e+001
 1.960465078266794e+000	 3.627888357382460e-001	 1.255310089319723e+001
 1.991909817206764e+000	 1.797088757633442e-001	 1.242442240426215e+001
 1.990178529963280e+000	 1.979631752874337e-001	 1.244533993633972e+001
 1.988273445291647e+000	 2.162607376105694e-001	 1.246303634931582e+001
 1.986193127468141e+000	 2.345993611938779e-001	 1.247777884590043e+001
 1.983936172498030e+000	 2.529768039210458e-001	 1.248983756610401e+001
 1.981501209307495e+000	 2.713907835185916e-001	 1.249948583133487e+001
 1.978886900934845e+000	 2.898389780133988e-001	 1.250700040315080e+001
 1.976091945719802e+000	 3.083190262278875e-001	 1.251266175626171e+001
 1.973115078489582e+000	 3.268285283131585e-001	 1.251675436530608e+001
 1.969955071740505e+000	 3.453650463203968e-001	 1.251956700484740e+001
 1.966610736813813e+000	 3.639261048107833e-001	 1.252139306195951e+001
 1.905154151320135e+000	 3.525534140625818e-001	 1.273288149186534e+001
 1.901734646180615e+000	 3.705557792884839e-001	 1.273172748926459e+001
 1.898134387505463e+000	 3.885770155396014e-001	 1.273906870858540e+001
 1.894352343433366e+000	 4.066146197000928e-001	 1.275523003813289e+001
 1.890387524208059e+000	 4.246660550752341e-001	 1.278053484224787e+001
 1.886238983269541e+000	 4.427287521706986e-001	 1.281530512355288e+001
 1.881905818331633e+000	 4.608001095095600e-001	 1.285986169694328e+001
 1.877387172444471e+000	 4.788774944869008e-001	 1.291452437463057e+001
 1.872682235040539e+000	 4.969582442618644e-001	 1.295900685533786e+001
 1.867790242962805e+000	 5.150396666869246e-001	 1.299105420758937e+001
 1.862710481473559e+000	 5.331190412740930e-001	 1.303226002668688e+001
 1.911299809871852e+000	 3.536906831396849e-001	 1.272263566923979e+001
 1.907869274069999e+000	 3.717511205118274e-001	 1.271875358670835e+001
 1.904257401656688e+000	 3.898304897834471e-001	 1.272300926881928e+001
 1.900463157442024e+000	 4.079262797641359e-001	 1.273578373785641e+001
 1.896485548476980e+000	 4.260359455762829e-001	 1.275745772344265e+001
 1.892323625148134e+000	 4.441569094368703e-001	 1.278841179637100e+001
 1.887976482258710e+000	 4.622865614771103e-001	 1.282902651214464e+001
 1.883443260094491e+000	 4.804222605998115e-001	 1.287968256352619e+001
 1.878723145473225e+000	 4.985613353743077e-001	 1.294076094132960e+001
 1.873815372776085e+000	 5.167010849687260e-001	 1.300229236251636e+001
 1.868719224959758e+000	 5.348387801193099e-001	 1.304071792316715e+001
 1.917445468423046e+000	 3.548279522162807e-001	 1.270988925365953e+001
 1.914003901959146e+000	 3.729464617347535e-001	 1.270400969352643e+001
 1.910380415807934e+000	 3.910839640269469e-001	 1.270591431221494e+001
 1.906573971450930e+000	 4.092379398278845e-001	 1.271603995588837e+001
 1.902583572746345e+000	 4.274058360770692e-001	 1.273482440324095e+001
 1.898408267027341e+000	 4.455850667027914e-001	 1.276270647111161e+001
 1.894047146186540e+000	 4.637730134444020e-001	 1.280012612778220e+001
 1.889499347745371e+000	 4.819670267124355e-001	 1.284752461325234e+001
 1.884764055906848e+000	 5.001644264864159e-001	 1.290534456572120e+001
 1.879840502590350e+000	 5.183625032501231e-001	 1.297403015344456e+001
 1.874727968446957e+000	 5.365585189640331e-001	 1.305170042756828e+001
 1.923591126973719e+000	 3.559652212923693e-001	 1.269467185940753e+001
 1.920138529848058e+000	 3.741418029572630e-001	 1.268751899433592e+001
 1.916503429959201e+000	 3.923374382701008e-001	 1.268780055370236e+001
 1.912684785460084e+000	 4.105495998913388e-001	 1.269600889969964e+001
 1.908681597016157e+000	 4.287757265775930e-001	 1.271263854618410e+001
 1.904492908907163e+000	 4.470132239684622e-001	 1.273818623626942e+001
 1.900117810115122e+000	 4.652594654114355e-001	 1.277315102559072e+001
 1.895555435397110e+000	 4.835117928247730e-001	 1.281803437052402e+001
 1.890804966341410e+000	 5.017675175981889e-001	 1.287334022058722e+001
 1.885865632405599e+000	 5.200239215311162e-001	 1.293957511419067e+001
 1.880736711935155e+000	 5.382782578082624e-001	 1.301724827684901e+001
 1.929736785523870e+000	 3.571024903679504e-001	 1.267701282301298e+001
 1.926273157736732e+000	 3.753371441793553e-001	 1.266930448298348e+001
 1.922626444110487e+000	 3.935909125129087e-001	 1.266868460491885e+001
 1.918795599469485e+000	 4.118612599544987e-001	 1.267570076140809e+001
 1.914779621286415e+000	 4.301456170778545e-001	 1.269090388982909e+001
 1.910577550787598e+000	 4.484413812338824e-001	 1.271484834211852e+001
 1.906188474044456e+000	 4.667459173782104e-001	 1.274809193820885e+001
 1.901611523049710e+000	 4.850565589368237e-001	 1.279119602241019e+001
 1.896845876776908e+000	 5.033706087096269e-001	 1.284472552195890e+001
 1.891890762221832e+000	 5.216853398117052e-001	 1.290924900690053e+001
 1.886745455424354e+000	 5.399979966519981e-001	 1.298533875042190e+001
 1.935882444073499e+000	 3.582397594430242e-001	 1.265694120765999e+001
 1.932407785625171e+000	 3.765324854010308e-001	 1.264938896557336e+001
 1.928749458261794e+000	 3.948443867553708e-001	 1.264858297584845e+001
 1.924906413479134e+000	 4.131729200173643e-001	 1.265512571802218e+001
 1.920877645557118e+000	 4.315155075778533e-001	 1.266962424358948e+001
 1.916662192668648e+000	 4.498695384990523e-001	 1.269269019814443e+001
 1.912259137974543e+000	 4.682323693447268e-001	 1.272493984519648e+001
 1.907667610703171e+000	 4.866013250485876e-001	 1.276699409093136e+001
 1.902886787213345e+000	 5.049736998207298e-001	 1.281947850913462e+001
 1.897915892039050e+000	 5.233467580918901e-001	 1.288302336544468e+001
 1.892754198914553e+000	 5.417177354952401e-001	 1.295826364005311e+001
 1.942028102622606e+000	 3.593770285175906e-001	 1.263448580751278e+001
 1.938542413513372e+000	 3.777278266222893e-001	 1.262779506343808e+001
 1.934872472413121e+000	 3.960978609974870e-001	 1.262751207643050e+001
 1.931017227489032e+000	 4.144845800799354e-001	 1.263429393168017e+001
 1.926975669828267e+000	 4.328853980775897e-001	 1.264880348759845e+001
 1.922746834550312e+000	 4.512976957639717e-001	 1.267170937052494e+001
 1.918329801905382e+000	 4.697188213109850e-001	 1.270368596912783e+001
 1.913723698357492e+000	 4.881460911600652e-001	 1.274541342775976e+001
 1.908927697650719e+000	 5.065767909314975e-001	 1.279757763798265e+001
 1.903941021857253e+000	 5.250081763716710e-001	 1.286087022742734e+001
 1.898762942405752e+000	 5.434374743379884e-001	 1.293598854510884e+001
 1.948173761171190e+000	 3.605142975916498e-001	 1.260967515195877e+001
 1.944677041401338e+000	 3.789231678431307e-001	 1.260454521605274e+001
 1.940995486564468e+000	 3.973513352392572e-001	 1.260548821813755e+001
 1.937128041499177e+000	 4.157962401422123e-001	 1.261321554988453e+001
 1.933073694099862e+000	 4.342552885770636e-001	 1.262844557159342e+001
 1.928831476432589e+000	 4.527258530286405e-001	 1.265190357965866e+001
 1.924400465836973e+000	 4.712052732769845e-001	 1.268432177175832e+001
 1.919779786012672e+000	 4.896908572712561e-001	 1.272643920901973e+001
 1.914968608089031e+000	 5.081798820419301e-001	 1.277900177437063e+001
 1.909966151676440e+000	 5.266695946510477e-001	 1.284276212624106e+001
 1.904771685897951e+000	 5.451572131802428e-001	 1.291847964673910e+001
 1.954319419719253e+000	 3.616515666652016e-001	 1.258253750977187e+001
 1.950811669289067e+000	 3.801185090635554e-001	 1.257966168389450e+001
 1.947118500715835e+000	 3.986048094806815e-001	 1.258252761552362e+001
 1.943238855509569e+000	 4.171079002041947e-001	 1.259190070573218e+001
 1.939171718371903e+000	 4.356251790762750e-001	 1.260855451382154e+001
 1.934916118315481e+000	 4.541540102930590e-001	 1.263327069774008e+001
 1.930471129769317e+000	 4.726917252427256e-001	 1.266683895026396e+001
 1.925835873668714e+000	 4.912356233821604e-001	 1.271005693018630e+001
 1.921009518528281e+000	 5.097829731520276e-001	 1.276373018771904e+001
 1.915991281496610e+000	 5.283310129300203e-001	 1.282867208327137e+001
 1.910780429391150e+000	 5.468769520220037e-001	 1.290570369873020e+001
 1.960465078266794e+000	 3.627888357382460e-001	 1.255310089319723e+001
 1.956946297176559e+000	 3.813138502835630e-001	 1.255316655124808e+001
 1.953241514867224e+000	 3.998582837217600e-001	 1.255864638774330e+001
 1.949349669520210e+000	 4.184195602658829e-001	 1.257035951814017e+001
 1.945269742644390e+000	 4.369950695752239e-001	 1.258913439996594e+001
 1.941000760198987e+000	 4.555821675572269e-001	 1.261580874638042e+001
 1.936541793702413e+000	 4.741781772082082e-001	 1.265122943355129e+001
 1.931891961325616e+000	 4.927803894927781e-001	 1.269625240107967e+001
 1.927050428968469e+000	 5.113860642617900e-001	 1.275174254467596e+001
 1.922016411317766e+000	 5.299924312085889e-001	 1.281857360024788e+001
 1.916789172885349e+000	 5.485966908632708e-001	 1.289762801852927e+001
 1.966610736813813e+000	 3.639261048107833e-001	 1.252139306195951e+001
 1.963080925063816e+000	 3.825091915031537e-001	 1.252508172895886e+001
 1.959364529018632e+000	 4.011117579624925e-001	 1.253386056004233e+001
 1.955460483531098e+000	 4.197312203272767e-001	 1.254860209206738e+001
 1.951367766917323e+000	 4.383649600739105e-001	 1.257018938209202e+001
 1.947085402083107e+000	 4.570103248211444e-001	 1.259951589427294e+001
 1.942612457636262e+000	 4.756646291734324e-001	 1.263748537863663e+001
 1.937948048983378e+000	 4.943251556031092e-001	 1.268501174095365e+001
 1.933091339409594e+000	 5.129891553712173e-001	 1.274301890291030e+001
 1.928041541139906e+000	 5.316538494867534e-001	 1.281244065173899e+001
 1.922797916380548e+000	 5.503164297040443e-001	 1.289422047843700e+001
 1.862710481473559e+000	 5.331190412740930e-001	 1.303226002668688e+001
 1.857442285242855e+000	 5.511936201973806e-001	 1.311750757511469e+001
 1.851985039314165e+000	 5.692606293320325e-001	 1.320853156852287e+001
 1.846338180046400e+000	 5.873172693296925e-001	 1.330584895309636e+001
 1.840501196031602e+000	 6.053607167281051e-001	 1.340998236540618e+001
 1.834473628985905e+000	 6.233881250957524e-001	 1.352145891321774e+001
 1.828255074612687e+000	 6.413966262105093e-001	 1.348392850634256e+001
 1.821845183436530e+000	 6.593833312716118e-001	 1.343487853650671e+001
 1.815243661606599e+000	 6.773453321441814e-001	 1.338971049314138e+001
 1.808450271668106e+000	 6.952797026354863e-001	 1.334864890223525e+001
 1.801464833300505e+000	 7.131834998020543e-001	 1.331195656195969e+001
 1.868719224959758e+000	 5.348387801193099e-001	 1.304071792316715e+001
 1.863434034547977e+000	 5.529716641360855e-001	 1.312357946856089e+001
 1.857959184600390e+000	 5.710969539454772e-001	 1.321289394981348e+001
 1.852294109657712e+000	 5.892118411689730e-001	 1.330918409920271e+001
 1.846438296662278e+000	 6.073134932363733e-001	 1.341297792124138e+001
 1.840391285851888e+000	 6.253990545341230e-001	 1.352113582287523e+001
 1.834152671625737e+000	 6.434656475877671e-001	 1.347281788099142e+001
 1.827722103381066e+000	 6.615103742778286e-001	 1.342865406624511e+001
 1.821099286319134e+000	 6.795303170883489e-001	 1.338881756274606e+001
 1.814283982219169e+000	 6.975225403872634e-001	 1.335351793786273e+001
 1.807276010178945e+000	 7.154840917377343e-001	 1.332300299925022e+001
 1.874727968446957e+000	 5.365585189640331e-001	 1.305170042756828e+001
 1.869425783854104e+000	 5.547497080742109e-001	 1.313202279358626e+001
 1.863933329887636e+000	 5.729332785582866e-001	 1.321947105885180e+001
 1.858250039270067e+000	 5.911064130075907e-001	 1.331457384524769e+001
 1.852375397294032e+000	 6.092662697439817e-001	 1.341786463246745e+001
 1.846308942718994e+000	 6.274099839718668e-001	 1.350830276373772e+001
 1.840050268639964e+000	 6.455346689644602e-001	 1.346442420115630e+001
 1.833599023326843e+000	 6.636374172835736e-001	 1.342515294207992e+001
 1.826954911032984e+000	 6.817153020321672e-001	 1.339064715120070e+001
 1.820117692771632e+000	 6.997653781388458e-001	 1.336110132120801e+001
 1.813087187058879e+000	 7.177846836734039e-001	 1.333674816031181e+001
 1.880736711935155e+000	 5.382782578082624e-001	 1.301724827684901e+001
 1.875417533161237e+000	 5.565277520117572e-001	 1.313929656739136e+001
 1.869907475175900e+000	 5.747696031704602e-001	 1.322820358047857e+001
 1.864205968883466e+000	 5.930009848455463e-001	 1.332195929449613e+001
 1.858312497926864e+000	 6.112190462509305e-001	 1.342458405339195e+001
 1.852226599587222e+000	 6.294209134089830e-001	 1.349817457739867e+001
 1.845947865655368e+000	 6.476036903405888e-001	 1.345875093553180e+001
 1.839475943273861e+000	 6.657644602888471e-001	 1.342438067608194e+001
 1.832810535748151e+000	 6.839002869756374e-001	 1.339520682035031e+001
 1.825951403325494e+000	 7.020082158902330e-001	 1.337140866919038e+001
 1.818898363940308e+000	 7.200852756090630e-001	 1.335320372133834e+001
 1.886745455424354e+000	 5.399979966519981e-001	 1.298533875042190e+001
 1.881409282469373e+000	 5.583057959487244e-001	 1.310371279358014e+001
 1.875881620465184e+000	 5.766059277819984e-001	 1.323189971379825e+001
 1.870161898497909e+000	 5.948955566828393e-001	 1.333128212741669e+001
 1.864249598560775e+000	 6.131718227572197e-001	 1.343307830364859e+001
 1.858144256456573e+000	 6.314318428454724e-001	 1.349075324969758e+001
 1.851845462671948e+000	 6.496727117161529e-001	 1.345580209312686e+001
 1.845352863222120e+000	 6.678915032936484e-001	 1.342634330750764e+001
 1.838666160464632e+000	 6.860852719187589e-001	 1.340250464568550e+001
 1.831785113880756e+000	 7.042510536414255e-001	 1.338445009842691e+001
 1.824709540823232e+000	 7.223858675447119e-001	 1.337238184386931e+001
 1.892754198914553e+000	 5.417177354952401e-001	 1.295826364005311e+001
 1.887401031778515e+000	 5.600838398851122e-001	 1.307289452280153e+001
 1.881855765755487e+000	 5.784422523929013e-001	 1.319795844751355e+001
 1.876117828113396e+000	 5.967901285194704e-001	 1.333375103561969e+001
 1.870186699195763e+000	 6.151245992628494e-001	 1.344329005922381e+001
 1.864061913327045e+000	 6.334427722813343e-001	 1.348604131072454e+001
 1.857743059689705e+000	 6.517417330911525e-001	 1.345558221468838e+001
 1.851229783171621e+000	 6.700185462979784e-001	 1.343104739443101e+001
 1.844521785182429e+000	 6.882702568615318e-001	 1.341254920818936e+001
 1.837618824437419e+000	 7.064938913924233e-001	 1.340023621730064e+001
 1.830520717707651e+000	 7.246864594803506e-001	 1.339429516708599e+001
 1.898762942405752e+000	 5.434374743379884e-001	 1.293598854510884e+001
 1.893392781088662e+000	 5.618618838209211e-001	 1.304680852869117e+001
 1.887829911046810e+000	 5.802785770031683e-001	 1.316867771386650e+001
 1.882073757729927e+000	 5.986847003554386e-001	 1.330188706401535e+001
 1.876123799831830e+000	 6.170773757678191e-001	 1.344672921733755e+001
 1.869979570198640e+000	 6.354537017165692e-001	 1.348404182620868e+001
 1.863640656708638e+000	 6.538107544655871e-001	 1.345809636428764e+001
 1.857106703122362e+000	 6.721455893018360e-001	 1.343850000553451e+001
 1.850377409901540e+000	 6.904552418039559e-001	 1.342534958633921e+001
 1.843452534995482e+000	 7.087367291432263e-001	 1.341877811817955e+001
 1.836331894593564e+000	 7.269870514159791e-001	 1.341895680025374e+001
 1.904771685897951e+000	 5.451572131802428e-001	 1.291847964673910e+001
 1.899384530399812e+000	 5.636399277561505e-001	 1.302542215655771e+001
 1.893804056339153e+000	 5.821149016128002e-001	 1.314402604985341e+001
 1.888029687347502e+000	 6.005792721907446e-001	 1.327457759855099e+001
 1.882060900468975e+000	 6.190301522721293e-001	 1.341736427207896e+001
 1.875897227071357e+000	 6.374646311511769e-001	 1.347831982770700e+001
 1.869538253728748e+000	 6.558797758394576e-001	 1.346335012106600e+001
 1.862983623074344e+000	 6.742726323052222e-001	 1.344870871205527e+001
 1.856233034621968e+000	 6.926402267460314e-001	 1.344091534825961e+001
 1.849286245554944e+000	 7.109795668938345e-001	 1.344008736978269e+001
 1.842143071480973e+000	 7.292876433515974e-001	 1.344638031530749e+001
 1.910780429391150e+000	 5.468769520220037e-001	 1.290570369873020e+001
 1.905376279711968e+000	 5.654179716908009e-001	 1.300870331439428e+001
 1.899778201632514e+000	 5.839512262217965e-001	 1.312397254480386e+001
 1.893985616966120e+000	 6.024738440253881e-001	 1.325179293659463e+001
 1.887998001107198e+000	 6.209829287757795e-001	 1.339244675915619e+001
 1.881814883945197e+000	 6.394755605851574e-001	 1.344088609452838e+001
 1.875435850750035e+000	 6.579487972127630e-001	 1.346835920702740e+001
 1.868860543027566e+000	 6.763996753081363e-001	 1.346168157988330e+001
 1.862088659343710e+000	 6.948252116877584e-001	 1.345925654402359e+001
 1.855119956115807e+000	 7.132224046442477e-001	 1.346417600969038e+001
 1.847954248369876e+000	 7.315882352872051e-001	 1.347657973957705e+001
 1.916789172885349e+000	 5.485966908632708e-001	 1.289762801852927e+001
 1.911368029025130e+000	 5.671960156248722e-001	 1.299662046405890e+001
 1.905752346926896e+000	 5.857875508301573e-001	 1.310848683172350e+001
 1.899941546585782e+000	 6.043684158593694e-001	 1.323350390860992e+001
 1.893935101746499e+000	 6.229357052787702e-001	 1.337194873235619e+001
 1.887732540820160e+000	 6.414864900185112e-001	 1.340890814953931e+001
 1.881333447772498e+000	 6.600178185855042e-001	 1.344002998473852e+001
 1.874737462982031e+000	 6.785267183105789e-001	 1.347742716180832e+001
 1.867944284066768e+000	 6.970101966291368e-001	 1.348038369809854e+001
 1.860953666678070e+000	 7.154652423944661e-001	 1.349105653699534e+001
 1.853765425260274e+000	 7.338888272228026e-001	 1.350956954864923e+001
 1.922797916380548e+000	 5.503164297040443e-001	 1.289422047843700e+001
 1.917359778339296e+000	 5.689740595583643e-001	 1.298914261262043e+001
 1.911726492222297e+000	 5.876238754378828e-001	 1.309753907879909e+001
 1.905897476206488e+000	 6.062629876926882e-001	 1.321968186982661e+001
 1.899872202386878e+000	 6.248884817811015e-001	 1.335584275943336e+001
 1.893650197696244e+000	 6.434974194512375e-001	 1.338233661926588e+001
 1.887231044796138e+000	 6.620868399576808e-001	 1.341699602619529e+001
 1.880614382937736e+000	 6.806537613125496e-001	 1.346026356428804e+001
 1.873799908791142e+000	 6.991951815701667e-001	 1.350430780193382e+001
 1.866787377241733e+000	 7.177080801444898e-001	 1.352074190509150e+001
 1.859576602152168e+000	 7.361894191583899e-001	 1.354536465936389e+001
 1.801464833300505e+000	 7.131834998020543e-001	 1.331195656195969e+001
 1.794287224020587e+000	 7.310537652868080e-001	 1.332796247615346e+001
 1.786917379850749e+000	 7.488875266850175e-001	 1.333339126575957e+001
 1.779355295950257e+000	 7.666817989379257e-001	 1.332806002183055e+001
 1.771601027207090e+000	 7.844335857533211e-001	 1.331183862617641e+001
 1.763654688790824e+000	 8.021398810516242e-001	 1.328465189386895e+001
 1.755516456664855e+000	 8.197976704363059e-001	 1.324648161987930e+001
 1.747186568056895e+000	 8.374039326873475e-001	 1.319736852186266e+001
 1.738665321886658e+000	 8.549556412764128e-001	 1.313741407124566e+001
 1.729953079149745e+000	 8.724497659023354e-001	 1.306678220494340e+001
 1.721050263256754e+000	 8.898832740454855e-001	 1.298570091023784e+001
 1.807276010178945e+000	 7.154840917377343e-001	 1.332300299925022e+001
 1.800075247320227e+000	 7.334120032396555e-001	 1.334010925072465e+001
 1.792681629459117e+000	 7.513032928999550e-001	 1.334660501397472e+001
 1.785095151739265e+000	 7.691549660306544e-001	 1.334228350161774e+001
 1.777315869225709e+000	 7.869640166740832e-001	 1.332699111535187e+001
 1.769343897459540e+000	 8.047274290536318e-001	 1.330062963202161e+001
 1.761179412971779e+000	 8.224421790489107e-001	 1.326315829329455e+001
 1.752822653755387e+000	 8.401052356940320e-001	 1.321459579085333e+001
 1.744273919694338e+000	 8.577135626976642e-001	 1.315502213914816e+001
 1.735533572948735e+000	 8.752641199834758e-001	 1.308458042792745e+001
 1.726602038295016e+000	 8.927538652495166e-001	 1.300347844696918e+001
 1.813087187058879e+000	 7.177846836734039e-001	 1.333674816031181e+001
 1.805863270621452e+000	 7.357702411926780e-001	 1.335486624828711e+001
 1.798445879069141e+000	 7.537190591152241e-001	 1.336233529987584e+001
 1.790835007529979e+000	 7.716281331238408e-001	 1.335892460674102e+001
 1.783030711246066e+000	 7.894944475954001e-001	 1.334445705509423e+001
 1.775033106130005e+000	 8.073149770562614e-001	 1.331881135554223e+001
 1.766842369280443e+000	 8.250866876621754e-001	 1.328192417601326e+001
 1.758458739455592e+000	 8.428065387013828e-001	 1.323379216955592e+001
 1.749882517503681e+000	 8.604714841195578e-001	 1.317447388894535e+001
 1.741114066749318e+000	 8.780784740652048e-001	 1.310409158020415e+001
 1.732153813334782e+000	 8.956244564540511e-001	 1.302283284735105e+001
 1.818898363940308e+000	 7.200852756090630e-001	 1.335320372133834e+001
 1.811651293924262e+000	 7.381284791458758e-001	 1.337224783350503e+001
 1.804210128680820e+000	 7.561348253308241e-001	 1.338059915498494e+001
 1.796574863322402e+000	 7.741013002174855e-001	 1.337800301245512e+001
 1.788745553268162e+000	 7.920248785172723e-001	 1.336425873976750e+001
 1.780722314802220e+000	 8.099025250595127e-001	 1.333922195179854e+001
 1.772505325590848e+000	 8.277311962760988e-001	 1.330280672083685e+001
 1.764094825157508e+000	 8.455078417093992e-001	 1.325498764719071e+001
 1.755491115314688e+000	 8.632294055420945e-001	 1.319580181583821e+001
 1.746694560551496e+000	 8.808928281475222e-001	 1.312535063111687e+001
 1.737705588376052e+000	 8.984950476590899e-001	 1.304380152165556e+001
 1.824709540823232e+000	 7.223858675447119e-001	 1.337238184386931e+001
 1.817439317228658e+000	 7.404867170992487e-001	 1.339226883366021e+001
 1.809974378294155e+000	 7.585505915467554e-001	 1.340141405061828e+001
 1.802314719116530e+000	 7.765744673115878e-001	 1.339953881090021e+001
 1.794460395291995e+000	 7.945553094396990e-001	 1.338641885763686e+001
 1.786411523476185e+000	 8.124900730633863e-001	 1.336188667900948e+001
 1.778168281902994e+000	 8.303757048906812e-001	 1.332583372831274e+001
 1.769730910861137e+000	 8.482091447180821e-001	 1.327821253757382e+001
 1.761099713127358e+000	 8.659873269652731e-001	 1.321903871643884e+001
 1.752275054355267e+000	 8.837071822304284e-001	 1.314839282821129e+001
 1.743257363418825e+000	 9.013656388646325e-001	 1.306642213513488e+001
 1.830520717707651e+000	 7.246864594803506e-001	 1.339429516708599e+001
 1.823227340534638e+000	 7.428449550527965e-001	 1.341494453130889e+001
 1.815738627909147e+000	 7.609663577630179e-001	 1.342479789090552e+001
 1.808054574912365e+000	 7.790476344061478e-001	 1.342355250448466e+001
 1.800175237317567e+000	 7.970857403626803e-001	 1.341096048461605e+001
 1.792100732151899e+000	 8.150776210678816e-001	 1.338683116035867e+001
 1.783831238216881e+000	 8.330202135059227e-001	 1.335103334121457e+001
 1.775366996566477e+000	 8.509104477274305e-001	 1.330349747396488e+001
 1.766708310941690e+000	 8.687452483890946e-001	 1.324421768398610e+001
 1.757855548160631e+000	 8.865215363139231e-001	 1.317325369281947e+001
 1.748809138463102e+000	 9.042362300706790e-001	 1.309073260397397e+001
 1.836331894593564e+000	 7.269870514159791e-001	 1.341895680025374e+001
 1.829015363842204e+000	 7.452031930065199e-001	 1.344029065707805e+001
 1.821502877525794e+000	 7.633821239796119e-001	 1.345076900594141e+001
 1.813794430709908e+000	 7.815208015011659e-001	 1.345006499939350e+001
 1.805890079344876e+000	 7.996161712862170e-001	 1.343790707813390e+001
 1.797789940829363e+000	 8.176651690729994e-001	 1.341408137821964e+001
 1.789494194532509e+000	 8.356647221218234e-001	 1.337843403912729e+001
 1.781003082273530e+000	 8.536117507374450e-001	 1.333087340401256e+001
 1.772316908757686e+000	 8.715031698135584e-001	 1.327137210365219e+001
 1.763436041967590e+000	 8.893358903980063e-001	 1.319996901572776e+001
 1.754360913508883e+000	 9.071068212772295e-001	 1.311677109132008e+001
 1.842143071480973e+000	 7.292876433515974e-001	 1.344638031530749e+001
 1.834803387151355e+000	 7.475614309604179e-001	 1.346832338259805e+001
 1.827267127144097e+000	 7.657978901965370e-001	 1.347934614506712e+001
 1.819534286509157e+000	 7.839939685966418e-001	 1.347909759921968e+001
 1.811604921373924e+000	 8.021466022103083e-001	 1.346728247111659e+001
 1.803479149508576e+000	 8.202527170787387e-001	 1.344366366849039e+001
 1.795157150849877e+000	 8.383092307383832e-001	 1.340806463313462e+001
 1.786639167982295e+000	 8.563130537481256e-001	 1.336037158479576e+001
 1.777925506575345e+000	 8.742610912386648e-001	 1.330053564793797e+001
 1.769016535776142e+000	 8.921502444826779e-001	 1.322857485292678e+001
 1.759912688556169e+000	 9.099774124842841e-001	 1.314457600338752e+001
 1.847954248369876e+000	 7.315882352872051e-001	 1.347657973957705e+001
 1.840591410462090e+000	 7.499196689144914e-001	 1.349905931356863e+001
 1.833031376764055e+000	 7.682136564137932e-001	 1.351054847027827e+001
 1.825274142310114e+000	 7.864671356925759e-001	 1.351067199871551e+001
 1.817319763404711e+000	 8.046770331349546e-001	 1.349911086608373e+001
 1.809168358189538e+000	 8.228402650851002e-001	 1.347560471503483e+001
 1.800820107168987e+000	 8.409537393556023e-001	 1.343995426060683e+001
 1.792275253692772e+000	 8.590143567594722e-001	 1.339202357795836e+001
 1.783534104394666e+000	 8.770190126644138e-001	 1.333174227215530e+001
 1.774597029586287e+000	 8.949645985679382e-001	 1.325910752144150e+001
 1.765464463604958e+000	 9.128480036918425e-001	 1.317418598563576e+001
 1.853765425260274e+000	 7.338888272228026e-001	 1.350956954864923e+001
 1.846379433774412e+000	 7.522779068687400e-001	 1.353251548295533e+001
 1.838795626385670e+000	 7.706294226313809e-001	 1.354439554975703e+001
 1.831013998112777e+000	 7.889403027889678e-001	 1.354481027766165e+001
 1.823034605437234e+000	 8.072074640601556e-001	 1.353341682935524e+001
 1.814857566872251e+000	 8.254278130920837e-001	 1.350993154422874e+001
 1.806483063489837e+000	 8.435982479734802e-001	 1.347413238008654e+001
 1.797911339404961e+000	 8.617156597714847e-001	 1.342586124493544e+001
 1.789142702215651e+000	 8.797769340908054e-001	 1.336502620999418e+001
 1.780177523398027e+000	 8.977789526537870e-001	 1.329160359523988e+001
 1.771016238655251e+000	 9.157185948999048e-001	 1.320563991901959e+001
 1.859576602152168e+000	 7.361894191583899e-001	 1.354536465936389e+001
 1.852167457088318e+000	 7.546361448231637e-001	 1.356870934431342e+001
 1.844559876008941e+000	 7.730451888492999e-001	 1.358090735152549e+001
 1.836753853917147e+000	 7.914134698858174e-001	 1.358153489485108e+001
 1.828749447471497e+000	 8.097378949859116e-001	 1.357022528536708e+001
 1.820546775556712e+000	 8.280153610996890e-001	 1.354667151960811e+001
 1.812146019812428e+000	 8.462427565920174e-001	 1.351062876627038e+001
 1.803547425118862e+000	 8.644169627841633e-001	 1.346191674226907e+001
 1.794751300038299e+000	 8.825348555178394e-001	 1.340042196917316e+001
 1.785758017211360e+000	 9.005933067402245e-001	 1.332609990121800e+001
 1.776568013707048e+000	 9.185891861084711e-001	 1.323897691630947e+001
 1.721050263256754e+000	 8.898832740454855e-001	 1.298570091023784e+001
 1.711957360326679e+000	 9.072531325397517e-001	 1.290397956426519e+001
 1.702674919433895e+000	 9.245563091598654e-001	 1.281753182733503e+001
 1.693203552807766e+000	 9.417897742231283e-001	 1.272682583450154e+001
 1.683543935984107e+000	 9.589505022042499e-001	 1.263239430114259e+001
 1.673696807907975e+000	 9.760354733609418e-001	 1.253483528973967e+001
 1.663662970987119e+000	 9.930416753688364e-001	 1.243481281604141e+001
 1.653443291095546e+000	 1.009966104964006e+000	 1.233305728961283e+001
 1.643038697526718e+000	 1.026805769591331e+000	 1.223036578420474e+001
 1.632450182895999e+000	 1.043557689056933e+000	 1.212760213383476e+001
 1.621678802991984e+000	 1.060218897182866e+000	 1.202569685095182e+001
 1.726602038295016e+000	 8.927538652495166e-001	 1.300347844696918e+001
 1.717479803420281e+000	 9.101797555452843e-001	 1.292148433230943e+001
 1.708167419170098e+000	 9.275387488641560e-001	 1.283415399037835e+001
 1.698665499748761e+000	 9.448278057502633e-001	 1.274191759205045e+001
 1.688974722871233e+000	 9.620438909185576e-001	 1.264527085258191e+001
 1.679095829866267e+000	 9.791839748856461e-001	 1.254477585432539e+001
 1.669029625730022e+000	 9.962450356099862e-001	 1.244106170724884e+001
 1.658776979129648e+000	 1.013224060139703e+000	 1.233482504213029e+001
 1.648338822356329e+000	 1.030118046266272e+000	 1.222683033173644e+001
 1.637716151227412e+000	 1.046924004182287e+000	 1.211791003575331e+001
 1.626910024937263e+000	 1.063638958141487e+000	 1.200896456572232e+001
 1.732153813334782e+000	 8.956244564540511e-001	 1.302283284735105e+001
 1.723002246515284e+000	 9.131063785512158e-001	 1.294023148850867e+001
 1.713659918907585e+000	 9.305211885687305e-001	 1.285168078082485e+001
 1.704127446690914e+000	 9.478658372775578e-001	 1.275757306657571e+001
 1.694405509759384e+000	 9.651372796328895e-001	 1.265836720466656e+001
 1.684494851825438e+000	 9.823324764102299e-001	 1.255458944928318e+001
 1.674396280473650e+000	 9.994483958508605e-001	 1.244683416475197e+001
 1.664110667164310e+000	 1.016482015314959e+000	 1.233576437134999e+001
 1.653638947186325e+000	 1.033430322940598e+000	 1.222211211724587e+001
 1.642982119559025e+000	 1.050290319306841e+000	 1.210667867221662e+001
 1.632141246882547e+000	 1.067059019099114e+000	 1.199033453927481e+001
 1.737705588376052e+000	 8.984950476590899e-001	 1.304380152165556e+001
 1.728524689611685e+000	 9.160330015575463e-001	 1.296026270046240e+001
 1.719152418646355e+000	 9.335036282735896e-001	 1.287015806875234e+001
 1.709589393634228e+000	 9.509038688050113e-001	 1.277384227355399e+001
 1.699836296648559e+000	 9.682306683472461e-001	 1.267173745899943e+001
 1.689893873785489e+000	 9.854809779346934e-001	 1.256433420091661e+001
 1.679762935218003e+000	 1.002651756091460e+000	 1.245219227601887e+001
 1.669444355199532e+000	 1.019739970489775e+000	 1.233594126030242e+001
 1.658939072016705e+000	 1.036742599614309e+000	 1.221628095170502e+001
 1.648248087890839e+000	 1.053656634430596e+000	 1.209398161254770e+001
 1.637372468827837e+000	 1.070479080055746e+000	 1.196988402777473e+001
 1.743257363418825e+000	 9.013656388646325e-001	 1.306642213513488e+001
 1.734047132709485e+000	 9.189596245642759e-001	 1.298161984394610e+001
 1.724644918386411e+000	 9.364860679787324e-001	 1.288963188586040e+001
 1.715051340578700e+000	 9.539419003326246e-001	 1.279077534380186e+001
 1.705267083538759e+000	 9.713240570616274e-001	 1.268543578653696e+001
 1.695292895746420e+000	 9.886294794590371e-001	 1.257406825921453e+001
 1.685129589963081e+000	 1.005855116331784e+000	 1.245719810687553e+001
 1.674778043235315e+000	 1.022997925664152e+000	 1.233542162541225e+001
 1.664239196847472e+000	 1.040054876287405e+000	 1.220940653490250e+001
 1.653514056222852e+000	 1.057022949553552e+000	 1.207989227071722e+001
 1.642603690773131e+000	 1.073899141011383e+000	 1.194769008829706e+001
 1.748809138463102e+000	 9.042362300706790e-001	 1.309073260397397e+001
 1.739569575808683e+000	 9.218862475714043e-001	 1.300434499960692e+001
 1.730137418127751e+000	 9.394685076841594e-001	 1.291014842290484e+001
 1.720513287524332e+000	 9.569799318603969e-001	 1.280842252164504e+001
 1.710697870429982e+000	 9.744174457760330e-001	 1.269951642648823e+001
 1.700691917708230e+000	 9.917779809832596e-001	 1.258384979747512e+001
 1.690496244708883e+000	 1.009058476571834e+000	 1.246191370184947e+001
 1.680111731271658e+000	 1.026255880838089e+000	 1.233427131755562e+001
 1.669539321678623e+000	 1.043367152959887e+000	 1.220155845720838e+001
 1.658780024555066e+000	 1.060389264675707e+000	 1.206448390780938e+001
 1.647834912718432e+000	 1.077319201966025e+000	 1.192382958198646e+001
 1.754360913508883e+000	 9.071068212772295e-001	 1.311677109132008e+001
 1.745092018909282e+000	 9.248128705789318e-001	 1.302848044972204e+001
 1.735629917870373e+000	 9.424509473898702e-001	 1.293175402718105e+001
 1.725975234471123e+000	 9.600179633883281e-001	 1.282683416312234e+001
 1.716128657322232e+000	 9.775108344904631e-001	 1.271403368523505e+001
 1.706090939670921e+000	 9.949264825073623e-001	 1.259373701193709e+001
 1.695862899455411e+000	 1.012261836811608e+000	 1.246640108450669e+001
 1.685445419308561e+000	 1.029513836011585e+000	 1.233255612309735e+001
 1.674839446510160e+000	 1.046679429631753e+000	 1.219280620130551e+001
 1.664045992887480e+000	 1.063755579797062e+000	 1.204782963444102e+001
 1.653066134663737e+000	 1.080739262919673e+000	 1.189837917715751e+001
 1.759912688556169e+000	 9.099774124842841e-001	 1.314457600338752e+001
 1.750614462011279e+000	 9.277394935868583e-001	 1.305406867501834e+001
 1.741122417614281e+000	 9.454333870958657e-001	 1.295449520005492e+001
 1.731437181419073e+000	 9.630559949164191e-001	 1.284606073422363e+001
 1.721559444215505e+000	 9.806042232049176e-001	 1.272904193527247e+001
 1.711489961634490e+000	 9.980749840313447e-001	 1.260378812141782e+001
 1.701229554202663e+000	 1.015465197051107e+000	 1.247072225778235e+001
 1.690779107346023e+000	 1.032771791184642e+000	 1.233034176490840e+001
 1.680139571342082e+000	 1.049991706303005e+000	 1.218321914388797e+001
 1.669311961220095e+000	 1.067121894917618e+000	 1.203000241313491e+001
 1.658297356609047e+000	 1.084159323872326e+000	 1.187141535233603e+001
 1.765464463604958e+000	 9.128480036918425e-001	 1.317418598563576e+001
 1.756136905114675e+000	 9.306661165951838e-001	 1.308115235155220e+001
 1.746614917359472e+000	 9.484158268021449e-001	 1.297841859454034e+001
 1.736899128368183e+000	 9.660940264446691e-001	 1.286615280916107e+001
 1.726990231109802e+000	 9.836976119193965e-001	 1.274459561416921e+001
 1.716888983598940e+000	 1.001223485555207e+000	 1.261406136695836e+001
 1.706596208950640e+000	 1.018668557290331e+000	 1.247493920430507e+001
 1.696112795384046e+000	 1.036029746357258e+000	 1.232769390336418e+001
 1.685439696174389e+000	 1.053303982973642e+000	 1.217286655732773e+001
 1.674577929552910e+000	 1.070488210037374e+000	 1.201107506064828e+001
 1.663528578554363e+000	 1.087579384823984e+000	 1.184301439924342e+001
 1.771016238655251e+000	 9.157185948999048e-001	 1.320563991901959e+001
 1.761659348219469e+000	 9.335927396039082e-001	 1.310977434764782e+001
 1.752107417105948e+000	 9.513982665087083e-001	 1.300357101292226e+001
 1.742361075318451e+000	 9.691320579730786e-001	 1.288716106867281e+001
 1.732421018005125e+000	 9.867910006338999e-001	 1.276074922354775e+001
 1.722288005564269e+000	 1.004371987078949e+000	 1.262461501147511e+001
 1.711962863699343e+000	 1.021871917529280e+000	 1.247911388671531e+001
 1.701446483422629e+000	 1.039287701529435e+000	 1.232467813732420e+001
 1.690739821007081e+000	 1.056616259643664e+000	 1.216181761130961e+001
 1.679843897885925e+000	 1.073854525156331e+000	 1.199112025025759e+001
 1.668759800499685e+000	 1.090999445774648e+000	 1.181325242572444e+001
 1.776568013707048e+000	 9.185891861084711e-001	 1.323897691630947e+001
 1.767181791325664e+000	 9.365193626130317e-001	 1.313997772089311e+001
 1.757599916853708e+000	 9.543807062155558e-001	 1.302999940442434e+001
 1.747823022269880e+000	 9.721700895016475e-001	 1.290913629835853e+001
 1.737851804901472e+000	 9.898843893484280e-001	 1.277755732808345e+001
 1.727687027530478e+000	 1.007520488602570e+000	 1.263550733941798e+001
 1.717329518448770e+000	 1.025075277767954e+000	 1.248330824797763e+001
 1.706780171461772e+000	 1.042545656701172e+000	 1.232136000509318e+001
 1.696039945840158e+000	 1.059928536313071e+000	 1.215014137443588e+001
 1.685109866219140e+000	 1.077220840274487e+000	 1.197021051400029e+001
 1.673991022445011e+000	 1.094419506724317e+000	 1.178220535862032e+001
 1.621678802991984e+000	 1.060218897182866e+000	 1.202569685095182e+001
 1.610725676576839e+000	 1.076786443461875e+000	 1.184959111887546e+001
 1.599591985134366e+000	 1.093257394711487e+000	 1.168782112506060e+001
 1.588278972566403e+000	 1.109628836724828e+000	 1.154208462362131e+001
 1.576787944838252e+000	 1.125897875915574e+000	 1.141413615433104e+001
 1.565120269572084e+000	 1.142061640956243e+000	 1.130578539387401e+001
 1.553277375588805e+000	 1.158117284407598e+000	 1.121889532526506e+001
 1.541260752398576e+000	 1.174061984337278e+000	 1.115538022679284e+001
 1.529071949640272e+000	 1.189892945925769e+000	 1.111720348243661e+001
 1.516712576470207e+000	 1.205607403057849e+000	 1.110637521630190e+001
 1.504184300900581e+000	 1.221202619897652e+000	 1.112494975421630e+001
 1.626910024937263e+000	 1.063638958141487e+000	 1.200896456572232e+001
 1.615921565856891e+000	 1.080259948118789e+000	 1.183113600012318e+001
 1.604751959281269e+000	 1.096784031469777e+000	 1.166773579752738e+001
 1.593402453124822e+000	 1.113208284586912e+000	 1.152049303099941e+001
 1.581874357565642e+000	 1.129529804549718e+000	 1.139119428875081e+001
 1.570169044637585e+000	 1.145745710768366e+000	 1.128168199468428e+001
 1.558287947770654e+000	 1.161853146618333e+000	 1.119385254500609e+001
 1.546232561279885e+000	 1.177849281064249e+000	 1.112965426229757e+001
 1.534004439802985e+000	 1.193731310271052e+000	 1.109108516903810e+001
 1.521605197687096e+000	 1.209496459200570e+000	 1.108019058317385e+001
 1.509036508325103e+000	 1.225141983191659e+000	 1.109906053892980e+001
 1.632141246882547e+000	 1.067059019099114e+000	 1.199033453927481e+001
 1.621117455136768e+000	 1.083733452774528e+000	 1.181097263179581e+001
 1.609911933427856e+000	 1.100310668226753e+000	 1.164612424832170e+001
 1.598525933682824e+000	 1.116787732447580e+000	 1.149754972021565e+001
 1.586960770292554e+000	 1.133161733182385e+000	 1.136706763364479e+001
 1.575217819702586e+000	 1.149429780578991e+000	 1.125655311950849e+001
 1.563298519952023e+000	 1.165589008827588e+000	 1.116793595731557e+001
 1.551204370160773e+000	 1.181636577789799e+000	 1.110319849443703e+001
 1.538936929965377e+000	 1.197569674615014e+000	 1.106437338276870e+001
 1.526497818903803e+000	 1.213385515342109e+000	 1.105354113544718e+001
 1.513888715749621e+000	 1.229081346484663e+000	 1.107282750687110e+001
 1.637372468827837e+000	 1.070479080055746e+000	 1.196988402777473e+001
 1.626313344416470e+000	 1.087206957429093e+000	 1.178917661445714e+001
 1.615071907574128e+000	 1.103837304982412e+000	 1.162306040376954e+001
 1.603649414240410e+000	 1.120367180306830e+000	 1.147332692561812e+001
 1.592047183018988e+000	 1.136793661813573e+000	 1.134182671457281e+001
 1.580266594767088e+000	 1.153113850388117e+000	 1.123046756927019e+001
 1.568309092132913e+000	 1.169324871035364e+000	 1.114121262362722e+001
 1.556176179041239e+000	 1.185423874513928e+000	 1.107607823132726e+001
 1.543869420127446e+000	 1.201408038957655e+000	 1.103713166565521e+001
 1.531390440120328e+000	 1.217274571482466e+000	 1.102648863737289e+001
 1.518740923174137e+000	 1.233020709776663e+000	 1.104631063394325e+001
 1.642603690773131e+000	 1.073899141011383e+000	 1.194769008829706e+001
 1.631509233695997e+000	 1.090680462082482e+000	 1.176582337341741e+001
 1.620231881720085e+000	 1.107363941736755e+000	 1.159861803853483e+001
 1.608772894797578e+000	 1.123946628164664e+000	 1.144789675322732e+001
 1.597133595744945e+000	 1.140425590443283e+000	 1.131554195183240e+001
 1.585315369831091e+000	 1.156797920195744e+000	 1.120349406241517e+001
 1.573319664313321e+000	 1.173060733241659e+000	 1.111374954538906e+001
 1.561147987921285e+000	 1.189211171236636e+000	 1.104835874328694e+001
 1.548801910289194e+000	 1.205246403298973e+000	 1.100942354379986e+001
 1.536283061336669e+000	 1.221163627621640e+000	 1.099909485882456e+001
 1.523593130598651e+000	 1.236960073067662e+000	 1.101956992288154e+001
 1.647834912718432e+000	 1.077319201966025e+000	 1.192382958198646e+001
 1.636705122975349e+000	 1.094153966734696e+000	 1.174098816151508e+001
 1.625391855865725e+000	 1.110890578489784e+000	 1.157287077802708e+001
 1.613896375354331e+000	 1.127526076021082e+000	 1.142133118277315e+001
 1.602220008470423e+000	 1.144057519071516e+000	 1.128828366212963e+001
 1.590364144894595e+000	 1.160481990001872e+000	 1.117570123622045e+001
 1.578330236493250e+000	 1.176796595446473e+000	 1.108561366501547e+001
 1.566119796800909e+000	 1.192998467957922e+000	 1.102010526343704e+001
 1.553734400450619e+000	 1.209084767638969e+000	 1.098131252763340e+001
 1.541175682552828e+000	 1.225052683759631e+000	 1.097142157520887e+001
 1.528445338023161e+000	 1.240899436357658e+000	 1.099266540282740e+001
 1.653066134663737e+000	 1.080739262919673e+000	 1.189837917715751e+001
 1.641901012254527e+000	 1.097627471385735e+000	 1.171474606184585e+001
 1.630551830011050e+000	 1.114417215241496e+000	 1.154589210076260e+001
 1.619019855910667e+000	 1.131105523876082e+000	 1.139370206969308e+001
 1.607306421195424e+000	 1.147689447698271e+000	 1.126012206021812e+001
 1.595412919957601e+000	 1.164166059806501e+000	 1.114715764807873e+001
 1.583340808672699e+000	 1.180532457649808e+000	 1.105687186682138e+001
 1.571091605680112e+000	 1.196785764677788e+000	 1.099138298828963e+001
 1.558666890611723e+000	 1.212923131977643e+000	 1.095286211216282e+001
 1.546068303768805e+000	 1.228941739896440e+000	 1.094353056737833e+001
 1.533297545447669e+000	 1.244838799646650e+000	 1.096565712891083e+001
 1.658297356609047e+000	 1.084159323872326e+000	 1.187141535233603e+001
 1.647096901533528e+000	 1.101100976035599e+000	 1.168717199043999e+001
 1.635711804156059e+000	 1.117943851991893e+000	 1.151775534068171e+001
 1.624143336466585e+000	 1.134684971729666e+000	 1.136508114709272e+001
 1.612392833919947e+000	 1.151321376323548e+000	 1.123112726050726e+001
 1.600461695020107e+000	 1.167850129609630e+000	 1.111793177675839e+001
 1.588351380851668e+000	 1.184268319851662e+000	 1.102759097793845e+001
 1.576063414558894e+000	 1.200573061396232e+000	 1.096225707832535e+001
 1.563599380772504e+000	 1.216761496314995e+000	 1.092413577721483e+001
 1.550960924984600e+000	 1.232830796032066e+000	 1.091548362154515e+001
 1.538149752872174e+000	 1.248778162934641e+000	 1.093860518184035e+001
 1.663528578554363e+000	 1.087579384823984e+000	 1.184301439924342e+001
 1.652292790812356e+000	 1.104574480684289e+000	 1.165834069888910e+001
 1.640871778300753e+000	 1.121470488740974e+000	 1.148853368942191e+001
 1.629266817022088e+000	 1.138264419581834e+000	 1.133554002766909e+001
 1.617479246643992e+000	 1.154953304947348e+000	 1.120136927863985e+001
 1.605510470082114e+000	 1.171534199411261e+000	 1.108809202363961e+001
 1.593361953030156e+000	 1.188004182052037e+000	 1.099783776921441e+001
 1.581035223437254e+000	 1.204360358113255e+000	 1.093279265855950e+001
 1.568531870932964e+000	 1.220599860651025e+000	 1.089519698767434e+001
 1.555853546200212e+000	 1.236719852166510e+000	 1.088734252919717e+001
 1.543001960296677e+000	 1.252717526221628e+000	 1.088657403174102e+001
 1.668759800499685e+000	 1.090999445774648e+000	 1.181325242572444e+001
 1.657488680091008e+000	 1.108047985331803e+000	 1.162832677692359e+001
 1.646031752445131e+000	 1.124997125488740e+000	 1.145830019854821e+001
 1.634390297577173e+000	 1.141843867432584e+000	 1.130515020559817e+001
 1.622565659367560e+000	 1.158585233569669e+000	 1.117091803304019e+001
 1.610559245143622e+000	 1.175218269211392e+000	 1.105770671392753e+001
 1.598372525208164e+000	 1.191740044250931e+000	 1.096767895609510e+001
 1.586007032315194e+000	 1.208147654828856e+000	 1.090305481909846e+001
 1.573464361093101e+000	 1.224438224985734e+000	 1.086610919371882e+001
 1.560746167415641e+000	 1.240608908299772e+000	 1.085916908701496e+001
 1.547854167721177e+000	 1.256656889507613e+000	 1.082641818983355e+001
 1.673991022445011e+000	 1.094419506724317e+000	 1.178220535862032e+001
 1.662684569369486e+000	 1.111521489978142e+000	 1.159720465494169e+001
 1.651191726589193e+000	 1.128523762235190e+000	 1.142712778174184e+001
 1.639513778131843e+000	 1.145423315281919e+000	 1.127398305838646e+001
 1.627652072090650e+000	 1.162217162190513e+000	 1.113984334643316e+001
 1.615608020204631e+000	 1.178902339010026e+000	 1.102684409784230e+001
 1.603383097385692e+000	 1.195475906448345e+000	 1.093718119949021e+001
 1.590978841192713e+000	 1.211934951543037e+000	 1.087310861568489e+001
 1.578396851252917e+000	 1.228276589319120e+000	 1.083693583104801e+001
 1.565638788630888e+000	 1.244497964431851e+000	 1.083102509679079e+001
 1.552706375145675e+000	 1.260596252792596e+000	 1.076990136855281e+001
 1.504184300900581e+000	 1.221202619897652e+000	 1.112494975421630e+001
 1.491488849088077e+000	 1.236675892445872e+000	 1.113799945354213e+001
 1.478628004573367e+000	 1.252024550076190e+000	 1.117588687152917e+001
 1.465603607472132e+000	 1.267245957049786e+000	 1.103934184084072e+001
 1.452417553618144e+000	 1.282337514006943e+000	 1.092124330718368e+001
 1.439071793659423e+000	 1.297296659432901e+000	 1.082163120024933e+001
 1.425568332108285e+000	 1.312120871096571e+000	 1.074050739205879e+001
 1.411909226346260e+000	 1.326807667460461e+000	 1.067783664480872e+001
 1.398096585584880e+000	 1.341354609060125e+000	 1.063354766521313e+001
 1.384132569783457e+000	 1.355759299851564e+000	 1.060753426210455e+001
 1.370019388525000e+000	 1.370019388525000e+000	 1.059965660371130e+001
 1.509036508325103e+000	 1.225141983191659e+000	 1.109906053892980e+001
 1.496300103442013e+000	 1.240665169522429e+000	 1.111853413155905e+001
 1.483397772331935e+000	 1.256063338951637e+000	 1.110137086398629e+001
 1.470331361046407e+000	 1.271333847238078e+000	 1.097172926544664e+001
 1.457102771534794e+000	 1.286474086637005e+000	 1.085967031508630e+001
 1.443713960737528e+000	 1.301481487370706e+000	 1.076520802601798e+001
 1.430166939633098e+000	 1.316353519071864e+000	 1.068831868122897e+001
 1.416463772239743e+000	 1.331087692198024e+000	 1.062894181864860e+001
 1.402606574572906e+000	 1.345681559415504e+000	 1.058698132290696e+001
 1.388597513559510e+000	 1.360132716951128e+000	 1.056230662046961e+001
 1.374438805910250e+000	 1.374438805910250e+000	 1.055475397448489e+001
 1.513888715749621e+000	 1.229081346484663e+000	 1.107282750687110e+001
 1.501111357796131e+000	 1.244654446598179e+000	 1.109849588419840e+001
 1.488167540090840e+000	 1.260102127826461e+000	 1.103048807463239e+001
 1.475059114621144e+000	 1.275421737425923e+000	 1.090758744218670e+001
 1.461787989452002e+000	 1.290610659266786e+000	 1.080141348630328e+001
 1.448356127816258e+000	 1.305666315308384e+000	 1.071195429409303e+001
 1.434765547158569e+000	 1.320586167047175e+000	 1.063916054161670e+001
 1.421018318133891e+000	 1.335367716935743e+000	 1.058294651625331e+001
 1.407116563561573e+000	 1.350008509771163e+000	 1.054319124596933e+001
 1.393062457336148e+000	 1.364506134051088e+000	 1.051973973209580e+001
 1.378858223296000e+000	 1.378858223296000e+000	 1.051240428186848e+001
 1.518740923174137e+000	 1.233020709776663e+000	 1.104631063394325e+001
 1.505922612150431e+000	 1.248643723673121e+000	 1.107794617202920e+001
 1.492937307850083e+000	 1.264140916700664e+000	 1.096319915371615e+001
 1.479786868196345e+000	 1.279509627613321e+000	 1.084687877589031e+001
 1.466473207369769e+000	 1.294747231896285e+000	 1.074643695315136e+001
 1.452998294895612e+000	 1.309851143245937e+000	 1.066183583602832e+001
 1.439364154684700e+000	 1.324818815022505e+000	 1.059300047461131e+001
 1.425572864028702e+000	 1.339647741673615e+000	 1.053981987830101e+001
 1.411626552550878e+000	 1.354335460127101e+000	 1.050214818268437e+001
 1.397527401113371e+000	 1.368879551151442e+000	 1.047980592006331e+001
 1.383277640682250e+000	 1.383277640682250e+000	 1.047258138981158e+001
 1.523593130598651e+000	 1.236960073067662e+000	 1.101956992288154e+001
 1.510733866504914e+000	 1.252633000747255e+000	 1.102442810696653e+001
 1.497707075609664e+000	 1.268179705574243e+000	 1.089946473703875e+001
 1.484514621772009e+000	 1.283597517800272e+000	 1.078956563724905e+001
 1.471158425288095e+000	 1.298883804525501e+000	 1.069470479476603e+001
 1.457640461975591e+000	 1.314035971183363e+000	 1.061481841180975e+001
 1.443962762211490e+000	 1.329051462997855e+000	 1.054980589231333e+001
 1.430127409924179e+000	 1.343927766411642e+000	 1.049953093913596e+001
 1.416136541540824e+000	 1.358662410483319e+000	 1.046382275864078e+001
 1.401992344891178e+000	 1.373252968252192e+000	 1.044247736908704e+001
 1.387697058069000e+000	 1.387697058069000e+000	 1.043525900892854e+001
 1.528445338023161e+000	 1.240899436357658e+000	 1.099266540282740e+001
 1.515545120859579e+000	 1.256622277820582e+000	 1.095713851690795e+001
 1.502476843369582e+000	 1.272218494447201e+000	 1.083924544618320e+001
 1.489242375348136e+000	 1.287685407986777e+000	 1.073561036335853e+001
 1.475843643206978e+000	 1.303020377154436e+000	 1.064618103794575e+001
 1.462282629056192e+000	 1.318220799120663e+000	 1.057086771099112e+001
 1.448561369738939e+000	 1.333284110973223e+000	 1.050954411895213e+001
 1.434681955820321e+000	 1.348207791149824e+000	 1.046204862845614e+001
 1.420646530531409e+000	 1.362989360839818e+000	 1.042818547867916e+001
 1.406457288669571e+000	 1.377626385353336e+000	 1.040772612771285e+001
 1.392116475456250e+000	 1.392116475456250e+000	 1.040041069893227e+001
 1.533297545447669e+000	 1.244838799646650e+000	 1.096565712891083e+001
 1.520356375214427e+000	 1.260611554893101e+000	 1.089348800306566e+001
 1.507246611129838e+000	 1.276257283319536e+000	 1.078250188873914e+001
 1.493970128924726e+000	 1.291773298172834e+000	 1.068497525824995e+001
 1.480528861126421e+000	 1.307156949783091e+000	 1.060082965797961e+001
 1.466924796137418e+000	 1.322405627057837e+000	 1.052994935380863e+001
 1.453159977267049e+000	 1.337516758948611e+000	 1.047218239227608e+001
 1.439236501717126e+000	 1.352487815888159e+000	 1.042734177296925e+001
 1.425156519522634e+000	 1.367316311196595e+000	 1.039520672880247e+001
 1.410922232448549e+000	 1.381999802454876e+000	 1.037552411047214e+001
 1.396535892844000e+000	 1.396535892844000e+000	 1.036800987102194e+001
 1.538149752872174e+000	 1.248778162934641e+000	 1.093860518184035e+001
 1.525167629569457e+000	 1.264600831964812e+000	 1.083343545814013e+001
 1.512016378890432e+000	 1.280296072191248e+000	 1.072919465852388e+001
 1.498697882501780e+000	 1.295861188358444e+000	 1.063762259341160e+001
 1.485214079046421e+000	 1.311293522411462e+000	 1.055861457946071e+001
 1.471566963219268e+000	 1.326590454994884e+000	 1.049202889227441e+001
 1.457758584795816e+000	 1.341749406924018e+000	 1.043768786491654e+001
 1.443791047614597e+000	 1.356767840626650e+000	 1.039537909801717e+001
 1.429666508514500e+000	 1.371643261553653e+000	 1.036485677805070e+001
 1.415387176228111e+000	 1.386373219556810e+000	 1.034584309999582e+001
 1.400955310232250e+000	 1.400955310232250e+000	 1.033802979022553e+001
 1.543001960296677e+000	 1.252717526221628e+000	 1.088657403174102e+001
 1.529978883924670e+000	 1.268590109035716e+000	 1.077693978034850e+001
 1.516786146651364e+000	 1.284334861062339e+000	 1.067928433579857e+001
 1.503425636079296e+000	 1.299949078543607e+000	 1.059351460830073e+001
 1.489899296966981e+000	 1.315430095039553e+000	 1.051949967708205e+001
 1.476209130301741e+000	 1.330775282931806e+000	 1.045707181124874e+001
 1.462357192325243e+000	 1.345982054899444e+000	 1.040602760572651e+001
 1.448345593512732e+000	 1.361047865365294e+000	 1.036612922916945e+001
 1.434176497507005e+000	 1.375970211910990e+000	 1.033710578033976e+001
 1.419852120008259e+000	 1.390746636659139e+000	 1.031865474908789e+001
 1.405374727621000e+000	 1.405374727621000e+000	 1.031044357769813e+001
 1.547854167721177e+000	 1.256656889507613e+000	 1.082641818983355e+001
 1.534790138280064e+000	 1.272579386105813e+000	 1.072395987333788e+001
 1.521555914412633e+000	 1.288373649932807e+000	 1.063273148748100e+001
 1.508153389657275e+000	 1.304036968728323e+000	 1.055261351084533e+001
 1.494584514888099e+000	 1.319566667667362e+000	 1.048344877641986e+001
 1.480851297384839e+000	 1.334960110868601e+000	 1.042504352949319e+001
 1.466955799855330e+000	 1.350214702874889e+000	 1.037716860109336e+001
 1.452900139411531e+000	 1.365327890104094e+000	 1.033956069378746e+001
 1.438686486500149e+000	 1.380297162268608e+000	 1.031192377626602e+001
 1.424317063788992e+000	 1.395120053761863e+000	 1.029393058276048e+001
 1.409794145010250e+000	 1.409794145010250e+000	 1.028522421297682e+001
 1.552706375145675e+000	 1.260596252792596e+000	 1.076990136855281e+001
 1.539601392635642e+000	 1.276568663175102e+000	 1.067445464610062e+001
 1.526325682174240e+000	 1.292412438802652e+000	 1.058949666735384e+001
 1.512881143235718e+000	 1.308124858912592e+000	 1.051488147793687e+001
 1.499269732809775e+000	 1.323703240294889e+000	 1.045042565470011e+001
 1.485493464468560e+000	 1.339144938805270e+000	 1.039590940070300e+001
 1.471554407386076e+000	 1.354447350850353e+000	 1.035107775622772e+001
 1.457454685310996e+000	 1.369607914843048e+000	 1.031564192255886e+001
 1.443196475493934e+000	 1.384624112626505e+000	 1.028928069487674e+001
 1.428782007570309e+000	 1.399493470864982e+000	 1.027164200023072e+001
 1.414213562400000e+000	 1.414213562400000e+000	 1.026234453619374e+001
 1.370019388525000e+000	 1.370019388525000e+000	 1.059965660371130e+001
 1.355759299851564e+000	 1.384132569783457e+000	 1.060861593763603e+001
 1.341354609060125e+000	 1.398096585584880e+000	 1.061371629421035e+001
 1.326807667460461e+000	 1.411909226346261e+000	 1.061453143804570e+001
 1.312120871096571e+000	 1.425568332108285e+000	 1.061062826458048e+001
 1.297296659432900e+000	 1.439071793659422e+000	 1.060156866173163e+001
 1.282337514006944e+000	 1.452417553618144e+000	 1.058691141503214e+001
 1.267245957049786e+000	 1.465603607472132e+000	 1.056621415048019e+001
 1.252024550076190e+000	 1.478628004573367e+000	 1.053903530917930e+001
 1.236675892445872e+000	 1.491488849088077e+000	 1.057773202870965e+001
 1.221202619897652e+000	 1.504184300900581e+000	 1.060711126828656e+001
 1.374438805910250e+000	 1.374438805910250e+000	 1.055475397448489e+001
 1.360132716951128e+000	 1.388597513559510e+000	 1.056181164019760e+001
 1.345681559415504e+000	 1.402606574572906e+000	 1.056580300335031e+001
 1.331087692198024e+000	 1.416463772239743e+000	 1.056630284954134e+001
 1.316353519071863e+000	 1.430166939633097e+000	 1.056287794917160e+001
 1.301481487370706e+000	 1.443713960737529e+000	 1.055508893391096e+001
 1.286474086637005e+000	 1.457102771534794e+000	 1.054249221859827e+001
 1.271333847238078e+000	 1.470331361046406e+000	 1.052464196274517e+001
 1.256063338951637e+000	 1.483397772331935e+000	 1.050109206566219e+001
 1.240665169522429e+000	 1.496300103442013e+000	 1.052319939616028e+001
 1.225141983191659e+000	 1.509036508325103e+000	 1.056125330953650e+001
 1.378858223296000e+000	 1.378858223296000e+000	 1.051240428186848e+001
 1.364506134051088e+000	 1.393062457336148e+000	 1.051771550073614e+001
 1.350008509771163e+000	 1.407116563561573e+000	 1.052074882419829e+001
 1.335367716935743e+000	 1.421018318133891e+000	 1.052107987004667e+001
 1.320586167047175e+000	 1.434765547158569e+000	 1.051827509515505e+001
 1.305666315308385e+000	 1.448356127816258e+000	 1.051189368703932e+001
 1.290610659266786e+000	 1.461787989452002e+000	 1.050148950279926e+001
 1.275421737425923e+000	 1.475059114621144e+000	 1.048661304955938e+001
 1.260102127826461e+000	 1.488167540090840e+000	 1.046681350036303e+001
 1.244654446598179e+000	 1.501111357796131e+000	 1.047173741521271e+001
 1.229081346484662e+000	 1.513888715749621e+000	 1.051850392864541e+001
 1.383277640682250e+000	 1.383277640682250e+000	 1.047258138981158e+001
 1.368879551151442e+000	 1.397527401113371e+000	 1.047630044110354e+001
 1.354335460127101e+000	 1.411626552550878e+000	 1.047852581384800e+001
 1.339647741673615e+000	 1.425572864028703e+000	 1.047883376925810e+001
 1.324818815022505e+000	 1.439364154684700e+000	 1.047679026215572e+001
 1.309851143245937e+000	 1.452998294895613e+000	 1.047195284790139e+001
 1.294747231896284e+000	 1.466473207369769e+000	 1.046387263866028e+001
 1.279509627613321e+000	 1.479786868196345e+000	 1.045209630306054e+001
 1.264140916700663e+000	 1.492937307850083e+000	 1.043616810314022e+001
 1.248643723673121e+000	 1.505922612150431e+000	 1.042337146242249e+001
 1.233020709776663e+000	 1.518740923174137e+000	 1.047888735606290e+001
 1.387697058069000e+000	 1.387697058069000e+000	 1.043525900892854e+001
 1.373252968252192e+000	 1.401992344891178e+000	 1.043753924673736e+001
 1.358662410483320e+000	 1.416136541540824e+000	 1.043910590916760e+001
 1.343927766411642e+000	 1.430127409924179e+000	 1.043953571209713e+001
 1.329051462997855e+000	 1.443962762211490e+000	 1.043839391972702e+001
 1.314035971183363e+000	 1.457640461975591e+000	 1.043523626716124e+001
 1.298883804525501e+000	 1.471158425288095e+000	 1.042961093427685e+001
 1.283597517800273e+000	 1.484514621772009e+000	 1.042106056488332e+001
 1.268179705574243e+000	 1.497707075609664e+000	 1.040912432500561e+001
 1.252633000747255e+000	 1.510733866504914e+000	 1.039333999398036e+001
 1.236960073067662e+000	 1.523593130598651e+000	 1.044242780437637e+001
 1.392116475456250e+000	 1.392116475456250e+000	 1.040041069893227e+001
 1.377626385353336e+000	 1.406457288669571e+000	 1.040140456882602e+001
 1.362989360839818e+000	 1.420646530531409e+000	 1.040246092870867e+001
 1.348207791149823e+000	 1.434681955820321e+000	 1.040315676037293e+001
 1.333284110973223e+000	 1.448561369738939e+000	 1.040305644878054e+001
 1.318220799120663e+000	 1.462282629056192e+000	 1.040171372057040e+001
 1.303020377154437e+000	 1.475843643206978e+000	 1.039867363581419e+001
 1.287685407986777e+000	 1.489242375348136e+000	 1.039347462696114e+001
 1.272218494447201e+000	 1.502476843369582e+000	 1.038565057874128e+001
 1.256622277820582e+000	 1.515545120859579e+000	 1.037473294265098e+001
 1.240899436357658e+000	 1.528445338023161e+000	 1.040914946859473e+001
 1.396535892844000e+000	 1.396535892844000e+000	 1.036800987102194e+001
 1.381999802454876e+000	 1.410922232448549e+000	 1.036786892643297e+001
 1.367316311196596e+000	 1.425156519522634e+000	 1.036856257457795e+001
 1.352487815888159e+000	 1.439236501717127e+000	 1.036966787441440e+001
 1.337516758948611e+000	 1.453159977267049e+000	 1.037074814298881e+001
 1.322405627057837e+000	 1.466924796137418e+000	 1.037135491015284e+001
 1.307156949783090e+000	 1.480528861126421e+000	 1.037102992848676e+001
 1.291773298172834e+000	 1.493970128924726e+000	 1.036930723231266e+001
 1.276257283319536e+000	 1.507246611129838e+000	 1.036571523950429e+001
 1.260611554893101e+000	 1.520356375214427e+000	 1.035977888964762e+001
 1.244838799646650e+000	 1.533297545447669e+000	 1.037907652642629e+001
 1.400955310232250e+000	 1.400955310232250e+000	 1.033802979022553e+001
 1.386373219556810e+000	 1.415387176228111e+000	 1.033690470858085e+001
 1.371643261553653e+000	 1.429666508514500e+000	 1.033738243427405e+001
 1.356767840626650e+000	 1.443791047614597e+000	 1.033903991467036e+001
 1.341749406924018e+000	 1.457758584795816e+000	 1.034143921016115e+001
 1.326590454994885e+000	 1.471566963219267e+000	 1.034412946536858e+001
 1.311293522411463e+000	 1.485214079046421e+000	 1.034664893751978e+001
 1.295861188358444e+000	 1.498697882501780e+000	 1.034852707581316e+001
 1.280296072191248e+000	 1.512016378890432e+000	 1.034928664542036e+001
 1.264600831964812e+000	 1.525167629569457e+000	 1.034844588960886e+001
 1.248778162934641e+000	 1.538149752872175e+000	 1.035223313855188e+001
 1.405374727621000e+000	 1.405374727621000e+000	 1.031044357769813e+001
 1.390746636659139e+000	 1.419852120008259e+000	 1.030848417629574e+001
 1.375970211910990e+000	 1.434176497507005e+000	 1.030889198248971e+001
 1.361047865365294e+000	 1.448345593512732e+000	 1.031124364328035e+001
 1.345982054899444e+000	 1.462357192325243e+000	 1.031509977359360e+001
 1.330775282931806e+000	 1.476209130301741e+000	 1.032000694425401e+001
 1.315430095039553e+000	 1.489899296966981e+000	 1.032549972909254e+001
 1.299949078543607e+000	 1.503425636079296e+000	 1.033110280495160e+001
 1.284334861062339e+000	 1.516786146651364e+000	 1.033633309816575e+001
 1.268590109035716e+000	 1.529978883924670e+000	 1.034070197093391e+001
 1.252717526221628e+000	 1.543001960296677e+000	 1.034371744086383e+001
 1.409794145010250e+000	 1.409794145010250e+000	 1.028522421297682e+001
 1.395120053761863e+000	 1.424317063788991e+000	 1.028257946461391e+001
 1.380297162268608e+000	 1.438686486500149e+000	 1.028306258287951e+001
 1.365327890104094e+000	 1.452900139411532e+000	 1.028624972561531e+001
 1.350214702874889e+000	 1.466955799855330e+000	 1.029169987339387e+001
 1.334960110868601e+000	 1.480851297384839e+000	 1.029895683454171e+001
 1.319566667667362e+000	 1.494584514888099e+000	 1.030755131126370e+001
 1.304036968728323e+000	 1.508153389657275e+000	 1.031700302057331e+001
 1.288373649932807e+000	 1.521555914412633e+000	 1.032682286353897e+001
 1.272579386105813e+000	 1.534790138280064e+000	 1.033651513619443e+001
 1.256656889507613e+000	 1.547854167721177e+000	 1.034557977531834e+001
 1.414213562400000e+000	 1.414213562400000e+000	 1.026234453619374e+001
 1.399493470864982e+000	 1.428782007570309e+000	 1.025916258455004e+001
 1.384624112626505e+000	 1.443196475493934e+000	 1.025986548979527e+001
 1.369607914843048e+000	 1.457454685310996e+000	 1.026402873178961e+001
 1.354447350850353e+000	 1.471554407386076e+000	 1.027120946778104e+001
 1.339144938805270e+000	 1.485493464468560e+000	 1.028094855475874e+001
 1.323703240294889e+000	 1.499269732809775e+000	 1.029277263487955e+001
 1.308124858912592e+000	 1.512881143235718e+000	 1.030619627760873e+001
 1.292412438802653e+000	 1.526325682174240e+000	 1.032072417202103e+001
 1.276568663175102e+000	 1.539601392635642e+000	 1.033585336253758e+001
 1.260596252792596e+000	 1.552706375145675e+000	 1.035107552123040e+001
 1.221202619897652e+000	 1.504184300900581e+000	 1.060711126828656e+001
 1.205607403057849e+000	 1.516712576470207e+000	 1.062223416657634e+001
 1.189892945925769e+000	 1.529071949640272e+000	 1.061801215180511e+001
 1.174061984337278e+000	 1.541260752398576e+000	 1.059572343354567e+001
 1.158117284407598e+000	 1.553277375588804e+000	 1.055667026606795e+001
 1.142061640956243e+000	 1.565120269572084e+000	 1.050217635261491e+001
 1.125897875915574e+000	 1.576787944838252e+000	 1.043358422171191e+001
 1.109628836724828e+000	 1.588278972566403e+000	 1.035225258202869e+001
 1.093257394711487e+000	 1.599591985134366e+000	 1.025955366232199e+001
 1.076786443461876e+000	 1.610725676576839e+000	 1.015687054297662e+001
 1.060218897182866e+000	 1.621678802991984e+000	 1.004559448562916e+001
 1.225141983191659e+000	 1.509036508325103e+000	 1.056125330953650e+001
 1.209496459200570e+000	 1.521605197687096e+000	 1.058372720674218e+001
 1.193731310271052e+000	 1.534004439802985e+000	 1.058622376067770e+001
 1.177849281064249e+000	 1.546232561279885e+000	 1.057005874922480e+001
 1.161853146618333e+000	 1.558287947770654e+000	 1.053657246795373e+001
 1.145745710768366e+000	 1.570169044637585e+000	 1.048712708068021e+001
 1.129529804549718e+000	 1.581874357565642e+000	 1.042310394166961e+001
 1.113208284586912e+000	 1.593402453124821e+000	 1.034590089611811e+001
 1.096784031469777e+000	 1.604751959281269e+000	 1.025692956555224e+001
 1.080259948118789e+000	 1.615921565856891e+000	 1.015761262477646e+001
 1.063638958141487e+000	 1.626910024937263e+000	 1.004938107696093e+001
 1.229081346484662e+000	 1.513888715749621e+000	 1.051850392864541e+001
 1.213385515342109e+000	 1.526497818903803e+000	 1.054851764629370e+001
 1.197569674615015e+000	 1.538936929965377e+000	 1.055792052245869e+001
 1.181636577789799e+000	 1.551204370160773e+000	 1.054806590395233e+001
 1.165589008827588e+000	 1.563298519952023e+000	 1.052033212996106e+001
 1.149429780578991e+000	 1.575217819702586e+000	 1.047611982878885e+001
 1.133161733182385e+000	 1.586960770292555e+000	 1.041684918585852e+001
 1.116787732447580e+000	 1.598525933682824e+000	 1.034395718971365e+001
 1.100310668226753e+000	 1.609911933427856e+000	 1.025889486277362e+001
 1.083733452774529e+000	 1.621117455136768e+000	 1.016312448358428e+001
 1.067059019099114e+000	 1.632141246882547e+000	 1.005811680726772e+001
 1.233020709776663e+000	 1.518740923174137e+000	 1.047888735606290e+001
 1.217274571482466e+000	 1.531390440120327e+000	 1.051662708719863e+001
 1.201408038957655e+000	 1.543869420127446e+000	 1.053312138635151e+001
 1.185423874513928e+000	 1.556176179041240e+000	 1.052976117148615e+001
 1.169324871035364e+000	 1.568309092132913e+000	 1.050796282933461e+001
 1.153113850388117e+000	 1.580266594767088e+000	 1.046916545822985e+001
 1.136793661813573e+000	 1.592047183018988e+000	 1.041482808180460e+001
 1.120367180306831e+000	 1.603649414240409e+000	 1.034642684041276e+001
 1.103837304982412e+000	 1.615071907574128e+000	 1.026545216713762e+001
 1.087206957429093e+000	 1.626313344416470e+000	 1.017340595524103e+001
 1.070479080055746e+000	 1.637372468827836e+000	 1.007179872386955e+001
 1.236960073067662e+000	 1.523593130598651e+000	 1.044242780437637e+001
 1.221163627621640e+000	 1.536283061336669e+000	 1.048807714242509e+001
 1.205246403298973e+000	 1.548801910289194e+000	 1.051184534161396e+001
 1.189211171236635e+000	 1.561147987921285e+000	 1.051516089486903e+001
 1.173060733241659e+000	 1.573319664313322e+000	 1.049947824199762e+001
 1.156797920195744e+000	 1.585315369831091e+000	 1.046627495851272e+001
 1.140425590443283e+000	 1.597133595744945e+000	 1.041704891492979e+001
 1.123946628164664e+000	 1.608772894797578e+000	 1.035331541350388e+001
 1.107363941736756e+000	 1.620231881720085e+000	 1.027660430938674e+001
 1.090680462082482e+000	 1.631509233695997e+000	 1.018845712316863e+001
 1.073899141011383e+000	 1.642603690773131e+000	 1.009042415173363e+001
 1.240899436357658e+000	 1.528445338023161e+000	 1.040914946859473e+001
 1.225052683759631e+000	 1.541175682552828e+000	 1.046288943576681e+001
 1.209084767638969e+000	 1.553734400450619e+000	 1.049411141692179e+001
 1.192998467957922e+000	 1.566119796800909e+000	 1.050428148532890e+001
 1.176796595446473e+000	 1.578330236493250e+000	 1.049489214098518e+001
 1.160481990001872e+000	 1.590364144894595e+000	 1.046745944533206e+001
 1.144057519071516e+000	 1.602220008470423e+000	 1.042352012604568e+001
 1.127526076021082e+000	 1.613896375354331e+000	 1.036462865898704e+001
 1.110890578489784e+000	 1.625391855865725e+000	 1.029235433440041e+001
 1.094153966734696e+000	 1.636705122975349e+000	 1.020827831444044e+001
 1.077319201966025e+000	 1.647834912718432e+000	 1.011399068906742e+001
 1.244838799646650e+000	 1.533297545447669e+000	 1.037907652642629e+001
 1.228941739896440e+000	 1.546068303768805e+000	 1.044108560167202e+001
 1.212923131977643e+000	 1.558666890611722e+000	 1.047993867974571e+001
 1.196785764677787e+000	 1.571091605680112e+000	 1.049713942119997e+001
 1.180532457649808e+000	 1.583340808672699e+000	 1.049421839490835e+001
 1.164166059806500e+000	 1.595412919957601e+000	 1.047273015857069e+001
 1.147689447698271e+000	 1.607306421195424e+000	 1.043425030889487e+001
 1.131105523876082e+000	 1.619019855910666e+000	 1.038037250865147e+001
 1.114417215241496e+000	 1.630551830011050e+000	 1.031270549780698e+001
 1.097627471385735e+000	 1.641901012254526e+000	 1.023287009592581e+001
 1.080739262919673e+000	 1.653066134663736e+000	 1.014249620299530e+001
 1.248778162934641e+000	 1.538149752872175e+000	 1.035223313855188e+001
 1.232830796032067e+000	 1.550960924984600e+000	 1.042268728507515e+001
 1.216761496314995e+000	 1.563599380772504e+000	 1.046934623573887e+001
 1.200573061396232e+000	 1.576063414558894e+000	 1.049375124686432e+001
 1.184268319851662e+000	 1.588351380851667e+000	 1.049747096644578e+001
 1.167850129609630e+000	 1.600461695020107e+000	 1.048209846034119e+001
 1.151321376323548e+000	 1.612392833919947e+000	 1.044924820773864e+001
 1.134684971729666e+000	 1.624143336466585e+000	 1.040055307320823e+001
 1.117943851991893e+000	 1.635711804156059e+000	 1.033766126265949e+001
 1.101100976035599e+000	 1.647096901533528e+000	 1.026223327050791e+001
 1.084159323872326e+000	 1.658297356609047e+000	 1.017593882531666e+001
 1.252717526221628e+000	 1.543001960296677e+000	 1.034371744086383e+001
 1.236719852166510e+000	 1.555853546200211e+000	 1.040771614123258e+001
 1.220599860651026e+000	 1.568531870932963e+000	 1.046235322813691e+001
 1.204360358113255e+000	 1.581035223437254e+000	 1.049413357171335e+001
 1.188004182052037e+000	 1.593361953030156e+000	 1.050466391086538e+001
 1.171534199411261e+000	 1.605510470082114e+000	 1.049557583306398e+001
 1.154953304947348e+000	 1.617479246643992e+000	 1.046852271499056e+001
 1.138264419581834e+000	 1.629266817022088e+000	 1.042517663947675e+001
 1.121470488740974e+000	 1.640871778300753e+000	 1.036722529617432e+001
 1.104574480684288e+000	 1.652292790812356e+000	 1.029636887337276e+001
 1.087579384823985e+000	 1.663528578554363e+000	 1.021431694834451e+001
 1.256656889507613e+000	 1.547854167721177e+000	 1.034557977531834e+001
 1.240608908299772e+000	 1.560746167415641e+000	 1.039619383555981e+001
 1.224438224985734e+000	 1.573464361093101e+000	 1.045897883716882e+001
 1.208147654828856e+000	 1.586007032315194e+000	 1.049830306912875e+001
 1.191740044250931e+000	 1.598372525208164e+000	 1.051581137457269e+001
 1.175218269211392e+000	 1.610559245143622e+000	 1.051317387758133e+001
 1.158585233569669e+000	 1.622565659367560e+000	 1.049208286889402e+001
 1.141843867432584e+000	 1.634390297577173e+000	 1.045424966762470e+001
 1.124997125488740e+000	 1.646031752445131e+000	 1.040140146653081e+001
 1.108047985331803e+000	 1.657488680091008e+000	 1.033527816836815e+001
 1.090999445774648e+000	 1.668759800499685e+000	 1.025762922082254e+001
 1.260596252792596e+000	 1.552706375145675e+000	 1.035107552123040e+001
 1.244497964431851e+000	 1.565638788630888e+000	 1.038814204347365e+001
 1.228276589319120e+000	 1.578396851252917e+000	 1.045924227947859e+001
 1.211934951543037e+000	 1.590978841192713e+000	 1.050627647548290e+001
 1.195475906448345e+000	 1.603383097385692e+000	 1.053092759368695e+001
 1.178902339010025e+000	 1.615608020204631e+000	 1.053490431130737e+001
 1.162217162190513e+000	 1.627652072090650e+000	 1.051993785124404e+001
 1.145423315281919e+000	 1.639513778131843e+000	 1.048777878845951e+001
 1.128523762235190e+000	 1.651191726589194e+000	 1.044019383973201e+001
 1.111521489978142e+000	 1.662684569369486e+000	 1.037896264443076e+001
 1.094419506724317e+000	 1.673991022445011e+000	 1.030587454391775e+001
 1.060218897182866e+000	 1.621678802991984e+000	 1.004559448562916e+001
 1.043557689056933e+000	 1.632450182895999e+000	 9.972063212394943e+000
 1.026805769591331e+000	 1.643038697526718e+000	 9.883550498490223e+000
 1.009966104964006e+000	 1.653443291095545e+000	 9.781193856634889e+000
 9.930416753688363e-001	 1.663662970987120e+000	 9.666138930151615e+000
 9.760354733609418e-001	 1.673696807907975e+000	 9.539537088774251e+000
 9.589505022042499e-001	 1.683543935984107e+000	 9.402543043954083e+000
 9.417897742231285e-001	 1.693203552807766e+000	 9.256312489240901e+000
 9.245563091598654e-001	 1.702674919433895e+000	 9.101999771160406e+000
 9.072531325397517e-001	 1.711957360326679e+000	 8.940755595843372e+000
 8.898832740454854e-001	 1.721050263256754e+000	 8.773724776479071e+000
 1.063638958141487e+000	 1.626910024937263e+000	 1.004938107696093e+001
 1.046924004182287e+000	 1.637716151227412e+000	 9.975680354553166e+000
 1.030118046266272e+000	 1.648338822356329e+000	 9.887364549954514e+000
 1.013224060139703e+000	 1.658776979129648e+000	 9.785570061416477e+000
 9.962450356099861e-001	 1.669029625730022e+000	 9.671441099242845e+000
 9.791839748856461e-001	 1.679095829866267e+000	 9.546127274532177e+000
 9.620438909185575e-001	 1.688974722871233e+000	 9.410781207965192e+000
 9.448278057502635e-001	 1.698665499748760e+000	 9.266556164235135e+000
 9.275387488641560e-001	 1.708167419170098e+000	 9.114603717566181e+000
 9.101797555452844e-001	 1.717479803420282e+000	 8.956071453592656e+000
 8.927538652495166e-001	 1.726602038295016e+000	 8.792100712689857e+000
 1.067059019099114e+000	 1.632141246882547e+000	 1.005811680726772e+001
 1.050290319306841e+000	 1.642982119559025e+000	 9.984036953098274e+000
 1.033430322940598e+000	 1.653638947186324e+000	 9.895703845031575e+000
 1.016482015314959e+000	 1.664110667164311e+000	 9.794252976756262e+000
 9.994483958508605e-001	 1.674396280473650e+000	 9.680827337181622e+000
 9.823324764102300e-001	 1.684494851825438e+000	 9.556574991828317e+000
 9.651372796328896e-001	 1.694405509759384e+000	 9.422646684812380e+000
 9.478658372775580e-001	 1.704127446690914e+000	 9.280193467043198e+000
 9.305211885687303e-001	 1.713659918907585e+000	 9.130364356101740e+000
 9.131063785512159e-001	 1.723002246515284e+000	 8.974304033092642e+000
 8.956244564540512e-001	 1.732153813334782e+000	 8.813150581578622e+000
 1.070479080055746e+000	 1.637372468827836e+000	 1.007179872386955e+001
 1.053656634430596e+000	 1.648248087890839e+000	 9.997130976460175e+000
 1.036742599614309e+000	 1.658939072016706e+000	 9.908567299221778e+000
 1.019739970489775e+000	 1.669444355199533e+000	 9.807242490950719e+000
 1.002651756091460e+000	 1.679762935218003e+000	 9.694298530535862e+000
 9.854809779346935e-001	 1.689893873785489e+000	 9.570882150713189e+000
 9.682306683472463e-001	 1.699836296648559e+000	 9.438142432961346e+000
 9.509038688050118e-001	 1.709589393634228e+000	 9.297228429184930e+000
 9.335036282735892e-001	 1.719152418646355e+000	 9.149286815672518e+000
 9.160330015575463e-001	 1.728524689611685e+000	 8.995459584644278e+000
 8.984950476590899e-001	 1.737705588376052e+000	 8.836881778515780e+000
 1.073899141011383e+000	 1.642603690773131e+000	 1.009042415173363e+001
 1.057022949553552e+000	 1.653514056222852e+000	 1.001496065346559e+001
 1.040054876287405e+000	 1.664239196847472e+000	 9.925954070787503e+000
 1.022997925664152e+000	 1.674778043235315e+000	 9.824538717048178e+000
 1.005855116331785e+000	 1.685129589963081e+000	 9.711855772250651e+000
 9.886294794590370e-001	 1.695292895746420e+000	 9.589050848884710e+000
 9.713240570616274e-001	 1.705267083538759e+000	 9.457271579450554e+000
 9.539419003326246e-001	 1.715051340578700e+000	 9.317665231343922e+000
 9.364860679787321e-001	 1.724644918386411e+000	 9.171376354614681e+000
 9.189596245642759e-001	 1.734047132709485e+000	 9.019544467932633e+000
 9.013656388646324e-001	 1.743257363418825e+000	 8.863301787906401e+000
 1.077319201966025e+000	 1.647834912718432e+000	 1.011399068906742e+001
 1.060389264675707e+000	 1.658780024555066e+000	 1.003752446920451e+001
 1.043367152959887e+000	 1.669539321678623e+000	 9.947863556899208e+000
 1.026255880838088e+000	 1.680111731271658e+000	 9.846141989281222e+000
 1.009058476571834e+000	 1.690496244708883e+000	 9.733500358372162e+000
 9.917779809832595e-001	 1.700691917708230e+000	 9.611083368709693e+000
 9.744174457760330e-001	 1.710697870429983e+000	 9.480037417215232e+000
 9.569799318603967e-001	 1.720513287524332e+000	 9.341508200999590e+000
 9.394685076841592e-001	 1.730137418127750e+000	 9.196638358640502e+000
 9.218862475714044e-001	 1.739569575808683e+000	 9.046565150290542e+000
 9.042362300706790e-001	 1.748809138463102e+000	 8.892418181777211e+000
 1.080739262919673e+000	 1.653066134663736e+000	 1.014249620299530e+001
 1.063755579797062e+000	 1.664045992887481e+000	 1.006482116097559e+001
 1.046679429631753e+000	 1.674839446510160e+000	 9.974295389855234e+000
 1.029513836011585e+000	 1.685445419308561e+000	 9.872052859567065e+000
 1.012261836811608e+000	 1.695862899455410e+000	 9.759233784834111e+000
 9.949264825073623e-001	 1.706090939670921e+000	 9.636982174301416e+000
 9.775108344904631e-001	 1.716128657322232e+000	 9.506443402462979e+000
 9.600179633883283e-001	 1.725975234471123e+000	 9.368761810104669e+000
 9.424509473898702e-001	 1.735629917870373e+000	 9.225078338822931e+000
 9.248128705789318e-001	 1.745092018909282e+000	 9.076528204995253e+000
 9.071068212772296e-001	 1.754360913508883e+000	 8.924238618389861e+000
 1.084159323872326e+000	 1.658297356609047e+000	 1.017593882531666e+001
 1.067121894917618e+000	 1.669311961220095e+000	 1.009684971430808e+001
 1.049991706303005e+000	 1.680139571342081e+000	 1.000524943337371e+001
 1.032771791184642e+000	 1.690779107346023e+000	 9.902272094073815e+000
 1.015465197051107e+000	 1.701229554202663e+000	 9.789057744305046e+000
 9.980749840313448e-001	 1.711489961634490e+000	 9.666749908653562e+000
 9.806042232049175e-001	 1.721559444215505e+000	 9.536493152097702e+000
 9.630559949164191e-001	 1.731437181419073e+000	 9.399430672806581e+000
 9.454333870958653e-001	 1.741122417614281e+000	 9.256701929618036e+000
 9.277394935868584e-001	 1.750614462011279e+000	 9.109440309597545e+000
 9.099774124842841e-001	 1.759912688556169e+000	 8.958770840880870e+000
 1.087579384823985e+000	 1.663528578554363e+000	 1.021431694834451e+001
 1.070488210037374e+000	 1.674577929552910e+000	 1.013360935905855e+001
 1.053303982973642e+000	 1.685439696174388e+000	 1.004072577895335e+001
 1.036029746357258e+000	 1.696112795384046e+000	 9.936800669852227e+000
 1.018668557290331e+000	 1.706596208950641e+000	 9.822974123094962e+000
 1.001223485555207e+000	 1.716888983598940e+000	 9.700389390827148e+000
 9.836976119193965e-001	 1.726990231109803e+000	 9.570190441193761e+000
 9.660940264446694e-001	 1.736899128368182e+000	 9.433519543211236e+000
 9.484158268021448e-001	 1.746614917359473e+000	 9.291514886925832e+000
 9.306661165951837e-001	 1.756136905114675e+000	 9.145308244282056e+000
 9.128480036918425e-001	 1.765464463604958e+000	 8.996022675927360e+000
 1.090999445774648e+000	 1.668759800499685e+000	 1.025762922082254e+001
 1.073854525156331e+000	 1.679843897885925e+000	 1.017509956558170e+001
 1.056616259643664e+000	 1.690739821007081e+000	 1.008072474230325e+001
 1.039287701529435e+000	 1.701446483422629e+000	 9.975639771529590e+000
 1.021871917529280e+000	 1.711962863699343e+000	 9.860984998120138e+000
 1.004371987078949e+000	 1.722288005564269e+000	 9.737903613191017e+000
 9.867910006339001e-001	 1.732421018005125e+000	 9.607539200516055e+000
 9.691320579730788e-001	 1.742361075318452e+000	 9.471033313189652e+000
 9.513982665087081e-001	 1.752107417105948e+000	 9.329523086185590e+000
 9.335927396039082e-001	 1.761659348219470e+000	 9.184138890258602e+000
 9.157185948999048e-001	 1.771016238655251e+000	 9.036002032437283e+000
 1.094419506724317e+000	 1.673991022445011e+000	 1.030587454391775e+001
 1.077220840274487e+000	 1.685109866219140e+000	 1.022132004097252e+001
 1.059928536313071e+000	 1.696039945840158e+000	 1.012524685984002e+001
 1.042545656701172e+000	 1.706780171461772e+000	 1.001879078806716e+001
 1.025075277767954e+000	 1.717329518448770e+000	 9.903092633925057e+000
 1.007520488602570e+000	 1.727687027530478e+000	 9.779295738714174e+000
 9.898843893484280e-001	 1.737851804901471e+000	 9.648543514088118e+000
 9.721700895016475e-001	 1.747823022269880e+000	 9.511977010225479e+000
 9.543807062155558e-001	 1.757599916853708e+000	 9.370732520509009e+000
 9.365193626130317e-001	 1.767181791325664e+000	 9.225939228183872e+000
 9.185891861084710e-001	 1.776568013707048e+000	 9.078716900264659e+000
 8.898832740454854e-001	 1.721050263256754e+000	 8.773724776479071e+000
 8.724497659023354e-001	 1.729953079149745e+000	 8.594503530619818e+000
 8.549556412764131e-001	 1.738665321886658e+000	 8.415899127402106e+000
 8.374039326873473e-001	 1.747186568056895e+000	 8.239050805771718e+000
 8.197976704363057e-001	 1.755516456664855e+000	 8.065079249398474e+000
 8.021398810516243e-001	 1.763654688790824e+000	 7.895084631933203e+000
 7.844335857533213e-001	 1.771601027207091e+000	 7.730144734012491e+000
 7.666817989379259e-001	 1.779355295950257e+000	 7.571313135353718e+000
 7.488875266850175e-001	 1.786917379850749e+000	 7.419617485013512e+000
 7.310537652868080e-001	 1.794287224020587e+000	 7.276057852606363e+000
 7.131834998020544e-001	 1.801464833300505e+000	 7.141605163001006e+000
 8.927538652495166e-001	 1.726602038295016e+000	 8.792100712689857e+000
 8.752641199834758e-001	 1.735533572948734e+000	 8.616248122716366e+000
 8.577135626976643e-001	 1.744273919694338e+000	 8.440163800115906e+000
 8.401052356940320e-001	 1.752822653755387e+000	 8.264998292939934e+000
 8.224421790489107e-001	 1.761179412971779e+000	 8.091884169465059e+000
 8.047274290536318e-001	 1.769343897459540e+000	 7.921934034893557e+000
 7.869640166740832e-001	 1.777315869225709e+000	 7.756238619666148e+000
 7.691549660306546e-001	 1.785095151739265e+000	 7.595864942790723e+000
 7.513032928999550e-001	 1.792681629459117e+000	 7.441854553320941e+000
 7.334120032396554e-001	 1.800075247320227e+000	 7.295221852837766e+000
 7.154840917377342e-001	 1.807276010178945e+000	 7.156952501510792e+000
 8.956244564540512e-001	 1.732153813334782e+000	 8.813150581578622e+000
 8.780784740652048e-001	 1.741114066749318e+000	 8.640515391294066e+000
 8.604714841195580e-001	 1.749882517503681e+000	 8.466804993912472e+000
 8.428065387013828e-001	 1.758458739455592e+000	 8.293181377404761e+000
 8.250866876621753e-001	 1.766842369280442e+000	 8.120789120500726e+000
 8.073149770562614e-001	 1.775033106130006e+000	 7.950753380697167e+000
 7.894944475954002e-001	 1.783030711246066e+000	 7.784177953752449e+000
 7.716281331238409e-001	 1.790835007529979e+000	 7.622143408131467e+000
 7.537190591152237e-001	 1.798445879069141e+000	 7.465705297596082e+000
 7.357702411926780e-001	 1.805863270621452e+000	 7.315892454852853e+000
 7.177846836734038e-001	 1.813087187058879e+000	 7.173705368888916e+000
 8.984950476590899e-001	 1.737705588376052e+000	 8.836881778515780e+000
 8.808928281475225e-001	 1.746694560551496e+000	 8.667312997857174e+000
 8.632294055420943e-001	 1.755491115314688e+000	 8.495830587616013e+000
 8.455078417093991e-001	 1.764094825157508e+000	 8.323608106921492e+000
 8.277311962760987e-001	 1.772505325590848e+000	 8.151802271252322e+000
 8.099025250595128e-001	 1.780722314802220e+000	 7.981550911616503e+000
 7.920248785172722e-001	 1.788745553268161e+000	 7.813971005098892e+000
 7.741013002174854e-001	 1.796574863322401e+000	 7.650156780305514e+000
 7.561348253308240e-001	 1.804210128680820e+000	 7.491177900956784e+000
 7.381284791458758e-001	 1.811651293924262e+000	 7.338077730601651e+000
 7.200852756090630e-001	 1.818898363940308e+000	 7.191871681140006e+000
 9.013656388646324e-001	 1.743257363418825e+000	 8.863301787906401e+000
 8.837071822304283e-001	 1.752275054355266e+000	 8.696648683797253e+000
 8.659873269652736e-001	 1.761099713127358e+000	 8.527248531423885e+000
 8.482091447180817e-001	 1.769730910861137e+000	 8.356286592738552e+000
 8.303757048906811e-001	 1.778168281902994e+000	 8.184931846714877e+000
 8.124900730633862e-001	 1.786411523476185e+000	 8.014334919561044e+000
 7.945553094396989e-001	 1.794460395291995e+000	 7.845626086193305e+000
 7.765744673115876e-001	 1.802314719116530e+000	 7.679913346559718e+000
 7.585505915467553e-001	 1.809974378294156e+000	 7.518280580126857e+000
 7.404867170992487e-001	 1.817439317228658e+000	 7.361785781560252e+000
 7.223858675447119e-001	 1.824709540823232e+000	 7.211459380342904e+000
 9.042362300706790e-001	 1.748809138463102e+000	 8.892418181777211e+000
 8.865215363139231e-001	 1.757855548160631e+000	 8.728530269124999e+000
 8.687452483890948e-001	 1.766708310941690e+000	 8.561066845773844e+000
 8.509104477274303e-001	 1.775366996566477e+000	 8.391225008590117e+000
 8.330202135059227e-001	 1.783831238216881e+000	 8.220186127238254e+000
 8.150776210678816e-001	 1.792100732151899e+000	 8.049113745289409e+000
 7.970857403626804e-001	 1.800175237317567e+000	 7.879151552490993e+000
 7.790476344061479e-001	 1.808054574912365e+000	 7.711421431850018e+000
 7.609663577630177e-001	 1.815738627909147e+000	 7.547021584902957e+000
 7.428449550527966e-001	 1.823227340534638e+000	 7.387024738261816e+000
 7.246864594803506e-001	 1.830520717707651e+000	 7.232476434237341e+000
 9.071068212772296e-001	 1.754360913508883e+000	 8.924238618389861e+000
 8.893358903980064e-001	 1.763436041967590e+000	 8.762965651226518e+000
 8.715031698135586e-001	 1.772316908757686e+000	 8.597293620232430e+000
 8.536117507374448e-001	 1.781003082273530e+000	 8.428431589706722e+000
 8.356647221218234e-001	 1.789494194532509e+000	 8.257573447651579e+000
 8.176651690729992e-001	 1.797789940829363e+000	 8.085895777636605e+000
 7.996161712862170e-001	 1.805890079344876e+000	 7.914555801734837e+000
 7.815208015011660e-001	 1.813794430709908e+000	 7.744689398244532e+000
 7.633821239796117e-001	 1.821502877525794e+000	 7.577409197631189e+000
 7.452031930065199e-001	 1.829015363842204e+000	 7.413802759837188e+000
 7.269870514159791e-001	 1.836331894593564e+000	 7.254930835817450e+000
 9.099774124842841e-001	 1.759912688556169e+000	 8.958770840880870e+000
 8.921502444826778e-001	 1.769016535776142e+000	 8.799962803642652e+000
 8.742610912386652e-001	 1.777925506575345e+000	 8.635937012404728e+000
 8.563130537481254e-001	 1.786639167982295e+000	 8.467914631845920e+000
 8.383092307383834e-001	 1.795157150849877e+000	 8.297102196403849e+000
 8.202527170787387e-001	 1.803479149508576e+000	 8.124689452755527e+000
 8.021466022103083e-001	 1.811604921373924e+000	 7.951847273288051e+000
 7.839939685966421e-001	 1.819534286509157e+000	 7.779725644338318e+000
 7.657978901965368e-001	 1.827267127144097e+000	 7.609451732693771e+000
 7.475614309604179e-001	 1.834803387151355e+000	 7.442128033563538e+000
 7.292876433515971e-001	 1.842143071480973e+000	 7.278830602933622e+000
 9.128480036918425e-001	 1.765464463604958e+000	 8.996022675927360e+000
 8.949645985679383e-001	 1.774597029586287e+000	 8.839529774871741e+000
 8.770190126644140e-001	 1.783534104394666e+000	 8.677005246864665e+000
 8.590143567594719e-001	 1.792275253692772e+000	 8.509682490340245e+000
 8.409537393556021e-001	 1.800820107168986e+000	 8.338780814720993e+000
 8.228402650851002e-001	 1.809168358189539e+000	 8.165503253372828e+000
 8.046770331349545e-001	 1.817319763404710e+000	 7.991034447480161e+000
 7.864671356925760e-001	 1.825274142310113e+000	 7.816538604679042e+000
 7.682136564137930e-001	 1.833031376764055e+000	 7.643157536005191e+000
 7.499196689144915e-001	 1.840591410462091e+000	 7.472008774421997e+000
 7.315882352872051e-001	 1.847954248369876e+000	 7.304183777901796e+000
 9.157185948999048e-001	 1.771016238655251e+000	 9.036002032437283e+000
 8.977789526537870e-001	 1.780177523398027e+000	 8.881674687194712e+000
 8.797769340908055e-001	 1.789142702215651e+000	 8.720506614105224e+000
 8.617156597714843e-001	 1.797911339404960e+000	 8.553743579163628e+000
 8.435982479734802e-001	 1.806483063489837e+000	 8.382617795778288e+000
 8.254278130920837e-001	 1.814857566872251e+000	 8.208345708059381e+000
 8.072074640601558e-001	 1.823034605437234e+000	 8.032125844964645e+000
 7.889403027889678e-001	 1.831013998112776e+000	 7.855136749203631e+000
 7.706294226313807e-001	 1.838795626385670e+000	 7.678534984518052e+000
 7.522779068687399e-001	 1.846379433774412e+000	 7.503453224663290e+000
 7.338888272228025e-001	 1.853765425260274e+000	 7.330998427119805e+000
 9.185891861084710e-001	 1.776568013707048e+000	 9.078716900264659e+000
 9.005933067402245e-001	 1.785758017211360e+000	 8.926405735522092e+000
 8.825348555178396e-001	 1.794751300038299e+000	 8.766449469508466e+000
 8.644169627841631e-001	 1.803547425118862e+000	 8.600106370014867e+000
 8.462427565920173e-001	 1.812146019812428e+000	 8.428621683889032e+000
 8.280153610996892e-001	 1.820546775556712e+000	 8.253225390513530e+000
 8.097378949859118e-001	 1.828749447471497e+000	 8.075130026088949e+000
 7.914134698858175e-001	 1.836753853917147e+000	 7.895528582684883e+000
 7.730451888492996e-001	 1.844559876008941e+000	 7.715592485738182e+000
 7.546361448231637e-001	 1.852167457088318e+000	 7.536469653381733e+000
 7.361894191583900e-001	 1.859576602152168e+000	 7.359282640691094e+000
 7.131834998020544e-001	 1.801464833300505e+000	 7.141605163001006e+000
 6.952797026354864e-001	 1.808450271668106e+000	 7.055925711324423e+000
 6.773453321441815e-001	 1.815243661606599e+000	 6.961429660272053e+000
 6.593833312716116e-001	 1.821845183436530e+000	 6.858869807861899e+000
 6.413966262105094e-001	 1.828255074612687e+000	 6.748983482018947e+000
 6.233881250957524e-001	 1.834473628985905e+000	 6.628338640889960e+000
 6.053607167281053e-001	 1.840501196031603e+000	 6.463245445821799e+000
 5.873172693296928e-001	 1.846338180046400e+000	 6.300272339340066e+000
 5.692606293320324e-001	 1.851985039314165e+000	 6.140775856439207e+000
 5.511936201973806e-001	 1.857442285242855e+000	 5.986040048909461e+000
 5.331190412740930e-001	 1.862710481473559e+000	 5.837274993609444e+000
 7.154840917377342e-001	 1.807276010178945e+000	 7.156952501510792e+000
 6.975225403872635e-001	 1.814283982219169e+000	 7.062229574928874e+000
 6.795303170883489e-001	 1.821099286319134e+000	 6.955146024821167e+000
 6.615103742778282e-001	 1.827722103381066e+000	 6.836454474030566e+000
 6.434656475877669e-001	 1.834152671625737e+000	 6.706895217427404e+000
 6.253990545341229e-001	 1.840391285851888e+000	 6.567194883128352e+000
 6.073134932363734e-001	 1.846438296662278e+000	 6.376181887476860e+000
 5.892118411689731e-001	 1.852294109657712e+000	 6.183002797729831e+000
 5.710969539454771e-001	 1.857959184600390e+000	 5.990063189757390e+000
 5.529716641360853e-001	 1.863434034547977e+000	 5.798674498879480e+000
 5.348387801193099e-001	 1.868719224959758e+000	 5.610076318675506e+000
 7.177846836734038e-001	 1.813087187058879e+000	 7.173705368888916e+000
 6.997653781388458e-001	 1.820117692771632e+000	 7.069450527845886e+000
 6.817153020321675e-001	 1.826954911032984e+000	 6.949316165417769e+000
 6.636374172835737e-001	 1.833599023326843e+000	 6.814054851990928e+000
 6.455346689644602e-001	 1.840050268639965e+000	 6.664409954214633e+000
 6.274099839718667e-001	 1.846308942718994e+000	 6.501114241736717e+000
 6.092662697439817e-001	 1.852375397294032e+000	 6.287878698576080e+000
 5.911064130075912e-001	 1.858250039270067e+000	 6.064104816062439e+000
 5.729332785582865e-001	 1.863933329887636e+000	 5.837361575138103e+000
 5.547497080742107e-001	 1.869425783854104e+000	 5.608987904601999e+000
 5.365585189640330e-001	 1.874727968446956e+000	 5.380253002527051e+000
 7.200852756090630e-001	 1.818898363940308e+000	 7.191871681140006e+000
 7.020082158902331e-001	 1.825951403325494e+000	 7.077600057092925e+000
 6.839002869756374e-001	 1.832810535748150e+000	 6.943954914843604e+000
 6.657644602888467e-001	 1.839475943273862e+000	 6.791688895224292e+000
 6.476036903405890e-001	 1.845947865655368e+000	 6.621548541809934e+000
 6.294209134089830e-001	 1.852226599587222e+000	 6.434272853251025e+000
 6.112190462509306e-001	 1.858312497926864e+000	 6.198371327820437e+000
 5.930009848455464e-001	 1.864205968883466e+000	 5.943615552333080e+000
 5.747696031704601e-001	 1.869907475175900e+000	 5.682709669051919e+000
 5.565277520117572e-001	 1.875417533161237e+000	 5.443161019737262e+000
 5.382782578082624e-001	 1.880736711935155e+000	 5.505672664015049e+000
 7.223858675447119e-001	 1.824709540823232e+000	 7.211459380342904e+000
 7.042510536414258e-001	 1.831785113880757e+000	 7.086689624896687e+000
 6.860852719187589e-001	 1.838666160464632e+000	 6.939077033163536e+000
 6.678915032936482e-001	 1.845352863222121e+000	 6.769374439509317e+000
 6.496727117161528e-001	 1.851845462671948e+000	 6.578331669896159e+000
 6.314318428454723e-001	 1.858144256456572e+000	 6.366694039889584e+000
 6.131718227572198e-001	 1.864249598560775e+000	 6.107694988897109e+000
 5.948955566828398e-001	 1.870161898497909e+000	 5.821571896292694e+000
 5.766059277819982e-001	 1.875881620465184e+000	 5.581472451439018e+000
 5.583057959487243e-001	 1.881409282469373e+000	 5.624245541043099e+000
 5.399979966519981e-001	 1.886745455424354e+000	 5.645930221175811e+000
 7.246864594803506e-001	 1.830520717707651e+000	 7.232476434237341e+000
 7.064938913924233e-001	 1.837618824437419e+000	 7.096730669087211e+000
 6.882702568615318e-001	 1.844521785182428e+000	 6.934697208879474e+000
 6.700185462979780e-001	 1.851229783171621e+000	 6.747129204790308e+000
 6.517417330911522e-001	 1.857743059689705e+000	 6.534779870945481e+000
 6.334427722813345e-001	 1.864061913327045e+000	 6.298400928178003e+000
 6.151245992628494e-001	 1.870186699195763e+000	 6.015884664210353e+000
 5.967901285194702e-001	 1.876117828113396e+000	 5.768188110447722e+000
 5.784422523929012e-001	 1.881855765755488e+000	 5.798042947904121e+000
 5.600838398851123e-001	 1.887401031778515e+000	 5.803420631149534e+000
 5.417177354952401e-001	 1.892754198914553e+000	 5.784089460713743e+000
 7.269870514159791e-001	 1.836331894593564e+000	 7.254930835817450e+000
 7.087367291432263e-001	 1.843452534995482e+000	 7.107734603483483e+000
 6.904552418039560e-001	 1.850377409901540e+000	 6.930830060063109e+000
 6.721455893018360e-001	 1.857106703122362e+000	 6.724970797010130e+000
 6.538107544655871e-001	 1.863640656708638e+000	 6.490913522707016e+000
 6.354537017165691e-001	 1.869979570198640e+000	 6.229416452045481e+000
 6.170773757678191e-001	 1.876123799831830e+000	 5.993415030426772e+000
 5.986847003554388e-001	 1.882073757729927e+000	 6.017074806231528e+000
 5.802785770031684e-001	 1.887829911046810e+000	 6.012931773808673e+000
 5.618618838209211e-001	 1.893392781088662e+000	 5.980705684665092e+000
 5.434374743379884e-001	 1.898762942405752e+000	 5.920171917802507e+000
 7.292876433515971e-001	 1.842143071480973e+000	 7.278830602933622e+000
 7.109795668938347e-001	 1.849286245554945e+000	 7.119712818272498e+000
 6.926402267460317e-001	 1.856233034621967e+000	 6.927490135466412e+000
 6.742726323052218e-001	 1.862983623074344e+000	 6.702916709908386e+000
 6.558797758394575e-001	 1.869538253728748e+000	 6.446752850647013e+000
 6.374646311511769e-001	 1.875897227071357e+000	 6.215809414740216e+000
 6.190301522721292e-001	 1.882060900468974e+000	 6.271501858296345e+000
 6.005792721907448e-001	 1.888029687347501e+000	 6.264524115886660e+000
 5.821149016128000e-001	 1.893804056339153e+000	 6.226155672164122e+000
 5.636399277561506e-001	 1.899384530399813e+000	 6.156119785497141e+000
 5.451572131802429e-001	 1.904771685897951e+000	 6.054198793585370e+000
 7.315882352872051e-001	 1.847954248369876e+000	 7.304183777901796e+000
 7.132224046442478e-001	 1.855119956115807e+000	 7.132676680380624e+000
 6.948252116877586e-001	 1.862088659343710e+000	 6.924691915611849e+000
 6.763996753081361e-001	 1.868860543027566e+000	 6.680984326785445e+000
 6.579487972127629e-001	 1.875435850750035e+000	 6.429421940796851e+000
 6.394755605851576e-001	 1.881814883945197e+000	 6.515023414317589e+000
 6.209829287757797e-001	 1.887998001107198e+000	 6.548411635259770e+000
 6.024738440253883e-001	 1.893985616966119e+000	 6.510549965721149e+000
 5.839512262217963e-001	 1.899778201632515e+000	 6.437731105858523e+000
 5.654179716908009e-001	 1.905376279711968e+000	 6.329681711736544e+000
 5.468769520220037e-001	 1.910780429391150e+000	 6.186190960427602e+000
 7.338888272228025e-001	 1.853765425260274e+000	 7.330998427119805e+000
 7.154652423944663e-001	 1.860953666678070e+000	 7.146637533838259e+000
 6.970101966291371e-001	 1.867944284066768e+000	 6.922449813861738e+000
 6.785267183105785e-001	 1.874737462982031e+000	 6.659190922233482e+000
 6.600178185855041e-001	 1.881333447772498e+000	 6.751306939395689e+000
 6.414864900185112e-001	 1.887732540820160e+000	 6.813364069983682e+000
 6.229357052787704e-001	 1.893935101746499e+000	 6.824155312297806e+000
 6.043684158593695e-001	 1.899941546585782e+000	 6.755166034297542e+000
 5.857875508301571e-001	 1.905752346926896e+000	 6.647674262047458e+000
 5.671960156248722e-001	 1.911368029025130e+000	 6.501409940451584e+000
 5.485966908632708e-001	 1.916789172885348e+000	 6.316168967069425e+000
 7.361894191583900e-001	 1.859576602152168e+000	 7.359282640691094e+000
 7.177080801444900e-001	 1.866787377241733e+000	 7.161606700137473e+000
 6.991951815701669e-001	 1.873799908791142e+000	 6.920778177467438e+000
 6.806537613125494e-001	 1.880614382937736e+000	 6.984582105532517e+000
 6.620868399576807e-001	 1.887231044796138e+000	 7.072619456199262e+000
 6.434974194512375e-001	 1.893650197696244e+000	 7.110840504237580e+000
 6.248884817811016e-001	 1.899872202386878e+000	 7.098743626728031e+000
 6.062629876926883e-001	 1.905897476206488e+000	 6.998385756303703e+000
 5.876238754378825e-001	 1.911726492222297e+000	 6.856001056461925e+000
 5.689740595583641e-001	 1.917359778339296e+000	 6.671322652391031e+000
 5.503164297040443e-001	 1.922797916380548e+000	 6.444153043682903e+000
 5.331190412740930e-001	 1.862710481473559e+000	 5.837274993609444e+000
 5.150396666869246e-001	 1.867790242962804e+000	 5.673248661793874e+000
 4.969582442618646e-001	 1.872682235040539e+000	 5.491748810493944e+000
 4.788774944869007e-001	 1.877387172444472e+000	 5.439124465111367e+000
 4.608001095095599e-001	 1.881905818331633e+000	 5.496222827421267e+000
 4.427287521706987e-001	 1.886238983269541e+000	 5.520597097105878e+000
 4.246660550752342e-001	 1.890387524208059e+000	 5.512271465132873e+000
 4.066146197000931e-001	 1.894352343433366e+000	 5.471325478379330e+000
 3.885770155396012e-001	 1.898134387505462e+000	 5.397893154884614e+000
 3.705557792884839e-001	 1.901734646180615e+000	 5.292162024082794e+000
 3.525534140625818e-001	 1.905154151320135e+000	 5.154372095454451e+000
 5.348387801193099e-001	 1.868719224959758e+000	 5.610076318675506e+000
 5.167010849687260e-001	 1.873815372776085e+000	 5.405459892055134e+000
 4.985613353743080e-001	 1.878723145473225e+000	 5.418140078817068e+000
 4.804222605998114e-001	 1.883443260094491e+000	 5.476832654845383e+000
 4.622865614771102e-001	 1.887976482258710e+000	 5.508055656082129e+000
 4.441569094368703e-001	 1.892323625148134e+000	 5.511767839861404e+000
 4.260359455762829e-001	 1.896485548476979e+000	 5.487979932432435e+000
 4.079262797641360e-001	 1.900463157442024e+000	 5.436753914243460e+000
 3.898304897834470e-001	 1.904257401656688e+000	 5.358202229766567e+000
 3.717511205118272e-001	 1.907869274069999e+000	 5.252486924989267e+000
 3.536906831396849e-001	 1.911299809871852e+000	 5.119818715802299e+000
 5.365585189640330e-001	 1.874727968446956e+000	 5.380253002527051e+000
 5.183625032501231e-001	 1.879840502590350e+000	 5.435524909523471e+000
 5.001644264864161e-001	 1.884764055906848e+000	 5.485717877987415e+000
 4.819670267124353e-001	 1.889499347745370e+000	 5.513726231379634e+000
 4.637730134444019e-001	 1.894047146186539e+000	 5.519451196228369e+000
 4.455850667027914e-001	 1.898408267027341e+000	 5.502842344261500e+000
 4.274058360770693e-001	 1.902583572746345e+000	 5.463897044339311e+000
 4.092379398278846e-001	 1.906573971450930e+000	 5.402659839007284e+000
 3.910839640269467e-001	 1.910380415807935e+000	 5.319221748470401e+000
 3.729464617347534e-001	 1.914003901959147e+000	 5.213719504903604e+000
 3.548279522162808e-001	 1.917445468423047e+000	 5.086334720120685e+000
 5.382782578082624e-001	 1.880736711935155e+000	 5.505672664015049e+000
 5.200239215311162e-001	 1.885865632405599e+000	 5.537317862180363e+000
 5.017675175981892e-001	 1.890804966341410e+000	 5.552081590579043e+000
 4.835117928247726e-001	 1.895555435397110e+000	 5.549815720143808e+000
 4.652594654114355e-001	 1.900117810115122e+000	 5.530416614356365e+000
 4.470132239684622e-001	 1.904492908907163e+000	 5.493824743750387e+000
 4.287757265775932e-001	 1.908681597016157e+000	 5.440024225640805e+000
 4.105495998913389e-001	 1.912684785460084e+000	 5.369042291545626e+000
 3.923374382701006e-001	 1.916503429959201e+000	 5.280948684889416e+000
 3.741418029572628e-001	 1.920138529848058e+000	 5.175854991697687e+000
 3.559652212923693e-001	 1.923591126973720e+000	 5.053913907095518e+000
 5.399979966519981e-001	 1.886745455424354e+000	 5.645930221175811e+000
 5.216853398117053e-001	 1.891890762221832e+000	 5.637468568386930e+000
 5.033706087096271e-001	 1.896845876776908e+000	 5.617245191395491e+000
 4.850565589368235e-001	 1.901611523049710e+000	 5.585111460217683e+000
 4.667459173782103e-001	 1.906188474044456e+000	 5.540958936755918e+000
 4.484413812338824e-001	 1.910577550787598e+000	 5.484719073459847e+000
 4.301456170778545e-001	 1.914779621286415e+000	 5.416362840474935e+000
 4.118612599544989e-001	 1.918795599469485e+000	 5.335900283533853e+000
 3.935909125129086e-001	 1.922626444110487e+000	 5.243380014975558e+000
 3.753371441793552e-001	 1.926273157736732e+000	 5.138888640391488e+000
 3.571024903679504e-001	 1.929736785523870e+000	 5.022550123507158e+000
 5.417177354952401e-001	 1.892754198914553e+000	 5.784089460713743e+000
 5.233467580918904e-001	 1.897915892039051e+000	 5.735994675923412e+000
 5.049736998207299e-001	 1.902886787213345e+000	 5.681222422242359e+000
 4.866013250485877e-001	 1.907667610703171e+000	 5.619623607288946e+000
 4.682323693447268e-001	 1.912259137974543e+000	 5.551085051735098e+000
 4.498695384990524e-001	 1.916662192668648e+000	 5.475529271770250e+000
 4.315155075778534e-001	 1.920877645557118e+000	 5.392914193293077e+000
 4.131729200173644e-001	 1.924906413479135e+000	 5.303232799879727e+000
 3.948443867553706e-001	 1.928749458261794e+000	 5.206512716706746e+000
 3.765324854010307e-001	 1.932407785625170e+000	 5.102815732722202e+000
 3.582397594430242e-001	 1.935882444073499e+000	 4.992237263466938e+000
 5.434374743379884e-001	 1.898762942405752e+000	 5.920171917802507e+000
 5.250081763716711e-001	 1.903941021857253e+000	 5.832913550297524e+000
 5.065767909314975e-001	 1.908927697650719e+000	 5.744026795614060e+000
 4.881460911600651e-001	 1.913723698357492e+000	 5.653362136554958e+000
 4.697188213109848e-001	 1.918329801905382e+000	 5.560801711804093e+000
 4.512976957639716e-001	 1.922746834550312e+000	 5.466259181841145e+000
 4.328853980775898e-001	 1.926975669828267e+000	 5.369679529804493e+000
 4.144845800799356e-001	 1.931017227489032e+000	 5.271038799146953e+000
 3.960978609974867e-001	 1.934872472413121e+000	 5.170343770055021e+000
 3.777278266222892e-001	 1.938542413513372e+000	 5.067631576721679e+000
 3.593770285175906e-001	 1.942028102622606e+000	 4.962969267668052e+000
 5.451572131802429e-001	 1.904771685897951e+000	 6.054198793585370e+000
 5.266695946510478e-001	 1.909966151676440e+000	 5.928242279196746e+000
 5.081798820419302e-001	 1.914968608089031e+000	 5.805671598310616e+000
 4.896908572712559e-001	 1.919779786012672e+000	 5.686336845569634e+000
 4.712052732769843e-001	 1.924400465836973e+000	 5.570115535816975e+000
 4.527258530286405e-001	 1.928831476432589e+000	 5.456912553113184e+000
 4.342552885770638e-001	 1.933073694099862e+000	 5.346660037902777e+000
 4.157962401422125e-001	 1.937128041499177e+000	 5.239317213970542e+000
 3.973513352392570e-001	 1.940995486564468e+000	 5.134870156954778e+000
 3.789231678431307e-001	 1.944677041401338e+000	 5.033331506301198e+000
 3.605142975916498e-001	 1.948173761171190e+000	 4.934740122651206e+000
 5.468769520220037e-001	 1.910780429391150e+000	 6.186190960427602e+000
 5.283310129300204e-001	 1.915991281496610e+000	 6.021997676856591e+000
 5.097829731520277e-001	 1.921009518528281e+000	 5.866169894986421e+000
 4.912356233821602e-001	 1.925835873668714e+000	 5.718557357036534e+000
 4.726917252427255e-001	 1.930471129769317e+000	 5.579033011072962e+000
 4.541540102930589e-001	 1.934916118315480e+000	 5.447493042781753e+000
 4.356251790762752e-001	 1.939171718371903e+000	 5.323856848574816e+000
 4.171079002041950e-001	 1.943238855509569e+000	 5.208066951464784e+000
 3.986048094806814e-001	 1.947118500715836e+000	 5.100088861272192e+000
 3.801185090635553e-001	 1.950811669289067e+000	 4.999910880845268e+000
 3.616515666652015e-001	 1.954319419719253e+000	 4.907543860083405e+000
 5.485966908632708e-001	 1.916789172885348e+000	 6.316168967069425e+000
 5.299924312085890e-001	 1.922016411317766e+000	 6.114196288346725e+000
 5.113860642617901e-001	 1.927050428968469e+000	 5.925534531632132e+000
 4.927803894927780e-001	 1.931891961325616e+000	 5.750033121549544e+000
 4.741781772082082e-001	 1.936541793702413e+000	 5.587560495378756e+000
 4.555821675572268e-001	 1.941000760198987e+000	 5.438004217242840e+000
 4.369950695752240e-001	 1.945269742644390e+000	 5.301271036793072e+000
 4.184195602658831e-001	 1.949349669520210e+000	 5.177286893623126e+000
 3.998582837217599e-001	 1.953241514867224e+000	 5.065996868774726e+000
 3.813138502835629e-001	 1.956946297176559e+000	 4.967365084811686e+000
 3.627888357382460e-001	 1.960465078266794e+000	 4.881374556050810e+000
 5.503164297040443e-001	 1.922797916380548e+000	 6.444153043682903e+000
 5.316538494867534e-001	 1.928041541139906e+000	 6.204854393776579e+000
 5.129891553712174e-001	 1.933091339409594e+000	 5.983778138991137e+000
 4.943251556031090e-001	 1.937948048983378e+000	 5.780773420282126e+000
 4.756646291734323e-001	 1.942612457636262e+000	 5.595704219071624e+000
 4.570103248211444e-001	 1.947085402083107e+000	 5.428449553511754e+000
 4.383649600739105e-001	 1.951367766917322e+000	 5.278903622390399e+000
 4.197312203272768e-001	 1.955460483531098e+000	 5.146975897710433e+000
 4.011117579624924e-001	 1.959364529018632e+000	 5.032591167101566e+000
 3.825091915031536e-001	 1.963080925063816e+000	 4.935689527340013e+000
 3.639261048107833e-001	 1.966610736813813e+000	 4.856226330364615e+000
 3.525534140625818e-001	 1.905154151320135e+000	 5.154372095454451e+000
 3.345723886573597e-001	 1.908393975786542e+000	 4.983863414665469e+000
 3.166151368442495e-001	 1.911455232329490e+000	 4.820631633855473e+000
 2.986840567046150e-001	 1.914339072462165e+000	 4.664827838600351e+000
 2.807815100013784e-001	 1.917046685328768e+000	 4.516621874301730e+000
 2.629098215881689e-001	 1.919579296565446e+000	 4.376201842734404e+000
 2.450712788557745e-001	 1.921938167155606e+000	 4.243773564060122e+000
 2.272681312156600e-001	 1.924124592280898e+000	 4.119560006472840e+000
 2.095025896202689e-001	 1.926139900169098e+000	 4.003800685665582e+000
 1.917768261197885e-001	 1.927985450940115e+000	 3.896751036333449e+000
 1.740929734550110e-001	 1.929662635451320e+000	 3.798681757937255e+000
 3.536906831396849e-001	 1.911299809871852e+000	 5.119818715802299e+000
 3.356516544263729e-001	 1.914550085385520e+000	 4.958578628638762e+000
 3.176364759942300e-001	 1.917621216950080e+000	 4.804283999212583e+000
 2.996475536603656e-001	 1.920514359793278e+000	 4.657104226392805e+000
 2.816872568062919e-001	 1.923230706895264e+000	 4.517227600002994e+000
 2.637579177851652e-001	 1.925771487845850e+000	 4.384860777478575e+000
 2.458618313664533e-001	 1.928137967696135e+000	 4.260228226091209e+000
 2.280012542177866e-001	 1.930331445805773e+000	 4.143571632936500e+000
 2.101784044237124e-001	 1.932353254687145e+000	 4.035149284906924e+000
 1.923954610410315e-001	 1.934204758847649e+000	 3.935235420893491e+000
 1.746545636903443e-001	 1.935887353631290e+000	 3.844119558469123e+000
 3.548279522162808e-001	 1.917445468423047e+000	 5.086334720120685e+000
 3.367309201947841e-001	 1.920706194983702e+000	 4.934566341614310e+000
 3.186578151435239e-001	 1.923787201569653e+000	 4.789411101073562e+000
 3.006110506153554e-001	 1.926689647123202e+000	 4.651056605604798e+000
 2.825930036103806e-001	 1.929414728460451e+000	 4.519709487913774e+000
 2.646060139812829e-001	 1.931963679124878e+000	 4.395594863096277e+000
 2.466523838762096e-001	 1.934337768235267e+000	 4.278955751092219e+000
 2.287343772189565e-001	 1.936538299329281e+000	 4.170052467028016e+000
 2.108542192261752e-001	 1.938566609203906e+000	 4.069161981703307e+000
 1.930140959612792e-001	 1.940424066754024e+000	 3.976577254491712e+000
 1.752161539246776e-001	 1.942112071810277e+000	 3.892606540941116e+000
 3.559652212923693e-001	 1.923591126973720e+000	 5.053913907095518e+000
 3.378101859625931e-001	 1.926862304581088e+000	 4.911818502209345e+000
 3.196791542921311e-001	 1.929953186188207e+000	 4.776003022181923e+000
 3.015745475695845e-001	 1.932864934451938e+000	 4.646673178109628e+000
 2.834987504136445e-001	 1.935598750024330e+000	 4.524053844850643e+000
 2.654541101765219e-001	 1.938155870402527e+000	 4.408388497973267e+000
 2.474429363850432e-001	 1.940537568773002e+000	 4.299938616456090e+000
 2.294675002191698e-001	 1.942745152851423e+000	 4.198983053399052e+000
 2.115300340276572e-001	 1.944779963719380e+000	 4.105817377028346e+000
 1.936327308805317e-001	 1.946643374659239e+000	 4.020753184298349e+000
 1.757777441580110e-001	 1.948336789988280e+000	 3.944117389403942e+000
 3.571024903679504e-001	 1.929736785523870e+000	 5.022550123507158e+000
 3.388894517297999e-001	 1.933018414177678e+000	 4.890327133334546e+000
 3.207004934400519e-001	 1.936119170805743e+000	 4.764049945864662e+000
 3.025380445230529e-001	 1.939040221779484e+000	 4.643942272733805e+000
 2.844044972160836e-001	 1.941782771586901e+000	 4.530247131021903e+000
 2.663022063708823e-001	 1.944348061678799e+000	 4.423226260381536e+000
 2.482334888929543e-001	 1.946737369309341e+000	 4.323159506003058e+000
 2.302006232184265e-001	 1.948952006372197e+000	 4.230344169703272e+000
 2.122058488281584e-001	 1.950993318233566e+000	 4.145094331456141e+000
 1.942513657987890e-001	 1.952862682563294e+000	 4.067740143695700e+000
 1.763393343903442e-001	 1.954561508165299e+000	 3.998627100733879e+000
 3.582397594430242e-001	 1.935882444073499e+000	 4.992237263466938e+000
 3.399687174964047e-001	 1.939174523773472e+000	 4.870084331014577e+000
 3.217218325872861e-001	 1.942285155422261e+000	 4.753542154436081e+000
 3.035015414757605e-001	 1.945215509105843e+000	 4.642852343242462e+000
 2.853102440176981e-001	 1.947966793148163e+000	 4.538275957592276e+000
 2.671503025643638e-001	 1.950540252953692e+000	 4.440092905624479e+000
 2.490240413999427e-001	 1.952937169844281e+000	 4.348601306703464e+000
 2.309337462167266e-001	 1.955158859891604e+000	 4.264116822897809e+000
 2.128816636276788e-001	 1.957206672746465e+000	 4.186971961041119e+000
 1.948700007160511e-001	 1.959081990466191e+000	 4.117515347735014e+000
 1.769009246216776e-001	 1.960786226341335e+000	 4.056110979667738e+000
 3.593770285175906e-001	 1.942028102622606e+000	 4.962969267668052e+000
 3.410479832624074e-001	 1.945330633368471e+000	 4.851082263231414e+000
 3.227431717338338e-001	 1.948451140037762e+000	 4.744470027631094e+000
 3.044650384277074e-001	 1.951390796431012e+000	 4.643391966362189e+000
 2.862159908184878e-001	 1.954150814708116e+000	 4.548127084295136e+000
 2.679983987569668e-001	 1.956732444227208e+000	 4.458973363235284e+000
 2.498145939060086e-001	 1.959136970377825e+000	 4.376247105463462e+000
 2.316668692140700e-001	 1.961365713409645e+000	 4.300282245615131e+000
 2.135574784262184e-001	 1.963420027258076e+000	 4.231429633274882e+000
 1.954886356323180e-001	 1.965301298367928e+000	 4.170056288679637e+000
 1.774625148520108e-001	 1.967010944516387e+000	 4.116544633931365e+000
 3.605142975916498e-001	 1.948173761171190e+000	 4.934740122651206e+000
 3.421272490278080e-001	 1.951486742962673e+000	 4.833313168789297e+000
 3.237645108796948e-001	 1.954617124652244e+000	 4.736824041069096e+000
 3.054285353788935e-001	 1.957566083754992e+000	 4.645549839841498e+000
 2.871217376184526e-001	 1.960334836266761e+000	 4.559787417088525e+000
 2.688464949486910e-001	 1.962924635499347e+000	 4.479852734229174e+000
 2.506051464111518e-001	 1.965336770909972e+000	 4.406080185972046e+000
 2.323999922104570e-001	 1.967572566926320e+000	 4.338821892603624e+000
 2.142332932237774e-001	 1.969633381768400e+000	 4.278446963121187e+000
 1.961072705475898e-001	 1.971520606268505e+000	 4.225340731633306e+000
 1.780241050813442e-001	 1.973235662690456e+000	 4.179903969460546e+000
 3.616515666652015e-001	 1.954319419719253e+000	 4.907543860083405e+000
 3.432065147926064e-001	 1.957642852556080e+000	 4.816769356201214e+000
 3.247858500248693e-001	 1.960783109265708e+000	 4.730594764745945e+000
 3.063920323293188e-001	 1.963741371077784e+000	 4.649314780548311e+000
 2.880274844175927e-001	 1.966518857824097e+000	 4.573244005856161e+000
 2.696945911395366e-001	 1.969116826770107e+000	 4.502716288406642e+000
 2.513956989153725e-001	 1.971536571440722e+000	 4.438084025605851e+000
 2.331331152058872e-001	 1.973779420441627e+000	 4.379717437234876e+000
 2.149091080203554e-001	 1.975846736277436e+000	 4.328003809123911e+000
 1.967259054618663e-001	 1.977739914167923e+000	 4.283346710249047e+000
 1.785856953096775e-001	 1.979460380863542e+000	 4.246165185712521e+000
 3.627888357382460e-001	 1.960465078266794e+000	 4.881374556050810e+000
 3.442857805568027e-001	 1.963798962148690e+000	 4.801443202596328e+000
 3.258071891693572e-001	 1.966949093878154e+000	 4.725772861554757e+000
 3.073555292789835e-001	 1.969916658399388e+000	 4.654675722602661e+000
 2.889332312159080e-001	 1.972702879380125e+000	 4.588484042151903e+000
 2.705426873295034e-001	 1.975309018039489e+000	 4.527549461708741e+000
 2.521862514186705e-001	 1.977736371970075e+000	 4.472242292394651e+000
 2.338662382003609e-001	 1.979986273955568e+000	 4.422950768077117e+000
 2.155849228159527e-001	 1.982060090785185e+000	 4.380080269589975e+000
 1.973445403751475e-001	 1.983959222066181e+000	 4.344052522520902e+000
 1.791472855370108e-001	 1.985685099035645e+000	 4.315304771064876e+000
 3.639261048107833e-001	 1.966610736813813e+000	 4.856226330364615e+000
 3.453650463203969e-001	 1.969955071740505e+000	 4.787327152647770e+000
 3.268285283131587e-001	 1.973115078489582e+000	 4.722349085834633e+000
 3.083190262278874e-001	 1.976091945719802e+000	 4.661621715544519e+000
 2.898389780133987e-001	 1.978886900934845e+000	 4.605494856985602e+000
 2.713907835185916e-001	 1.981501209307495e+000	 4.554337853620563e+000
 2.529768039210459e-001	 1.983936172498030e+000	 4.508538842040832e+000
 2.345993611938780e-001	 1.986193127468142e+000	 4.468503985533054e+000
 2.162607376105693e-001	 1.988273445291647e+000	 4.434656678842666e+000
 1.979631752874336e-001	 1.990178529963280e+000	 4.407436726653347e+000
 1.797088757633442e-001	 1.991909817206764e+000	 4.387299498301566e+000
 1.740929734550110e-001	 1.929662635451320e+000	 3.798681757937255e+000
 1.564531246852350e-001	 1.931172874143779e+000	 3.741965144204696e+000
 1.388593328527509e-001	 1.932517615889210e+000	 3.657297420388717e+000
 1.213136106820979e-001	 1.933698336839655e+000	 3.545424475811573e+000
 1.038179303122818e-001	 1.934716539281799e+000	 3.407126293717470e+000
 8.637422306339390e-002	 1.935573750495651e+000	 3.243215302584170e+000
 6.898437923640521e-002	 1.936271521619022e+000	 3.054534713657618e+000
 5.165024794553672e-002	 1.936811426518785e+000	 2.841956848178697e+000
 3.437363698258639e-002	 1.937195060669822e+000	 2.606381457681497e+000
 1.715631271256939e-002	 1.937424040042567e+000	 2.348734040659495e+000
 0.000000000000000e+000	 1.937500000000000e+000	 2.069964158802426e+000
 1.746545636903443e-001	 1.935887353631290e+000	 3.844119558469123e+000
 1.569578121827337e-001	 1.937402464061256e+000	 3.792499511166916e+000
 1.393072661831873e-001	 1.938751543683096e+000	 3.709735518052234e+000
 1.217049449089038e-001	 1.939936073410637e+000	 3.596539822081132e+000
 1.041528268606279e-001	 1.940957560376646e+000	 3.453662403166106e+000
 8.665284958851545e-002	 1.941817536787841e+000	 3.281889274005175e+000
 6.920690949128253e-002	 1.942517558785706e+000	 3.082040759214586e+000
 5.181686164803457e-002	 1.943059205314103e+000	 2.854969761402225e+000
 3.448451968215593e-002	 1.943444076994606e+000	 2.601560017739066e+000
 1.721165565661331e-002	 1.943673795010457e+000	 2.322724350496876e+000
 0.000000000000000e+000	 1.943750000000000e+000	 2.019402914926591e+000
 1.752161539246776e-001	 1.942112071810277e+000	 3.892606540941116e+000
 1.574624996792428e-001	 1.943632053977938e+000	 3.845165326078446e+000
 1.397551995126647e-001	 1.944985471476358e+000	 3.763408662839767e+000
 1.220962791348020e-001	 1.946173809981141e+000	 3.648015267039024e+000
 1.044877234081374e-001	 1.947198581471142e+000	 3.499705222284509e+000
 8.693147611289151e-002	 1.948061323079790e+000	 3.319238220474866e+000
 6.942943974552504e-002	 1.948763595952237e+000	 3.107411782683680e+000
 5.198347535002777e-002	 1.949306984109335e+000	 2.865059464242636e+000
 3.459540238137011e-002	 1.949693093319352e+000	 2.593049047755367e+000
 1.726699860047019e-002	 1.949923549978337e+000	 2.292280727683702e+000
 0.000000000000000e+000	 1.950000000000000e+000	 1.963685290049832e+000
 1.757777441580110e-001	 1.948336789988280e+000	 3.944117389403942e+000
 1.579671871747621e-001	 1.949861643893827e+000	 3.899945918983242e+000
 1.402031328411834e-001	 1.951219399268994e+000	 3.818308601665489e+000
 1.224876133597924e-001	 1.952411546551168e+000	 3.699850744337869e+000
 1.048226199548104e-001	 1.953439602565290e+000	 3.545262640470607e+000
 8.721010263652208e-002	 1.954305109371496e+000	 3.355277755425793e+000
 6.965196999913277e-002	 1.955009633118613e+000	 3.130670889245249e+000
 5.215008905151630e-002	 1.955554762904480e+000	 2.872256320904302e+000
 3.470628508022898e-002	 1.955942109644059e+000	 2.580885937936273e+000
 1.732234154414003e-002	 1.956173304946208e+000	 2.257447355238964e+000
 0.000000000000000e+000	 1.956250000000000e+000	 1.902862026782331e+000
 1.763393343903442e-001	 1.954561508165299e+000	 3.998627100733879e+000
 1.584718746692918e-001	 1.956091233808921e+000	 3.956824824100079e+000
 1.406510661687431e-001	 1.957453327061006e+000	 3.874427179769516e+000
 1.228789475838751e-001	 1.958649283120718e+000	 3.752046182922278e+000
 1.051575165006468e-001	 1.959680623659089e+000	 3.590342442206823e+000
 8.748872915940718e-002	 1.960548895662962e+000	 3.390023290002277e+000
 6.987450025210573e-002	 1.961255670284835e+000	 3.151840887262004e+000
 5.231670275250017e-002	 1.961802541699539e+000	 2.876590307094940e+000
 3.481716777873248e-002	 1.962191125968728e+000	 2.565107601164973e+000
 1.737768448762282e-002	 1.962423059914069e+000	 2.218267852890034e+000
 0.000000000000000e+000	 1.962500000000000e+000	 1.836983221331285e+000
 1.769009246216776e-001	 1.960786226341335e+000	 4.056110979667738e+000
 1.589765621628318e-001	 1.962320823723222e+000	 4.015785776581629e+000
 1.410989994953440e-001	 1.963687254852391e+000	 3.931756339156864e+000
 1.232702818070501e-001	 1.964887019689792e+000	 3.804601507103957e+000
 1.054924130456467e-001	 1.965921644752537e+000	 3.634952308725050e+000
 8.776735568154678e-002	 1.966792681954186e+000	 3.423490036271621e+000
 7.009703050444389e-002	 1.967501707450903e+000	 3.170944292991123e+000
 5.248331645297937e-002	 1.968050320494512e+000	 2.878091016192078e+000
 3.492805047688067e-002	 1.968440142293359e+000	 2.545750480578808e+000
 1.743302743091857e-002	 1.968672814881921e+000	 2.174785286013387e+000
 0.000000000000000e+000	 1.968750000000000e+000	 1.766098333761169e+000
 1.774625148520108e-001	 1.967010944516387e+000	 4.116544633931365e+000
 1.594812496553821e-001	 1.968550413636729e+000	 4.076812709335751e+000
 1.415469328209861e-001	 1.969921182643153e+000	 3.990288117067369e+000
 1.236616160293173e-001	 1.971124756258388e+000	 3.857516636634524e+000
 1.058273095898101e-001	 1.972162665845637e+000	 3.679099819640034e+000
 8.804598220294091e-002	 1.973036468245168e+000	 3.455693010373508e+000
 7.031956075614729e-002	 1.973747744616817e+000	 3.188003335206247e+000
 5.264993015295393e-002	 1.974298099289397e+000	 2.876787665292206e+000
 3.503893317467351e-002	 1.974689158617952e+000	 2.522850557001328e+000
 1.748837037402728e-002	 1.974922569849763e+000	 2.127042174406323e+000
 0.000000000000000e+000	 1.975000000000000e+000	 1.690256198059407e+000
 1.780241050813442e-001	 1.973235662690456e+000	 4.179903969460546e+000
 1.599859371469427e-001	 1.974780003549442e+000	 4.139889749905121e+000
 1.419948661456693e-001	 1.976155110433288e+000	 4.050014644472265e+000
 1.240529502506767e-001	 1.977362492826507e+000	 3.910791486777400e+000
 1.061622061331369e-001	 1.978403686938388e+000	 3.722792454552926e+000
 8.832460872358953e-002	 1.979280254535908e+000	 3.486647035611125e+000
 7.054209100721588e-002	 1.979993781782576e+000	 3.203039959730618e+000
 5.281654385242381e-002	 1.980545878084197e+000	 2.872709101146439e+000
 3.514981587211102e-002	 1.980938174942506e+000	 2.496443356234638e+000
 1.754371331694894e-002	 1.981172324817596e+000	 2.075080500892172e+000
 0.000000000000000e+000	 1.981250000000000e+000	 1.609505032011326e+000
 1.785856953096775e-001	 1.979460380863542e+000	 4.246165185712521e+000
 1.604906246375137e-001	 1.981009593461361e+000	 4.205001217408038e+000
 1.424427994693937e-001	 1.982389038222799e+000	 4.110928144601480e+000
 1.244442844711285e-001	 1.983600229394150e+000	 3.964425968378872e+000
 1.064971026756272e-001	 1.984644708030789e+000	 3.766037594623311e+000
 8.860323524349266e-002	 1.985524040826406e+000	 3.516366745482189e+000
 7.076462125764969e-002	 1.986239818948182e+000	 3.216075833888079e+000
 5.298315755138904e-002	 1.986793656878910e+000	 2.865883805983389e+000
 3.526069856919318e-002	 1.987187191267022e+000	 2.466563956214082e+000
 1.759905625968357e-002	 1.987422079785419e+000	 2.018941719763271e+000
 0.000000000000000e+000	 1.987500000000000e+000	 1.523892446888899e+000
 1.791472855370108e-001	 1.985685099035645e+000	 4.315304771064876e+000
 1.609953121270949e-001	 1.987239183372485e+000	 4.272131619535189e+000
 1.428907327921592e-001	 1.988622966011684e+000	 4.173020931496985e+000
 1.248356186906725e-001	 1.989837965961315e+000	 4.018419987936699e+000
 1.068319992172809e-001	 1.990885729122841e+000	 3.808842524112111e+000
 8.888186176265032e-002	 1.991767827116663e+000	 3.544866586655065e+000
 7.098715150744872e-002	 1.992485856113633e+000	 3.227132350866226e+000
 5.314977124984961e-002	 1.993041435673537e+000	 2.856339903221957e+000
 3.537158126592001e-002	 1.993436207591500e+000	 2.433246994028059e+000
 1.765439920223115e-002	 1.993671834753232e+000	 1.958666765065131e+000
 0.000000000000000e+000	 1.993750000000000e+000	 1.433465456957266e+000
 1.797088757633442e-001	 1.991909817206764e+000	 4.387299498301566e+000
 1.614999996156865e-001	 1.993468773282817e+000	 4.341265649603240e+000
 1.433386661139658e-001	 1.994856893799945e+000	 4.236285408593999e+000
 1.252269529093088e-001	 1.996075702528003e+000	 4.072773447668983e+000
 1.071668957580981e-001	 1.997126750214544e+000	 3.851214431896053e+000
 8.916048828106252e-002	 1.998011613406678e+000	 3.572160821887106e+000
 7.120968175661298e-002	 1.998731893278930e+000	 3.236230634001549e+000
 5.331638494780550e-002	 1.999289214468078e+000	 2.844105163078818e+000
 3.548246396229150e-002	 1.999685223915940e+000	 2.396526672805410e+000
 1.770974214459169e-002	 1.999921589721037e+000	 1.894296058725409e+000
 0.000000000000000e+000	 2.000000000000000e+000	 1.338270488802900e+000
