label=Stress xy
num_items=180

0:-7.4419105633447391e-02
1:1.9667598465635691e-01
2:2.5348188145379258e-01
3:-7.8662373007191566e-01
4:1.5816219986938587e-01
5:4.8534591491633028e-01
6:-1.3006382041941518e+00
7:1.0006002109091876e-01
8:6.4457744610382361e-01
9:2.2664713155883789e-01
10:1.5403274552875626e-01
11:1.0862092872062477e-01
12:4.5596627192270978e-01
13:2.5753006762129205e-01
14:1.4727958319210580e-01
15:6.1094541052121687e-01
16:2.9549753634015546e-01
17:1.2298936214659818e-01
18:-1.6130821773904345e+00
19:-7.3346477414404698e-02
20:5.9721201565678472e-01
21:-2.1093388670015298e+00
22:-5.6350836600231680e-01
23:3.0117228526233925e-01
24:-2.2507959361806091e+00
25:-9.6350146935402059e-01
26:-1.9276526532090294e-02
27:5.8344823559244907e-01
28:2.4256012416753694e-01
29:6.7944402717814642e-02
30:3.5528265532014552e-01
31:4.5305329556857378e-02
32:-7.2443719333821807e-02
33:8.8448730817604307e-02
34:-1.7614302440250398e-01
35:-2.2802680171852768e-01
36:8.0834525383963449e-02
37:3.5943560697763749e-02
38:1.7169878544218416e-02
39:1.2161354182369315e-01
40:8.3308120051415843e-02
41:6.0061279172704041e-02
42:1.1869957035901839e-01
43:1.0584051366215805e-01
44:9.7469972027139237e-02
45:1.6388863896848807e-02
46:1.3228618564384323e-02
47:4.5671024744389603e-03
48:5.0721752375843948e-02
49:3.1538619735666837e-02
50:1.1225076536011767e-02
51:8.6106157279741163e-02
52:5.4660104717669758e-02
53:2.6454501794122481e-02
54:8.0180067174846298e-02
55:8.7967042785671815e-02
56:9.7218290822739764e-02
57:8.9465622002750309e-03
58:3.6726911481262149e-02
59:6.3886601929682416e-02
60:-1.0825306418892356e-02
61:1.3063450271322869e-02
62:3.3101938087488320e-02
63:8.9491148623918007e-02
64:5.5653370575574901e-02
65:2.5557218553232359e-02
66:6.3660426716384694e-02
67:3.7187182343911350e-02
68:1.1806992281755229e-02
69:3.5660740195338429e-02
70:2.5456493787924361e-02
71:1.3696729975133791e-02
72:-6.7091465876056244e-02
73:-3.0438516033899500e-02
74:-1.9893678467727141e-03
75:-8.4320032473689993e-02
76:-4.6957513937207596e-02
77:-1.6997149876763401e-02
78:-9.0627825945301430e-02
79:-5.5125189310972683e-02
80:-2.6223059973689893e-02
81:7.1327359552452530e-03
82:1.1381199154657276e-02
83:9.5166173727855782e-03
84:-6.8416110023066141e-03
85:-1.3958980222492944e-04
86:1.8914435574393764e-03
87:-1.5894634474477271e-02
88:-7.1268722520108040e-03
89:-1.5880407290958588e-03
90:-8.3110724774024924e-02
91:-5.1330076502956491e-02
92:-2.5517521626553390e-02
93:-5.5122203082872037e-02
94:-3.3005903094895324e-02
95:-1.5486058571073741e-02
96:-2.2644736637218391e-02
97:-1.0800411705736871e-02
98:-2.1809043078988930e-03
99:-1.6197505672084819e-02
100:-7.5590193354730861e-03
101:-1.1351106527505610e-03
102:-9.6521797581005427e-03
103:-4.2672122654200187e-03
104:9.4693622750464815e-04
105:-4.5801605535831109e-04
106:1.3375579573453561e-04
107:2.5984673012019979e-03
108:-1.3310561706069404e-01
109:-2.4605218537350002e-01
110:-2.9788698729759922e-01
111:-6.4042985589722351e-02
112:-1.6859890914193040e-01
113:-2.3690073998525171e-01
114:-3.1197674049567876e-02
115:-1.1552146353883749e-01
116:-1.8844883399903575e-01
117:-2.7238932498642215e-01
118:-1.9724611656927121e-01
119:-1.6062611352632611e-01
120:-2.3156272282116508e-01
121:-1.8023433939476693e-01
122:-1.4736549736808738e-01
123:-1.9895597836763598e-01
124:-1.6845722221967849e-01
125:-1.3635434349696005e-01
126:-2.7480561792964001e-02
127:-9.3858606595897759e-02
128:-1.5817446555614834e-01
129:-1.9885667401194639e-02
130:-5.6046229692759547e-02
131:-9.7363947081676297e-02
132:-5.6475203929436260e-03
133:-1.7132277187145571e-02
134:-4.0993530018732113e-02
135:-1.7054411011425824e-01
136:-1.4749124885331941e-01
137:-1.2044717281375496e-01
138:-1.0354330117900554e-01
139:-8.5211517391787131e-02
140:-7.4748960318926957e-02
141:-4.1709812091101917e-02
142:-2.5056508862810467e-02
143:-2.8132873841853322e-02
144:-2.4577140856001094e+00
145:-9.1952589835422383e-01
146:-4.7694467075412827e-01
147:-2.5449916911278723e+00
148:-1.3498369675631801e+00
149:-9.5028931002099581e-01
150:-2.5444673897302845e+00
151:-1.6943552761905096e+00
152:-1.3069518220518139e+00
153:-2.8846200716355153e-01
154:-4.5157440246998616e-02
155:-4.4691514115241839e-02
156:-7.0654297760410567e-01
157:-3.2678496235688964e-01
158:-1.8920559131688081e-01
159:-1.0216133784286592e+00
160:-5.5888994183580343e-01
161:-3.1842602749900317e-01
162:-2.2890305100792392e+00
163:-1.6404196695644084e+00
164:-1.2975818223531144e+00
165:-1.4165629480583080e+00
166:-1.0964787556055802e+00
167:-9.0159338253998755e-01
168:-4.8068155615483504e-01
169:-4.3217225929017727e-01
170:-3.7047056743030982e-01
171:-1.0309835633940203e+00
172:-5.9586099525320291e-01
173:-3.5429338443963215e-01
174:-7.3688927317319630e-01
175:-4.6289645964990067e-01
176:-3.0826544442693721e-01
177:-3.1687204101283223e-01
178:-2.2902080470111805e-01
179:-1.7542246294126346e-01
