label=Stress xy
num_items=1116

0:-2.4591520430498359e-01
1:1.0794810495034199e-01
2:2.4999992996240900e-01
3:-1.3280100491539391e+00
4:-1.8307179533468187e+00
5:-2.2804324859835368e+00
6:-1.4491992023426883e+00
7:-2.4481278317222972e+00
8:-3.1292582337463215e+00
9:4.0089705873843218e-01
10:7.1704253870846246e-01
11:7.2786812065223483e-01
12:-1.9822194155454858e+00
13:-7.2191934543401659e-01
14:2.5950404658921267e-01
15:-2.7888599523989770e+00
16:-1.3060366612266157e+00
17:-7.5646828204481611e-02
18:5.1513286982644146e-01
19:1.3214231177902200e-01
20:-1.6584345397201177e-04
21:4.0655156322995634e-01
22:1.9785298638174675e-01
23:1.2452776784222687e-01
24:2.2705468122607997e-01
25:2.1279262024021697e-01
26:2.1859487305730782e-01
27:2.3331668352947740e-02
28:5.2044479165716279e-02
29:4.5854656755180002e-02
30:1.2385856262575942e-01
31:1.0476488779430307e-01
32:8.1432545355795319e-02
33:2.0248931720508981e-01
34:1.4544645346051693e-01
35:1.1482888772514806e-01
36:2.8841063511194906e-02
37:8.8300761265019401e-03
38:3.9031332286871162e-03
39:6.6556771267939144e-02
40:4.8252469468233604e-02
41:4.0401785616952818e-02
42:1.0416782527852417e-01
43:8.4850136063677459e-02
44:7.1355638258792778e-02
45:6.4401168027963867e-03
46:8.4562196014926743e-03
47:7.5405449945642068e-03
48:3.7821954749585530e-02
49:3.0590704721577079e-02
50:2.4182718938030080e-02
51:6.3672672338603520e-02
52:4.9961151589174128e-02
53:4.0827936734309962e-02
54:6.1051650442081077e-03
55:4.5377394815564881e-03
56:3.8333957087114071e-03
57:2.1451944905513397e-02
58:1.8603840220345041e-02
59:1.6777593592785304e-02
60:3.7389902229861986e-02
61:3.2515152571147329e-02
62:2.8821037237849286e-02
63:3.6244870160633100e-03
64:3.1238988093617152e-03
65:2.7319058068842219e-03
66:1.5660550161439381e-02
67:1.3330978483815207e-02
68:1.1532003487447831e-02
69:2.6710901070480887e-02
70:2.3006354322557352e-02
71:2.0254405732919447e-02
72:2.5511297118624540e-03
73:2.2423688529715929e-03
74:1.9190139526610703e-03
75:1.0633795763450471e-02
76:9.1117772647323608e-03
77:7.7573637533677889e-03
78:1.8761123933585904e-02
79:1.5992320108581481e-02
80:1.3573320299718642e-02
81:1.6168547975027700e-03
82:9.2365657809033712e-04
83:2.4965888688061163e-04
84:6.6023421013274184e-03
85:3.8830069733062121e-03
86:1.1693453076993929e-03
87:1.1615793107209959e-02
88:7.0769000184374145e-03
89:2.5301533262662400e-03
90:-1.0812267577349082e+00
91:-2.1195777194859335e+00
92:-2.7986168635854516e+00
93:-5.0900446196866056e-01
94:-1.3995659742291253e+00
95:-2.0529594172649270e+00
96:-2.3614695834696131e-01
97:-9.4847972492287125e-01
98:-1.5457881707009606e+00
99:-2.5301349474430386e+00
100:-1.2955024502932984e+00
101:-2.7017795645492604e-01
102:-1.9725989595928102e+00
103:-1.2526527029163008e+00
104:-6.2025740303662047e-01
105:-1.6018957383466914e+00
106:-1.2495684254217976e+00
107:-8.6303502277919608e-01
108:1.9909205972216428e-02
109:1.1336358724616338e-01
110:1.8635160906945197e-01
111:-3.7993556015731844e-01
112:-1.5863925575706744e-01
113:1.8216412556911313e-02
114:-6.4540911238641652e-01
115:-3.5031445834923347e-01
116:-1.2363471703393712e-01
117:1.8344625093635025e-01
118:1.3368957337646326e-01
119:1.1492389674064375e-01
120:5.9131812840196238e-02
121:6.1906836009550915e-02
122:8.0698894535504329e-02
123:-5.6470337213127282e-02
124:-7.5053116239786437e-03
125:4.2502783754306946e-02
126:1.0915039698253746e-01
127:9.0757536314258896e-02
128:7.6526818432569879e-02
129:8.5413046029561498e-02
130:7.4473142894670427e-02
131:6.6617629321985519e-02
132:5.6537924236754987e-02
133:5.5383451789923190e-02
134:5.6235615680916715e-02
135:6.8348999005835465e-02
136:5.5155394714664172e-02
137:4.7175349336500763e-02
138:6.2069475023228154e-02
139:5.4654945527201987e-02
140:5.0881975002286396e-02
141:5.5682612260191514e-02
142:5.2970673141322450e-02
143:5.2328293051673823e-02
144:4.3870881576766489e-02
145:3.7981917801786502e-02
146:3.3413028788547572e-02
147:4.8330123398204243e-02
148:4.2041989048291442e-02
149:3.7394339090649729e-02
150:5.0476374635717615e-02
151:4.4684509549644293e-02
152:4.0853538486363576e-02
153:3.0995512819834852e-02
154:2.7080028783528963e-02
155:2.4211032657138160e-02
156:3.5119276176822700e-02
157:3.1501138063237039e-02
158:2.8830137732213764e-02
159:3.8954590817583915e-02
160:3.5541336958744382e-02
161:3.2975870755113719e-02
162:2.2506873700779473e-02
163:1.9120310661600502e-02
164:1.6161749367980809e-02
165:2.6954096853800045e-02
166:2.2898850277118923e-02
167:1.9358132263182660e-02
168:3.0984808087567147e-02
169:2.6548739014682490e-02
170:2.2713725321736062e-02
171:1.3801232155529478e-02
172:8.3549700416908918e-03
173:2.8829111881303253e-03
174:1.6496197269713853e-02
175:9.8220504226242348e-03
176:3.0739724630611969e-03
177:1.9526134421455371e-02
178:1.1940246016993851e-02
179:4.2322921272900885e-03
180:-2.0588235028707771e-01
181:-7.9847412063136536e-01
182:-1.3170363297157754e+00
183:-1.7245744936353125e-01
184:-5.8834437280135099e-01
185:-9.4893613634549223e-01
186:-1.2502909774540133e-01
187:-4.2138704008980093e-01
188:-6.8118422390672395e-01
189:-1.3994532697110167e+00
190:-1.1707329199057110e+00
191:-8.7823360483537416e-01
192:-1.0208525281874139e+00
193:-9.1491850106306016e-01
194:-7.6533561462008903e-01
195:-7.4602903730787706e-01
196:-7.1748909291591356e-01
197:-6.6543039515175118e-01
198:-6.8674816168666253e-01
199:-4.0555672654093367e-01
200:-1.9125672640593303e-01
201:-6.4772397988277053e-01
202:-4.4563413894685600e-01
203:-2.8122603791748918e-01
204:-6.0506202275135534e-01
205:-4.7031528286974938e-01
206:-3.4404058779050994e-01
207:-1.2075132783062671e-01
208:-5.2503312517697839e-02
209:1.1218834692191506e-02
210:-2.1368606777804128e-01
211:-1.2727922068260825e-01
212:-4.9561884817245890e-02
213:-2.7875398496363452e-01
214:-1.8349980712031633e-01
215:-1.0109878363409534e-01
216:0.0000000000000000e+00
217:0.0000000000000000e+00
218:0.0000000000000000e+00
219:0.0000000000000000e+00
220:0.0000000000000000e+00
221:0.0000000000000000e+00
222:0.0000000000000000e+00
223:0.0000000000000000e+00
224:0.0000000000000000e+00
225:0.0000000000000000e+00
226:0.0000000000000000e+00
227:0.0000000000000000e+00
228:0.0000000000000000e+00
229:0.0000000000000000e+00
230:0.0000000000000000e+00
231:0.0000000000000000e+00
232:0.0000000000000000e+00
233:0.0000000000000000e+00
234:0.0000000000000000e+00
235:0.0000000000000000e+00
236:0.0000000000000000e+00
237:0.0000000000000000e+00
238:0.0000000000000000e+00
239:0.0000000000000000e+00
240:0.0000000000000000e+00
241:0.0000000000000000e+00
242:0.0000000000000000e+00
243:0.0000000000000000e+00
244:0.0000000000000000e+00
245:0.0000000000000000e+00
246:0.0000000000000000e+00
247:0.0000000000000000e+00
248:0.0000000000000000e+00
249:0.0000000000000000e+00
250:0.0000000000000000e+00
251:0.0000000000000000e+00
252:0.0000000000000000e+00
253:0.0000000000000000e+00
254:0.0000000000000000e+00
255:0.0000000000000000e+00
256:0.0000000000000000e+00
257:0.0000000000000000e+00
258:0.0000000000000000e+00
259:0.0000000000000000e+00
260:0.0000000000000000e+00
261:0.0000000000000000e+00
262:0.0000000000000000e+00
263:0.0000000000000000e+00
264:0.0000000000000000e+00
265:0.0000000000000000e+00
266:0.0000000000000000e+00
267:0.0000000000000000e+00
268:0.0000000000000000e+00
269:0.0000000000000000e+00
270:0.0000000000000000e+00
271:0.0000000000000000e+00
272:0.0000000000000000e+00
273:0.0000000000000000e+00
274:0.0000000000000000e+00
275:0.0000000000000000e+00
276:0.0000000000000000e+00
277:0.0000000000000000e+00
278:0.0000000000000000e+00
279:0.0000000000000000e+00
280:0.0000000000000000e+00
281:0.0000000000000000e+00
282:0.0000000000000000e+00
283:0.0000000000000000e+00
284:0.0000000000000000e+00
285:0.0000000000000000e+00
286:0.0000000000000000e+00
287:0.0000000000000000e+00
288:0.0000000000000000e+00
289:0.0000000000000000e+00
290:0.0000000000000000e+00
291:0.0000000000000000e+00
292:0.0000000000000000e+00
293:0.0000000000000000e+00
294:0.0000000000000000e+00
295:0.0000000000000000e+00
296:0.0000000000000000e+00
297:0.0000000000000000e+00
298:0.0000000000000000e+00
299:0.0000000000000000e+00
300:0.0000000000000000e+00
301:0.0000000000000000e+00
302:0.0000000000000000e+00
303:0.0000000000000000e+00
304:0.0000000000000000e+00
305:0.0000000000000000e+00
306:0.0000000000000000e+00
307:0.0000000000000000e+00
308:0.0000000000000000e+00
309:0.0000000000000000e+00
310:0.0000000000000000e+00
311:0.0000000000000000e+00
312:0.0000000000000000e+00
313:0.0000000000000000e+00
314:0.0000000000000000e+00
315:0.0000000000000000e+00
316:0.0000000000000000e+00
317:0.0000000000000000e+00
318:0.0000000000000000e+00
319:0.0000000000000000e+00
320:0.0000000000000000e+00
321:0.0000000000000000e+00
322:0.0000000000000000e+00
323:0.0000000000000000e+00
324:0.0000000000000000e+00
325:0.0000000000000000e+00
326:0.0000000000000000e+00
327:0.0000000000000000e+00
328:0.0000000000000000e+00
329:0.0000000000000000e+00
330:0.0000000000000000e+00
331:0.0000000000000000e+00
332:0.0000000000000000e+00
333:0.0000000000000000e+00
334:0.0000000000000000e+00
335:0.0000000000000000e+00
336:0.0000000000000000e+00
337:0.0000000000000000e+00
338:0.0000000000000000e+00
339:0.0000000000000000e+00
340:0.0000000000000000e+00
341:0.0000000000000000e+00
342:0.0000000000000000e+00
343:0.0000000000000000e+00
344:0.0000000000000000e+00
345:0.0000000000000000e+00
346:0.0000000000000000e+00
347:0.0000000000000000e+00
348:0.0000000000000000e+00
349:0.0000000000000000e+00
350:0.0000000000000000e+00
351:0.0000000000000000e+00
352:0.0000000000000000e+00
353:0.0000000000000000e+00
354:0.0000000000000000e+00
355:0.0000000000000000e+00
356:0.0000000000000000e+00
357:0.0000000000000000e+00
358:0.0000000000000000e+00
359:0.0000000000000000e+00
360:0.0000000000000000e+00
361:0.0000000000000000e+00
362:0.0000000000000000e+00
363:0.0000000000000000e+00
364:0.0000000000000000e+00
365:0.0000000000000000e+00
366:0.0000000000000000e+00
367:0.0000000000000000e+00
368:0.0000000000000000e+00
369:0.0000000000000000e+00
370:0.0000000000000000e+00
371:0.0000000000000000e+00
372:0.0000000000000000e+00
373:0.0000000000000000e+00
374:0.0000000000000000e+00
375:0.0000000000000000e+00
376:0.0000000000000000e+00
377:0.0000000000000000e+00
378:0.0000000000000000e+00
379:0.0000000000000000e+00
380:0.0000000000000000e+00
381:0.0000000000000000e+00
382:0.0000000000000000e+00
383:0.0000000000000000e+00
384:0.0000000000000000e+00
385:0.0000000000000000e+00
386:0.0000000000000000e+00
387:0.0000000000000000e+00
388:0.0000000000000000e+00
389:0.0000000000000000e+00
390:0.0000000000000000e+00
391:0.0000000000000000e+00
392:0.0000000000000000e+00
393:0.0000000000000000e+00
394:0.0000000000000000e+00
395:0.0000000000000000e+00
396:0.0000000000000000e+00
397:0.0000000000000000e+00
398:0.0000000000000000e+00
399:0.0000000000000000e+00
400:0.0000000000000000e+00
401:0.0000000000000000e+00
402:0.0000000000000000e+00
403:0.0000000000000000e+00
404:0.0000000000000000e+00
405:0.0000000000000000e+00
406:0.0000000000000000e+00
407:0.0000000000000000e+00
408:0.0000000000000000e+00
409:0.0000000000000000e+00
410:0.0000000000000000e+00
411:0.0000000000000000e+00
412:0.0000000000000000e+00
413:0.0000000000000000e+00
414:0.0000000000000000e+00
415:0.0000000000000000e+00
416:0.0000000000000000e+00
417:0.0000000000000000e+00
418:0.0000000000000000e+00
419:0.0000000000000000e+00
420:0.0000000000000000e+00
421:0.0000000000000000e+00
422:0.0000000000000000e+00
423:0.0000000000000000e+00
424:0.0000000000000000e+00
425:0.0000000000000000e+00
426:0.0000000000000000e+00
427:0.0000000000000000e+00
428:0.0000000000000000e+00
429:0.0000000000000000e+00
430:0.0000000000000000e+00
431:0.0000000000000000e+00
432:0.0000000000000000e+00
433:0.0000000000000000e+00
434:0.0000000000000000e+00
435:0.0000000000000000e+00
436:0.0000000000000000e+00
437:0.0000000000000000e+00
438:0.0000000000000000e+00
439:0.0000000000000000e+00
440:0.0000000000000000e+00
441:0.0000000000000000e+00
442:0.0000000000000000e+00
443:0.0000000000000000e+00
444:0.0000000000000000e+00
445:0.0000000000000000e+00
446:0.0000000000000000e+00
447:0.0000000000000000e+00
448:0.0000000000000000e+00
449:0.0000000000000000e+00
450:0.0000000000000000e+00
451:0.0000000000000000e+00
452:0.0000000000000000e+00
453:0.0000000000000000e+00
454:0.0000000000000000e+00
455:0.0000000000000000e+00
456:0.0000000000000000e+00
457:0.0000000000000000e+00
458:0.0000000000000000e+00
459:0.0000000000000000e+00
460:0.0000000000000000e+00
461:0.0000000000000000e+00
462:0.0000000000000000e+00
463:0.0000000000000000e+00
464:0.0000000000000000e+00
465:0.0000000000000000e+00
466:0.0000000000000000e+00
467:0.0000000000000000e+00
468:0.0000000000000000e+00
469:0.0000000000000000e+00
470:0.0000000000000000e+00
471:0.0000000000000000e+00
472:0.0000000000000000e+00
473:0.0000000000000000e+00
474:0.0000000000000000e+00
475:0.0000000000000000e+00
476:0.0000000000000000e+00
477:0.0000000000000000e+00
478:0.0000000000000000e+00
479:0.0000000000000000e+00
480:0.0000000000000000e+00
481:0.0000000000000000e+00
482:0.0000000000000000e+00
483:0.0000000000000000e+00
484:0.0000000000000000e+00
485:0.0000000000000000e+00
486:0.0000000000000000e+00
487:0.0000000000000000e+00
488:0.0000000000000000e+00
489:0.0000000000000000e+00
490:0.0000000000000000e+00
491:0.0000000000000000e+00
492:0.0000000000000000e+00
493:0.0000000000000000e+00
494:0.0000000000000000e+00
495:0.0000000000000000e+00
496:0.0000000000000000e+00
497:0.0000000000000000e+00
498:0.0000000000000000e+00
499:0.0000000000000000e+00
500:0.0000000000000000e+00
501:0.0000000000000000e+00
502:0.0000000000000000e+00
503:0.0000000000000000e+00
504:0.0000000000000000e+00
505:0.0000000000000000e+00
506:0.0000000000000000e+00
507:0.0000000000000000e+00
508:0.0000000000000000e+00
509:0.0000000000000000e+00
510:0.0000000000000000e+00
511:0.0000000000000000e+00
512:0.0000000000000000e+00
513:0.0000000000000000e+00
514:0.0000000000000000e+00
515:0.0000000000000000e+00
516:0.0000000000000000e+00
517:0.0000000000000000e+00
518:0.0000000000000000e+00
519:0.0000000000000000e+00
520:0.0000000000000000e+00
521:0.0000000000000000e+00
522:0.0000000000000000e+00
523:0.0000000000000000e+00
524:0.0000000000000000e+00
525:0.0000000000000000e+00
526:0.0000000000000000e+00
527:0.0000000000000000e+00
528:0.0000000000000000e+00
529:0.0000000000000000e+00
530:0.0000000000000000e+00
531:0.0000000000000000e+00
532:0.0000000000000000e+00
533:0.0000000000000000e+00
534:0.0000000000000000e+00
535:0.0000000000000000e+00
536:0.0000000000000000e+00
537:0.0000000000000000e+00
538:0.0000000000000000e+00
539:0.0000000000000000e+00
540:0.0000000000000000e+00
541:0.0000000000000000e+00
542:0.0000000000000000e+00
543:0.0000000000000000e+00
544:0.0000000000000000e+00
545:0.0000000000000000e+00
546:0.0000000000000000e+00
547:0.0000000000000000e+00
548:0.0000000000000000e+00
549:0.0000000000000000e+00
550:0.0000000000000000e+00
551:0.0000000000000000e+00
552:0.0000000000000000e+00
553:0.0000000000000000e+00
554:0.0000000000000000e+00
555:0.0000000000000000e+00
556:0.0000000000000000e+00
557:0.0000000000000000e+00
558:0.0000000000000000e+00
559:0.0000000000000000e+00
560:0.0000000000000000e+00
561:0.0000000000000000e+00
562:0.0000000000000000e+00
563:0.0000000000000000e+00
564:0.0000000000000000e+00
565:0.0000000000000000e+00
566:0.0000000000000000e+00
567:0.0000000000000000e+00
568:0.0000000000000000e+00
569:0.0000000000000000e+00
570:0.0000000000000000e+00
571:0.0000000000000000e+00
572:0.0000000000000000e+00
573:0.0000000000000000e+00
574:0.0000000000000000e+00
575:0.0000000000000000e+00
576:0.0000000000000000e+00
577:0.0000000000000000e+00
578:0.0000000000000000e+00
579:0.0000000000000000e+00
580:0.0000000000000000e+00
581:0.0000000000000000e+00
582:0.0000000000000000e+00
583:0.0000000000000000e+00
584:0.0000000000000000e+00
585:0.0000000000000000e+00
586:0.0000000000000000e+00
587:0.0000000000000000e+00
588:0.0000000000000000e+00
589:0.0000000000000000e+00
590:0.0000000000000000e+00
591:0.0000000000000000e+00
592:0.0000000000000000e+00
593:0.0000000000000000e+00
594:0.0000000000000000e+00
595:0.0000000000000000e+00
596:0.0000000000000000e+00
597:0.0000000000000000e+00
598:0.0000000000000000e+00
599:0.0000000000000000e+00
600:0.0000000000000000e+00
601:0.0000000000000000e+00
602:0.0000000000000000e+00
603:0.0000000000000000e+00
604:0.0000000000000000e+00
605:0.0000000000000000e+00
606:0.0000000000000000e+00
607:0.0000000000000000e+00
608:0.0000000000000000e+00
609:0.0000000000000000e+00
610:0.0000000000000000e+00
611:0.0000000000000000e+00
612:0.0000000000000000e+00
613:0.0000000000000000e+00
614:0.0000000000000000e+00
615:0.0000000000000000e+00
616:0.0000000000000000e+00
617:0.0000000000000000e+00
618:0.0000000000000000e+00
619:0.0000000000000000e+00
620:0.0000000000000000e+00
621:0.0000000000000000e+00
622:0.0000000000000000e+00
623:0.0000000000000000e+00
624:0.0000000000000000e+00
625:0.0000000000000000e+00
626:0.0000000000000000e+00
627:0.0000000000000000e+00
628:0.0000000000000000e+00
629:0.0000000000000000e+00
630:0.0000000000000000e+00
631:0.0000000000000000e+00
632:0.0000000000000000e+00
633:0.0000000000000000e+00
634:0.0000000000000000e+00
635:0.0000000000000000e+00
636:0.0000000000000000e+00
637:0.0000000000000000e+00
638:0.0000000000000000e+00
639:0.0000000000000000e+00
640:0.0000000000000000e+00
641:0.0000000000000000e+00
642:0.0000000000000000e+00
643:0.0000000000000000e+00
644:0.0000000000000000e+00
645:0.0000000000000000e+00
646:0.0000000000000000e+00
647:0.0000000000000000e+00
648:0.0000000000000000e+00
649:0.0000000000000000e+00
650:0.0000000000000000e+00
651:0.0000000000000000e+00
652:0.0000000000000000e+00
653:0.0000000000000000e+00
654:0.0000000000000000e+00
655:0.0000000000000000e+00
656:0.0000000000000000e+00
657:0.0000000000000000e+00
658:0.0000000000000000e+00
659:0.0000000000000000e+00
660:0.0000000000000000e+00
661:0.0000000000000000e+00
662:0.0000000000000000e+00
663:0.0000000000000000e+00
664:0.0000000000000000e+00
665:0.0000000000000000e+00
666:0.0000000000000000e+00
667:0.0000000000000000e+00
668:0.0000000000000000e+00
669:0.0000000000000000e+00
670:0.0000000000000000e+00
671:0.0000000000000000e+00
672:0.0000000000000000e+00
673:0.0000000000000000e+00
674:0.0000000000000000e+00
675:0.0000000000000000e+00
676:0.0000000000000000e+00
677:0.0000000000000000e+00
678:0.0000000000000000e+00
679:0.0000000000000000e+00
680:0.0000000000000000e+00
681:0.0000000000000000e+00
682:0.0000000000000000e+00
683:0.0000000000000000e+00
684:0.0000000000000000e+00
685:0.0000000000000000e+00
686:0.0000000000000000e+00
687:0.0000000000000000e+00
688:0.0000000000000000e+00
689:0.0000000000000000e+00
690:0.0000000000000000e+00
691:0.0000000000000000e+00
692:0.0000000000000000e+00
693:0.0000000000000000e+00
694:0.0000000000000000e+00
695:0.0000000000000000e+00
696:0.0000000000000000e+00
697:0.0000000000000000e+00
698:0.0000000000000000e+00
699:0.0000000000000000e+00
700:0.0000000000000000e+00
701:0.0000000000000000e+00
702:0.0000000000000000e+00
703:0.0000000000000000e+00
704:0.0000000000000000e+00
705:0.0000000000000000e+00
706:0.0000000000000000e+00
707:0.0000000000000000e+00
708:0.0000000000000000e+00
709:0.0000000000000000e+00
710:0.0000000000000000e+00
711:0.0000000000000000e+00
712:0.0000000000000000e+00
713:0.0000000000000000e+00
714:0.0000000000000000e+00
715:0.0000000000000000e+00
716:0.0000000000000000e+00
717:0.0000000000000000e+00
718:0.0000000000000000e+00
719:0.0000000000000000e+00
720:0.0000000000000000e+00
721:0.0000000000000000e+00
722:0.0000000000000000e+00
723:0.0000000000000000e+00
724:0.0000000000000000e+00
725:0.0000000000000000e+00
726:0.0000000000000000e+00
727:0.0000000000000000e+00
728:0.0000000000000000e+00
729:0.0000000000000000e+00
730:0.0000000000000000e+00
731:0.0000000000000000e+00
732:0.0000000000000000e+00
733:0.0000000000000000e+00
734:0.0000000000000000e+00
735:0.0000000000000000e+00
736:0.0000000000000000e+00
737:0.0000000000000000e+00
738:0.0000000000000000e+00
739:0.0000000000000000e+00
740:0.0000000000000000e+00
741:0.0000000000000000e+00
742:0.0000000000000000e+00
743:0.0000000000000000e+00
744:0.0000000000000000e+00
745:0.0000000000000000e+00
746:0.0000000000000000e+00
747:0.0000000000000000e+00
748:0.0000000000000000e+00
749:0.0000000000000000e+00
750:0.0000000000000000e+00
751:0.0000000000000000e+00
752:0.0000000000000000e+00
753:0.0000000000000000e+00
754:0.0000000000000000e+00
755:0.0000000000000000e+00
756:0.0000000000000000e+00
757:0.0000000000000000e+00
758:0.0000000000000000e+00
759:0.0000000000000000e+00
760:0.0000000000000000e+00
761:0.0000000000000000e+00
762:0.0000000000000000e+00
763:0.0000000000000000e+00
764:0.0000000000000000e+00
765:0.0000000000000000e+00
766:0.0000000000000000e+00
767:0.0000000000000000e+00
768:0.0000000000000000e+00
769:0.0000000000000000e+00
770:0.0000000000000000e+00
771:0.0000000000000000e+00
772:0.0000000000000000e+00
773:0.0000000000000000e+00
774:0.0000000000000000e+00
775:0.0000000000000000e+00
776:0.0000000000000000e+00
777:0.0000000000000000e+00
778:0.0000000000000000e+00
779:0.0000000000000000e+00
780:0.0000000000000000e+00
781:0.0000000000000000e+00
782:0.0000000000000000e+00
783:0.0000000000000000e+00
784:0.0000000000000000e+00
785:0.0000000000000000e+00
786:0.0000000000000000e+00
787:0.0000000000000000e+00
788:0.0000000000000000e+00
789:0.0000000000000000e+00
790:0.0000000000000000e+00
791:0.0000000000000000e+00
792:0.0000000000000000e+00
793:0.0000000000000000e+00
794:0.0000000000000000e+00
795:0.0000000000000000e+00
796:0.0000000000000000e+00
797:0.0000000000000000e+00
798:0.0000000000000000e+00
799:0.0000000000000000e+00
800:0.0000000000000000e+00
801:0.0000000000000000e+00
802:0.0000000000000000e+00
803:0.0000000000000000e+00
804:0.0000000000000000e+00
805:0.0000000000000000e+00
806:0.0000000000000000e+00
807:0.0000000000000000e+00
808:0.0000000000000000e+00
809:0.0000000000000000e+00
810:0.0000000000000000e+00
811:0.0000000000000000e+00
812:0.0000000000000000e+00
813:0.0000000000000000e+00
814:0.0000000000000000e+00
815:0.0000000000000000e+00
816:0.0000000000000000e+00
817:0.0000000000000000e+00
818:0.0000000000000000e+00
819:0.0000000000000000e+00
820:0.0000000000000000e+00
821:0.0000000000000000e+00
822:0.0000000000000000e+00
823:0.0000000000000000e+00
824:0.0000000000000000e+00
825:0.0000000000000000e+00
826:0.0000000000000000e+00
827:0.0000000000000000e+00
828:0.0000000000000000e+00
829:0.0000000000000000e+00
830:0.0000000000000000e+00
831:0.0000000000000000e+00
832:0.0000000000000000e+00
833:0.0000000000000000e+00
834:0.0000000000000000e+00
835:0.0000000000000000e+00
836:0.0000000000000000e+00
837:0.0000000000000000e+00
838:0.0000000000000000e+00
839:0.0000000000000000e+00
840:0.0000000000000000e+00
841:0.0000000000000000e+00
842:0.0000000000000000e+00
843:0.0000000000000000e+00
844:0.0000000000000000e+00
845:0.0000000000000000e+00
846:0.0000000000000000e+00
847:0.0000000000000000e+00
848:0.0000000000000000e+00
849:0.0000000000000000e+00
850:0.0000000000000000e+00
851:0.0000000000000000e+00
852:0.0000000000000000e+00
853:0.0000000000000000e+00
854:0.0000000000000000e+00
855:0.0000000000000000e+00
856:0.0000000000000000e+00
857:0.0000000000000000e+00
858:0.0000000000000000e+00
859:0.0000000000000000e+00
860:0.0000000000000000e+00
861:0.0000000000000000e+00
862:0.0000000000000000e+00
863:0.0000000000000000e+00
864:0.0000000000000000e+00
865:0.0000000000000000e+00
866:0.0000000000000000e+00
867:0.0000000000000000e+00
868:0.0000000000000000e+00
869:0.0000000000000000e+00
870:0.0000000000000000e+00
871:0.0000000000000000e+00
872:0.0000000000000000e+00
873:0.0000000000000000e+00
874:0.0000000000000000e+00
875:0.0000000000000000e+00
876:0.0000000000000000e+00
877:0.0000000000000000e+00
878:0.0000000000000000e+00
879:0.0000000000000000e+00
880:0.0000000000000000e+00
881:0.0000000000000000e+00
882:0.0000000000000000e+00
883:0.0000000000000000e+00
884:0.0000000000000000e+00
885:0.0000000000000000e+00
886:0.0000000000000000e+00
887:0.0000000000000000e+00
888:0.0000000000000000e+00
889:0.0000000000000000e+00
890:0.0000000000000000e+00
891:0.0000000000000000e+00
892:0.0000000000000000e+00
893:0.0000000000000000e+00
894:0.0000000000000000e+00
895:0.0000000000000000e+00
896:0.0000000000000000e+00
897:0.0000000000000000e+00
898:0.0000000000000000e+00
899:0.0000000000000000e+00
900:0.0000000000000000e+00
901:0.0000000000000000e+00
902:0.0000000000000000e+00
903:0.0000000000000000e+00
904:0.0000000000000000e+00
905:0.0000000000000000e+00
906:0.0000000000000000e+00
907:0.0000000000000000e+00
908:0.0000000000000000e+00
909:0.0000000000000000e+00
910:0.0000000000000000e+00
911:0.0000000000000000e+00
912:0.0000000000000000e+00
913:0.0000000000000000e+00
914:0.0000000000000000e+00
915:0.0000000000000000e+00
916:0.0000000000000000e+00
917:0.0000000000000000e+00
918:0.0000000000000000e+00
919:0.0000000000000000e+00
920:0.0000000000000000e+00
921:0.0000000000000000e+00
922:0.0000000000000000e+00
923:0.0000000000000000e+00
924:0.0000000000000000e+00
925:0.0000000000000000e+00
926:0.0000000000000000e+00
927:0.0000000000000000e+00
928:0.0000000000000000e+00
929:0.0000000000000000e+00
930:0.0000000000000000e+00
931:0.0000000000000000e+00
932:0.0000000000000000e+00
933:0.0000000000000000e+00
934:0.0000000000000000e+00
935:0.0000000000000000e+00
936:0.0000000000000000e+00
937:0.0000000000000000e+00
938:0.0000000000000000e+00
939:0.0000000000000000e+00
940:0.0000000000000000e+00
941:0.0000000000000000e+00
942:0.0000000000000000e+00
943:0.0000000000000000e+00
944:0.0000000000000000e+00
945:0.0000000000000000e+00
946:0.0000000000000000e+00
947:0.0000000000000000e+00
948:0.0000000000000000e+00
949:0.0000000000000000e+00
950:0.0000000000000000e+00
951:0.0000000000000000e+00
952:0.0000000000000000e+00
953:0.0000000000000000e+00
954:0.0000000000000000e+00
955:0.0000000000000000e+00
956:0.0000000000000000e+00
957:0.0000000000000000e+00
958:0.0000000000000000e+00
959:0.0000000000000000e+00
960:0.0000000000000000e+00
961:0.0000000000000000e+00
962:0.0000000000000000e+00
963:0.0000000000000000e+00
964:0.0000000000000000e+00
965:0.0000000000000000e+00
966:0.0000000000000000e+00
967:0.0000000000000000e+00
968:0.0000000000000000e+00
969:0.0000000000000000e+00
970:0.0000000000000000e+00
971:0.0000000000000000e+00
972:0.0000000000000000e+00
973:0.0000000000000000e+00
974:0.0000000000000000e+00
975:0.0000000000000000e+00
976:0.0000000000000000e+00
977:0.0000000000000000e+00
978:0.0000000000000000e+00
979:0.0000000000000000e+00
980:0.0000000000000000e+00
981:0.0000000000000000e+00
982:0.0000000000000000e+00
983:0.0000000000000000e+00
984:0.0000000000000000e+00
985:0.0000000000000000e+00
986:0.0000000000000000e+00
987:0.0000000000000000e+00
988:0.0000000000000000e+00
989:0.0000000000000000e+00
990:0.0000000000000000e+00
991:0.0000000000000000e+00
992:0.0000000000000000e+00
993:0.0000000000000000e+00
994:0.0000000000000000e+00
995:0.0000000000000000e+00
996:0.0000000000000000e+00
997:0.0000000000000000e+00
998:0.0000000000000000e+00
999:0.0000000000000000e+00
1000:0.0000000000000000e+00
1001:0.0000000000000000e+00
1002:0.0000000000000000e+00
1003:0.0000000000000000e+00
1004:0.0000000000000000e+00
1005:0.0000000000000000e+00
1006:0.0000000000000000e+00
1007:0.0000000000000000e+00
1008:0.0000000000000000e+00
1009:0.0000000000000000e+00
1010:0.0000000000000000e+00
1011:0.0000000000000000e+00
1012:0.0000000000000000e+00
1013:0.0000000000000000e+00
1014:0.0000000000000000e+00
1015:0.0000000000000000e+00
1016:0.0000000000000000e+00
1017:0.0000000000000000e+00
1018:0.0000000000000000e+00
1019:0.0000000000000000e+00
1020:0.0000000000000000e+00
1021:0.0000000000000000e+00
1022:0.0000000000000000e+00
1023:0.0000000000000000e+00
1024:0.0000000000000000e+00
1025:0.0000000000000000e+00
1026:0.0000000000000000e+00
1027:0.0000000000000000e+00
1028:0.0000000000000000e+00
1029:0.0000000000000000e+00
1030:0.0000000000000000e+00
1031:0.0000000000000000e+00
1032:0.0000000000000000e+00
1033:0.0000000000000000e+00
1034:0.0000000000000000e+00
1035:0.0000000000000000e+00
1036:0.0000000000000000e+00
1037:0.0000000000000000e+00
1038:0.0000000000000000e+00
1039:0.0000000000000000e+00
1040:0.0000000000000000e+00
1041:0.0000000000000000e+00
1042:0.0000000000000000e+00
1043:0.0000000000000000e+00
1044:0.0000000000000000e+00
1045:0.0000000000000000e+00
1046:0.0000000000000000e+00
1047:0.0000000000000000e+00
1048:0.0000000000000000e+00
1049:0.0000000000000000e+00
1050:0.0000000000000000e+00
1051:0.0000000000000000e+00
1052:0.0000000000000000e+00
1053:0.0000000000000000e+00
1054:0.0000000000000000e+00
1055:0.0000000000000000e+00
1056:0.0000000000000000e+00
1057:0.0000000000000000e+00
1058:0.0000000000000000e+00
1059:0.0000000000000000e+00
1060:0.0000000000000000e+00
1061:0.0000000000000000e+00
1062:0.0000000000000000e+00
1063:0.0000000000000000e+00
1064:0.0000000000000000e+00
1065:0.0000000000000000e+00
1066:0.0000000000000000e+00
1067:0.0000000000000000e+00
1068:0.0000000000000000e+00
1069:0.0000000000000000e+00
1070:0.0000000000000000e+00
1071:0.0000000000000000e+00
1072:0.0000000000000000e+00
1073:0.0000000000000000e+00
1074:0.0000000000000000e+00
1075:0.0000000000000000e+00
1076:0.0000000000000000e+00
1077:0.0000000000000000e+00
1078:0.0000000000000000e+00
1079:0.0000000000000000e+00
1080:0.0000000000000000e+00
1081:0.0000000000000000e+00
1082:0.0000000000000000e+00
1083:0.0000000000000000e+00
1084:0.0000000000000000e+00
1085:0.0000000000000000e+00
1086:0.0000000000000000e+00
1087:0.0000000000000000e+00
1088:0.0000000000000000e+00
1089:0.0000000000000000e+00
1090:0.0000000000000000e+00
1091:0.0000000000000000e+00
1092:0.0000000000000000e+00
1093:0.0000000000000000e+00
1094:0.0000000000000000e+00
1095:0.0000000000000000e+00
1096:0.0000000000000000e+00
1097:0.0000000000000000e+00
1098:0.0000000000000000e+00
1099:0.0000000000000000e+00
1100:0.0000000000000000e+00
1101:0.0000000000000000e+00
1102:0.0000000000000000e+00
1103:0.0000000000000000e+00
1104:0.0000000000000000e+00
1105:0.0000000000000000e+00
1106:0.0000000000000000e+00
1107:0.0000000000000000e+00
1108:0.0000000000000000e+00
1109:0.0000000000000000e+00
1110:0.0000000000000000e+00
1111:0.0000000000000000e+00
1112:0.0000000000000000e+00
1113:0.0000000000000000e+00
1114:0.0000000000000000e+00
1115:0.0000000000000000e+00
